<?xml version="1.0"?>
<VTKFile type="UnstructuredGrid" version="0.1" byte_order="LittleEndian" header_type="UInt32" compressor="vtkZLibDataCompressor">
  <UnstructuredGrid>
    <Piece NumberOfPoints="819" NumberOfCells="454">
      <PointData>
        <DataArray type="Int32" Name="libmesh_node_id" format="ascii" RangeMin="2316" RangeMax="5735">
          2316 2317 2318 2319 2320 2321
          2322 2323 2324 2325 2326 2327
          2433 2434 2435 2436 2437 2438
          2439 2440 2441 2442 2443 2444
          2598 2599 2600 2601 2602 2603
          2643 2644 2645 2646 2647 2648
          2649 2650 2651 2709 2710 2711
          2712 2713 2714 2715 2716 2717
          2718 2719 2720 2766 2767 2768
          2769 2770 2771 2772 2773 2774
          2775 2776 2777 2808 2809 2810
          2811 2812 2813 2814 2815 2816
          2817 2818 2819 2852 2853 2856
          2857 2860 2861 2970 2971 2973
          2974 2976 2977 2991 2994 2995
          2998 2999 3002 3081 3082 3083
          3084 3085 3086 3087 3088 3089
          3090 3091 3092 3187 3190 3193
          3241 3243 3245 3270 3271 3272
          3312 3313 3314 3315 3316 3317
          3495 3496 3497 3498 3499 3500
          3501 3502 3503 3504 3505 3506
          3765 3766 3767 3768 3769 3770
          3852 3853 3854 4470 4471 4472
          4584 4585 4586 4587 4588 4589
          4635 4636 4637 4638 4639 4640
          4641 4642 4643 4644 4645 4646
          4659 4660 4661 4662 4663 4664
          4722 4723 4724 4782 4783 4784
          4791 4792 4793 4794 4795 4796
          4797 4798 4799 4812 4813 4814
          4815 4816 4817 4818 4819 4820
          4833 4834 4835 4836 4837 4838
          4848 4849 4850 4851 4852 4853
          4896 4897 4898 4899 4900 4901
          4911 4912 4913 4935 4936 4937
          4938 4939 4940 4944 4945 4946
          4947 4948 4949 4950 4951 4952
          4953 4954 4955 4956 4957 4958
          4992 4993 4994 5007 5008 5009
          5010 5011 5012 5013 5014 5015
          5016 5017 5018 5019 5020 5021
          5025 5026 5027 5028 5029 5030
          5040 5041 5042 5043 5044 5045
          5055 5056 5057 5073 5074 5075
          5079 5080 5081 5088 5089 5090
          5094 5095 5096 5103 5104 5105
          5151 5152 5153 5160 5161 5162
          5169 5170 5171 5178 5179 5180
          5187 5188 5189 5202 5203 5204
          5205 5206 5207 5208 5209 5210
          5211 5212 5213 5214 5215 5216
          5217 5218 5219 5220 5221 5222
          5223 5224 5225 5226 5227 5228
          5229 5230 5231 5232 5233 5234
          5235 5236 5237 5238 5239 5240
          5241 5242 5243 5244 5245 5246
          5247 5248 5249 5253 5254 5255
          5256 5257 5258 5259 5260 5261
          5262 5263 5264 5265 5266 5267
          5268 5269 5270 5271 5272 5273
          5274 5275 5276 5280 5281 5282
          5283 5284 5285 5286 5287 5288
          5289 5290 5291 5292 5293 5294
          5295 5296 5297 5298 5299 5300
          5301 5302 5303 5307 5308 5309
          5310 5311 5312 5313 5314 5315
          5316 5317 5318 5319 5320 5321
          5322 5323 5324 5325 5326 5327
          5328 5329 5330 5334 5335 5336
          5337 5338 5339 5340 5341 5342
          5343 5344 5345 5346 5347 5348
          5349 5350 5351 5352 5353 5354
          5355 5356 5357 5358 5359 5360
          5361 5362 5363 5364 5365 5366
          5367 5368 5369 5370 5371 5372
          5373 5374 5375 5376 5377 5378
          5379 5380 5381 5382 5383 5384
          5385 5386 5387 5388 5389 5390
          5391 5392 5393 5394 5395 5396
          5397 5398 5399 5400 5401 5402
          5403 5404 5405 5406 5407 5408
          5409 5410 5411 5412 5413 5414
          5415 5416 5417 5418 5419 5420
          5421 5422 5423 5424 5425 5426
          5427 5428 5429 5430 5431 5432
          5433 5434 5435 5436 5437 5438
          5439 5440 5441 5442 5443 5444
          5445 5446 5447 5448 5449 5450
          5451 5452 5453 5454 5455 5456
          5457 5458 5459 5460 5461 5462
          5463 5464 5465 5466 5467 5468
          5469 5470 5471 5472 5473 5474
          5475 5476 5477 5478 5479 5480
          5481 5482 5483 5484 5485 5486
          5487 5488 5489 5490 5491 5492
          5493 5494 5495 5496 5497 5498
          5499 5500 5501 5502 5503 5504
          5505 5506 5507 5508 5509 5510
          5511 5512 5513 5514 5515 5516
          5517 5518 5519 5520 5521 5522
          5523 5524 5525 5526 5527 5528
          5529 5530 5531 5532 5533 5534
          5535 5536 5537 5538 5539 5540
          5541 5542 5543 5544 5545 5546
          5547 5548 5549 5550 5551 5552
          5553 5554 5555 5556 5557 5558
          5559 5560 5561 5562 5563 5564
          5565 5566 5567 5568 5569 5570
          5571 5572 5573 5574 5575 5576
          5577 5578 5579 5580 5581 5582
          5583 5584 5585 5586 5587 5588
          5589 5590 5591 5592 5593 5594
          5595 5596 5597 5598 5599 5600
          5601 5602 5603 5604 5605 5606
          5607 5608 5609 5610 5611 5612
          5613 5614 5615 5616 5617 5618
          5619 5620 5621 5622 5623 5624
          5625 5626 5627 5628 5629 5630
          5631 5632 5633 5634 5635 5636
          5637 5638 5639 5640 5641 5642
          5643 5644 5645 5646 5647 5648
          5649 5650 5651 5652 5653 5654
          5655 5656 5657 5658 5659 5660
          5661 5662 5663 5664 5665 5666
          5667 5668 5669 5670 5671 5672
          5673 5674 5675 5676 5677 5678
          5679 5680 5681 5682 5683 5684
          5685 5686 5687 5688 5689 5690
          5691 5692 5693 5694 5695 5696
          5697 5698 5699 5700 5701 5702
          5703 5704 5705 5706 5707 5708
          5709 5710 5711 5712 5713 5714
          5715 5716 5717 5718 5719 5720
          5721 5722 5723 5724 5725 5726
          5727 5728 5729 5730 5731 5732
          5733 5734 5735
        </DataArray>
        <DataArray type="Float64" Name="resid_x" format="ascii" RangeMin="-0.020802856326550767" RangeMax="67.60983283583569">
          -0.000549252076432083 0.0009493173472208127 0.0004571107858097889 0.00071165943776208 -0.0013796613241403577 0.0006813425797584927
          -0.0003798796541438776 -0.0006524328499413201 -0.01683822528602974 -0.019980648032976944 -0.01373071603684739 -0.017778369420202722
          -0.00020294801882858593 0.00010983169750300448 0.0015211973507192056 0.0021879607004176016 -0.001180619575351649 -0.00045524748944458793
          -0.0011048768914498908 -0.000732768816388063 -0.011188037018642127 -0.01264253187008979 -0.01998578566325193 -0.02035657394830892
          -0.014762860725559435 -0.010742030832931126 -0.001237995636232725 -0.00022253177560971338 -0.017650274113545805 -0.01722209171673339
          -0.0017525819584509605 -0.001310945428278032 -0.012702731223264152 -0.000033949096792440514 -0.0001551439410683031 -0.00068298099081332
          -0.01528777339087739 -0.0143080121560768 -0.017264904844150664 -0.00012464512868018418 0.0004235110386501262 0.0005966171654185892
          0.0018932361275645349 -0.001358340081242998 -0.0009275458716633267 -0.0019934715399521075 -0.00010806596358570175 -0.010443311202139816
          -0.006570758240840746 -0.012761971166185937 -0.015111685192072954 -0.00005478082825494113 0.001178744668838938 -0.0034902819260489437
          -0.005596070668219433 -0.0013799361313191483 -0.00199811742435152 -0.003966138092254212 -0.0029377910801491325 -0.008316534502610828
          -0.009491722882104092 -0.010645180068473259 -0.014800476905183935 -0.008714017249205952 -0.0044489876446682786 -0.009223346942532906
          -0.00424598649229857 -0.002748288328684012 -0.0020969879897574373 -0.013400846676497657 -0.01164291928401262 -0.015487731910672764
          -0.01030455120964291 0.0003008001892474965 -0.010355014831743503 -0.01552137306867074 -0.013262411411067987 -0.013143697094282203
          -0.011724119485489126 -0.012139885602385547 -0.011286466141989138 -0.008336224851197116 -0.004420768607323211 0.001838892655323221
          -0.005156674901865443 -0.007424401334729325 -0.0052567471647702035 -0.0055193589366346885 -0.0014785901235896404 -0.006170672271267108
          -0.002758140081324356 -0.006179683845020989 -0.0027608891340413777 -0.0074160099553672865 -0.00021999420813345605 0.0002786250862492068
          -0.0055667446412279165 -0.0040414626221529915 -0.000755512926307822 0.00029931774473546113 -0.001775262518471099 -0.010030748108908583
          -0.006172816660855451 -0.01095596139813182 -0.014731034446214819 -0.01658242443938107 -0.019907524626999518 -0.012078499445596691
          -0.0033792794367695222 -0.008932096879160412 -0.005390818552212906 -0.008678902551820578 -0.011316622826708311 -0.010428386152196545
          -0.009354318358439695 -0.0020784619016280814 -0.0017099101070143785 -0.0005304302711941489 -0.01362738276245512 -0.008901202266224928
          -0.009406229643442288 -0.000044352032996464175 0.0005858607521487258 -0.00786458223019082 -0.020802856326550767 -0.00006381073811212445
          0.0008210032484257113 -0.02017307418608638 -0.015228376828517298 -0.0064186697641401835 -0.0055549938147931854 -0.016031250711662892
          -0.010796561856517783 -0.010659171897899555 -0.003304287395597072 -0.002533408637760859 -0.013302280897026009 -0.014843054384665488
          -0.0065670857187054565 -0.012221168595329956 -0.00827811152171698 -0.007107129259976475 -0.00259269539172724 -0.00924687208841668
          -0.006437332264669138 -0.004993372685137665 -0.010770882028300122 -0.008902489825441506 -0.005737882085059098 -0.004033027911366283
          -0.006383178264734779 -0.006280617135860922 -0.00204732358923021 -0.002685799932898192 -0.006781029216256895 -0.008400961325500944
          -0.007675434675708637 -0.007034419584267759 -0.003101003621293952 -0.0034528214963271964 -0.009877300387079124 -0.007958873460282234
          -0.0023576092010326732 -0.00017021631271596505 -0.0033220032086092033 -0.010763007224991128 -0.0038814960930562137 -0.010418976491275878
          -0.009173136404925453 -0.0037097186420195216 -0.006560111783495359 -0.01161672304537209 -0.0011983725382274102 -0.008354072720299754
          -0.008205006161383643 -0.006568564292903645 -0.006375402261412866 0.001392624092260597 -0.003873321137822572 0.0012285570678827185
          -0.008791594310427087 -0.0008331702593222801 -0.006054633328879788 -0.013083898676814698 -0.001936340837190187 -0.012166033942092369
          -0.01227441929512807 -0.0056279092505691075 -0.0010999858771061355 -0.0013782513822708786 -0.00886498380345735 -0.008664989973726556
          -0.009139658225056024 -0.0049829406537060805 -0.0024726956395006994 -0.0015181154255330398 -0.010229712086651688 -0.00849838612225895
          -0.012908778794550102 -0.006852230916796209 -0.000989192532939498 -0.00021558652169151316 -0.010583951415430448 -0.007434287182314314
          -0.008734937604390147 -0.0031593118614692273 -0.0055748184693511504 -0.007652914741239414 -0.011198282438751761 -0.0064668428799876665
          -0.014271231823869357 -0.015198358747124274 -0.011906911779178131 -0.0076056971581577315 -0.0032822585947389626 -0.0009663826426882238
          -0.00021214779475009493 -0.005530824633607878 -0.0014866107143474139 -0.00021600007775113284 0.003005404395470812 -0.00042970130268660256
          0.005150105973116936 -0.00335833363642557 0.0007334853756333359 -0.0074490271955722775 -0.0066125476302749675 -0.004793680311192539
          -0.0014290117555839643 -0.0028578063618578398 -0.002639923457605775 -0.004568760415121886 -0.006315233897885797 -0.0051769039000229
          -0.0020039801740372454 0.0026477161712445962 -0.0009013383172611356 -0.013211507642836295 -0.00969358816685606 -0.0004491517356317587
          -0.0012167414667381138 -0.00703709187677326 -0.00955150581632136 -0.007465908877422933 -0.004735850533185371 -0.0007561440745300629
          -0.003298190788552091 -0.008915433522748373 -0.007760722351406457 -0.002527400113446099 0.0028612331779269695 -0.0005512990129883377
          -0.00694746252246059 -0.001976545083993031 -0.0025065338945395865 -0.011640013283379602 -0.004310681253065773 -0.006770780967164214
          -0.0022086396919487328 -0.0012278075720599801 0.0003842882450371121 0.00017689842324219995 -0.003568488186598273 -0.003378878836126198
          -0.0030970784253323558 0.0017761621937921745 -0.0018273776341839465 -0.003899072718817287 0.0005248274672506881 -0.0037304973665195362
          -0.015666062088724786 -0.003256376567097874 -0.008525362615221965 -0.0045418360266982205 0.00037075364668393007 -0.0026142680255887285
          -0.003930510391786157 0.002080925290756319 -0.0030550580696164786 -0.0054767939081479255 0.0038652888089636406 -0.006763799300156137
          -0.006405171738109061 -0.0034216659484087586 -0.0021391038042590793 -0.008774764095626608 -0.003557535039846016 -0.005669743178778219
          -0.010727538879436338 -0.007214215518843048 -0.011300456037510287 -0.014633079606806376 -0.010314409837690164 -0.016398359981135258
          -0.008958476971899998 0.0014983889770547876 -0.0038143143150843883 0.0002707785384501449 -0.00010025336862540257 -0.0011541278734767957
          -0.00042061775253188216 -0.0009647229226530385 -0.0003361168379534263 0.00016578184511395477 0.00010516827011919361 0.00033165466816242883
          0.00023370693049251656 -0.00035851533467123886 -0.00015162297569304428 -0.0009474604575157031 -0.0004822466407912174 0.00027132842644661537
          0.00024338809884660861 -0.0006475613530891877 -0.00044719810309779007 -0.0010019816707682594 -0.0005602321553705991 0.0002747141022432231
          0.00017677620208189637 -0.0002558736397944017 -0.00011008833533665552 -0.0008813747974745212 -0.0004979520866843501 0.00029199308155369863
          0.00019901045912007476 -0.00012869887141420122 -0.00003265445452704796 -0.0007351958493053701 -0.00041170753214458955 0.000329604409991191
          0.000213995521001209 0.000028168278241480493 0.000015085055832031458 -0.0006560689879684389 -0.0003608176209297653 0.0003722871456730559
          0.00020538005976078466 0.00024285458811768024 0.00010418190506911174 -0.0005167769337930395 -0.0003094804274752505 0.00035544988426750024
          0.0001872073166282462 0.00011141384763035944 0.0000180476273570207 -0.000635823308897443 -0.0006289019459586598 -0.0006190004939661264
          -0.00011171542720411765 0.0004314776954146282 -0.00020893462545501507 -0.0009560995461246335 0.0003149846806920209 -0.0004586508473831685
          -0.0011066837549886799 0.0004387839461656995 -0.000140486080411506 -0.0009158950051091352 0.0004363460904599492 0.0000040530536171701215
          -0.0008044715679833558 0.0004694051635869556 0.0002613207034425358 -0.000625160684929682 0.0004933556530151151 0.0004651231242043252
          -0.0003903368823543474 0.0004795299639894779 0.0003084779113251557 -0.00039859639244355094 -0.0003044692911160496 -0.0001252045950508318
          -0.000028592021521944844 0.0005789466756151995 0.0002535531332714669 -0.000574909116568989 0.0004565692735702953 0.0000012034884715461658
          -0.0007013479604047745 0.000581876922206348 0.0003137659703682516 -0.0007115309151792815 0.0005923796602491649 0.0004912162064059089
          -0.0005050923430900411 0.0006094877240609975 0.0007197258041138355 -0.0003033999093773332 0.0006004680245261795 0.000806210601249191
          -0.00015751174401046342 0.0005799208645065335 0.0006291577929609105 -0.00023987751175269523 0.000410022401013066 0.0003304004407418404
          0.00019874999583002761 0.0008860321832351303 0.0007194228688458537 -0.0001739102216316013 0.000834294261220947 0.0006346226111926256
          -0.00036206270482175285 0.0008952369623962397 0.0008960230021664017 -0.0002388432742730373 0.0008725185329119256 0.0011094364472974405
          -0.0001115324418599073 0.0008298439297860227 0.0012496649147291095 0.00005309964149446955 0.0007830671683617396 0.0012048022050841212
          0.00009955562708441335 0.0007017759426624082 0.0009892390061274625 0.0003286455671300814 0.0010995492443086619 0.0012391346654041513
          0.0005138147446626107 0.0014011589909124211 0.00149511402341318 0.00023044403787864098 0.0013677957065585389 0.0014478397259551912
          0.00009846777329691747 0.0013483340824915757 0.0016841274781569382 0.00023796312511059625 0.0012321354879301083 0.0018052422705903126
          0.0004000293441244196 0.0010767561109510382 0.0018592643324879532 0.00042491938771505033 0.0009371217803852971 0.0016222187791470333
          0.0003703976071847137 0.0007704589171240173 0.0013242143949554475 -0.0008743510555540013 -0.0008526219008082592 0.001234210910698863
          0.0005784302358549098 0.0012789054257922317 0.002745497887657322 0.0009126173529310222 0.0020552111760530067 0.0028541509163790835
          0.0007310103309681182 0.0019883560480984386 0.0023161077496638427 0.0007612144145454636 0.0019107903974546758 0.002458638740133523
          0.0007361004924941739 0.0016733837227285164 0.0025237996269726892 0.000787237470156299 0.0013392210570390972 0.0023752326105288546
          0.0007053324351797841 0.0010159152048760944 0.0018890540528158084 0.0004956308664834097 0.0007044640980691241 0.0014824358057303755
          -0.0009101068558514669 -0.0013993837168015943 0.00030092683050497726 0.0002561791233315347 0.0006806825929768223 0.004849481571328695
          0.0009491107428836187 0.0016170481592681085 0.005319359987149497 0.0012752361293024705 0.0027036143994969564 0.003768518943742194
          0.0012974876276210523 0.0026311484028802568 0.0031783206533351205 0.0012779801864457596 0.0023189016731208767 0.003165304573307992
          0.0010721940756308612 0.0016759079581127878 0.002826282168181038 0.0006669557898622003 0.0008863035310966438 0.0019472704220184767
          0.0003035818715293459 0.00030360370553950133 0.001288918209310097 -0.00105540765147083 -0.0017514232766799864 -0.001564322723467626
          0.0003585533403054342 0.0007075262436391228 0.005942621244434676 0.000647495220420069 0.0008427943050310915 0.00822310094817702
          0.001498510774414541 0.0024920639771046638 0.006041974305654563 0.0020137040788146265 0.003600144266867389 0.004087688482732332
          0.002001860397376376 0.0035377350468390745 0.003947627951131238 0.0014507028753261153 0.002510682226679606 0.0035426477483522234
          0.00040238941933701255 0.0005462801933520112 0.001714927596640159 -0.0004289778608921324 -0.0009015015462718878 0.00040642400371382337
          -0.00007695310541855349 0.00021184428849707615 -0.0007498171575761603 -0.0015702597940077112 -0.0030299275696901162 0.0014202947199315474
          -0.004712386057077467 -0.009878670298355985 -0.00007775921872443803 -0.007858191158879535 -0.016383793928874013 -0.004577420071365523
          -0.008579273628365414 -0.017601455912737762 -0.007243924954366321 -0.007796013144290015 -0.015917897235727452 -0.006746109887092899
          -0.006262238641040696 -0.012753492986472992 -0.004977892364966152 -0.00421618016510017 -0.008524794427477111 -0.003397504898090986
          -0.0023643673012863076 -0.004632205144092794 -0.001980639776282267 -0.00029837713857361337 -0.0004863675475625939 0.00015549768977152212
          0.00030870724876308486 -0.00006086769104030054 -0.00010829110460974789 -0.0003509601043241162 0.00043702157250535834 0.00006751689562278784
          -0.0001449412295322361 0.0004943870735161227 0.0003921477564361453 0.0001010744548146647 0.0005927223543871207 0.0007391604375257543
          0.0003566485613042403 0.0006409925818466888 0.0010217459562689157 0.00047059669801541304 0.0005517041212090845 0.0011028389412270911
          0.0002697956270942825 0.00018884773814598077 0.0008486571124972642 -0.0004523311886224235 -0.0009132661098050221 0.000030500883209327867
          -0.0011902311474738525 -0.0021842674168928156 -0.0011732461716764675 -0.0002998831204550356 -0.0005379851078224362 0.00015348334076037418
          0.0003165175503916373 -0.00009126698316208604 -0.000201436691128265 -0.0004185781857373172 0.00040188373264626875 -0.00007480502535983646
          -0.00018220460258788762 0.00046371716203097435 0.0002536126895513746 0.00010709380967810489 0.0005387220355785871 0.0005757304093236826
          0.0003505198427369294 0.0005713962632611924 0.0007636509506490086 0.00042777616464739765 0.0004939146477624945 0.0006960170365388763
          0.00023678737307264441 0.00019606995758536527 0.0003241214427855965 -0.0003734191089339589 -0.0007647564248092209 -0.0005707455022676555
          -0.0008470928615160744 -0.0015650128899569182 -0.001189840841572476 -0.0003019955173932942 -0.0005770217456948501 0.00014951691865405792
          0.0003042221410680668 -0.00009989832106782615 -0.00022414118481250966 -0.00047934726158160856 0.00038249761945152727 -0.00010423700054928986
          -0.00021352065551383248 0.00043712208539048447 0.00021614506781375553 0.00010732725419870803 0.0005051206452968415 0.0005035651573486177
          0.00033034064875892 0.0005321891284761904 0.0006265029138354805 0.00034598288619136497 0.00045469478981807754 0.0005201565671928421
          0.00013441188085927536 0.00012790408836238498 0.00016514713234982992 -0.0003221773433015329 -0.0007082404881035842 -0.0005702371181310895
          -0.0005405865602057247 -0.0010987165987579317 -0.0008321574782605978 -0.00029575002351833746 -0.0005669413044948612 0.00013923310402574884
          0.0002803935445001571 -0.00008075346611846612 -0.00018493333884350704 -0.00047308133125767426 0.00034946838732707874 -0.00006868780137381236
          -0.00020470214963097533 0.0003955506372221862 0.00021825657549712218 0.00009903809218414494 0.00045392541520428153 0.0004289333759253111
          0.00027212567832712864 0.00047168604654146407 0.0004821699814030467 0.0002526121880634946 0.00037671064876221294 0.00037959534391873717
          0.0000632794640544887 0.00003778490827244241 0.00007670570812834399 -0.00024392518999682977 -0.0006376314553229179 -0.0005047422981832028
          -0.0003044032064813962 -0.0007543251942987439 -0.0005988050784822008 -0.00026261625302836933 -0.0005009856384354805 0.00012159019158275441
          0.00024311730104287221 -0.00004214662836687921 -0.00010451716161696822 -0.0004012029403739348 0.00030025443408376873 -0.00000558143402429323
          -0.00015457396805729218 0.000338286467041371 0.0002212599631690182 0.00008415802817118845 0.0003845788915555204 0.0003605948096403466
          0.00019618679023736263 0.0003889339501039757 0.0003795442089913337 0.0001890818732963595 0.00028300220758481487 0.00031362312067706455
          0.00007569073687463401 -0.000025638471369049398 0.00008882358186212969 -0.00012789870253904212 -0.000538029867239942 -0.0003795139358739874
          -0.00014324730293857613 -0.0005038429687722612 -0.00042153199500560845 -0.00020368084266664255 -0.0003884339977062723 0.00009723664978622537
          0.00019357169364297988 -0.000008095144913511376 -0.00002784557975843427 -0.0002968858921867934 0.00023685898139547135 0.000045352225086503495
          -0.00009634061285268558 0.0002659885141298446 0.00020401155937932458 0.00007376113009982532 0.0002982377922116086 0.00029664594766565244
          0.00014911432388409196 0.00029084147511149183 0.0003119338745243283 0.00018103507032662947 0.00019081834482470583 0.0002825029739295104
          0.00014470837728808306 -0.0000567681736907133 0.00012293810889474344 -0.000018198403592961654 -0.00041984426403907094 -0.00025722734841693295
          -0.000058165674065691064 -0.00032351376135153487 -0.0002959410082254976 -0.00014046451756755118 -0.00026350114690032456 0.00006791415984963578
          0.0001347936305080566 0.000011529443714408671 0.0000193990823120771 -0.00019005314473830026 0.00016359982845060017 0.00006336641103033003
          -0.00004520577637023848 0.00018193002631505806 0.00015831255151255164 0.0000762377938769987 0.00020009071755211494 0.00021528774582968424
          0.00014044639234711553 0.00018742909852420553 0.0002289179968411048 0.0002008459902800297 0.00011040341212442684 0.00021504558753626668
          0.00020726298957285394 -0.00005900013817239369 0.0001057718799604146 0.00005694835300040779 -0.00028870468912423064 -0.00016470902600751458
          -0.00001754690737421072 -0.0001908381089332778 -0.0001940490465592859 -0.0000866069233751432 -0.00015812248368618498 0.00003581671672492348
          0.0000698755435344367 0.000027819360504111046 0.00004955697380992774 -0.00010604996689878021 0.00008409761763061852 0.000057306885167918153
          -0.000014823394021590275 0.00009106755268817324 0.00008713175303398657 0.00006610275776885999 0.00009769960515981779 0.00010023567899608565
          0.00011776712731403904 0.00008774283893764334 0.0000978674679554814 0.00017659126184632612 0.00004629102549280617 0.00007852539574315642
          0.00019608233940893172 -0.000038077671423053516 0.000013410295117921578 0.00008230300848133254 -0.00014718937440072466 -0.00010940915024271192
          0.000008289502002156723 -0.00008662485235788608 -0.00010616284722964053 16.997265161077685 33.80471086659537 33.99474048672647
          67.60983283583569 16.99912161321065 33.80838833179568 33.23011654403715 66.46061507590161 33.2336579678579
          32.25967452532021 64.5196688157358 32.26288708939469 30.890801608430746 61.78182867691426 30.893332603364637
          29.15829787648451 58.31667717471204 29.159570668511925 27.181695544146443 54.36323629025157 27.180850936678947
          25.223358978974613 50.44625424078209 25.219430406303715 23.717781286192135 47.43472598817283 23.71001804111814
          11.577977004955908 23.155308890786714 11.572677920632362
        </DataArray>
        <DataArray type="Float64" Name="resid_y" format="ascii" RangeMin="-6.359194111358999" RangeMax="5.474001308579228">
          0.000018123659750929333 0.0004808276074809992 0.0006930744260566259 0.002145460062815484 -0.00006235416677197181 0.00007501857389375505
          0.0004744603882125796 0.0004736521961828527 -0.008411992680898941 -0.011825604447060892 -0.009348532009463326 -0.0151531178542786
          -0.000014414112322151066 0.000808756729963174 0.0005072365058434881 0.0007163034244429996 -0.0006994728457221109 -0.0006609691797692212
          0.0007610041159322838 -0.0007471071655739351 -0.007133881226345777 -0.009302937933194772 -0.0083896436246697 -0.011356613360432064
          -0.01073889432242171 -0.0096757506104879 -0.0010859356312973682 0.0008474583603196757 -0.007400210720865575 -0.011385304851930563
          -0.004430992398756512 0.00027957753063674595 -0.005447144415802727 -0.0002860378407720521 0.000885506185118845 0.0008286058533683999
          -0.008485315185188379 -0.00569585621961264 -0.006984204766008428 0.000017413396067880726 0.00033098058122282836 0.0003487762959547558
          0.001192718421725178 -0.0006455427598783085 0.00023817543427780835 0.00018203499166875164 -0.0023866185277956545 -0.008418464938934661
          -0.004192425090533067 -0.00945779051429621 -0.013008296441037091 -0.000003332501896338713 0.0003149738452130485 -0.006371468775817166
          -0.00658162370512395 0.00024295262324537312 0.0010426672526213099 -0.007143435567275508 -0.004011813782424691 -0.0035967919866468807
          -0.003055351167391661 -0.00953208116658985 -0.011170045592459876 -0.0015011764901434515 -0.0016373855981082694 -0.007565589837835583
          -0.0014879126572985427 -0.001491092783419412 -0.0012925154708636546 -0.008648354398597295 -0.01089695892844457 -0.010322177710774455
          -0.005959425248267897 -0.0009876513584332336 -0.006894016102147585 -0.016085742372449363 -0.016794346636977597 -0.014680162552105414
          -0.01702999200068271 -0.00909766978966648 -0.013194132640374126 -0.004246229999579132 -0.005223457980681745 -0.0014222121454283698
          -0.004699837509648294 -0.005057062872413448 -0.0037675827255486127 -0.003676684775697353 -0.0014748825013424262 -0.0011763316498852872
          -0.0037008858819707544 -0.004950989692138828 -0.004816547351194342 -0.004579948687160891 0.00039585211206283333 0.0003873324163212871
          -0.006334232473291415 -0.001959216611900863 0.000020721924636868394 -0.00015476967419154886 -0.001846524306031161 -0.0072155302085065084
          -0.005889521051787243 -0.007700040504692446 -0.010934976560451365 -0.011356789075619947 -0.01322098794411769 -0.00968131600012348
          -0.005840439152622702 -0.013466455819180097 -0.008802730974143934 -0.01115144118694622 -0.009658725690286418 -0.006486277719047404
          -0.007982691894259982 -0.0013828923741460025 -0.0012141683786227007 -0.0002352246040134634 -0.008345991800846102 -0.006692252254870927
          -0.0023023076064040138 -0.00009012697821172456 0.000413444544060948 -0.0017177158226882455 -0.005812325654736689 -0.0008125250764714313
          -0.0006183636930408576 -0.003944822132229159 -0.00859643004180631 -0.007548228560188764 -0.006197394801908049 -0.007767756032477313
          -0.0028026124893590146 0.00004401407331491858 -0.00005307033088817678 0.0006596027789866066 -0.010296931545861435 -0.011757108437262532
          -0.002799556454135505 -0.008389518424370426 -0.008003024918506905 -0.005476084358924913 -0.002546720329145963 -0.0073599461536186725
          -0.0007947524184625868 -0.0026760249956534893 -0.000985616427017784 -0.003187031669775381 -0.0028803675721575384 -0.002140395627488155
          -0.0046525747059305705 -0.0014909093690347389 -0.0019628474789426323 0.000661970687567022 -0.004516058045410637 -0.003450487970550385
          -0.0019284451618568413 -0.002501040145921715 -0.0008387114044777141 -0.0025817404604772665 -0.006843265375594855 -0.006091980301387884
          -0.00010758758051514217 -0.00019691321839040293 -0.005403678927735963 -0.012183766115898657 -0.017249651325754345 -0.01476100428072521
          -0.005447389664280745 -0.0034910709428925962 -0.00808626387113745 -0.0028798765036921036 -0.000036612720706442545 -0.006328225996088819
          -0.003772384963004253 -0.00223086391035561 -0.004678109968591498 0.00021672023454989697 0.00007781230514599183 -0.001361084330012384
          0.0001273714473050587 -0.002371230101520204 -0.0014881601212678765 -0.008400469779038338 -0.0030708147275873184 -0.00944143155747039
          -0.006085980746658039 -0.00038780302704196495 -0.0007994055285841326 0.0025570923548652036 -0.007561445935843174 -0.005342180239199419
          -0.012558092003144755 -0.00827029834136131 -0.0034137536191852502 -0.0014970681478809894 -0.007494881990197738 -0.006528628336874467
          -0.004991060829754118 -0.001557745445801926 -0.0011965110441443383 -0.0002141243903683379 -0.0077765192461411725 -0.004727003824352909
          -0.006717268693001127 -0.0007932431066393075 -0.00438518096342326 -0.005497522825437338 -0.0033623051669721404 -0.0031633009841616974
          -0.009455687676919518 -0.003982211269809938 -0.00689634094816622 -0.0033078850516042035 -0.002482226555433481 0.00015499997724073566
          0.000020854955915701467 -0.005165541348205051 -0.0016663352112286228 -0.0000769349443366929 0.0005686423740608113 -0.00014482481635222366
          -0.0017067833363810722 -0.002527397545236801 -0.0030266390113047603 -0.0046728378528906045 -0.0026523811801801994 -0.0003973908567789647
          -0.002359040848601411 0.0007672544123425162 0.001633048765445906 -0.0050148184726653555 -0.003906392120431094 -0.0024681739313351936
          -0.003156132981842086 -0.0019125881373592626 -0.0026845371433517062 -0.004766088656733419 -0.008368217397269125 -0.0005602325756309395
          -0.0009439998591619335 -0.005440478800639109 -0.005059811350142239 -0.004478393505939017 -0.0037127187901615094 -0.0015697125988578444
          -0.0015394012405545165 -0.007340380048443688 -0.0054557995750259235 -0.003764933941369196 -0.00106564538067902 -0.00216635375858943
          -0.006935612377420346 -0.003811192691032847 -0.00413806397444362 -0.005062419887886067 -0.0012500890694720924 -0.004047295311315865
          -0.004516734064559075 -0.004944962521976959 -0.0017785802580754864 -0.0025834705556824177 -0.0022649791913324988 -0.002999195452313308
          -0.004605100158047791 -0.002105679570820966 -0.003317131579150194 -0.004556189890935522 -0.000792029378119119 -0.002455890901090914
          -0.009302908733303597 -0.0030064248947100636 -0.005656529992661939 -0.004462978595791365 -0.00044724758936688733 -0.0016406246492711848
          -0.0046574984315607484 0.0006283616510961501 -0.0015134057790060357 -0.008250750794426942 -0.0013242332834943055 -0.005467020622230312
          -0.002032715532460455 -0.002361998546081767 -0.004355003724572093 -0.002780765843601485 -0.0022085107646583335 -0.0048633363725140155
          -0.00323726775136296 -0.0007548384409131748 -0.006038994348436133 -0.005825585822461274 -0.0021420045627637274 -0.009406000754569821
          -0.008618196326790534 -0.0006979137451869066 -0.0030329692520383034 0.0002989802084332194 -3.179317100686255 0.00008679726931859477
          -6.359194111358999 -0.000003959859761204498 -3.18790562020855 0.000043481243459542185 -2.721855977749706 0.00008696865833934808
          -5.444000007504571 0.0001621442410206786 -2.730268555256414 -0.0001411538917039934 -2.0464422040741193 0.00008231974545092058
          -4.093086897095549 0.00011136264728017764 -2.0538057794669147 -0.000129114614884851 -1.2308718193218802 0.0000343866543834892
          -2.4618475777668594 0.00011485996021098899 -1.2366940098025854 -0.00013118112968329987 -0.35382070211332584 0.00002341018921395155
          -0.707629900939911 0.00012768098225857116 -0.35720744634709883 -0.00009846746768288339 0.5160617156630815 0.000019484836050159826
          1.0322164750185934 0.00004189215606639762 0.5157632359603469 -0.0001055656036643704 1.3251616553863204 0.000014341571644704842
          2.6504831764445846 -0.000006577200217461332 1.328219200979234 -0.00011715347292345912 1.6813788887017431 0.000020620132895943222
          3.362945377336804 0.000029731270434485424 1.6861092714987753 0.00017674843862658385 0.00035064590517830396 0.00037075682338816307
          0.00008953824740109972 0.00024623539541934747 0.0001779554295386898 0.0000361626265026338 0.0001558180124721087 0.0001347020376829544
          -0.00005086869349080203 0.00019158638688743235 0.00014360710141803068 2.6016792870064975e-7 0.00017582995935877532 0.00011037272060254733
          -0.0000504130438325201 0.00013595473596329788 -0.00006657728880032909 -0.0001478092845792478 0.00013397166911593983 -0.00008438441404168273
          -0.00014119835159043248 0.00010294859311626992 0.0000316769541019446 0.0003545654665881859 0.0003149334170631235 0.00022164784070088928
          0.0001696206165897607 0.0002974239826893932 0.00023529224740248544 0.000046413566680891805 0.00016544906124349446 0.0001998542779113599
          0.00006824436695918035 0.0002509507853402093 0.0000887618362841458 0.0000381477228860172 0.00023152500948858679 -0.00001584365812090649
          -0.00009297982097684898 0.00021465850886433213 -0.0001379850261969684 -0.00018433741795598202 0.00021255677949436058 -0.00013414438130651685
          -0.0001278946486636314 0.00016968056322676575 -2.0225559313295782e-7 0.0004548879629782121 0.00042349736870495036 0.0004926191189393858
          0.0002420495122952282 0.0004156488128455038 0.00028828559238158746 0.00024683402202674287 0.0003482763609676809 0.00010044409419451839
          0.0001408552053263623 0.00042144055173576334 0.00015164264817890682 0.000058517480257647136 0.0004335444361039942 0.000021383115878848002
          -0.0001021474151433055 0.0004133652114379771 -0.00008781730089807427 -0.0001435215167500392 0.00038752676102794814 -0.00007563949929928482
          -0.00007797938364850765 0.000299681218758896 0.000012057899193285149 0.00008339680819258177 0.0005516971019785544 0.00017008634473159034
          0.00035223619578728105 0.0006036421397133118 0.000280733505635844 0.00033681029213084024 0.0005246197948673981 0.0002367078198377559
          0.00021767421357710148 0.0007068384116624138 0.00025475108654227085 0.0001515160478244848 0.0007803526304235309 0.00017084936976297094
          0.000009506036765638548 0.0007557533934899885 0.00009684030535739296 -0.000024130698570823395 0.000665956985602123 0.00007538926485251007
          0.00002328680740237843 0.0004915889448792177 0.00008344567054752172 -0.00037135065720095284 0.00003461423442807643 -0.0006470279967545345
          0.00015954985711497116 -0.000022181523030795347 0.00010938334058430144 0.0003906122197898654 0.0006715651727189353 0.0004036353050063113
          0.0002605674821074544 0.0009762040172645037 0.0004664349889389463 0.0003616760353919446 0.0011283915187338955 0.00044703828702585824
          0.0003362578566936669 0.0013070194009370262 0.00045881158953919865 0.00025609774822443754 0.0013132330113501123 0.00044011900704621354
          0.00022263408291012254 0.0011124400419887381 0.00034303177811068064 0.00019091547129956865 0.0007709087054119657 0.00022067796209168655
          -0.0008679091978578413 -0.0018826062141892308 -0.0012218485703252568 -0.0005856404318649311 -0.0014639132402076704 -0.000660075250543013
          -0.00003586485492013125 0.00013052762770726645 0.0003206772406074698 0.0003600777925281129 0.0010025404360138879 0.000546240242508933
          0.0005726188607559912 0.0016483353902621012 0.0007161884062929502 0.0006283336359120817 0.0020494719528412197 0.0009236527619180812
          0.0007223962725495525 0.002220155932594947 0.0010315415468022948 0.0006455309712753987 0.0018971656358017785 0.0008109629431951593
          0.0004069240949027275 0.0011690017264560648 0.00044611655087178903 -0.0013925079756655911 -0.003102366115071753 -0.0022318755879862096
          -0.0015035943121390893 -0.003327477814903723 -0.0014728124863894188 -0.0008898525441010108 -0.001665205605114295 0.0001259434182712127
          -0.00017938250944338208 -0.000021260599868622165 0.000630107382646905 0.00046045943081907126 0.0016265668270332156 0.0009345167246355146
          0.0010678918012310135 0.002935163475994873 0.0016157782842358692 0.0014878677651180006 0.003709423942702461 0.0021135170473636222
          0.001566860493050326 0.0037332501874922652 0.001933965027011153 0.0007086241855356334 0.001790262249962371 0.0008357070157765101
          -0.0019418620893004723 -0.003637259031552542 -0.0021264210939493378 -0.0018572757556927222 -0.0033250543500544794 -0.0015427958993012858
          -0.0021442863844804982 -0.004079702172714583 -0.0013966327529169043 -0.0029557273893559 -0.005431783254287836 -0.0020408327127761083
          -0.0034566588952014143 -0.006268558274109104 -0.002819370935626786 -0.0033005194894206724 -0.005941867784839516 -0.002678615216702873
          -0.002706123895427126 -0.0048071452196998266 -0.0019837818675334518 -0.0014380360272641113 -0.0023747944177254787 -0.0009842183472716926
          -0.0005626544695556124 -0.0008075510976235378 -0.0004643507372363853 1.7382805782173119 -0.00003819385355607885 3.4767321370252127
          0.000025868250759897293 1.7432683488500769 0.000020013517790351543 -0.00005275903703361173 0.0000859182708802253 0.0000596595318904658
          -0.00003111955780493725 0.0001292959941176508 0.00006768918117980305 -0.000009971443807932356 0.00020795161349171365 0.00006087020435424639
          0.000025188733882353098 0.0003121974087940682 0.00005974084713578076 0.0000896049716978542 0.00043740229734723357 0.00010375124363770638
          0.0001683648739665422 0.0005519509784361887 0.00018954991003039545 0.0002070017106641231 0.0005902101960164607 0.0002315360274536271
          -0.00020165969121710425 -0.00026759914397200824 -0.0002736304083352792 1.997757961876697 -0.000002923810448196562 3.995703110908444
          0.00003062049597091221 2.0032269099662123 0.000006798818665942896 -0.0000038678615232878855 0.00008852043867668691 0.00004954957485980849
          0.000023796563735634102 0.00015514330693083833 0.00006782472500233006 0.000046675612864893745 0.00023253212972966508 0.0000506906286875386
          0.000052605182068177214 0.00031632377708779025 0.000043795646561872736 0.00007718131003031647 0.0003925559020694358 0.00009360274011327441
          0.00016351690948157582 0.0004829354060487123 0.00019600361601757044 0.00023550764285595882 0.0004835307495996144 0.0002279372971406568
          0.00005566926284727991 0.00005306123669379659 -0.0000431252408314986 2.2142090973439306 0.0000052058489063977476 4.428615767010326
          0.000042282831557938216 2.219952849898216 -0.00000529178571295752 0.0000036777683065647437 0.00011217587534151363 0.000014456282806052378
          0.000021291932117972756 0.0001871565118696794 0.000021401256533937207 0.00003508717547898166 0.0002679820454333237 0.00003459398992199797
          0.000055989717843818454 0.0003507623894244971 0.00009891346520407573 0.00012775893851224573 0.0004351113500666859 0.00021322371434318033
          0.00026295207031901136 0.0005367204139983262 0.0003361467720652822 0.0003244674818476678 0.0004660523296778907 0.0003325446368447338
          0.00017251922029493105 0.00012239007314418515 0.00006974035818463342 2.389264904187162 0.000009568438251839062 4.778732827865675
          0.00005657997636665524 2.3951438333473334 -0.00001620243546485156 -0.000005156859685384596 0.00013973576538262034 -0.0000034013726247783538
          -0.00000830535459728221 0.0002290928259106595 0.00002907340217583876 0.00002125240612321777 0.00032185497482933867 0.00011317510289857169
          0.00011070786950456712 0.0004168117405864702 0.00025109998094322017 0.00025845427107829 0.0005135091796801827 0.0003830236700225198
          0.0003952217101927946 0.0005810366853233884 0.0004377153427856939 0.00038752832846883356 0.0004438122925459753 0.0003541552983010732
          0.00020783744409713645 0.00013012153072866628 0.00008908047115163686 2.5257461497818943 0.000010728179231422885 5.051699810222125
          0.00007328294829522797 2.531673210295783 -0.000013272258100327505 -0.000004117505915335329 0.0001687205491747168 0.000024114513734185827
          0.000010444262131259485 0.0002736135921430627 0.0001078033470646167 0.00009762761897402772 0.00038184170752908475 0.00024558192977586213
          0.0002548973482029912 0.0004891741056270091 0.00039751304157843725 0.00042043435461719403 0.0005785629980472606 0.000491160780062061
          0.0004963383200204952 0.0005948198187635256 0.0004705268500458937 0.0004024207532880575 0.00041054095968473536 0.0003358126257546057
          0.00019836213655655133 0.00011828901086707866 0.00008938768725641477 2.627030456307015 0.000015879443466149112 5.254270928901811
          0.00008964541736378173 2.6329550613931767 -5.170919714636568e-8 0.000023489909406149145 0.000196655151381675 0.000057439828263783355
          0.00008283642242068456 0.0003151718962499661 0.00016338837179563637 0.00022188279069718098 0.0004378871980579291 0.000301129158116753
          0.00039335735833448404 0.0005518165795934671 0.00042391792555229735 0.0005140792848998821 0.0006223408710491207 0.00048584727538439343
          0.0005201838140487247 0.0005905584646813677 0.0004534180984672176 0.0003879167548380691 0.00037854707825912826 0.0003326068145958483
          0.00019088301359643234 0.0001053185490308417 0.00009952735438617522 2.696475986461687 0.000027560946337157333 5.393160389979904
          0.00010293560325558282 2.702372820526598 -0.000002948915266642871 0.00005529639798496078 0.00021989225224849918 0.000039351716984326046
          0.0001338682033735772 0.00034945389157092777 0.0001211641257025109 0.00027131534944346836 0.00048283894780021264 0.00022624888079048056
          0.00040771623065577467 0.0005980127756794462 0.00032450000168304793 0.00047852249953646286 0.0006485731543789813 0.0003974289125015795
          0.0004649354598884603 0.000580321686156543 0.00041703488081706874 0.00036678639688830783 0.0003544505496273359 0.00035511071389737747
          0.00020413694890769607 0.00009624473036409786 0.00011821815512463862 2.736897025577095 0.00003220316847984961 5.474001308579228
          0.0001116318166340946 2.742765724162683 -0.000025373491609359533 0.000053491965826157895 0.00023504720964462322 -0.000017093850628091545
          0.00010894261999760957 0.0003717674040206731 0.0000293215866284946 0.00020490346142643112 0.0005110484328656462 0.00010923778079419133
          0.0002987299185250869 0.0006248672652803267 0.0002045970030587485 0.0003533036937649614 0.0006614766183513088 0.0003085562280655818
          0.0003705739234509259 0.0005718835788308257 0.0003910184068139644 0.00034266850470288275 0.00034023985870464536 0.0003853878389595937
          0.0002212462887655614 0.00009179104335278743 0.00013630257199130635 1.3750739498804052 -0.000003725180998559452 2.7502580556752823
          0.00005706271505911964 1.3780075895581954 -0.000009337669298448148 -0.00001380295114139507 0.00011994810460747019 -0.0000029775712360180506
          -0.000004687010791482038 0.00018988822866794486 0.00001936399372115538 0.000030514119290891983 0.00026071151219975164 0.00005736583098459036
          0.00007595361222567654 0.000317488672188726 0.00010357126258064842 0.0001224412124694041 0.0003329327921656189 0.00015338016196742021
          0.00017675896933561086 0.0002840022037590706 0.00018698185988574867 0.00021662849494073766 0.00016757755676839736 0.00017110340648954225
          0.0001449043107139879 0.00004542240128040803 0.00005122863282696309
        </DataArray>
        <DataArray type="Float64" Name="resid_z" format="ascii" RangeMin="0" RangeMax="0">
          0 0 0 0 0 0
          0 0 0 0 0 0
          0 0 0 0 0 0
          0 0 0 0 0 0
          0 0 0 0 0 0
          0 0 0 0 0 0
          0 0 0 0 0 0
          0 0 0 0 0 0
          0 0 0 0 0 0
          0 0 0 0 0 0
          0 0 0 0 0 0
          0 0 0 0 0 0
          0 0 0 0 0 0
          0 0 0 0 0 0
          0 0 0 0 0 0
          0 0 0 0 0 0
          0 0 0 0 0 0
          0 0 0 0 0 0
          0 0 0 0 0 0
          0 0 0 0 0 0
          0 0 0 0 0 0
          0 0 0 0 0 0
          0 0 0 0 0 0
          0 0 0 0 0 0
          0 0 0 0 0 0
          0 0 0 0 0 0
          0 0 0 0 0 0
          0 0 0 0 0 0
          0 0 0 0 0 0
          0 0 0 0 0 0
          0 0 0 0 0 0
          0 0 0 0 0 0
          0 0 0 0 0 0
          0 0 0 0 0 0
          0 0 0 0 0 0
          0 0 0 0 0 0
          0 0 0 0 0 0
          0 0 0 0 0 0
          0 0 0 0 0 0
          0 0 0 0 0 0
          0 0 0 0 0 0
          0 0 0 0 0 0
          0 0 0 0 0 0
          0 0 0 0 0 0
          0 0 0 0 0 0
          0 0 0 0 0 0
          0 0 0 0 0 0
          0 0 0 0 0 0
          0 0 0 0 0 0
          0 0 0 0 0 0
          0 0 0 0 0 0
          0 0 0 0 0 0
          0 0 0 0 0 0
          0 0 0 0 0 0
          0 0 0 0 0 0
          0 0 0 0 0 0
          0 0 0 0 0 0
          0 0 0 0 0 0
          0 0 0 0 0 0
          0 0 0 0 0 0
          0 0 0 0 0 0
          0 0 0 0 0 0
          0 0 0 0 0 0
          0 0 0 0 0 0
          0 0 0 0 0 0
          0 0 0 0 0 0
          0 0 0 0 0 0
          0 0 0 0 0 0
          0 0 0 0 0 0
          0 0 0 0 0 0
          0 0 0 0 0 0
          0 0 0 0 0 0
          0 0 0 0 0 0
          0 0 0 0 0 0
          0 0 0 0 0 0
          0 0 0 0 0 0
          0 0 0 0 0 0
          0 0 0 0 0 0
          0 0 0 0 0 0
          0 0 0 0 0 0
          0 0 0 0 0 0
          0 0 0 0 0 0
          0 0 0 0 0 0
          0 0 0 0 0 0
          0 0 0 0 0 0
          0 0 0 0 0 0
          0 0 0 0 0 0
          0 0 0 0 0 0
          0 0 0 0 0 0
          0 0 0 0 0 0
          0 0 0 0 0 0
          0 0 0 0 0 0
          0 0 0 0 0 0
          0 0 0 0 0 0
          0 0 0 0 0 0
          0 0 0 0 0 0
          0 0 0 0 0 0
          0 0 0 0 0 0
          0 0 0 0 0 0
          0 0 0 0 0 0
          0 0 0 0 0 0
          0 0 0 0 0 0
          0 0 0 0 0 0
          0 0 0 0 0 0
          0 0 0 0 0 0
          0 0 0 0 0 0
          0 0 0 0 0 0
          0 0 0 0 0 0
          0 0 0 0 0 0
          0 0 0 0 0 0
          0 0 0 0 0 0
          0 0 0 0 0 0
          0 0 0 0 0 0
          0 0 0 0 0 0
          0 0 0 0 0 0
          0 0 0 0 0 0
          0 0 0 0 0 0
          0 0 0 0 0 0
          0 0 0 0 0 0
          0 0 0 0 0 0
          0 0 0 0 0 0
          0 0 0 0 0 0
          0 0 0 0 0 0
          0 0 0 0 0 0
          0 0 0 0 0 0
          0 0 0 0 0 0
          0 0 0 0 0 0
          0 0 0 0 0 0
          0 0 0 0 0 0
          0 0 0 0 0 0
          0 0 0 0 0 0
          0 0 0 0 0 0
          0 0 0 0 0 0
          0 0 0 0 0 0
          0 0 0 0 0 0
          0 0 0 0 0 0
          0 0 0
        </DataArray>
        <DataArray type="Float64" Name="stress_zz" format="ascii" RangeMin="-2971839.3954625092" RangeMax="2104735.8468338544">
          -257561.87477601148 -470265.98391528043 -450550.02776575997 -488639.3292584978 -260786.56473394964 -478989.47398306336
          -459001.82424632064 -495323.15996304015 -264011.25469188794 -487712.96405084606 -467453.6207268812 -502006.9906675826
          -107670.4408371003 -166029.08622006627 -15637.463297536971 -22910.82813825849 -108451.19657317124 -170871.94757214971
          -15010.221121422226 -27719.51840744146 -109231.95230924217 -175714.8089242332 -14382.97894530748 -32528.208676624436
          37502.772813424635 -148376.26765949116 36479.56579155075 -150610.35936838822 35456.35876967686 -152844.45107728528
          105290.82467286385 231162.0016000357 59366.15106934477 104284.32133406785 227646.50297895123 58807.906490123954
          103277.81799527185 224131.00435786683 58249.66191090313 -24289.316365587874 131898.65546939694 -72199.96609285085
          -171929.97236970122 -24859.31883620056 101173.43374689767 -75135.09713888916 -172920.3611364636 -25429.321306813246
          70448.21202439842 -78070.22818492752 -173910.74990322598 -206857.99345178407 -79054.89316838403 24652.918755084567
          -158600.76734758084 -219603.45053709252 -84686.75905388629 1557.2316908153662 -148146.44202629797 -232348.907622401
          -90318.62493938852 -21538.455373453835 -137692.11670501519 -488696.11095265776 -572562.2988617666 -162016.23266578722
          -489176.6861777583 -569806.7307326739 -166854.3521334151 -489657.26140285877 -567051.1626035811 -171692.47160104298
          14267.90963437011 13370.579755437662 12473.249876505208 -69710.54896961887 -656079.6548433607 -72950.51244054065
          -652735.1510595891 -76190.47591146245 -649390.6472758175 242695.52974109614 346236.55313617765 243164.4637691416
          341607.76635852875 243633.3977971871 336978.9795808799 347037.0529590935 270509.8985084875 324652.4546692945
          271031.4073560166 302267.8563794955 271552.9162035457 -153944.8025410435 -195234.72969724386 -173528.9178344044
          -248032.53425936447 -155023.24203517643 -191278.59624406407 -181036.08216825844 -251346.92185339314 -156101.68152930943
          -187322.4627908843 -188543.24650211266 -254661.30944742175 -134071.77670133865 -133772.54367332984 -133473.31064532103
          316434.7317446051 306873.9965233575 297313.26130210987 320564.48822170764 318248.44524264464 315932.40226358164
          -142147.1245967591 -315948.29483782296 -144869.39864625872 -303541.70243931335 -147591.67269575837 -291135.11004080373
          -290958.83930946933 -456736.389704718 -520696.0785853552 -371037.7928645988 -298992.63783365407 -475032.1295316366
          -529317.927385085 -391251.9439974139 -307026.4363578388 -493327.8693585552 -537939.7761848149 -411466.095130229
          -566487.0106557508 -618453.0263694718 -557425.6042625003 -601485.1831098417 -548364.19786925 -584517.3398502115
          -161145.80817090732 -153222.4558304224 -145299.10348993744 -87513.33590851714 -86865.0174192762 -86216.69893003526
          -381597.50570026087 -248637.42772626816 -393509.6472803163 -252939.81236528629 -405421.78886037157 -257242.19700430435
          -259817.22118653706 -255383.29320486978 -221117.05892155578 -245915.19542368018 -182416.89665657448 -236447.09764249055
          -276568.2713108278 -219093.2753386267 -257615.77394142715 -205622.7744740191 -238663.2765720265 -192152.27360941155
          -66568.23587784183 -58000.5059453585 -49432.77601287517 -502052.96255449625 -502359.56464366725 -502666.1667328382
          205515.97578165546 209811.54327738783 214107.11077312022 -429679.9681330095 -405648.3980496295 -381616.8279662495
          -308093.47208912036 -282262.89921386656 -256432.3263386127 284585.4293123135 303739.84807508264 276552.0342019383
          292168.87417060055 268518.63909156306 280597.9002661185 -407101.93765417236 -398835.7950859178 -390569.6525176634
          -512848.55834277335 -803043.7203172679 -499755.1866526455 -801791.0913318868 -486661.81496251764 -800538.4623465056
          -267276.49481732416 -159318.32477501573 -265004.25511694927 -150022.17574740743 -262732.0154165743 -140726.0267197992
          -473333.5860078897 -413934.31410891237 -452476.2870478211 -403215.92694682005 -431618.9880877526 -392497.53978472773
          22976.52790173469 44623.70136029008 66270.87481884548 181923.78338605052 149864.08092495112 117804.3784638517
          -577143.8475301388 -594325.9710434042 -611508.0945566695 582563.6569652583 500319.4236874852 608004.9543453106
          479031.4119336791 633446.2517253631 457743.4001798728 374323.0999286452 253994.16207261343 366946.2125857962
          250346.2422713764 359569.32524294726 246698.32247013933 288441.62198206584 -61811.34020881219 -44521.209559360956
          318655.04640402825 -56104.875162222495 -31537.725097143022 348868.4708259908 -50398.4101156328 -18554.240634925096
          22497.804608740247 27650.424082434372 32803.0435561285 -382643.7080854629 -725152.3715435198 -367089.82531216944
          -736061.4201418749 -351535.94253887585 -746970.4687402298 -376215.149446575 -363874.1368251342 -359713.1937765176
          -349805.7340541631 -343211.2381064603 -335737.3312831919 -198624.3922371534 -191854.93809701756 -185085.48395688174
          334568.025390801 313075.0564994838 291582.0876081667 -630242.7219796912 -603394.2682841427 -576545.8145885944
          -251615.19709768257 -238290.44727169763 -263574.4127713266 -257720.40418717006 -275533.6284449706 -277150.3611026425
          -330286.5329248732 -329596.68104920397 -328906.82917353476 -388686.06288168964 -387933.8790721288 -387181.69526256796
          -509874.6258703212 -500090.85053132864 -490307.0751923361 -623645.3574134049 -583780.7844671285 -543916.2115208519
          -678502.0892907225 -658910.6509912269 -639319.2126917314 -705151.0629837901 -725753.5756030967 -746356.0882224035
          121270.29217011775 120877.7856925672 120485.27921501662 -14723.003593129 -13654.198170760075 -12585.392748391154
          -275871.5853279411 -273814.7012033546 -271757.81707876804 -824487.9150473918 -820361.0453034886 -816234.1755595853
          -1193862.2424936723 -1187907.9494042564 -1181953.6563148405 -52754.95527317526 -49736.51469061377 -52757.39342577801
          -49623.55343066665 -52759.83157838076 -49510.592170719545 -30891.788529181642 -27965.600501309753 -30848.045974437227
          -28054.60000669118 -30804.30341969281 -28143.599512072607 -964.8472467541933 3517.032740429091 -975.3614933610925
          3558.56081449068 -985.8757399679907 3600.088888552269 24981.518302481414 31277.40366664825 24968.19054832193
          31340.48466295033 24954.86279416245 31403.56565925241 42846.1608822198 49769.00990687201 42820.23283573305
          49821.30510343302 42794.3047892463 49873.60029999404 54113.04945433757 58561.23564110174 54112.19471869682
          58628.03024210643 54111.33998305606 58694.82484311113 47380.343720935685 51400.88987365815 47401.27555872679
          51479.2878794566 47422.2073965179 51557.68588525506 9264.501919495618 17092.951586881012 9202.538395838421
          17128.63017513726 9140.574872181223 17164.308763393503 -49349.273588248005 -49535.129183547455 -49720.984778846905
          -25895.976609713696 -26233.41607067293 -26570.855531632158 5290.548912389677 5247.668560109949 5204.788207830219
          29390.716367888723 29390.438341729176 29390.160315569632 43922.652853254025 43854.17782954559 43785.702805837136
          57987.77578796397 58047.73243878216 58107.68908960033 43679.50313747056 43839.07606044567 43998.648983420775
          -13423.121441590694 -13445.142561679528 -13467.163681768361 -53176.87311495116 -52310.48159215506 -51444.090069358965
          -5136.703593500632 -4495.676470536586 -3854.6493475725365 30360.94951677609 30506.079431260925 30651.209345745756
          48268.544704865664 48476.108269957906 48683.67183505016 56027.65846300246 55999.63655990271 55971.61465680295
          71643.58984151518 71659.84512398098 71676.10040644679 38319.82177694947 38291.666106268785 38263.5104355881
          -55557.62386096217 -56134.86839099847 -56712.11292103477 -1694.671444687885 -4577.866499519947 -7461.061554352005
          12137.09741535479 11196.843145108935 10256.588874863073 52723.95174445123 52595.00386710459 52466.05598975795
          65318.49149336184 65163.484976579835 65008.47845979782 55673.7737086055 55353.92968599948 55034.08566339345
          78848.68325983665 79150.41127721021 79452.13929458379 17883.185438424127 18690.617571564828 19498.04970470552
          -126883.40070619884 -126761.47269935817 -126639.54469251748 -42736.711883701806 -41731.83350448407 -40726.95512526634
          68104.74428609594 67495.27339522672 66885.80250435746 99344.52689245105 99775.18007576815 100205.83325908524
          60772.671829279854 61871.249961311485 62969.828093343116 45816.700929478604 45512.36176007758 45208.022590676555
          76854.26727941731 76616.55037281243 76378.83346620755 -40002.74455993279 -40631.57571152095 -41260.40686310912
          -267549.95664532017 -270131.4726213946 -272712.98859746906 803521.0837210227 801507.741532203 799494.3993433833
          28150.781900132846 32749.844011322028 37348.9061225112 -290913.9474220846 -288565.98892205826 -286218.0304220319
          63720.80658713378 59891.494309100424 56062.182031067096 71968.62772845544 70659.83921853549 69351.05070861554
          11028.833110259751 10404.578504363857 9780.323898467963 88853.70635127177 89661.13842489281 90468.57049851383
          -103062.24762785452 -100574.38229348793 -98086.51695912136 -450321.7088735135 -450117.71373383707 -449913.71859416063
          2104735.8468338544 2093286.945612929 2081838.0443920032 1532317.8084971788 1526853.2222494138 1521388.6360016493
          -424356.7334185459 -416003.8849127904 -407651.03640703484 -404772.60895898787 -403069.21179601375 -401365.8146330396
          340991.02663839445 337194.83018536674 333398.633732339 62813.88796000414 60491.52412165414 58169.16028330413
          42969.93427486918 43948.14300029145 44926.35172571373 -638368.9485377717 -636609.340451539 -634849.7323653064
          -1280105.0690842133 -1282966.0978318157 -1285827.126579418 1804132.8933035303 1797765.6959668663 1791398.4986302024
          1720513.2371325535 1710098.9271270568 1699684.6171215598 -852269.8121399002 -843845.6354831649 -835421.4588264297
          -1885445.5011419586 -1873134.130011605 -1860822.7588812513 -193063.2223679796 -193503.2378018422 -193943.25323570473
          340160.77359052334 334335.7111856476 328510.6487807719 533986.2585650897 534810.1493106736 535634.0400562576
          -352749.8419613467 -352773.6919669311 -352797.5419725155 -1550355.5391188946 -1558477.911936689 -1566600.2847544835
          792323.8858911534 788982.4198088357 785640.953726518 578205.0968581862 567740.970025962 557276.8431937379
          -1557289.9155037326 -1555246.3267431906 -1553202.7379826484 -2971839.3954625092 -2959714.738171398 -2947590.080880286
          -971520.8928399417 -970259.2237969609 -968997.5547539805 536332.2599627472 528070.5889598111 519808.91795687494
          1086752.4018691473 1089293.4267136606 1091834.4515581739 448245.1430466837 452938.4756187683 457631.8081908529
          -1076978.293351514 -1080416.0507912496 -1083853.808230985 -13375.165597895506 -19572.179078389607 -13350.533223910836
          -19569.85689912739 -13325.900849926165 -19567.534719865176 -38335.86751975135 -38163.46905610248 -37991.07059245361
          -71183.20925992166 -71147.94459947631 -71112.67993903093 -119509.04722021968 -118561.47758958265 -117613.9079589456
          -208660.51330754033 -208806.41581164356 -208952.31831574676 -284050.70789092575 -281173.98023972823 -278297.25258853077
          -785362.288553135 -781341.7716198605 -777321.2546865861 -403869.3859285806 -398686.91830988205 -393504.4506911834
          464651.1976811229 475209.75424571394 485768.3108103052 -24471.448728225834 -27747.653875540283 -24453.471853477215
          -27732.054336318433 -24435.494978728602 -27716.454797096583 -37023.39518943762 -36939.44928253362 -36855.50337562962
          -51708.7444678747 -51647.34705631779 -51585.94964476087 -71745.61514500526 -71347.52775192082 -70949.44035883636
          -102980.59757715286 -102887.97787057907 -102795.35816400527 -123107.9886359961 -122016.05295614923 -120924.11727630236
          -343635.2941941979 -342085.40688322985 -340535.5195722617 507072.5479288032 506462.04008176515 505851.53223472706
          1578064.2294180342 1576570.120621736 1575076.0118254377 -36145.35065335471 -39842.345848998484 -36133.28994238101
          -39846.7400480334 -36121.229231407306 -39851.134247068345 -50606.49709177334 -50654.34428723698 -50702.19148270062
          -68027.80123337719 -68176.16039149137 -68324.51954960554 -92967.0883085292 -93220.64482791978 -93474.20134731033
          -127693.71592545109 -128293.29278978694 -128892.86965412278 -187705.38082201406 -188650.64188706066 -189595.90295210722
          -255496.2065427179 -257695.65417046158 -259895.10179820532 341133.75928373786 336838.25358422555 332542.7478847132
          965684.3745705769 960515.6500211818 955346.9254717866 -48446.885484970146 -52137.48445528951 -48442.50795399039
          -52124.821517752214 -48438.130423010625 -52112.15858021492 -62859.167088584836 -62819.07954082285 -62778.99199306086
          -80020.49815080847 -79933.1130757 -79845.72800059157 -102933.04273585175 -102772.61630535164 -102612.18987485155
          -134086.27211139194 -133792.4534137517 -133498.6347161115 -164076.85928429355 -163658.79904600407 -163240.73880771463
          -109359.18264729496 -108398.3202448087 -107437.45784232244 371794.1282441117 374362.6424684927 376931.1566928737
          786610.1075153628 790279.2037026631 793948.2998899634 -60272.24789462945 -64124.69681518397 -60268.01485361738
          -64123.808736205734 -60263.78181260529 -64122.9206572275 -75234.38844904602 -75246.75337988275 -75259.11831071948
          -92311.70440573485 -92345.34906808747 -92378.99373044011 -113188.70954352322 -113280.39627064965 -113372.08299777607
          -133336.09269463457 -133455.08694367783 -133574.08119272112 -125696.08036548934 -126100.65060719602 -126505.22084890268
          -12227.435174929517 -12689.547533569405 -13151.6598922093 351469.4554830037 350562.263565838 349655.0716486724
          618428.1645362265 616828.4963256828 615228.828115139 -70692.10118396263 -74710.23276755818 -70690.893819279
          -74708.09730332906 -70689.68645459533 -74705.96183909994 -86081.52991461882 -86079.33641911933 -86077.14292361986
          -102589.58686123375 -102583.06737867385 -102576.54789611392 -119329.5467003052 -119336.51199507696 -119343.47728984873
          -124671.86225531157 -124633.97383015178 -124596.08540499202 -86500.44039661992 -86588.58595649085 -86676.73151636183
          50143.91229820145 50311.83030734319 50479.74831648492 329421.399048393 329972.23766809254 330523.0762877921
          507983.20206153975 508471.3291851549 508959.45630877005 -78836.11562369762 -82966.84839636137 -78835.66581077877
          -82967.06232193355 -78835.21599785991 -82967.27624750575 -94417.50840717102 -94423.58206584933 -94429.65572452766
          -109898.85708813735 -109909.45659592877 -109920.05610372021 -121771.12091212758 -121811.33320114709 -121851.54549016662
          -113941.07104222008 -113958.86901598047 -113976.66698974081 -55800.66525627067 -55972.84226374874 -56145.019271226796
          87586.98528006888 87598.11075163115 87609.23622319341 311692.7901220736 311750.7166593262 311808.6431965789
          439010.4579626109 438724.8068108067 438439.1556590024 -84017.86512357452 -88204.81543228637 -84017.47270884686
          -88204.88451160291 -84017.08029411921 -88204.95359091947 -99620.65033754653 -99625.9296697491 -99631.20900195169
          -114139.27113406798 -114146.91851699015 -114154.56589991227 -122288.37437448604 -122321.49771295542 -122354.62105142477
          -105870.12082644567 -105873.61256461094 -105877.1043027762 -37061.148269686906 -37190.06078331497 -37318.973296943026
          106928.42303767081 107007.52668838968 107086.63033910855 299855.2655951698 300053.7111058697 300252.15661656944
          400323.8888135846 400250.75098048203 400177.6131473795 -85795.97342626531 -89996.43158283293 -85795.58284224317
          -89996.7878576634 -85795.19225822101 -89997.14413249385 -101377.65523953737 -101384.00130462143 -101390.3473697055
          -115503.7289898532 -115513.28769145589 -115522.84639305856 -122271.58052412019 -122308.21363908357 -122344.84675404696
          -102902.80174476684 -102911.56588395512 -102920.3300231434 -30774.672365120998 -30908.927066556473 -31043.181767991948
          112940.92360471905 113006.05976060429 113071.19591648951 295926.2569175132 296071.63681565155 296217.01671378984
          388132.80157667183 387976.5701134772 387820.3386502825
        </DataArray>
        <DataArray type="Float64" Name="peeq" format="ascii" RangeMin="0" RangeMax="0.0007244933945866714">
          0.00020558665156385003 0.00019608190177226298 0.00015802414369061 0.00015937629882781517 0.0002055763390129782 0.00019606493785306235
          0.00015813894120901453 0.0001594617014786597 0.00020556602646210642 0.00019604797393386176 0.00015825373872741904 0.00015954710412950424
          0.000143388537133488 0.00015950212402186353 0.00018138053892747803 0.00015943115277711927 0.00014357018287800845 0.0001595779598203806
          0.0001813627783306823 0.0001594733672893499 0.00014375182862252895 0.00015965379561889775 0.00018134501773388656 0.00015951558180158054
          0.00018090947692584196 0.00015039595977431642 0.0001808949857659056 0.000150518363322699 0.0001808804946059693 0.00015064076687108162
          0.00019793313052452477 0.0002002120961456891 0.0002004833596775511 0.00019786858452279523 0.00020014353721574572 0.00020042499523033612
          0.00019780403852106562 0.00020007497828580234 0.0002003666307831211 0.00018605949470255963 0.0002478932438618473 0.00031233556865800996
          0.00020541780080585354 0.00018638756593467604 0.00024810734208124925 0.0003125952410230482 0.00020574407758724018 0.0001867156371667924
          0.00024832144030065127 0.00031285491338808646 0.00020607035436862677 0.0002256620922947607 0.0002929583528819689 0.00026559681436586836
          0.00018251123431460337 0.00022589452547615036 0.000293192123583316 0.0002657964044876967 0.00018286135462687342 0.00022612695865753993
          0.00029342589428466324 0.0002659959946095249 0.00018321147493914348 0.00014576752967222033 0.00015540290924252512 0.0001765857313280656
          0.00014597267026481443 0.0001556137388159294 0.00017660634862356854 0.00014617781085740858 0.00015582456838933366 0.00017662696591907144
          0.0002108271774355602 0.00021080674711317584 0.0002107863167907915 0.0001941418593023723 0.00017339198084943304 0.0001941664790730993
          0.00017362249160320358 0.00019419109884382632 0.00017385300235697417 0.00018019659552891685 0.00017401175473198493 0.00018019893058702753
          0.00017398121915506744 0.00018020126564513824 0.00017395068357814992 0.0006341058500923642 0.0006812516553266621 0.0006338445923075774
          0.0006809723250163699 0.0006335833345227906 0.0006806929947060778 0.0003522414811122525 0.0004068247880699977 0.0002816431346298061
          0.0002382378027280548 0.0003524594998337155 0.0004070378694013765 0.00028187900787470503 0.0002385033517421788 0.00035267751855517853
          0.0004072509507327553 0.000282114881119604 0.00023876890075630284 0.00028323192012519793 0.000283533535676119 0.00028383515122704014
          0.0007244933945866714 0.0007240990527943065 0.0007237047110019415 0.00020608287996929552 0.0002059953860232472 0.0002059078920771989
          0.0001393170784822351 0.0001345378043914534 0.00013950826451705672 0.0001348872974421403 0.00013969945055187832 0.00013523679049282715
          0.0003268421454941364 0.0002462980216419985 0.0002899295080599384 0.00039031608968814367 0.00032710283450346656 0.00024653904110781246
          0.00029016474222522647 0.000390516864155979 0.0003273635235127967 0.00024678006057362635 0.00029039997639051466 0.0003907176386238144
          0.00013981327989841255 0.00013918152364202736 0.00014013397834551205 0.00013951695499939056 0.00014045467679261157 0.00013985238635675382
          0.0005960773154703264 0.000596035332647744 0.0005959933498251615 0.000350105331029689 0.00035034851104024864 0.0003505916910508083
          0.000497391089544971 0.0005315516140452084 0.0004975131814164183 0.0005316266039722801 0.0004976352732878656 0.0005317015938993518
          0.00015387630169441706 0.00017552780601564038 0.00015431286981286297 0.0001758684500782964 0.00015474943793130884 0.00017620909414095236
          0.00021317355962055014 0.00020017863679269352 0.00021361675190523534 0.00020062580333822804 0.0002140599441899205 0.00020107296988376258
          0.0005426095905306967 0.00054264966824928 0.0005426897459678635 0.00020203574706532278 0.00020234227697691481 0.00020264880688850684
          0.0004887219152157641 0.0004887824966587833 0.0004888430781018026 0.0001664248418360455 0.0001668652211554173 0.0001673056004747891
          0.00047311113496419115 0.00047338781069057416 0.00047366448641695717 0.0007021774681745334 0.0006931118046661022 0.0007016520096473288
          0.0006926080829564958 0.0007011265511201242 0.0006921043612468892 0.00014531303876556614 0.00014566735567312104 0.00014602167258067594
          0.0001593663140926555 0.00017333171165366692 0.00015975598390037917 0.0001736495855798106 0.00016014565370810283 0.0001739674595059543
          0.00024065781269174528 0.0003342899709307824 0.00024099365594298323 0.0003345982413152214 0.00024132949919422115 0.00033490651169966034
          0.00014055756944026168 0.00014566828126223418 0.00014090064129739177 0.0001460779148858902 0.0001412437131545219 0.0001464875485095462
          0.0003892347439491719 0.0003895886263667317 0.00038994250878429155 0.0006716474928649325 0.0006712172171453499 0.0006707869414257671
          0.0004492622510892068 0.0004494420483300742 0.0004496218455709416 0.000454237579311579 0.0005548156798703791 0.00045445982019387933
          0.0005547722493756048 0.0004546820610761797 0.0005547288188808306 0.0005966524151034328 0.0006080587020495167 0.0005965059002400198
          0.0006078776828928317 0.0005963593853766068 0.0006076966637361466 0.0004566901052685529 0.0003789861023453758 0.0004831188118364989
          0.0004569776059083797 0.0003792753639659861 0.00048333684746785675 0.00045726510654820623 0.0003795646255865963 0.00048355488309921466
          0.0004975319399291034 0.0004977131709418925 0.0004978944019546814 0.0001617785279388435 0.00017156433290724775 0.0001621708656076107
          0.00017184070657862277 0.0001625632032763779 0.0001721170802499978 0.00014561739356705247 0.00016146073102423628 0.00014600506733017813
          0.00016162102115226866 0.00014639274109330377 0.00016178131128030102 0.00039338114744240566 0.00039371571163622986 0.00039405027583005407
          0.0005739971432868734 0.0005739241505438845 0.0005738511578008956 0.0001379343710003274 0.00013836036960001438 0.00013878636819970134
          0.0001892637721895565 0.0002432347978786509 0.00018956128373317488 0.00024343355169816034 0.00018985879527679326 0.00024363230551766979
          0.0003087289328521551 0.00030900102534203695 0.0003092731178319188 0.00014984976133457348 0.00015033818046122322 0.0001508265995878729
          0.0001407310399335582 0.0001410302813258752 0.0001413295227181922 0.00013717928961412597 0.00013779583835500138 0.00013841238709587679
          0.00015865774877971766 0.00015885295872727966 0.00015904816867484168 0.0001998567461147978 0.0001997642866773364 0.000199671827239875
          0.00014232138432241286 0.00014234519251303903 0.0001423690007036652 0.0002098441626659379 0.0002098697431486836 0.0002098953236314293
          0.0002504796869544564 0.0002505256928675991 0.00025057169878074187 0.00026496911274539786 0.0002650585500392194 0.00026514798733304093
          0.0002667397963054425 0.0002668573057107997 0.00026697481511615687 0 0 0
          0 0 0 0 0 0
          0 0 0 0 0 0
          0 0 0 0 0 0
          0 0 0 0 0 0
          0 0 0 0 0 0
          0 0 0 0 0 0
          0 0 0 0 0 0
          0 0 0 0 0 0
          0 0 0 0 0 0
          0 0 0 0 0 0
          0 0 0 0 0 0
          0 0 0 0 0 0
          0 0 0 0 0 0
          0 0 0 0 0 0
          0 0 0 0 0 0
          0 0 0 0 0 0
          0 0 0 0 0 0
          0 0 0 0 0 0
          0 0 0 0 0 0
          0 0 0 0.0000034979979636080317 0.0000034872857726023896 0.000003476573581596748
          0 0 0 0 0 0
          0 0 0 0 0 0
          0 0 0 0 0 0
          0 0 0 0.00011494448004283247 0.00011482513895924439 0.0001147057978756563
          0.00004833969271000944 0.00004829056244118222 0.00004824143217235499 0.000007890041623996775 0.000007893394184448953 0.00000789674674490113
          0 0 0 0 0 0
          0 0 0 0 0 0
          0 0 0 0 0 0
          0.000290415537541027 0.0002901856046101572 0.00028995567167928733 0.000187269406021346 0.00018711330225371507 0.0001869571984860841
          0.00006120802450119865 0.0000612043148587086 0.00006120060521621853 0.0000034017205570040267 0.000003422379775628561 0.0000034430389942530957
          0 0 0 0 0 0
          0 0 0 0 0 0
          0 0 0 0.000514174980682252 0.0005138077362127148 0.0005134404917431775
          0.0004176416813194563 0.0004173121120495255 0.0004169825427795946 0.00020851785575300277 0.00020846353477658606 0.00020840921380016936
          0.000044101601191796165 0.000044150775547302515 0.000044199949902808865 0 0 0
          0 0 0 0 0 0
          0 0 0 0 0 0
          0.0006352219825884151 0.0006347855282206685 0.0006343490738529218 0.0005504279400890234 0.0005500041729287804 0.0005495804057685375
          0.0003103997457516018 0.00031030522820465285 0.00031021071065770396 0.00008139976126958427 0.00008145679154334792 0.00008151382181711155
          0 0 0 0 0 0
          0 0 0 0 0 0
          0 0 0 0 0 0
          0 0 0 0 0 0
          0 0 0 0 0 0
          0 0 0 0 0 0
          0 0 0 0 0 0
          0 0 0 0 0 0
          0 0 0 0 0 0
          0 0 0 0 0 0
          0 0 0 0 0 0
          0 0 0 0 0 0
          0 0 0 0 0 0
          0 0 0 0 0 0
          0 0 0 0 0 0
          0 0 0 0 0 0
          0 0 0 0 0 0
          0 0 0 0 0 0
          0 0 0 0 0 0
          0 0 0 0 0 0
          0 0 0 0 0 0
          0 0 0 0 0 0
          0 0 0 0 0 0
          0 0 0 0 0 0
          0 0 0 0 0 0
          0 0 0 0 0 0
          0 0 0 0 0 0
          0 0 0 0 0 0
          0 0 0 0 0 0
          0 0 0 0 0 0
          0 0 0 0 0 0
          0 0 0 0 0 0
          0 0 0 0 0 0
          0 0 0 0 0 0
          0 0 0 0 0 0
          0 0 0 0 0 0
          0 0 0 0 0 0
          0 0 0 0 0 0
          0 0 0 0 0 0
          0 0 0 0 0 0
          0 0 0 0 0 0
          0 0 0 0 0 0
          0 0 0 0 0 0
          0 0 0 0 0 0
          0 0 0 0 0 0
          0 0 0 0 0 0
          0 0 0 0 0 0
          0 0 0
        </DataArray>
        <DataArray type="Float64" Name="pe11" format="ascii" RangeMin="0" RangeMax="0.0007244565289026665">
          0.00020558418242518913 0.00019607973941909335 0.00015802200081307586 0.00015937382600365564 0.00020557388040988407 0.00019606278556834022
          0.000158136760016451 0.00015945919071530507 0.000205563578394579 0.00019604583171758703 0.00015825151921982614 0.00015954455542695445
          0.00014338651138756143 0.00015950053452486835 0.00018137932750065093 0.00015942943386548886 0.00014356812711729535 0.00015957635695834827
          0.00018136157673046487 0.00015947165602922897 0.00014374974284702926 0.0001596521793918282 0.0001813438259602788 0.0001595138781929691
          0.00018090766936093027 0.0001503936105016473 0.00018089319626644014 0.000150515954717901 0.00018087872317195002 0.0001506382989341547
          0.00019793076596484973 0.00020020545834845875 0.00020048171323397383 0.0001978662080426195 0.00020013685194232372 0.00020042335250446873
          0.0001978016501203893 0.0002000682455361887 0.00020036499177496364 0.0001860525614909281 0.00024788188639157687 0.0003123192655777736
          0.0002054061878457032 0.00018638048994707137 0.0002480959994148273 0.00031257882236486575 0.00020573228513221802 0.00018670841840321466
          0.0002483101124380778 0.0003128383791519579 0.00020605838241873281 0.00022565747780826706 0.0002929540705763613 0.00026558957586394235
          0.0001825067767257281 0.00022588988034284794 0.00029318776605786014 0.00026578913493698064 0.00018285678801691633 0.00022612228287742877
          0.0002934214615393589 0.0002659886940100189 0.00018320679930810456 0.0001457641874724433 0.00015539949826034332 0.00017658406589699611
          0.00014596916437994235 0.00015561021340475818 0.00017660467214795992 0.0001461741412874414 0.00015582092854917305 0.00017662527839892378
          0.00021081640735289402 0.0002107959613266619 0.00021077551530042975 0.00019413879284534916 0.00017338825649511867 0.00019416336892301347
          0.0001736186611284765 0.00019418794500067772 0.0001738490657618344 0.00018016341215730143 0.00017399179336339887 0.00018016566868352796
          0.00017396113465193043 0.00018016792520975452 0.00017393047594046207 0.000634070985930272 0.0006811997930800328 0.0006338097973214524
          0.0006809205479229891 0.0006335486087126327 0.0006806413027659454 0.00035221214471500243 0.0004067840561671217 0.00028162177301346223
          0.00023822079475082812 0.0003524300340665452 0.00040699692633711006 0.00028185749463292077 0.00023848616105540883 0.00035264792341808786
          0.00040720979650709835 0.00028209321625237936 0.0002387515273599896 0.0002832063206251686 0.0002835076406483586 0.0002838089606715486
          0.0007244565289026665 0.000724062115873807 0.0007236677028449473 0.00020607498271629283 0.0002059873778130575 0.00020589977290982214
          0.00013931508507283456 0.0001345352203995225 0.00013950618537700757 0.00013488456590937794 0.00013969728568118058 0.0001352339114192334
          0.00032680793626469243 0.0002462825031836094 0.000289908566682192 0.0003902758447313853 0.0003270684218540497 0.00024652324423130804
          0.00029014357381940343 0.0003904764031853528 0.000327328907443407 0.0002467639852790067 0.0002903785809566149 0.0003906769616393202
          0.0001398102434354987 0.0001391791548771396 0.0001401306938069472 0.0001395143955760828 0.00014045114417839566 0.00013984963627502596
          0.0005960351002120396 0.0005959933278962401 0.0005959515555804404 0.0003500977108118686 0.0003503407202201749 0.00035058372962848113
          0.0004973611151642676 0.000531525640304141 0.0004974830066130618 0.0005316006240362336 0.0004976048980618562 0.0005316756077683261
          0.00015387342746908347 0.00017552473552941194 0.00015430983380735982 0.00017586529001036 0.0001547462401456362 0.00017620584449130807
          0.00021316503704175968 0.00020017258124802872 0.00021360828230580322 0.0002006197625425101 0.00021405152756984674 0.0002010669438369914
          0.0005425585134333054 0.0005425985820331262 0.0005426386506329468 0.0002020267266548646 0.00020233304545069384 0.00020263936424652317
          0.000488681590996943 0.0004887421290251136 0.0004888026670532843 0.00016641990572004026 0.00016686019199860838 0.00016730047827717646
          0.0004730729071551219 0.000473349464362936 0.00047362602157075 0.0007021729191915508 0.0006931068572504804 0.0007016473915094441
          0.0006926031360913157 0.0007011218638273376 0.000692099414932151 0.00014530906697025786 0.0001456631469691301 0.0001460172269680024
          0.00015936033451163464 0.00017332467837741694 0.00015974978208152377 0.00017364225538057346 0.000160139229651413 0.00017395983238373004
          0.00024064596737774496 0.0003342665152033264 0.00024098180514295033 0.0003345746856301659 0.0002413176429081557 0.0003348828560570054
          0.00014055588874386846 0.00014566695849661554 0.00014089880866576465 0.0001460764397417494 0.0001412417285876608 0.00014648592098688324
          0.0003892060429987744 0.00038955973825031775 0.0003899134335018611 0.0006716383980348061 0.0006712082504699051 0.0006707781029050041
          0.000449223236747421 0.0004494028116708333 0.0004495823865942457 0.00045421624610499447 0.0005547919495061279 0.00045443841443184576
          0.0005547487190042351 0.00045466058275869716 0.0005547054885023423 0.0005966448871514569 0.0006080515963314958 0.0005964983189651554
          0.0006078705109578112 0.0005963517507788539 0.0006076894255841264 0.0004566802781220887 0.0003789809196401935 0.00048311089058652816
          0.00045696762519459544 0.00037927005614385564 0.00048332881957335535 0.00045725497226710204 0.00037955919264751775 0.00048354674856018254
          0.0004975249530239571 0.0004977061282080525 0.0004978873033921478 0.00016177301013596884 0.0001715578790418054 0.0001621652177220341
          0.00017183395592451333 0.00016255742530809934 0.00017211003280722122 0.00014561599924548194 0.00016145862430652736 0.0001460036025550137
          0.00016161892695651985 0.0001463912058645454 0.00016177922960651232 0.0003933759644311752 0.00039371045208864974 0.00039404493974612437
          0.0005739845163095296 0.0005739116203632378 0.0005738387244169459 0.0001379307263216921 0.00013835646149581253 0.00013878219666993297
          0.00018926137626150305 0.0002432317875598883 0.00018955884337948484 0.00024343052281773376 0.00018985631049746668 0.00024362925807557917
          0.0003087249764580992 0.0003089969872434332 0.0003092689980287671 0.00014984851971690342 0.0001503367959110377 0.00015082507210517198
          0.0001407275776895204 0.00014102658761835305 0.0001413255975471857 0.0001371784874014231 0.00013779494455901364 0.00013841140171660414
          0.00015865559271225507 0.0001588508021116635 0.00015904601151107192 0.00019985434965512673 0.0001997618892251693 0.0001996694287952118
          0.000142180737502889 0.00014220434286721205 0.0001422279482315351 0.00020974373170182595 0.00020976907726356903 0.00020979442282531213
          0.0002504393081311876 0.00025048513367780493 0.00025053095922442233 0.00026495906670384817 0.00026504839453550283 0.0002651377223671575
          0.0002667353613989494 0.00026685279405484015 0.00026697022671073097 0 0 0
          0 0 0 0 0 0
          0 0 0 0 0 0
          0 0 0 0 0 0
          0 0 0 0 0 0
          0 0 0 0 0 0
          0 0 0 0 0 0
          0 0 0 0 0 0
          0 0 0 0 0 0
          0 0 0 0 0 0
          0 0 0 0 0 0
          0 0 0 0 0 0
          0 0 0 0 0 0
          0 0 0 0 0 0
          0 0 0 0 0 0
          0 0 0 0 0 0
          0 0 0 0 0 0
          0 0 0 0 0 0
          0 0 0 0 0 0
          0 0 0 0 0 0
          0 0 0 0.000003443157258717626 0.000003432629372783831 0.0000034221014868500356
          0 0 0 0 0 0
          0 0 0 0 0 0
          0 0 0 0 0 0
          0 0 0 0.0001135707293123318 0.00011345209846329557 0.00011333346761425935
          0.00004748174425934596 0.00004743372720879603 0.00004738571015824609 0.000007711965544065021 0.000007715521803909289 0.000007719078063753556
          0 0 0 0 0 0
          0 0 0 0 0 0
          0 0 0 0 0 0
          0.0002872788656426324 0.00028704851523881183 0.00028681816483499113 0.00018348495883598422 0.0001833324569829669 0.00018317995512994953
          0.00005933281092262554 0.000059331223636915185 0.00005932963635120483 0.0000032526197878432428 0.00000327266473725261 0.000003292709686661978
          0 0 0 0 0 0
          0 0 0 0 0 0
          0 0 0 0.0005091533240902069 0.0005087818334416009 0.0005084103427929949
          0.0004078402353215771 0.0004075165037628293 0.0004071927722040815 0.00019965261972697 0.0001996076414542999 0.00019956266318162984
          0.0000411592803724862 0.000041211017154619016 0.000041262753936751835 0 0 0
          0 0 0 0 0 0
          0 0 0 0 0 0
          0.0006292139627575276 0.0006287706046429655 0.0006283272465284037 0.0005367877269724424 0.0005363702892317492 0.0005359528514910562
          0.00029606354869681894 0.000295983879242588 0.0002959042097883571 0.00007581332116928591 0.00007587670483473282 0.00007594008850017971
          0 0 0 0 0 0
          0 0 0 0 0 0
          0 0 0 0 0 0
          0 0 0 0 0 0
          0 0 0 0 0 0
          0 0 0 0 0 0
          0 0 0 0 0 0
          0 0 0 0 0 0
          0 0 0 0 0 0
          0 0 0 0 0 0
          0 0 0 0 0 0
          0 0 0 0 0 0
          0 0 0 0 0 0
          0 0 0 0 0 0
          0 0 0 0 0 0
          0 0 0 0 0 0
          0 0 0 0 0 0
          0 0 0 0 0 0
          0 0 0 0 0 0
          0 0 0 0 0 0
          0 0 0 0 0 0
          0 0 0 0 0 0
          0 0 0 0 0 0
          0 0 0 0 0 0
          0 0 0 0 0 0
          0 0 0 0 0 0
          0 0 0 0 0 0
          0 0 0 0 0 0
          0 0 0 0 0 0
          0 0 0 0 0 0
          0 0 0 0 0 0
          0 0 0 0 0 0
          0 0 0 0 0 0
          0 0 0 0 0 0
          0 0 0 0 0 0
          0 0 0 0 0 0
          0 0 0 0 0 0
          0 0 0 0 0 0
          0 0 0 0 0 0
          0 0 0 0 0 0
          0 0 0 0 0 0
          0 0 0 0 0 0
          0 0 0 0 0 0
          0 0 0 0 0 0
          0 0 0 0 0 0
          0 0 0 0 0 0
          0 0 0 0 0 0
          0 0 0
        </DataArray>
        <DataArray type="Float64" Name="pe22" format="ascii" RangeMin="-0.0003640937630175788" RangeMax="0">
          -0.00010243600988877111 -0.00009803150174812183 -0.00007913418794345642 -0.00007966984347107464 -0.00010243474401790431 -0.00009802098806563281
          -0.00007918070021911198 -0.00007970549971649152 -0.0001024334781470375 -0.00009801047438314379 -0.00007922721249476754 -0.0000797411559619084
          -0.00007192456948516885 -0.00007980615094604973 -0.00009053676028473067 -0.00007977716360929119 -0.00007199821471584489 -0.00007983763364493096
          -0.00009053175233143827 -0.00007979246037009159 -0.00007207185994652093 -0.00007986911634381218 -0.00009052674437814585 -0.00007980775713089199
          -0.00009033260475544262 -0.00007521429801342748 -0.00009032691667902034 -0.000075265118551689 -0.00009032122860259808 -0.00007531593908995053
          -0.00009855452558697424 -0.00009932498631895801 -0.00009985300872431582 -0.0000985328285625648 -0.00009930442921154449 -0.00009983349588502379
          -0.00009851113153815536 -0.00009928387210413098 -0.00009981398304573179 -0.00009339886846255204 -0.00012454547991901351 -0.00015640282066458892
          -0.00010293028372572596 -0.0000935230353097205 -0.00012460755661693182 -0.0001564811893903642 -0.00010305342901570963 -0.00009364720215688895
          -0.00012466963331485016 -0.00015655955811613953 -0.00010317657430569331 -0.00011296408883244816 -0.00014644369578420633 -0.00013309797192813491
          -0.00009158250558629149 -0.00011304506535146399 -0.00014651460275999848 -0.00013315232088224419 -0.00009171413684215109 -0.0001131260418704798
          -0.0001465855097357906 -0.00013320666983635346 -0.00009184576809801065 -0.00007303805944511954 -0.00007772375369264836 -0.00008815021188216958
          -0.00007311841061392628 -0.00007780890765151391 -0.0000881586564883538 -0.00007319876178273302 -0.00007789406161037943 -0.00008816710109453799
          -0.00010445353399331792 -0.00010445336551463345 -0.00010445319703594898 -0.00009678737688370367 -0.0000866608173452125 -0.00009679778827757715
          -0.00008675532417439188 -0.00009680819967145064 -0.00008684983100357128 -0.00008856635953313274 -0.00008589464466571663 -0.00008857674559696981
          -0.00008589059573127064 -0.0000885871316608069 -0.00008588654679682465 -0.0003179567023828331 -0.00034215343016145066 -0.0003178764731405834
          -0.0003420953714695221 -0.0003177962438983337 -0.00034203731277759344 -0.000176340327753747 -0.00020371159647257823 -0.0001413402257921895
          -0.00011934524403360659 -0.00017640398030681044 -0.00020376976162005312 -0.00014141476896441452 -0.00011943756245837481 -0.00017646763285987397
          -0.00020382792676752807 -0.00014148931213663955 -0.00011952988088314303 -0.00014250643197807907 -0.00014259787387257977 -0.00014268931576708044
          -0.0003640937630175788 -0.00036401749472492716 -0.00036394122643227555 -0.00010233404882185407 -0.0001023037116543639 -0.00010227337448687371
          -0.00006979656972936719 -0.00006746465996813607 -0.00006987333497532687 -0.00006761157317424168 -0.00006995010022128656 -0.0000677584863803473
          -0.0001646751250779461 -0.00012385349881326746 -0.00014589363229931717 -0.00019674845371400523 -0.0001647472683140553 -0.0001239294279585353
          -0.00014596165782654872 -0.00019679056081074964 -0.00016481941155016447 -0.0001240053571038032 -0.0001460296833537803 -0.0001968326679074941
          -0.00006992942698626584 -0.00006964441206807119 -0.00007006351650624256 -0.00006978631987032622 -0.00007019760602621927 -0.00006992822767258125
          -0.0002987970297075491 -0.0002987810726421597 -0.00029876511557677026 -0.00017503546423900014 -0.0001750897872213286 -0.000175144110203657
          -0.00024900185157176265 -0.0002657068463307628 -0.00024900523696464534 -0.0002656948803577298 -0.0002490086223575281 -0.00026568291438469697
          -0.00007722172510954608 -0.0000879586119615406 -0.00007739224310678237 -0.00008808925069568583 -0.00007756276110401865 -0.00008821988942983103
          -0.00010729029039156047 -0.00010075612594009004 -0.00010745821952768431 -0.00010092843494662153 -0.00010762614866380815 -0.000101100743953153
          -0.0002718040800434874 -0.0002718074041248785 -0.0002718107282062697 -0.0001013949193280006 -0.00010150828106153915 -0.00010162164279507767
          -0.00024476747301605185 -0.00024475600317694433 -0.00024474453333783687 -0.00008358905049514426 -0.00008376835612775309 -0.00008394766176036194
          -0.0002367197005189562 -0.0002368036950327139 -0.00023688768954647168 -0.0003511282999881083 -0.0003465025889457783 -0.0003509659076519606
          -0.00034636796968133207 -0.00035080351531581287 -0.0003462333504168859 -0.00007271464852539426 -0.0000728614073039401 -0.00007300816608248594
          -0.0000797146492404935 -0.0000867848338240458 -0.00007987577585970503 -0.00008691179370495146 -0.00008003690247891657 -0.00008703875358585712
          -0.00012106054699552514 -0.0001682144373947405 -0.00012118259013219193 -0.00016831003066505136 -0.00012130463326885873 -0.00016840562393536225
          -0.00007043068502085168 -0.00007296058331868469 -0.00007057149360179504 -0.00007312885384305154 -0.0000707123021827384 -0.0000732971243674184
          -0.00019534735066768457 -0.00019545922376087863 -0.00019557109685407268 -0.00033587999971466107 -0.0003357832833659698 -0.00033568656701727853
          -0.0002257320088828546 -0.0002257606475513903 -0.00022578928621992605 -0.00022777942333997446 -0.00027841064262175576 -0.00022781814493063677
          -0.0002783514161712871 -0.00022785686652129907 -0.0002782921897208185 -0.00029853381660774087 -0.00030421461061223056 -0.0002984932821410944
          -0.00030415474378921403 -0.0002984527476744479 -0.00030409487696619745 -0.00022874771267946043 -0.0001893660677648991 -0.00024165092233815254
          -0.00022881971666353148 -0.0001894446937029205 -0.00024171748337464596 -0.00022889172064760252 -0.0001895233196409419 -0.0002417840444111393
          -0.00024873152918816657 -0.00024879310963479064 -0.0002488546900814147 -0.00008127554463029858 -0.00008608342604162218 -0.00008142892519106495
          -0.00008618673225656297 -0.00008158230575183132 -0.00008629003847150379 -0.00007293526710084394 -0.00008086546179918933 -0.00007310926497019803
          -0.00008093930990298434 -0.00007328326283955213 -0.00008101315800677935 -0.000196543745642407 -0.0001966504065055825 -0.000196757067368758
          -0.0002875476558554011 -0.00028751858394879 -0.0002874895120421789 -0.00006916006693349538 -0.000069341498638455 -0.0000695229303434146
          -0.00009464579868552089 -0.00012151270947494884 -0.00009476830540998433 -0.00012159198659140332 -0.00009489081213444777 -0.0001216712637078578
          -0.00015424471966180614 -0.00015433576417252763 -0.00015442680868324912 -0.00007496752752154979 -0.00007517446021065857 -0.00007538139289976736
          -0.00007060274840874469 -0.00007072498737802992 -0.00007084722634731514 -0.0000686438836297766 -0.00006892775473848673 -0.00006921162584719686
          -0.00007945637562819136 -0.00007954772702216072 -0.00007963907841613009 -0.00010001671815424579 -0.00009996718915843935 -0.0000999176601626329
          -0.00006820803723130389 -0.000068223117659343 -0.00006823819808738212 -0.00010209904875352449 -0.00010211896307323249 -0.0001021388773929405
          -0.0001234669336643859 -0.0001234946445233482 -0.00012352235538231048 -0.00013180428933866388 -0.00013184546801212757 -0.00013188664668559126
          -0.00013315464075153483 -0.00013320476151833965 -0.0001332548822851445 0 0 0
          0 0 0 0 0 0
          0 0 0 0 0 0
          0 0 0 0 0 0
          0 0 0 0 0 0
          0 0 0 0 0 0
          0 0 0 0 0 0
          0 0 0 0 0 0
          0 0 0 0 0 0
          0 0 0 0 0 0
          0 0 0 0 0 0
          0 0 0 0 0 0
          0 0 0 0 0 0
          0 0 0 0 0 0
          0 0 0 0 0 0
          0 0 0 0 0 0
          0 0 0 0 0 0
          0 0 0 0 0 0
          0 0 0 0 0 0
          0 0 0 0 0 0
          0 0 0 -0.0000013900940703245726 -0.0000013853509622518048 -0.0000013806078541790368
          0 0 0 0 0 0
          0 0 0 0 0 0
          0 0 0 0 0 0
          0 0 0 -0.00004860400588634955 -0.00004855077690826129 -0.00004849754793017303
          -0.000019727450051595284 -0.00001970343222954856 -0.00001967941440750184 -0.000003161927854963205 -0.0000031623417501070974 -0.0000031627556452509894
          0 0 0 0 0 0
          0 0 0 0 0 0
          0 0 0 0 0 0
          -0.0001278810213071594 -0.00012778536924775468 -0.00012768971718834994 -0.00007957149843713419 -0.00007949752969881289 -0.00007942356096049157
          -0.00002537936549374333 -0.00002537115137157692 -0.00002536293724941051 -0.0000013806576459508493 -0.000001388544767708247 -0.0000013964318894656448
          0 0 0 0 0 0
          0 0 0 0 0 0
          0 0 0 -0.00023681902822490317 -0.00023664697614229663 -0.0002364749240596901
          -0.0001850237967315209 -0.00018485734645807338 -0.00018469089618462585 -0.0000886942760698021 -0.0000886470123456086 -0.00008859974862141514
          -0.000017931974703198692 -0.000017945306707978058 -0.00001795863871275742 0 0 0
          0 0 0 0 0 0
          0 0 0 0 0 0
          -0.0002976393754546098 -0.00029741636424141535 -0.00029719335302822076 -0.00024757930855131486 -0.00024735579605311453 -0.0002471322835549142
          -0.00013295367686204395 -0.00013287640544827758 -0.00013279913403451123 -0.00003310263411449568 -0.000033113523880539616 -0.00003312441364658355
          0 0 0 0 0 0
          0 0 0 0 0 0
          0 0 0 0 0 0
          0 0 0 0 0 0
          0 0 0 0 0 0
          0 0 0 0 0 0
          0 0 0 0 0 0
          0 0 0 0 0 0
          0 0 0 0 0 0
          0 0 0 0 0 0
          0 0 0 0 0 0
          0 0 0 0 0 0
          0 0 0 0 0 0
          0 0 0 0 0 0
          0 0 0 0 0 0
          0 0 0 0 0 0
          0 0 0 0 0 0
          0 0 0 0 0 0
          0 0 0 0 0 0
          0 0 0 0 0 0
          0 0 0 0 0 0
          0 0 0 0 0 0
          0 0 0 0 0 0
          0 0 0 0 0 0
          0 0 0 0 0 0
          0 0 0 0 0 0
          0 0 0 0 0 0
          0 0 0 0 0 0
          0 0 0 0 0 0
          0 0 0 0 0 0
          0 0 0 0 0 0
          0 0 0 0 0 0
          0 0 0 0 0 0
          0 0 0 0 0 0
          0 0 0 0 0 0
          0 0 0 0 0 0
          0 0 0 0 0 0
          0 0 0 0 0 0
          0 0 0 0 0 0
          0 0 0 0 0 0
          0 0 0 0 0 0
          0 0 0 0 0 0
          0 0 0 0 0 0
          0 0 0 0 0 0
          0 0 0 0 0 0
          0 0 0 0 0 0
          0 0 0 0 0 0
          0 0 0
        </DataArray>
        <DataArray type="Float64" Name="pe33" format="ascii" RangeMin="-0.00036036276588508753" RangeMax="0">
          -0.00010314817253641801 -0.00009804823767097152 -0.00007888781286961941 -0.00007970398253258099 -0.00010313913639197974 -0.00009804179750270738
          -0.000078956059797339 -0.00007975369099881353 -0.00010313010024754149 -0.00009803535733444321 -0.00007902430672505857 -0.00007980339946504604
          -0.00007146194190239257 -0.00007969438357881862 -0.00009084256721592027 -0.00007965227025619766 -0.00007156991240145045 -0.00007973872331341731
          -0.00009082982439902658 -0.00007967919565913736 -0.00007167788290050829 -0.00007978306304801598 -0.0000908170815821329 -0.00007970612106207707
          -0.00009057506460548762 -0.0000751793124882198 -0.00009056627958741977 -0.00007525083616621197 -0.00009055749456935194 -0.00007532235984420415
          -0.00009937624037787546 -0.00010088047202950069 -0.000100628704509658 -0.00009933337948005469 -0.00010083242273077917 -0.0001005898566194449
          -0.0000992905185822339 -0.00010078437343205769 -0.00010055100872923182 -0.00009265369302837603 -0.00012333640647256336 -0.00015591644491318467
          -0.00010247590411997722 -0.00009285745463735087 -0.00012348844279789549 -0.00015609763297450154 -0.00010267885611650836 -0.00009306121624632573
          -0.00012364047912322764 -0.0001562788210358184 -0.00010288180811303953 -0.00011269338897581888 -0.00014651037479215492 -0.0001324916039358074
          -0.00009092427113943659 -0.00011284481499138391 -0.00014667316329786158 -0.00013263681405473643 -0.00009114265117476523 -0.00011299624100694899
          -0.00014683595180356828 -0.00013278202417366542 -0.00009136103121009387 -0.00007272612802732376 -0.00007767574456769494 -0.00008843385401482652
          -0.00007285075376601607 -0.00007780130575324428 -0.00008844601565960615 -0.00007297537950470836 -0.00007792686693879362 -0.00008845817730438579
          -0.00010636287335957606 -0.0001063425958120284 -0.00010632231826448074 -0.00009735141596164552 -0.00008672743914990615 -0.0000973655806454363
          -0.00008686333695408464 -0.0000973797453292271 -0.00008699923475826313 -0.00009159705262416865 -0.00008809714869768221 -0.00009158892308655812
          -0.0000880705389206598 -0.00009158079354894761 -0.00008804392914363737 -0.0003161142835474389 -0.0003390463629185822 -0.0003159333241808689
          -0.0003388251764534671 -0.0003157523648142988 -0.00033860398998835197 -0.00017587181696125537 -0.0002030724596945435 -0.0001402815472212727
          -0.00011887555071722149 -0.00017602605375973465 -0.00020322716471705683 -0.00014044272566850622 -0.00011904859859703403 -0.00017618029055821392
          -0.00020338186973957022 -0.0001406039041157398 -0.00011922164647684656 -0.0001406998886470895 -0.00014090976677577882 -0.00014111964490446811
          -0.00036036276588508753 -0.0003600446211488796 -0.0003597264764126717 -0.00010374093389443876 -0.00010368366615869359 -0.00010362639842294843
          -0.00006951851534346736 -0.00006707056043138642 -0.00006963285040168069 -0.00006727299273513623 -0.00006974718545989402 -0.00006747542503888605
          -0.00016213281118674625 -0.00012242900437034186 -0.0001440149343828748 -0.00019352739101737997 -0.00016232115353999435 -0.00012259381627277265
          -0.0001441819159928547 -0.00019368584237460301 -0.00016250949589324243 -0.00012275862817520344 -0.00014434889760283465 -0.00019384429373182606
          -0.00006988081644923283 -0.00006953474280906841 -0.00007006717730070461 -0.00006972807570575654 -0.00007025353815217639 -0.00006992140860244471
          -0.0002972380705044905 -0.0002972122552540803 -0.00029718644000367007 -0.00017506224657286854 -0.00017525093299884632 -0.0001754396194248241
          -0.000248359263592505 -0.00026581879397337817 -0.0002484777696484165 -0.0002659057436785037 -0.000248596275704328 -0.0002659926933836292
          -0.00007665170235953736 -0.00008756612356787128 -0.00007691759070057745 -0.00008777603931467416 -0.00007718347904161753 -0.00008798595506147703
          -0.0001058747466501992 -0.00009941645530793865 -0.00010615006277811889 -0.00009969132759588852 -0.00010642537890603858 -0.00009996619988383839
          -0.000270754433389818 -0.00027079117790824753 -0.0002708279224266771 -0.00010063180732686394 -0.00010082476438915474 -0.0001010177214514455
          -0.00024391411798089125 -0.0002439861258481693 -0.00024405813371544742 -0.00008283085522489598 -0.00008309183587085525 -0.00008335281651681451
          -0.00023635320663616572 -0.000236545769330222 -0.0002367383320242783 -0.00035104461920344244 -0.00034660426830470205 -0.0003506814838574836
          -0.0003462351664099835 -0.0003503183485115247 -0.00034586606451526505 -0.00007259441844486357 -0.00007280173966519001 -0.00007300906088551644
          -0.00007964568527114113 -0.00008653984455337109 -0.00007987400622181876 -0.000086730461675622 -0.00008010232717249637 -0.0000869210787978729
          -0.00011958542038221977 -0.00016605207780858586 -0.00011979921501075838 -0.00016626465496511448 -0.00012001300963929699 -0.00016647723212164314
          -0.00007012520372301677 -0.00007270637517793083 -0.00007032731506396959 -0.00007294758589869784 -0.00007052942640492239 -0.00007318879661946483
          -0.0001938586923310898 -0.0001941005144894391 -0.00019434233664778839 -0.00033575839832014495 -0.0003354249671039352 -0.0003350915358877254
          -0.00022349122786456625 -0.00022364216411944291 -0.00022379310037431958 -0.00022643682276501996 -0.0002763813068843721 -0.000226620269501209
          -0.0002763973028329479 -0.00022680371623739806 -0.0002764132987815237 -0.00029811107054371604 -0.00030383698571926515 -0.000298005036824061
          -0.00030371576716859707 -0.000297899003104406 -0.000303594548617929 -0.0002279325654426283 -0.00018961485187529427 -0.0002414599682483756
          -0.00022814790853106394 -0.00018982536244093506 -0.00024161133619870942 -0.00022836325161949958 -0.00019003587300657585 -0.00024176270414904327
          -0.00024879342383579055 -0.00024891301857326176 -0.00024903261331073303 -0.00008049746550567022 -0.00008547445300018321 -0.00008073629253096911
          -0.00008564722366795032 -0.000080975119556268 -0.0000858199943357174 -0.00007268073214463798 -0.00008059316250733804 -0.00007289433758481561
          -0.00008067961705353548 -0.00007310794302499323 -0.00008076607159973293 -0.00019683221878876808 -0.00019706004558306723 -0.0001972878723773664
          -0.00028643686045412835 -0.00028639303641444765 -0.00028634921237476695 -0.00006877065938819672 -0.00006901496285735751 -0.00006925926632651833
          -0.00009461557757598212 -0.00012171907808493943 -0.0000947905379695005 -0.0001218385362263304 -0.00009496549836301887 -0.00012195799436772135
          -0.000154480256796293 -0.00015466122307090547 -0.00015484218934551798 -0.00007488099219535359 -0.00007516233570037911 -0.00007544367920540462
          -0.0000701248292807757 -0.00007030160024032312 -0.00007047837119987054 -0.00006853460377164651 -0.00006886718982052688 -0.00006919977586940727
          -0.00007919921708406371 -0.00007930307508950277 -0.00007940693309494183 -0.00009983763150088091 -0.00009979470006672987 -0.00009975176863257884
          -0.00007397270027158508 -0.00007398122520786903 -0.00007398975014415298 -0.00010764468294830141 -0.00010765011419033652 -0.00010765554543237163
          -0.00012697237446680166 -0.00012699048915445674 -0.00012700860384211185 -0.0001331547773651843 -0.00013320292652337526 -0.00013325107568156624
          -0.0001335807206474145 -0.00013364803253650048 -0.00013371534442558643 0 0 0
          0 0 0 0 0 0
          0 0 0 0 0 0
          0 0 0 0 0 0
          0 0 0 0 0 0
          0 0 0 0 0 0
          0 0 0 0 0 0
          0 0 0 0 0 0
          0 0 0 0 0 0
          0 0 0 0 0 0
          0 0 0 0 0 0
          0 0 0 0 0 0
          0 0 0 0 0 0
          0 0 0 0 0 0
          0 0 0 0 0 0
          0 0 0 0 0 0
          0 0 0 0 0 0
          0 0 0 0 0 0
          0 0 0 0 0 0
          0 0 0 0 0 0
          0 0 0 -0.0000020530631883930535 -0.000002047278410532025 -0.0000020414936326709967
          0 0 0 0 0 0
          0 0 0 0 0 0
          0 0 0 0 0 0
          0 0 0 -0.00006496672342598223 -0.00006490132155503428 -0.0000648359196840863
          -0.000027754294207750673 -0.000027730294979247453 -0.000027706295750744243 -0.000004550037689101815 -0.0000045531800538021904 -0.000004556322418502565
          0 0 0 0 0 0
          0 0 0 0 0 0
          0 0 0 0 0 0
          -0.00015939784433547304 -0.00015926314599105712 -0.0001591284476466412 -0.00010391346039885002 -0.00010383492728415398 -0.00010375639416945795
          -0.00003395344542888219 -0.00003396007226533826 -0.000033966699101794324 -0.0000018719621418923941 -0.0000018841199695443633 -0.0000018962777971963323
          0 0 0 0 0 0
          0 0 0 0 0 0
          0 0 0 -0.00027233429586530377 -0.0002721348572993043 -0.00027193541873330476
          -0.00022281643859005618 -0.0002226591573047559 -0.00022250187601945565 -0.00011095834365716786 -0.00011096062910869126 -0.00011096291456021465
          -0.000023227305669287512 -0.00002326571044664096 -0.00002330411522399441 0 0 0
          0 0 0 0 0 0
          0 0 0 0 0 0
          -0.00033157458730291773 -0.00033135424040155035 -0.00033113389350018286 -0.00028920841842112755 -0.0002890144931786347 -0.00028882056793614187
          -0.000163109871834775 -0.00016310747379431038 -0.00016310507575384577 -0.00004271068705479023 -0.000042763180954193196 -0.00004281567485359616
          0 0 0 0 0 0
          0 0 0 0 0 0
          0 0 0 0 0 0
          0 0 0 0 0 0
          0 0 0 0 0 0
          0 0 0 0 0 0
          0 0 0 0 0 0
          0 0 0 0 0 0
          0 0 0 0 0 0
          0 0 0 0 0 0
          0 0 0 0 0 0
          0 0 0 0 0 0
          0 0 0 0 0 0
          0 0 0 0 0 0
          0 0 0 0 0 0
          0 0 0 0 0 0
          0 0 0 0 0 0
          0 0 0 0 0 0
          0 0 0 0 0 0
          0 0 0 0 0 0
          0 0 0 0 0 0
          0 0 0 0 0 0
          0 0 0 0 0 0
          0 0 0 0 0 0
          0 0 0 0 0 0
          0 0 0 0 0 0
          0 0 0 0 0 0
          0 0 0 0 0 0
          0 0 0 0 0 0
          0 0 0 0 0 0
          0 0 0 0 0 0
          0 0 0 0 0 0
          0 0 0 0 0 0
          0 0 0 0 0 0
          0 0 0 0 0 0
          0 0 0 0 0 0
          0 0 0 0 0 0
          0 0 0 0 0 0
          0 0 0 0 0 0
          0 0 0 0 0 0
          0 0 0 0 0 0
          0 0 0 0 0 0
          0 0 0 0 0 0
          0 0 0 0 0 0
          0 0 0 0 0 0
          0 0 0 0 0 0
          0 0 0 0 0 0
          0 0 0
        </DataArray>
        <DataArray type="Float64" Name="disp_x" format="ascii" RangeMin="0.000033684028493151826" RangeMax="0.00008">
          0.00004427844027180759 0.00004394703818254942 0.00004242383134555632 0.00004221929774303307 0.00004427859754807738 0.00004394721960021236
          0.00004242403466023821 0.000042219531678676654 0.000044279090903225716 0.00004394778745001285 0.0000424246725262188 0.000042220269354750586
          0.00003998434114382615 0.00004012644071437118 0.00004144862212007083 0.00004109096154122182 0.00003998448821712121 0.0000401265792663183
          0.000041448783318976076 0.000041091124119411794 0.00003998499044624988 0.000040127017482042734 0.00004144929144117607 0.0000410916540336816
          0.000042394602573747106 0.000041448760275379416 0.00004239483599035323 0.000041448989190387784 0.00004239545571348463 0.00004144962801373208
          0.00004160213684900811 0.000043283152997239104 0.00004296296945215034 0.000041602254995166115 0.00004328309290198175 0.000042963129043090865
          0.00004160262475828651 0.000043282927329210155 0.000042963554394423295 0.00003954357703444089 0.00003886792968571894 0.00003796798911458211
          0.00003890192967458177 0.00003954306387212112 0.00003886721425628748 0.00003796714986235436 0.000038901311995198725 0.000039541544998304623
          0.00003886500893648874 0.00003796479870403983 0.000038899497513971896 0.00003990013011242322 0.000039014944423081836 0.000038957312929505875
          0.00004005293865824216 0.00003989946209716452 0.000039014128766674335 0.000038956572221886836 0.00004005241393422153 0.000039897517437101576
          0.000039011952646190926 0.00003895424619513737 0.00004005072916115306 0.00003899268059742104 0.000038787993602390855 0.0000400754784207907
          0.000038992720133895856 0.00003878810071097255 0.00004007564520359432 0.00003899283249487235 0.00003878851287015588 0.000040076040154002506
          0.000044642253550817234 0.00004464230453317096 0.00004464242887669833 0.000039786143010565035 0.00003844746021795868 0.00003978632213296309
          0.00003844751461841689 0.000039786795174397744 0.000038447620917614165 0.00004498457888537669 0.00004358304766710757 0.00004498449872189286
          0.0000435828355672743 0.00004498421467554321 0.000043582177612023014 0.00003522134800386469 0.00003440973842303924 0.00003522024066870802
          0.00003440869102509177 0.000035216851742594216 0.000034405592544822426 0.000037174203353989335 0.00003634317978834417 0.00003723673542908124
          0.00003813693214384121 0.00003717328316684029 0.00003634220220636585 0.00003723600120916777 0.00003813620613784255 0.000037170392391924846
          0.000036339370819812125 0.000037233875841810163 0.00003813396548556693 0.000035788394260831864 0.00003578778800703571 0.000035785892248361936
          0.000033688175725813614 0.00003368714155112438 0.000033684028493151826 0.00004158698365928786 0.00004158694716822266 0.000041586856295056066
          0.00004049955629271719 0.000039640548056308926 0.00004049973038814096 0.00003964053441284503 0.000040500174325072507 0.000039640634311963855
          0.00003558418568621329 0.00003651518430057984 0.00003627590142938578 0.00003531183907725058 0.00003558338365188914 0.00003651443838566783
          0.00003627497382466386 0.00003531085913663887 0.000035581069307749 0.00003651228239738988 0.00003627211387461266 0.00003530803611867028
          0.00004047181504258912 0.00004104496144935857 0.00004047176895589896 0.00004104501418181732 0.000040471570859385864 0.00004104512937142837
          0.00003471965209263424 0.000034718399321486503 0.000034714540684575664 0.00003798891983364343 0.000037988107671601855 0.000037985680447493005
          0.00003496976072836153 0.000034884039031475406 0.000034968492209993265 0.00003488278533921631 0.00003496462403924761 0.000034878619244609346
          0.00004073893682811139 0.00004069037792456236 0.00004073868093334775 0.00004068991925822418 0.000040737758866688265 0.000040688290670531685
          0.00003714446907414205 0.00003712661604610607 0.00003714383693049504 0.00003712599585665586 0.000037141929393026205 0.0000371236900834278
          0.00003544656660921 0.00003544543441938184 0.000035441974803249746 0.000037108596087322065 0.0000371081829695138 0.00003710685924537505
          0.00003619936073663219 0.00003619820967224299 0.000036194583439403045 0.000037771265807528306 0.00003777102629512127 0.000037770186377515695
          0.000035496964216027524 0.000035495866919383487 0.000035492483445378536 0.00003541154138638765 0.00003527102812302358 0.000035410533828619765
          0.00003527006819582275 0.000035407754788046004 0.000035267207920391 0.000039759542452904044 0.00003975940907253469 0.00003975889207185412
          0.00003900904451181626 0.00003842319906783107 0.00003900871851524569 0.0000384226416532106 0.000039007558961217 0.000038420869415532163
          0.00003716898576771912 0.000036153625171728063 0.000037168448537129815 0.00003615265974323316 0.00003716683239475245 0.00003614965138324047
          0.0000413807580483401 0.000041469740856926654 0.00004138090657497259 0.000041469565207290895 0.00004138123707758732 0.000041469114085025734
          0.00003595013287219037 0.00003594920405490268 0.000035946305979936596 0.0000351785224430649 0.000035177484570932065 0.00003517455243187162
          0.000035102961976427285 0.00003510191175415848 0.00003509861401238441 0.00003677502214053035 0.000036065276722302375 0.00003677392292438354
          0.000036064041102046583 0.00003677041464448102 0.00003605991713838666 0.00003624187791386944 0.000036416148827264455 0.00003624065419808047
          0.000036414937117673406 0.000036236937162144725 0.000036411400947985805 0.0000370578854581749 0.00003812083718003837 0.000037196118585022425
          0.000037056815752917146 0.000038119901107050745 0.00003719495744951889 0.00003705343886770492 0.000038116885641208074 0.000037191479354490506
          0.00003736677266945094 0.00003736567747866885 0.0000373620481236021 0.00003801861237369287 0.000038152736216063986 0.00003801847408781031
          0.00003815236561525155 0.000038017910113064785 0.000038151130561924744 0.00004227393185691948 0.0000427580666426214 0.000042274119945810624
          0.00004275839183628874 0.000042274540944480164 0.00004275939253073682 0.000038259769487971315 0.00003825882128529608 0.00003825579466943243
          0.00003613955666868075 0.000036138356563206944 0.000036134315235499925 0.00003904391656005936 0.00003904377872509689 0.00003904301448459725
          0.000040690793458459016 0.00003991268045634489 0.000040690254517053034 0.00003991205292059629 0.00004068855667156737 0.00003991012442287671
          0.00003910502702085651 0.00003910438629926541 0.000039102077598622866 0.00004144193384700008 0.000041441573878533594 0.000041440192017486665
          0.00003904896472627986 0.000039048922718213864 0.000039048550563140145 0.00004217209816836593 0.00004217220885013647 0.00004217219302115175
          0.00004289963295414753 0.00004290016188828413 0.000042901793525947914 0.000043650674148896995 0.000043650888518719385 0.00004365141525045727
          0.00004742222773264591 0.000047422195781271526 0.00004742210588443995 0.000047159122798880826 0.000047159181078045625 0.00004715933926623111
          0.00004681934822083234 0.00004681954818633236 0.00004682012493872056 0.00004646419968470521 0.00004646449008769857 0.00004646533847466359
          0.00004615065658066615 0.000046150952037163416 0.000046151786885630134 0.00005541555295183162 0.000055363433563613415 0.000055415498153591474
          0.000055363381702207526 0.000055415338076539505 0.00005536322604026286 0.00005727684211177064 0.00005720989148559013 0.00005727677033812758
          0.00005720982150448725 0.000057276554763009035 0.00005720961178401717 0.000059131925605301884 0.000059053108042641875 0.00005913184216543485
          0.00005905302699563701 0.00005913159007489851 0.000059052781330633415 0.00006098564710197 0.000060898942765702465 0.000060985556643706606
          0.00006089885514109312 0.000060985283891721424 0.000060898590143684156 0.00006283978153413754 0.0000627503878021964 0.00006283968950772521
          0.0000627502985439867 0.00006283941216310475 0.00006275002893649066 0.00006469357169448055 0.00006460794126553012 0.0000646934819641683
          0.00006460785444925842 0.00006469321164595707 0.00006460759240217368 0.00006654442700897712 0.00006647024600743661 0.00006654434485015109
          0.0000664701657832201 0.00006654409742658938 0.00006646992403499593 0.00006838879357686439 0.00006833486619173294 0.00006838871952844179
          0.0000683347938052081 0.00006838849638737529 0.00006833457535625793 0.00005552338133174534 0.0000555233224522895 0.00005552314410186644
          0.000057409786207673257 0.000057409707031865914 0.00005740946917523244 0.000059286876899590214 0.000059286785397019916 0.00005928650890905413
          0.00006115823888960951 0.00006115814076099018 0.00006115784378498023 0.00006302404910882233 0.00006302395015211139 0.00006302365197979721
          0.00006488184820460347 0.00006488175191920725 0.00006488146104875388 0.00006672731038055818 0.00006672722466403003 0.00006672696667322366
          0.00006855514605734682 0.0000685550685109457 0.00006855483514060341 0.00005569398947876074 0.00005569392199685612 0.000055693722022512935
          0.00005761809731459331 0.000057618004663443144 0.00005761772578058566 0.000059529045317273905 0.00005952893910415382 0.000059528619271253624
          0.00006142897653419041 0.00006142886459294454 0.0000614285274834199 0.00006331589467540554 0.00006331578372080697 0.00006331544965795991
          0.00006518538551648453 0.00006518527723983984 0.00006518495062020395 0.00006703115482859763 0.00006703106251558565 0.00006703078520908959
          0.00006884597724393273 0.00006884589378506984 0.00006884564277722534 0.0000559414369747821 0.00005594134204657449 0.000055941051846837226
          0.00005791907385751143 0.00005791895955201228 0.000057918617650292514 0.00005987868873242152 0.00005987856176152199 0.000059878180313789214
          0.00006181945157539146 0.00006181931917317986 0.00006181891946766623 0.00006373707834982454 0.0000637369505428173 0.0000637365674081571
          0.0000656251796784108 0.00006562505432443117 0.0000656246758803852 0.0000674757769713827 0.0000674756771629346 0.00006747537945366242
          0.00006927980282978121 0.0000692797126676134 0.00006927944310010671 0.000056288553793170264 0.000056288465312039646 0.000056288212049638015
          0.000058342761988386036 0.000058342610251853124 0.00005834214796367872 0.00006036754536468463 0.00006036738497842005 0.00006036690402933982
          0.0000623621184251804 0.00006236196459648748 0.00006236150297326343 0.0000643187086722652 0.00006431855818993404 0.00006431810720923589
          0.00006623000654018516 0.00006622985779534313 0.00006622940891409768 0.00006808703476202457 0.0000680869225177843 0.00006808658559585242
          0.00006987886772234333 0.00006987876673667767 0.00006987846237967972 0.00005452868150628641 0.000054528368907260565 0.00005452740627142233
          0.00005678538750259343 0.0000567850490061919 0.000056784035006544264 0.00005893331974286378 0.000058933140002005926 0.000058932624626297406
          0.00006104182486901038 0.00006104164205095913 0.00006104108792039537 0.00006310018149279886 0.0000630999855226278 0.00006309939368267561
          0.00006510062501357938 0.0000651004519249894 0.0000650999373222093 0.00006703567511622865 0.00006703549382023092 0.00006703494499635005
          0.00006889471142073635 0.00006889460060278888 0.00006889427905103619 0.00007066432549822652 0.00007066422679657112 0.00007066393742722517
          0.000054808598699207955 0.00005480839867243797 0.00005480781040970759 0.00005739924747359102 0.00005739852177933984 0.00005739631581608559
          0.000059762811088998206 0.00005976224653913708 0.00005976054703124693 0.00006195522274304799 0.00006195503476009106 0.00006195450165965172
          0.00006408466195840468 0.00006408447482667312 0.00006408390085210314 0.00006613283713142173 0.00006613262062174598 0.00006613197591538696
          0.00006808657422727139 0.00006808633655001676 0.00006808561322194884 0.0000699327274528897 0.00006993256469329594 0.0000699320710072957
          0.00007164925802607597 0.00007164911888515105 0.00007164869417522364 0.00005503144584931648 0.00005503144516620941 0.000055031452214904
          0.00005804972845354519 0.00005804888487631915 0.000058046345755860174 0.00006079753293793683 0.000060796393578012316 0.00006079294728298643
          0.00006316810127230977 0.00006316759454901194 0.00006316611688500745 0.00006537667983373331 0.00006537650317020421 0.0000653760042826808
          0.00006748028865935491 0.00006748003021029898 0.00006747925305270091 0.00006944794150493139 0.00006944763677675074 0.00006944671975816552
          0.00007123648602583237 0.00007123641055093261 0.00007123622711004906 0.00007281064349059435 0.00007281057542921875 0.0000728103828100015
          0.0000552407909569517 0.00005524098744538169 0.00005524159925961879 0.00005874398172742516 0.000058743097454826296 0.000058740459798755815
          0.00006195043210988704 0.00006194886084087871 0.00006194409612951746 0.00006468187761643066 0.00006468075034152497 0.00006467726331274746
          0.00006704909995610466 0.00006704875253803186 0.00006704772026872134 0.00006926708571750693 0.00006926673983205571 0.00006926571817195247
          0.0000712513954426563 0.00007125079798239689 0.00007124893756811191 0.00007288237808305871 0.00007288209364022713 0.00007288123144690271
          0.00007404089006031185 0.00007404085779421155 0.00007404074852837969 0.00006963861984845146 0.00006968887667748656 0.00006963855470080479
          0.00006968880987273184 0.00006963835788298388 0.00006968860841209824 0.00006984327858709792 0.00006984320767867004 0.00006984299331509965
          0.00007011172971499738 0.00007011165232762087 0.00007011141823207845 0.00007050884148287388 0.00007050875552195473 0.00007050849401199403
          0.00007105061724332826 0.00007105052298639354 0.0000710502367759753 0.00007174885678894176 0.0000717487487382166 0.00007174841165570702
          0.00007259697307403031 0.00007259687599407056 0.00007259658178891318 0.00007354871595588298 0.00007354857348839683 0.00007354808318065549
          0.0000743234677171925 0.00007432377417223054 0.00007432471110173838 0.00007094139863908516 0.00007098722625039859 0.00007094134070888345
          0.00007098716770700203 0.00007094116549213861 0.00007098699091110529 0.0000711276085429776 0.00007112754882786548 0.00007112736911289437
          0.00007137051770707888 0.00007137045680834112 0.00007137027475802313 0.00007172717010648418 0.00007172710948898602 0.00007172693022780487
          0.00007220841648460644 0.00007220836104782239 0.0000722081998895728 0.00007281762781136 0.00007281758612885307 0.0000728174703235729
          0.00007353636705296466 0.00007353637775707624 0.00007353642872698905 0.00007428491771171234 0.00007428500961622303 0.00007428531473667723
          0.00007477735268115502 0.00007477788858106304 0.00007477958254844049 0.00007224239087759391 0.00007228311163262918 0.00007224234114414165
          0.00007228306148542232 0.00007224219067438616 0.00007228290976682735 0.00007240757803425628 0.00007240752703380452 0.00007240737246513617
          0.00007262205951616135 0.00007262200777857909 0.00007262185100275193 0.00007293489433898774 0.00007293484369329135 0.00007293468992175199
          0.00007335260848568714 0.00007335256308135673 0.0000733524240677213 0.00007387236160390906 0.0000738723337557509 0.00007387224541708669
          0.00007446573338674494 0.00007446574009472132 0.00007446575043521728 0.00007503914254914917 0.00007503922995254223 0.00007503947035473191
          0.00007536132923749644 0.00007536156421428403 0.00007536222037843531 0.00007354103916551287 0.00007357603359643416 0.00007354099774005871
          0.00007357599200040802 0.00007354087213657543 0.0000735758659993386 0.00007368281036824877 0.00007368276866038071 0.00007368264245146416
          0.00007386616018682515 0.00007386611902377415 0.00007386599519282226 0.00007413199765203641 0.00007413195924928656 0.0000741318445582131
          0.00007448348241669258 0.00007448345216112523 0.00007448336295991467 0.00007491330543837633 0.00007491329316508567 0.0000749132585021589
          0.00007538787228683402 0.00007538789574294576 0.00007538797147187636 0.00007581817036418974 0.00007581825668104957 0.00007581852212462526
          0.00007603170917501997 0.00007603190006072019 0.0000760325040351642 0.00007483707255752278 0.00007486579038053922 0.00007483703951964027
          0.00007486575731802525 0.00007483693926254171 0.00007486565704402881 0.00007495329280168626 0.00007495326000020821 0.00007495316051532973
          0.00007510309663219102 0.00007510306492557515 0.00007510296912328763 0.00007531915786014739 0.00007531912959418068 0.00007531904438352206
          0.00007560223494822377 0.00007560221483219758 0.0000756021539614462 0.00007594273018792758 0.00007594272641775967 0.00007594271432202475
          0.0000763076227623032 0.0000763076480953126 0.00007630772238722933 0.00007662213222904087 0.00007662220415060002 0.00007662241643569275
          0.00007676367866005365 0.00007676380764018284 0.00007676418548277649 0.00007613052941592672 0.00007615250330273693 0.00007613050471907757
          0.00007615247866502016 0.00007613042974107267 0.00007615240390670832 0.00007621938308908088 0.00007621935885011779 0.00007621928538102703
          0.00007633360224387761 0.00007633357922961916 0.00007633350986761174 0.00007649760960617596 0.00007649758983392252 0.00007649753050197884
          0.00007671078053237466 0.00007671076774069386 0.00007671072955694832 0.00007696356832537054 0.0000769635685111558 0.00007696356943248656
          0.00007722800959954907 0.00007722803149196111 0.0000772280982887076 0.00007744743841404928 0.00007744749147215007 0.00007744765152839563
          0.00007753891490526405 0.00007753900121106764 0.0000775392657344766 0.0000774217449706355 0.0000774366069740124 0.00007742172855815971
          0.00007743659063473916 0.00007742167872262048 0.00007743654105451804 0.00007748180431775868 0.00007748178835134669 0.0000774817399566084
          0.00007755885271523905 0.0000775588377740342 0.00007755879272180883 0.0000776691079406002 0.00007766909548053575 0.00007766905805023089
          0.00007781152605734852 0.0000778115186469525 0.00007781149642421682 0.00007797859443672711 0.00007797859598658611 0.00007797860078052435
          0.0000781503323675198 0.00007815034828491243 0.000078150396334032 0.00007828913452349463 0.00007828916972004079 0.00007828927514057205
          0.00007834384132446668 0.00007834389592106755 0.00007834405915766685 0.00007871130954928808 0.00007871880550907929 0.00007871130141007549
          0.00007871879740675333 0.0000787112765906027 0.00007871877273789841 0.00007874159033899013 0.0000787415824373606 0.00007874155844707073
          0.00007878038749072614 0.00007878038013558536 0.00007878035798253794 0.00007883578502610386 0.00007883577897246664 0.0000788357608818399
          0.00007890706124046948 0.00007890705779218031 0.00007890704761956214 0.00007899011370066081 0.0000789901147730341 0.00007899011832305608
          0.00007907459149118053 0.00007907459960885195 0.00007907462455015893 0.00007914182019681366 0.00007914183749898347 0.0000791418896850284
          0.00007916741514660458 0.0000791674411082974 0.00007916751980852344 0.00008 0.00008 0.00008
          0.00008 0.00008 0.00008 0.00008 0.00008 0.00008
          0.00008 0.00008 0.00008 0.00008 0.00008 0.00008
          0.00008 0.00008 0.00008 0.00008 0.00008 0.00008
          0.00008 0.00008 0.00008 0.00008 0.00008 0.00008
          0.00008 0.00008 0.00008
        </DataArray>
        <DataArray type="Float64" Name="disp_y" format="ascii" RangeMin="-0.000007139673283854439" RangeMax="0">
          -0.000004138259717422621 -0.000004837691328099863 -0.00000509438859465973 -0.000004767579323102873 -0.000004138335088064162 -0.0000048377579373844774
          -0.000005094529025996773 -0.000004767694204690258 -0.000004138559911874408 -0.000004837918295930932 -0.000005094949251994614 -0.00000476800029049579
          -0.0000041314494556272485 -0.0000037700870865075943 -0.0000035996730406847284 -0.000004070033433353797 -0.000004131602504276057 -0.000003770265787161596
          -0.0000035998070048576435 -0.00000407019248106946 -0.000004132072414784145 -0.000003770774811950654 -0.0000036002038977223047 -0.000004070630453026281
          -0.000004061691996935217 -0.000004570530749300377 -0.0000040617968384442726 -0.000004570609657585416 -0.000004062166633464996 -0.000004570928887684947
          -0.0000031037645220886904 -0.000002876425821259863 -0.0000034886742447849716 -0.000003103867294909187 -0.000002876422544755903 -0.0000034887465998747147
          -0.000003104206410744666 -0.0000028763922649004058 -0.000003489005829664984 -0.000005296631659175804 -0.000005544829738985076 -0.000005628889693444896
          -0.000005195070017719271 -0.000005296326387642468 -0.000005544362347109063 -0.000005628374411234751 -0.000005194729052636821 -0.000005295383879237906
          -0.0000055428666933426495 -0.000005626803769981897 -0.000005193567206615533 -0.000005803948384018344 -0.0000059648775294868444 -0.000005719347048058368
          -0.00000548400139375342 -0.000005803461909119778 -0.0000059643514827698394 -0.000005718836021453735 -0.000005483643032498418 -0.000005801882321918916
          -0.000005962769023552477 -0.000005717387012900772 -0.000005482580014594448 -0.00000396180630480104 -0.000003669103907792158 -0.00000338752762423768
          -0.000003961904981256909 -0.0000036692513433040276 -0.00000338768929481709 -0.000003962208938115169 -0.0000036696522455909817 -0.000003388247866904006
          -0.0000034252792585648846 -0.0000034252500165288925 -0.0000034251727707633774 -0.0000030441896113043907 -0.000003380624529747983 -0.000003044367632053864
          -0.000003380784826034645 -0.000003044957521534643 -0.0000033813862778249517 -0.0000027268519864971103 -0.0000022655090452531793 -0.0000027266893889513863
          -0.0000022653440652411213 -0.0000027262155661939013 -0.0000022648751557804624 -0.000006399451210394868 -0.0000064291075687046725 -0.0000063986511347115155
          -0.00000642841869714194 -0.000006396238973261213 -0.000006426275696066258 -0.000005526452730464269 -0.000005507792722450468 -0.000004998668620786401
          -0.000005115255628555977 -0.0000055258484520587575 -0.0000055071539381030695 -0.000004998230902967271 -0.000005114827848869051 -0.0000055241206397295395
          -0.000005505226748808541 -0.000004996839789523031 -0.00000511363374502618 -0.0000037934360071302057 -0.000003793205576377061 -0.0000037926208527650047
          -0.000006444167167130316 -0.000006443573995298198 -0.00000644171807413327 -0.0000025249763787427683 -0.0000025250033094320728 -0.0000025250895885632707
          -0.000004483905124634761 -0.000004450900805022375 -0.000004483958647425934 -0.000004450910630801114 -0.000004484223587732424 -0.0000044509288108064644
          -0.000004188401743477142 -0.00000413312843583495 -0.000004473836561810129 -0.000004604486292760149 -0.000004188020418689759 -0.00000413290951639604
          -0.000004473519260475224 -0.000004604018216135181 -0.000004186753321316245 -0.000004132259634305668 -0.000004472629365120086 -0.000004602512974619175
          -0.000004965846305723772 -0.000005133175522215942 -0.00000496580799503089 -0.000005133186292421107 -0.000004965753015698012 -0.000005133250706216361
          -0.0000059691519206289055 -0.000005968422528757513 -0.0000059661867203656335 -0.00000593894645884433 -0.00000593830372009883 -0.000005936554589288292
          -0.000005390201987340318 -0.000005630114806081781 -0.0000053896017422374765 -0.000005629390310218109 -0.000005387698076977944 -0.000005627377180095603
          -0.0000054989871699275686 -0.000005685683858145362 -0.000005498725369415093 -0.000005685281949125155 -0.000005498106167017641 -0.000005683868917027917
          -0.000004333084213864462 -0.000004121954083574788 -0.000004332819893764584 -0.0000041217946158324205 -0.000004331972866220022 -0.000004121357738201092
          -0.000005952842393129944 -0.000005952083698634909 -0.000005949697357682897 -0.000003704425629268634 -0.0000037044071212455828 -0.000003704331991844761
          -0.0000059519659714869485 -0.000005951213168916375 -0.00000594901572658213 -0.000003921355303873546 -0.000003921344333701687 -0.000003921462800666071
          -0.000005559566646635356 -0.000005558815680902224 -0.000005556515915262327 -0.000007139673283854439 -0.000006939206934266355 -0.000007138968984930662
          -0.000006938589224492742 -0.000007137073074125141 -0.000006936683967179886 -0.0000048447560407441 -0.000004844594878258019 -0.000004844188479755444
          -0.000004759308056280152 -0.000004635500863448277 -0.000004759083855904781 -0.000004635267546219059 -0.000004758469981223479 -0.000004634559185473928
          -0.000004630099340497693 -0.000004825564892004023 -0.000004629613601438837 -0.000004825103809934923 -0.0000046283031286617866 -0.000004823789974098052
          -0.000005332647717750751 -0.0000055639307054161914 -0.00000533259680217112 -0.000005563798293599275 -0.000005332591187305815 -0.000005563420859675839
          -0.000005195283916543687 -0.000005194616967022783 -0.000005192786360037067 -0.000006721779703574598 -0.000006721054975466876 -0.000006719056979893428
          -0.0000050215941085543845 -0.000005020966015809369 -0.000005019261559837309 -0.000006018751316161566 -0.000006291807725904582 -0.00000601802198960678
          -0.0000062910197847919675 -0.000006016080329015469 -0.000006288271154668507 -0.000006655442469709996 -0.000006846157491432833 -0.000006654656866742931
          -0.000006845368140791482 -0.000006652278694121512 -0.0000068427803867953925 -0.0000061811110371479505 -0.000006161847763367005 -0.000006390956066671256
          -0.000006180310707524263 -0.000006161145581396028 -0.000006390097900946097 -0.000006177805053460519 -0.000006159145947162249 -0.000006387378357039169
          -0.000006591676313052632 -0.000006590805123812584 -0.00000658834403208252 -0.000004152599226461716 -0.000004413102235906552 -0.000004152414848559252
          -0.000004412841798282777 -0.00000415182313737596 -0.0000044120956768105975 -0.000005441680143067766 -0.000005429568050777734 -0.000005441752056066835
          -0.0000054296455536219035 -0.0000054421505628397 -0.000005429923977780028 -0.000006378246277624813 -0.000006377549984135044 -0.0000063754821993343685
          -0.000006445685351863215 -0.000006444798502191864 -0.000006442310650504168 -0.000004441145860600495 -0.0000044409948508539575 -0.000004440657416272666
          -0.000005917393499845679 -0.000006047212593433353 -0.000005916887032934862 -0.000006046689395151001 -0.000005915474146871542 -0.000006045454271968094
          -0.000006198253228040619 -0.000006197635033632606 -0.000006195793371591576 -0.000005810281147087657 -0.000005810044943228376 -0.0000058092915731120805
          -0.000004241046563917978 -0.000004241013136037859 -0.000004241163811991726 -0.000005715484416818819 -0.000005715615908547443 -0.000005716017498679733
          -0.000005627509664580065 -0.000005627532532145095 -0.000005627791191639643 -0.000005532960270080885 -0.000005532921010824576 -0.000005532867815620827
          -0.000002356192194537536 -0.0000023559263139964638 -0.0000023551325736194776 -0.000003009985517445388 -0.0000030098305387488826 -0.0000030093662673303006
          -0.0000037235375104158592 -0.000003723501851938963 -0.0000037234101078342065 -0.000004465865395514218 -0.000004465920016998061 -0.000004466109178244763
          -0.000005207621565143598 -0.0000052076859097760115 -0.000005207913480434138 -3.4107210492540057e-7 0 -3.410543430030737e-7
          0 -3.410009148550625e-7 0 -3.723627715670955e-7 0 -3.7234832115223413e-7
          0 -3.723053122537093e-7 0 -4.225156965827289e-7 0 -4.2250535519655466e-7
          0 -4.2247460150435006e-7 0 -4.878609326329126e-7 0 -4.878556616460439e-7
          0 -4.878399459737217e-7 0 -5.645632447550022e-7 0 -5.64562753687395e-7
          0 -5.645614661647019e-7 0 -6.490275791457513e-7 0 -6.490317866533773e-7
          0 -6.490444409655641e-7 0 -7.3802892787063e-7 0 -7.380375604126974e-7
          0 -7.380635221783382e-7 0 -8.289051265978714e-7 0 -8.289160275268609e-7
          0 -8.289487542009506e-7 0 -6.819166474290118e-7 -6.818798572760413e-7 -6.817673268804169e-7
          -7.454924861581424e-7 -7.45463734880798e-7 -7.453766194630626e-7 -8.471262024542609e-7 -8.471089836871139e-7 -8.470576840058439e-7
          -9.78708134812757e-7 -9.787008456418475e-7 -9.786792468294993e-7 -0.0000011321557154604015 -0.0000011321585928859048 -0.0000011321674143141324
          -0.0000013001538837226228 -0.0000013001655193387302 -0.0000013002006374102544 -0.0000014762050463219238 -0.0000014762247378825569 -0.0000014762845582990035
          -0.000001654841893235003 -0.0000016548655551034322 -0.0000016549370093268422 -0.0000010223030463176092 -0.000001022244880180145 -0.0000010220767824345027
          -0.0000011194600499999699 -0.0000011194190944963758 -0.00000111929828165037 -0.000001274311617309662 -0.0000012742841314867555 -0.0000012742011786391222
          -0.00000147295229890233 -0.000001472943299420792 -0.0000014729169869301763 -0.0000017026315416843012 -0.0000017026376550853785 -0.0000017026560302349339
          -0.0000019523127506164517 -0.0000019523327093115805 -0.0000019523925788683342 -0.0000022121083500095854 -0.0000022121412233899283 -0.000002212239867959213
          -0.000002473335457524575 -0.000002473374268996368 -0.000002473489552433429 -0.0000013628730922443685 -0.0000013627793363948687 -0.0000013624810690924965
          -0.0000014951159569902382 -0.0000014950482559644538 -0.0000014948425101296855 -0.0000017046393712676977 -0.0000017046104515242904 -0.0000017045238992362652
          -0.000001969974403888474 -0.000001969964997661517 -0.0000019699352155419214 -0.000002273681602495929 -0.0000022736950895303703 -0.0000022737356523721406
          -0.000002601536257539551 -0.000002601569199928024 -0.000002601668747882175 -0.0000029401965945894036 -0.0000029402488827213276 -0.000002940408264924117
          -0.000003276751985401721 -0.000003276813316861888 -0.0000032769997993417337 -0.0000017050821032420886 -0.0000017050120797973442 -0.0000017048316731518963
          -0.0000018738882764735554 -0.0000018738333212047372 -0.0000018736684176314212 -0.000002138099824517153 -0.0000021380599498819178 -0.0000021379419875752254
          -0.0000024666232987628144 -0.000002466624920738056 -0.000002466633351610754 -0.0000028386723504346726 -0.0000028386978712188835 -0.000002838775195345581
          -0.000003238795667337022 -0.00000323884573946063 -0.000003238995461503335 -0.0000036498184339643136 -0.0000036498927350893865 -0.000003650113005609058
          -0.00000405242539955155 -0.000004052506609612224 -0.000004052743153301409 -0.0000020532317325864814 -0.000002052557642575806 -0.0000020504949621062732
          -0.000002053706368758034 -0.000002053307421365775 -0.0000020521057228249673 -0.0000022560859024783167 -0.0000022560054343128746 -0.000002255776574702642
          -0.0000025724780810081484 -0.0000025724565693779053 -0.0000025723806066076194 -0.000002954103273833523 -0.0000029541014749620853 -0.000002954092210565831
          -0.000003383706260649905 -0.000003383744786613151 -0.0000033838599015050506 -0.000003846857056282487 -0.000003846934907740704 -0.000003847170313257114
          -0.000004322207621696106 -0.000004322338017066898 -0.000004322738566977544 -0.000004779821696196572 -0.000004779975363332377 -0.000004780447038643814
          -0.000002568870569209155 -0.0000025681436497790224 -0.000002565969982176805 -0.0000024707316165805155 -0.0000024699591765451875 -0.000002467605529499996
          -0.000002639247556471317 -0.0000026389852525224215 -0.0000026382208498661104 -0.000002999191282712014 -0.0000029992638060200036 -0.000002999512241932659
          -0.0000034161086327593267 -0.0000034161459745964818 -0.0000034162536650125316 -0.000003884118271387837 -0.0000038841836998722486 -0.0000038843840546102445
          -0.000004395806794219288 -0.000004395902131168833 -0.000004396184188889364 -0.000004926435696970931 -0.00000492657247675293 -0.000004926974653395836
          -0.000005426106012929112 -0.000005426226458412991 -0.000005426567866915684 -0.000003285771768054971 -0.0000032849346305237274 -0.0000032824313400989384
          -0.0000030754950479813423 -0.000003074529672469067 -0.000003071632835926367 -0.0000030921372015626685 -0.0000030913706559277125 -0.000003089043630082289
          -0.0000034027267104653156 -0.000003402511953649571 -0.000003401902583381458 -0.000003832901301057738 -0.000003832928535238384 -0.0000038330267848364714
          -0.00000430188885330158 -0.000004301931331610514 -0.000004302055576196829 -0.000004831510793911551 -0.000004831674092896746 -0.0000048321690732363764
          -0.000005398134430821122 -0.000005398481163723032 -0.000005399535915824486 -0.000005931899419167992 -0.0000059323726104639976 -0.000005933783866292032
          -0.000004247649634952182 -0.00000424641148009381 -0.00000424266817686291 -0.0000039333621167717585 -0.000003932073399187765 -0.0000039282156200813264
          -0.0000037292789226182926 -0.000003728064733066844 -0.000003724351980218083 -0.000003824664814822205 -0.00000382412249695354 -0.000003822414257605925
          -0.000004179555992987973 -0.000004179536040458391 -0.000004179470803573163 -0.0000045798143597042154 -0.000004579804106257237 -0.00000457976515071128
          -0.000005049254691262161 -0.00000504949982428657 -0.000005050229407415622 -0.000005585413804343535 -0.000005586055130239013 -0.00000558797750282254
          -0.000006199037046183586 -0.0000061999800477589696 -0.000006202854699329463 0 -8.588019557622752e-7 0
          -8.588150120852454e-7 0 -8.588542273111136e-7 -0.0000017131977362957085 -0.0000017132254407904176 -0.0000017133091734449836
          -0.0000025574091889850495 -0.0000025574539097426163 -0.000002557587773531477 -0.0000033829877653711063 -0.0000033830567821817678 -0.000003383266217090989
          -0.000004177398702184355 -0.000004177490940306725 -0.000004177764851908821 -0.000004921707681765981 -0.000004921868924076801 -0.000004922361269610535
          -0.0000055886288237003025 -0.00000558879600074587 -0.000005589291963176729 -0.000006134260922383485 -0.000006134696684632406 -0.000006136015851660073
          -0.000006475978372667146 -0.000006476765675128087 -0.000006479140669231263 0 -8.838385265238764e-7 0
          -8.838524387566181e-7 0 -8.838941697656766e-7 -0.0000017615952989936883 -0.0000017616242505461953 -0.000001761711130453234
          -0.0000026259534642775245 -0.0000026259999560445406 -0.0000026261394070699082 -0.000003467200974284386 -0.0000034672688034572253 -0.000003467472280719827
          -0.00000427196659492713 -0.000004272061716251308 -0.0000042723469193914175 -0.000005021479734169784 -0.000005021615596436414 -0.000005022023038470625
          -0.000005689717969096667 -0.000005689892105999271 -0.000005690414878639248 -0.000006229463969808136 -0.000006229740783720368 -0.000006230561423221241
          -0.000006602139465991573 -0.000006602495650225356 -0.0000066035632320278845 0 -9.041184533418033e-7 0
          -9.041328997366397e-7 0 -9.041762570371221e-7 -0.000001800342769768698 -0.000001800372552606339 -0.000001800462027445862
          -0.0000026796118254943565 -0.000002679658735421881 -0.0000026797995531922673 -0.0000035305894693658013 -0.000003530656432664483 -0.000003530857596645427
          -0.000004338510339312542 -0.0000043386011557463516 -0.0000043388737543510185 -0.000005083813853396308 -0.00000508393409207444 -0.000005084295306585587
          -0.000005738988956609197 -0.000005739140055101055 -0.000005739593286646039 -0.0000062666344033534 -0.000006266818018972707 -0.000006267368205706741
          -0.000006661946252547441 -0.0000066621451943156 -0.000006662743704894965 0 -9.199819916662715e-7 0
          -9.19996680885165e-7 0 -9.200407597028702e-7 -0.000001830228593525441 -0.0000018302585455438995 -0.0000018303485306309823
          -0.000002719855990757527 -0.000002719902372935169 -0.0000027200417595328068 -0.000003575762846367614 -0.0000035758273659348425 -0.0000035760211823656083
          -0.000004381654840987648 -0.0000043817391271819555 -0.000004381992282009829 -0.000005116932910336069 -0.000005117037918707823 -0.000005117352619715993
          -0.000005755948341881995 -0.000005756072222791805 -0.000005756444169105914 -0.000006275015845561301 -0.0000062751378679305204 -0.0000062755021948126405
          -0.0000066888044424139095 -0.000006688914705812757 -0.000006689243798831866 0 -9.319080459459741e-7 0
          -9.319227658399488e-7 0 -9.31966953807818e-7 -0.000001852336024142763 -0.0000018523657579737097 -0.0000018524551285830807
          -0.000002748656294183542 -0.000002748701620623716 -0.000002748837869826675 -0.000003606093208928322 -0.0000036061547263103433 -0.0000036063394547064325
          -0.000004406992855315572 -0.000004407070379398104 -0.000004407303018609918 -0.000005130646276222836 -0.000005130737788333146 -0.000005131011793083365
          -0.000005755497459654516 -0.000005755597380590075 -0.000005755897242863796 -0.000006269808268104999 -0.000006269891461112987 -0.0000062701399596750405
          -0.000006698541090736529 -0.000006698603403528966 -0.0000066987893649198355 0 -9.404362623197685e-7 0
          -9.40450895973964e-7 0 -9.404948386620721e-7 -0.000001867874114281741 -0.000001867903460145295 -0.0000018679916382677385
          -0.000002768172238653628 -0.00000276821637885253 -0.0000027683489529142653 -0.0000036251414389840045 -0.0000036252000593245885 -0.0000036253758600665287
          -0.000004420200594329258 -0.000004420272146924417 -0.0000044204866255423225 -0.000005133345956627997 -0.0000051334263521319505 -0.000005133666864070828
          -0.000005747468261006701 -0.000005747549883056621 -0.0000057477948056079324 -0.0000062596270464015294 -0.000006259685438261228 -0.000006259859670321127
          -0.000006699844773942527 -0.000006699880480947724 -0.0000066999864125242715 0 -9.460870762223466e-7 0
          -9.461015944760017e-7 0 -9.461451905751269e-7 -0.0000018780004635353917 -0.0000018780294161791511 -0.0000018781163796800536
          -0.0000027804349907247944 -0.0000027804780741114515 -0.000002780607410497856 -0.0000036361632782070263 -0.0000036362195002970087 -0.0000036363880523769846
          -0.000004426101141639188 -0.000004426168028805885 -0.000004426368539852244 -0.000005131226811410156 -0.000005131298984068652 -0.000005131514977022018
          -0.000005738088417487791 -0.000005738157419133076 -0.0000057383645489936685 -0.0000062495037793321685 -0.00000624954703025219 -0.000006249675976955157
          -0.000006697819492606531 -0.0000066978398886671896 -0.000006697899772569446 0 -9.492895860183416e-7 0
          -9.493040343676448e-7 0 -9.493473806661804e-7 -0.000001883662988964669 -0.0000018836916789374996 -0.0000018837778087807868
          -0.000002787085396198259 -0.0000027871277658978335 -0.0000027872549622042733 -0.000003641707105370001 -0.0000036417617419984355 -0.000003641925641583325
          -0.000004428228140429529 -0.000004428292051403555 -0.000004428483843604234 -0.000005128408668772985 -0.000005128475794157632 -0.000005128676911591752
          -0.000005731123668349956 -0.000005731185307082086 -0.000005731370548475816 -0.000006242390297328029 -0.000006242425259106133 -0.00000624252951961112
          -0.000006695514833341082 -0.000006695527274103199 -0.000006695563294513147 0 -9.503248215697015e-7 0
          -9.503391745259283e-7 0 -9.503823825268269e-7 -0.000001885479554414284 -0.0000018855080133702743 -0.0000018855937459537153
          -0.0000027891812736583352 -0.000002789223211640078 -0.0000027893495278700213 -0.0000036433742425919355 -0.0000036434281399311334 -0.0000036435902987180564
          -0.000004428702839651942 -0.000004428765566047663 -0.00000442895427138445 -0.0000051272192841483475 -0.000005127284613510848 -0.000005127480673072273
          -0.000005728590341303644 -0.000005728649606461838 -0.000005728827712145187 -0.000006239854222125772 -0.0000062398867511080976 -0.000006239983341872836
          -0.000006694572540667715 -0.000006694582728851073 -0.000006694611478939866
        </DataArray>
        <DataArray type="Float64" Name="disp_z" format="ascii" RangeMin="-2.4949667114047237e-7" RangeMax="0">
          0 0 0 0 -7.410405957482279e-8 -7.277820431721307e-8
          -6.962759689051255e-8 -6.992431182582016e-8 -1.481916531576341e-7 -1.4556578635559328e-7 -1.3924527166335335e-7 -1.3986076398006196e-7
          0 0 0 0 -6.804916797847004e-8 -6.964861462213382e-8
          -7.155783834822985e-8 -6.965661759221661e-8 -1.3616039657437754e-7 -1.39321739599685e-7 -1.4310400781351594e-7 -1.3931429833540408e-7
          0 0 -7.150454099231062e-8 -6.869940225490476e-8 -1.4298873676029786e-7 -1.3744645342599635e-7
          0 0 0 -7.327510491765026e-8 -7.442948397369021e-8 -7.374121312919276e-8
          -1.4650716454269106e-7 -1.4882650279634182e-7 -1.4745563886098141e-7 0 0 0
          0 -7.062968668667004e-8 -7.609646046380457e-8 -8.054501884430379e-8 -7.213137091851729e-8 -1.4135590713102522e-7
          -1.523003659971319e-7 -1.6118802281701468e-7 -1.4439761502964438e-7 0 0 0
          0 -7.502181483671253e-8 -7.934086505492504e-8 -7.738075128739675e-8 -7.023775064041313e-8 -1.5019502008021322e-7
          -1.5868730238595046e-7 -1.5477567029296826e-7 -1.40668715096125e-7 0 0 0
          -6.815783769258485e-8 -6.882611986910798e-8 -7.136714558555675e-8 -1.3635558710373916e-7 -1.3772105042436363e-7 -1.4273568333488268e-7
          0 -7.498001368755447e-8 -1.4994494247119703e-7 0 0 -7.304844375685972e-8
          -6.958009836124375e-8 -1.4610742256599612e-7 -1.39231375807621e-7 0 0 -7.287239348070568e-8
          -7.312710071023534e-8 -1.4571588971746208e-7 -1.462335947953429e-7 0 0 -1.055168134838193e-7
          -1.0906351629771991e-7 -2.1090887786210204e-7 -2.1811259655115873e-7 0 0 0
          0 -8.362997477101472e-8 -8.80537050580007e-8 -7.837743576759624e-8 -7.451694968224269e-8 -1.6734810317498888e-7
          -1.7624057152398877e-7 -1.568104759166402e-7 -1.4908586217900786e-7 0 -7.751397406327667e-8 -1.5511683344725457e-7
          0 -1.1244447339779443e-7 -2.246550823440759e-7 0 -7.459034590773092e-8 -1.4912773084174437e-7
          0 0 -6.757427613690263e-8 -6.689999382764762e-8 -1.3519756439099446e-7 -1.3394347882006618e-7
          0 0 0 0 -8.090061119715877e-8 -7.605997024335737e-8
          -7.866836082382191e-8 -8.651619581785999e-8 -1.6185972619270355e-7 -1.5222311160299e-7 -1.573638532145975e-7 -1.7312647806991142e-7
          0 0 -6.708880284639599e-8 -6.681092208041864e-8 -1.3428096567977665e-7 -1.3370649064219113e-7
          0 -1.0248741413355357e-7 -2.0502901660555675e-7 0 -8.418051996648081e-8 -1.6854054891366747e-7
          0 0 -9.540854814118899e-8 -9.798176251944394e-8 -1.9092124532328562e-7 -1.9610250382435397e-7
          0 0 -6.798995511521397e-8 -7.030298154800376e-8 -1.3602080301350914e-7 -1.4077560377339215e-7
          0 0 -7.239365989301148e-8 -7.193706456434929e-8 -1.4500084337283717e-7 -1.440271702179558e-7
          0 -9.81718292612209e-8 -1.9633983585279397e-7 0 -7.169144851890297e-8 -1.4351304804117934e-7
          0 -9.410739293564956e-8 -1.8824976993173978e-7 0 -6.847955554251584e-8 -1.37089905256946e-7
          0 -9.235720470128068e-8 -1.8474776506487828e-7 0 0 -1.1148759564938259e-7
          -1.1043901344428668e-7 -2.2276372570839902e-7 -2.207431826406712e-7 0 -6.736400892199664e-8 -1.3484805209753057e-7
          0 0 -6.844198750530988e-8 -7.036158528311084e-8 -1.3703323217785447e-7 -1.4083237803997984e-7
          0 0 -7.475105328717567e-8 -8.136064578532466e-8 -1.4960983780260228e-7 -1.6282785889737574e-7
          0 0 -6.765698702245005e-8 -6.781020928312244e-8 -1.354803327240765e-7 -1.3573138028132306e-7
          0 -8.570843440781342e-8 -1.7154521348344437e-7 0 -1.0875021016402605e-7 -2.1720206263879657e-7
          0 -9.100007528012256e-8 -1.820949540979643e-7 0 0 -9.051514190192571e-8
          -9.948771938649042e-8 -1.810906348899308e-7 -1.9919592600860443e-7 0 0 -1.0280620393690826e-7
          -1.0446190304837668e-7 -2.0553119673499562e-7 -2.0893386533201372e-7 0 0 0
          -9.076424828832676e-8 -8.607953160113328e-8 -9.397270725860599e-8 -1.8157342205225977e-7 -1.7230594426226106e-7 -1.880238293229007e-7
          0 -9.602383589064273e-8 -1.920301396089374e-7 0 0 -6.871514725163939e-8
          -7.030543097709711e-8 -1.375844405148823e-7 -1.406841542060604e-7 0 0 -6.806755650415843e-8
          -6.924899545155847e-8 -1.3624126051073892e-7 -1.385049296248785e-7 0 -8.81967295619277e-8 -1.7655025676592979e-7
          0 -1.0126764524904571e-7 -2.0260389368455407e-7 0 -6.711691751975999e-8 -1.3432585026389832e-7
          0 0 -7.325722188314903e-8 -7.735301368538223e-8 -1.465105636834891e-7 -1.546651815858066e-7
          0 -8.205377451591344e-8 -1.6423984446694002e-7 0 -6.947250814412172e-8 -1.3914461952483518e-7
          0 -6.734309737617296e-8 -1.3481986066677103e-7 0 -6.712220091529485e-8 -1.3448554700382676e-7
          0 -6.935892823224584e-8 -1.3863295270407709e-7 0 -7.27086013685131e-8 -1.4542100563357038e-7
          0 -7.20305358842469e-8 -1.4406272747481874e-7 0 -7.587226011201104e-8 -1.5173552436427072e-7
          0 -7.79163135331808e-8 -1.5583502918918125e-7 0 -7.726157345512328e-8 -1.5453564257593018e-7
          0 -7.58951409236662e-8 -1.5182895910613107e-7 0 0 -6.002723558383035e-8
          -5.98617182550412e-8 -1.200552732782182e-7 -1.197233712336743e-7 0 0 -5.8688680185811706e-8
          -5.855841913774793e-8 -1.1737781237848774e-7 -1.1711637056937731e-7 0 0 -5.7032047639006145e-8
          -5.6946628305930024e-8 -1.140642771748521e-7 -1.1389323013157675e-7 0 0 -5.5172856739322875e-8
          -5.513679771843747e-8 -1.103460141278295e-7 -1.102734019542693e-7 0 0 -5.322610489557281e-8
          -5.324146406967056e-8 -1.0645232003948435e-7 -1.064827540421597e-7 0 0 -5.1295783668682535e-8
          -5.136121055200911e-8 -1.0259183743108805e-7 -1.0272241011118885e-7 0 0 -4.9461142150481095e-8
          -4.957529170099071e-8 -9.892214461160944e-8 -9.915047057598907e-8 0 0 -4.782162920653702e-8
          -4.795921240425453e-8 -9.564324073833141e-8 -9.591848093494968e-8 0 -6.054436264545248e-8 -1.2108740743913579e-7
          0 -5.907551971659107e-8 -1.1814980133204994e-7 0 -5.726462246294704e-8 -1.1452937051340329e-7
          0 -5.524219159021966e-8 -1.1048402403217066e-7 0 -5.31393891129273e-8 -1.0627833631828635e-7
          0 -5.106540212295318e-8 -1.0213114784256196e-7 0 -4.908836956849775e-8 -9.817642213389288e-8
          0 -4.737763499826594e-8 -9.47559034139021e-8 0 -6.14557422062108e-8 -1.229171512115068e-7
          0 -5.976668863244618e-8 -1.1953532741064082e-7 0 -5.767180045979912e-8 -1.1534307728400078e-7
          0 -5.537445932309239e-8 -1.1074993575615133e-7 0 -5.299705814500181e-8 -1.0599372598728013e-7
          0 -5.066633993673682e-8 -1.0133360477398032e-7 0 -4.8426411859398584e-8 -9.68513463519437e-8
          0 -4.657473758469976e-8 -9.314936036411929e-8 0 -6.285811428313432e-8 -1.257017071650442e-7
          0 -6.072176168443168e-8 -1.2144077405556005e-7 0 -5.8240423920161997e-8 -1.1648104910175436e-7
          0 -5.5498649089358485e-8 -1.1099607212606003e-7 0 -5.272759954181929e-8 -1.0545408931177082e-7
          0 -5.001163356474646e-8 -1.0002539941095228e-7 0 -4.736987268320665e-8 -9.473974045072584e-8
          0 -4.531352928254653e-8 -9.063135383129579e-8 0 -6.479259134405851e-8 -1.296153599501908e-7
          0 -6.215999280859018e-8 -1.2431900557817988e-7 0 -5.8797874012694206e-8 -1.1759801182352268e-7
          0 -5.556867285090248e-8 -1.1114170067912246e-7 0 -5.223652178790638e-8 -1.0447139456441595e-7
          0 -4.899448298611938e-8 -9.799134322721564e-8 0 -4.576618011252576e-8 -9.152433433261528e-8
          0 -4.341834770817199e-8 -8.683285488612788e-8 0 -7.50575486337616e-8 -1.5011141247429634e-7
          0 -6.745073210271329e-8 -1.3491607574777466e-7 0 -6.301247621647158e-8 -1.260401922617677e-7
          0 -5.956046491712897e-8 -1.1910520778927069e-7 0 -5.5343220648022065e-8 -1.106822553459475e-7
          0 -5.143263294415703e-8 -1.0286187601113703e-7 0 -4.747952488315134e-8 -9.496734363444822e-8
          0 -4.339000000864321e-8 -8.678487680859885e-8 0 -4.072470131733204e-8 -8.146958280337321e-8
          0 -9.0228068480244e-8 -1.8039684150546154e-7 0 -8.069813533106819e-8 -1.6142691433386115e-7
          0 -6.590708505480487e-8 -1.3188684754419108e-7 0 -5.903245574254701e-8 -1.181055044098708e-7
          0 -5.52209981602793e-8 -1.1044330273376127e-7 0 -5.024601423095573e-8 -1.0048634804438599e-7
          0 -4.529602825946465e-8 -9.059936721982238e-8 0 -3.960647406054638e-8 -7.918445007246802e-8
          0 -3.629578465608208e-8 -7.25800631176765e-8 0 -1.033467297014565e-7 -2.0659121941617214e-7
          0 -9.675325727017736e-8 -1.934263646406979e-7 0 -7.490118728842218e-8 -1.498697933763137e-7
          0 -5.8341021287673845e-8 -1.167479081199399e-7 0 -5.39093618597109e-8 -1.0783797853217803e-7
          0 -4.8642901143919394e-8 -9.72623225498084e-8 0 -4.249516515466689e-8 -8.502453267740264e-8
          0 -3.501468937950822e-8 -7.001177649275877e-8 0 -3.155369494192638e-8 -6.313570199354507e-8
          0 -1.2477477712971268e-7 -2.4949667114047237e-7 0 -1.1946838477708013e-7 -2.388418422985302e-7
          0 -9.621922560549399e-8 -1.9252336334572653e-7 0 -6.735126489549102e-8 -1.3483455269155327e-7
          0 -5.3847378435805427e-8 -1.0774540141399502e-7 0 -4.840006292356071e-8 -9.678786842798912e-8
          0 -3.7301352542864624e-8 -7.462802152930724e-8 0 -2.1643281787259044e-8 -4.3256807158593125e-8
          0 -1.0815044110887785e-8 -2.1640683403292784e-8 0 0 -4.69390870848545e-8
          -4.677199390565573e-8 -9.387827067800113e-8 -9.35438720046694e-8 0 -4.624481852421988e-8 -9.248932288507312e-8
          0 -4.5305652759462364e-8 -9.060935606524091e-8 0 -4.3854533047687576e-8 -8.770811606719027e-8
          0 -4.170870297833064e-8 -8.340876364471758e-8 0 -3.867797528679065e-8 -7.735499365508813e-8
          0 -3.3771881309381634e-8 -6.751964432670502e-8 0 -2.7769105414754072e-8 -5.550205556582549e-8
          0 -1.0195147847025356e-8 -2.0328637221572076e-8 0 0 -4.6018678336957594e-8
          -4.584003858546903e-8 -9.203727387881623e-8 -9.168011912325734e-8 0 -4.5287401007346316e-8 -9.057527336607132e-8
          0 -4.431640866717355e-8 -8.8633969246693e-8 0 -4.2843228341044636e-8 -8.56891101903799e-8
          0 -4.0748616272362756e-8 -8.150084582281011e-8 0 -3.779641240599622e-8 -7.56027991024684e-8
          0 -3.37255997838064e-8 -6.746199523262998e-8 0 -2.8237502001898682e-8 -5.651129793190976e-8
          0 -1.9761774885524992e-8 -3.956182013540236e-8 0 0 -4.521636690023536e-8
          -4.503010452754333e-8 -9.043278186874836e-8 -9.006019503594213e-8 0 -4.445920858294466e-8 -8.891819549057603e-8
          0 -4.346877645326399e-8 -8.693691335398332e-8 0 -4.200005796424041e-8 -8.399892510517951e-8
          0 -3.996070435783896e-8 -7.991896647428854e-8 0 -3.724028401581426e-8 -7.447704367268709e-8
          0 -3.3708879151938314e-8 -6.740890194497949e-8 0 -2.940011903200023e-8 -5.878512142317264e-8
          0 -2.4372415924542224e-8 -4.868630905256364e-8 0 0 -4.4535474793387797e-8
          -4.4345815450322826e-8 -8.907093888193009e-8 -8.869164024606434e-8 0 -4.376859067549167e-8 -8.753727619162338e-8
          0 -4.278063850317435e-8 -8.55615300510438e-8 0 -4.134491299234176e-8 -8.269029204445166e-8
          0 -3.9415664394380267e-8 -7.883239024147876e-8 0 -3.696116316320427e-8 -7.392345535469976e-8
          0 -3.398621146036864e-8 -6.797641077088435e-8 0 -3.07147103417242e-8 -6.143339439844126e-8
          0 -2.7774955482050677e-8 -5.556351510944488e-8 0 0 -4.397862163032116e-8
          -4.378821172482479e-8 -8.795725203361674e-8 -8.757642545720822e-8 0 -4.321236554313327e-8 -8.642470430878491e-8
          0 -4.223874924824229e-8 -8.447741947940468e-8 0 -4.0852274629390686e-8 -8.17043795913801e-8
          0 -3.9046089545404346e-8 -7.809192104356476e-8 0 -3.684818077981903e-8 -7.369556150571406e-8
          0 -3.4353855518323086e-8 -6.870714684002903e-8 0 -3.1885790824342494e-8 -6.376858408348659e-8
          0 -3.010445517279333e-8 -6.019827646056235e-8 0 0 -4.354642185667434e-8
          -4.3356800422161206e-8 -8.709284121971618e-8 -8.671360288221026e-8 0 -4.27862768017706e-8 -8.557256172795473e-8
          0 -4.183205259887248e-8 -8.366413683964224e-8 0 -4.049732505397767e-8 -8.09946659353505e-8
          0 -3.88050743553951e-8 -7.761031925393726e-8 0 -3.6824962236396614e-8 -7.364972573687694e-8
          0 -3.470915375254011e-8 -6.941934083457369e-8 0 -3.280490105685991e-8 -6.560905343381235e-8
          0 -3.16963867333361e-8 -6.339318402950021e-8 0 0 -4.323851518911557e-8
          -4.3050225053242606e-8 -8.647703315850428e-8 -8.610045218395157e-8 0 -4.248596286315267e-8 -8.497192128644046e-8
          0 -4.155021921658072e-8 -8.31004350096882e-8 0 -4.025959670155878e-8 -8.051914089156373e-8
          0 -3.8657758885723655e-8 -7.731554947704638e-8 0 -3.6841220051147644e-8 -7.368209065573629e-8
          0 -3.499469684314004e-8 -6.998991068076296e-8 0 -3.3458220853536034e-8 -6.691524723467249e-8
          0 -3.274528333235244e-8 -6.548873568973535e-8 0 0 -4.305422407882441e-8
          -4.2867021829847455e-8 -8.610844755064707e-8 -8.573404338967441e-8 0 -4.230751045929769e-8 -8.46150174361673e-8
          0 -4.13846854127757e-8 -8.276937683283912e-8 0 -4.0123254663415504e-8 -8.024647090287459e-8
          0 -3.8578898875903574e-8 -7.715787064676213e-8 0 -3.686307299427195e-8 -7.37258622375975e-8
          0 -3.517612995634343e-8 -7.03528976549085e-8 0 -3.3845923400577024e-8 -6.769089251448096e-8
          0 -3.334068220082057e-8 -6.66806890070387e-8 0 0 -4.299288624701047e-8
          -4.2806087813649576e-8 -8.598576306616507e-8 -8.561216608360982e-8 0 -4.2248312434690085e-8 -8.449661588008679e-8
          0 -4.133011054066075e-8 -8.266022574206002e-8 0 -4.0078868091652944e-8 -8.01576963183696e-8
          0 -3.8554205366300534e-8 -7.710847912630736e-8 0 -3.687234042122296e-8 -7.374439548576207e-8
          0 -3.523822471260674e-8 -7.047704822169938e-8 0 -3.397440841193632e-8 -6.794784938330447e-8
          0 -3.3534477020003395e-8 -6.70681305835994e-8
        </DataArray>
      </PointData>
      <CellData>
        <DataArray type="Int32" Name="libmesh_elem_id" format="ascii" RangeMin="1398" RangeMax="3643">
          1398 1399 1422 1423 1460 1461
          1470 1471 1482 1483 1494 1495
          1502 1503 1506 1507 1520 1521
          1528 1529 1580 1581 1584 1585
          1612 1613 1636 1637 1652 1653
          1722 1723 1798 1799 1850 1851
          2298 2299 2406 2407 2442 2443
          2450 2451 2472 2473 2558 2559
          2610 2611 2646 2647 2648 2649
          2662 2663 2672 2673 2680 2681
          2748 2749 2756 2757 2776 2777
          2808 2809 2814 2815 2822 2823
          2828 2829 2836 2837 2852 2853
          2876 2877 2898 2899 2910 2911
          2926 2927 2936 2937 2950 2951
          2952 2953 2954 2955 2966 2967
          2980 2981 2982 2983 2990 2991
          3006 3007 3014 3015 3026 3027
          3068 3069 3074 3075 3104 3105
          3110 3111 3124 3125 3126 3127
          3168 3169 3194 3195 3204 3205
          3208 3209 3210 3211 3212 3213
          3220 3221 3222 3223 3224 3225
          3226 3227 3234 3235 3236 3237
          3240 3241 3252 3253 3254 3255
          3264 3265 3296 3297 3302 3303
          3308 3309 3314 3315 3324 3325
          3326 3327 3328 3329 3330 3331
          3332 3333 3334 3335 3336 3337
          3342 3343 3344 3345 3346 3347
          3348 3349 3350 3351 3352 3353
          3354 3355 3360 3361 3362 3363
          3364 3365 3366 3367 3368 3369
          3370 3371 3372 3373 3378 3379
          3380 3381 3382 3383 3384 3385
          3386 3387 3388 3389 3390 3391
          3396 3397 3398 3399 3400 3401
          3402 3403 3404 3405 3406 3407
          3408 3409 3414 3415 3416 3417
          3418 3419 3420 3421 3422 3423
          3424 3425 3426 3427 3430 3431
          3432 3433 3434 3435 3436 3437
          3438 3439 3440 3441 3442 3443
          3444 3445 3448 3449 3450 3451
          3452 3453 3454 3455 3456 3457
          3458 3459 3460 3461 3462 3463
          3466 3467 3468 3469 3470 3471
          3472 3473 3474 3475 3476 3477
          3478 3479 3480 3481 3482 3483
          3484 3485 3486 3487 3488 3489
          3490 3491 3492 3493 3494 3495
          3496 3497 3498 3499 3500 3501
          3502 3503 3504 3505 3506 3507
          3508 3509 3510 3511 3512 3513
          3514 3515 3516 3517 3518 3519
          3520 3521 3522 3523 3524 3525
          3526 3527 3528 3529 3530 3531
          3532 3533 3534 3535 3536 3537
          3538 3539 3540 3541 3542 3543
          3544 3545 3546 3547 3548 3549
          3550 3551 3552 3553 3554 3555
          3556 3557 3558 3559 3560 3561
          3562 3563 3564 3565 3566 3567
          3568 3569 3570 3571 3572 3573
          3574 3575 3576 3577 3578 3579
          3580 3581 3582 3583 3584 3585
          3586 3587 3588 3589 3590 3591
          3592 3593 3594 3595 3596 3597
          3598 3599 3600 3601 3602 3603
          3604 3605 3606 3607 3608 3609
          3610 3611 3612 3613 3614 3615
          3616 3617 3618 3619 3620 3621
          3622 3623 3624 3625 3626 3627
          3628 3629 3630 3631 3632 3633
          3634 3635 3636 3637 3638 3639
          3640 3641 3642 3643
        </DataArray>
        <DataArray type="Int32" Name="subdomain_id" format="ascii" RangeMin="107" RangeMax="110">
          107 107 107 107 107 107
          107 107 107 107 107 107
          107 107 107 107 107 107
          107 107 107 107 107 107
          107 107 107 107 107 107
          107 107 107 107 107 107
          107 107 107 107 107 107
          107 107 107 107 107 107
          107 107 107 107 107 107
          107 107 107 107 107 107
          107 107 107 107 107 107
          107 107 107 107 107 107
          107 107 107 107 107 107
          107 107 107 107 107 107
          107 107 107 107 107 107
          107 107 107 107 107 107
          107 107 107 107 107 107
          107 107 107 107 107 107
          107 107 107 107 107 107
          107 107 107 107 107 107
          107 107 107 107 107 107
          107 107 107 107 107 107
          107 107 107 107 107 107
          107 107 107 107 107 107
          107 107 107 107 107 107
          107 107 108 108 108 108
          108 108 108 108 109 109
          109 109 109 109 109 109
          109 109 109 109 109 109
          109 109 109 109 109 109
          109 109 109 109 109 109
          109 109 109 109 109 109
          109 109 109 109 109 109
          109 109 109 109 109 109
          109 109 109 109 109 109
          109 109 109 109 109 109
          109 109 109 109 109 109
          109 109 109 109 109 109
          109 109 109 109 109 109
          109 109 109 109 109 109
          109 109 109 109 109 109
          109 109 109 109 109 109
          109 109 109 109 109 109
          109 109 109 109 109 109
          109 109 109 109 109 109
          109 109 109 109 109 109
          109 109 109 109 109 109
          109 109 109 109 109 109
          109 109 109 109 110 110
          110 110 110 110 110 110
          110 110 110 110 110 110
          110 110 110 110 110 110
          110 110 110 110 110 110
          110 110 110 110 110 110
          110 110 110 110 110 110
          110 110 110 110 110 110
          110 110 110 110 110 110
          110 110 110 110 110 110
          110 110 110 110 110 110
          110 110 110 110 110 110
          110 110 110 110 110 110
          110 110 110 110 110 110
          110 110 110 110 110 110
          110 110 110 110 110 110
          110 110 110 110 110 110
          110 110 110 110 110 110
          110 110 110 110 110 110
          110 110 110 110 110 110
          110 110 110 110 110 110
          110 110 110 110 110 110
          110 110 110 110 110 110
          110 110 110 110 110 110
          110 110 110 110 110 110
          110 110 110 110 110 110
          110 110 110 110 110 110
          110 110 110 110
        </DataArray>
        <DataArray type="Int32" Name="processor_id" format="ascii" RangeMin="0" RangeMax="0">
          0 0 0 0 0 0
          0 0 0 0 0 0
          0 0 0 0 0 0
          0 0 0 0 0 0
          0 0 0 0 0 0
          0 0 0 0 0 0
          0 0 0 0 0 0
          0 0 0 0 0 0
          0 0 0 0 0 0
          0 0 0 0 0 0
          0 0 0 0 0 0
          0 0 0 0 0 0
          0 0 0 0 0 0
          0 0 0 0 0 0
          0 0 0 0 0 0
          0 0 0 0 0 0
          0 0 0 0 0 0
          0 0 0 0 0 0
          0 0 0 0 0 0
          0 0 0 0 0 0
          0 0 0 0 0 0
          0 0 0 0 0 0
          0 0 0 0 0 0
          0 0 0 0 0 0
          0 0 0 0 0 0
          0 0 0 0 0 0
          0 0 0 0 0 0
          0 0 0 0 0 0
          0 0 0 0 0 0
          0 0 0 0 0 0
          0 0 0 0 0 0
          0 0 0 0 0 0
          0 0 0 0 0 0
          0 0 0 0 0 0
          0 0 0 0 0 0
          0 0 0 0 0 0
          0 0 0 0 0 0
          0 0 0 0 0 0
          0 0 0 0 0 0
          0 0 0 0 0 0
          0 0 0 0 0 0
          0 0 0 0 0 0
          0 0 0 0 0 0
          0 0 0 0 0 0
          0 0 0 0 0 0
          0 0 0 0 0 0
          0 0 0 0 0 0
          0 0 0 0 0 0
          0 0 0 0 0 0
          0 0 0 0 0 0
          0 0 0 0 0 0
          0 0 0 0 0 0
          0 0 0 0 0 0
          0 0 0 0 0 0
          0 0 0 0 0 0
          0 0 0 0 0 0
          0 0 0 0 0 0
          0 0 0 0 0 0
          0 0 0 0 0 0
          0 0 0 0 0 0
          0 0 0 0 0 0
          0 0 0 0 0 0
          0 0 0 0 0 0
          0 0 0 0 0 0
          0 0 0 0 0 0
          0 0 0 0 0 0
          0 0 0 0 0 0
          0 0 0 0 0 0
          0 0 0 0 0 0
          0 0 0 0 0 0
          0 0 0 0 0 0
          0 0 0 0 0 0
          0 0 0 0 0 0
          0 0 0 0 0 0
          0 0 0 0 0 0
          0 0 0 0
        </DataArray>
      </CellData>
      <Points>
        <DataArray type="Float64" Name="Points" NumberOfComponents="3" format="ascii" RangeMin="0.019949534490770096" RangeMax="0.057059767276955435">
          0.025 0.010111111111103 0 0.025 0.011555555555552 0
          0.023969654121399 0.011643457228511 0 0.023712354871128 0.010827306146479 0
          0.025 0.010111111111103 0.00015 0.025 0.011555555555552 0.00015
          0.023969654121399 0.011643457228511 0.00015 0.023712354871128 0.010827306146479 0.00015
          0.025 0.010111111111103 0.0003 0.025 0.011555555555552 0.0003
          0.023969654121399 0.011643457228511 0.0003 0.023712354871128 0.010827306146479 0.0003
          0.021832836898909 0.0086447924127183 0 0.021823224979211 0.0078559681587773 0
          0.022737846371709 0.0079006862580081 0 0.022634898807434 0.0088549234284915 0
          0.021832836898909 0.0086447924127183 0.00015 0.021823224979211 0.0078559681587773 0.00015
          0.022737846371709 0.0079006862580081 0.00015 0.022634898807434 0.0088549234284915 0.00015
          0.021832836898909 0.0086447924127183 0.0003 0.021823224979211 0.0078559681587773 0.0003
          0.022737846371709 0.0079006862580081 0.0003 0.022634898807434 0.0088549234284915 0.0003
          0.023595500831214 0.0092794942281182 0 0.023071107871262 0.010124307969263 0
          0.023595500831214 0.0092794942281182 0.00015 0.023071107871262 0.010124307969263 0.00015
          0.023595500831214 0.0092794942281182 0.0003 0.023071107871262 0.010124307969263 0.0003
          0.022679909737796 0.0068405181074087 0 0.023816654948859 0.0069324696013164 0
          0.023805320189621 0.0081867285281858 0 0.022679909737796 0.0068405181074087 0.00015
          0.023816654948859 0.0069324696013164 0.00015 0.023805320189621 0.0081867285281858 0.00015
          0.022679909737796 0.0068405181074087 0.0003 0.023816654948859 0.0069324696013164 0.0003
          0.023805320189621 0.0081867285281858 0.0003 0.021890570917318 0.011219591567605 0
          0.021490495874743 0.011513015985888 0 0.020878683694742 0.011349585571751 0
          0.021380466308845 0.010767094219468 0 0.021890570917318 0.011219591567605 0.00015
          0.021490495874743 0.011513015985888 0.00015 0.020878683694742 0.011349585571751 0.00015
          0.021380466308845 0.010767094219468 0.00015 0.021890570917318 0.011219591567605 0.0003
          0.021490495874743 0.011513015985888 0.0003 0.020878683694742 0.011349585571751 0.0003
          0.021380466308845 0.010767094219468 0.0003 0.022336312736143 0.012467557709352 0
          0.021763745105177 0.012476629724541 0 0.021622459990569 0.011931223094182 0
          0.02233098651665 0.011816769005978 0 0.022336312736143 0.012467557709352 0.00015
          0.021763745105177 0.012476629724541 0.00015 0.021622459990569 0.011931223094182 0.00015
          0.02233098651665 0.011816769005978 0.00015 0.022336312736143 0.012467557709352 0.0003
          0.021763745105177 0.012476629724541 0.0003 0.021622459990569 0.011931223094182 0.0003
          0.02233098651665 0.011816769005978 0.0003 0.021047379294988 0.0079667793778881 0
          0.020813290684512 0.007243328880283 0 0.021666975794544 0.0069715825078724 0
          0.021047379294988 0.0079667793778881 0.00015 0.020813290684512 0.007243328880283 0.00015
          0.021666975794544 0.0069715825078724 0.00015 0.021047379294988 0.0079667793778881 0.0003
          0.020813290684512 0.007243328880283 0.0003 0.021666975794544 0.0069715825078724 0.0003
          0.025 0.0086666666666559 0 0.025 0.0086666666666559 0.00015
          0.025 0.0086666666666559 0.0003 0.021356284292895 0.0061182113295331 0
          0.020489019208248 0.0065103794253073 0 0.021356284292895 0.0061182113295331 0.00015
          0.020489019208248 0.0065103794253073 0.00015 0.021356284292895 0.0061182113295331 0.0003
          0.020489019208248 0.0065103794253073 0.0003 0.025 0.0072222222222063 0
          0.023829479378086 0.0056593315311521 0 0.025 0.0072222222222063 0.00015
          0.023829479378086 0.0056593315311521 0.00015 0.025 0.0072222222222063 0.0003
          0.023829479378086 0.0056593315311521 0.0003 0.019357361519954 0.01157618305141 0
          0.01884046117173 0.011223113854601 0 0.019357361519954 0.01157618305141 0.00015
          0.01884046117173 0.011223113854601 0.00015 0.019357361519954 0.01157618305141 0.0003
          0.01884046117173 0.011223113854601 0.0003 0.020274347850796 0.01080512315655 0
          0.019692191057164 0.010418143528135 0 0.020104676199583 0.0097475599042502 0
          0.020792052735599 0.010316149813733 0 0.020274347850796 0.01080512315655 0.00015
          0.019692191057164 0.010418143528135 0.00015 0.020104676199583 0.0097475599042502 0.00015
          0.020792052735599 0.010316149813733 0.00015 0.020274347850796 0.01080512315655 0.0003
          0.019692191057164 0.010418143528135 0.0003 0.020104676199583 0.0097475599042502 0.0003
          0.020792052735599 0.010316149813733 0.0003 0.018734278863615 0.0068564365277259 0
          0.018734278863615 0.0068564365277259 0.00015 0.018734278863615 0.0068564365277259 0.0003
          0.018384253973557 0.010894663204421 0 0.018384253973557 0.010894663204421 0.00015
          0.018384253973557 0.010894663204421 0.0003 0.022477642087048 0.0055533155338694 0
          0.022477642087048 0.0055533155338694 0.00015 0.022477642087048 0.0055533155338694 0.0003
          0.022333445868241 0.0096250088550796 0 0.021678233976573 0.0092839168226163 0
          0.022333445868241 0.0096250088550796 0.00015 0.021678233976573 0.0092839168226163 0.00015
          0.022333445868241 0.0096250088550796 0.0003 0.021678233976573 0.0092839168226163 0.0003
          0.018696511924608 0.0075816988835645 0 0.019307778433714 0.0076950261479263 0
          0.019244919669154 0.0083241905034728 0 0.018643245907353 0.0082916041839039 0
          0.018696511924608 0.0075816988835645 0.00015 0.019307778433714 0.0076950261479263 0.00015
          0.019244919669154 0.0083241905034728 0.00015 0.018643245907353 0.0082916041839039 0.00015
          0.018696511924608 0.0075816988835645 0.0003 0.019307778433714 0.0076950261479263 0.0003
          0.019244919669154 0.0083241905034728 0.0003 0.018643245907353 0.0082916041839039 0.0003
          0.02247089481133 0.010746063389313 0 0.022956441030322 0.011313723369763 0
          0.02247089481133 0.010746063389313 0.00015 0.022956441030322 0.011313723369763 0.00015
          0.02247089481133 0.010746063389313 0.0003 0.022956441030322 0.011313723369763 0.0003
          0.018817000838468 0.010560792840001 0 0.018817000838468 0.010560792840001 0.00015
          0.018817000838468 0.010560792840001 0.0003 0.021028725472558 0.011993213484042 0
          0.021028725472558 0.011993213484042 0.00015 0.021028725472558 0.011993213484042 0.0003
          0.018719100515555 0.0096191331103102 0 0.018769006148643 0.010016813571171 0
          0.018719100515555 0.0096191331103102 0.00015 0.018769006148643 0.010016813571171 0.00015
          0.018719100515555 0.0096191331103102 0.0003 0.018769006148643 0.010016813571171 0.0003
          0.022845614094026 0.012068678060928 0 0.022870050818517 0.012481997757377 0
          0.022845614094026 0.012068678060928 0.00015 0.022870050818517 0.012481997757377 0.00015
          0.022845614094026 0.012068678060928 0.0003 0.022870050818517 0.012481997757377 0.0003
          0.01980903614198 0.0082923028866096 0 0.019733887771193 0.007830319872041 0
          0.01980903614198 0.0082923028866096 0.00015 0.019733887771193 0.007830319872041 0.00015
          0.01980903614198 0.0082923028866096 0.0003 0.019733887771193 0.007830319872041 0.0003
          0.019287865107188 0.010870204720027 0 0.019287865107188 0.010870204720027 0.00015
          0.019287865107188 0.010870204720027 0.0003 0.019611341590458 0.0069319215290848 0
          0.019611341590458 0.0069319215290848 0.00015 0.019611341590458 0.0069319215290848 0.0003
          0.019793192887703 0.011218191570876 0 0.019793192887703 0.011218191570876 0.00015
          0.019793192887703 0.011218191570876 0.0003 0.02014052068744 0.0075597001530957 0
          0.02014052068744 0.0075597001530957 0.00015 0.02014052068744 0.0075597001530957 0.0003
          0.019142781766586 0.010156284019367 0 0.019142781766586 0.010156284019367 0.00015
          0.019142781766586 0.010156284019367 0.0003 0.019871794871807 0.013 0
          0.019671681078705 0.012567114388191 0 0.019871794871807 0.013 0.00015
          0.019671681078705 0.012567114388191 0.00015 0.019871794871807 0.013 0.0003
          0.019671681078705 0.012567114388191 0.0003 0.02189605775595 0.01024368797285 0
          0.02189605775595 0.01024368797285 0.00015 0.02189605775595 0.01024368797285 0.0003
          0.021306208963658 0.0098107932917518 0 0.020830530356293 0.0093484326970494 0
          0.021306208963658 0.0098107932917518 0.00015 0.020830530356293 0.0093484326970494 0.00015
          0.021306208963658 0.0098107932917518 0.0003 0.020830530356293 0.0093484326970494 0.0003
          0.019927087042343 0.0089401115508047 0 0.019284140679376 0.0089915496868705 0
          0.019927087042343 0.0089401115508047 0.00015 0.019284140679376 0.0089915496868705 0.00015
          0.019927087042343 0.0089401115508047 0.0003 0.019284140679376 0.0089915496868705 0.0003
          0.023272296973232 0.01187913061167 0 0.023408043049707 0.012441583397961 0
          0.023272296973232 0.01187913061167 0.00015 0.023408043049707 0.012441583397961 0.00015
          0.023272296973232 0.01187913061167 0.0003 0.023408043049707 0.012441583397961 0.0003
          0.019291729405334 0.009640079412969 0 0.019291729405334 0.009640079412969 0.00015
          0.019291729405334 0.009640079412969 0.0003 0.019497075330812 0.012129782091497 0
          0.019497075330812 0.012129782091497 0.00015 0.019497075330812 0.012129782091497 0.0003
          0.018655444813331 0.0089912542068827 0 0.018655444813331 0.0089912542068827 0.00015
          0.018655444813331 0.0089912542068827 0.0003 0.020217772280624 0.01161574996656 0
          0.019866459267603 0.011787315550137 0 0.020217772280624 0.01161574996656 0.00015
          0.019866459267603 0.011787315550137 0.00015 0.020217772280624 0.01161574996656 0.0003
          0.019866459267603 0.011787315550137 0.0003 0.020169909004412 0.012559422291794 0
          0.020384615384626 0.013 0 0.020169909004412 0.012559422291794 0.00015
          0.020384615384626 0.013 0.00015 0.020169909004412 0.012559422291794 0.0003
          0.020384615384626 0.013 0.0003 0.02048968364866 0.012063778985416 0
          0.021216890903006 0.012503701361908 0 0.020684692364028 0.012535095885709 0
          0.02048968364866 0.012063778985416 0.00015 0.021216890903006 0.012503701361908 0.00015
          0.020684692364028 0.012535095885709 0.00015 0.02048968364866 0.012063778985416 0.0003
          0.021216890903006 0.012503701361908 0.0003 0.020684692364028 0.012535095885709 0.0003
          0.020897435897446 0.013 0 0.020897435897446 0.013 0.00015
          0.020897435897446 0.013 0.0003 0.020387511226442 0.0081443073342907 0
          0.02056343795537 0.0087688297792787 0 0.020387511226442 0.0081443073342907 0.00015
          0.02056343795537 0.0087688297792787 0.00015 0.020387511226442 0.0081443073342907 0.0003
          0.02056343795537 0.0087688297792787 0.0003 0.023967653117571 0.012391671962311 0
          0.024322147732379 0.012509260561901 0 0.023967653117571 0.012391671962311 0.00015
          0.024322147732379 0.012509260561901 0.00015 0.023967653117571 0.012391671962311 0.0003
          0.024322147732379 0.012509260561901 0.0003 0.021410256410266 0.013 0
          0.021410256410266 0.013 0.00015 0.021410256410266 0.013 0.0003
          0.019993073529409 0.012116879865089 0 0.019993073529409 0.012116879865089 0.00015
          0.019993073529409 0.012116879865089 0.0003 0.02122910202584 0.0090825003429501 0
          0.02122910202584 0.0090825003429501 0.00015 0.02122910202584 0.0090825003429501 0.0003
          0.022948717948721 0.013 0 0.022435897435903 0.013 0
          0.022948717948721 0.013 0.00015 0.022435897435903 0.013 0.00015
          0.022948717948721 0.013 0.0003 0.022435897435903 0.013 0.0003
          0.021923076923085 0.013 0 0.021923076923085 0.013 0.00015
          0.021923076923085 0.013 0.0003 0.023461538461539 0.013 0
          0.023461538461539 0.013 0.00015 0.023461538461539 0.013 0.0003
          0.021171209164951 0.0086229949315581 0 0.021171209164951 0.0086229949315581 0.00015
          0.021171209164951 0.0086229949315581 0.0003 0.023974358974358 0.013 0
          0.023974358974358 0.013 0.00015 0.023974358974358 0.013 0.0003
          0.024487179487177 0.013 0 0.024487179487177 0.013 0.00015
          0.024487179487177 0.013 0.0003 0.025 0.013 0
          0.025 0.013 0.00015 0.025 0.013 0.0003
          0.026666666666667 0.0072222222222063 0 0.026666666666667 0.0072222222222063 0.00015
          0.026666666666667 0.0072222222222063 0.0003 0.026666666666668 0.0086666666666559 0
          0.026666666666668 0.0086666666666559 0.00015 0.026666666666668 0.0086666666666559 0.0003
          0.026666666666669 0.010111111111103 0 0.026666666666669 0.010111111111103 0.00015
          0.026666666666669 0.010111111111103 0.0003 0.026666666666669 0.011555555555552 0
          0.026666666666669 0.011555555555552 0.00015 0.026666666666669 0.011555555555552 0.0003
          0.02666666666667 0.013 0 0.02666666666667 0.013 0.00015
          0.02666666666667 0.013 0.0003 0.033201501647561 0.0014698753983525 0
          0.033179797338052 0 0 0.033201501647561 0.0014698753983525 0.00015
          0.033179797338052 0 0.00015 0.033201501647561 0.0014698753983525 0.0003
          0.033179797338052 0 0.0003 0.034800103200053 0.0015015548376625 0
          0.034769696007096 0 0 0.034800103200053 0.0015015548376625 0.00015
          0.034769696007096 0 0.00015 0.034800103200053 0.0015015548376625 0.0003
          0.034769696007096 0 0.0003 0.03639613666046 0.0015457026119765 0
          0.036359594676111 0 0 0.03639613666046 0.0015457026119765 0.00015
          0.036359594676111 0 0.00015 0.03639613666046 0.0015457026119765 0.0003
          0.036359594676111 0 0.0003 0.037988764334349 0.001602116400018 0
          0.037949493345121 0 0 0.037988764334349 0.001602116400018 0.00015
          0.037949493345121 0 0.00015 0.037988764334349 0.001602116400018 0.0003
          0.037949493345121 0 0.0003 0.039577164134098 0.001670537667151 0
          0.039539392014149 0 0 0.039577164134098 0.001670537667151 0.00015
          0.039539392014149 0 0.00015 0.039577164134098 0.001670537667151 0.0003
          0.039539392014149 0 0.0003 0.041160533348121 0.0017506528505884 0
          0.041129290683195 0 0 0.041160533348121 0.0017506528505884 0.00015
          0.041129290683195 0 0.00015 0.041160533348121 0.0017506528505884 0.0003
          0.041129290683195 0 0.0003 0.042738092320879 0.0018420947973532 0
          0.042719189352233 0 0 0.042738092320879 0.0018420947973532 0.00015
          0.042719189352233 0 0.00015 0.042738092320879 0.0018420947973532 0.0003
          0.042719189352233 0 0.0003 0.044309088021254 0.0019444444444413 0
          0.044309088021254 0 0 0.044309088021254 0.0019444444444413 0.00015
          0.044309088021254 0 0.00015 0.044309088021254 0.0019444444444413 0.0003
          0.044309088021254 0 0.0003 0.033223205957069 0.0029397507967035 0
          0.033223205957069 0.0029397507967035 0.00015 0.033223205957069 0.0029397507967035 0.0003
          0.03483051039301 0.0030031096753234 0 0.03483051039301 0.0030031096753234 0.00015
          0.03483051039301 0.0030031096753234 0.0003 0.036432678644808 0.0030914052239513 0
          0.036432678644808 0.0030914052239513 0.00015 0.036432678644808 0.0030914052239513 0.0003
          0.038028035323577 0.0032042328000343 0 0.038028035323577 0.0032042328000343 0.00015
          0.038028035323577 0.0032042328000343 0.0003 0.039614936254047 0.0033410753343001 0
          0.039614936254047 0.0033410753343001 0.00015 0.039614936254047 0.0033410753343001 0.0003
          0.041191776013048 0.0035013057011749 0 0.041191776013048 0.0035013057011749 0.00015
          0.041191776013048 0.0035013057011749 0.0003 0.042756995289524 0.0036841895947044 0
          0.042756995289524 0.0036841895947044 0.00015 0.042756995289524 0.0036841895947044 0.0003
          0.044309088021254 0.0038888888888803 0 0.044309088021254 0.0038888888888803 0.00015
          0.044309088021254 0.0038888888888803 0.0003 0.033244910266578 0.0044096261950543 0
          0.033244910266578 0.0044096261950543 0.00015 0.033244910266578 0.0044096261950543 0.0003
          0.034860917585967 0.004504664512984 0 0.034860917585967 0.004504664512984 0.00015
          0.034860917585967 0.004504664512984 0.0003 0.036469220629156 0.0046371078359259 0
          0.036469220629156 0.0046371078359259 0.00015 0.036469220629156 0.0046371078359259 0.0003
          0.038067306312805 0.0048063492000502 0 0.038067306312805 0.0048063492000502 0.00015
          0.038067306312805 0.0048063492000502 0.0003 0.039652708373995 0.0050116130014489 0
          0.039652708373995 0.0050116130014489 0.00015 0.039652708373995 0.0050116130014489 0.0003
          0.041223018677975 0.005251958551761 0 0.041223018677975 0.005251958551761 0.00015
          0.041223018677975 0.005251958551761 0.0003 0.04277589825817 0.0055262843920551 0
          0.04277589825817 0.0055262843920551 0.00015 0.04277589825817 0.0055262843920551 0.0003
          0.044309088021254 0.0058333333333189 0 0.044309088021254 0.0058333333333189 0.00015
          0.044309088021254 0.0058333333333189 0.0003 0.033266614576087 0.0058795015934051 0
          0.033266614576087 0.0058795015934051 0.00015 0.033266614576087 0.0058795015934051 0.0003
          0.034891324778924 0.0060062193506447 0 0.034891324778924 0.0060062193506447 0.00015
          0.034891324778924 0.0060062193506447 0.0003 0.036505762613504 0.0061828104479004 0
          0.036505762613504 0.0061828104479004 0.00015 0.036505762613504 0.0061828104479004 0.0003
          0.038106577302032 0.0064084656000662 0 0.038106577302032 0.0064084656000662 0.00015
          0.038106577302032 0.0064084656000662 0.0003 0.039690480493944 0.0066821506685977 0
          0.039690480493944 0.0066821506685977 0.00015 0.039690480493944 0.0066821506685977 0.0003
          0.041254261342902 0.0070026114023471 0 0.041254261342902 0.0070026114023471 0.00015
          0.041254261342902 0.0070026114023471 0.0003 0.042794801226816 0.0073683791894058 0
          0.042794801226816 0.0073683791894058 0.00015 0.042794801226816 0.0073683791894058 0.0003
          0.044309088021254 0.0077777777777574 0 0.044309088021254 0.0077777777777574 0.00015
          0.044309088021254 0.0077777777777574 0.0003 0.033288318885596 0.0073493769917596 0
          0.033288318885596 0.0073493769917596 0.00015 0.033288318885596 0.0073493769917596 0.0003
          0.034921731971881 0.0075077741883091 0 0.034921731971881 0.0075077741883091 0.00015
          0.034921731971881 0.0075077741883091 0.0003 0.036542304597852 0.0077285130598789 0
          0.036542304597852 0.0077285130598789 0.00015 0.036542304597852 0.0077285130598789 0.0003
          0.03814584829126 0.0080105820000862 0 0.03814584829126 0.0080105820000862 0.00015
          0.03814584829126 0.0080105820000862 0.0003 0.039728252613893 0.0083526883357508 0
          0.039728252613893 0.0083526883357508 0.00015 0.039728252613893 0.0083526883357508 0.0003
          0.041285504007829 0.0087532642529377 0 0.041285504007829 0.0087532642529377 0.00015
          0.041285504007829 0.0087532642529377 0.0003 0.042813704195461 0.0092104739867613 0
          0.042813704195461 0.0092104739867613 0.00015 0.042813704195461 0.0092104739867613 0.0003
          0.044309088021254 0.0097222222222011 0 0.044309088021254 0.0097222222222011 0.00015
          0.044309088021254 0.0097222222222011 0.0003 0.031657595460571 0.0087048568522863 0
          0.031657595460571 0.0087048568522863 0.00015 0.031657595460571 0.0087048568522863 0.0003
          0.033310023195106 0.0088192523901195 0 0.033310023195106 0.0088192523901195 0.00015
          0.033310023195106 0.0088192523901195 0.0003 0.034952139164838 0.009009329025979 0
          0.034952139164838 0.009009329025979 0.00015 0.034952139164838 0.009009329025979 0.0003
          0.0365788465822 0.0092742156718627 0 0.0365788465822 0.0092742156718627 0.00015
          0.0365788465822 0.0092742156718627 0.0003 0.038185119280488 0.0096126984001116 0
          0.038185119280488 0.0096126984001116 0.00015 0.038185119280488 0.0096126984001116 0.0003
          0.039766024733842 0.010023226002909 0 0.039766024733842 0.010023226002909 0.00015
          0.039766024733842 0.010023226002909 0.0003 0.041316746672756 0.010503917103534 0
          0.041316746672756 0.010503917103534 0.00015 0.041316746672756 0.010503917103534 0.0003
          0.042832607164107 0.011052568784123 0 0.042832607164107 0.011052568784123 0.00015
          0.042832607164107 0.011052568784123 0.0003 0.044309088021254 0.011666666666651 0
          0.044309088021254 0.011666666666651 0.00015 0.044309088021254 0.011666666666651 0.0003
          0.031668878259163 0.010155666327672 0 0.031668878259163 0.010155666327672 0.00015
          0.031668878259163 0.010155666327672 0.0003 0.033331727504615 0.010289127788478 0
          0.033331727504615 0.010289127788478 0.00015 0.033331727504615 0.010289127788478 0.0003
          0.034982546357795 0.010510883863647 0 0.034982546357795 0.010510883863647 0.00015
          0.034982546357795 0.010510883863647 0.0003 0.036615388566549 0.010819918283845 0
          0.036615388566549 0.010819918283845 0.00015 0.036615388566549 0.010819918283845 0.0003
          0.038224390269716 0.011214814800136 0 0.038224390269716 0.011214814800136 0.00015
          0.038224390269716 0.011214814800136 0.0003 0.039803796853791 0.011693763670067 0
          0.039803796853791 0.011693763670067 0.00015 0.039803796853791 0.011693763670067 0.0003
          0.041347989337683 0.012254569954129 0 0.041347989337683 0.012254569954129 0.00015
          0.041347989337683 0.012254569954129 0.0003 0.042851510132752 0.012894663581483 0
          0.042851510132752 0.012894663581483 0.00015 0.042851510132752 0.012894663581483 0.0003
          0.044309088021254 0.0136111111111 0 0.044309088021254 0.0136111111111 0.00015
          0.044309088021254 0.0136111111111 0.0003 0.031680161057755 0.011606475803059 0
          0.031680161057755 0.011606475803059 0.00015 0.031680161057755 0.011606475803059 0.0003
          0.033353431814124 0.011759003186837 0 0.033353431814124 0.011759003186837 0.00015
          0.033353431814124 0.011759003186837 0.0003 0.035012953550752 0.012012438701317 0
          0.035012953550752 0.012012438701317 0.00015 0.035012953550752 0.012012438701317 0.0003
          0.036651930550897 0.012365620895829 0 0.036651930550897 0.012365620895829 0.00015
          0.036651930550897 0.012365620895829 0.0003 0.038263661258944 0.012816931200161 0
          0.038263661258944 0.012816931200161 0.00015 0.038263661258944 0.012816931200161 0.0003
          0.03984156897374 0.013364301337225 0 0.03984156897374 0.013364301337225 0.00015
          0.03984156897374 0.013364301337225 0.0003 0.04137923200261 0.014005222804725 0
          0.04137923200261 0.014005222804725 0.00015 0.04137923200261 0.014005222804725 0.0003
          0.042870413101398 0.014736758378844 0 0.042870413101398 0.014736758378844 0.00015
          0.042870413101398 0.014736758378844 0.0003 0.044309088021254 0.015555555555549 0
          0.044309088021254 0.015555555555549 0.00015 0.044309088021254 0.015555555555549 0.0003
          0.031691443856347 0.013057285278446 0 0.031691443856347 0.013057285278446 0.00015
          0.031691443856347 0.013057285278446 0.0003 0.033375136123633 0.013228878585196 0
          0.033375136123633 0.013228878585196 0.00015 0.033375136123633 0.013228878585196 0.0003
          0.035043360743709 0.013513993538986 0 0.035043360743709 0.013513993538986 0.00015
          0.035043360743709 0.013513993538986 0.0003 0.036688472535245 0.013911323507812 0
          0.036688472535245 0.013911323507812 0.00015 0.036688472535245 0.013911323507812 0.0003
          0.038302932248172 0.014419047600187 0 0.038302932248172 0.014419047600187 0.00015
          0.038302932248172 0.014419047600187 0.0003 0.039879341093689 0.015034839004384 0
          0.039879341093689 0.015034839004384 0.00015 0.039879341093689 0.015034839004384 0.0003
          0.041410474667538 0.015755875655322 0 0.041410474667538 0.015755875655322 0.00015
          0.041410474667538 0.015755875655322 0.0003 0.042889316070044 0.016578853176207 0
          0.042889316070044 0.016578853176207 0.00015 0.042889316070044 0.016578853176207 0.0003
          0.044309088021254 0.0175 0 0.044309088021254 0.0175 0.00015
          0.044309088021254 0.0175 0.0003 0.045420199132363 0 0
          0.045420199132363 0.0019444444444413 0 0.045420199132363 0 0.00015
          0.045420199132363 0.0019444444444413 0.00015 0.045420199132363 0 0.0003
          0.045420199132363 0.0019444444444413 0.0003 0.045420199132363 0.0038888888888803 0
          0.045420199132363 0.0038888888888803 0.00015 0.045420199132363 0.0038888888888803 0.0003
          0.045420199132363 0.0058333333333189 0 0.045420199132363 0.0058333333333189 0.00015
          0.045420199132363 0.0058333333333189 0.0003 0.045420199132363 0.0077777777777574 0
          0.045420199132363 0.0077777777777574 0.00015 0.045420199132363 0.0077777777777574 0.0003
          0.045420199132363 0.0097222222222011 0 0.045420199132363 0.0097222222222011 0.00015
          0.045420199132363 0.0097222222222011 0.0003 0.045420199132363 0.011666666666651 0
          0.045420199132363 0.011666666666651 0.00015 0.045420199132363 0.011666666666651 0.0003
          0.045420199132363 0.0136111111111 0 0.045420199132363 0.0136111111111 0.00015
          0.045420199132363 0.0136111111111 0.0003 0.045420199132363 0.015555555555549 0
          0.045420199132363 0.015555555555549 0.00015 0.045420199132363 0.015555555555549 0.0003
          0.045420199132363 0.0175 0 0.045420199132363 0.0175 0.00015
          0.045420199132363 0.0175 0.0003 0.046531310243475 0 0
          0.046531310243475 0.0019444444444413 0 0.046531310243475 0 0.00015
          0.046531310243475 0.0019444444444413 0.00015 0.046531310243475 0 0.0003
          0.046531310243475 0.0019444444444413 0.0003 0.046531310243475 0.0038888888888803 0
          0.046531310243475 0.0038888888888803 0.00015 0.046531310243475 0.0038888888888803 0.0003
          0.046531310243475 0.0058333333333189 0 0.046531310243475 0.0058333333333189 0.00015
          0.046531310243475 0.0058333333333189 0.0003 0.046531310243475 0.0077777777777574 0
          0.046531310243475 0.0077777777777574 0.00015 0.046531310243475 0.0077777777777574 0.0003
          0.046531310243475 0.0097222222222011 0 0.046531310243475 0.0097222222222011 0.00015
          0.046531310243475 0.0097222222222011 0.0003 0.046531310243475 0.011666666666651 0
          0.046531310243475 0.011666666666651 0.00015 0.046531310243475 0.011666666666651 0.0003
          0.046531310243475 0.0136111111111 0 0.046531310243475 0.0136111111111 0.00015
          0.046531310243475 0.0136111111111 0.0003 0.046531310243475 0.015555555555549 0
          0.046531310243475 0.015555555555549 0.00015 0.046531310243475 0.015555555555549 0.0003
          0.046531310243475 0.0175 0 0.046531310243475 0.0175 0.00015
          0.046531310243475 0.0175 0.0003 0.04764242135458 0 0
          0.04764242135458 0.0019444444444413 0 0.04764242135458 0 0.00015
          0.04764242135458 0.0019444444444413 0.00015 0.04764242135458 0 0.0003
          0.04764242135458 0.0019444444444413 0.0003 0.04764242135458 0.0038888888888803 0
          0.04764242135458 0.0038888888888803 0.00015 0.04764242135458 0.0038888888888803 0.0003
          0.04764242135458 0.0058333333333189 0 0.04764242135458 0.0058333333333189 0.00015
          0.04764242135458 0.0058333333333189 0.0003 0.04764242135458 0.0077777777777574 0
          0.04764242135458 0.0077777777777574 0.00015 0.04764242135458 0.0077777777777574 0.0003
          0.04764242135458 0.0097222222222011 0 0.04764242135458 0.0097222222222011 0.00015
          0.04764242135458 0.0097222222222011 0.0003 0.04764242135458 0.011666666666651 0
          0.04764242135458 0.011666666666651 0.00015 0.04764242135458 0.011666666666651 0.0003
          0.04764242135458 0.0136111111111 0 0.04764242135458 0.0136111111111 0.00015
          0.04764242135458 0.0136111111111 0.0003 0.04764242135458 0.015555555555549 0
          0.04764242135458 0.015555555555549 0.00015 0.04764242135458 0.015555555555549 0.0003
          0.04764242135458 0.0175 0 0.04764242135458 0.0175 0.00015
          0.04764242135458 0.0175 0.0003 0.048753532465692 0 0
          0.048753532465692 0.0019444444444413 0 0.048753532465692 0 0.00015
          0.048753532465692 0.0019444444444413 0.00015 0.048753532465692 0 0.0003
          0.048753532465692 0.0019444444444413 0.0003 0.048753532465692 0.0038888888888803 0
          0.048753532465692 0.0038888888888803 0.00015 0.048753532465692 0.0038888888888803 0.0003
          0.048753532465692 0.0058333333333189 0 0.048753532465692 0.0058333333333189 0.00015
          0.048753532465692 0.0058333333333189 0.0003 0.048753532465692 0.0077777777777574 0
          0.048753532465692 0.0077777777777574 0.00015 0.048753532465692 0.0077777777777574 0.0003
          0.048753532465692 0.0097222222222011 0 0.048753532465692 0.0097222222222011 0.00015
          0.048753532465692 0.0097222222222011 0.0003 0.048753532465692 0.011666666666651 0
          0.048753532465692 0.011666666666651 0.00015 0.048753532465692 0.011666666666651 0.0003
          0.048753532465692 0.0136111111111 0 0.048753532465692 0.0136111111111 0.00015
          0.048753532465692 0.0136111111111 0.0003 0.048753532465692 0.015555555555549 0
          0.048753532465692 0.015555555555549 0.00015 0.048753532465692 0.015555555555549 0.0003
          0.048753532465692 0.0175 0 0.048753532465692 0.0175 0.00015
          0.048753532465692 0.0175 0.0003 0.0498646435768 0 0
          0.0498646435768 0.0019444444444413 0 0.0498646435768 0 0.00015
          0.0498646435768 0.0019444444444413 0.00015 0.0498646435768 0 0.0003
          0.0498646435768 0.0019444444444413 0.0003 0.0498646435768 0.0038888888888803 0
          0.0498646435768 0.0038888888888803 0.00015 0.0498646435768 0.0038888888888803 0.0003
          0.0498646435768 0.0058333333333189 0 0.0498646435768 0.0058333333333189 0.00015
          0.0498646435768 0.0058333333333189 0.0003 0.0498646435768 0.0077777777777574 0
          0.0498646435768 0.0077777777777574 0.00015 0.0498646435768 0.0077777777777574 0.0003
          0.0498646435768 0.0097222222222011 0 0.0498646435768 0.0097222222222011 0.00015
          0.0498646435768 0.0097222222222011 0.0003 0.0498646435768 0.011666666666651 0
          0.0498646435768 0.011666666666651 0.00015 0.0498646435768 0.011666666666651 0.0003
          0.0498646435768 0.0136111111111 0 0.0498646435768 0.0136111111111 0.00015
          0.0498646435768 0.0136111111111 0.0003 0.0498646435768 0.015555555555549 0
          0.0498646435768 0.015555555555549 0.00015 0.0498646435768 0.015555555555549 0.0003
          0.0498646435768 0.0175 0 0.0498646435768 0.0175 0.00015
          0.0498646435768 0.0175 0.0003 0.050975754687912 0 0
          0.050975754687912 0.0019444444444413 0 0.050975754687912 0 0.00015
          0.050975754687912 0.0019444444444413 0.00015 0.050975754687912 0 0.0003
          0.050975754687912 0.0019444444444413 0.0003 0.050975754687912 0.0038888888888803 0
          0.050975754687912 0.0038888888888803 0.00015 0.050975754687912 0.0038888888888803 0.0003
          0.050975754687912 0.0058333333333189 0 0.050975754687912 0.0058333333333189 0.00015
          0.050975754687912 0.0058333333333189 0.0003 0.050975754687912 0.0077777777777574 0
          0.050975754687912 0.0077777777777574 0.00015 0.050975754687912 0.0077777777777574 0.0003
          0.050975754687912 0.0097222222222011 0 0.050975754687912 0.0097222222222011 0.00015
          0.050975754687912 0.0097222222222011 0.0003 0.050975754687912 0.011666666666651 0
          0.050975754687912 0.011666666666651 0.00015 0.050975754687912 0.011666666666651 0.0003
          0.050975754687912 0.0136111111111 0 0.050975754687912 0.0136111111111 0.00015
          0.050975754687912 0.0136111111111 0.0003 0.050975754687912 0.015555555555549 0
          0.050975754687912 0.015555555555549 0.00015 0.050975754687912 0.015555555555549 0.0003
          0.050975754687912 0.0175 0 0.050975754687912 0.0175 0.00015
          0.050975754687912 0.0175 0.0003 0.052086865799025 0 0
          0.052086865799025 0.0019444444444413 0 0.052086865799025 0 0.00015
          0.052086865799025 0.0019444444444413 0.00015 0.052086865799025 0 0.0003
          0.052086865799025 0.0019444444444413 0.0003 0.052086865799025 0.0038888888888803 0
          0.052086865799025 0.0038888888888803 0.00015 0.052086865799025 0.0038888888888803 0.0003
          0.052086865799025 0.0058333333333189 0 0.052086865799025 0.0058333333333189 0.00015
          0.052086865799025 0.0058333333333189 0.0003 0.052086865799025 0.0077777777777574 0
          0.052086865799025 0.0077777777777574 0.00015 0.052086865799025 0.0077777777777574 0.0003
          0.052086865799025 0.0097222222222011 0 0.052086865799025 0.0097222222222011 0.00015
          0.052086865799025 0.0097222222222011 0.0003 0.052086865799025 0.011666666666651 0
          0.052086865799025 0.011666666666651 0.00015 0.052086865799025 0.011666666666651 0.0003
          0.052086865799025 0.0136111111111 0 0.052086865799025 0.0136111111111 0.00015
          0.052086865799025 0.0136111111111 0.0003 0.052086865799025 0.015555555555549 0
          0.052086865799025 0.015555555555549 0.00015 0.052086865799025 0.015555555555549 0.0003
          0.052086865799025 0.0175 0 0.052086865799025 0.0175 0.00015
          0.052086865799025 0.0175 0.0003 0.05319797691014 0 0
          0.05319797691014 0.0019444444444413 0 0.05319797691014 0 0.00015
          0.05319797691014 0.0019444444444413 0.00015 0.05319797691014 0 0.0003
          0.05319797691014 0.0019444444444413 0.0003 0.05319797691014 0.0038888888888803 0
          0.05319797691014 0.0038888888888803 0.00015 0.05319797691014 0.0038888888888803 0.0003
          0.05319797691014 0.0058333333333189 0 0.05319797691014 0.0058333333333189 0.00015
          0.05319797691014 0.0058333333333189 0.0003 0.05319797691014 0.0077777777777574 0
          0.05319797691014 0.0077777777777574 0.00015 0.05319797691014 0.0077777777777574 0.0003
          0.05319797691014 0.0097222222222011 0 0.05319797691014 0.0097222222222011 0.00015
          0.05319797691014 0.0097222222222011 0.0003 0.05319797691014 0.011666666666651 0
          0.05319797691014 0.011666666666651 0.00015 0.05319797691014 0.011666666666651 0.0003
          0.05319797691014 0.0136111111111 0 0.05319797691014 0.0136111111111 0.00015
          0.05319797691014 0.0136111111111 0.0003 0.05319797691014 0.015555555555549 0
          0.05319797691014 0.015555555555549 0.00015 0.05319797691014 0.015555555555549 0.0003
          0.05319797691014 0.0175 0 0.05319797691014 0.0175 0.00015
          0.05319797691014 0.0175 0.0003 0.054309088021254 0 0
          0.054309088021254 0.0019444444444413 0 0.054309088021254 0 0.00015
          0.054309088021254 0.0019444444444413 0.00015 0.054309088021254 0 0.0003
          0.054309088021254 0.0019444444444413 0.0003 0.054309088021254 0.0038888888888803 0
          0.054309088021254 0.0038888888888803 0.00015 0.054309088021254 0.0038888888888803 0.0003
          0.054309088021254 0.0058333333333189 0 0.054309088021254 0.0058333333333189 0.00015
          0.054309088021254 0.0058333333333189 0.0003 0.054309088021254 0.0077777777777574 0
          0.054309088021254 0.0077777777777574 0.00015 0.054309088021254 0.0077777777777574 0.0003
          0.054309088021254 0.0097222222222011 0 0.054309088021254 0.0097222222222011 0.00015
          0.054309088021254 0.0097222222222011 0.0003 0.054309088021254 0.011666666666651 0
          0.054309088021254 0.011666666666651 0.00015 0.054309088021254 0.011666666666651 0.0003
          0.054309088021254 0.0136111111111 0 0.054309088021254 0.0136111111111 0.00015
          0.054309088021254 0.0136111111111 0.0003 0.054309088021254 0.015555555555549 0
          0.054309088021254 0.015555555555549 0.00015 0.054309088021254 0.015555555555549 0.0003
          0.054309088021254 0.0175 0 0.054309088021254 0.0175 0.00015
          0.054309088021254 0.0175 0.0003
          <InformationKey name="L2_NORM_RANGE" location="vtkDataArray" length="2">
            <Value index="0">
              0.019949534491
            </Value>
            <Value index="1">
              0.057059767277
            </Value>
          </InformationKey>
        </DataArray>
      </Points>
      <Cells>
        <DataArray type="Int64" Name="connectivity" format="ascii" RangeMin="0" RangeMax="818">
          0 1 2 3 4 5
          6 7 4 5 6 7
          8 9 10 11 12 13
          14 15 16 17 18 19
          16 17 18 19 20 21
          22 23 24 0 3 25
          26 4 7 27 26 4
          7 27 28 8 11 29
          30 31 32 14 33 34
          35 18 33 34 35 18
          36 37 38 22 39 40
          41 42 43 44 45 46
          43 44 45 46 47 48
          49 50 51 52 53 54
          55 56 57 58 55 56
          57 58 59 60 61 62
          13 63 64 65 17 66
          67 68 17 66 67 68
          21 69 70 71 0 24
          32 72 4 26 35 73
          4 26 35 73 8 28
          38 74 24 15 14 32
          26 19 18 35 26 19
          18 35 28 23 22 38
          13 65 30 14 17 68
          33 18 17 68 33 18
          21 71 36 22 93 94
          95 96 97 98 99 100
          97 98 99 100 101 102
          103 104 72 32 31 81
          73 35 34 83 73 35
          34 83 74 38 37 85
          53 40 39 54 57 44
          43 58 57 44 43 58
          61 48 47 62 31 30
          111 82 34 33 112 84
          34 33 112 84 37 36
          113 86 12 15 114 115
          16 19 116 117 16 19
          116 117 20 23 118 119
          120 121 122 123 124 125
          126 127 124 125 126 127
          128 129 130 131 64 76
          75 65 67 78 77 68
          67 78 77 68 70 80
          79 71 132 133 54 39
          134 135 58 43 134 135
          58 43 136 137 62 47
          53 141 41 40 57 142
          45 44 57 142 45 44
          61 143 49 48 111 30
          65 75 112 33 68 77
          112 33 68 77 113 36
          71 79 54 150 151 51
          58 152 153 55 58 152
          153 55 62 154 155 59
          156 122 121 157 158 126
          125 159 158 126 125 159
          160 130 129 161 162 88
          108 138 163 90 109 139
          163 90 109 139 164 92
          110 140 168 87 88 162
          169 89 90 163 169 89
          90 163 170 91 92 164
          121 165 171 157 125 166
          172 159 125 166 172 159
          129 167 173 161 132 39
          42 183 134 43 46 184
          134 43 46 184 136 47
          50 185 186 96 95 187
          188 100 99 189 188 100
          99 189 190 104 103 191
          192 193 122 156 194 195
          126 158 194 195 126 158
          196 197 130 160 183 42
          96 186 184 46 100 188
          184 46 100 188 185 50
          104 190 151 150 198 199
          153 152 200 201 153 152
          200 201 155 154 202 203
          174 145 144 204 175 147
          146 205 175 147 146 205
          176 149 148 206 193 192
          95 204 195 194 99 205
          195 194 99 205 197 196
          103 206 123 122 193 210
          127 126 195 211 127 126
          195 211 131 130 197 212
          93 96 42 41 97 100
          46 45 97 100 46 45
          101 104 50 49 213 214
          87 168 215 216 89 169
          215 216 89 169 217 218
          91 170 178 219 220 177
          180 221 222 179 180 221
          222 179 182 223 224 181
          225 141 226 227 228 142
          229 230 228 142 229 230
          231 143 232 233 120 105
          165 121 124 106 166 125
          124 106 166 125 128 107
          167 129 210 193 204 144
          211 195 205 146 211 195
          205 146 212 197 206 148
          219 227 234 220 221 230
          235 222 221 230 235 222
          223 233 236 224 94 174
          204 95 98 175 205 99
          98 175 205 99 102 176
          206 103 192 156 237 238
          194 158 239 240 194 158
          239 240 196 160 241 242
          243 2 1 244 245 6
          5 246 245 6 5 246
          247 10 9 248 227 226
          249 234 230 229 250 235
          230 229 250 235 233 232
          251 236 238 187 95 192
          240 189 99 194 240 189
          99 194 242 191 103 196
          252 207 87 214 253 208
          89 216 253 208 89 216
          254 209 91 218 187 255
          115 186 189 256 117 188
          189 256 117 188 191 257
          119 190 94 162 138 174
          98 163 139 175 98 163
          139 175 102 164 140 176
          64 63 237 171 67 66
          239 172 67 66 239 172
          70 69 241 173 41 213
          168 93 45 215 169 97
          45 215 169 97 49 217
          170 101 2 198 133 3
          6 200 135 7 6 200
          135 7 10 202 137 11
          25 114 15 24 27 116
          19 26 27 116 19 26
          29 118 23 28 114 183
          186 115 116 184 188 117
          116 184 188 117 118 185
          190 119 51 151 258 259
          55 153 260 261 55 153
          260 261 59 155 262 263
          226 52 264 249 229 56
          265 250 229 56 265 250
          232 60 266 251 198 150
          54 133 200 152 58 135
          200 152 58 135 202 154
          62 137 64 171 165 76
          67 172 166 78 67 172
          166 78 70 173 167 80
          52 51 259 264 56 55
          261 265 56 55 261 265
          60 59 263 266 171 237
          156 157 172 239 158 159
          172 239 158 159 173 241
          160 161 252 214 213 225
          253 216 215 228 253 216
          215 228 254 218 217 231
          151 199 267 258 153 201
          268 260 153 201 268 260
          155 203 269 262 63 13
          12 270 66 17 16 271
          66 17 16 271 69 21
          20 272 270 255 187 238
          271 256 189 240 271 256
          189 240 272 257 191 242
          199 198 2 243 201 200
          6 245 201 200 6 245
          203 202 10 247 225 213
          41 141 228 215 45 142
          228 215 45 142 231 217
          49 143 52 226 141 53
          56 229 142 57 56 229
          142 57 60 232 143 61
          25 132 183 114 27 134
          184 116 27 134 184 116
          29 136 185 118 252 225
          227 219 253 228 230 221
          253 228 230 221 254 231
          233 223 219 178 207 252
          221 180 208 253 221 180
          208 253 223 182 209 254
          25 3 133 132 27 7
          135 134 27 7 135 134
          29 11 137 136 93 168
          162 94 97 169 163 98
          97 169 163 98 101 170
          164 102 270 12 115 255
          271 16 117 256 271 16
          117 256 272 20 119 257
          199 243 273 267 201 245
          274 268 201 245 274 268
          203 247 275 269 63 270
          238 237 66 271 240 239
          66 271 240 239 69 272
          242 241 243 244 276 273
          245 246 277 274 245 246
          277 274 247 248 278 275
          276 244 1 279 277 246
          5 280 277 246 5 280
          278 248 9 281 285 72
          81 282 286 73 83 283
          286 73 83 283 287 74
          85 284 288 0 72 285
          289 4 73 286 289 4
          73 286 290 8 74 287
          291 1 0 288 292 5
          4 289 292 5 4 289
          293 9 8 290 294 279
          1 291 295 280 5 292
          295 280 5 292 296 281
          9 293 303 297 298 304
          305 299 300 306 305 299
          300 306 307 301 302 308
          309 303 304 310 311 305
          306 312 311 305 306 312
          313 307 308 314 315 309
          310 316 317 311 312 318
          317 311 312 318 319 313
          314 320 321 315 316 322
          323 317 318 324 323 317
          318 324 325 319 320 326
          327 321 322 328 329 323
          324 330 329 323 324 330
          331 325 326 332 333 327
          328 334 335 329 330 336
          335 329 330 336 337 331
          332 338 339 333 334 340
          341 335 336 342 341 335
          336 342 343 337 338 344
          348 345 297 303 349 346
          299 305 349 346 299 305
          350 347 301 307 351 348
          303 309 352 349 305 311
          352 349 305 311 353 350
          307 313 354 351 309 315
          355 352 311 317 355 352
          311 317 356 353 313 319
          357 354 315 321 358 355
          317 323 358 355 317 323
          359 356 319 325 360 357
          321 327 361 358 323 329
          361 358 323 329 362 359
          325 331 363 360 327 333
          364 361 329 335 364 361
          329 335 365 362 331 337
          366 363 333 339 367 364
          335 341 367 364 335 341
          368 365 337 343 372 369
          345 348 373 370 346 349
          373 370 346 349 374 371
          347 350 375 372 348 351
          376 373 349 352 376 373
          349 352 377 374 350 353
          378 375 351 354 379 376
          352 355 379 376 352 355
          380 377 353 356 381 378
          354 357 382 379 355 358
          382 379 355 358 383 380
          356 359 384 381 357 360
          385 382 358 361 385 382
          358 361 386 383 359 362
          387 384 360 363 388 385
          361 364 388 385 361 364
          389 386 362 365 390 387
          363 366 391 388 364 367
          391 388 364 367 392 389
          365 368 396 393 369 372
          397 394 370 373 397 394
          370 373 398 395 371 374
          399 396 372 375 400 397
          373 376 400 397 373 376
          401 398 374 377 402 399
          375 378 403 400 376 379
          403 400 376 379 404 401
          377 380 405 402 378 381
          406 403 379 382 406 403
          379 382 407 404 380 383
          408 405 381 384 409 406
          382 385 409 406 382 385
          410 407 383 386 411 408
          384 387 412 409 385 388
          412 409 385 388 413 410
          386 389 414 411 387 390
          415 412 388 391 415 412
          388 391 416 413 389 392
          420 417 393 396 421 418
          394 397 421 418 394 397
          422 419 395 398 423 420
          396 399 424 421 397 400
          424 421 397 400 425 422
          398 401 426 423 399 402
          427 424 400 403 427 424
          400 403 428 425 401 404
          429 426 402 405 430 427
          403 406 430 427 403 406
          431 428 404 407 432 429
          405 408 433 430 406 409
          433 430 406 409 434 431
          407 410 435 432 408 411
          436 433 409 412 436 433
          409 412 437 434 410 413
          438 435 411 414 439 436
          412 415 439 436 412 415
          440 437 413 416 447 444
          417 420 448 445 418 421
          448 445 418 421 449 446
          419 422 450 447 420 423
          451 448 421 424 451 448
          421 424 452 449 422 425
          453 450 423 426 454 451
          424 427 454 451 424 427
          455 452 425 428 456 453
          426 429 457 454 427 430
          457 454 427 430 458 455
          428 431 459 456 429 432
          460 457 430 433 460 457
          430 433 461 458 431 434
          462 459 432 435 463 460
          433 436 463 460 433 436
          464 461 434 437 465 462
          435 438 466 463 436 439
          466 463 436 439 467 464
          437 440 471 468 441 444
          472 469 442 445 472 469
          442 445 473 470 443 446
          474 471 444 447 475 472
          445 448 475 472 445 448
          476 473 446 449 477 474
          447 450 478 475 448 451
          478 475 448 451 479 476
          449 452 480 477 450 453
          481 478 451 454 481 478
          451 454 482 479 452 455
          483 480 453 456 484 481
          454 457 484 481 454 457
          485 482 455 458 486 483
          456 459 487 484 457 460
          487 484 457 460 488 485
          458 461 489 486 459 462
          490 487 460 463 490 487
          460 463 491 488 461 464
          492 489 462 465 493 490
          463 466 493 490 463 466
          494 491 464 467 498 495
          468 471 499 496 469 472
          499 496 469 472 500 497
          470 473 501 498 471 474
          502 499 472 475 502 499
          472 475 503 500 473 476
          504 501 474 477 505 502
          475 478 505 502 475 478
          506 503 476 479 507 504
          477 480 508 505 478 481
          508 505 478 481 509 506
          479 482 510 507 480 483
          511 508 481 484 511 508
          481 484 512 509 482 485
          513 510 483 486 514 511
          484 487 514 511 484 487
          515 512 485 488 516 513
          486 489 517 514 487 490
          517 514 487 490 518 515
          488 491 519 516 489 492
          520 517 490 493 520 517
          490 493 521 518 491 494
          525 522 495 498 526 523
          496 499 526 523 496 499
          527 524 497 500 528 525
          498 501 529 526 499 502
          529 526 499 502 530 527
          500 503 531 528 501 504
          532 529 502 505 532 529
          502 505 533 530 503 506
          534 531 504 507 535 532
          505 508 535 532 505 508
          536 533 506 509 537 534
          507 510 538 535 508 511
          538 535 508 511 539 536
          509 512 540 537 510 513
          541 538 511 514 541 538
          511 514 542 539 512 515
          543 540 513 516 544 541
          514 517 544 541 514 517
          545 542 515 518 546 543
          516 519 547 544 517 520
          547 544 517 520 548 545
          518 521 340 549 550 339
          342 551 552 341 342 551
          552 341 344 553 554 343
          339 550 555 366 341 552
          556 367 341 552 556 367
          343 554 557 368 366 555
          558 390 367 556 559 391
          367 556 559 391 368 557
          560 392 390 558 561 414
          391 559 562 415 391 559
          562 415 392 560 563 416
          414 561 564 438 415 562
          565 439 415 562 565 439
          416 563 566 440 438 564
          567 465 439 565 568 466
          439 565 568 466 440 566
          569 467 465 567 570 492
          466 568 571 493 466 568
          571 493 467 569 572 494
          492 570 573 519 493 571
          574 520 493 571 574 520
          494 572 575 521 519 573
          576 546 520 574 577 547
          520 574 577 547 521 575
          578 548 549 579 580 550
          551 581 582 552 551 581
          582 552 553 583 584 554
          550 580 585 555 552 582
          586 556 552 582 586 556
          554 584 587 557 555 585
          588 558 556 586 589 559
          556 586 589 559 557 587
          590 560 558 588 591 561
          559 589 592 562 559 589
          592 562 560 590 593 563
          561 591 594 564 562 592
          595 565 562 592 595 565
          563 593 596 566 564 594
          597 567 565 595 598 568
          565 595 598 568 566 596
          599 569 567 597 600 570
          568 598 601 571 568 598
          601 571 569 599 602 572
          570 600 603 573 571 601
          604 574 571 601 604 574
          572 602 605 575 573 603
          606 576 574 604 607 577
          574 604 607 577 575 605
          608 578 579 609 610 580
          581 611 612 582 581 611
          612 582 583 613 614 584
          580 610 615 585 582 612
          616 586 582 612 616 586
          584 614 617 587 585 615
          618 588 586 616 619 589
          586 616 619 589 587 617
          620 590 588 618 621 591
          589 619 622 592 589 619
          622 592 590 620 623 593
          591 621 624 594 592 622
          625 595 592 622 625 595
          593 623 626 596 594 624
          627 597 595 625 628 598
          595 625 628 598 596 626
          629 599 597 627 630 600
          598 628 631 601 598 628
          631 601 599 629 632 602
          600 630 633 603 601 631
          634 604 601 631 634 604
          602 632 635 605 603 633
          636 606 604 634 637 607
          604 634 637 607 605 635
          638 608 609 639 640 610
          611 641 642 612 611 641
          642 612 613 643 644 614
          610 640 645 615 612 642
          646 616 612 642 646 616
          614 644 647 617 615 645
          648 618 616 646 649 619
          616 646 649 619 617 647
          650 620 618 648 651 621
          619 649 652 622 619 649
          652 622 620 650 653 623
          621 651 654 624 622 652
          655 625 622 652 655 625
          623 653 656 626 624 654
          657 627 625 655 658 628
          625 655 658 628 626 656
          659 629 627 657 660 630
          628 658 661 631 628 658
          661 631 629 659 662 632
          630 660 663 633 631 661
          664 634 631 661 664 634
          632 662 665 635 633 663
          666 636 634 664 667 637
          634 664 667 637 635 665
          668 638 639 669 670 640
          641 671 672 642 641 671
          672 642 643 673 674 644
          640 670 675 645 642 672
          676 646 642 672 676 646
          644 674 677 647 645 675
          678 648 646 676 679 649
          646 676 679 649 647 677
          680 650 648 678 681 651
          649 679 682 652 649 679
          682 652 650 680 683 653
          651 681 684 654 652 682
          685 655 652 682 685 655
          653 683 686 656 654 684
          687 657 655 685 688 658
          655 685 688 658 656 686
          689 659 657 687 690 660
          658 688 691 661 658 688
          691 661 659 689 692 662
          660 690 693 663 661 691
          694 664 661 691 694 664
          662 692 695 665 663 693
          696 666 664 694 697 667
          664 694 697 667 665 695
          698 668 669 699 700 670
          671 701 702 672 671 701
          702 672 673 703 704 674
          670 700 705 675 672 702
          706 676 672 702 706 676
          674 704 707 677 675 705
          708 678 676 706 709 679
          676 706 709 679 677 707
          710 680 678 708 711 681
          679 709 712 682 679 709
          712 682 680 710 713 683
          681 711 714 684 682 712
          715 685 682 712 715 685
          683 713 716 686 684 714
          717 687 685 715 718 688
          685 715 718 688 686 716
          719 689 687 717 720 690
          688 718 721 691 688 718
          721 691 689 719 722 692
          690 720 723 693 691 721
          724 694 691 721 724 694
          692 722 725 695 693 723
          726 696 694 724 727 697
          694 724 727 697 695 725
          728 698 699 729 730 700
          701 731 732 702 701 731
          732 702 703 733 734 704
          700 730 735 705 702 732
          736 706 702 732 736 706
          704 734 737 707 705 735
          738 708 706 736 739 709
          706 736 739 709 707 737
          740 710 708 738 741 711
          709 739 742 712 709 739
          742 712 710 740 743 713
          711 741 744 714 712 742
          745 715 712 742 745 715
          713 743 746 716 714 744
          747 717 715 745 748 718
          715 745 748 718 716 746
          749 719 717 747 750 720
          718 748 751 721 718 748
          751 721 719 749 752 722
          720 750 753 723 721 751
          754 724 721 751 754 724
          722 752 755 725 723 753
          756 726 724 754 757 727
          724 754 757 727 725 755
          758 728 729 759 760 730
          731 761 762 732 731 761
          762 732 733 763 764 734
          730 760 765 735 732 762
          766 736 732 762 766 736
          734 764 767 737 735 765
          768 738 736 766 769 739
          736 766 769 739 737 767
          770 740 738 768 771 741
          739 769 772 742 739 769
          772 742 740 770 773 743
          741 771 774 744 742 772
          775 745 742 772 775 745
          743 773 776 746 744 774
          777 747 745 775 778 748
          745 775 778 748 746 776
          779 749 747 777 780 750
          748 778 781 751 748 778
          781 751 749 779 782 752
          750 780 783 753 751 781
          784 754 751 781 784 754
          752 782 785 755 753 783
          786 756 754 784 787 757
          754 784 787 757 755 785
          788 758 759 789 790 760
          761 791 792 762 761 791
          792 762 763 793 794 764
          760 790 795 765 762 792
          796 766 762 792 796 766
          764 794 797 767 765 795
          798 768 766 796 799 769
          766 796 799 769 767 797
          800 770 768 798 801 771
          769 799 802 772 769 799
          802 772 770 800 803 773
          771 801 804 774 772 802
          805 775 772 802 805 775
          773 803 806 776 774 804
          807 777 775 805 808 778
          775 805 808 778 776 806
          809 779 777 807 810 780
          778 808 811 781 778 808
          811 781 779 809 812 782
          780 810 813 783 781 811
          814 784 781 811 814 784
          782 812 815 785 783 813
          816 786 784 814 817 787
          784 814 817 787 785 815
          818 788
        </DataArray>
        <DataArray type="Int64" Name="offsets" format="ascii" RangeMin="8" RangeMax="3632">
          8 16 24 32 40 48
          56 64 72 80 88 96
          104 112 120 128 136 144
          152 160 168 176 184 192
          200 208 216 224 232 240
          248 256 264 272 280 288
          296 304 312 320 328 336
          344 352 360 368 376 384
          392 400 408 416 424 432
          440 448 456 464 472 480
          488 496 504 512 520 528
          536 544 552 560 568 576
          584 592 600 608 616 624
          632 640 648 656 664 672
          680 688 696 704 712 720
          728 736 744 752 760 768
          776 784 792 800 808 816
          824 832 840 848 856 864
          872 880 888 896 904 912
          920 928 936 944 952 960
          968 976 984 992 1000 1008
          1016 1024 1032 1040 1048 1056
          1064 1072 1080 1088 1096 1104
          1112 1120 1128 1136 1144 1152
          1160 1168 1176 1184 1192 1200
          1208 1216 1224 1232 1240 1248
          1256 1264 1272 1280 1288 1296
          1304 1312 1320 1328 1336 1344
          1352 1360 1368 1376 1384 1392
          1400 1408 1416 1424 1432 1440
          1448 1456 1464 1472 1480 1488
          1496 1504 1512 1520 1528 1536
          1544 1552 1560 1568 1576 1584
          1592 1600 1608 1616 1624 1632
          1640 1648 1656 1664 1672 1680
          1688 1696 1704 1712 1720 1728
          1736 1744 1752 1760 1768 1776
          1784 1792 1800 1808 1816 1824
          1832 1840 1848 1856 1864 1872
          1880 1888 1896 1904 1912 1920
          1928 1936 1944 1952 1960 1968
          1976 1984 1992 2000 2008 2016
          2024 2032 2040 2048 2056 2064
          2072 2080 2088 2096 2104 2112
          2120 2128 2136 2144 2152 2160
          2168 2176 2184 2192 2200 2208
          2216 2224 2232 2240 2248 2256
          2264 2272 2280 2288 2296 2304
          2312 2320 2328 2336 2344 2352
          2360 2368 2376 2384 2392 2400
          2408 2416 2424 2432 2440 2448
          2456 2464 2472 2480 2488 2496
          2504 2512 2520 2528 2536 2544
          2552 2560 2568 2576 2584 2592
          2600 2608 2616 2624 2632 2640
          2648 2656 2664 2672 2680 2688
          2696 2704 2712 2720 2728 2736
          2744 2752 2760 2768 2776 2784
          2792 2800 2808 2816 2824 2832
          2840 2848 2856 2864 2872 2880
          2888 2896 2904 2912 2920 2928
          2936 2944 2952 2960 2968 2976
          2984 2992 3000 3008 3016 3024
          3032 3040 3048 3056 3064 3072
          3080 3088 3096 3104 3112 3120
          3128 3136 3144 3152 3160 3168
          3176 3184 3192 3200 3208 3216
          3224 3232 3240 3248 3256 3264
          3272 3280 3288 3296 3304 3312
          3320 3328 3336 3344 3352 3360
          3368 3376 3384 3392 3400 3408
          3416 3424 3432 3440 3448 3456
          3464 3472 3480 3488 3496 3504
          3512 3520 3528 3536 3544 3552
          3560 3568 3576 3584 3592 3600
          3608 3616 3624 3632
        </DataArray>
        <DataArray type="UInt8" Name="types" format="ascii" RangeMin="12" RangeMax="12">
          12 12 12 12 12 12
          12 12 12 12 12 12
          12 12 12 12 12 12
          12 12 12 12 12 12
          12 12 12 12 12 12
          12 12 12 12 12 12
          12 12 12 12 12 12
          12 12 12 12 12 12
          12 12 12 12 12 12
          12 12 12 12 12 12
          12 12 12 12 12 12
          12 12 12 12 12 12
          12 12 12 12 12 12
          12 12 12 12 12 12
          12 12 12 12 12 12
          12 12 12 12 12 12
          12 12 12 12 12 12
          12 12 12 12 12 12
          12 12 12 12 12 12
          12 12 12 12 12 12
          12 12 12 12 12 12
          12 12 12 12 12 12
          12 12 12 12 12 12
          12 12 12 12 12 12
          12 12 12 12 12 12
          12 12 12 12 12 12
          12 12 12 12 12 12
          12 12 12 12 12 12
          12 12 12 12 12 12
          12 12 12 12 12 12
          12 12 12 12 12 12
          12 12 12 12 12 12
          12 12 12 12 12 12
          12 12 12 12 12 12
          12 12 12 12 12 12
          12 12 12 12 12 12
          12 12 12 12 12 12
          12 12 12 12 12 12
          12 12 12 12 12 12
          12 12 12 12 12 12
          12 12 12 12 12 12
          12 12 12 12 12 12
          12 12 12 12 12 12
          12 12 12 12 12 12
          12 12 12 12 12 12
          12 12 12 12 12 12
          12 12 12 12 12 12
          12 12 12 12 12 12
          12 12 12 12 12 12
          12 12 12 12 12 12
          12 12 12 12 12 12
          12 12 12 12 12 12
          12 12 12 12 12 12
          12 12 12 12 12 12
          12 12 12 12 12 12
          12 12 12 12 12 12
          12 12 12 12 12 12
          12 12 12 12 12 12
          12 12 12 12 12 12
          12 12 12 12 12 12
          12 12 12 12 12 12
          12 12 12 12 12 12
          12 12 12 12 12 12
          12 12 12 12 12 12
          12 12 12 12 12 12
          12 12 12 12 12 12
          12 12 12 12 12 12
          12 12 12 12 12 12
          12 12 12 12 12 12
          12 12 12 12 12 12
          12 12 12 12 12 12
          12 12 12 12 12 12
          12 12 12 12 12 12
          12 12 12 12 12 12
          12 12 12 12 12 12
          12 12 12 12
        </DataArray>
      </Cells>
    </Piece>
  </UnstructuredGrid>
</VTKFile>
