<?xml version="1.0"?>
<VTKFile type="UnstructuredGrid" version="0.1" byte_order="LittleEndian" header_type="UInt32" compressor="vtkZLibDataCompressor">
  <UnstructuredGrid>
    <Piece NumberOfPoints="780" NumberOfCells="454">
      <PointData>
        <DataArray type="Int32" Name="libmesh_node_id" format="ascii" RangeMin="1278" RangeMax="5063">
          1278 1279 1280 1281 1282 1283
          1284 1285 1286 1287 1288 1289
          1290 1291 1292 1293 1294 1295
          1296 1297 1298 1299 1300 1301
          1302 1303 1304 1305 1306 1307
          1308 1309 1310 1311 1312 1313
          1314 1315 1316 1317 1318 1319
          1320 1321 1322 1323 1324 1325
          1329 1330 1331 1332 1333 1334
          1335 1336 1337 1338 1339 1340
          1341 1342 1343 1344 1345 1346
          1347 1348 1349 1350 1351 1352
          1356 1357 1358 1359 1360 1361
          1362 1363 1364 1365 1366 1367
          1368 1369 1370 1371 1372 1373
          1374 1375 1376 1377 1378 1379
          1383 1384 1385 1386 1387 1388
          1389 1390 1391 1392 1393 1394
          1395 1396 1397 1398 1399 1400
          1401 1402 1403 1404 1405 1406
          1410 1411 1412 1413 1414 1415
          1416 1417 1418 1419 1420 1421
          1422 1423 1424 1425 1426 1427
          1428 1429 1430 1431 1432 1433
          1437 1438 1439 1440 1441 1442
          1443 1444 1445 1446 1447 1448
          1449 1450 1451 1452 1453 1454
          1455 1456 1457 1458 1459 1460
          1461 1462 1463 1464 1465 1466
          1467 1468 1469 1470 1471 1472
          1473 1474 1475 1476 1477 1478
          1479 1480 1481 1482 1483 1484
          1485 1486 1487 1488 1489 1490
          1491 1492 1493 1494 1495 1496
          1497 1498 1499 1500 1501 1502
          1503 1504 1505 1506 1507 1508
          1509 1510 1511 1512 1513 1514
          1515 1516 1517 1518 1519 1520
          1521 1522 1523 1524 1525 1526
          1527 1528 1529 1530 1531 1532
          1533 1534 1535 1536 1537 1538
          1539 1540 1541 1542 1543 1544
          1545 1546 1547 1548 1549 1550
          1551 1552 1553 1554 1555 1556
          1557 1558 1559 1560 1561 1562
          1563 1564 1565 1566 1567 1568
          1569 1570 1571 1572 1573 1574
          1575 1576 1577 1578 1579 1580
          1581 1582 1583 1584 1585 1586
          1587 1588 1589 1590 1591 1592
          1593 1594 1595 1596 1597 1598
          1599 1600 1601 1602 1603 1604
          1605 1606 1607 1608 1609 1610
          1611 1612 1613 1614 1615 1616
          1617 1618 1619 1620 1621 1622
          1623 1624 1625 1626 1627 1628
          1629 1630 1631 1632 1633 1634
          1635 1636 1637 1638 1639 1640
          1641 1642 1643 1644 1645 1646
          1647 1648 1649 1650 1651 1652
          1653 1654 1655 1656 1657 1658
          1659 1660 1661 1662 1663 1664
          1665 1666 1667 1668 1669 1670
          1671 1672 1673 1674 1675 1676
          1680 1681 1682 1683 1684 1685
          1686 1687 1688 1689 1690 1691
          1692 1693 1694 1695 1696 1697
          1698 1699 1700 1701 1702 1703
          1707 1708 1709 1710 1711 1712
          1713 1714 1715 1716 1717 1718
          1719 1720 1721 1722 1723 1724
          1725 1726 1727 1728 1729 1730
          1734 1735 1736 1737 1738 1739
          1740 1741 1742 1743 1744 1745
          1746 1747 1748 1749 1750 1751
          1752 1753 1754 1755 1756 1757
          1761 1762 1763 1764 1765 1766
          1767 1768 1769 1770 1771 1772
          1773 1774 1775 1776 1777 1778
          1779 1780 1781 1782 1783 1784
          1791 1792 1793 1794 1795 1796
          1797 1798 1799 1800 1801 1802
          1803 1804 1805 1806 1807 1808
          1809 1810 1811 1818 1819 1820
          1821 1822 1823 1824 1825 1826
          1827 1828 1829 1830 1831 1832
          1833 1834 1835 1836 1837 1838
          1845 1846 1847 1848 1849 1850
          1851 1852 1853 1854 1855 1856
          1857 1858 1859 1860 1861 1862
          1872 1873 1874 1875 1876 1877
          1878 1879 1880 1881 1882 1883
          1884 1885 1886 2184 2185 2186
          2187 2188 2189 2190 2191 2192
          2193 2194 2195 2196 2197 2198
          2199 2200 2201 2202 2203 2204
          2205 2206 2207 2208 2210 2211
          2212 2214 2215 2216 2218 2219
          2244 2246 2248 2262 2263 2264
          2265 2266 2267 2268 2269 2270
          2271 2272 2273 2592 2593 2594
          2595 2596 2597 2913 2914 2915
          2916 2917 2918 2919 2920 2921
          3336 3337 3338 3339 3340 3341
          3582 3583 3584 3585 3586 3587
          3688 3690 3692 3699 3700 3701
          3702 3703 3704 4161 4162 4163
          4164 4165 4166 4527 4528 4529
          4530 4531 4532 4536 4537 4538
          4539 4540 4541 4671 4672 4673
          4698 4699 4700 4701 4702 4703
          4725 4726 4727 4770 4771 4772
          4884 4885 4886 4905 4906 4907
          4983 4984 4985 5034 5035 5036
          5061 5062 5063 1863 1864 1865
          1887 1888 1889 1890 1891 1892
          1902 1899 1903 1900 1904 1901
          1905 1906 1907 1908 1909 1910
          1911 1912 1913 1914 1915 1916
          2209 2213 2217 2245 2247 2249
          2526 2525 2530 2529 2534 2533
          3234 3235 3236 3237 3238 3239
          3300 3301 3302 3303 3304 3305
          3366 3367 3368 3663 3665 3667
          3687 3386 3689 3389 3691 3392
          3705 3706 3707 3939 3940 3941
          3942 3943 3944 4467 4468 4469
          3455 3458 3461 3210 3120 3212
          3124 3214 3128 4441 4443 4445
          3119 3123 3127 3231 3232 3233
        </DataArray>
        <DataArray type="Float64" Name="resid_x" format="ascii" RangeMin="-0.03187042626530001" RangeMax="0.04645136322199317">
          -0.0005224157815924002 -0.000293214065209213 -0.0012260389745470945 -0.000678874322431966 -0.0007182575476800679 -0.0003991555302222949
          -0.000002686392498674195 0.000018110323011910623 -0.000005395665517937687 0.000015151638772969989 -0.00018068866743536915 -0.00009477182784500826
          -0.00018564313758062667 -0.00008819143436067378 -0.00005133343182794903 -0.000019825346536883615 -0.0002936773136736903 -0.00016156104082476475
          -0.00020884790878739068 -0.0000995529373630788 -0.000029132075143323277 -0.0000020135720033565008 -0.0002855779459309815 -0.00015611025301609516
          -0.00023355109573230948 -0.00011040876621049023 -0.00003398823636402426 -0.000005816000378189301 -0.00030763174704162566 -0.00016882121047245846
          -0.0002451595095616099 -0.0001141042429813055 -0.00003523455893361671 -0.000005500054650831032 -0.0003219247927104263 -0.00017805392642511464
          -0.00025657514202137577 -0.00011449032371668721 -0.000036350222975656266 -0.000002894894929994507 -0.00032334477021844776 -0.00017066859306336113
          -0.0003549341865358713 -0.00021567448414927526 0.00017779617650592883 -0.00021983931265356915 0.000995757960470911 -0.00028982387537634935
          -0.0004372392614246934 -0.0009521339704683385 -0.0005653721861076377 -0.00009316197716024988 -0.00007128827202773635 -0.00019752290760877145
          -0.0002650562959036762 -0.00013134496195998935 -0.0003191433255969045 -0.0002737726210924052 -0.00009550551405634877 -0.000305910345055338
          -0.0002958010718820958 -0.00010348143547123101 -0.0003286278107310636 -0.0003112373426530368 -0.00010816187849815861 -0.0003474019935651995
          0.0005624926865630542 0.0013073598308412926 0.00020035659281347762 0.01016802998151567 0.006780645686526476 0.0012728916346369523
          -0.00031626259349692987 -0.0006684441151811882 -0.00041788434323741797 -0.00008634928619688509 -0.00004394297695853311 -0.00016254554488170925
          -0.00023969902270604138 -0.00011726772728604118 -0.0002665611484404806 -0.00023680999239239497 -0.00007176456709867551 -0.0002458849788542494
          -0.0002513066034168787 -0.0000768221392304369 -0.0002582581881078738 -0.0002635344667822892 -0.00007853141957081533 -0.00027187900609693116
          0.0030181138077578495 0.005181656131249213 0.001743192776124225 -0.0031331754776835474 -0.005666748357674667 -0.0022985506451767
          -0.00025969806129566564 -0.0005352924185579866 -0.0003523514349499379 -0.00008394125637423144 -0.000040084120442429594 -0.00014723221748447202
          -0.00021879391386825375 -0.00011598399787615676 -0.00024091604691456325 -0.00020933004351952889 -0.0000668597227102552 -0.0002147832767507296
          -0.00021561712351836348 -0.00007119246908526833 -0.00021609022541735357 0.00421170198991927 0.006705750232536722 0.002217053048924278
          -0.004640466174083535 -0.006727152796407232 -0.002848089302863066 -0.00011006536058566496 0.00045757875377727686 -0.0003627267327246386
          -0.00023612131077221932 -0.0004821643613652782 -0.00032333640381843054 -0.00007906704498772399 -0.00003688654090172605 -0.00013764830880624856
          -0.000201082433864741 -0.00011175325183998552 -0.00022268683852999516 -0.00018473973856636405 -0.00005872178958821195 -0.00018812292327741176
          -0.00018384148681960255 -0.00006220273410217914 -0.0002025497296216372 0.005379982066780364 0.011332887063129071 0.0058594018540540915
          -0.005554324031609603 -0.011083256891407878 -0.006629807717642322 -0.0007364824302977802 -0.0003383795915996579 -0.0013226939456130182
          -0.0001775042258387316 -0.00036180065688640184 -0.00027340689486976544 -0.0000746747617768051 -0.00004434388304730419 -0.00015020047619795918
          -0.00019069156081563676 -0.00011129838161938466 -0.00021651949045953245 -0.00017214421133093794 -0.000057839857557695495 -0.00017986237174305586
          0.004958638328139919 0.01205955254680191 0.005937406363507591 -0.005462831657631284 -0.012480234743174279 -0.006632930978624607
          -0.0001559133859041495 -0.00038633947206712094 -0.0014266617060387787 -0.0005783877659100156 -0.00010510502349880824 -0.0014235583719273137
          -0.00024939477262186927 -0.0003330905807068518 -0.00019414314383947584 -0.00007569710316612799 -0.00014987082035844423 -0.00020580976170059273
          -0.00007190390694944426 -0.00006246878611815276 -0.00018625014747275515 -0.00018740887149171215 -0.00011252893026370003 -0.00021838364678927746
          -0.0001749191280850937 -0.00006446066438581255 -0.00020880289953240094 0.020012787899293727 0.027376393810037314 0.008508437030116944
          -0.020213222169922496 -0.02712074732729519 -0.009490489371346555 -0.00034899607107785613 -0.0004455350411198822 -0.0016048903098084821
          -0.00028732129332498246 0.00009918112547957492 -0.0017610477024390114 -0.0001774323520855603 -0.00035385332488147014 -0.00024091734788811436
          -0.00006382346159927721 -0.00003841740285714934 -0.00013165469933618112 -0.0001669802953063737 -0.00012149227976632204 -0.0002165100744644377
          -0.00017658429101441442 -0.00008677777086063543 -0.00020111192847682702 0.005516443839774787 0.013897641368799007 0.006917851449243173
          -0.0035945302023412395 -0.013650955366779627 -0.007973476572577631 -0.0030327177785993698 -0.0014915368823915642 -0.0014325384117839235
          -0.00043344624300534207 -0.0002707079524713052 -0.001683571611200918 -0.00042522174409542757 0.000007211069827928185 -0.0017197608851908797
          -0.00018322510083379484 -0.0003542616385772135 -0.00025576599799848054 -0.00006080434186195305 -0.00002018591107066925 -0.0001194181183343801
          -0.000176689776310468 -0.0001229967807026 -0.00021361751478643498 -0.00017591385890636246 -0.00008293882530363561 -0.00022191332959042853
          0.013196421916310541 0.029737544986221387 0.010002099893110739 -0.013325553686587277 -0.029303323253768276 -0.01161924850585283
          -0.0004501726541104034 -0.00035861307156270783 -0.0014998164087147714 -0.0006476965444868199 -0.0004384733509938954 -0.0018488540222092453
          -0.0005118945280142562 -0.00013108177290765965 -0.001719434282636989 -0.00019377902730965957 -0.0003681388560998755 -0.0002590349471560671
          -0.00006893918758876794 -0.00004210478909083548 -0.00013626520323573033 -0.00018207137580983357 -0.00013023950045276678 -0.00021913962398567577
          0.005222320003053227 0.011164881758218392 0.006187685461008563 -0.005805414852523505 -0.011538167644984831 -0.007240453802419999
          -0.0005114729396344941 -0.0006661498110966946 -0.0018872144571098204 -0.000520328930038616 -0.0003231306202167161 -0.0020198896187348936
          -0.0006227440281794117 -0.0002687800852880784 -0.0018136794437335624 -0.00046486494129149847 -0.00004147014740540911 -0.001625430592948618
          -0.00022634628888873465 -0.00042594857780287043 -0.00029609805234720454 -0.00007200172259569371 -0.00004361161611399211 -0.00014966413479378105
          -0.0002031297059517101 -0.00014904393795855952 -0.0002688986771701707 0.013399411528527416 0.021008651510245002 0.007739768259906299
          -0.013593775737807512 -0.02112928919984558 -0.009396560773144103 -0.00024452319666767863 -0.000008596568642715852 -0.0018359527918025975
          -0.000548679383311601 -0.00017289287202970627 -0.001967697199202867 -0.0006102497691795605 -0.00024060682166027192 -0.0018235333139715593
          -0.0004849349391458091 -0.00003270467130711552 -0.0016519705678215146 -0.0002841936080546503 -0.00053662232562246 -0.00036385673399408347
          -0.00007996315351821437 -0.00004804926587453906 -0.0001700712553844852 0.002383076641478965 0.0065446060976572795 0.004392410994491058
          -0.0030034586189895407 -0.007052273759692973 -0.005681593998279055 -0.0006504059936291995 -0.0006174523777433549 -0.0018207955766396111
          -0.0005468163408322013 -0.0004241115048841948 -0.002174957293521018 -0.0005247339997538347 -0.00012147498213099794 -0.0019203188220240364
          -0.0005706771379125897 -0.0001886252526785981 -0.0016679989917616211 -0.0004489664260485249 -0.00006587188373208264 -0.0010430651565251914
          -0.0003511637060693573 -0.0006645214848681746 -0.0004355700059992529 -0.00009638390246724526 -0.00005702000128149365 -0.0002233407613019267
          0.018102696630542425 0.01670419372682197 0.0055967491912856104 -0.01868702566758884 -0.017363610275691777 -0.0076286071693330015
          -0.0002522925689447675 0.0000024172787744802804 -0.0018992959435513157 -0.00039031346654105903 -0.000023111756337179656 -0.001982061775623656
          -0.000450713957810045 -0.00008319260218314639 -0.0017889889087872035 -0.000522980951656038 -0.00021699877522518563 -0.0013953688036885126
          -0.00040488780505754107 -0.000020910071902413563 -0.0007293315838881043 -0.00035552184498044426 -0.0006691824953293235 -0.00038694299087271844
          0.001159557091350294 0.0033198314653972716 0.0012731421575553625 0.0007744078128189003 -0.0035975070135618736 -0.0027551899014861547
          -0.0031616137410308554 -0.0014763261271806272 -0.0019913272620986078 -0.0004834762079815036 -0.0003856398928698823 -0.0022798813931732553
          -0.00034970789661947776 0.000011056240705187292 -0.0018855490387252871 -0.00034505774163751113 0.00003290564047109257 -0.0014642567442004761
          -0.00041942130019378965 -0.0001018103984380403 -0.0009249704464471264 -0.0003190506269046267 0.00007504279109760148 -0.00030290514020059334
          0.014377452037665606 0.02263484963109974 0.003240151902097921 -0.015350532071092715 -0.024074029050561663 -0.005850247389135532
          -0.0003330900286178107 -0.00013557703735322946 -0.002197256087369759 -0.00030293639536882466 0.000056597218891951684 -0.0020847137272488325
          -0.00031111757944124463 0.00002258154486334263 -0.0017069110231959783 -0.0003395447889662506 -0.0000012683549313052822 -0.0010711801848435343
          -0.0002973059498971864 0.00005638658377637995 -0.00035491999271730634 -0.00017049189198070636 0.00028765178796152924 0.0001592779533661215
          0.0016686386511963747 -0.00031564072525469555 -0.0032462918637410354 -0.002856299057451217 -0.0032177045106802638 -0.0021616884517925428
          -0.0004847429285081972 -0.00044485294637741646 -0.002523244204062358 -0.0002414246393795949 0.00013741276506706868 -0.0018801145147397946
          -0.0002095531581476351 0.00016273952173673223 -0.0012786817881718093 -0.0003300529188088319 -0.000003628948125999898 -0.0005943374336290219
          -0.00032662445195796863 -0.00002805991267251784 0.00007403467668964936 -0.00014643143504766698 0.0003098722412699928 0.000546957970063211
          -0.007001560424276576 -0.02036699054704627 -0.01080806662254119 -0.00011902668715269016 -0.00002138658988659614 -0.002213039447626741
          -0.000264412666706626 -0.00004065049705381796 -0.002264494663142713 -0.0001664962100660361 0.00015842061754423042 -0.0015287453510248739
          -0.00016244012050137258 0.0001867932384200799 -0.0007018157647218359 -0.00024455035435000383 0.00009770651243368178 0.000021154902222875194
          -0.0003473102275188822 -0.00008626593001270777 0.00040126786483440924 -0.00027136756799617245 0.00011056741267312375 0.0007375754696488102
          -0.0016416350166243987 -0.003809087022125013 -0.002699778150302201 -0.00026736237748004044 -0.0004666387196685662 -0.0025962679375348685
          -0.00007555786894908323 0.00017487947164340767 -0.0018344646494616867 -0.00006293723496852976 0.00021956643630627326 -0.0009387770459863276
          -0.00010318951895804673 0.000196408494839595 -0.0000024942506282599197 -0.0001266320595920689 0.0001840762331246637 0.0006594346681270125
          -0.00031661021442008774 -0.00009328166638145063 0.000650366258283519 -0.00036401067675484455 -0.00004744186317484633 0.0006513896143802711
          0.0000933842517625294 0.0001838987048259355 -0.0021872606755746204 0.00005449729002204862 0.00018293175643080417 -0.0013064543796801331
          0.000018350230276631407 0.0002739807377221126 -0.0001840141430022868 -0.0000045554461687302705 0.0002593350091100177 0.0007004354930719714
          -0.00015890189275857836 0.00006610820358421421 0.0010100459330457667 -0.0005104185559998697 -0.0004004860681741107 0.0006395739344977613
          -0.00049731908260231 -0.00023379610699425513 0.0007513290586524946 0.0005241500928612197 0.001066496899284175 -0.0013997166954275997
          0.000201380918094074 0.0003706596561405817 -0.000484356121152274 0.00010682177284326855 0.0003814873657539408 0.0006166299596666036
          -0.00009061224903295084 0.00012885322929712117 0.0011125577231254624 -0.0004899554379385052 -0.0002992987016776638 0.0010137376042251844
          -0.00089752675652921 -0.0008514477562417966 0.0005248765806049605 -0.0008062449547168171 -0.0006408003738367363 0.0007568062651941432
          0.00068477987403881 0.0012440054736089223 -0.0007158664304469653 0.0003445848404455276 0.0006165318758242222 0.0005049601375111124
          0.000024727524492007547 0.00028936250123035023 0.0011983412185712083 -0.0005102161467540611 -0.00029141976771640543 0.0012156982161526386
          -0.0008904401529523653 -0.0006851620478256493 0.00090284628597459 -0.0014989074203466402 -0.001826485026282576 0.0003040640106402037
          0.0009426356351447396 0.001564326057646781 0.00040934917112700475 0.000412384085722195 0.0007509260512694738 0.0015018935817163737
          -0.0003922183379030386 -0.00035550769339653954 0.0015362510485248393 -0.0011300972649763708 -0.0013159706033043506 0.001100814974534181
          -0.0018138134337615242 -0.002568441654088538 0.0003115663095814014 -0.0002451540777395067 -0.00043527783439456513 -0.00038095306662810913
          -0.00011204722934810007 -0.0004854702542127498 -0.00075692316045739 -0.00041855717837346873 -0.00035978875533082544 0.000677838912362283
          -0.00026094382922314807 -0.00034234400720078995 0.0003053074160064284 -0.0011317705686364476 -0.0006401786992777936 -0.00047817653615478406
          -0.0005313415888306139 -0.002294581568985876 -0.0013290219272725778 -0.00022026719455681132 -0.00020681509722653146 -0.002379809465921312
          -0.00154833780492325 -0.0014106765444559244 -0.0016846615789818387 -0.00048792582843848464 -0.0016744018024921203 -0.0010457589057493166
          -0.0009924063885327072 -0.0028024100372476823 -0.0016917917685876915 0.0006363705127210295 -0.00014190078509823678 0.00018506186775635314
          -0.002056787345547484 -0.003453354408742726 -0.00124919426762915 -0.0005853113192695325 -0.000319047438951614 -0.0007535879188536043
          -0.0008947399668484124 -0.00039079197321756354 -0.00008772422562408622 -0.0015308121632560123 -0.0015070668909249463 -0.00038635300995659705
          -0.00040857200494581747 -0.0007269576570960723 -0.00027182525120839074 -0.0017899560857572716 -0.0008194745000693615 -0.003395824854228735
          -0.00021480884314151183 -0.003061397954811085 -0.001713821792757031 -0.0008758240326010025 -0.0010393081280737348 -0.0012359605622931369
          -0.0007367138117251315 -0.0018452047673926941 -0.002212939796160107 0.000008103216194044194 -0.0002876720218836226 -0.00030839076212085814
          -0.0007126780789494802 -0.002089931498791664 -0.000004059479844720215 -0.003933902110967669 -0.0015895670446144372 -0.003227050937154363
          -0.0003632601566526672 -0.0017285810472664753 0.000024777839301548532 -0.0027038898169196024 0.0014021312575036582 -0.00004741929324991734
          -0.00036906903042321915 -0.0007589520898587665 -0.0008850304735501524 -0.001545878610321516 -0.0015576499281855227 -0.001498792642098401
          -0.002478063461493374 0.00023700935810566648 -0.00006137530433036886 -0.0008568907625488009 -0.001151677819278607 -0.00030826898346791864
          -0.0007027583832925899 0.0005240434458775312 0.00038836018607346645 -0.00042478243422311435 -0.0006509226550710512 -0.000035856720973392875
          -0.0010469669278839744 -0.0004256529913058138 -0.0009153349713653114 -0.0005231959054516899 -0.0007852235269509844 -0.00011337505181963081
          -0.0005732706718055702 -0.0011722846383941388 -0.0011169372561321556 -0.0009584469120293981 -0.0010161060719706683 -0.0014814679566166333
          -0.005996976778138041 0.00046166409855641355 -0.003018487184109908 -0.000010798108676990381 -0.0004928769319190174 -0.0011965821681210187
          -0.0006112103983149098 -0.00046057423678735887 -0.0006580956025947771 0.00146586595149234 -0.007983820884391868 -0.004745339651521796
          -0.0011227888144893505 -0.0010456028877836587 0.000014432421178156574 0.03740823262324833 0.04645136322199317 0.0022495076536497294
          -0.002517036220988089 -0.003938189194180097 -0.0034947922530355058 -0.0016240574352170967 -0.002651801835389378 -0.0029886030117749485
          -0.0005571997415758645 -0.0011619578953281362 -0.0015194645878384705 -0.0010530996198321319 -0.0019283083265690948 0.000010697302641027306
          -0.00047133801390586427 -0.00157744635645507 -0.00038945150420932606 0.022041805037466666 0.0341997732472521 0.010854521560739627
          0.00020051377677310356 0.0010214643811297108 0.00029162772407298476 0.0019689736271306657 0.001995393338781959 0.0017724626647259711
          -0.0009183330462620987 -0.0011208599223979654 0.0013592354796099215 -0.0013511496934617284 -0.0014755132629282741 0.0007698880569613209
          -0.0017074116361115443 -0.0007828475286872916 0.0005721364154913644 0.012796565373284885 0.020008647968758453 0.00617510047742531
          -0.001936184649608208 -0.0027143375924580937 -0.0010374989054753314 -0.0021999734889295297 -0.0033261302917342306 -0.0016481253774909277
          -0.0008271918125455358 -0.0008067460056473408 -0.002596870028327203 -0.0020919422438829827 -0.0011408662713652262 0.00011534516852318433
          -0.0008971668686168499 -0.001426813008587935 -0.001470415670681291 -0.0020211073421467773 -0.0005423063806375694 -0.0007579798292098872
          -0.0015590749318370456 -0.0007343486275530609 -0.0037770714327898247 -0.002334971147533338 -0.003517423737292802 -0.0023039409110658937
          -0.0018067620231008164 -0.004631065100110021 -0.0039406057824518115 -0.0013877027532878117 -0.0027290709544249836 -0.0009564142376561335
          -0.0010846795267847043 -0.0004004429637047835 -0.0016710336488028332 -0.0012517098997033571 -0.0009757280184503614 -0.0009092031805089107
          -0.0018485481208241339 -0.0030490563903455836 -0.0006738922566045247 -0.0014809581379093828 -0.0016047953004720839 -0.0021376835352420187
          -0.0020349198032239 -0.0004577280217201718 -0.00006625440493079893 0.0007031562304895544 0.001893175022146032 0.000774627042650522
          -0.0019984435502209408 -0.0050151886874942875 -0.004188270436046082 -0.014710085185456023 -0.03187042626530001 -0.019167662116846174
          -0.029188178111475338 -0.002627887818881014 -0.004189357467833332 -0.002281659844534545 -0.004509406138165417 -0.003721224225085251
          -0.001611616443558006 -0.0033536590457643456 -0.0029925277471480882 0.00868415061582084 0.016013370961903917 0.006138843412778705
        </DataArray>
        <DataArray type="Float64" Name="resid_y" format="ascii" RangeMin="-0.6005926347687335" RangeMax="0.01435353918354429">
          -0.00003516296458949686 -0.30029917765975744 -0.00005561622160793478 -0.6005926347687335 0.00002273210470485343 -0.3003169238229735
          -8.29470923335851e-8 -0.29441047491752526 -1.6684020329171823e-7 -0.5888496501420327 0.000024713949986931993 -0.29446277065512405
          -0.00003239742140431767 -0.2878489368546912 -0.00001685755191410676 -0.5757267008535296 0.0000041935063128939465 -0.2879259584936841
          -0.000042100646731796365 -0.28093026235885443 -0.000014650794801396305 -0.5619168302096562 0.000006218357174403444 -0.28107461315194815
          -0.00004693553993262434 -0.27350664394875396 -0.000018231920590083828 -0.5471140950614416 0.0000015878332353391755 -0.27381705027174436
          -0.000049954391482615046 -0.26430134939280503 -0.00001943662054712525 -0.5287619378570292 -0.000007566638850320384 -0.26453224632925115
          -0.000053178388662061815 -0.25009416794222455 -0.0000181973418044018 -0.5006595942080168 -0.00001993540970818275 -0.25224128625018705
          0.000011461083595905308 -0.23907677636067198 -0.000011597932247559006 -0.48006536366800423 -0.0004107539581010011 -0.24893290304742427
          -0.00002650854288729909 0.000019776769689977547 -0.000013857603318900846 0.00003958078293750389 0.00009286309803771542 0.000057038340932902276
          0.0000494060632680593 0.00007664853578789876 0.000055386479581476245 0.000032554234953602323 0.0000902724990252124 0.00005071522447003263
          0.00002514587482843611 0.00009201229787633713 0.00003945813809538845 0.00001421793943010008 0.0000946895168669748 0.000020186109895375948
          -0.0007732870264259423 -0.0016435829271482516 -0.001097721760786971 -0.0032682772671047966 -0.0032371191049693077 0.0002713509834913197
          0.000027363795251061918 -0.000015053275848136982 -0.000008302668611626096 0.000019327454693962576 0.00002309906570496789 0.00002560817747734867
          0.000012951883740897063 0.00001129943443875514 0.000020682552943851462 0.000007290882030497325 0.00002189587542678062 0.000013937797639723692
          -0.0000033312736105461926 0.00002230079068157864 0.0000010184969116977527 -0.0000214804682244496 0.00002165620542748936 -0.000027097551683757937
          0.0007406411943043645 0.0018338004899632054 0.0010785622175921994 0.0031495068819550054 0.0034647117385828152 0.0004066267308442395
          0.00004605872486207474 0.000012393217791561995 0.000006135757274844389 0.000016499701070871176 0.000019910039622955678 0.00003001913275946233
          0.000013104990817858209 0.000009095723273344625 0.00002580764740667263 0.000009271510540309613 0.000019731532103522964 0.00001586612910081664
          -0.000004312395315175799 0.000019266236460702135 0.0000011294180397025677 -0.0029130571495454005 -0.006139074074293968 -0.0034398543664372894
          -0.0021757429355884206 -0.002799956460535241 -0.0005993907520364661 -0.0002922047616223944 -0.00038579983177823574 0.00006967188612042041
          0.00006358815578602628 0.00003404285397826112 0.000027713803666229442 0.00001941749780406954 0.000017950937027083613 0.000040719688196882986
          0.000014333565007629279 0.000006052968692299432 0.00003343005805667154 0.000011979916458099149 0.000016842944795036896 0.000019240591867891732
          -0.000002271286420538199 0.00001580543517476496 0.00000370826734277796 0.0029178283867595245 0.00634115519717493 0.003582339755676789
          0.00217115097082321 0.003322995909795956 0.001177451829183579 -0.00017983057066521535 0.0000053522835361252685 0.000041153111199732084
          0.000027571066864323646 -0.00005296390732512091 0.000009173483570823482 0.000028846264397724974 0.00002129452801186149 0.00006845786951620303
          0.00002337083338865842 0.000004399965548573803 0.00004886467382900217 0.000016182520900895336 0.000011992090183154946 0.000027553177747663415
          -0.0027824907618672345 -0.006967083261110438 -0.0038229498466088307 -0.005564979440089074 -0.011998847945778601 -0.0037265806761531683
          0.00012121040416890327 -0.00003610142758800339 -0.000014266286198855171 0.0002817508945531788 0.0002650520083882779 -0.00001805406130303555
          0.000107808438022855 0.00020213970866889142 0.0001760051992495959 0.00005732655927334629 -0.00002359516816757834 0.0000704626594140445
          0.00004567264129917703 0.000022847376005302733 0.00010459701886950112 0.000042764111175042085 0.000004430737550409347 0.00007647709663810565
          0.000031157972192663586 0.00001036652733550636 0.000047123800093890056 -0.0019763458551489282 0.005637806031255993 0.003934676461290976
          0.004484075059392828 0.01182650920992051 0.00396988798637829 0.000267784467889276 0.0003631552489946621 0.00030234454047467496
          0.00021197370594042142 0.0002704386597758568 0.00033833714794939684 0.00009941571404206706 0.00012268804843534875 0.00013280627254660948
          0.0000979332509203068 0.000025272595281150556 0.00012429856994494726 0.0000930248366418085 0.0000028829065738256165 0.00013436105068112547
          0.00007279608887145184 0.0000012417636276185195 0.00010872529801736475 -0.0032874119214097303 -0.008257988922271725 -0.0043833473248317545
          -0.0018992146140781596 -0.01315760632149826 -0.004495982098986856 0.0012530107957280934 0.00014585684327247939 0.00014906283151464028
          0.00035923102761267756 0.0003357840224814945 0.00028649847744460777 0.0002626703320154633 0.00027763871902261594 0.000402660349181988
          0.00020954248751833826 0.00019345123818725884 0.00023089410408025368 0.00012501444012200102 0.00003559933907687496 0.00019451932708200448
          0.00013353483873920768 0.0000037487278408132596 0.0001885352749851077 0.00012061195343542053 0.000014508473734506366 0.00015833976799514704
          0.0032787368757355856 0.007963608592971572 0.004509054299075249 0.006605782820672423 0.01435353918354429 0.004635541950151589
          0.0003213702969367127 0.00032977893588909124 0.00015923848968665832 0.00039652888995139746 0.0004057751114756314 0.0004643320242164184
          0.00029389839875249013 0.00028172749485771975 0.0004164717354643299 0.000258200513844703 0.0002235527023669026 0.00027870794346659955
          0.000165571262826264 0.00002825362912475815 0.00024171857041541123 0.0001849789400602958 0.000008281329874709753 0.0002456105600544267
          -0.0030562279521583607 -0.006970836080037249 -0.003974667396768605 -0.006552876308265926 -0.00993452374849546 -0.003219424925385489
          0.0001355307058216737 0.000005327310748509673 0.0002297869057871771 0.0003344909406648444 0.00023433125899033347 0.00031197283974648826
          0.0003854450273358401 0.00031493165102847165 0.0004179385198226637 0.00025506880927558817 0.00020967740134580914 0.00037328411136614004
          0.00032903970425723905 0.00029136932374765334 0.00034882687882234475 0.00021479080106945325 0.00003303345763680521 0.0002959461844255218
          0.0002387715554969111 0.00000557831115148566 0.0003000788499369217 0.0031933775257914077 0.00662235237960862 0.004348527982043909
          0.006854381750612287 0.009796328935967158 0.0037036026650130727 0.0003379964574191652 0.00015990645876548526 0.00030525012048157607
          0.0003549276537150037 0.00021556369532574338 0.0003934578083278628 0.000357626110174869 0.00024683516206552847 0.0003979522053286222
          0.0001960619482865994 0.00010586265740005624 0.0003364630833001363 0.0004070659434039503 0.0003604406507582425 0.00042040308287052963
          0.0002631227945092407 0.0000346662595461511 0.00034586726528804124 -0.001097770134700235 -0.004088861461494495 -0.002807891845676619
          -0.004402971888740781 -0.007031112102567516 -0.0021560990201384966 0.0003413191624723477 0.00017804061054246811 0.0004694514077497325
          0.00043084167948545526 0.0002743578519569523 0.0004799738358993999 0.0003698741697635288 0.0001719002837822503 0.0003958416903721562
          0.0003077444909284355 0.00012483742897081984 0.00033631887880211653 0.0001690811493929023 0.000017768787749200543 0.00022953385125153158
          0.00047897463889257086 0.00041854426180726323 0.0004845177956783464 0.00031090177562433097 0.0000370870600227835 0.00039261881184807224
          -0.003641472424180822 0.002333274627154991 0.003428943098272713 0.0037094174544940184 0.006444070515208955 0.0029015090588377923
          0.000461043384173937 0.00013943865279475443 0.00036549093557280976 0.00044412862180981394 0.0002273155821978512 0.0004928543894277826
          0.0003862598668635808 0.00017697853937959085 0.0004422177355696555 0.0002819364098887167 0.00008064349760203426 0.00032154457766542244
          0.00009770026559067363 -0.000060739518999736175 0.00016457712575915912 0.001063544422541307 0.0014944466265333078 0.000869235766958909
          -0.0001856612607634145 -0.0016125527557838137 -0.0008328049968259199 0.0023150165327759653 -0.0057309037008121955 -0.0012871515579246928
          0.0018032175571036924 0.000523036019899531 0.0004036878879901673 0.0005085786110949342 0.0002628691573083042 0.000542077815034514
          0.00044433503581400857 0.00018206930127526166 0.00046585073754437656 0.0003594090543431183 0.00008284028493851792 0.00039084487410767643
          0.0002751923168933662 0.000030622564791610296 0.0003124022467644316 0.00007586346541264854 -0.00011624017752449867 0.00015379493470726174
          -0.003955955522753726 -0.003367639295176389 0.001754068510563589 0.001999585855005287 0.005572560645291824 0.001938994769873359
          0.0004354982859557932 0.00005932223929697167 0.0004199977317883574 0.0004921207658230009 0.0002248747608892543 0.0005124809850100553
          0.00041619916866716955 0.00014244435345936446 0.00044676404997098795 0.00032136284381534264 -0.000011078455809693244 0.0003294785997506877
          0.0002796897531698525 -0.000006111825201795401 0.00030925929831641333 0.00010843100335279632 -0.00007251738673940897 0.00022448218378527673
          0.004267022634620421 0.0012924333677832855 -0.0032143352912601397 0.0016211438493424213 0.0013475460180022436 0.00044753437845246324
          0.0005078423073647531 0.00020855742763389862 0.0005531418483867845 0.0004485500877996207 0.00016079740927571473 0.0004443031083699034
          0.00034628389088331435 0.000029158858342620553 0.00035415043542660896 0.00027956884796370707 -0.00008650822024575122 0.00027802509717393415
          0.0002602002624147656 -0.00008590657995570863 0.00028834470585048164 0.00014314434616502503 -0.000058232644080474794 0.00031083739742773786
          0.0007779884538369058 0.002911096054862755 0.003984364962558218 0.0003980871473382719 0.00007310919441388952 0.000456772984546161
          0.00048030801142875945 0.00017936961376910365 0.0005116853132297039 0.0003892039684577908 0.00010299628341028932 0.0004013888264912946
          0.00029279541873070136 -0.0000404717945865149 0.00029739568538320396 0.00024525973470810626 -0.00013939077920475246 0.00024742695808133847
          0.00023325678908979464 -0.000162875177060047 0.00027716547982220563 0.00015736978019956216 -0.00013929313948645577 0.00033966887486697184
          0.0016855402080186987 0.0031184748304704524 0.0012194566301822474 0.0006816749246855991 0.0006491268665774763 0.000666286252015369
          0.0004260299091894404 0.00009210763178552073 0.0004261927666750487 0.00030285728116467847 -0.00002122923516247044 0.0002987568523472664
          0.00024119206762008758 -0.00012682990621262942 0.00025743565826950865 0.0002192409870839518 -0.00021481051329569345 0.0002608933717238304
          0.0002498593578861147 -0.00017700179457134924 0.0003539189336944082 0.00024029368878848364 -0.00005190025535179929 0.00038884550256928704
          0.0004191374300038242 0.0001767504560402644 0.00040358049714131483 0.0002506688983387184 -0.000012665884877013922 0.00031531998941893014
          0.0002158776415019971 -0.00015575850508517397 0.00023099069773130365 0.00019185226884263495 -0.0002592862195768403 0.00023534796991464546
          0.00024635769246242334 -0.00028665902463111126 0.00033191192243264833 0.00039956737917104523 -0.000027915559788427302 0.0005566336706338548
          0.0002574612542285415 -0.00007279642933166741 0.0004757784507740115 0.000523790472283181 0.0005883882935365237 0.0005657553504845869
          0.00020130216573210902 -0.00011950417072993658 0.0002102558135823416 0.00014473109559365316 -0.0003059963138168087 0.00017834455056985055
          0.00021861418959449874 -0.00032821556265980045 0.00029230384315653835 0.000380804947529928 -0.00022849531590329875 0.00047697824887305007
          0.0006115203467461222 0.00018704515796184873 0.0007179236725706195 0.0008523548971359207 0.0010240102897535741 0.000908576208051709
          0.0004889784048793255 0.0005570042211762161 0.000500684059390244 0.00011979123160569399 -0.00022163191849931818 0.00011088347772029994
          0.00013385992666675728 -0.0003784728015701899 0.00019155787950234093 0.0003277723405549493 -0.0002692817423967653 0.0004292123940870807
          0.0005731095350667292 -0.00004712968674655538 0.0006266873703747455 0.001242877646522214 0.0013612743426104496 0.0010059129262878774
          0.0007116341569766149 0.0009355829476637156 0.00034738354966162843 0.0005610781847769364 0.000686758177493807 0.00010121490129116895
          0.0010189588041334963 0.0013433306506060172 0.0005860973547230919 0.0016565470854613962 0.0023078213048761675 0.0012689813375707792
          0.0017324618612994391 0.0022968939579772196 0.0013474559766691874 -0.0001572959633034804 -0.00010518511038247816 -0.00011233224562420818
          0.00010789579992001586 -0.00031650496554233576 -0.0002453814291347861 -0.00020214003376376605 0.000428480981943119 0.0002123459234779218
          0.00021913461608134843 0.00015939566632379443 0.00048248794658403704 0.00021158118984127006 0.00007464838181023281 0.00018618577209071618
          0.00022616498880648206 0.0005122386403209334 0.00010214145625415949 0.0002515620663839785 0.0003489832030791479 0.0003797574973424811
          0.00010900328306192447 0.00026306543719734066 0.00036933777590216627 -0.00006104649537533313 0.0009978382583733028 0.00014497906509960967
          -0.0001483141821043421 0.001997108187746087 0.0001330967545492695 0.00010130557307636012 0.0011771663026312607 0.0003841710656348196
          0.0006364960428844602 0.0008724450073044898 0.0005739733479740439 5.416566416990842e-7 0.000014961330764971803 0.00014350853786455897
          0.00048719846742673045 -0.0002144558569197319 -0.00007606949233204471 0.00025785173232019745 0.00034596469801160407 0.000019471808307393312
          0.000024624433239212734 0.00014190941301066816 0.00020436780402027788 0.0005254586928848115 0.00025979023844897864 0.0007256688788088161
          0.0003961851127561103 0.000403127364097311 0.0003715664877877445 0.00022821605202691386 -0.0000982035995253927 -0.0005607783150693713
          0.000242774969149262 -0.00007400662990203477 -0.0004826444230916771 0.0003547924088860288 0.00036650453188707965 0.00021413292334138134
          0.0002633410055449259 0.0003371249824355993 0.00030094353574033894 0.0003987743988516923 0.00006994007453867135 0.0002467726101083034
          0.0003096295622348755 0.0002356765530435595 0.000004965519551036746 -0.000502646260561998 0.0004306279763587051 0.00001362521830547414
          0.00003719804269935317 0.000025338162297688926 0.00011391972914834986 0.0009880331722234015 0.0011577637990802941 0.0016425728616885071
          0.0016590905466874195 0.001037867195722908 0.0009199467873600431 0.000627940219178974 0.0006296619539819803 0.0004947152388430354
          0.0005830971350075514 0.00047006342721914174 0.0004749580774740386 0.0001404143347396858 0.00024441165325515823 0.0001605659877034482
          0.000217294543221086 0.0001452255287697074 0.00018560912782665528 0.0003104229520629054 0.00012271068704475252 0.0002428613817749975
          -0.00013891977394195343 0.00024120163405608186 0.00003672334716373071 0.0007124456041737448 0.0008957086134832593 0.00002781735737628077
          0.002888851261349426 -0.0003169871523672485 0.0011649992563049771 -0.00020399410880041213 0.00016966825212567926 0.00034571931983710946
          0.0002477672560168842 0.00014958694212108964 0.00013283577182771067 0.007342221803610577 0.007239074822744107 0.001506652696835975
          0.0006903512296133202 0.0007314341720595502 0.0005211072632533842 -0.004699451461521897 -0.003069929657360332 -0.0016739375295229397
          0.00027937199411835756 0.0001742765408794117 -0.00009837213579373671 0.0005749648317682071 0.0009172105561096808 0.00034503313680259856
          -0.0000847718283756016 -0.000032711929773623916 0.00010783251080864753 0.0013253773026261628 0.0015987807538653809 0.0009691039344778413
          0.00047197955363449673 0.0015523050748974254 0.0015289602471728475 -0.0070864923487821 -0.010818271850305261 -0.0029927304243762554
          0.00028907534089317455 0.0002957929244553348 0.0009057825264159325 0.0007715391155664053 0.0010212812817823602 0.0006575884068190374
          0.000795189832416332 0.0018771230383359816 0.001616883596612717 0.0014593590055996253 0.0031210471312626 0.0021464105449708892
          0.0014943207697796224 0.002726150876014466 0.001903799548977042 -0.0027112436207551577 -0.0037209151914604777 -0.000023816612167520956
          0.00009107913607014906 0.0005731163994245891 0.0011117144111483512 0.00016378164921741767 0.000392606627002523 0.0006326236492693316
          0.00020903375649772293 0.0005867618794337393 0.0004185307447840403 0.0015782187353555743 0.00026329932429954017 0.0009261086359626802
          0.0001538397132128666 0.00022422321582328542 -0.0003324674750912471 0.00006742695108402641 0.00009711581361562804 0.0002577763474403
          0.00016846085630170538 -0.00013098220316293263 0.00026714383222253835 -0.00023888124185485193 0.0002772115338145059 0.0000762902128969567
          0.0002255246907406569 0.0007439874316019224 0.0004818478489293024 0.00000432059866492529 -0.000003354928506615895 0.00012301628890942773
          0.00014818698729925084 -0.00020850824694500225 0.00012590954638533325 -0.00040046494094631013 0.00016892644590188466 0.00004691018260560842
          0.0010850882846197007 0.0013943737083212948 0.0008202376790962529 0.0014555950934687922 0.001370512503227228 0.0021384600806297893
          0.002067454293744442 0.0011286916336992747 0.0011447480294794476 0.00026094129016246415 0.00015730008856243427 0.0005829716215166453
          0.00024878743018899585 0.0004978166955324492 0.0003342311269747267 -0.2843675827510076 0.005765773833482396 -0.5918211362749051
          0.006979599895124977 -0.3490942094260759 0.0007433893932729807 0.000088607655347267 0.00024086114937393877 0.00014911500901597374
          0.0007151275673991098 0.0012842517408138687 0.00036867832014592095 -0.005668038806875754 -0.009053433193888072 -0.002246951382224388
        </DataArray>
        <DataArray type="Float64" Name="resid_z" format="ascii" RangeMin="0" RangeMax="0">
          0 0 0 0 0 0
          0 0 0 0 0 0
          0 0 0 0 0 0
          0 0 0 0 0 0
          0 0 0 0 0 0
          0 0 0 0 0 0
          0 0 0 0 0 0
          0 0 0 0 0 0
          0 0 0 0 0 0
          0 0 0 0 0 0
          0 0 0 0 0 0
          0 0 0 0 0 0
          0 0 0 0 0 0
          0 0 0 0 0 0
          0 0 0 0 0 0
          0 0 0 0 0 0
          0 0 0 0 0 0
          0 0 0 0 0 0
          0 0 0 0 0 0
          0 0 0 0 0 0
          0 0 0 0 0 0
          0 0 0 0 0 0
          0 0 0 0 0 0
          0 0 0 0 0 0
          0 0 0 0 0 0
          0 0 0 0 0 0
          0 0 0 0 0 0
          0 0 0 0 0 0
          0 0 0 0 0 0
          0 0 0 0 0 0
          0 0 0 0 0 0
          0 0 0 0 0 0
          0 0 0 0 0 0
          0 0 0 0 0 0
          0 0 0 0 0 0
          0 0 0 0 0 0
          0 0 0 0 0 0
          0 0 0 0 0 0
          0 0 0 0 0 0
          0 0 0 0 0 0
          0 0 0 0 0 0
          0 0 0 0 0 0
          0 0 0 0 0 0
          0 0 0 0 0 0
          0 0 0 0 0 0
          0 0 0 0 0 0
          0 0 0 0 0 0
          0 0 0 0 0 0
          0 0 0 0 0 0
          0 0 0 0 0 0
          0 0 0 0 0 0
          0 0 0 0 0 0
          0 0 0 0 0 0
          0 0 0 0 0 0
          0 0 0 0 0 0
          0 0 0 0 0 0
          0 0 0 0 0 0
          0 0 0 0 0 0
          0 0 0 0 0 0
          0 0 0 0 0 0
          0 0 0 0 0 0
          0 0 0 0 0 0
          0 0 0 0 0 0
          0 0 0 0 0 0
          0 0 0 0 0 0
          0 0 0 0 0 0
          0 0 0 0 0 0
          0 0 0 0 0 0
          0 0 0 0 0 0
          0 0 0 0 0 0
          0 0 0 0 0 0
          0 0 0 0 0 0
          0 0 0 0 0 0
          0 0 0 0 0 0
          0 0 0 0 0 0
          0 0 0 0 0 0
          0 0 0 0 0 0
          0 0 0 0 0 0
          0 0 0 0 0 0
          0 0 0 0 0 0
          0 0 0 0 0 0
          0 0 0 0 0 0
          0 0 0 0 0 0
          0 0 0 0 0 0
          0 0 0 0 0 0
          0 0 0 0 0 0
          0 0 0 0 0 0
          0 0 0 0 0 0
          0 0 0 0 0 0
          0 0 0 0 0 0
          0 0 0 0 0 0
          0 0 0 0 0 0
          0 0 0 0 0 0
          0 0 0 0 0 0
          0 0 0 0 0 0
          0 0 0 0 0 0
          0 0 0 0 0 0
          0 0 0 0 0 0
          0 0 0 0 0 0
          0 0 0 0 0 0
          0 0 0 0 0 0
          0 0 0 0 0 0
          0 0 0 0 0 0
          0 0 0 0 0 0
          0 0 0 0 0 0
          0 0 0 0 0 0
          0 0 0 0 0 0
          0 0 0 0 0 0
          0 0 0 0 0 0
          0 0 0 0 0 0
          0 0 0 0 0 0
          0 0 0 0 0 0
          0 0 0 0 0 0
          0 0 0 0 0 0
          0 0 0 0 0 0
          0 0 0 0 0 0
          0 0 0 0 0 0
          0 0 0 0 0 0
          0 0 0 0 0 0
          0 0 0 0 0 0
          0 0 0 0 0 0
          0 0 0 0 0 0
          0 0 0 0 0 0
          0 0 0 0 0 0
          0 0 0 0 0 0
          0 0 0 0 0 0
          0 0 0 0 0 0
          0 0 0 0 0 0
          0 0 0 0 0 0
          0 0 0 0 0 0
        </DataArray>
        <DataArray type="Float64" Name="stress_zz" format="ascii" RangeMin="-1974783.2143255165" RangeMax="3098538.5416992824">
          -2149.3973718062775 -2172.823437224729 -2478.85968547082 -2545.5522221400915 -2808.321999135362 -2918.281007055454
          510.93531830796 810.6341216872218 408.58237951121555 699.4373721317023 306.22944071447114 588.2406225761828
          1730.1886777774243 2018.377340873956 1930.0509212492798 2301.828053337662 2129.9131647211357 2585.278765801368
          3744.4661378703054 5132.211016102165 3367.088390509449 4536.549844162954 2989.7106431485927 3940.888672223744
          1918.597396896254 3590.1076235430914 3634.9973584317772 6080.572566535589 5351.3973199673 8571.037509528087
          -1346.1531608110927 -3904.9632630963474 -2562.6896328151897 -5685.636303737141 -3779.226104819287 -7466.309344377935
          74553.19522229492 92331.7633322633 58433.877979100704 81789.4105734823 42314.56073590649 71247.05781470129
          -9381.162408216027 -100336.60771485521 -63518.01639806935 -163625.19704546386 -117654.87038792267 -226913.78637607256
          -2065.164376828504 -2279.5603412775367 -2493.9563057265696 -445.37269840438694 -540.6927517405409 -636.0128050766948
          258.59871004650097 463.41744488449564 668.2361797224903 1298.1283598081884 1168.7287025013925 1039.3290451945966
          -865.2445959805175 -624.1630409335128 -383.08148588650823 6789.087124338857 3343.4333132462734 -102.22049784631054
          31340.392437323957 9793.414050001935 -11753.564337320093 15388.410413896909 -9473.193239055874 -34334.796892008664
          -2022.7123880373813 -2156.7924137053305 -2290.8724393732805 -1161.73021412003 -1356.1694092077832 -1550.6086042955362
          -2208.235788253024 -1591.2548481284052 -974.2739080037866 -1211.574655092912 -2300.6109274315904 -3389.6471997702693
          15216.213850799435 14130.890589500003 13045.56732820057 -29008.774352548196 -41576.74512828383 -54144.71590401945
          -61702.81165457605 -81429.66772334908 -101156.52379212211 -1029.2554030876672 -1802.6652311907278 -2576.0750592937984
          -2161.7709965368686 -2286.6154263213575 -2411.4598561058465 -1318.6652461579752 -1550.1111665814892 -1781.5570870050035
          -3261.4919932460853 -1770.6971753296489 -279.90235741321237 2178.2208428308923 -2744.7787908941073 -7667.778424619107
          41088.99732409406 37808.634699495684 34528.27207489731 -162943.7436446409 -174389.49208264286 -185835.2405206448
          -162625.45918683035 -174739.9596372383 -186854.4600876463 101632.64011325884 122796.01705192166 143959.39399058447
          -2054.7944430092375 -2341.7443437665725 -2628.694244523907 -2885.268898976715 -2371.4705278440833 -1857.6721567114523
          -3633.4354492441616 -2779.7641809468046 -1926.0929126494477 39292.49734896906 28558.911232169954 17825.325115370848
          -36179.91013458528 -37611.84396379668 -39043.77779300811 -372453.1871344445 -373596.41738762107 -374739.6476407977
          -179140.15849989245 -184174.26929041964 -189208.3800809469 209100.01768470288 255608.70377231907 302117.38985993527
          -2032.0968954029431 -2449.5395665698784 -2866.982237736814 -4223.654496777669 -2512.1879980000067 -800.721499222344
          -4947.278900615732 -6947.676654347116 -8948.074408078497 102168.89180257835 79643.83969043648 57118.78757829463
          -231623.4525438554 -221044.69891742276 -210465.94529099026 -552214.6463073627 -549015.1528610667 -545815.659414771
          -83649.09875302813 -98518.56834027138 -113388.03792751463 289861.55516894656 350350.96177709306 410840.36838523956
          -7090.39942611872 -7518.343158729967 -7946.286891341213 -4098.633735438959 -3646.61606398197 -3194.59839252498
          -5248.676448877506 -4613.298104891536 -3977.9197609055645 29927.738003651786 23799.704270465325 17671.67053727887
          37656.03201943169 5045.284497246574 -27565.463024938545 -478156.7933307396 -457031.9546947856 -435907.11605883145
          -600727.6373811081 -602000.483217737 -603273.3290543661 35927.05667851025 7445.32344678005 -21036.409784950127
          328914.2931095857 407685.5193732619 486456.7456369381 -7420.712339519332 -8135.524689752088 -8850.337039984846
          -6022.805261615722 -3854.94512502039 -1687.0849884250579 -5074.40644815323 -9012.007020831998 -12949.607593510762
          101848.7981966103 84574.45236251852 67300.10652842675 -232479.3456899887 -242417.32793052617 -252355.31017106364
          -729089.0726422446 -685867.987588414 -642646.9025345835 -475780.72150105843 -491724.91294785147 -507669.1043946446
          136924.2023777798 106348.46771563622 75772.73305349267 417150.8932841853 511123.9659707017 605097.0386572181
          -9972.587973463913 -9776.500289720363 -9580.412605976813 -7652.290519633011 -6307.0087378212975 -4961.726956009585
          38419.026363939236 27965.551562949764 17512.07676196029 23924.298142949912 -1792.2915041556143 -27508.881151261132
          -583177.7921781454 -561863.5453722206 -540549.2985662956 -836872.6461267995 -775893.0579543387 -714913.469781878
          -283922.50897938805 -318728.1316261925 -353533.7542729969 329226.8721151054 300431.63356389006 271636.39501267474
          620483.9269941254 722776.1292117492 825068.3314293728 -13145.111236040884 -11132.963756038955 -9120.816276037027
          -7783.896390037929 -11496.179114356224 -15208.461838674515 116747.40821478258 95213.67453075481 73679.94084672704
          -290141.21070185746 -300665.6525937131 -311190.0944855687 -877511.8259639816 -848210.0626239105 -818908.2992838393
          -677371.6669835215 -642291.9946981695 -607212.3224128175 -113558.75100098278 -149625.90311875747 -185693.0552365322
          502552.60285286565 486699.90696800465 470847.2110831436 877099.6548683413 942062.32880029 1007025.0027322386
          -15482.528600518563 -14599.170961288317 -13715.813322058075 38059.12409155788 27055.53261904808 16051.941146538284
          30572.54716537649 604.1337177849928 -29364.279729806516 -692618.4650611625 -677216.8056470919 -661815.1462330214
          -983635.5952109505 -950817.4380977363 -917999.2809845218 -397602.50977638713 -394689.4243850508 -391776.33899371437
          96620.772220028 78625.99715188643 60631.22208374488 553891.5635991727 544254.6646837479 534617.7657683232
          1099144.510602908 1118947.0439293603 1138749.577255812 -19914.9242286566 -23472.743770000077 -27030.563311343558
          136256.42968718254 109330.47337088113 82404.5170545797 -335226.3353338409 -351477.90786311304 -367729.48039238504
          -1067448.161234566 -1031913.3431437153 -996378.5250528642 -798143.5332255508 -774046.6226447382 -749949.7120639258
          -155519.39365711494 -158682.64430371698 -161845.89495031902 339965.3212819984 329295.0218592988 318624.72243659926
          778772.2721153215 755571.6206842985 732370.9692532753 1221634.415564978 1231457.15367957 1241279.891794162
          19174.57026412399 9390.393448875195 -393.7833663736001 79695.8141532004 34821.88704915675 -10052.040054886893
          -805560.0163467929 -799353.5436138654 -793147.0708809377 -1233356.9437223494 -1187781.7358558741 -1142206.527989399
          -445318.0634146101 -445088.7568232394 -444859.45023186866 155562.02492171052 150788.698436093 146015.37195047544
          648498.9601615677 635627.4795663096 622755.9989710518 1046675.3464399471 1019070.2435789091 991465.140717871
          1017888.747876824 1008459.604311798 999030.460746772 138621.04485155828 109659.5419523057 80698.03905305309
          -325596.49799858464 -363274.2998412582 -400952.10168393195 -1273286.8087322102 -1239158.5871023694 -1205030.3654725286
          -1020701.0114952899 -979835.8013996577 -938970.5913040256 -86765.93543612503 -99986.15134192162 -113206.3672477182
          573825.4495084095 561368.0375689684 548910.625629527 1010563.5691383097 993857.0786203865 977150.5881024634
          1131180.3260447844 1105767.0782340686 1080353.8304233528 954210.1665142454 954510.0148921015 954809.8632699575
          -917275.5467855702 -921834.4574976292 -926393.3682096883 -1536013.2953798415 -1468520.201137937 -1401027.1068960328
          -532420.3238726009 -516931.01608927245 -501441.7083059438 346356.8580991253 327918.88020053826 309480.90230195114
          980291.0146202717 961012.4113901615 941733.8081600511 1299564.0500250948 1274339.0082328576 1249113.9664406204
          1196772.5312738488 1175307.2923136782 1153842.0533535082 514686.5240599385 546184.957033019 577683.3900060994
          -1542479.1589578297 -1486242.0070854723 -1430004.8552131152 -1279465.2148240202 -1210728.9037539503 -1141992.59268388
          42864.548005085904 25722.62265403205 8580.69730297821 876930.1304588651 853402.5191152244 829874.9077715836
          1320666.1483095293 1293171.0179397878 1265675.8875700468 1391585.6352847503 1363884.0658176513 1336182.4963505524
          1053618.6347444966 1049518.738256055 1045418.8417676134 411016.5123584656 454788.8173764519 498561.12239443813
          -1974783.2143255165 -1851001.8006307143 -1727220.386935912 -580271.9558516736 -550199.952740757 -520127.9496298404
          694149.2529587916 656138.734973715 618128.2169886384 1386820.5916673488 1360439.2370662019 1334057.8824650547
          1567754.559513938 1529893.2256746914 1492031.891835445 1259182.5165604432 1252122.2918491347 1245062.0671378262
          434844.66434617195 470334.5538095845 505824.4432729971 221900.19343866967 182654.13901764728 143408.0845966249
          -1706029.9023657641 -1591231.6519773724 -1476433.4015889803 286703.5966843812 265441.50828814594 244179.41989191071
          1396795.4572783296 1351068.1501383362 1305340.8429983428 1769876.2019424157 1740960.2555603073 1712044.3091781985
          1614158.0851572673 1570005.3450387954 1525852.6049203235 938296.4640741758 963644.110469888 988991.7568655999
          -303508.1167534274 -247263.4618871212 -191018.8070208152 -620981.7587554903 -788328.2622914421 -955674.7658273939
          1226347.1973141201 1164237.1708080997 1102127.1443020795 1986912.2528057585 1942826.3651082763 1898740.4774107947
          1928294.232666665 1900926.3848073669 1873558.536948069 1393592.0105816103 1351264.7138422388 1308937.4171028675
          487181.04056648264 530140.8135599999 573100.5865535173 -626574.1093551582 -601157.3421803537 -575740.5750055494
          -1045833.5111452511 -1230936.543702291 -1416039.5762593308 2167249.72244782 2078989.1759831829 1990728.629518546
          2329941.7833959293 2289735.906981552 2249530.0305671757 1788269.8635456064 1765966.4155074456 1743662.9674692852
          959078.6918753572 923306.8128788874 887534.9338824177 39812.6504710232 86790.71177571028 133768.77308039737
          -733750.2804754806 -737180.0188660385 -740609.7572565961 -1142052.4243985466 -1253984.9166348719 -1365917.4088711974
          2870413.380117475 2762966.6854437916 2655519.990770108 2333189.777058444 2296984.456711717 2260779.1363649894
          1352377.7557690581 1334224.5766254521 1316071.3974818464 386514.326488271 360454.59802135685 334394.86955444264
          -402758.11970477074 -359691.9843842751 -316625.8490637795 -941809.2560084448 -951324.2284587346 -960839.2009090238
          3098538.5416992824 2971985.1799566615 2845431.818214041 1916391.1524540228 1884706.6210768672 1853022.0896997123
          655556.424621093 644821.3757952825 634086.3269694721 -291632.0506846395 -302277.396616273 -312922.7425479064
          -855452.7705999339 -820032.7619956146 -784612.7533912952 806849.7871266716 379269.9702335561 644281.6503170409
          499860.9057212572 750054.4314480113 365865.3694496914 661948.865932305 467921.87875741726 693259.0757693506
          352460.7686658267 679616.0815475691 435982.85179357725 245269.1224967689 -93807.51083965396 357101.94517168426
          287406.09525905835 166188.16274727456 -198934.23381406744 322854.87238828774 268842.537098813 87107.20299778029
          -304060.95678848086 288607.7996048912 250278.97893856757 38462.400131300645 -1076377.7361991087 -1091796.8219149692
          194456.38074491167 -984964.7828505966 -1159790.0982577219 350450.36135852267 -893551.8295020845 -1227783.3746004747
          811302.5124479871 956808.5750976866 1102314.6377473862 668591.1833811346 1179905.9108649725 661053.4674237255
          769802.8285536291 673573.9771940858 1208017.5043321722 620098.6955467422 729284.9658513381 678556.7710070368
          1236129.0977993724 579143.9236697587 688767.1031490472 304763.93966158095 326837.94709365314 249320.07213986135
          322869.92845816887 193876.2046181418 318901.9098226845 1447426.6400586169 1084515.6463768831 43587.08788330179
          1473812.7903788965 1155170.0786787642 93992.21851968678 1500198.9406991762 1225824.510980645 144397.34915607178
          239416.78513363295 21226.65192040443 243906.88097207557 -14799.692875542269 248396.9768105182 -50826.03767148897
          15028.938038146636 -315993.8524567025 -27830.69074093476 -301117.7808790502 -70690.31952001623 -286241.70930139784
          148264.84022145986 121791.25735099104 95317.6744805222 958698.1182625401 821472.6552928577 920769.3037477164
          842220.1603476511 882840.4892328926 862967.6654024443 -254754.59560299644 -199853.40166909012 -308314.6482724654
          -356468.93140952935 -361874.70094193437 -513084.4611499686 1273720.180521164 649174.2192793045 1307303.0813596484
          632643.1187670999 1340885.9821981324 616112.0182548952 664773.7972499523 700373.5873084924 602219.3781538622
          654769.0324501337 539664.9590577721 609164.4775917749 117048.3547003635 137416.0288459848 157783.70299160614
          -213809.73686720282 25816.53382120518 -210216.7449087013 45869.96618199154 -206623.75295019982 65923.39854277787
          -859.6720647452166 -131150.60821507205 -261441.54436539894 -484648.9369596251 -477762.9728960459 -470877.00883246673
          -476521.44047083816 -694861.7076967551 -913201.9749226719 -498893.5013887169 -527226.3577808682 -555559.2141730194
          -274348.484172023 -281589.2373788429 -288829.99058566266 -274437.0512916722 -252371.01453421745 -230304.97777676268
          -334341.89796251926 -318342.3449985452 -302342.7920345711 -1360175.819551023 -1394744.536883934 -1429313.2542168451
          -1178808.3712208248 -1159748.2044691874 -1140688.0377175498 -1345491.641213546 -1323482.6890028385 -1301473.7367921313
          1055552.0739485116 2700163.498082778 1031977.8481766017 2554644.7410769835 1008403.6224046918 2409125.9840711886
          -238717.07622822002 -238244.0884400069 -237771.1006517937 -954737.1567650058 -946059.3738535941 -937381.5909421826
          -1271654.0289169853 -1218327.8292222929 -1165001.6295276005 -1168450.7069329848 -1124580.1967045928 -1080709.6864762013
          -560376.8897749686 -444491.8299560612 -328606.7701371537 -465959.22028185613 -425117.4276207861 -384275.6349597164
          546243.4652758659 1035748.2960422635 479208.69240255986 1022581.1057884451 412173.91952925385 1009413.9155346267
          -783305.2484145105 -1494195.2578519676 -761210.0115693837 -1456904.1440713792 -739114.774724257 -1419613.0302907906
          339031.00670953677 156708.33019562194 365212.6276540474 175779.03612420504 391394.2485985579 194849.74205278815
          131174.43213429203 140894.96559119958 150615.4990481071 -1393203.114738579 -1371875.9393696396 -1350548.7640006999
          615354.2675446224 474955.0690910831 570819.8373659934 456611.74989047204 526285.4071873643 438268.43068986107
          -202440.53384815663 -176152.1634514199 -149863.7930546832 -323338.60542927356 743942.6760419765 -301063.71926785243
          781356.8401738484 -278788.8331064314 818771.0043057206 -1012005.9384451141 -874001.7797544687 -735997.6210638235
          -195201.83689949074 -195003.00803667758 -194804.17917386442 -713853.6950606992 -766383.0409846889 -765880.3902282761
          -783452.5177280369 -817907.085395853 -800521.9944713849 -542671.6222587712 -538716.257722691 -534760.8931866109
          -689614.0770125584 -693329.4708534915 -697044.8646944247 -334030.083840783 -282243.379578998 -230456.67531721306
        </DataArray>
        <DataArray type="Float64" Name="peeq" format="ascii" RangeMin="0" RangeMax="0.0012207328573579689">
          0 0 0 0 0 0
          0 0 0 0 0 0
          0 0 0 0 0 0
          0 0 0 0 0 0
          0 0 0 0 0 0
          0 0 0 0 0 0
          0 0 0 0 0 0
          0 0 6.882609422188475e-8 0 1.376521884437695e-7 0
          0 0 0 0 0 0
          0 0 0 0 0 0
          0 0 0 0 0 0
          2.1736391195256924e-7 2.908751804018441e-7 3.643864488511189e-7 0.0000029864346409085845 0.000003619524891684845 0.000004252615142461106
          0 0 0 0 0 0
          0 0 0 0 0 0
          0 0 0 0 7.09333363420238e-10 1.418666726840476e-9
          0.0000035333739957345166 0.000003803012845890573 0.00000407265169604663 0.00001624050485260576 0.000017432692404657486 0.00001862487995670921
          0 0 0 0 0 0
          0 0 0 0 0 0
          0 0 0 0.0000010745135576022917 0.0000011937538139518532 0.0000013129940703014148
          0.000014076168498172418 0.000014638529047144404 0.00001520088959611639 0.000043512059110686214 0.00004483807029330046 0.00004616408147591469
          0 0 0 0 0 0
          0 0 0 0 0 0
          0 0 0 0.000006534901349055993 0.000006816257199631466 0.000007097613050206938
          0.00003598273705277726 0.0000367954806768446 0.000037608224300911954 0.00008659035912466494 0.00008799120571472693 0.0000893920523047889
          0 0 0 0 0 0
          0 0 0 0 0 0
          8.404654848391249e-7 0.0000010340956625754118 0.0000012277258403116986 0.000019683608660109623 0.000020204376063148807 0.00002072514346618799
          0.00007278540572686426 0.00007367680733382614 0.00007456820894078803 0.00014766099583628993 0.00014898313330308617 0.00015030527076988242
          0 0 0 0 0 0
          0 0 0 0 0 0
          0 0 0 0.0000069635661519796676 0.0000074754193940771015 0.000007987272636174535
          0.00004601080135625134 0.00004680710062353647 0.000047603399890821586 0.00012575053320087803 0.00012657113824064703 0.00012739174328041603
          0.0002244540123578699 0.00022556216407616342 0.000226670315794457 0 0 0
          0 0 0 0 0 0
          0 0 0 9.822161669590394e-7 0.0000012218145572415883 0.0000014614129475241374
          0.000023251643106575817 0.00002408616657214988 0.000024920690037723947 0.00009075924382558618 0.000091526104540459 0.00009229296525533182
          0.0001954669962783172 0.00019610789004265603 0.00019674878380699487 0.0003125193829218871 0.00031335792859953874 0.0003141964742771905
          0 0 0 0 0 0
          0 0 0 0 0 0
          0.000008161549468434184 0.000008791190892346504 0.000009420832316258823 0.000055015987127831327 0.000056136307850045985 0.00005725662857226064
          0.00015394872162483164 0.00015445904990361124 0.0001549693781823908 0.0002809711994547709 0.0002813124886495345 0.0002816537778442982
          0.0004075074831023154 0.0004079582236986705 0.0004084089642950257 0 0 0
          0 0 0 0 0 0
          9.891748356762667e-7 0.0000012722416219180414 0.0000015553084081598158 0.000026743983337997388 0.000027799533179447146 0.000028855083020896904
          0.00010674771023972042 0.00010784158486552377 0.0001089354594913271 0.00023410901786214956 0.0002342872146548104 0.00023446541144747125
          0.0003785818097762317 0.00037850259434081356 0.0003784233789053954 0.000508621332470132 0.0005084625876021917 0.0005083038427342513
          0 0 0 0 0 0
          0 0 0 0.000008839230465878843 0.000009582275783944825 0.000010325321102010809
          0.0000626473926258783 0.00006406807169927524 0.00006548875077267219 0.00017862349531932976 0.00017939916038797586 0.0001801748254566219
          0.00033040779363094146 0.00033018476208257084 0.0003299617305342003 0.0004859257695000518 0.00048532704285036727 0.00048472831620068285
          0.0006357084537486864 0.0006347683553557746 0.000633828256962863 0 0 0
          0 0 0 6.21584404813272e-7 9.644943018977802e-7 0.0000013074041989822884
          0.00002924991123950503 0.000030482616089807572 0.00003171532094011012 0.00012179081908171193 0.0001231227148008571 0.00012445461052000225
          0.00027070012578900684 0.0002710085926785758 0.0002713170595681448 0.0004409136753842321 0.0004402405809271667 0.0004395674864701015
          0.0005972170516370754 0.000596065832854152 0.0005949146140712285 0.000710612806186465 0.0007093806011189316 0.0007081483960513981
          0 0 0 0 0 0
          0.0000084549474482539 0.000009375371871884148 0.000010295796295514396 0.00006928383671320556 0.00007096481699654514 0.0000726457972798847
          0.00020506997774630213 0.0002059445138052832 0.00020681904986426426 0.000381901939753845 0.00038161160896700786 0.0003813212781801708
          0.0005591100579887545 0.00055793288163687 0.0005567557052849854 0.0006997818491503932 0.000698175873964371 0.0006965698987783487
          0.0007773224239436447 0.0007757484900938955 0.0007741745562441464 0 0 0
          3.758922573639551e-7 5.748704200560874e-7 7.738485827482196e-7 0.00003087050946625886 0.0000321625483894388 0.00003345458731261874
          0.0001371035668541007 0.00013868587739560874 0.0001402681879371168 0.00031206764122154913 0.00031230873350872963 0.0003125498257959101
          0.0005069692175424369 0.0005059946422860762 0.0005050200670297157 0.0006752100424793036 0.0006735110224156521 0.0006718120023520008
          0.0007826993759505517 0.0007808279859013106 0.0007789565958520696 0.0008143974578885575 0.0008127353877213723 0.0008110733175541873
          0.000008029536584520927 0.000008889137729512378 0.000009748738874503831 0.00007601228429324723 0.00007777076837280272 0.00007952925245235818
          0.00023422842416078728 0.00023519607942854522 0.0002361637346963032 0.00043990018285554257 0.00043934323345171144 0.0004387862840478803
          0.0006369529016172033 0.0006353119399184114 0.0006336709782196194 0.0007787830365473521 0.0007766828889907915 0.0007745827414342305
          0.0008383489131273161 0.0008364527060944837 0.0008345564990616511 0.0008169457759589167 0.0008154853722708649 0.0008140249685828129
          0.00003264143254952333 0.00003408030814965256 0.00003551918374978179 0.0001547589574826869 0.00015658854693019304 0.00015841813637769919
          0.00035976605703179527 0.0003598529278633194 0.0003599397986948435 0.0005814826914235553 0.000580025664422279 0.0005785686374210025
          0.0007603370444359593 0.0007581411131252398 0.0007559451818145204 0.0008579676898431001 0.0008557844133316463 0.0008536011368201922
          0.0008618982503459988 0.000860195554900384 0.0008584928594547693 0.0007880526654644004 0.0007867738401153249 0.0007854950147662494
          0.00008378313328231916 0.00008575890288324778 0.00008773467248417643 0.0002703942368910767 0.00027144897543483624 0.0002725037139785958
          0.0005102420568865277 0.0005092243371101093 0.000508206617333691 0.0007265952662794633 0.0007242886597929501 0.0007219820533064372
          0.0008645697803428417 0.0008620358657009696 0.0008595019510590975 0.0009016339661421316 0.000899755897458849 0.0008978778287755665
          0.0008487115997453638 0.0008473971762000013 0.000846082752654639 0.0007412260862428729 0.0007398440273472656 0.0007384619684516585
          0.00017547139054225388 0.00017758573039646771 0.00017970007025068155 0.00042118772270439964 0.00042101660137321183 0.00042084548004202386
          0.0006762829712845762 0.0006740898620669125 0.0006718967528492489 0.0008617822293229356 0.0008588383441770146 0.0008558944590310936
          0.0009376684371945866 0.0009351239355729907 0.0009325794339513946 0.0009036030176894574 0.000902290427402145 0.0009009778371148327
          0.0007943265673228566 0.0007935101407963483 0.0007926937142698398 0.0006639482508667303 0.0006624073441138872 0.0006608664373610439
          0.0006020946147992441 0.0006004211776508096 0.0005987477405023751 0.0008430183704733111 0.0008398344884779612 0.0008366506064826115
          0.0009701722168017535 0.0009669662024581574 0.0009637601881145614 0.0009674070240608112 0.0009652311219589164 0.0009630552198570217
          0.0008589483649600893 0.0008583034333250939 0.0008576585016900987 0.000694520404983244 0.000694152966829548 0.0006937855286758523
          0.0005272319533849811 0.0005261942214571997 0.0005251564895294185 0.0007993732581448239 0.0007962490175268279 0.0007931247769088321
          0.0009905658182966218 0.0009867768225158649 0.0009829878267351077 0.0010328807600015841 0.0010298916062276078 0.001026902452453632
          0.0009407231516494999 0.0009392455807139005 0.0009377680097783014 0.0007603726407540583 0.0007604191407338918 0.0007604656407137253
          0.000549007682757488 0.0005491310573426033 0.0005492544319277187 0.0003548737688186766 0.00035498445713748344 0.0003550951454562903
          0.0009899618713689658 0.0009858724031789542 0.0009817829349889424 0.001093558260495524 0.0010897222078278925 0.0010858861551602608
          0.0010303163027575533 0.0010280456327375388 0.0010257749627175243 0.0008470753837899642 0.0008465534066125409 0.0008460314294351178
          0.0006081630217005609 0.0006089455103591493 0.0006097279990177379 0.0003748606632833308 0.00037565447281369255 0.0003764482823440544
          0.0011428784208885974 0.0011386465638061134 0.0011344147067236297 0.0011240058072762976 0.001120813247676692 0.0011176206880770866
          0.0009465650622066579 0.0009454713492595052 0.0009443776363123527 0.0006867409910848983 0.0006873346345694685 0.0006879282780540389
          0.00042048519349722905 0.000421978289338495 0.0004234713851797609 0.0005892925362040002 0.000741044586993972 0.000776649429684579
          0.0006939319193801721 0.0005888292482148238 0.0007396650636449963 0.0007750791307508946 0.0006926071439874262 0.0005883659602256472
          0.0007382855402960206 0.0007735088318172106 0.0006912823685946804 0.0005226971114283253 0.0006047163280471291 0.0005160707555565697
          0.00042450328628458736 0.0005210238676683072 0.0006025909203965728 0.0005151124465879196 0.00042403942779661776 0.0005193506239082893
          0.0006004655127460165 0.0005141541376192697 0.0004235755693086482 0.00029732339423135286 0.0002054178050780371 0.00038938249584456763
          0.00029930332734147777 0.00020717870085235982 0.0003896375830788522 0.0003012832604516025 0.00020893959662668257 0.0003898926703131368
          0.0002469057802018752 0.00024888961163763005 0.000250873443073385 0.0007886405095485591 0.0007683391009851193 0.0007728432335689266
          0.000746482445190373 0.0007869540807533834 0.0007666450081754625 0.0007706037448815187 0.0007447033371008954 0.0007852676519582079
          0.0007649509153658056 0.0007683642561941107 0.0007429242290114176 0.0004140580966113084 0.00032353150089380967 0.0004130329368652831
          0.0003236925524297849 0.00041200777711925766 0.00032385360396576014 0.0005141065225664382 0.0003610622385375744 0.00035693123243503975
          0.0005143646453237718 0.0003621517990918384 0.0003581241829717177 0.0005146227680811053 0.0003632413596461025 0.0003593171335083958
          0.00022609874586452318 0.0003034880329029934 0.0002268890706281353 0.0003032223615569024 0.0002276793953917474 0.0003029566902108113
          0.0005441482002464874 0.0003698782033660909 0.0005439329856617387 0.0003709672661466928 0.0005437177710769898 0.00037205632892729464
          0.0007036919001458081 0.0007013380232335893 0.0006989841463213705 0.0005727343048105248 0.0003957293901544194 0.0005725842083355194
          0.00039672329902342443 0.0005724341118605138 0.0003977172078924295 0.0006729941889529415 0.0005687209192068177 0.0006719888818340013
          0.0005683996011313704 0.0006709835747150609 0.0005680782830559231 0.0007384040061783271 0.0007520320168326606 0.0007367498366206739
          0.000749810333726074 0.0007350956670630209 0.0007475886506194873 0.0006019712951901887 0.0006863559657402522 0.0006004887624459156
          0.0006844419240468063 0.0005990062297016425 0.0006825278823533602 0.00014289685952596862 0.00014419018937353453 0.00014548351922110043
          0.00004013603097534236 0.00008035942731707633 0.000041941910837284865 0.00008193195834129063 0.000043747790699227366 0.00008350448936550492
          0.000647974737534245 0.0006455264435166982 0.0006430781494991513 0.000017333835901909365 0.000019095539181470314 0.00002085724246103126
          0.0005489862911511067 0.0005478306020656616 0.0005466749129802165 0.000006212296685306962 0.000007241207766342396 0.000008270118847377828
          0.00020367400777187428 0.00020414706444317953 0.0002046201211144848 0.00012292991942538178 0.00012401142017897713 0.00012509292093257248
          0.00007206149376444251 0.00007361240171218748 0.00007516330965993242 0.00019164572516769334 0.00019274692880325058 0.0001938481324388078
          0.0002045288476383104 0.00020589632081052258 0.00020726379398273474 0.00007026388655158684 0.00007134485980420511 0.0000724258330568234
          0.0010578703486511163 0.0012207328573579689 0.001056048828198893 0.001217352842248726 0.0010542273077466695 0.0012139728271394828
          0.0007785501177076013 0.0007789480124857223 0.0007793459072638435 0.00047875659048949475 0.00048041000159953877 0.0004820634127095828
          0.0002315528399449926 0.00023347622273481517 0.00023539960552463772 0.0000763286544041845 0.00007754972423773371 0.00007877079407128291
          0.00010082690139775071 0.00010294513740107526 0.00010506337340439979 0.00012134191565196525 0.00012288963543498677 0.00012443735521800828
          0.0007409094235373995 0.0006404437406078789 0.000739104067728224 0.0006398868266495345 0.0007372987119190486 0.0006393299126911901
          0.00017646762321373252 0.00016678976468930038 0.0001776873172329922 0.00016823788744430439 0.00017890701125225186 0.00016968601019930839
          0.0005950631543214411 0.0006813541100162617 0.0005936374823784256 0.0006796372872808246 0.0005922118104354099 0.0006779204645453873
          0.0004918284768748455 0.0004907103174051609 0.0004895921579354761 0.00015297696956734916 0.00015436787086111167 0.00015575877215487415
          0.0007516727228584904 0.0007291595367346284 0.0007494777140621525 0.0007277535425372534 0.0007472827052658149 0.0007263475483398785
          0.00020400318290731605 0.00020500831701495483 0.0002060134511225936 0.0002596809888579186 0.0004460120353802546 0.00026034983784936774
          0.0004468682008085333 0.0002610186868408169 0.00044772436623681197 0.0000780074821404833 0.00008002962170881465 0.00008205176127714601
          0.00038351726727908395 0.00038285331609405404 0.0003821893649090241 0.00003534764985706766 0.00008486882542003605 0.00003668426303305074
          0.00008640175998475493 0.00003802087620903382 0.0000879346945494738 0.0002796757131416326 0.0002796007890850158 0.0002795258650283988
          0.00018473668206891357 0.00018527022820583874 0.0001858037743427639 0.000023117836585768097 0.00002449161673587272 0.00002586539688597734
        </DataArray>
        <DataArray type="Float64" Name="pe11" format="ascii" RangeMin="0" RangeMax="0.0012201152811356208">
          0 0 0 0 0 0
          0 0 0 0 0 0
          0 0 0 0 0 0
          0 0 0 0 0 0
          0 0 0 0 0 0
          0 0 0 0 0 0
          0 0 0 0 0 0
          0 0 6.880990215693437e-8 0 1.3761980431386873e-7 0
          0 0 0 0 0 0
          0 0 0 0 0 0
          0 0 0 0 0 0
          2.1730557060384278e-7 2.9079286821301994e-7 3.642801658221971e-7 0.0000029857396855231368 0.0000036185887110386787 0.00000425143773655422
          0 0 0 0 0 0
          0 0 0 0 0 0
          0 0 0 0 7.090924736537212e-10 1.4181849473074424e-9
          0.0000035323904232729233 0.0000038019014928031934 0.000004071412562333463 0.000016236259984788206 0.000017427764387033925 0.00001861926878927965
          0 0 0 0 0 0
          0 0 0 0 0 0
          0 0 0 0.0000010741532134325808 0.0000011933385205680748 0.0000013125238277035687
          0.00001407184849101964 0.00001463382274529143 0.000015195796999563217 0.00004349906319754947 0.00004482384795361523 0.000046148632709680986
          0 0 0 0 0 0
          0 0 0 0 0 0
          0 0 0 0.000006532547522607358 0.00000681370801166431 0.000007094868500721264
          0.000035970163388925066 0.000036782083909418735 0.00003759400442991241 0.00008656097592864731 0.0000879599164078988 0.00008935885688715029
          0 0 0 0 0 0
          0 0 0 0 0 0
          8.401549063900209e-7 0.0000010336980023057155 0.0000012272410982214103 0.000019675515809827438 0.000020195786851816436 0.00002071605789380543
          0.00007275603384186424 0.00007364609674003702 0.00007453615963820982 0.00014760471549361443 0.00014892446494913376 0.00015024421440465306
          0 0 0 0 0 0
          0 0 0 0 0 0
          0 0 0 0.000006960716463213738 0.000007472265777549677 0.000007983815091885616
          0.00004598925436964078 0.000046784518012920046 0.00004757978165619932 0.00012569312299453723 0.00012651183638552187 0.0001273305497765065
          0.0002243615828755049 0.00022546740138194136 0.00022657321988837776 0 0 0
          0 0 0 0 0 0
          0 0 0 9.818220977189907e-7 0.0000012213019574218875 0.0000014607818171247843
          0.00002324060570052461 0.00002407448978743637 0.000024908373874348147 0.00009071042162189436 0.00009147590431760101 0.00009224138701330767
          0.00019536844226428869 0.00019600715553142248 0.00019664586879855628 0.00031238845248121626 0.0003132250244521945 0.0003140615964231727
          0 0 0 0 0 0
          0 0 0 0 0 0
          0.000008157852661035502 0.000008787074235835318 0.000009416295810635131 0.0000549857036400559 0.000056104913205942774 0.00005722412277182966
          0.00015385555144263176 0.0001543645176610958 0.00015487348387955985 0.00028082150030829403 0.0002811610618514933 0.00028150062339469265
          0.0004073431219868483 0.00040779268598792204 0.0004082422499889957 0 0 0
          0 0 0 0 0 0
          9.887129405759715e-7 0.0000012716218481103433 0.0000015545307556447149 0.000026729323253937013 0.0000277839602476499 0.000028838597241362788
          0.0001066786080550981 0.00010777112828110252 0.00010886364850710693 0.00023395453708434675 0.00023413182980195824 0.00023430912251956972
          0.0003783810297989635 0.00037830129954491225 0.00037822156929086096 0.0005084375976456435 0.0005082789933150948 0.0005081203889845461
          0 0 0 0 0 0
          0 0 0 0.000008834362259658594 0.000009576869337825157 0.00001031937641599172
          0.00006260554799588072 0.00006402464226830661 0.0000654437365407325 0.00017849106491322532 0.0001792654800790004 0.0001800398952447755
          0.0003301841135253321 0.00032996136752439474 0.0003297386215234574 0.00048569818988919303 0.00048510095370858956 0.00048450371752798604
          0.0006355645696971708 0.0006346278492143193 0.0006336911287314678 0 0 0
          0 0 0 6.212113683732348e-7 9.638956361837998e-7 0.000001306579903994365
          0.000029229432086213164 0.000030461066502290747 0.00003169270091836833 0.00012169166753474127 0.00012302193894702193 0.0001243522103593026
          0.00027048115339595825 0.000270789089791452 0.00027109702618694577 0.0004406360335903282 0.00043996456043103913 0.00043929308727175
          0.0005970018402455408 0.0005958542033251559 0.0005947065664047711 0.0007104970271059385 0.0007092704926110156 0.0007080439581160928
          0 0 0 0 0 0
          0.000008448698725650357 0.00000936835234170819 0.000010288005957766023 0.00006922275237361567 0.00007090188946715231 0.00007258102656068895
          0.00020487630123336393 0.00020574977773304122 0.0002066232542327185 0.0003815902235322228 0.0003813006563273103 0.0003810110891223979
          0.000558816250112409 0.0005576416587372092 0.0005564670673620096 0.0006996111950352071 0.0006980103194716817 0.0006964094439081565
          0.0007772382192071979 0.0007756728406630131 0.0007741074621188282 0 0 0
          3.755782639098259e-7 5.743741991574688e-7 7.731701344051118e-7 0.00003084068313185495 0.00003213142170570099 0.00003342216027954703
          0.00013695373777165916 0.00013853427050765195 0.0001401148032436448 0.00031174569288797285 0.00031198666247719207 0.00031222763206641135
          0.0005065917750546906 0.0005056187639582721 0.0005046457528618534 0.0006749522282254537 0.0006732564367537779 0.0006715606452821024
          0.0007825890663055324 0.0007807239091042262 0.0007788587519029202 0.000814306745232642 0.0008126541870567974 0.0008110016288809527
          0.000008021035536340069 0.0000088796387527617 0.00000973824196918333 0.00007591847164361377 0.0000776747476775693 0.00007943102371152483
          0.0002339305161742975 0.0002348972524196089 0.0002358639886649202 0.0004394453409908519 0.00043888907632992044 0.00043833281166898896
          0.0006365707997572631 0.0006349309733347852 0.0006332911469123071 0.0007786041017383131 0.0007765075287619525 0.0007744109557855918
          0.0008382629787836108 0.0008363746826573141 0.0008344863865310174 0.0008167643179623077 0.0008153137899527671 0.0008138632619432262
          0.0000325954744492858 0.000034032436804138983 0.000035469399158992164 0.0001545209385170352 0.00015634829392319373 0.00015817564932935223
          0.0003592712898251553 0.0003593580632749825 0.00035944483672480955 0.000580950076844055 0.0005794928333997776 0.0005780355899555004
          0.0007600307363564913 0.0007578344618452348 0.0007556381873339783 0.0008578639142858005 0.0008556842036483506 0.0008535044930109008
          0.0008617380197134189 0.0008600436726907754 0.0008583493256681319 0.0007876497981234886 0.0007863840144069013 0.0007851182306903141
          0.00008362961441178638 0.00008560241237374821 0.00008757521033571003 0.00026991103601339963 0.00027096505996765277 0.0002720190839219059
          0.0005095561614125181 0.000508538445597221 0.0005075207297819239 0.0007260930838814421 0.0007237839829959627 0.0007214748821104837
          0.0008643844032779665 0.000861849859251055 0.0008593153152241436 0.000901511201904247 0.0008996383302508196 0.0008977654585973921
          0.0008483353520078853 0.0008470276034885977 0.0008457198549693103 0.000740551622826288 0.0007391812458826609 0.0007378108689390339
          0.0001750675854682344 0.0001771787752645866 0.0001792899650609388 0.00042038590734838806 0.00042021481250364593 0.0004200437176589038
          0.0006755157858465514 0.0006733197768964538 0.0006711237679463564 0.000861422547868058 0.0008584742071362703 0.0008555258664044827
          0.000937538192397375 0.0009349959808232164 0.0009324537692490575 0.0009032609955428634 0.0009019575362058207 0.0009006540768687782
          0.000793582136207476 0.0007927733761649259 0.0007919646161223759 0.0006630307130424621 0.000661497682305029 0.0006599646515675961
          0.0006010129553223325 0.0005993368076658381 0.0005976606600093437 0.0008423559832762468 0.0008391638896918363 0.0008359717961074259
          0.0009699665668963511 0.0009667566727677684 0.0009635467786391857 0.000967120403446378 0.0009649520384154411 0.000962783673384504
          0.0008581902582086441 0.0008575576872648982 0.0008569251163211524 0.0006934544839283343 0.0006930955861904026 0.000692736688452471
          0.0005262967056477679 0.0005252614323843554 0.0005242261591209428 0.0007982428569605515 0.0007951063022272879 0.0007919697474940241
          0.0009901463127139157 0.000986345730653673 0.0009825451485934306 0.0010326343624997738 0.0010296462329168643 0.0010266581033339548
          0.0009400018278628163 0.0009385365388923568 0.0009370712499218975 0.0007591921318690712 0.0007592496491043895 0.0007593071663397078
          0.0005479045940527383 0.0005480307302172397 0.0005481568663817409 0.0003542035188784477 0.00035430744965944715 0.0003544113804404465
          0.0009891006934332853 0.0009849855901524688 0.0009808704868716526 0.0010932734988663194 0.0010894289958251534 0.0010855844927839873
          0.0010296493400294027 0.0010273871704003985 0.0010251250007713942 0.0008457804521834376 0.0008452703067343528 0.0008447601612852681
          0.0006068118136163303 0.0006075971942707432 0.0006083825749251563 0.0003740129573548455 0.00037480109888606505 0.00037558924041728456
          0.0011423747394429672 0.0011381136044370716 0.001133852469431176 0.001123387224664782 0.0011201969614774894 0.001117006698290197
          0.0009451422774777909 0.0009440607603190486 0.0009429792431603062 0.0006850693046046966 0.0006856656442605317 0.0006862619839163666
          0.0004193538957598596 0.0004208387573057507 0.00042232361885164186 0.0005886299927198066 0.0007406561039411306 0.0007764223500242766
          0.0006934884974303893 0.0005881728260865872 0.0007392864358783977 0.0007748642570619805 0.00069217630403226 0.0005877156594533679
          0.0007379167678156647 0.0007733061640996842 0.0006908641106341307 0.0005224952246296634 0.0006045137129986995 0.0005158812945929845
          0.0004243296310028575 0.0005208284958318791 0.0006023992612621691 0.0005149271170758894 0.00042386751788639184 0.0005191617670340947
          0.0006002848095256389 0.0005139729395587947 0.0004234054047699262 0.0002967725264926241 0.00020508674337392865 0.0003886399517836352
          0.00029874676133084864 0.00020683524183669346 0.0003888911499069297 0.00030072099616907316 0.00020858374029945827 0.0003891423480302243
          0.0002465332814284964 0.0002485089075022785 0.00025048453357606065 0.0007885184414869856 0.0007682491543608509 0.000772694541160425
          0.0007462562692745233 0.0007868450698192108 0.0007665661414502749 0.0007704700531862255 0.0007444901330512911 0.0007851716981514362
          0.0007648831285396988 0.0007682455652120257 0.0007427239968280588 0.00041386405022384115 0.0003233893819274234 0.0004128416814660452
          0.00032354985938370045 0.0004118193127082492 0.0003237103368399775 0.0005134061569820114 0.0003604955929800008 0.0003563442976305221
          0.0005136709464250432 0.0003615815665270385 0.00035753005925075247 0.000513935735868075 0.000362667540074076 0.00035871582087098274
          0.00022600032473162935 0.0003033318671769804 0.00022678851108083055 0.00030306609231088127 0.00022757669743003175 0.00030280031744478204
          0.0005432643533049113 0.0003692027648217337 0.0005430606027708274 0.0003702885433681978 0.0005428568522367436 0.000371374321914662
          0.0007035507553124517 0.0007012104748853457 0.00069887019445824 0.0005721303048534127 0.00039514215801101727 0.0005719880186998132
          0.00039613471341611007 0.0005718457325462138 0.00039712726882120287 0.000672269723836679 0.0005678241626658349 0.0006712787569804546
          0.0005675095165449615 0.00067028779012423 0.0005671948704240883 0.00073832620946493 0.0007519371597826053 0.0007366802326887529
          0.0007497278548627366 0.0007350342559125758 0.0007475185499428681 0.0006017943975339737 0.0006862324191707454 0.000600317436379765
          0.0006843265523055658 0.0005988404752255561 0.0006824206854403863 0.00014283954184209896 0.00014413033889238759 0.00014542113594267619
          0.000040123957049909505 0.00008033121317464379 0.00004192826541424301 0.00008190161469444105 0.000043732573778576525 0.0000834720162142383
          0.0006477833561133409 0.0006453474375930057 0.0006429115190726703 0.000017328852028546818 0.00001908950292899629 0.000020850153829445765
          0.0005480303886993503 0.0005468831363910023 0.0005457358840826545 0.0000062103197344901715 0.00000723871232610237 0.000008267104917714567
          0.0002035692148064975 0.00020404017385246108 0.00020451113289842463 0.0001228696441207837 0.00012394847475510014 0.00012502730538941655
          0.0000720300003996771 0.00007357857675614872 0.00007512715311262035 0.00019129973918114552 0.00019239151470954995 0.00019348329023795437
          0.00020407509841073053 0.0002054332116903631 0.0002067913249699957 0.00007015821012891777 0.00007123369420477217 0.00007230917828062658
          0.0010563109964643182 0.0012201152811356208 0.0010545021744614242 0.0012167234646276964 0.0010526933524585304 0.001213331648119772
          0.0007764536131217243 0.0007768554986965842 0.0007772573842714443 0.0004772243739535741 0.0004788661172139267 0.0004805078604742793
          0.00023091013952486426 0.000232819836771659 0.00023472953401845384 0.00007618367723953787 0.00007739832444638533 0.00007861297165323279
          0.00010067890054895733 0.00010278975861642415 0.00010490061668389098 0.00012116408888278185 0.000122704001885046 0.00012424391488731013
          0.0007406890156726291 0.0006400635251979906 0.0007388967945099465 0.0006395138304410731 0.0007371045733472639 0.0006389641356841556
          0.00017614949280166065 0.00016650591634406205 0.00017736235984102663 0.0001679455931621797 0.0001785752268803926 0.00016938526998029735
          0.0005948827962908123 0.0006811992984367686 0.0005934659083885311 0.000679495853268147 0.0005920490204862497 0.0006777924080995255
          0.0004916201684291758 0.0004905069339744492 0.0004893936995197227 0.00015274165769671205 0.0001541226716658385 0.000155503685634965
          0.0007515451560918739 0.0007289707614763362 0.000749365155944803 0.0007275794296104796 0.000747185155797732 0.000726188097744623
          0.00020365475741729978 0.00020465443146272814 0.0002056541055081565 0.0002592447927899478 0.0004454668526396942 0.0002599098325378121
          0.00044632486117396504 0.00026057487228567643 0.000447182869708236 0.00007790080697626519 0.0000799150321302005 0.00008192925728413584
          0.00038331469880132187 0.0003826521848156483 0.0003819896708299747 0.00003533046707429894 0.00008482261309649323 0.00003666548512826231
          0.00008635294929260759 0.000038000503182225686 0.00008788328548872194 0.0002795121219326029 0.0002794355802478507 0.0002793590385630986
          0.0001846255353005377 0.0001851560874004363 0.0001856866395003349 0.00002309363051998015 0.000024464647849164226 0.000025835665178348298
        </DataArray>
        <DataArray type="Float64" Name="pe22" format="ascii" RangeMin="-0.0006205449768276832" RangeMax="0">
          0 0 0 0 0 0
          0 0 0 0 0 0
          0 0 0 0 0 0
          0 0 0 0 0 0
          0 0 0 0 0 0
          0 0 0 0 0 0
          0 0 0 0 0 0
          0 0 -3.31261391380948e-8 0 -6.62522782761896e-8 0
          0 0 0 0 0 0
          0 0 0 0 0 0
          0 0 0 0 0 0
          -1.04324258238126e-7 -1.3944323600327582e-7 -1.7456221376842565e-7 -0.0000014380671480332182 -0.0000017391140873107037 -0.0000020401610265881892
          0 0 0 0 0 0
          0 0 0 0 0 0
          0 0 0 0 -3.3857222173975187e-10 -6.771444434795037e-10
          -0.0000016961729613946308 -0.0000018234136653950086 -0.0000019506543693953867 -0.000007806381226100173 -0.000008364061161796344 -0.000008921741097492513
          0 0 0 0 0 0
          0 0 0 0 0 0
          0 0 0 -5.134048619414798e-7 -5.697934524471989e-7 -6.261820429529181e-7
          -0.000006751268155623407 -0.000007011715793146361 -0.0000072721634306693146 -0.00002088198261929689 -0.000021482482636429942 -0.000022082982653562988
          0 0 0 0 0 0
          0 0 0 0 0 0
          0 0 0 -0.000003121328751912943 -0.0000032517252037042907 -0.000003382121655495638
          -0.00001724088281743728 -0.000017605513018306325 -0.000017970143219175366 -0.00004151330707472903 -0.00004212019928878606 -0.000042727091502843096
          0 0 0 0 0 0
          0 0 0 0 0 0
          -4.009593426959075e-7 -4.927272961094365e-7 -5.844952495229654e-7 -0.000009389523731075353 -0.00000962446614731675 -0.000009859408563558146
          -0.00003483949554118465 -0.00003521756579303386 -0.00003559563604488308 -0.00007075285073151966 -0.00007129639514507507 -0.00007183993955863048
          0 0 0 0 0 0
          0 0 0 0 0 0
          0 0 0 -0.0000033206403599605946 -0.000003560010403610267 -0.0000037993804472599395
          -0.00002191782652551762 -0.000022265093450874153 -0.000022612360376230694 -0.000060132998560342316 -0.00006045030454072314 -0.00006076761052110395
          -0.0001075397430276152 -0.00010797778143276206 -0.00010841581983790892 0 0 0
          0 0 0 0 0 0
          0 0 0 -4.68365984575772e-7 -5.816403307359679e-7 -6.949146768961637e-7
          -0.000011072840012255248 -0.000011454642435890096 -0.000011836444859524943 -0.00004317576449332501 -0.000043485854781563695 -0.00004379594506980238
          -0.00009340526889779862 -0.00009361938094330555 -0.00009383349298881246 -0.00014981824603288774 -0.00015015147987032529 -0.0001504847137077628
          0 0 0 0 0 0
          0 0 0 0 0 0
          -0.000003891305736543267 -0.000004183990162222283 -0.000004476674587901301 -0.000026166255819272067 -0.000026662705268101342 -0.00002715915471693062
          -0.00007317004177229391 -0.00007333998272740847 -0.00007350992368252302 -0.00013427638878577632 -0.00013435728244034508 -0.00013443817609491379
          -0.00019558969834477694 -0.00019579572907228282 -0.0001960017597997887 0 0 0
          0 0 0 0 0 0
          -4.7093119028786274e-7 -6.044346243213007e-7 -7.379380583547387e-7 -0.000012728683475638537 -0.00001320656023193217 -0.000013684436988225803
          -0.00005069842349476762 -0.000051154391954424516 -0.00005161036041408141 -0.00011127067674087773 -0.00011128032979345108 -0.00011128998284602444
          -0.00018113585383594836 -0.00018106847835457304 -0.00018100110287319778 -0.00024472186935761513 -0.0002447427918151058 -0.0002447637142725965
          0 0 0 0 0 0
          0 0 0 -0.000004205775925647272 -0.000004549732041298066 -0.00000489368815694886
          -0.00002975592117125826 -0.000030375107460298624 -0.00003099429374933899 -0.00008475576525509432 -0.00008503629656133032 -0.0000853168278675663
          -0.00015724734654079842 -0.00015710302533206586 -0.00015695870412333324 -0.00023337326994209362 -0.00023316735372726663 -0.0002329614375124397
          -0.0003085793662999595 -0.0003084240227222207 -0.0003082686791444819 0 0 0
          0 0 0 -2.9464841239615526e-7 -4.560866016356731e-7 -6.175247908751909e-7
          -0.000013883778769592164 -0.000014438152257297263 -0.000014992525745002361 -0.00005773152568461749 -0.00005827248188853763 -0.00005881343809245778
          -0.00012847742893825029 -0.00012854263132131355 -0.0001286078337043768 -0.000210559285865694 -0.00021029891875419153 -0.00021003855164268914
          -0.00028839108432863434 -0.0002881004746347456 -0.0002878098649408568 -0.00034683727034975226 -0.00034668892597471075 -0.00034654058159966914
          0 0 0 0 0 0
          -0.000004002664977524029 -0.0000044274842942292795 -0.00000485230361093453 -0.000032791246299842695 -0.000033516761614308576 -0.00003424227692877444
          -0.0000970924280809006 -0.0000973950979064399 -0.00009769776773197917 -0.00018163749729131157 -0.00018148746920379667 -0.00018133744111628177
          -0.00026845717645262383 -0.0002681173285735058 -0.0002677774806943877 -0.00034011012457570915 -0.0003398093205187342 -0.00033950851646175924
          -0.00038201917579898154 -0.0003818695604953972 -0.0003817199451918128 0 0 0
          -1.7675784719664648e-7 -2.694153664360965e-7 -3.6207288567554657e-7 -0.000014567041268421299 -0.000015138936479093589 -0.000015710831689765875
          -0.00006471567935757214 -0.00006534788595661476 -0.00006598009255565737 -0.00014781600928733083 -0.00014784472735128757 -0.0001478734454152443
          -0.00024219289103164003 -0.00024186376702256307 -0.00024153464301348603 -0.00032654672029640405 -0.00032616168885866124 -0.0003257766574209185
          -0.0003835444376589595 -0.0003832750668630321 -0.00038300569606710484 -0.0004036265844009727 -0.00040349159382035434 -0.000403356603239736
          -0.000003764010142303041 -0.000004154897185182725 -0.000004545784228062409 -0.00003571844844913961 -0.00003645648962330372 -0.00003719453079746781
          -0.00011038256934933085 -0.00011070221156538636 -0.00011102185378144183 -0.0002089324161683001 -0.00020869482657290636 -0.00020845723697751262
          -0.00030640508812976666 -0.00030597909603138993 -0.0003055531039330132 -0.00038015155841508936 -0.00037978717390653807 -0.0003794227893979869
          -0.00041479840216255507 -0.0004145919759429488 -0.00041438554972334245 -0.00040870073214664687 -0.00040862631638617685 -0.00040855190062570693
          -0.000015236769468820457 -0.000015861718807636625 -0.000016486668146452795 -0.0000724534683916365 -0.00007316257961434619 -0.00007387169083705587
          -0.00016962682205360854 -0.00016957963648679304 -0.00016953245091997756 -0.00027771742179088284 -0.0002772631000175355 -0.0002768087782441882
          -0.00036921841902357895 -0.0003687794676824542 -0.0003683405163413295 -0.0004235821998992006 -0.000423335487783082 -0.00042308877566696345
          -0.00043112188569203894 -0.00043102444156381395 -0.00043092699743558897 -0.0003980493265904874 -0.00039800762159504125 -0.0003979659165995951
          -0.00003888966283089383 -0.00003969444944979121 -0.000040499236068688584 -0.00012636325823492945 -0.00012668785493342592 -0.00012701245163192237
          -0.00024148457513949276 -0.00024109298449294787 -0.00024070139384640293 -0.0003500871105033818 -0.00034952912057232026 -0.0003489711306412588
          -0.000424786983812451 -0.0004244081061583756 -0.00042402922850430004 -0.0004509011333145987 -0.0004508441353019587 -0.0004507871372893187
          -0.0004295417526053884 -0.000429617286859915 -0.00042969282111444154 -0.0003783630537752593 -0.00037825072579712987 -0.0003781383978190005
          -0.00008105421543982763 -0.0000818390864354156 -0.00008262395743100355 -0.00019712781467644443 -0.00019697193167397885 -0.0001968160486715132
          -0.00032261668931991963 -0.0003219929674213083 -0.000321369245522697 -0.0004202707568665805 -0.0004197538377748756 -0.0004192369186831708
          -0.00046705072767284483 -0.0004668248559176371 -0.0004665989841624292 -0.0004580206194666297 -0.0004581969393669552 -0.0004583732592672808
          -0.0004065460872730032 -0.00040678837066769445 -0.0004070306540623855 -0.00034152572403585955 -0.00034126254371969936 -0.0003409993634035393
          -0.00028357524661699207 -0.00028300085439259177 -0.00028242646216819153 -0.00040713417460874486 -0.0004064818552663548 -0.00040582953592396473
          -0.0004802284397238405 -0.0004798996860832308 -0.00047957093244262107 -0.0004890581250578961 -0.0004890810213377425 -0.000489103917617589
          -0.00044101591260395595 -0.0004414275962145644 -0.00044183927982517293 -0.00035859407268755666 -0.000358878386900129 -0.00035916270111270137
          -0.00027166675163904717 -0.00027140544920170687 -0.0002711441467643666 -0.0003810095902870554 -0.00038024499675489364 -0.00037948040322273186
          -0.00048617995977010627 -0.00048572192617746626 -0.00048526389258482614 -0.0005198364430401056 -0.0005198124505816608 -0.000519788458123216
          -0.0004825644664306917 -0.0004828590273146849 -0.0004831535881986782 -0.00039459643171366236 -0.0003951467009694608 -0.0003956969702252591
          -0.00028505242373902905 -0.00028530630009306057 -0.000285560176447092 -0.00018293994879528267 -0.00018295961974366853 -0.0001829792906920544
          -0.0004801214743187837 -0.00047950790670362993 -0.0004788943390884761 -0.0005468859010628996 -0.000546793415014087 -0.0005467009289652743
          -0.0005273488005216713 -0.0005276637579535954 -0.0005279787153855196 -0.0004401378000073453 -0.0004406413569508708 -0.0004411449138943962
          -0.00031794140022417647 -0.0003185396220575977 -0.00031913784389101896 -0.0001951200704201349 -0.00019545246679272967 -0.00019578486316532438
          -0.0005663973104963415 -0.000566258304773345 -0.0005661192990503484 -0.0005732931285987717 -0.000573626094856126 -0.0005739590611134803
          -0.0004920238579051783 -0.0004926108898504381 -0.000493197921795698 -0.0003603182375247645 -0.0003609554813785694 -0.00036159272523237414
          -0.00022060618884824537 -0.00022126555166609174 -0.00022192491448393806 -0.0003021799939623024 -0.00037442681720685326 -0.0003882347728934145
          -0.00035012999696721036 -0.0003022107827106666 -0.000374283666262962 -0.000388052558525731 -0.00034989992526415336 -0.00030224157145903094
          -0.00037414051531907064 -0.00038787034415804745 -0.00034966985356109636 -0.0002497630549586949 -0.0002894018133424192 -0.00024700375611446084
          -0.000202883209535082 -0.0002492086546673862 -0.0002888098278938639 -0.0002467425593400597 -0.00020272810395920632 -0.00024865425437607756
          -0.00028821784244530856 -0.0002464813625656586 -0.00020257299838333058 -0.00015423858898181778 -0.00010575359355184166 -0.00020123202179527584
          -0.0001551156032953566 -0.00010651733800453106 -0.00020140531046929487 -0.00015599261760889543 -0.00010728108245722043 -0.00020157859914331385
          -0.00012797296812738743 -0.00012879487694252004 -0.00012961678575765267 -0.0003903310918414192 -0.0003774140075644032 -0.0003813575993166624
          -0.00037177647897893376 -0.00039015942119670333 -0.00037721346626435026 -0.00038094814371783926 -0.00037147174655915673 -0.0003899877505519875
          -0.0003770129249642973 -0.0003805386881190161 -0.0003711670141393796 -0.00019701283632316262 -0.00015441048463660814 -0.00019661668074268682
          -0.00015445266802088586 -0.00019622052516221096 -0.00015449485140516358 -0.00026559474706281354 -0.00018711891634293136 -0.00018487070470615406
          -0.0002658008649638516 -0.00018758903847676908 -0.0001854356129306732 -0.00026600698286488963 -0.00018805916061060676 -0.00018600052115519232
          -0.00010786564475522687 -0.00014405013209352671 -0.00010815604636305969 -0.00014390945194759882 -0.00010844644797089248 -0.00014376877180167092
          -0.00028062139109063914 -0.00019149292637772358 -0.0002807331047199468 -0.00019201318383652252 -0.0002808448183492546 -0.00019253344129532146
          -0.0003406101778429092 -0.0003400602993254852 -0.00033951042080806126 -0.0002929067476713221 -0.00020427928297200659 -0.00029301394168384495
          -0.00020472473785666478 -0.00029312113569636774 -0.00020517019274132292 -0.00034348046199295275 -0.00029325877437488286 -0.00034343244964528223
          -0.0002933686685368645 -0.0003433844372976117 -0.0002934785626988461 -0.00036133990877693914 -0.00036827970507894814 -0.00036108310001650793
          -0.00036784293973348716 -0.0003608262912560767 -0.00036740617438802624 -0.00028931402209557465 -0.00033297358208395273 -0.00028891308983825133
          -0.0003325046522513236 -0.00028851215758092784 -0.00033203572241869453 -0.00006823913823855779 -0.00006876660436543183 -0.00006929407049230586
          -0.00001924634284574145 -0.000038450135434081796 -0.00002007209777944005 -0.00003913613295981677 -0.000020897852713138652 -0.000039822130485551745
          -0.0003106396036847922 -0.0003099588541286881 -0.0003092781045725841 -0.000008316640474336777 -0.000009141903041312647 -0.000009967165608288518
          -0.000284078752379483 -0.00028378445294605233 -0.0002834901535126217 -0.000002977002901032383 -0.0000034628491470387507 -0.000003948695393045119
          -0.00009664786648484668 -0.00009679950730090431 -0.0000969511481169619 -0.00005840691461810078 -0.000058842385295658534 -0.00005927785597321629
          -0.00003433871026903551 -0.000035017277638919816 -0.00003569584500880413 -0.00009882675212777191 -0.00009923239204127774 -0.00009963803195478356
          -0.00010640431843702681 -0.00010693239785649624 -0.00010746047727596565 -0.00003612371623334847 -0.00003658067591704325 -0.000037037635600738035
          -0.0005497915633815426 -0.0006195118792963869 -0.000550496573053369 -0.000620028428062035 -0.0005512015827251955 -0.0006205449768276832
          -0.000409761069196411 -0.0004105299864508831 -0.0004112989037053552 -0.00025259513276030697 -0.00025335664290003013 -0.0002541181530397533
          -0.00012145167489891296 -0.00012221967239292141 -0.00012298766988692986 -0.000039598725030699685 -0.00004011643633977925 -0.00004063414764885881
          -0.000052147437115496394 -0.00005311515421381405 -0.00005408287131213169 -0.00006280531086035653 -0.0000634637334417629 -0.0000641221560231693
          -0.0003678489225157498 -0.0003230212612280135 -0.0003675129292170608 -0.00032304983156762905 -0.00036717693591837176 -0.00032307840190724454
          -0.0000907847968874626 -0.00008554437878356355 -0.00009129262079519892 -0.00008617064437497478 -0.00009180044470293522 -0.000086796909966386
          -0.00028592553967568513 -0.00033050321481077296 -0.00028556739348087855 -0.0003301918357491533 -0.000285209247286072 -0.00032988045668753366
          -0.0002343791768386945 -0.0002340250747024034 -0.0002336709725661124 -0.00007871533546632831 -0.00007930108763196759 -0.00007988683979760688
          -0.0003689714337434452 -0.0003603653410330698 -0.00036855135274713207 -0.0003602213096102026 -0.00036813127175081895 -0.0003600772781873353
          -0.00010491499008133309 -0.00010531593255101352 -0.00010571687502069397 -0.00013268678802140656 -0.0002284420830834719 -0.00013295932821253393
          -0.00022889509000900249 -0.00013323186840366133 -0.00022934809693453306 -0.000040145391383695875 -0.0000410683639157209 -0.00004199133644774592
          -0.00018177890589687822 -0.00018151581755656936 -0.00018125272921626047 -0.000016800211668801087 -0.00004024848816550434 -0.00001740335725350352
          -0.000040915631857978825 -0.000018006502838205956 -0.0000415827755504533 -0.00013221008295180152 -0.00013212964801309136 -0.00013204921307438113
          -0.00008731982288078318 -0.00008748995543687431 -0.00008766008799296545 -0.000011911026976169069 -0.000012576867000711338 -0.000013242707025253607
        </DataArray>
        <DataArray type="Float64" Name="pe33" format="ascii" RangeMin="-0.0006006034018392337" RangeMax="0">
          0 0 0 0 0 0
          0 0 0 0 0 0
          0 0 0 0 0 0
          0 0 0 0 0 0
          0 0 0 0 0 0
          0 0 0 0 0 0
          0 0 0 0 0 0
          0 0 -3.568376301883957e-8 0 -7.136752603767914e-8 0
          0 0 0 0 0 0
          0 0 0 0 0 0
          0 0 0 0 0 0
          -1.1298131236571675e-7 -1.513496322097441e-7 -1.8971795205377147e-7 -0.0000015476725374899186 -0.000001879474623727974 -0.0000022112767099660297
          0 0 0 0 0 0
          0 0 0 0 0 0
          0 0 0 0 -3.705202519139695e-10 -7.41040503827939e-10
          -0.000001836217461878292 -0.000001978487827408184 -0.000002120758192938076 -0.000008429878758688034 -0.000009063703225237585 -0.000009697527691787136
          0 0 0 0 0 0
          0 0 0 0 0 0
          0 0 0 -5.607483514911009e-7 -6.235450681208755e-7 -6.863417847506502e-7
          -0.000007320580335396232 -0.000007622106952145066 -0.0000079236335688939 -0.000022617080578252584 -0.000023341365317185284 -0.000024065650056117985
          0 0 0 0 0 0
          0 0 0 0 0 0
          0 0 0 -0.000003411218770694416 -0.0000035619828079600203 -0.0000037127468452256246
          -0.000018729280571487785 -0.000019176570891112406 -0.000019623861210737034 -0.00004504766885391827 -0.00004583971711911273 -0.000046631765384307184
          0 0 0 0 0 0
          0 0 0 0 0 0
          -4.3919556369411334e-7 -5.40970706196279e-7 -6.427458486984446e-7 -0.000010285992078752086 -0.000010571320704499687 -0.000010856649330247285
          -0.00003791653830067959 -0.000038428530947003166 -0.00003894052359332674 -0.00007685186476209478 -0.00007762806980405867 -0.00007840427484602256
          0 0 0 0 0 0
          0 0 0 0 0 0
          0 0 0 -0.000003640076103253142 -0.000003912255373939409 -0.000004184434644625677
          -0.000024071427844123164 -0.000024519424562045897 -0.000024967421279968636 -0.00006556012443419494 -0.00006606153184479875 -0.00006656293925540256
          -0.0001168218398478897 -0.00011748961994917926 -0.0001181574000504688 0 0 0
          0 0 0 0 0 0
          0 0 0 -5.134561131432185e-7 -6.396616266859193e-7 -7.6586714022862e-7
          -0.000012167765688269359 -0.000012619847351546279 -0.000013071929014823197 -0.00004753465712856933 -0.00004799004953603731 -0.000048445441943505285
          -0.00010196317336649007 -0.00010238777458811692 -0.00010281237580974378 -0.0001625702064483285 -0.0001630735445818692 -0.0001635768827154099
          0 0 0 0 0 0
          0 0 0 0 0 0
          -0.000004266546924492232 -0.000004603084073613031 -0.00000493962122273383 -0.00002881944782078383 -0.00002944220793784144 -0.00003006496805489904
          -0.00008068550967033783 -0.00008102453493368731 -0.00008136356019703679 -0.00014654511152251772 -0.00014680377941114826 -0.0001470624472997788
          -0.00021175342364207134 -0.00021199695691563914 -0.00021224049018920695 0 0 0
          0 0 0 0 0 0
          -5.177817502881089e-7 -6.671872237890424e-7 -8.165926972899759e-7 -0.000014000639778298473 -0.000014577400015717728 -0.000015154160253136982
          -0.00005598018456033048 -0.000056616736326678 -0.00005725328809302551 -0.00012268386034346902 -0.00012285150000850714 -0.00012301913967354528
          -0.00019724517596301513 -0.00019723282119033913 -0.00019722046641766318 -0.0002637157282880284 -0.000263536201499989 -0.0002633566747119495
          0 0 0 0 0 0
          0 0 0 -0.000004628586334011321 -0.00000502713729652709 -0.0000054256882590428585
          -0.000032849626824622464 -0.00003364953480800798 -0.000034449442791393505 -0.00009373529965813099 -0.00009422918351767006 -0.00009472306737720915
          -0.00017293676698453372 -0.0001728583421923289 -0.00017277991740012415 -0.00025232491994709946 -0.0002519335999813229 -0.00025154228001554634
          -0.0003269852033972112 -0.00032620382649209856 -0.00032542244958698593 0 0 0
          0 0 0 -3.265629559770796e-7 -5.078090345481268e-7 -6.890551131191738e-7
          -0.000015345653316621 -0.000016022914244993482 -0.000016700175173365965 -0.00006396014185012376 -0.00006474945705848428 -0.0000655387722668448
          -0.0001420037244577079 -0.0001422464584701384 -0.0001424891924825689 -0.00023007674772463415 -0.00022966564167684747 -0.00022925453562906077
          -0.0003086107559169064 -0.00030775372869041033 -0.0003068967014639143 -0.00036365975675618626 -0.0003625815666363049 -0.0003615033765164236
          0 0 0 0 0 0
          -0.0000044460337481263285 -0.00000494086804747891 -0.000005435702346831491 -0.00003643150607377297 -0.000037385127852843745 -0.0000383387496319145
          -0.0001077838731524633 -0.00010835467982660132 -0.00010892548650073933 -0.0001999527262409112 -0.00019981318712351364 -0.00019967364800611606
          -0.0002903590736597851 -0.00028952433016370333 -0.0002886895866676216 -0.00035950107045949775 -0.0003582009989529474 -0.00035690092744639713
          -0.00039521904340821635 -0.00039380328016761586 -0.0003923875169270154 0 0 0
          -1.9882041671317943e-7 -3.049588327213723e-7 -4.1109724872956524e-7 -0.00001627364186343364 -0.0000169924852266074 -0.00001771132858978116
          -0.00007223805841408698 -0.00007318638455103721 -0.00007413471068798743 -0.00016392968360064202 -0.00016414193512590455 -0.0001643541866511671
          -0.0002643988840230505 -0.00026375499693570895 -0.0002631111098483674 -0.0003484055079290495 -0.00034709474789511655 -0.00034578398786118354
          -0.0003990446286465728 -0.00039744884224119406 -0.0003958530558358153 -0.00041068016083166934 -0.00040916259323644307 -0.0004076450256412168
          -0.0000042570253940370285 -0.000004724741567578974 -0.00000519245774112092 -0.00004020002319447414 -0.000041218258054265576 -0.000042236492914057004
          -0.00012354794682496663 -0.0001241950408542225 -0.0001248421348834784 -0.0002305129248225518 -0.0002301942497570141 -0.00022987557469147636
          -0.0003301657116274963 -0.0003289518773033951 -0.0003277380429792939 -0.0003984525433232234 -0.00039672035485541413 -0.00039498816638760485
          -0.0004234645766210556 -0.0004217827067143652 -0.00042010083680767477 -0.0004080635858156608 -0.00040668747356658995 -0.0004053113613175192
          -0.00001735870498046535 -0.000018170717996502358 -0.000018982731012539366 -0.00008206747012539868 -0.0000831857143088475 -0.00008430395849229634
          -0.00018964446777154675 -0.0001897784267881894 -0.000189912385804832 -0.00030323265505317204 -0.00030222973338224214 -0.00030122681171131224
          -0.0003908123173329123 -0.00038905499416278053 -0.0003872976709926488 -0.0004342817143865999 -0.00043234871586526864 -0.00043041571734393736
          -0.0004306161340213799 -0.00042901923112696137 -0.00042742232823254287 -0.00038960047153300105 -0.0003883763928118599 -0.00038715231409071886
          -0.00004473995158089255 -0.000045907962923957 -0.00004707597426702145 -0.0001435477777784701 -0.0001442772050342268 -0.00014500663228998351
          -0.0002680715862730252 -0.0002674454611042731 -0.000266819335935521 -0.0003760059733780601 -0.0003742548624236425 -0.0003725037514692249
          -0.0004395974194655154 -0.00043744175309267937 -0.00043528608671984344 -0.00045061006858964834 -0.0004487941949488608 -0.00044697832130807325
          -0.0004187935994024968 -0.0004174103166286827 -0.0004160270338548686 -0.00036218856905102857 -0.0003609305200855309 -0.0003596724711200333
          -0.00009401337002840678 -0.00009533968882917103 -0.00009666600762993526 -0.00022325809267194355 -0.0002232428808296671 -0.00022322766898739063
          -0.0003528990965266315 -0.00035132680947514545 -0.00034975452242365937 -0.0004411517910014774 -0.0004387203693613947 -0.00043628894772131186
          -0.0004704874647245301 -0.0004681711249055791 -0.0004658547850866282 -0.0004452403760762338 -0.00044376059683886557 -0.0004422808176014972
          -0.0003870360489344726 -0.00038598500549723145 -0.00038493396205999033 -0.0003215049890066023 -0.00032023513858532945 -0.00031896528816405663
          -0.0003174377087053403 -0.0003163359532732462 -0.00031523419784115205 -0.0004352218086675018 -0.0004326820344254815 -0.00043014226018346115
          -0.0004897381271725103 -0.00048685698668453754 -0.00048397584619656463 -0.0004780622783884818 -0.0004758710170776984 -0.00047367975576691505
          -0.0004171743456046882 -0.00041613009105033374 -0.0004150858364959793 -0.00033486041124077757 -0.00033421719929027356 -0.0003335739873397696
          -0.0002546299540087206 -0.0002538559831826484 -0.0002530820123565762 -0.000417233266673496 -0.0004148613054723941 -0.0004124893442712922
          -0.0005039663529438094 -0.0005006238044762068 -0.0004972812560086043 -0.0005127979194596681 -0.0005098337823352035 -0.000506869645210739
          -0.0004574373614321245 -0.00045567751157767175 -0.00045391766172321916 -0.0003645957001554088 -0.0003641029481349287 -0.0003636101961144486
          -0.0002628521703137092 -0.0002627244301241791 -0.00026259668993464894 -0.00017126357008316503 -0.00017134782991577854 -0.0001714320897483921
          -0.0005089792191145014 -0.0005054776834488389 -0.0005019761477831764 -0.0005463875978034197 -0.0005426355808110663 -0.0005388835638187128
          -0.0005023005395077313 -0.0004997234124468029 -0.0004971462853858745 -0.0004056426521760923 -0.000404628949783482 -0.00040361524739087164
          -0.0002888704133921539 -0.0002890575722131455 -0.0002892447310341372 -0.00017889288693471046 -0.0001793486320933353 -0.00017980437725196013
          -0.0005759774289466257 -0.0005718552996637265 -0.0005677331703808275 -0.0005500940960660101 -0.0005465708666213633 -0.0005430476371767166
          -0.0004531184195726125 -0.0004514498704686103 -0.00044978132136460816 -0.00032475106707993207 -0.00032471016288196223 -0.0003246692586839924
          -0.00019874770691161425 -0.00019957320563965896 -0.00020039870436770366 -0.00028644999875750404 -0.0003662292867342773 -0.0003881875771308621
          -0.000343358500463179 -0.0002859620433759205 -0.00036500276961543574 -0.0003868116985362495 -0.0003422763787681067 -0.00028547408799433694
          -0.00036377625249659417 -0.00038543581994163683 -0.0003411942570730343 -0.0002727321696709684 -0.00031511189965628 -0.0002688775384785235
          -0.0002214464214677754 -0.0002716198411644928 -0.0003135894333683051 -0.0002681845577358297 -0.0002211394139271855 -0.0002705075126580171
          -0.00031206696708033015 -0.00026749157699313596 -0.00022083240638659553 -0.00014253393751080632 -0.00009933314982208698 -0.00018740792998835933
          -0.00014363115803549202 -0.0001003179038321624 -0.0001874858394376349 -0.00014472837856017773 -0.00010130265784223782 -0.0001875637488869104
          -0.00011856031330110898 -0.00011971403055975849 -0.00012086774781840802 -0.00039818734964556656 -0.0003908351467964477 -0.00039133694184376264
          -0.0003744797902955896 -0.0003966856486225076 -0.0003893526751859246 -0.0003895219094683861 -0.0003730183864921344 -0.0003951839475994486
          -0.0003878702035754015 -0.0003877068770930096 -0.00037155698268867923 -0.00021685121390067856 -0.0001689788972908152 -0.00021622500072335837
          -0.00016909719136281453 -0.0002155987875460382 -0.00016921548543481389 -0.00024781140991919783 -0.0001733766766370694 -0.000171473592924368
          -0.00024787008146119155 -0.00017399252805026935 -0.0001720944463200792 -0.0002479287530031853 -0.0001746083794634693 -0.00017271529971579042
          -0.0001181346799764025 -0.00015928173508345368 -0.00011863246471777088 -0.0001591566403632824 -0.00011913024945913925 -0.0001590315456431111
          -0.00026264296221427207 -0.0001777098384440101 -0.0002623274980508805 -0.0001782753595316753 -0.00026201203388748895 -0.00017884088061934054
          -0.00036294057746954247 -0.00036115017555986046 -0.0003593597736501785 -0.0002792235571820906 -0.00019086287503901063 -0.00027897407701596823
          -0.0001914099755594453 -0.000278724596849846 -0.00019195707607987995 -0.0003287892618437262 -0.00027456538829095196 -0.0003278463073351722
          -0.00027414084800809704 -0.00032690335282661826 -0.00027371630772524217 -0.0003769863006879907 -0.000383657454703657 -0.00037559713267224496
          -0.00038188491512924943 -0.00037420796465649915 -0.00038011237555484183 -0.00031248037543839903 -0.0003532588370867925 -0.00031140434654151357
          -0.00035182190005424207 -0.00031032831764462806 -0.0003503849630216917 -0.00007460040360354116 -0.00007536373452695576 -0.00007612706545037033
          -0.000020877614204168052 -0.000041881077740561995 -0.000021856167634802956 -0.00004276548173462427 -0.000022834721065437863 -0.00004364988572868655
          -0.0003371437524285486 -0.0003353885834643173 -0.000333633414500086 -0.00000901221155421004 -0.000009947599887683644 -0.000010882988221157244
          -0.0002639516363198673 -0.00026309868344495 -0.0002622457305700327 -0.00000323331683345779 -0.00000377586317906362 -0.000004318409524669449
          -0.0001069213483216508 -0.00010724066655155676 -0.0001075599847814627 -0.0000644627295026829 -0.00006510608945944157 -0.00006574944941620024
          -0.00003769129013064159 -0.000038561299117228896 -0.00003943130810381621 -0.00009247298705337357 -0.00009315912266827218 -0.00009384525828317079
          -0.00009767077997370371 -0.00009850081383386687 -0.00009933084769403004 -0.00003403449389556929 -0.00003465301828772892 -0.00003527154267988854
          -0.0005065194330827754 -0.0006006034018392337 -0.0005040056014080552 -0.0005966950365656615 -0.000501491769733335 -0.0005927866712920891
          -0.0003666925439253132 -0.00036632551224570107 -0.000365958480566089 -0.00022462924119326713 -0.00022550947431389658 -0.00022638970743452602
          -0.00010945846462595131 -0.00011060016437873765 -0.00011174186413152396 -0.00003658495220883818 -0.000037281888106606076 -0.000037978824004373965
          -0.00004853146343346093 -0.000049674604402610106 -0.00005081774537175929 -0.00005835877802242534 -0.00005924026844328309 -0.00006012175886414085
          -0.00037284009315687917 -0.000317042263969977 -0.0003713838652928856 -0.00031646399887344404 -0.00036992763742889204 -0.000315885733776911
          -0.00008536469591419804 -0.00008096153756049849 -0.00008606973904582772 -0.0000817749487872049 -0.00008677478217745737 -0.00008258836001391132
          -0.00030895725661512715 -0.0003506960836259956 -0.00030789851490765246 -0.0003493040175189937 -0.0003068397732001777 -0.0003479119514119917
          -0.00025724099159048127 -0.0002564818592720458 -0.00025572272695361027 -0.00007402632223038375 -0.00007482158403387091 -0.00007561684583735808
          -0.00038257372234842856 -0.0003686054204432664 -0.0003808138031976708 -0.00036735812000027705 -0.00037905388404691295 -0.00036611081955728765
          -0.00009873976733596673 -0.00009933849891171465 -0.00009993723048746259 -0.00012655800476854122 -0.00021702476955622223 -0.00012695050432527815
          -0.00021742977116496258 -0.00012734300388201507 -0.0002178347727737029 -0.00003775541559256931 -0.000038846668214479606 -0.00003993792083638991
          -0.00020153579290444355 -0.00020113636725907887 -0.00020073694161371416 -0.000018530255405497848 -0.00004457412493098888 -0.000019262127874758786
          -0.00004543731743462875 -0.000019994000344019723 -0.000046300509938268614 -0.00014730203898080126 -0.00014730593223475936 -0.00014730982548871743
          -0.0000973057124197545 -0.00009766613196356198 -0.00009802655150736946 -0.000011182603543811083 -0.000011887780848452886 -0.000012592958153094691
        </DataArray>
        <DataArray type="Float64" Name="disp_x" format="ascii" RangeMin="0.0000018387009258761086" RangeMax="0.00001179419734744976">
          0.0000024221010436107283 0.000002422139073906545 0.0000024220971907798004 0.000002422135278175239 0.0000024220894696196307 0.0000024221272593826276
          0.0000029927127166352507 0.000002992739574576651 0.0000029927089724785415 0.0000029927353926138357 0.0000029926970630227066 0.0000029927229557681468
          0.0000035636619907396853 0.000003563657154560914 0.0000035636583333556867 0.00000356365368814274 0.0000035636444860022305 0.00000356363868442001
          0.00000413495148994243 0.000004134889117194096 0.000004134946904941946 0.0000041348826070970896 0.000004134929243383793 0.000004134863661855235
          0.000004706549609386917 0.000004706374273169771 0.00000470654489845251 0.000004706372572296551 0.000004706525745211937 0.000004706343951563203
          0.000005278413160592245 0.0000052780392228017526 0.000005278402924156961 0.000005278020217601831 0.000005278367122185098 0.000005278010249022634
          0.000005850516590587982 0.000005849920507415931 0.0000058504731638032366 0.000005849873435893445 0.00000585038582641553 0.000005849660857130611
          0.000006422889577964067 0.000006421426038116781 0.0000064229806156446775 0.000006421427844580855 0.00000642296371019879 0.000006421334038822676
          0.0000024219735748098663 0.0000024219703115700805 0.000002421962899011708 0.000002992613954865316 0.0000029926109852154965 0.0000029925999483382865
          0.0000035636429158867567 0.000003563640263694591 0.0000035636276657337765 0.000004135084454081308 0.000004135081312176251 0.000004135067812243985
          0.000004706943529453146 0.000004706941552612857 0.000004706926694045309 0.000005279273114120062 0.000005279265382443987 0.00000527925442912082
          0.000005852128932867723 0.0000058521240369226906 0.000005852053520434131 0.000006425606590984351 0.000006425599793554207 0.000006425607627577215
          0.0000024217290484941645 0.000002421725984026216 0.00000242171849482359 0.0000029924012658071446 0.0000029923984092827552 0.000002992387986497678
          0.000003563522472783588 0.00000356352052698667 0.0000035635104298893794 0.000004135150884490263 0.0000041351479360717105 0.000004135137141078804
          0.000004707307086721892 0.000004707303917880636 0.000004707291029172294 0.000005279996356590905 0.000005280010624297044 0.000005280023790096237
          0.000005853420335715116 0.000005853439666220727 0.000005853479402285378 0.000006429232614778454 0.000006429623992322781 0.000006430815521618749
          0.0000024213250084368146 0.000002421321921145093 0.0000024213139083667395 0.000002992014623898723 0.000002992011334175291 0.000002992000848548854
          0.0000035632090101558108 0.0000035632090789903002 0.0000035631992046083925 0.000004134965626827868 0.000004134957024325197 0.000004134954753413828
          0.000004707387777689445 0.000004707392941242275 0.000004707339983932828 0.000005280261780500041 0.000005280285604583668 0.000005280403886077489
          0.000005854120963851204 0.000005854379564631137 0.000005855077427546724 0.000006438836746612016 0.000006439565220404564 0.000006441672474638309
          0.0000024207215808022926 0.0000024207180148431174 0.00000242070890811636 0.000002991396121351002 0.0000029913932960078686 0.0000029913826417250004
          0.000003562648831438509 0.0000035626481223964507 0.000003562640251138909 0.000004134494401638167 0.000004134475611708341 0.000004134446614796756
          0.0000047067974803972616 0.000004706824256394319 0.00000470678925132916 0.000005279627151768513 0.000005279807692130933 0.000005280384411023858
          0.0000058581169488298415 0.000005858612287855285 0.000005860070623451803 0.0000064569709979215285 0.0000064580838475379316 0.000006461317397140648
          0.0000024198894800944686 0.0000024198843347932007 0.00000241987253761839 0.000002990504220643492 0.000002990504485857224 0.0000029904935701305453
          0.000003561770985388704 0.0000035617619676066612 0.000003561761707313967 0.000004133808697724392 0.0000041337803904281315 0.000004133679199194114
          0.0000047059392980694755 0.00000470609530342223 0.000004706260526083226 0.0000052790272005258814 0.0000052793820694474594 0.00000528075367582677
          0.00000586838695899093 0.000005869235680811175 0.0000058716890134685 0.000006489005453080782 0.000006490486185454 0.000006494833765832905
          0.000001848939820602858 0.0000018489363816100587 0.0000018489223409062248 0.0000024187999097434476 0.0000024187945381601446 0.0000024187800582551957
          0.0000029893312838861002 0.0000029893280298980746 0.0000029893121844343217 0.0000035605629576312463 0.000003560549492444069 0.00000356053855647998
          0.000004132491569936108 0.000004132489226534754 0.000004132381879708719 0.0000047050411027912415 0.000004705140978273974 0.000004705581819488531
          0.000005282310549509025 0.000005283252248642996 0.000005285972986538906 0.0000058897230922101514 0.00000589090242014214 0.0000058943775194531424
          0.000006539894448198322 0.000006541665487896538 0.000006546904720253059 0.000001847814569335244 0.000001847807539707476 0.0000018477880897806141
          0.0000024174440207483353 0.0000024174419035991983 0.0000024174240570378317 0.0000029878243482542473 0.0000029878121655086873 0.0000029878077424992505
          0.0000035591437113404338 0.000003559116280961114 0.0000035589967461379304 0.000004130737890405515 0.000004130849543387579 0.0000041309848805793054
          0.000004703160020202945 0.000004703677408973768 0.000004705319042389501 0.000005295161150263489 0.0000052963647156982 0.000005300145140500993
          0.000005928616476115785 0.000005930081023836375 0.00000593430306257664 0.000006614703741611416 0.000006616687664293218 0.0000066225915846172175
          0.000001846488170904998 0.0000018464807753268493 0.0000018464571432262426 0.0000024158642604894728 0.000002415858687688083 0.0000024158355960700515
          0.0000029860587049385784 0.000002986035288034398 0.000002986000879362893 0.0000035570618441979485 0.0000035570585628050257 0.000003556948749740626
          0.000004128746398255328 0.000004128983001751031 0.00000412951842927542 0.000004706717224301484 0.000004707754161973824 0.0000047109602455606816
          0.000005320643484339188 0.0000053222310214781605 0.0000053272194367051424 0.000005989418104716326 0.0000059910587034849856 0.0000059958276142344365
          0.00000671796838456563 0.000006720009595919624 0.000006725983983666702 0.0000018449964533101077 0.0000018449915748574403 0.0000018449620596082978
          0.0000024140682304586006 0.000002414049829040646 0.0000024140346007796564 0.0000029842202339153264 0.0000029841834301993958 0.0000029840311779203297
          0.0000035547685839112955 0.000003554895831945345 0.000003555038081386246 0.000004126511782984905 0.000004127082669855627 0.00000412895717178026
          0.000004721085444931313 0.000004722607340798743 0.0000047271281094648875 0.000005365370778053704 0.0000053672336741150025 0.0000053730689710206
          0.000006075645764941816 0.000006077444600532649 0.0000060826002575191715 0.0000068511790335734254 0.000006853044973691929 0.000006858674128578533
          0.0000018434176242956223 0.0000018434090079449952 0.000001843371873148589 0.0000024121720511012517 0.000002412139028003753 0.0000024120900998851498
          0.0000029819169557289684 0.0000029819112737384123 0.0000029817533791329875 0.0000035525849418211574 0.000003552771374024512 0.000003553393336352779
          0.000004130610907911817 0.000004131843745881501 0.000004135475843620249 0.000004750172039293417 0.000004752122073713328 0.000004758015692977553
          0.000005434325880664038 0.00000543639468186711 0.000005442641227668656 0.000006190830495488822 0.000006192637280142803 0.000006198060425181055
          0.000007014190925493473 0.000007015728792731857 0.000007020464622454998 0.0000018417919499643652 0.0000018417685914226713 0.0000018417376901560576
          0.0000024104379478350876 0.0000024103860709877458 0.0000024102039995558743 0.00000297958981826896 0.0000029797504557327434 0.0000029798802914584255
          0.0000035504228021540527 0.000003551058446490703 0.0000035531411166993045 0.000004146840960320722 0.000004148548770462344 0.000004153776161281168
          0.000004801370546488039 0.000004803630813062205 0.00000481040172524607 0.0000055325707735500005 0.000005534731967074495 0.000005541367244445551
          0.000006342284834081267 0.000006343915641931652 0.000006348870457917828 0.000007217677043629382 0.0000072186543077763815 0.000007221414565450026
          0.000001840209377978616 0.0000018401726322136247 0.0000018401252687283788 0.000002408523147606402 0.000002408500773373597 0.000002408249613431447
          0.0000029779926978093677 0.0000029780689509148406 0.0000029786706137671014 0.000003554673709510828 0.0000035562249939740416 0.000003560437165018789
          0.000004179965371357594 0.000004182200392326571 0.000004189053783868729 0.000004880924618773506 0.000004883343562001727 0.000004890642180196045
          0.000005666805155140621 0.0000056688465486764 0.0000056750609128502 0.00000652963967410338 0.000006530894947747279 0.000006534697175118753
          0.000007443775635022692 0.000007444150117795464 0.000007445299659154621 0.0000018389665145719223 0.0000018389062498376133 0.0000018387009258761086
          0.00000240658570972193 0.0000024067275529554334 0.000002406813846969742 0.000002976095837375284 0.0000029767857959022746 0.0000029790059479589737
          0.000003573191443050745 0.0000035751948923496186 0.0000035813024437252237 0.00000423910017157669 0.000004241715754985143 0.000004249645413682717
          0.000004995511299535513 0.000004997916335541666 0.000005005211990056365 0.000005839760991529619 0.000005841439563593181 0.0000058465306627827875
          0.000006749885567174881 0.000006750543185449102 0.000006752610258063352 0.000007692702781321634 0.000007692405988299764 0.000007691301507458697
          0.000002405630532709599 0.000002405869886081696 0.000002406422168577567 0.000002980844121085181 0.0000029824435667230666 0.0000029872736925202943
          0.0000036116747972828726 0.000003614272422825424 0.0000036222552071725384 0.000004332002466207274 0.000004334758271642947 0.00000434307655316497
          0.000005150509742735566 0.0000051526450610441875 0.000005159159125763627 0.000006051372302166046 0.000006052457411820745 0.000006055730400278112
          0.000006999443701135031 0.000006999371829892016 0.000006999145640143918 0.000007952709686625372 0.000007951818870752014 0.00000794900636210846
          0.000002404107305919224 0.0000024048743523312146 0.000002407297291315827 0.000003002007852177763 0.0000030043451833796722 0.0000030114619521763175
          0.000003681137703828668 0.0000036841582315428833 0.0000036933522633366742 0.0000044661582457073764 0.000004468769739137548 0.000004476699317978763
          0.000005348926269390985 0.00000535050924363202 0.00000535533709243175 0.000006298196400010465 0.000006298521680159046 0.000006299527070768321
          0.000007270280384480928 0.000007269482452844249 0.0000072669904337816085 0.000008219742092510176 0.000008218358754694412 0.000008213801892657644
          0.0000024089472542874254 0.0000024106077541539684 0.0000024159557011804404 0.000003046504559746897 0.000003049550097723647 0.000003058992378029919
          0.000003791009369744332 0.0000037941315310466172 0.0000038035380668657396 0.0000046481987442693915 0.000004650334829381422 0.000004656843083393537
          0.000005591424541746181 0.0000055921603877920885 0.000005594461358448335 0.000006574859292129581 0.000006574344563449329 0.0000065726526780968415
          0.000007550122601695917 0.000007548863863294629 0.000007545046531904786 0.000008482571560711916 0.000008480547714802236 0.000008474642642856414
          0.0000024317784420297005 0.000002434536213287999 0.0000024430027584331784 0.0000031274529908434225 0.0000031309996404744394 0.000003141881749637278
          0.000003950070285378679 0.000003952887036788927 0.00000396142748552704 0.000004881287311724013 0.000004882628522621758 0.000004886695033290027
          0.000005874583127424102 0.0000058742899062014586 0.00000587353010054563 0.00000687392419611656 0.000006872582153050971 0.000006868203852915978
          0.000007831921848100847 0.000007830260070049853 0.000007825261024359632 0.000008727763123568358 0.000008725340239474162 0.000008718971357318424
          0.000003257811929394088 0.0000032613849613900513 0.0000032722183869388024 0.000004166434629682096 0.000004168516717312007 0.000004174864696635411
          0.000005164802488154079 0.000005165074537186971 0.0000051658879578023615 0.000006190292824081453 0.00000618893664726645 0.000006184991629918824
          0.000007183561477668479 0.000007181530909060624 0.0000071749531799846305 0.000008105921019022531 0.000008103770268938902 0.000008097764938966257
          0.000008948355678960354 0.000008945687535326375 0.000008937735506085205 0.0000034496959215565376 0.0000034527543520499383 0.0000034619340939201537
          0.000004444213520747638 0.000004445146587962082 0.000004448015563508299 0.000005493224808836053 0.000005492255310620708 0.000005489313278329949
          0.000006525427890675692 0.000006523098262584233 0.000006516199975529499 0.0000074864892209774156 0.000007483888446551711 0.000007475579782379528
          0.000008349843969257188 0.000008347351382297477 0.000008340251959631153 0.00000911478446142243 0.000009112097492154247 0.000009103560908992277
          0.0000037141725723332795 0.0000037161505358683027 0.000003721916538467745 0.00000478154129652758 0.00000478101976971053 0.0000047794910848709294
          0.000005853636719598059 0.000005851404994719974 0.000005844638082793473 0.0000068597713847942165 0.00000685666838596798 0.00000684734660032253
          0.000007758621807519781 0.00000775570015785713 0.000007746413024408931 0.000008540688449341937 0.000008538220716292513 0.000008531103174487015
          0.0000040561141806753345 0.000004056493903406632 0.00000405720321166179 0.0000051677375346718586 0.000005165631504007516 0.000005159301030926742
          0.000006223734195163046 0.00000622042362650843 0.000006210365175226563 0.000007166154005541427 0.000007162667211632268 0.000007152032225510259
          0.000007976599861635665 0.000007973761950869324 0.000007964870420594358 0.000009758604884274451 0.000008807154691095191 0.000008541718882229449
          0.000009357846285260154 0.00000975617501438023 0.000008805525545450535 0.000008540644579158384 0.000009356054654955713 0.000009748617188074416
          0.000008800820243837115 0.000008537367891712736 0.000009351002284745898 0.000007845245849856342 0.00000794337919747636 0.000007309629504897381
          0.000007200114829109009 0.00000784683194008346 0.000007944742343528944 0.000007311710143068107 0.000007202301675958968 0.000007851321301024698
          0.000007948438006924165 0.000007318675198604992 0.000007209346688410015 0.000009902789644850046 0.00000964630772862547 0.000009437139025029928
          0.00000990004201740099 0.000009643781237449058 0.000009433971201882416 0.000009891483562993242 0.000009635768704502594 0.000009423302886551544
          0.000010234113286250544 0.000010232279964144227 0.000010226876195677013 0.000008238317349965422 0.000007944498241882966 0.00000864109374103321
          0.000009035533913802061 0.000008237948365702566 0.000007944940055262524 0.000008640683768023427 0.000009034292622409997 0.000008236824786888668
          0.000007946157609055896 0.000008640007010069344 0.00000903046236682444 0.000007673354144992355 0.000007086502151185384 0.000007675265040500772
          0.000007088640071332331 0.000007680784835413133 0.000007095429052034239 0.000010244557862802865 0.000010774338572529632 0.000010528184873501356
          0.000010242181121833351 0.000010772294228718347 0.000010525990651861035 0.00001023440986362771 0.000010766415567917626 0.000010518932257689348
          0.00000698987808840807 0.000007513841854872796 0.000006991803087995098 0.000007515835487971443 0.0000069978942578589585 0.000007521660142624867
          0.000009370497663692338 0.00001017080360877039 0.000009367642571500622 0.000010168350761748653 0.000009358685853420566 0.000010160632715704664
          0.000008307255645534925 0.000008307863647159724 0.000008309293682496873 0.000010127735145662422 0.000010908857975081417 0.00001012550594306182
          0.000010906848081497341 0.000010118845990533265 0.000010900614123747431 0.00000905343920069217 0.000009646077068527921 0.000009051363864465753
          0.000009643585942478674 0.000009046124396707093 0.000009635808473130328 0.000007767511412934714 0.000008200183973602409 0.000007768404191615256
          0.000008200666864498946 0.00000777126685410607 0.0000082019544284494 0.000007465950778302869 0.00000776561682831917 0.000007467710894433265
          0.000007766880290968271 0.000007473701312997749 0.000007770601139585018 0.000006917238830284421 0.000006918837214982689 0.000006923855213133045
          0.000006867424728483479 0.000006867149554806594 0.000006868501501377139 0.000006868313238097252 0.0000068712348755901685 0.0000068719458010210604
          0.000007923329527731886 0.000007924725100519479 0.000007928386871246679 0.00000684142908540472 0.000006841875289252567 0.000006844047927656972
          0.000009171555199303863 0.000009168836135745722 0.000009159473278949275 0.000006765550083760481 0.000006765442087132487 0.000006765606337521048
          0.00000738589951942356 0.000007387797878256778 0.000007393326829926417 0.00000729974007400561 0.000007301368011879473 0.000007306289571306891
          0.000007156000096650857 0.000007157343536491753 0.000007161276004659894 0.0000092229155676413 0.000009220787845746863 0.000009213930191452896
          0.000008669863212797694 0.000008667875832805659 0.000008661982504676547 0.000009281154087127313 0.000009279985246828362 0.000009276096100754872
          0.000005579410085218226 0.0000044683091200076505 0.00000557585290950662 0.000004466767712650331 0.0000055651071532505 0.000004461420387963368
          0.00000657230294066307 0.000006568378347704296 0.00000655634254616214 0.000007417041347176982 0.000007413706904977188 0.0000074034551256869955
          0.000008127141667567904 0.000008124926687082532 0.000008117932071038695 0.000008742699319682773 0.000008741582456727568 0.000008738186003486353
          0.000010302744041657212 0.000010301629445305799 0.000010298550148014986 0.000010659116870858378 0.000010658076055560093 0.000010655241222616347
          0.000009290547007979456 0.0000099571912365247 0.000009289355018950332 0.000009955148291263594 0.000009285394980374356 0.000009948901609861955
          0.000011430268693628088 0.000011108248020890444 0.000011429032636500463 0.000011106867458014638 0.000011425320976812801 0.000011102864557069166
          0.000008569249114546495 0.000008814256270919064 0.000008570126796614853 0.000008814449319820746 0.000008572706827920076 0.000008815103378587648
          0.000008297908921332349 0.000008299292819381433 0.000008303559458610588 0.000010864578345249905 0.00001086317492459818 0.000010859015978248601
          0.000008791510734123858 0.000009425033491999898 0.000008791237091369542 0.000009424305732796174 0.00000879089565317179 0.000009422230150366435
          0.000011691131697912304 0.00001168996370518822 0.000011686364450395774 0.00001179419734744976 0.000010957262761710052 0.00001179294765245103
          0.000010955395673760172 0.000011789314397753417 0.000010949422561336152 0.000009717539614921508 0.000009716016210675734 0.000009711059327833303
          0.000008065902413418239 0.000008067634941302234 0.000008072997443596168 0.0000070794068864012185 0.000007345547349566801 0.0000070802221873396015
          0.0000073473091695321074 0.000007082831540228315 0.0000073520573303477565 0.000007876230377886317 0.000007878142227523163 0.000007883984544760428
          0.000007683828446196928 0.00000768562725827979 0.000007691317672096812 0.00001023349101614637 0.000010233010649788033 0.000010232066333967014
        </DataArray>
        <DataArray type="Float64" Name="disp_y" format="ascii" RangeMin="-0.000005404170024451656" RangeMax="0">
          -1.430348550024172e-7 0 -1.4303403567556429e-7 0 -1.4303167175721953e-7 0
          -1.4345451092570304e-7 0 -1.434539273671071e-7 0 -1.4345183375043383e-7 0
          -1.4390726618456142e-7 0 -1.4390600393084186e-7 0 -1.4390314548253075e-7 0
          -1.4437317742090957e-7 0 -1.4437152342394336e-7 0 -1.4436696298061815e-7 0
          -1.448458012652078e-7 0 -1.4484195096183638e-7 0 -1.4483153980656905e-7 0
          -1.453612603691824e-7 0 -1.4535721238941694e-7 0 -1.45342414033245e-7 0
          -1.4614206699742067e-7 0 -1.4611905612894502e-7 0 -1.460676376229503e-7 0
          -1.475807452193519e-7 0 -1.476010259635725e-7 0 -1.475665292717867e-7 0
          -2.860572468309411e-7 -2.860559212881221e-7 -2.8605304037177765e-7 -2.869207321023666e-7 -2.869194296638488e-7 -2.869157416683058e-7
          -2.87855938589408e-7 -2.8785455298504275e-7 -2.878497150400397e-7 -2.888261288780306e-7 -2.888233823740171e-7 -2.888157253184094e-7
          -2.89828188545552e-7 -2.8982441945027337e-7 -2.898135395226341e-7 -2.9092085794781166e-7 -2.909116349891196e-7 -2.9088104983992074e-7
          -2.9242218815879757e-7 -2.924163352655685e-7 -2.9239989133809545e-7 -2.9585516672872806e-7 -2.9557106743774197e-7 -2.950682696576888e-7
          -4.2905112264209427e-7 -4.29050110006743e-7 -4.2904561285824005e-7 -4.303995651452613e-7 -4.3039792414539096e-7 -4.303932172148079e-7
          -4.3187011518766413e-7 -4.3186856661093866e-7 -4.3186317531954597e-7 -4.334088319040873e-7 -4.334059111088542e-7 -4.3339797456149424e-7
          -4.349853446479303e-7 -4.349838550584741e-7 -4.349714049209082e-7 -4.367392367402566e-7 -4.3673377303528516e-7 -4.367499059743674e-7
          -4.389246829010177e-7 -4.38816401550923e-7 -4.3856958603917503e-7 -4.4492560884993023e-7 -4.4460747734399444e-7 -4.4368025622626584e-7
          -5.719889475432537e-7 -5.719874904377057e-7 -5.719819385295847e-7 -5.738754451462476e-7 -5.738735142326499e-7 -5.738680594945438e-7
          -5.759313851253765e-7 -5.759297732911275e-7 -5.75924469062972e-7 -5.781084375873024e-7 -5.781071206683733e-7 -5.781041612851199e-7
          -5.803166461190698e-7 -5.803218040069271e-7 -5.803261714171187e-7 -5.826320580723518e-7 -5.825852317520488e-7 -5.825360084580719e-7
          -5.862706116482106e-7 -5.860237358245852e-7 -5.853494165671137e-7 -5.986471986793882e-7 -5.98112587415386e-7 -5.965711803004933e-7
          -7.148319142499506e-7 -7.148300890261059e-7 -7.148235965083892e-7 -7.173228874282695e-7 -7.173211226246436e-7 -7.173155335339139e-7
          -7.200210942352856e-7 -7.200192395443999e-7 -7.200128955547806e-7 -7.228271507413365e-7 -7.228285471408483e-7 -7.228264322889793e-7
          -7.258027886558175e-7 -7.258009406444062e-7 -7.258468532527437e-7 -7.285918065802219e-7 -7.284541251219986e-7 -7.281339224973434e-7
          -7.361324609549629e-7 -7.357219916934457e-7 -7.344742311444592e-7 -7.591575432785769e-7 -7.583953810006533e-7 -7.561815634244286e-7
          -8.575360403275212e-7 -8.575339305503125e-7 -8.575263889463181e-7 -8.607039508124835e-7 -8.607020010866149e-7 -8.606961251879262e-7
          -8.641325165488225e-7 -8.641313670246247e-7 -8.641292136123803e-7 -8.675952302937009e-7 -8.676039253283154e-7 -8.676071541181417e-7
          -8.711299512157283e-7 -8.710989479955456e-7 -8.710924402176557e-7 -8.760435989682727e-7 -8.75755685280503e-7 -8.749530728567916e-7
          -8.91264004642868e-7 -8.906348243162038e-7 -8.886913757036816e-7 -9.300124663837878e-7 -9.290450054598087e-7 -9.261136636071419e-7
          -9.96600554454344e-7 -9.965960672709757e-7 -9.965830167067259e-7 -0.0000010000488025375357 -0.000001000046465350154 -0.0000010000377307443055
          -0.0000010039922779997732 -0.0000010039908558759814 -0.00000100398397853654 -0.0000010081992619623075 -0.0000010081987651286283 -0.0000010081967747005046
          -0.0000010125407537220905 -0.00000101255986745528 -0.0000010126292794697692 -0.000001016618348579809 -0.0000010163802130723337 -0.0000010159690456857042
          -0.0000010260104603882382 -0.0000010254972002231326 -0.0000010239868471354218 -0.0000010549579677976947 -0.0000010540887398030344 -0.000001051431521018637
          -0.0000011149011696916596 -0.0000011137474472831274 -0.000001110244370096435 -0.0000011380628596950075 -0.000001138057676004089 -0.000001138042871426271
          -0.0000011423074764779719 -0.0000011423048915965648 -0.000001142294464152337 -0.0000011471729091705735 -0.0000011471708519040724 -0.0000011471674953821666
          -0.0000011522488089608136 -0.000001152266423629646 -0.0000011522797355707116 -0.0000011574349853874527 -0.0000011573659333045362 -0.0000011573538483553922
          -0.0000011637158747309655 -0.0000011634202811248628 -0.0000011624177731705163 -0.0000011825861221534696 -0.0000011818228030116673 -0.0000011793951577070076
          -0.0000012303864583797733 -0.0000012292740787279204 -0.0000012259010005761453 -0.000001316728519789088 -0.0000013154644959674105 -0.0000013115688529761228
          -0.0000012790854821442893 -0.000001279080222638726 -0.0000012790612605791338 -0.0000012842667550939594 -0.0000012842625638297278 -0.0000012842482662809946
          -0.0000012901431751386696 -0.0000012901463144359594 -0.000001290141851946671 -0.0000012964430139627157 -0.0000012964491670646336 -0.0000012965289412488842
          -0.000001302328489755077 -0.0000013021294787767502 -0.0000013016674590832066 -0.0000013144812566797165 -0.0000013138711859211172 -0.0000013120947432043537
          -0.0000013495818995031452 -0.0000013485634394577755 -0.0000013454343626931607 -0.0000014213271552202588 -0.0000014200507277328373 -0.0000014160502807998235
          -0.0000015376878584490472 -0.0000015363302908651554 -0.0000015322559104384421 -0.000001419580814717155 -0.0000014195739854672461 -0.0000014195500805148043
          -0.0000014258878447895077 -0.000001425882813761422 -0.0000014258680275691936 -0.0000014329489131172731 -0.0000014329635586763232 -0.0000014329708183779562
          -0.0000014404342238496646 -0.0000014403717708605254 -0.0000014403547804131175 -0.0000014494660828464371 -0.0000014490384065928502 -0.0000014479046786417367
          -0.0000014730647913383435 -0.0000014721955974201907 -0.0000014694130055109198 -0.0000015304240115666182 -0.000001529183853828847 -0.0000015253810637393489
          -0.0000016315413658220397 -0.0000016301127623502602 -0.0000016258611295727477 -0.000001779369816469451 -0.00000177805455649706 -0.0000017737448768155907
          -0.0000015594719471900706 -0.0000015594622490951451 -0.0000015594293895767486 -0.0000015670529522470888 -0.0000015670508658606026 -0.0000015670318871482512
          -0.0000015757423185188178 -0.0000015757470265737946 -0.0000015758184591029869 -0.0000015844697746176419 -0.000001584241912303595 -0.000001583719736752599
          -0.0000016005449855257823 -0.0000015998894948880043 -0.0000015978403854513676 -0.0000016434139081777982 -0.0000016422495633437108 -0.0000016386820018073487
          -0.0000017288645960053545 -0.0000017274265877321924 -0.0000017230125108721004 -0.0000018634992218238044 -0.0000018620197788409107 -0.0000018574280435883592
          -0.000002043068958269502 -0.0000020418530361742662 -0.000002038061965012039 -0.0000016987028765151794 -0.0000016986894815801481 -0.0000016986495024922438
          -0.0000017077710151863538 -0.0000017077788307264799 -0.0000017077589624898982 -0.0000017181791513073135 -0.0000017181247323954524 -0.0000017181266369293196
          -0.000001730821606262412 -0.000001730347966164511 -0.0000017290935718819567 -0.0000017603705531363597 -0.0000017593588318737326 -0.0000017561612353893356
          -0.0000018294351738195283 -0.0000018280078546390654 -0.0000018236129785176926 -0.000001949134227147511 -0.0000019475679343359876 -0.0000019427234285218027
          -0.0000021196530303003976 -0.000002118241884243098 -0.000002113819959286333 -0.00000233359863714442 -0.0000023326339888408055 -0.000002329576820119562
          -0.0000018371370421893598 -0.0000018371217677895703 -0.0000018370710707702914 -0.0000018481850883206963 -0.0000018482016541026386 -0.000001848246628851535
          -0.000001860554876687006 -0.0000018602288809339563 -0.000001859646317545573 -0.0000018814033464208792 -0.0000018806416161236228 -0.0000018783100179146214
          -0.0000019335350099565467 -0.000001932194521047971 -0.0000019280236619149347 -0.0000020360057120323694 -0.000002034370856458865 -0.0000020292795641362882
          -0.0000021946850416588982 -0.0000021931228254249466 -0.000002188273360118609 -0.000002402285809811132 -0.0000024011025360160573 -0.0000023975211902734133
          -0.000002641564304706682 -0.0000026409987997960735 -0.000002639171492710666 -0.0000019746953202955504 -0.0000019746937153337412 -0.0000019746353743843195
          -0.0000019880133885831603 -0.000001987935317489503 -0.000001987954542848726 -0.0000020046415308498234 -0.000002004193511940572 -0.000002002786349473855
          -0.0000020414276642260778 -0.0000020402531671788538 -0.0000020365341556358564 -0.0000021250931188342373 -0.0000021234416958693277 -0.000002118323704999564
          -0.0000022680473470945103 -0.0000022663205053020473 -0.000002260942703911028 -0.0000024676706714564306 -0.0000024662604708192807 -0.0000024618966836470345
          -0.0000027079166180313714 -0.0000027071252514940316 -0.0000027046982986282737 -0.0000029645821429413918 -0.00000296451256900778 -0.000002964297860015611
          -0.000002127306310289485 -0.0000021269815791740593 -0.0000021263105523412336 -0.0000021533783841383124 -0.0000021524413046547195 -0.0000021497509394798274
          -0.000002216732209291349 -0.0000022151727418167584 -0.0000022102380496224005 -0.0000023406703147615622 -0.000002338811785323653 -0.0000023330098986530273
          -0.000002529069035112277 -0.0000025274069538554104 -0.0000025222503013071 -0.0000027679283606163763 -0.000002766841297867461 -0.0000027634573096383777
          -0.00000303256164881186 -0.000003032230803463888 -0.0000030312383945203853 -0.0000032962168890806156 -0.0000032965885142945794 -0.0000032979557063656566
          -0.000002267811171702031 -0.000002267249331440911 -0.0000022657199977513332 -0.000002312325102533089 -0.000002310941505723638 -0.0000023064914708055246
          -0.0000024135710916747205 -0.0000024116348744083033 -0.0000024055900789042755 -0.0000025856111131461143 -0.000002583688781938812 -0.0000025776922247429767
          -0.000002820545874990627 -0.000002819136116036456 -0.0000028147794705589376 -0.000003093152712439815 -0.000003092541033966593 -0.000003090696041619318
          -0.000003371141464578994 -0.0000033713308944141363 -0.0000033719178973630102 -0.000003627392263438156 -0.0000036281431055874424 -0.0000036304428722286973
          -0.0000024131301158972975 -0.000002412024650063258 -0.0000024088318357463356 -0.000002489072244659068 -0.000002487205745150836 -0.0000024812623859994774
          -0.0000026388224850080063 -0.000002636650764822102 -0.000002629826256491265 -0.0000028636926464480288 -0.0000028618908893532864 -0.0000028562831135610028
          -0.0000031415228978796025 -0.000003140541542322246 -0.0000031375281975814955 -0.000003437786732385705 -0.0000034377629774108192 -0.0000034377591125617898
          -0.000003717112005190635 -0.000003717798274131711 -0.000003720191301670249 -0.00000395365149887731 -0.000003954832495462629 -0.0000039577828865128425
          -0.0000025692779954005843 -0.000002567621200960243 -0.000002562311782890319 -0.0000026917310541332287 -0.0000026894252348555608 -0.0000026821477538896057
          -0.000002899341553814097 -0.000002897137146475075 -0.0000028902445011360155 -0.000003176709675050506 -0.0000031752588241615894 -0.00000317076407520453
          -0.000003488335666846 -0.000003487932806472064 -0.0000034867215682913064 -0.000003794053937798653 -0.000003794648250824186 -0.0000037964992978176425
          -0.000004061028842317333 -0.000004062261127323678 -0.000004066120462337749 -0.000004271024991221104 -0.0000042727337936879354 -0.000004277457353697579
          -0.0000029291944795528777 -0.0000029266203797293623 -0.000002918506635915904 -0.0000031998511667038697 -0.000003197885887574297 -0.0000031917784398523908
          -0.0000035233405140398398 -0.000003522485714920508 -0.0000035198624264625006 -0.000003854352395164654 -0.000003854667591885256 -0.000003855660855259138
          -0.000004152805463230283 -0.000004154040216010462 -0.000004157789654890344 -0.000004393297288276706 -0.000004395103475479616 -0.00000440052046017601
          -0.000004567556338903018 -0.000004569646606128853 -0.00000457615894167624 -0.0000032102979875353375 -0.0000032077745726202544 -0.0000031998680516064657
          -0.0000035418501274143104 -0.0000035404541735191837 -0.0000035361260405343727 -0.000003897914264566776 -0.00000389788705051901 -0.0000038978182353052905
          -0.000004229379394736985 -0.000004230520368891604 -0.0000042340302837277185 -0.000004502377862905491 -0.0000045042574094135 -0.000004510022631708825
          -0.000004702253647240218 -0.000004704473378333651 -0.000004711315063018025 -0.0000048276648219912155 -0.000004829792340316394 -0.000004836706380517879
          -0.000003540797122815636 -0.000003538728273144987 -0.0000035323419929303445 -0.000003921832509527026 -0.000003921361323929447 -0.00000391988740505268
          -0.000004289519206877083 -0.000004290501410117304 -0.000004293545836396295 -0.000004598986682815051 -0.000004600959677787636 -0.0000046070468279507486
          -0.000004828085832385947 -0.000004830449492874127 -0.0000048378156293465825 -0.0000049748195258806015 -0.000004977121206544083 -0.000004984237531329999
          -0.000003920642566725233 -0.000003919518659595759 -0.000003916115692306666 -0.000004329118830793387 -0.0000043298606875306365 -0.000004332163050044386
          -0.000004681306331387122 -0.000004683345493262419 -0.000004689701259368667 -0.000004945338120632327 -0.000004947940363762636 -0.0000049560985311428976
          -0.000005115712299527453 -0.000005118220107506923 -0.000005126045432894352 -0.000003797485525288038 -0.000003545305739765804 -0.000003212509939500965
          -0.000003414709263364354 -0.000003798934897694134 -0.000003546222361759481 -0.0000032130125948704578 -0.000003415728923995603 -0.0000038030286375425922
          -0.000003548733347571772 -0.0000032147132026229438 -0.0000034188336389858663 -0.0000014049390380519744 -0.0000016772578195412526 -0.0000015800413013487922
          -0.0000013383004146051203 -0.0000014037162878594667 -0.000001676225513732526 -0.0000015788026681896714 -0.0000013369954123358949 -0.0000013998545041724517
          -0.0000016729756911880823 -0.0000015749733355781242 -0.0000013329381248400832 -0.000004513616433396776 -0.000004795259156795118 -0.000004563871853018323
          -0.000004515413744279215 -0.00000479708385703963 -0.000004565786036960643 -0.000004520934016923874 -0.000004802970257141831 -0.000004572383602777413
          -0.000004455507344796018 -0.000004457126382684112 -0.000004462604280918134 -0.00000287343171282894 -0.0000025481539425805644 -0.0000026988417268381356
          -0.0000030587733698527776 -0.000002873492474211167 -0.000002547796655399315 -0.000002698921059452571 -0.000003059383053275076 -0.000002873809613223568
          -0.0000025464722568712312 -0.000002699328770040226 -0.0000030613246910532836 -0.0000011230966633801464 -0.000001107728292753006 -0.0000011218507697454811
          -0.0000011064606007780437 -0.0000011179685498269317 -0.0000011025195516168891 -0.0000037901195820343476 -0.00000396376045650315 -0.000004101700994355886
          -0.0000037915032306540315 -0.000003965238679523492 -0.000004103266449503834 -0.0000037962191737008496 -0.000003969900796594787 -0.0000041079974352673876
          -8.942318055247199e-7 -8.793018858526179e-7 -8.930993329671073e-7 -8.781173728267373e-7 -8.89569417912246e-7 -8.743870717903839e-7
          -0.000004213900804895364 -0.000004256188991653185 -0.000004215766292194436 -0.000004257959787886058 -0.000004221609312646212 -0.000004264156793981231
          -0.0000020518807313606563 -0.000002051243176985551 -0.000002049519125829153 -0.0000035895978625598485 -0.0000037893695522780184 -0.0000035909462742691114
          -0.0000037908343515620457 -0.000003595082757356202 -0.000003795743570404615 -0.000003856127556566312 -0.000003977975602919889 -0.000003857465328215457
          -0.000003979636433418576 -0.000003861412804160392 -0.0000039849114140647 -0.0000023363494781062985 -0.0000023607162590011015 -0.000002335657227382663
          -0.0000023602684320519006 -0.000002333621988973699 -0.0000023590833648296283 -0.0000018137059851087829 -0.000002068675667736845 -0.0000018126435506048864
          -0.0000020678248657883215 -0.0000018092550691191264 -0.000002065378724753793 -7.043764267859319e-7 -7.034718625151393e-7 -7.005864560101157e-7
          -3.7957132665536347e-7 -5.385112379636138e-7 -3.79150500181689e-7 -5.377699092832646e-7 -3.7758218586761623e-7 -5.356000985963214e-7
          -0.0000018481211999421868 -0.0000018472504377453915 -0.0000018449366037287029 -2.417548941290974e-7 -2.4163235379936176e-7 -2.40894692502779e-7
          -0.000004359464582960637 -0.000004361333414058105 -0.000004367221593625964 -1.4534141288993222e-7 -1.4500281179844938e-7 -1.4464494154057133e-7
          -6.661610745265867e-7 -6.651345125404802e-7 -6.619026684670955e-7 -4.644597540123496e-7 -4.637490831649648e-7 -4.613886539615256e-7
          -3.739230597501436e-7 -3.733680796161811e-7 -3.718410745407968e-7 -0.000005048867056167437 -0.000005050631828675239 -0.000005056410047969952
          -0.000005205761904875528 -0.0000052076794040168275 -0.000005213762292854974 -0.000005237084943229134 -0.000005238146998620364 -0.000005241686573321435
          -0.000004744826193325233 -0.000004341333639338942 -0.0000047468935813617565 -0.000004341607651991876 -0.000004753355279561186 -0.000004342567733854795
          -0.000005051693994573543 -0.000005054568456874502 -0.00000506365948207368 -0.000005251094840487476 -0.0000052539278586397 -0.000005262828326217027
          -0.00000535791594174489 -0.000005360046437614518 -0.000005366875871508417 -0.000005399322020033115 -0.000005400515537523812 -0.000005404170024451656
          -0.0000047401708035557705 -0.000004741295209216751 -0.000004744560965556121 -0.000004551538834969502 -0.000004552732669583162 -0.0000045561342585947745
          -0.000002758939818678382 -0.000003235102866364943 -0.0000027593632869899382 -0.0000032361279640192247 -0.000002760780403416317 -0.0000032391592857135815
          -0.000004134614160317515 -0.000004264623384923677 -0.000004135710276978562 -0.000004265843321220841 -0.000004138947346600982 -0.0000042694852012122245
          -0.0000015128201465416784 -0.0000019309030911730568 -0.0000015119316249816017 -0.0000019303327498256526 -0.0000015092540142424178 -0.000001928537626193649
          -0.0000011721959296404326 -0.0000011711376671823034 -0.0000011679915447503159 -0.000004399938468647228 -0.000004401266243035935 -0.0000044051063897129135
          -0.0000023766028091650026 -0.0000023831271105700845 -0.0000023765401419762443 -0.0000023833041946274967 -0.000002375801691722009 -0.0000023837729593971214
          -0.000003976142836919884 -0.000003977305935102732 -0.000003980508719855357 -0.0000037747342449224606 -0.000003573580872690355 -0.0000037760619214737442
          -0.0000035749803672045908 -0.0000037803985435945063 -0.0000035790531378024086 -0.000004998476596493883 -0.000004999658173293384 -0.000005003217537347578
          -8.840085670255299e-7 -8.829119081470541e-7 -8.794909737994623e-7 0 -2.47983982143004e-7 0
          -2.475608593695741e-7 0 -2.463218948597481e-7 -6.453728506456236e-7 -6.443918572462007e-7 -6.413319929068144e-7
          -4.436557197201503e-7 -4.4286233325825153e-7 -4.405777162557387e-7 -0.000004967663014239401 -0.0000049682500297748406 -0.000004969793467729486
        </DataArray>
        <DataArray type="Float64" Name="disp_z" format="ascii" RangeMin="-3.0201773287862816e-7" RangeMax="0">
          0 0 -6.022131598242717e-8 -6.0219455639006e-8 -1.2044401249512465e-7 -1.2044015676753009e-7
          0 0 -6.020234430845223e-8 -6.020051619308561e-8 -1.204043154282514e-7 -1.204005034344459e-7
          0 0 -6.01802153207811e-8 -6.017748684672456e-8 -1.2036036146919562e-7 -1.2035531377636384e-7
          0 0 -6.015299824146562e-8 -6.014914599216245e-8 -1.2030618311319105e-7 -1.2029649379713391e-7
          0 0 -6.01164254382532e-8 -6.010418115125845e-8 -1.2023392401754028e-7 -1.2021745321882495e-7
          0 0 -6.007604205853167e-8 -6.006002626723873e-8 -1.201455142504179e-7 -1.2009115139357617e-7
          0 0 -5.997588075073231e-8 -5.998702139126599e-8 -1.199479427023768e-7 -1.2002483358316556e-7
          0 0 -5.973198294200076e-8 -5.929114820658194e-8 -1.1961163171711129e-7 -1.185021383652669e-7
          0 -6.022578894107757e-8 -1.204523649474962e-7 0 -6.020739232353015e-8 -1.2041444566363002e-7
          0 -6.018721623634444e-8 -1.2037423937666354e-7 0 -6.016368617259169e-8 -1.2032776662178377e-7
          0 -6.013966826451867e-8 -1.202792552191044e-7 0 -6.011735532380557e-8 -1.202310159807497e-7
          0 -6.007960461199287e-8 -1.2016268138366476e-7 0 -5.972285212052823e-8 -1.196204147845337e-7
          0 -6.023289189861002e-8 -1.204667390491395e-7 0 -6.021498048314572e-8 -1.204296839973545e-7
          0 -6.019664285775612e-8 -1.2039365263839126e-7 0 -6.018006348861527e-8 -1.203575677960313e-7
          0 -6.01579769702938e-8 -1.2032037083772358e-7 0 -6.014672390427941e-8 -1.2029220078997372e-7
          0 -6.010558166745653e-8 -1.203044811292945e-7 0 -6.071495538169157e-8 -1.2174758620840755e-7
          0 -6.024250411784168e-8 -1.2048596059487793e-7 0 -6.022418430626842e-8 -1.204477366283698e-7
          0 -6.020448932470345e-8 -1.2041152141407313e-7 0 -6.019628261472137e-8 -1.2038171518958437e-7
          0 -6.018113516033796e-8 -1.2038764114504418e-7 0 -6.001880960847803e-8 -1.200435174649476e-7
          0 -6.072689848972242e-8 -1.217560907809497e-7 0 -6.299918058750012e-8 -1.2625800223533736e-7
          0 -6.025385182959469e-8 -1.2050860046076868e-7 0 -6.023374928869184e-8 -1.204677040537528e-7
          0 -6.021604941277911e-8 -1.2043118287727875e-7 0 -6.020396629725234e-8 -1.20393940808399e-7
          0 -6.009194404866223e-8 -1.2026078668204293e-7 0 -6.01793012240424e-8 -1.2039743321889316e-7
          0 -6.237861770514874e-8 -1.251181456776222e-7 0 -6.62510842246097e-8 -1.3279790017573697e-7
          0 -6.026717878641498e-8 -1.2053463803272369e-7 0 -6.023997510130166e-8 -1.20484990623835e-7
          0 -6.023655121192146e-8 -1.2045346720351473e-7 0 -6.021103923133422e-8 -1.2044923083237442e-7
          0 -5.987958801596119e-8 -1.198485270961519e-7 0 -6.100002189611124e-8 -1.2210461102285452e-7
          0 -6.531446361834986e-8 -1.311077373674383e-7 0 -7.10052517361348e-8 -1.422459576462232e-7
          0 -6.030708913329645e-8 -1.2061325708097302e-7 0 -6.028125211666084e-8 -1.2056337287842395e-7
          0 -6.02530470772844e-8 -1.2050576268584418e-7 0 -6.023067475962772e-8 -1.2045223326345792e-7
          0 -6.018266000640693e-8 -1.2037975980026465e-7 0 -5.984798104004276e-8 -1.2001867359373816e-7
          0 -6.281047201125754e-8 -1.259028585760657e-7 0 -6.968271055916408e-8 -1.3975960208298113e-7
          0 -7.702762089411472e-8 -1.542609701434849e-7 0 -6.033188630897978e-8 -1.2066175352550136e-7
          0 -6.029335952097876e-8 -1.2059301016253862e-7 0 -6.027474231955743e-8 -1.2052922385276526e-7
          0 -6.024389819563071e-8 -1.20514246609884e-7 0 -5.983883002651179e-8 -1.1976254275437391e-7
          0 -6.097671144533921e-8 -1.2226507975856304e-7 0 -6.671070605449896e-8 -1.3368087307113563e-7
          0 -7.52519933608019e-8 -1.5085851263322327e-7 0 -8.396727501912903e-8 -1.6807034309663563e-7
          0 -6.036117219872985e-8 -1.2072139094803067e-7 0 -6.031673148791611e-8 -1.2063514333104891e-7
          0 -6.027653516303041e-8 -1.2053378604216597e-7 0 -6.015690347357502e-8 -1.203777210053216e-7
          0 -5.988975838937449e-8 -1.2000401223837205e-7 0 -6.319914808425777e-8 -1.2690751836034853e-7
          0 -7.205298648851096e-8 -1.4422914470219077e-7 0 -8.229093934268684e-8 -1.648229507172931e-7
          0 -9.148867368922094e-8 -1.8309608302069502e-7 0 -6.039453474699477e-8 -1.207941427457165e-7
          0 -6.035606187435872e-8 -1.206895945870384e-7 0 -6.029322322624525e-8 -1.2061794265520487e-7
          0 -5.979967127888311e-8 -1.1970079698817245e-7 0 -6.108080610302055e-8 -1.224982420759145e-7
          0 -6.770237275538777e-8 -1.3590635302918307e-7 0 -7.854810712869512e-8 -1.5709736795629485e-7
          0 -9.019512082703301e-8 -1.8062348571319007e-7 0 -9.94006718059612e-8 -1.9851831466994306e-7
          0 -6.044655778202055e-8 -1.2089282968415585e-7 0 -6.038216872882733e-8 -1.2074460679163407e-7
          0 -6.021871329413968e-8 -1.205001008782939e-7 0 -5.986159639196692e-8 -1.1998231859575227e-7
          0 -6.360453757215378e-8 -1.2791328393361524e-7 0 -7.38232438344735e-8 -1.479299399912841e-7
          0 -8.631759896517315e-8 -1.7263165869710273e-7 0 -9.819717320748842e-8 -1.9622660641803633e-7
          0 -1.0812432178333027e-7 -2.1603274418244982e-7 0 -6.052986093668325e-8 -1.210300488668467e-7
          0 -6.042684050910643e-8 -1.2089287052396664e-7 0 -5.985815309225175e-8 -1.1982308086042742e-7
          0 -6.117635051198416e-8 -1.227424503801232e-7 0 -6.875828016208635e-8 -1.3804774790051223e-7
          0 -8.129662413303903e-8 -1.6279289544043668e-7 0 -9.510376364364099e-8 -1.9003006202521967e-7
          0 -1.0734596093019343e-7 -2.1437455378402662e-7 0 -1.1473107325815691e-7 -2.2895627205877046e-7
          0 -6.060756446241024e-8 -1.2119020490910467e-7 0 -6.045268630731944e-8 -1.2093570472514089e-7
          0 -5.975780575075996e-8 -1.1992651765991848e-7 0 -6.397022213046603e-8 -1.287214604638686e-7
          0 -7.588234084152273e-8 -1.5210264767798384e-7 0 -9.042847279316808e-8 -1.808584514719627e-7
          0 -1.0448392571724903e-7 -2.0863452819710853e-7 0 -1.1486349013563887e-7 -2.2910125463558203e-7
          0 -1.1973791972875783e-7 -2.3884870338482195e-7 0 -6.071572765146174e-8 -1.214709320409975e-7
          0 -6.009299169148443e-8 -1.202973967641842e-7 0 -6.127615697458765e-8 -1.230269137290993e-7
          0 -6.983065440536766e-8 -1.4031066385056305e-7 0 -8.472286254168891e-8 -1.696277634911015e-7
          0 -1.0057515011248228e-7 -2.0090227920817694e-7 0 -1.1336258899220184e-7 -2.2615527968710644e-7
          0 -1.2074639313845218e-7 -2.4076069169270996e-7 0 -1.2171036266802403e-7 -2.4276145616211853e-7
          0 -5.985890486954555e-8 -1.2022215911899354e-7 0 -6.446521845139196e-8 -1.296604271227414e-7
          0 -7.827992225817297e-8 -1.570339321752303e-7 0 -9.531342407444132e-8 -1.9053932362660844e-7
          0 -1.1079047946499861e-7 -2.210660706813457e-7 0 -1.2094405976975978e-7 -2.410998775867428e-7
          0 -1.2384171225058418e-7 -2.4690079530284424e-7 0 -1.203718011831551e-7 -2.402511513731145e-7
          0 -6.155642673741245e-8 -1.236958746512935e-7 0 -7.127402356900038e-8 -1.4335107537350503e-7
          0 -8.885933985275391e-8 -1.778907429023838e-7 0 -1.0679970481271074e-7 -2.131884636908216e-7
          0 -1.2003107878951866e-7 -2.3928792539540717e-7 0 -1.2602777904987816e-7 -2.511510958241762e-7
          0 -1.242639309493637e-7 -2.4781581059073174e-7 0 -1.1626505662826352e-7 -2.3217237955952516e-7
          0 -6.524476074486556e-8 -1.3119858189696244e-7 0 -8.146763221549394e-8 -1.635807469239351e-7
          0 -1.0148433651629746e-7 -2.0272920105509375e-7 0 -1.1811285313340264e-7 -2.354797208919987e-7
          0 -1.2719885731555906e-7 -2.533993183364761e-7 0 -1.2754179889675804e-7 -2.54315511229931e-7
          0 -1.2111788237716319e-7 -2.416463509918929e-7 0 -1.1232003078121639e-7 -2.2398442072682477e-7
          0 -7.311078734136335e-8 -1.472210084459804e-7 0 -9.442621167263009e-8 -1.8900615412225385e-7
          0 -1.1497625853762875e-7 -2.2927214899189334e-7 0 -1.2801492439260124e-7 -2.549660084787598e-7
          0 -1.312886812301664e-7 -2.614722178106264e-7 0 -1.2549000962234618e-7 -2.5045474122254326e-7
          0 -1.1472845513933336e-7 -2.28913799489602e-7 0 -1.0555981432160138e-7 -2.104610305371034e-7
          0 -1.0970117586858222e-7 -2.189719880060728e-7 0 -1.2773253058324858e-7 -2.5435171652922865e-7
          0 -1.3497145839352173e-7 -2.686664900457517e-7 0 -1.3145118050599471e-7 -2.618374524253003e-7
          0 -1.200378688235719e-7 -2.3978469538907625e-7 0 -1.0630466131794598e-7 -2.1207046522401047e-7
          0 -9.527531558462564e-8 -1.9046769771285747e-7 0 -1.2568095943290026e-7 -2.502615379060637e-7
          0 -1.3802507806735745e-7 -2.745781160982924e-7 0 -1.3758784852713426e-7 -2.7385356632708145e-7
          0 -1.2708204288415924e-7 -2.532829121895997e-7 0 -1.1098133277439918e-7 -2.218836188286538e-7
          0 -9.467788732429743e-8 -1.8898855240295188e-7 0 -8.11971777827699e-8 -1.626763502671607e-7
          0 -1.3988944122627562e-7 -2.7809310942747887e-7 0 -1.4380890742022405e-7 -2.859403117049188e-7
          0 -1.3470906744399074e-7 -2.682419919621075e-7 0 -1.1774922876676025e-7 -2.3494584669629561e-7
          0 -9.820626989136752e-8 -1.9662682806522468e-7 0 -8.101573972385952e-8 -1.6204186514659086e-7
          0 -1.4963098860051206e-7 -2.9720489531246194e-7 0 -1.4306808189166176e-7 -2.8452596947734124e-7
          0 -1.2548350222170662e-7 -2.5017862768024843e-7 0 -1.0371838024579113e-7 -2.0739644761068417e-7
          0 -8.331660438431347e-8 -1.671384484237616e-7 0 0 0
          0 -1.0053200067782514e-7 -1.1323639051929864e-7 -1.1695814997453157e-7 -1.0997353539508625e-7 -2.0073974242860995e-7
          -2.2581087969843483e-7 -2.332627882978639e-7 -2.195388257916183e-7 0 0 0
          0 -1.023725391129515e-7 -1.0966427735777039e-7 -1.0133225732262e-7 -9.399811068720279e-8 -2.0414601176658837e-7
          -2.1863913636707244e-7 -2.024467419374272e-7 -1.87973607409332e-7 0 0 0
          -7.42465892080857e-8 -6.847010188504769e-8 -8.402759713494652e-8 -1.4949126420976747e-7 -1.3745943824321817e-7 -1.6760940548534248e-7
          0 -7.044648185255087e-8 -1.4113073580243056e-7 0 0 0
          0 -1.1981339305336362e-7 -1.183675305141105e-7 -1.1904730499061063e-7 -1.1596791187526263e-7 -2.3896812482775093e-7
          -2.3621871582664609e-7 -2.370953417038007e-7 -2.3118433799120528e-7 0 0 -9.336144875465528e-8
          -8.568962759987026e-8 -1.8637412370007783e-7 -1.7164256520385442e-7 0 0 0
          -9.194089201832268e-8 -7.991864016275658e-8 -7.999474465040594e-8 -1.839066310069473e-7 -1.6024522415287916e-7 -1.600708109802483e-7
          0 0 -7.767448777610697e-8 -8.429991447827652e-8 -1.5581687039947948e-7 -1.6844244298096806e-7
          0 0 -9.622773153192688e-8 -8.122505540657808e-8 -1.9224873078105974e-7 -1.6286224255287304e-7
          0 -1.1494837787939521e-7 -2.2902179622352797e-7 0 0 -9.878143693001054e-8
          -8.374060961019997e-8 -1.973655129558158e-7 -1.6781256852521534e-7 0 0 -1.0721762540855957e-7
          -9.962149323569305e-8 -2.136011798285986e-7 -1.9948718793309876e-7 0 0 -1.1595393501868917e-7
          -1.1774648192589227e-7 -2.3115564604685863e-7 -2.346277477926129e-7 0 0 -1.0762262970540961e-7
          -1.1399456347500373e-7 -2.1493651721583038e-7 -2.2757538071902467e-7 0 -7.084991660444793e-8 -1.4230717500548732e-7
          0 0 -6.275973040090903e-8 -6.582576575986102e-8 -1.2627963642238607e-7 -1.3226348098092135e-7
          0 -1.1191503862035465e-7 -2.2293299789320338e-7 0 -5.98502432150846e-8 -1.20516934271045e-7
          0 -9.684712808594104e-8 -1.934625546115477e-7 0 -5.944658932228582e-8 -1.189098630725441e-7
          0 -7.606723134196458e-8 -1.5222957684139415e-7 0 -6.910707775536827e-8 -1.384898881029982e-7
          0 -6.531931555349263e-8 -1.3074917484639322e-7 0 -6.841351154077326e-8 -1.3765079071813438e-7
          0 -6.804043932174098e-8 -1.365833568380666e-7 0 -5.88113896640875e-8 -1.1839379033266782e-7
          0 0 -1.3439446334741034e-7 -1.5205635949348232e-7 -2.675867976922515e-7 -3.0201773287862816e-7
          0 -1.101191456510407e-7 -2.2009041163858758e-7 0 -8.6741214484995e-8 -1.7393945603396133e-7
          0 -6.892590585111377e-8 -1.3868916275310322e-7 0 -5.828194722586128e-8 -1.1717037348602242e-7
          0 -6.070265274826624e-8 -1.2237932783569486e-7 0 -6.36492796619656e-8 -1.2770366368926016e-7
          0 0 -1.1718064125243057e-7 -1.0570427541890682e-7 -2.339801148191352e-7 -2.1110398658969747e-7
          0 0 -6.787230145006117e-8 -6.712970988116214e-8 -1.3618960042914293e-7 -1.3465502864998985e-7
          0 0 -1.06868867031149e-7 -1.1378114320123464e-7 -2.1332167158754274e-7 -2.269835689944649e-7
          0 -9.95184640611785e-8 -1.9872916967407166e-7 0 -6.621569689642737e-8 -1.3304959743805056e-7
          0 0 -1.1745867055442972e-7 -1.1539120676740888e-7 -2.3402379910226418e-7 -2.3020426357997385e-7
          0 -6.848541385336688e-8 -1.372576998264524e-7 0 0 -7.33982676326117e-8
          -8.876965853977277e-8 -1.4684440766871296e-7 -1.7798359130794636e-7 0 -5.921702061203911e-8 -1.1908199907330898e-7
          0 -9.08367485782115e-8 -1.8153956498845622e-7 0 0 -6.054562753758125e-8
          -6.624219588825412e-8 -1.2213604522807377e-7 -1.3306785387701543e-7 0 -8.241855929219078e-8 -1.6492429871029086e-7
          0 -7.494297326380784e-8 -1.501690492349593e-7 0 -5.6013649145019073e-8 -1.1262681209410692e-7
        </DataArray>
      </PointData>
      <CellData>
        <DataArray type="Int32" Name="libmesh_elem_id" format="ascii" RangeMin="776" RangeMax="3207">
          776 777 778 779 780 781
          782 783 784 785 786 787
          788 789 794 795 796 797
          798 799 800 801 802 803
          804 805 806 807 812 813
          814 815 816 817 818 819
          820 821 822 823 824 825
          830 831 832 833 834 835
          836 837 838 839 840 841
          842 843 848 849 850 851
          852 853 854 855 856 857
          858 859 860 861 866 867
          868 869 870 871 872 873
          874 875 876 877 878 879
          884 885 886 887 888 889
          890 891 892 893 894 895
          896 897 900 901 902 903
          904 905 906 907 908 909
          910 911 912 913 914 915
          918 919 920 921 922 923
          924 925 926 927 928 929
          930 931 932 933 936 937
          938 939 940 941 942 943
          944 945 946 947 948 949
          950 951 954 955 956 957
          958 959 960 961 962 963
          964 965 966 967 968 969
          972 973 974 975 976 977
          978 979 980 981 982 983
          984 985 986 987 990 991
          992 993 994 995 996 997
          998 999 1000 1001 1002 1003
          1004 1005 1008 1009 1010 1011
          1012 1013 1014 1015 1016 1017
          1018 1019 1020 1021 1022 1023
          1028 1029 1030 1031 1032 1033
          1034 1035 1036 1037 1038 1039
          1040 1041 1046 1047 1048 1049
          1050 1051 1052 1053 1054 1055
          1056 1057 1058 1059 1064 1065
          1066 1067 1068 1069 1070 1071
          1072 1073 1074 1075 1076 1077
          1082 1083 1084 1085 1086 1087
          1088 1089 1090 1091 1092 1093
          1094 1095 1102 1103 1104 1105
          1106 1107 1108 1109 1110 1111
          1112 1113 1120 1121 1122 1123
          1124 1125 1126 1127 1128 1129
          1130 1131 1138 1139 1140 1141
          1142 1143 1144 1145 1146 1147
          1148 1149 1156 1157 1158 1159
          1160 1161 1162 1163 1164 1165
          1166 1167 1174 1175 1176 1177
          1178 1179 1180 1181 1182 1183
          1374 1375 1376 1377 1378 1379
          1384 1385 1388 1389 1404 1405
          1458 1459 1536 1537 1542 1543
          1624 1625 1648 1649 1658 1659
          1672 1673 1770 1771 1810 1811
          1818 1819 1828 1829 1830 1831
          1866 1867 2074 2075 2078 2079
          2116 2117 2124 2125 2288 2289
          2290 2291 2336 2337 2342 2343
          2348 2349 2352 2353 2356 2357
          2358 2359 2424 2425 2452 2453
          2464 2465 2496 2497 2526 2527
          2530 2531 2532 2533 2554 2555
          2560 2561 2590 2591 2594 2595
          2622 2623 2736 2737 2740 2741
          2762 2763 2768 2769 2794 2795
          2800 2801 2864 2865 2890 2891
          2904 2905 2920 2921 2956 2957
          2986 2987 3018 3019 3036 3037
          3088 3089 3114 3115 3144 3145
          3156 3157 3176 3177 3184 3185
          3190 3191 3206 3207
        </DataArray>
        <DataArray type="Int32" Name="subdomain_id" format="ascii" RangeMin="105" RangeMax="107">
          105 105 105 105 105 105
          105 105 105 105 105 105
          105 105 105 105 105 105
          105 105 105 105 105 105
          105 105 105 105 105 105
          105 105 105 105 105 105
          105 105 105 105 105 105
          105 105 105 105 105 105
          105 105 105 105 105 105
          105 105 105 105 105 105
          105 105 105 105 105 105
          105 105 105 105 105 105
          105 105 105 105 105 105
          105 105 105 105 105 105
          105 105 105 105 105 105
          105 105 105 105 105 105
          105 105 105 105 105 105
          105 105 105 105 105 105
          105 105 105 105 105 105
          105 105 105 105 105 105
          105 105 105 105 105 105
          105 105 105 105 105 105
          105 105 105 105 105 105
          105 105 105 105 105 105
          105 105 105 105 105 105
          105 105 105 105 105 105
          105 105 105 105 105 105
          105 105 105 105 105 105
          105 105 105 105 105 105
          105 105 105 105 105 105
          105 105 105 105 105 105
          105 105 105 105 105 105
          105 105 105 105 105 105
          105 105 105 105 105 105
          105 105 105 105 105 105
          105 105 105 105 105 105
          105 105 105 105 105 105
          105 105 105 105 105 105
          105 105 105 105 105 105
          105 105 105 105 105 105
          105 105 105 105 105 105
          105 105 105 105 105 105
          105 105 105 105 105 105
          105 105 105 105 105 105
          105 105 105 105 105 105
          105 105 105 105 105 105
          105 105 105 105 105 105
          105 105 105 105 105 105
          105 105 105 105 105 105
          105 105 105 105 105 105
          105 105 105 105 105 105
          105 105 105 105 105 105
          105 105 105 105 105 105
          105 105 105 105 105 105
          107 107 107 107 107 107
          107 107 107 107 107 107
          107 107 107 107 107 107
          107 107 107 107 107 107
          107 107 107 107 107 107
          107 107 107 107 107 107
          107 107 107 107 107 107
          107 107 107 107 107 107
          107 107 107 107 107 107
          107 107 107 107 107 107
          107 107 107 107 107 107
          107 107 107 107 107 107
          107 107 107 107 107 107
          107 107 107 107 107 107
          107 107 107 107 107 107
          107 107 107 107 107 107
          107 107 107 107 107 107
          107 107 107 107 107 107
          107 107 107 107 107 107
          107 107 107 107 107 107
          107 107 107 107 107 107
          107 107 107 107
        </DataArray>
        <DataArray type="Int32" Name="processor_id" format="ascii" RangeMin="6" RangeMax="6">
          6 6 6 6 6 6
          6 6 6 6 6 6
          6 6 6 6 6 6
          6 6 6 6 6 6
          6 6 6 6 6 6
          6 6 6 6 6 6
          6 6 6 6 6 6
          6 6 6 6 6 6
          6 6 6 6 6 6
          6 6 6 6 6 6
          6 6 6 6 6 6
          6 6 6 6 6 6
          6 6 6 6 6 6
          6 6 6 6 6 6
          6 6 6 6 6 6
          6 6 6 6 6 6
          6 6 6 6 6 6
          6 6 6 6 6 6
          6 6 6 6 6 6
          6 6 6 6 6 6
          6 6 6 6 6 6
          6 6 6 6 6 6
          6 6 6 6 6 6
          6 6 6 6 6 6
          6 6 6 6 6 6
          6 6 6 6 6 6
          6 6 6 6 6 6
          6 6 6 6 6 6
          6 6 6 6 6 6
          6 6 6 6 6 6
          6 6 6 6 6 6
          6 6 6 6 6 6
          6 6 6 6 6 6
          6 6 6 6 6 6
          6 6 6 6 6 6
          6 6 6 6 6 6
          6 6 6 6 6 6
          6 6 6 6 6 6
          6 6 6 6 6 6
          6 6 6 6 6 6
          6 6 6 6 6 6
          6 6 6 6 6 6
          6 6 6 6 6 6
          6 6 6 6 6 6
          6 6 6 6 6 6
          6 6 6 6 6 6
          6 6 6 6 6 6
          6 6 6 6 6 6
          6 6 6 6 6 6
          6 6 6 6 6 6
          6 6 6 6 6 6
          6 6 6 6 6 6
          6 6 6 6 6 6
          6 6 6 6 6 6
          6 6 6 6 6 6
          6 6 6 6 6 6
          6 6 6 6 6 6
          6 6 6 6 6 6
          6 6 6 6 6 6
          6 6 6 6 6 6
          6 6 6 6 6 6
          6 6 6 6 6 6
          6 6 6 6 6 6
          6 6 6 6 6 6
          6 6 6 6 6 6
          6 6 6 6 6 6
          6 6 6 6 6 6
          6 6 6 6 6 6
          6 6 6 6 6 6
          6 6 6 6 6 6
          6 6 6 6 6 6
          6 6 6 6 6 6
          6 6 6 6 6 6
          6 6 6 6 6 6
          6 6 6 6 6 6
          6 6 6 6
        </DataArray>
      </CellData>
      <Points>
        <DataArray type="Float64" Name="Points" NumberOfComponents="3" format="ascii" RangeMin="0.0018888888888872" RangeMax="0.010555613193541787">
          0.0018888888888873 0.00041379310344749 0 0.0018888888888872 0 0
          0.0018888888888873 0.00041379310344749 0.00015 0.0018888888888872 0 0.00015
          0.0018888888888873 0.00041379310344749 0.0003 0.0018888888888872 0 0.0003
          0.0023333333333313 0.00041379310344749 0 0.0023333333333311 0 0
          0.0023333333333313 0.00041379310344749 0.00015 0.0023333333333311 0 0.00015
          0.0023333333333313 0.00041379310344749 0.0003 0.0023333333333311 0 0.0003
          0.0027777777777734 0.00041379310344749 0 0.0027777777777731 0 0
          0.0027777777777734 0.00041379310344749 0.00015 0.0027777777777731 0 0.00015
          0.0027777777777734 0.00041379310344749 0.0003 0.0027777777777731 0 0.0003
          0.003222222222218 0.00041379310344749 0 0.0032222222222177 0 0
          0.003222222222218 0.00041379310344749 0.00015 0.0032222222222177 0 0.00015
          0.003222222222218 0.00041379310344749 0.0003 0.0032222222222177 0 0.0003
          0.0036666666666636 0.00041379310344749 0 0.0036666666666634 0 0
          0.0036666666666636 0.00041379310344749 0.00015 0.0036666666666634 0 0.00015
          0.0036666666666636 0.00041379310344749 0.0003 0.0036666666666634 0 0.0003
          0.0041111111111091 0.00041379310344749 0 0.004111111111109 0 0
          0.0041111111111091 0.00041379310344749 0.00015 0.004111111111109 0 0.00015
          0.0041111111111091 0.00041379310344749 0.0003 0.004111111111109 0 0.0003
          0.0045555555555554 0.00041379310344749 0 0.0045555555555553 0 0
          0.0045555555555554 0.00041379310344749 0.00015 0.0045555555555553 0 0.00015
          0.0045555555555554 0.00041379310344749 0.0003 0.0045555555555553 0 0.0003
          0.005 0.00041379310344749 0 0.005 0 0
          0.005 0.00041379310344749 0.00015 0.005 0 0.00015
          0.005 0.00041379310344749 0.0003 0.005 0 0.0003
          0.0018888888888875 0.00082758620689497 0 0.0018888888888875 0.00082758620689497 0.00015
          0.0018888888888875 0.00082758620689497 0.0003 0.0023333333333315 0.00082758620689497 0
          0.0023333333333315 0.00082758620689497 0.00015 0.0023333333333315 0.00082758620689497 0.0003
          0.0027777777777737 0.00082758620689497 0 0.0027777777777737 0.00082758620689497 0.00015
          0.0027777777777737 0.00082758620689497 0.0003 0.0032222222222183 0.00082758620689497 0
          0.0032222222222183 0.00082758620689497 0.00015 0.0032222222222183 0.00082758620689497 0.0003
          0.0036666666666638 0.00082758620689497 0 0.0036666666666638 0.00082758620689497 0.00015
          0.0036666666666638 0.00082758620689497 0.0003 0.0041111111111093 0.00082758620689497 0
          0.0041111111111093 0.00082758620689497 0.00015 0.0041111111111093 0.00082758620689497 0.0003
          0.0045555555555554 0.00082758620689497 0 0.0045555555555554 0.00082758620689497 0.00015
          0.0045555555555554 0.00082758620689497 0.0003 0.005 0.00082758620689497 0
          0.005 0.00082758620689497 0.00015 0.005 0.00082758620689497 0.0003
          0.0018888888888876 0.0012413793103426 0 0.0018888888888876 0.0012413793103426 0.00015
          0.0018888888888876 0.0012413793103426 0.0003 0.0023333333333317 0.0012413793103426 0
          0.0023333333333317 0.0012413793103426 0.00015 0.0023333333333317 0.0012413793103426 0.0003
          0.002777777777774 0.0012413793103426 0 0.002777777777774 0.0012413793103426 0.00015
          0.002777777777774 0.0012413793103426 0.0003 0.0032222222222186 0.0012413793103426 0
          0.0032222222222186 0.0012413793103426 0.00015 0.0032222222222186 0.0012413793103426 0.0003
          0.003666666666664 0.0012413793103426 0 0.003666666666664 0.0012413793103426 0.00015
          0.003666666666664 0.0012413793103426 0.0003 0.0041111111111095 0.0012413793103426 0
          0.0041111111111095 0.0012413793103426 0.00015 0.0041111111111095 0.0012413793103426 0.0003
          0.0045555555555554 0.0012413793103426 0 0.0045555555555554 0.0012413793103426 0.00015
          0.0045555555555554 0.0012413793103426 0.0003 0.005 0.0012413793103426 0
          0.005 0.0012413793103426 0.00015 0.005 0.0012413793103426 0.0003
          0.0018888888888877 0.0016551724137901 0 0.0018888888888877 0.0016551724137901 0.00015
          0.0018888888888877 0.0016551724137901 0.0003 0.0023333333333319 0.0016551724137901 0
          0.0023333333333319 0.0016551724137901 0.00015 0.0023333333333319 0.0016551724137901 0.0003
          0.0027777777777743 0.0016551724137901 0 0.0027777777777743 0.0016551724137901 0.00015
          0.0027777777777743 0.0016551724137901 0.0003 0.0032222222222189 0.0016551724137901 0
          0.0032222222222189 0.0016551724137901 0.00015 0.0032222222222189 0.0016551724137901 0.0003
          0.0036666666666642 0.0016551724137901 0 0.0036666666666642 0.0016551724137901 0.00015
          0.0036666666666642 0.0016551724137901 0.0003 0.0041111111111096 0.0016551724137901 0
          0.0041111111111096 0.0016551724137901 0.00015 0.0041111111111096 0.0016551724137901 0.0003
          0.0045555555555555 0.0016551724137901 0 0.0045555555555555 0.0016551724137901 0.00015
          0.0045555555555555 0.0016551724137901 0.0003 0.005 0.0016551724137901 0
          0.005 0.0016551724137901 0.00015 0.005 0.0016551724137901 0.0003
          0.0018888888888879 0.0020689655172371 0 0.0018888888888879 0.0020689655172371 0.00015
          0.0018888888888879 0.0020689655172371 0.0003 0.002333333333332 0.0020689655172371 0
          0.002333333333332 0.0020689655172371 0.00015 0.002333333333332 0.0020689655172371 0.0003
          0.0027777777777746 0.0020689655172371 0 0.0027777777777746 0.0020689655172371 0.00015
          0.0027777777777746 0.0020689655172371 0.0003 0.0032222222222192 0.0020689655172371 0
          0.0032222222222192 0.0020689655172371 0.00015 0.0032222222222192 0.0020689655172371 0.0003
          0.0036666666666643 0.0020689655172371 0 0.0036666666666643 0.0020689655172371 0.00015
          0.0036666666666643 0.0020689655172371 0.0003 0.0041111111111098 0.0020689655172371 0
          0.0041111111111098 0.0020689655172371 0.00015 0.0041111111111098 0.0020689655172371 0.0003
          0.0045555555555555 0.0020689655172371 0 0.0045555555555555 0.0020689655172371 0.00015
          0.0045555555555555 0.0020689655172371 0.0003 0.005 0.0020689655172371 0
          0.005 0.0020689655172371 0.00015 0.005 0.0020689655172371 0.0003
          0.001888888888888 0.0024827586206843 0 0.001888888888888 0.0024827586206843 0.00015
          0.001888888888888 0.0024827586206843 0.0003 0.0023333333333322 0.0024827586206843 0
          0.0023333333333322 0.0024827586206843 0.00015 0.0023333333333322 0.0024827586206843 0.0003
          0.0027777777777749 0.0024827586206843 0 0.0027777777777749 0.0024827586206843 0.00015
          0.0027777777777749 0.0024827586206843 0.0003 0.0032222222222196 0.0024827586206843 0
          0.0032222222222196 0.0024827586206843 0.00015 0.0032222222222196 0.0024827586206843 0.0003
          0.0036666666666645 0.0024827586206843 0 0.0036666666666645 0.0024827586206843 0.00015
          0.0036666666666645 0.0024827586206843 0.0003 0.0041111111111099 0.0024827586206843 0
          0.0041111111111099 0.0024827586206843 0.00015 0.0041111111111099 0.0024827586206843 0.0003
          0.0045555555555555 0.0024827586206843 0 0.0045555555555555 0.0024827586206843 0.00015
          0.0045555555555555 0.0024827586206843 0.0003 0.005 0.0024827586206843 0
          0.005 0.0024827586206843 0.00015 0.005 0.0024827586206843 0.0003
          0.0014444444444442 0.0028965517241314 0 0.0014444444444442 0.0028965517241314 0.00015
          0.0014444444444442 0.0028965517241314 0.0003 0.0018888888888881 0.0028965517241314 0
          0.0018888888888881 0.0028965517241314 0.00015 0.0018888888888881 0.0028965517241314 0.0003
          0.0023333333333324 0.0028965517241314 0 0.0023333333333324 0.0028965517241314 0.00015
          0.0023333333333324 0.0028965517241314 0.0003 0.0027777777777753 0.0028965517241314 0
          0.0027777777777753 0.0028965517241314 0.00015 0.0027777777777753 0.0028965517241314 0.0003
          0.0032222222222199 0.0028965517241314 0 0.0032222222222199 0.0028965517241314 0.00015
          0.0032222222222199 0.0028965517241314 0.0003 0.0036666666666647 0.0028965517241314 0
          0.0036666666666647 0.0028965517241314 0.00015 0.0036666666666647 0.0028965517241314 0.0003
          0.0041111111111101 0.0028965517241314 0 0.0041111111111101 0.0028965517241314 0.00015
          0.0041111111111101 0.0028965517241314 0.0003 0.0045555555555556 0.0028965517241314 0
          0.0045555555555556 0.0028965517241314 0.00015 0.0045555555555556 0.0028965517241314 0.0003
          0.005 0.0028965517241314 0 0.005 0.0028965517241314 0.00015
          0.005 0.0028965517241314 0.0003 0.0014444444444442 0.0033103448275785 0
          0.0014444444444442 0.0033103448275785 0.00015 0.0014444444444442 0.0033103448275785 0.0003
          0.0018888888888882 0.0033103448275785 0 0.0018888888888882 0.0033103448275785 0.00015
          0.0018888888888882 0.0033103448275785 0.0003 0.0023333333333326 0.0033103448275785 0
          0.0023333333333326 0.0033103448275785 0.00015 0.0023333333333326 0.0033103448275785 0.0003
          0.0027777777777756 0.0033103448275785 0 0.0027777777777756 0.0033103448275785 0.00015
          0.0027777777777756 0.0033103448275785 0.0003 0.0032222222222202 0.0033103448275785 0
          0.0032222222222202 0.0033103448275785 0.00015 0.0032222222222202 0.0033103448275785 0.0003
          0.0036666666666649 0.0033103448275785 0 0.0036666666666649 0.0033103448275785 0.00015
          0.0036666666666649 0.0033103448275785 0.0003 0.0041111111111102 0.0033103448275785 0
          0.0041111111111102 0.0033103448275785 0.00015 0.0041111111111102 0.0033103448275785 0.0003
          0.0045555555555556 0.0033103448275785 0 0.0045555555555556 0.0033103448275785 0.00015
          0.0045555555555556 0.0033103448275785 0.0003 0.005 0.0033103448275785 0
          0.005 0.0033103448275785 0.00015 0.005 0.0033103448275785 0.0003
          0.0014444444444443 0.0037241379310256 0 0.0014444444444443 0.0037241379310256 0.00015
          0.0014444444444443 0.0037241379310256 0.0003 0.0018888888888884 0.0037241379310256 0
          0.0018888888888884 0.0037241379310256 0.00015 0.0018888888888884 0.0037241379310256 0.0003
          0.0023333333333328 0.0037241379310256 0 0.0023333333333328 0.0037241379310256 0.00015
          0.0023333333333328 0.0037241379310256 0.0003 0.0027777777777759 0.0037241379310256 0
          0.0027777777777759 0.0037241379310256 0.00015 0.0027777777777759 0.0037241379310256 0.0003
          0.0032222222222205 0.0037241379310256 0 0.0032222222222205 0.0037241379310256 0.00015
          0.0032222222222205 0.0037241379310256 0.0003 0.003666666666665 0.0037241379310256 0
          0.003666666666665 0.0037241379310256 0.00015 0.003666666666665 0.0037241379310256 0.0003
          0.0041111111111104 0.0037241379310256 0 0.0041111111111104 0.0037241379310256 0.00015
          0.0041111111111104 0.0037241379310256 0.0003 0.0045555555555556 0.0037241379310256 0
          0.0045555555555556 0.0037241379310256 0.00015 0.0045555555555556 0.0037241379310256 0.0003
          0.005 0.0037241379310256 0 0.005 0.0037241379310256 0.00015
          0.005 0.0037241379310256 0.0003 0.0014444444444444 0.0041379310344727 0
          0.0014444444444444 0.0041379310344727 0.00015 0.0014444444444444 0.0041379310344727 0.0003
          0.0018888888888885 0.0041379310344727 0 0.0018888888888885 0.0041379310344727 0.00015
          0.0018888888888885 0.0041379310344727 0.0003 0.002333333333333 0.0041379310344727 0
          0.002333333333333 0.0041379310344727 0.00015 0.002333333333333 0.0041379310344727 0.0003
          0.0027777777777762 0.0041379310344727 0 0.0027777777777762 0.0041379310344727 0.00015
          0.0027777777777762 0.0041379310344727 0.0003 0.0032222222222208 0.0041379310344727 0
          0.0032222222222208 0.0041379310344727 0.00015 0.0032222222222208 0.0041379310344727 0.0003
          0.0036666666666652 0.0041379310344727 0 0.0036666666666652 0.0041379310344727 0.00015
          0.0036666666666652 0.0041379310344727 0.0003 0.0041111111111105 0.0041379310344727 0
          0.0041111111111105 0.0041379310344727 0.00015 0.0041111111111105 0.0041379310344727 0.0003
          0.0045555555555557 0.0041379310344727 0 0.0045555555555557 0.0041379310344727 0.00015
          0.0045555555555557 0.0041379310344727 0.0003 0.005 0.0041379310344727 0
          0.005 0.0041379310344727 0.00015 0.005 0.0041379310344727 0.0003
          0.0014444444444444 0.0045517241379199 0 0.0014444444444444 0.0045517241379199 0.00015
          0.0014444444444444 0.0045517241379199 0.0003 0.0018888888888886 0.0045517241379199 0
          0.0018888888888886 0.0045517241379199 0.00015 0.0018888888888886 0.0045517241379199 0.0003
          0.0023333333333331 0.0045517241379199 0 0.0023333333333331 0.0045517241379199 0.00015
          0.0023333333333331 0.0045517241379199 0.0003 0.0027777777777765 0.0045517241379199 0
          0.0027777777777765 0.0045517241379199 0.00015 0.0027777777777765 0.0045517241379199 0.0003
          0.0032222222222211 0.0045517241379199 0 0.0032222222222211 0.0045517241379199 0.00015
          0.0032222222222211 0.0045517241379199 0.0003 0.0036666666666654 0.0045517241379199 0
          0.0036666666666654 0.0045517241379199 0.00015 0.0036666666666654 0.0045517241379199 0.0003
          0.0041111111111107 0.0045517241379199 0 0.0041111111111107 0.0045517241379199 0.00015
          0.0041111111111107 0.0045517241379199 0.0003 0.0045555555555557 0.0045517241379199 0
          0.0045555555555557 0.0045517241379199 0.00015 0.0045555555555557 0.0045517241379199 0.0003
          0.005 0.0045517241379199 0 0.005 0.0045517241379199 0.00015
          0.005 0.0045517241379199 0.0003 0.0014444444444445 0.0049655172413669 0
          0.0014444444444445 0.0049655172413669 0.00015 0.0014444444444445 0.0049655172413669 0.0003
          0.0018888888888888 0.0049655172413669 0 0.0018888888888888 0.0049655172413669 0.00015
          0.0018888888888888 0.0049655172413669 0.0003 0.0023333333333333 0.0049655172413669 0
          0.0023333333333333 0.0049655172413669 0.00015 0.0023333333333333 0.0049655172413669 0.0003
          0.0027777777777768 0.0049655172413669 0 0.0027777777777768 0.0049655172413669 0.00015
          0.0027777777777768 0.0049655172413669 0.0003 0.0032222222222214 0.0049655172413669 0
          0.0032222222222214 0.0049655172413669 0.00015 0.0032222222222214 0.0049655172413669 0.0003
          0.0036666666666656 0.0049655172413669 0 0.0036666666666656 0.0049655172413669 0.00015
          0.0036666666666656 0.0049655172413669 0.0003 0.0041111111111108 0.0049655172413669 0
          0.0041111111111108 0.0049655172413669 0.00015 0.0041111111111108 0.0049655172413669 0.0003
          0.0045555555555557 0.0049655172413669 0 0.0045555555555557 0.0049655172413669 0.00015
          0.0045555555555557 0.0049655172413669 0.0003 0.005 0.0049655172413669 0
          0.005 0.0049655172413669 0.00015 0.005 0.0049655172413669 0.0003
          0.0014444444444445 0.0053793103448139 0 0.0014444444444445 0.0053793103448139 0.00015
          0.0014444444444445 0.0053793103448139 0.0003 0.0018888888888889 0.0053793103448139 0
          0.0018888888888889 0.0053793103448139 0.00015 0.0018888888888889 0.0053793103448139 0.0003
          0.0023333333333335 0.0053793103448139 0 0.0023333333333335 0.0053793103448139 0.00015
          0.0023333333333335 0.0053793103448139 0.0003 0.0027777777777771 0.0053793103448139 0
          0.0027777777777771 0.0053793103448139 0.00015 0.0027777777777771 0.0053793103448139 0.0003
          0.0032222222222217 0.0053793103448139 0 0.0032222222222217 0.0053793103448139 0.00015
          0.0032222222222217 0.0053793103448139 0.0003 0.0036666666666658 0.0053793103448139 0
          0.0036666666666658 0.0053793103448139 0.00015 0.0036666666666658 0.0053793103448139 0.0003
          0.004111111111111 0.0053793103448139 0 0.004111111111111 0.0053793103448139 0.00015
          0.004111111111111 0.0053793103448139 0.0003 0.0045555555555558 0.0053793103448139 0
          0.0045555555555558 0.0053793103448139 0.00015 0.0045555555555558 0.0053793103448139 0.0003
          0.005 0.0053793103448139 0 0.005 0.0053793103448139 0.00015
          0.005 0.0053793103448139 0.0003 0.0014444444444446 0.0057931034482612 0
          0.0014444444444446 0.0057931034482612 0.00015 0.0014444444444446 0.0057931034482612 0.0003
          0.001888888888889 0.0057931034482612 0 0.001888888888889 0.0057931034482612 0.00015
          0.001888888888889 0.0057931034482612 0.0003 0.0023333333333337 0.0057931034482612 0
          0.0023333333333337 0.0057931034482612 0.00015 0.0023333333333337 0.0057931034482612 0.0003
          0.0027777777777774 0.0057931034482612 0 0.0027777777777774 0.0057931034482612 0.00015
          0.0027777777777774 0.0057931034482612 0.0003 0.003222222222222 0.0057931034482612 0
          0.003222222222222 0.0057931034482612 0.00015 0.003222222222222 0.0057931034482612 0.0003
          0.0036666666666659 0.0057931034482612 0 0.0036666666666659 0.0057931034482612 0.00015
          0.0036666666666659 0.0057931034482612 0.0003 0.0041111111111112 0.0057931034482612 0
          0.0041111111111112 0.0057931034482612 0.00015 0.0041111111111112 0.0057931034482612 0.0003
          0.0045555555555558 0.0057931034482612 0 0.0045555555555558 0.0057931034482612 0.00015
          0.0045555555555558 0.0057931034482612 0.0003 0.005 0.0057931034482612 0
          0.005 0.0057931034482612 0.00015 0.005 0.0057931034482612 0.0003
          0.0018888888888891 0.0062068965517097 0 0.0018888888888891 0.0062068965517097 0.00015
          0.0018888888888891 0.0062068965517097 0.0003 0.0023333333333339 0.0062068965517097 0
          0.0023333333333339 0.0062068965517097 0.00015 0.0023333333333339 0.0062068965517097 0.0003
          0.0027777777777778 0.0062068965517097 0 0.0027777777777778 0.0062068965517097 0.00015
          0.0027777777777778 0.0062068965517097 0.0003 0.0032222222222224 0.0062068965517097 0
          0.0032222222222224 0.0062068965517097 0.00015 0.0032222222222224 0.0062068965517097 0.0003
          0.0036666666666661 0.0062068965517097 0 0.0036666666666661 0.0062068965517097 0.00015
          0.0036666666666661 0.0062068965517097 0.0003 0.0041111111111113 0.0062068965517097 0
          0.0041111111111113 0.0062068965517097 0.00015 0.0041111111111113 0.0062068965517097 0.0003
          0.0045555555555558 0.0062068965517097 0 0.0045555555555558 0.0062068965517097 0.00015
          0.0045555555555558 0.0062068965517097 0.0003 0.005 0.0062068965517097 0
          0.005 0.0062068965517097 0.00015 0.005 0.0062068965517097 0.0003
          0.0018888888888893 0.0066206896551586 0 0.0018888888888893 0.0066206896551586 0.00015
          0.0018888888888893 0.0066206896551586 0.0003 0.002333333333334 0.0066206896551586 0
          0.002333333333334 0.0066206896551586 0.00015 0.002333333333334 0.0066206896551586 0.0003
          0.0027777777777781 0.0066206896551586 0 0.0027777777777781 0.0066206896551586 0.00015
          0.0027777777777781 0.0066206896551586 0.0003 0.0032222222222227 0.0066206896551586 0
          0.0032222222222227 0.0066206896551586 0.00015 0.0032222222222227 0.0066206896551586 0.0003
          0.0036666666666663 0.0066206896551586 0 0.0036666666666663 0.0066206896551586 0.00015
          0.0036666666666663 0.0066206896551586 0.0003 0.0041111111111115 0.0066206896551586 0
          0.0041111111111115 0.0066206896551586 0.00015 0.0041111111111115 0.0066206896551586 0.0003
          0.0045555555555559 0.0066206896551586 0 0.0045555555555559 0.0066206896551586 0.00015
          0.0045555555555559 0.0066206896551586 0.0003 0.005 0.0066206896551586 0
          0.005 0.0066206896551586 0.00015 0.005 0.0066206896551586 0.0003
          0.0018888888888894 0.0070344827586082 0 0.0018888888888894 0.0070344827586082 0.00015
          0.0018888888888894 0.0070344827586082 0.0003 0.0023333333333342 0.0070344827586082 0
          0.0023333333333342 0.0070344827586082 0.00015 0.0023333333333342 0.0070344827586082 0.0003
          0.0027777777777784 0.0070344827586082 0 0.0027777777777784 0.0070344827586082 0.00015
          0.0027777777777784 0.0070344827586082 0.0003 0.003222222222223 0.0070344827586082 0
          0.003222222222223 0.0070344827586082 0.00015 0.003222222222223 0.0070344827586082 0.0003
          0.0036666666666665 0.0070344827586082 0 0.0036666666666665 0.0070344827586082 0.00015
          0.0036666666666665 0.0070344827586082 0.0003 0.0041111111111116 0.0070344827586082 0
          0.0041111111111116 0.0070344827586082 0.00015 0.0041111111111116 0.0070344827586082 0.0003
          0.0045555555555559 0.0070344827586082 0 0.0045555555555559 0.0070344827586082 0.00015
          0.0045555555555559 0.0070344827586082 0.0003 0.005 0.0070344827586082 0
          0.005 0.0070344827586082 0.00015 0.005 0.0070344827586082 0.0003
          0.0018888888888895 0.0074482758620575 0 0.0018888888888895 0.0074482758620575 0.00015
          0.0018888888888895 0.0074482758620575 0.0003 0.0023333333333344 0.0074482758620575 0
          0.0023333333333344 0.0074482758620575 0.00015 0.0023333333333344 0.0074482758620575 0.0003
          0.0027777777777787 0.0074482758620575 0 0.0027777777777787 0.0074482758620575 0.00015
          0.0027777777777787 0.0074482758620575 0.0003 0.0032222222222233 0.0074482758620575 0
          0.0032222222222233 0.0074482758620575 0.00015 0.0032222222222233 0.0074482758620575 0.0003
          0.0036666666666666 0.0074482758620576 0 0.0036666666666666 0.0074482758620576 0.00015
          0.0036666666666666 0.0074482758620576 0.0003 0.0041111111111118 0.0074482758620576 0
          0.0041111111111118 0.0074482758620576 0.00015 0.0041111111111118 0.0074482758620576 0.0003
          0.0045555555555559 0.0074482758620576 0 0.0045555555555559 0.0074482758620576 0.00015
          0.0045555555555559 0.0074482758620576 0.0003 0.005 0.0074482758620575 0
          0.005 0.0074482758620575 0.00015 0.005 0.0074482758620575 0.0003
          0.0023333333333346 0.0078620689655065 0 0.0023333333333346 0.0078620689655065 0.00015
          0.0023333333333346 0.0078620689655065 0.0003 0.002777777777779 0.0078620689655065 0
          0.002777777777779 0.0078620689655065 0.00015 0.002777777777779 0.0078620689655065 0.0003
          0.0032222222222236 0.0078620689655065 0 0.0032222222222236 0.0078620689655065 0.00015
          0.0032222222222236 0.0078620689655065 0.0003 0.0036666666666668 0.0078620689655065 0
          0.0036666666666668 0.0078620689655065 0.00015 0.0036666666666668 0.0078620689655065 0.0003
          0.0041111111111119 0.0078620689655065 0 0.0041111111111119 0.0078620689655065 0.00015
          0.0041111111111119 0.0078620689655065 0.0003 0.004555555555556 0.0078620689655065 0
          0.004555555555556 0.0078620689655065 0.00015 0.004555555555556 0.0078620689655065 0.0003
          0.005 0.0078620689655065 0 0.005 0.0078620689655065 0.00015
          0.005 0.0078620689655065 0.0003 0.0023333333333348 0.0082758620689564 0
          0.0023333333333348 0.0082758620689564 0.00015 0.0023333333333348 0.0082758620689564 0.0003
          0.0027777777777793 0.0082758620689564 0 0.0027777777777793 0.0082758620689564 0.00015
          0.0027777777777793 0.0082758620689564 0.0003 0.0032222222222239 0.0082758620689564 0
          0.0032222222222239 0.0082758620689564 0.00015 0.0032222222222239 0.0082758620689564 0.0003
          0.003666666666667 0.0082758620689564 0 0.003666666666667 0.0082758620689564 0.00015
          0.003666666666667 0.0082758620689564 0.0003 0.0041111111111121 0.0082758620689564 0
          0.0041111111111121 0.0082758620689564 0.00015 0.0041111111111121 0.0082758620689564 0.0003
          0.004555555555556 0.0082758620689564 0 0.004555555555556 0.0082758620689564 0.00015
          0.004555555555556 0.0082758620689564 0.0003 0.005 0.0082758620689564 0
          0.005 0.0082758620689564 0.00015 0.005 0.0082758620689564 0.0003
          0.002333333333335 0.0086896551724064 0 0.002333333333335 0.0086896551724064 0.00015
          0.002333333333335 0.0086896551724064 0.0003 0.0027777777777796 0.0086896551724064 0
          0.0027777777777796 0.0086896551724064 0.00015 0.0027777777777796 0.0086896551724064 0.0003
          0.0032222222222242 0.0086896551724064 0 0.0032222222222242 0.0086896551724064 0.00015
          0.0032222222222242 0.0086896551724064 0.0003 0.0036666666666672 0.0086896551724064 0
          0.0036666666666672 0.0086896551724064 0.00015 0.0036666666666672 0.0086896551724064 0.0003
          0.0041111111111122 0.0086896551724064 0 0.0041111111111122 0.0086896551724064 0.00015
          0.0041111111111122 0.0086896551724064 0.0003 0.004555555555556 0.0086896551724064 0
          0.004555555555556 0.0086896551724064 0.00015 0.004555555555556 0.0086896551724064 0.0003
          0.0023333333333351 0.0091034482758539 0 0.0023333333333351 0.0091034482758539 0.00015
          0.0023333333333351 0.0091034482758539 0.0003 0.0027777777777799 0.0091034482758539 0
          0.0027777777777799 0.0091034482758539 0.00015 0.0027777777777799 0.0091034482758539 0.0003
          0.0032222222222245 0.0091034482758539 0 0.0032222222222245 0.0091034482758539 0.00015
          0.0032222222222245 0.0091034482758539 0.0003 0.0036666666666673 0.0091034482758539 0
          0.0036666666666673 0.0091034482758539 0.00015 0.0036666666666673 0.0091034482758539 0.0003
          0.0041111111111124 0.0091034482758539 0 0.0041111111111124 0.0091034482758539 0.00015
          0.0041111111111124 0.0091034482758539 0.0003 0.0058597010152523 0.0063127004857001 0
          0.0053951839928307 0.0062556571299739 0 0.0053921082338215 0.005828945826549 0
          0.0057916174309905 0.0058352682535246 0 0.0058597010152523 0.0063127004857001 0.00015
          0.0053951839928307 0.0062556571299739 0.00015 0.0053921082338215 0.005828945826549 0.00015
          0.0057916174309905 0.0058352682535246 0.00015 0.0058597010152523 0.0063127004857001 0.0003
          0.0053951839928307 0.0062556571299739 0.0003 0.0053921082338215 0.005828945826549 0.0003
          0.0057916174309905 0.0058352682535246 0.0003 0.0057558905586118 0.0030553709280972 0
          0.0057130501801562 0.0035159257865852 0 0.005360618756523 0.0035837068269911 0
          0.0053739732009329 0.0031599138809835 0 0.0057558905586118 0.0030553709280972 0.00015
          0.0057130501801562 0.0035159257865852 0.00015 0.005360618756523 0.0035837068269911 0.00015
          0.0053739732009329 0.0031599138809835 0.00015 0.0057558905586118 0.0030553709280972 0.0003
          0.0057130501801562 0.0035159257865852 0.0003 0.005360618756523 0.0035837068269911 0.0003
          0.0053739732009329 0.0031599138809835 0.0003 0.0056439388514995 0.0075162532529611 0
          0.0053753336003136 0.0081134227852172 0 0.0053162760057692 0.0077147827843445 0
          0.0056439388514995 0.0075162532529611 0.00015 0.0053753336003136 0.0081134227852172 0.00015
          0.0053162760057692 0.0077147827843445 0.00015 0.0056439388514995 0.0075162532529611 0.0003
          0.0053753336003136 0.0081134227852172 0.0003 0.0053162760057692 0.0077147827843445 0.0003
          0.0059025575310583 0.0073410103875386 0 0.0059025575310583 0.0073410103875386 0.00015
          0.0059025575310583 0.0073410103875386 0.0003 0.005369078903807 0.0054112957512825 0
          0.0053441966179727 0.0050059769161847 0 0.0056930202847481 0.0049554676612008 0
          0.0057606246390047 0.0053811345728149 0 0.005369078903807 0.0054112957512825 0.00015
          0.0053441966179727 0.0050059769161847 0.00015 0.0056930202847481 0.0049554676612008 0.00015
          0.0057606246390047 0.0053811345728149 0.00015 0.005369078903807 0.0054112957512825 0.0003
          0.0053441966179727 0.0050059769161847 0.0003 0.0056930202847481 0.0049554676612008 0.0003
          0.0057606246390047 0.0053811345728149 0.0003 0.0057438065986578 0.0025718646608386 0
          0.0053684283361675 0.002728434685479 0 0.0057438065986578 0.0025718646608386 0.00015
          0.0053684283361675 0.002728434685479 0.00015 0.0057438065986578 0.0025718646608386 0.0003
          0.0053684283361675 0.002728434685479 0.0003 0.0061712548385041 0.0061513410385421 0
          0.006445117357903 0.0062971891343806 0 0.0062246515840748 0.0066057171706914 0
          0.0061712548385041 0.0061513410385421 0.00015 0.006445117357903 0.0062971891343806 0.00015
          0.0062246515840748 0.0066057171706914 0.00015 0.0061712548385041 0.0061513410385421 0.0003
          0.006445117357903 0.0062971891343806 0.0003 0.0062246515840748 0.0066057171706914 0.0003
          0.0053553835295756 0.0022900157905326 0 0.0057116151882083 0.0021168511926722 0
          0.0053553835295756 0.0022900157905326 0.00015 0.0057116151882083 0.0021168511926722 0.00015
          0.0053553835295756 0.0022900157905326 0.0003 0.0057116151882083 0.0021168511926722 0.0003
          0.0054233068561349 0.007134337670225 0 0.0059254586078826 0.006969673542248 0
          0.0054233068561349 0.007134337670225 0.00015 0.0059254586078826 0.006969673542248 0.00015
          0.0054233068561349 0.007134337670225 0.0003 0.0059254586078826 0.006969673542248 0.0003
          0.0057792643598707 0.0040250905144168 0 0.0057792643598707 0.0040250905144168 0.00015
          0.0057792643598707 0.0040250905144168 0.0003 0.0061880810420103 0.0058441905555885 0
          0.0066005814160285 0.0059502230786403 0 0.0061880810420103 0.0058441905555885 0.00015
          0.0066005814160285 0.0059502230786403 0.00015 0.0061880810420103 0.0058441905555885 0.0003
          0.0066005814160285 0.0059502230786403 0.0003 0.0054017220983371 0.0066575347525889 0
          0.0057115805714605 0.0066548075405697 0 0.0054017220983371 0.0066575347525889 0.00015
          0.0057115805714605 0.0066548075405697 0.00015 0.0054017220983371 0.0066575347525889 0.0003
          0.0057115805714605 0.0066548075405697 0.0003 0.005332609719228 0.0047287620137874 0
          0.0055816175545808 0.004587255111362 0 0.005332609719228 0.0047287620137874 0.00015
          0.0055816175545808 0.004587255111362 0.00015 0.005332609719228 0.0047287620137874 0.0003
          0.0055816175545808 0.004587255111362 0.0003 0.0053693194142364 0.0039518184911864 0
          0.0054474185858658 0.0042751360204936 0 0.0053693194142364 0.0039518184911864 0.00015
          0.0054474185858658 0.0042751360204936 0.00015 0.0053693194142364 0.0039518184911864 0.0003
          0.0054474185858658 0.0042751360204936 0.0003 0.0053395672611724 0.0018614292474742 0
          0.0053395672611724 0.0018614292474742 0.00015 0.0053395672611724 0.0018614292474742 0.0003
          0.0053367365074525 0.0010378216876611 0 0.0053236825500972 0.0014543115259673 0
          0.0053367365074525 0.0010378216876611 0.00015 0.0053236825500972 0.0014543115259673 0.00015
          0.0053367365074525 0.0010378216876611 0.0003 0.0053236825500972 0.0014543115259673 0.0003
          0.0056326688189693 0.0038271453778623 0 0.0056326688189693 0.0038271453778623 0.00015
          0.0056326688189693 0.0038271453778623 0.0003 0.0053236477572007 0.00066751117045644 0
          0.0053236477572007 0.00066751117045644 0.00015 0.0053236477572007 0.00066751117045644 0.0003
          0.0052365987891119 0.0074441888076402 0 0.0052365987891119 0.0074441888076402 0.00015
          0.0052365987891119 0.0074441888076402 0.0003 0.0052651323069134 0.00040272801788152 0
          0.0052651323069134 0.00040272801788152 0.00015 0.0052651323069134 0.00040272801788152 0.0003
          0.005675081773805 0.0016743369040255 0 0.005675081773805 0.0016743369040255 0.00015
          0.005675081773805 0.0016743369040255 0.0003 0.0056481668838523 0.0012062671985027 0
          0.0056481668838523 0.0012062671985027 0.00015 0.0056481668838523 0.0012062671985027 0.0003
          0.0055517738097912 0.00099492145317098 0 0.0055517738097912 0.00099492145317098 0.00015
          0.0055517738097912 0.00099492145317098 0.0003 0.005 0.0086896551724064 0
          0.005 0.0086896551724064 0.00015 0.005 0.0086896551724064 0.0003
          0.0045555555555561 0.0091034482758539 0 0.0045555555555561 0.0091034482758539 0.00015
          0.0045555555555561 0.0091034482758539 0.0003 0.005 0.0091034482758539 0
          0.005 0.0091034482758539 0.00015 0.005 0.0091034482758539 0.0003
          0.0027777777777802 0.0095172413793029 0 0.0023333333333353 0.0095172413793029 0
          0.0027777777777802 0.0095172413793029 0.00015 0.0023333333333353 0.0095172413793029 0.00015
          0.0027777777777802 0.0095172413793029 0.0003 0.0023333333333353 0.0095172413793029 0.0003
          0.0032222222222248 0.0095172413793029 0 0.0032222222222248 0.0095172413793029 0.00015
          0.0032222222222248 0.0095172413793029 0.0003 0.0036666666666675 0.0095172413793029 0
          0.0036666666666675 0.0095172413793029 0.00015 0.0036666666666675 0.0095172413793029 0.0003
          0.0041111111111126 0.0095172413793029 0 0.0041111111111126 0.0095172413793029 0.00015
          0.0041111111111126 0.0095172413793029 0.0003 0.0045555555555561 0.0095172413793029 0
          0.0045555555555561 0.0095172413793029 0.00015 0.0045555555555561 0.0095172413793029 0.0003
          0.0058653844060618 0.0079194158644502 0 0.0058653844060618 0.0079194158644502 0.00015
          0.0058653844060618 0.0079194158644502 0.0003 0.0061750164335738 0.0074760206739226 0
          0.0061750164335738 0.0074760206739226 0.00015 0.0061750164335738 0.0074760206739226 0.0003
          0.0060512178389602 0.0047929387822649 0 0.0062389906493372 0.0053128670028646 0
          0.0060512178389602 0.0047929387822649 0.00015 0.0062389906493372 0.0053128670028646 0.00015
          0.0060512178389602 0.0047929387822649 0.0003 0.0062389906493372 0.0053128670028646 0.0003
          0.0068354780286894 0.0065149558629347 0 0.0065694481807909 0.0068273110654121 0
          0.0068354780286894 0.0065149558629347 0.00015 0.0065694481807909 0.0068273110654121 0.00015
          0.0068354780286894 0.0065149558629347 0.0003 0.0065694481807909 0.0068273110654121 0.0003
          0.0061614658010566 0.0029736343202522 0 0.0061372854142827 0.0036106222238676 0
          0.0061614658010566 0.0029736343202522 0.00015 0.0061372854142827 0.0036106222238676 0.00015
          0.0061614658010566 0.0029736343202522 0.0003 0.0061372854142827 0.0036106222238676 0.0003
          0.0061231952422177 0.002444135475079 0 0.0061231952422177 0.002444135475079 0.00015
          0.0061231952422177 0.002444135475079 0.0003 0.0063586074578252 0.0071353312088165 0
          0.0063586074578252 0.0071353312088165 0.00015 0.0063586074578252 0.0071353312088165 0.0003
          0.005927800859391 0.0043689372395662 0 0.0063054236008776 0.0041223407032968 0
          0.005927800859391 0.0043689372395662 0.00015 0.0063054236008776 0.0041223407032968 0.00015
          0.005927800859391 0.0043689372395662 0.0003 0.0063054236008776 0.0041223407032968 0.0003
          0.0070635342364542 0.0061542378287001 0 0.0070635342364542 0.0061542378287001 0.00015
          0.0070635342364542 0.0061542378287001 0.0003 0.0071984303565192 0.0057392272964834 0
          0.0067200519522164 0.0055550541115669 0 0.0071984303565192 0.0057392272964834 0.00015
          0.0067200519522164 0.0055550541115669 0.00015 0.0071984303565192 0.0057392272964834 0.0003
          0.0067200519522164 0.0055550541115669 0.0003 0.0053754057810206 0.0085370600870078 0
          0.0053754057810206 0.0085370600870078 0.00015 0.0053754057810206 0.0085370600870078 0.0003
          0.0060722038988066 0.0019538017587265 0 0.0060722038988066 0.0019538017587265 0.00015
          0.0060722038988066 0.0019538017587265 0.0003 0.0055128205128194 0 0
          0.0057061681768373 0.00065177476244477 0 0.0055128205128194 0 0.00015
          0.0057061681768373 0.00065177476244477 0.00015 0.0055128205128194 0 0.0003
          0.0057061681768373 0.00065177476244477 0.0003 0.0060137569775388 0.0015029488511318 0
          0.0060137569775388 0.0015029488511318 0.00015 0.0060137569775388 0.0015029488511318 0.0003
          0.0059245902968253 0.0010856763727913 0 0.0059245902968253 0.0010856763727913 0.00015
          0.0059245902968253 0.0010856763727913 0.0003 0.0057785311780113 0.0084598603588589 0
          0.0057785311780113 0.0084598603588589 0.00015 0.0057785311780113 0.0084598603588589 0.0003
          <InformationKey name="L2_NORM_RANGE" location="vtkDataArray" length="2">
            <Value index="0">
              0.0018888888889
            </Value>
            <Value index="1">
              0.010555613194
            </Value>
          </InformationKey>
        </DataArray>
      </Points>
      <Cells>
        <DataArray type="Int64" Name="connectivity" format="ascii" RangeMin="0" RangeMax="779">
          6 0 1 7 8 2
          3 9 8 2 3 9
          10 4 5 11 12 6
          7 13 14 8 9 15
          14 8 9 15 16 10
          11 17 18 12 13 19
          20 14 15 21 20 14
          15 21 22 16 17 23
          24 18 19 25 26 20
          21 27 26 20 21 27
          28 22 23 29 30 24
          25 31 32 26 27 33
          32 26 27 33 34 28
          29 35 36 30 31 37
          38 32 33 39 38 32
          33 39 40 34 35 41
          42 36 37 43 44 38
          39 45 44 38 39 45
          46 40 41 47 51 48
          0 6 52 49 2 8
          52 49 2 8 53 50
          4 10 54 51 6 12
          55 52 8 14 55 52
          8 14 56 53 10 16
          57 54 12 18 58 55
          14 20 58 55 14 20
          59 56 16 22 60 57
          18 24 61 58 20 26
          61 58 20 26 62 59
          22 28 63 60 24 30
          64 61 26 32 64 61
          26 32 65 62 28 34
          66 63 30 36 67 64
          32 38 67 64 32 38
          68 65 34 40 69 66
          36 42 70 67 38 44
          70 67 38 44 71 68
          40 46 75 72 48 51
          76 73 49 52 76 73
          49 52 77 74 50 53
          78 75 51 54 79 76
          52 55 79 76 52 55
          80 77 53 56 81 78
          54 57 82 79 55 58
          82 79 55 58 83 80
          56 59 84 81 57 60
          85 82 58 61 85 82
          58 61 86 83 59 62
          87 84 60 63 88 85
          61 64 88 85 61 64
          89 86 62 65 90 87
          63 66 91 88 64 67
          91 88 64 67 92 89
          65 68 93 90 66 69
          94 91 67 70 94 91
          67 70 95 92 68 71
          99 96 72 75 100 97
          73 76 100 97 73 76
          101 98 74 77 102 99
          75 78 103 100 76 79
          103 100 76 79 104 101
          77 80 105 102 78 81
          106 103 79 82 106 103
          79 82 107 104 80 83
          108 105 81 84 109 106
          82 85 109 106 82 85
          110 107 83 86 111 108
          84 87 112 109 85 88
          112 109 85 88 113 110
          86 89 114 111 87 90
          115 112 88 91 115 112
          88 91 116 113 89 92
          117 114 90 93 118 115
          91 94 118 115 91 94
          119 116 92 95 123 120
          96 99 124 121 97 100
          124 121 97 100 125 122
          98 101 126 123 99 102
          127 124 100 103 127 124
          100 103 128 125 101 104
          129 126 102 105 130 127
          103 106 130 127 103 106
          131 128 104 107 132 129
          105 108 133 130 106 109
          133 130 106 109 134 131
          107 110 135 132 108 111
          136 133 109 112 136 133
          109 112 137 134 110 113
          138 135 111 114 139 136
          112 115 139 136 112 115
          140 137 113 116 141 138
          114 117 142 139 115 118
          142 139 115 118 143 140
          116 119 147 144 120 123
          148 145 121 124 148 145
          121 124 149 146 122 125
          150 147 123 126 151 148
          124 127 151 148 124 127
          152 149 125 128 153 150
          126 129 154 151 127 130
          154 151 127 130 155 152
          128 131 156 153 129 132
          157 154 130 133 157 154
          130 133 158 155 131 134
          159 156 132 135 160 157
          133 136 160 157 133 136
          161 158 134 137 162 159
          135 138 163 160 136 139
          163 160 136 139 164 161
          137 140 165 162 138 141
          166 163 139 142 166 163
          139 142 167 164 140 143
          174 171 144 147 175 172
          145 148 175 172 145 148
          176 173 146 149 177 174
          147 150 178 175 148 151
          178 175 148 151 179 176
          149 152 180 177 150 153
          181 178 151 154 181 178
          151 154 182 179 152 155
          183 180 153 156 184 181
          154 157 184 181 154 157
          185 182 155 158 186 183
          156 159 187 184 157 160
          187 184 157 160 188 185
          158 161 189 186 159 162
          190 187 160 163 190 187
          160 163 191 188 161 164
          192 189 162 165 193 190
          163 166 193 190 163 166
          194 191 164 167 198 195
          168 171 199 196 169 172
          199 196 169 172 200 197
          170 173 201 198 171 174
          202 199 172 175 202 199
          172 175 203 200 173 176
          204 201 174 177 205 202
          175 178 205 202 175 178
          206 203 176 179 207 204
          177 180 208 205 178 181
          208 205 178 181 209 206
          179 182 210 207 180 183
          211 208 181 184 211 208
          181 184 212 209 182 185
          213 210 183 186 214 211
          184 187 214 211 184 187
          215 212 185 188 216 213
          186 189 217 214 187 190
          217 214 187 190 218 215
          188 191 219 216 189 192
          220 217 190 193 220 217
          190 193 221 218 191 194
          225 222 195 198 226 223
          196 199 226 223 196 199
          227 224 197 200 228 225
          198 201 229 226 199 202
          229 226 199 202 230 227
          200 203 231 228 201 204
          232 229 202 205 232 229
          202 205 233 230 203 206
          234 231 204 207 235 232
          205 208 235 232 205 208
          236 233 206 209 237 234
          207 210 238 235 208 211
          238 235 208 211 239 236
          209 212 240 237 210 213
          241 238 211 214 241 238
          211 214 242 239 212 215
          243 240 213 216 244 241
          214 217 244 241 214 217
          245 242 215 218 246 243
          216 219 247 244 217 220
          247 244 217 220 248 245
          218 221 252 249 222 225
          253 250 223 226 253 250
          223 226 254 251 224 227
          255 252 225 228 256 253
          226 229 256 253 226 229
          257 254 227 230 258 255
          228 231 259 256 229 232
          259 256 229 232 260 257
          230 233 261 258 231 234
          262 259 232 235 262 259
          232 235 263 260 233 236
          264 261 234 237 265 262
          235 238 265 262 235 238
          266 263 236 239 267 264
          237 240 268 265 238 241
          268 265 238 241 269 266
          239 242 270 267 240 243
          271 268 241 244 271 268
          241 244 272 269 242 245
          273 270 243 246 274 271
          244 247 274 271 244 247
          275 272 245 248 279 276
          249 252 280 277 250 253
          280 277 250 253 281 278
          251 254 282 279 252 255
          283 280 253 256 283 280
          253 256 284 281 254 257
          285 282 255 258 286 283
          256 259 286 283 256 259
          287 284 257 260 288 285
          258 261 289 286 259 262
          289 286 259 262 290 287
          260 263 291 288 261 264
          292 289 262 265 292 289
          262 265 293 290 263 266
          294 291 264 267 295 292
          265 268 295 292 265 268
          296 293 266 269 297 294
          267 270 298 295 268 271
          298 295 268 271 299 296
          269 272 300 297 270 273
          301 298 271 274 301 298
          271 274 302 299 272 275
          306 303 276 279 307 304
          277 280 307 304 277 280
          308 305 278 281 309 306
          279 282 310 307 280 283
          310 307 280 283 311 308
          281 284 312 309 282 285
          313 310 283 286 313 310
          283 286 314 311 284 287
          315 312 285 288 316 313
          286 289 316 313 286 289
          317 314 287 290 318 315
          288 291 319 316 289 292
          319 316 289 292 320 317
          290 293 321 318 291 294
          322 319 292 295 322 319
          292 295 323 320 293 296
          324 321 294 297 325 322
          295 298 325 322 295 298
          326 323 296 299 327 324
          297 300 328 325 298 301
          328 325 298 301 329 326
          299 302 333 330 303 306
          334 331 304 307 334 331
          304 307 335 332 305 308
          336 333 306 309 337 334
          307 310 337 334 307 310
          338 335 308 311 339 336
          309 312 340 337 310 313
          340 337 310 313 341 338
          311 314 342 339 312 315
          343 340 313 316 343 340
          313 316 344 341 314 317
          345 342 315 318 346 343
          316 319 346 343 316 319
          347 344 317 320 348 345
          318 321 349 346 319 322
          349 346 319 322 350 347
          320 323 351 348 321 324
          352 349 322 325 352 349
          322 325 353 350 323 326
          354 351 324 327 355 352
          325 328 355 352 325 328
          356 353 326 329 360 357
          330 333 361 358 331 334
          361 358 331 334 362 359
          332 335 363 360 333 336
          364 361 334 337 364 361
          334 337 365 362 335 338
          366 363 336 339 367 364
          337 340 367 364 337 340
          368 365 338 341 369 366
          339 342 370 367 340 343
          370 367 340 343 371 368
          341 344 372 369 342 345
          373 370 343 346 373 370
          343 346 374 371 344 347
          375 372 345 348 376 373
          346 349 376 373 346 349
          377 374 347 350 378 375
          348 351 379 376 349 352
          379 376 349 352 380 377
          350 353 381 378 351 354
          382 379 352 355 382 379
          352 355 383 380 353 356
          387 384 360 363 388 385
          361 364 388 385 361 364
          389 386 362 365 390 387
          363 366 391 388 364 367
          391 388 364 367 392 389
          365 368 393 390 366 369
          394 391 367 370 394 391
          367 370 395 392 368 371
          396 393 369 372 397 394
          370 373 397 394 370 373
          398 395 371 374 399 396
          372 375 400 397 373 376
          400 397 373 376 401 398
          374 377 402 399 375 378
          403 400 376 379 403 400
          376 379 404 401 377 380
          405 402 378 381 406 403
          379 382 406 403 379 382
          407 404 380 383 411 408
          384 387 412 409 385 388
          412 409 385 388 413 410
          386 389 414 411 387 390
          415 412 388 391 415 412
          388 391 416 413 389 392
          417 414 390 393 418 415
          391 394 418 415 391 394
          419 416 392 395 420 417
          393 396 421 418 394 397
          421 418 394 397 422 419
          395 398 423 420 396 399
          424 421 397 400 424 421
          397 400 425 422 398 401
          426 423 399 402 427 424
          400 403 427 424 400 403
          428 425 401 404 429 426
          402 405 430 427 403 406
          430 427 403 406 431 428
          404 407 435 432 408 411
          436 433 409 412 436 433
          409 412 437 434 410 413
          438 435 411 414 439 436
          412 415 439 436 412 415
          440 437 413 416 441 438
          414 417 442 439 415 418
          442 439 415 418 443 440
          416 419 444 441 417 420
          445 442 418 421 445 442
          418 421 446 443 419 422
          447 444 420 423 448 445
          421 424 448 445 421 424
          449 446 422 425 450 447
          423 426 451 448 424 427
          451 448 424 427 452 449
          425 428 453 450 426 429
          454 451 427 430 454 451
          427 430 455 452 428 431
          459 456 432 435 460 457
          433 436 460 457 433 436
          461 458 434 437 462 459
          435 438 463 460 436 439
          463 460 436 439 464 461
          437 440 465 462 438 441
          466 463 439 442 466 463
          439 442 467 464 440 443
          468 465 441 444 469 466
          442 445 469 466 442 445
          470 467 443 446 471 468
          444 447 472 469 445 448
          472 469 445 448 473 470
          446 449 474 471 447 450
          475 472 448 451 475 472
          448 451 476 473 449 452
          477 474 450 453 478 475
          451 454 478 475 451 454
          479 476 452 455 483 480
          459 462 484 481 460 463
          484 481 460 463 485 482
          461 464 486 483 462 465
          487 484 463 466 487 484
          463 466 488 485 464 467
          489 486 465 468 490 487
          466 469 490 487 466 469
          491 488 467 470 492 489
          468 471 493 490 469 472
          493 490 469 472 494 491
          470 473 495 492 471 474
          496 493 472 475 496 493
          472 475 497 494 473 476
          498 495 474 477 499 496
          475 478 499 496 475 478
          500 497 476 479 504 501
          480 483 505 502 481 484
          505 502 481 484 506 503
          482 485 507 504 483 486
          508 505 484 487 508 505
          484 487 509 506 485 488
          510 507 486 489 511 508
          487 490 511 508 487 490
          512 509 488 491 513 510
          489 492 514 511 490 493
          514 511 490 493 515 512
          491 494 516 513 492 495
          517 514 493 496 517 514
          493 496 518 515 494 497
          519 516 495 498 520 517
          496 499 520 517 496 499
          521 518 497 500 525 522
          501 504 526 523 502 505
          526 523 502 505 527 524
          503 506 528 525 504 507
          529 526 505 508 529 526
          505 508 530 527 506 509
          531 528 507 510 532 529
          508 511 532 529 508 511
          533 530 509 512 534 531
          510 513 535 532 511 514
          535 532 511 514 536 533
          512 515 537 534 513 516
          538 535 514 517 538 535
          514 517 539 536 515 518
          687 537 516 519 688 538
          517 520 688 538 517 520
          689 539 518 521 543 540
          522 525 544 541 523 526
          544 541 523 526 545 542
          524 527 546 543 525 528
          547 544 526 529 547 544
          526 529 548 545 527 530
          549 546 528 531 550 547
          529 532 550 547 529 532
          551 548 530 533 552 549
          531 534 553 550 532 535
          553 550 532 535 554 551
          533 536 690 552 534 537
          691 553 535 538 691 553
          535 538 692 554 536 539
          693 690 537 687 694 691
          538 688 694 691 538 688
          695 692 539 689 696 697
          540 543 698 699 541 544
          698 699 541 544 700 701
          542 545 702 696 543 546
          703 698 544 547 703 698
          544 547 704 700 545 548
          705 702 546 549 706 703
          547 550 706 703 547 550
          707 704 548 551 708 705
          549 552 709 706 550 553
          709 706 550 553 710 707
          551 554 711 708 552 690
          712 709 553 691 712 709
          553 691 713 710 554 692
          555 556 557 558 559 560
          561 562 559 560 561 562
          563 564 565 566 567 568
          569 570 571 572 573 574
          571 572 573 574 575 576
          577 578 579 714 580 581
          582 715 583 584 582 715
          583 584 585 716 586 587
          579 588 717 714 582 589
          718 715 582 589 718 715
          585 590 719 716 591 592
          593 594 595 596 597 598
          595 596 597 598 599 600
          601 602 594 558 557 591
          598 562 561 595 598 562
          561 595 602 566 565 599
          603 567 570 604 605 571
          574 606 605 571 574 606
          607 575 578 608 555 609
          610 611 559 612 613 614
          559 612 613 614 563 615
          616 617 594 593 720 721
          598 597 722 723 598 597
          722 723 602 601 724 725
          726 727 611 610 728 729
          614 613 728 729 614 613
          730 731 617 616 567 732
          733 568 571 734 735 572
          571 734 735 572 575 736
          737 576 604 618 619 603
          606 620 621 605 606 620
          621 605 608 622 623 607
          567 603 738 732 571 605
          739 734 571 605 739 734
          575 607 740 736 579 624
          625 588 582 626 627 589
          582 626 627 589 585 628
          629 590 625 741 717 588
          627 742 718 589 627 742
          718 589 629 743 719 590
          744 630 733 745 746 631
          735 747 746 631 735 747
          748 632 737 749 633 634
          610 609 635 636 613 612
          635 636 613 612 637 638
          616 615 634 750 726 610
          636 751 728 613 636 751
          728 613 638 752 730 616
          555 558 633 609 559 562
          635 612 559 562 635 612
          563 566 637 615 753 750
          634 754 755 751 636 756
          755 751 636 756 757 752
          638 758 639 640 625 624
          641 642 627 626 641 642
          627 626 643 644 629 628
          625 611 727 741 627 614
          729 742 627 614 729 742
          629 617 731 743 634 633
          721 754 636 635 723 756
          636 635 723 756 638 637
          725 758 580 759 687 519
          583 760 688 520 583 760
          688 520 586 761 689 521
          581 580 519 498 584 583
          520 499 584 583 520 499
          587 586 521 500 592 645
          646 593 596 647 648 597
          596 647 648 597 600 649
          650 601 651 652 300 273
          653 654 301 274 653 654
          301 274 655 656 302 275
          569 651 273 246 573 653
          274 247 573 653 274 247
          577 655 275 248 556 405
          381 557 560 406 382 561
          560 406 382 561 564 407
          383 565 570 569 246 219
          574 573 247 220 574 573
          247 220 578 577 248 221
          557 381 354 591 561 382
          355 595 561 382 355 595
          565 383 356 599 604 570
          219 192 606 574 220 193
          606 574 220 193 608 578
          221 194 640 555 611 625
          642 559 614 627 642 559
          614 627 644 563 617 629
          618 604 192 165 620 606
          193 166 620 606 193 166
          622 608 194 167 657 618
          165 141 658 620 166 142
          658 620 166 142 659 622
          167 143 660 661 117 93
          662 663 118 94 662 663
          118 94 664 665 119 95
          661 657 141 117 663 658
          142 118 663 658 142 118
          665 659 143 119 762 738
          603 619 763 739 605 621
          763 739 605 621 764 740
          607 623 429 639 624 453
          430 641 626 454 430 641
          626 454 431 643 628 455
          666 568 733 630 667 572
          735 631 667 572 735 631
          668 576 737 632 669 660
          93 69 670 662 94 70
          670 662 94 70 671 664
          95 71 592 327 300 645
          596 328 301 647 596 328
          301 647 600 329 302 649
          721 633 558 594 723 635
          562 598 723 635 562 598
          725 637 566 602 744 720
          593 646 746 722 597 648
          746 722 597 648 748 724
          601 650 477 453 624 672
          478 454 626 673 478 454
          626 673 479 455 628 674
          327 592 591 354 328 596
          595 355 328 596 595 355
          329 600 599 356 669 675
          765 766 670 676 767 768
          670 676 767 768 671 677
          769 770 639 429 405 556
          641 430 406 560 641 430
          406 560 643 431 407 564
          581 672 624 579 584 673
          626 582 584 673 626 582
          587 674 628 585 678 619
          618 657 679 621 620 658
          679 621 620 658 680 623
          622 659 42 43 765 675
          44 45 767 676 44 45
          767 676 46 47 769 677
          646 645 300 652 648 647
          301 654 648 647 301 654
          650 649 302 656 619 678
          771 762 621 679 772 763
          621 679 772 763 623 680
          773 764 744 646 652 630
          746 648 654 631 746 648
          654 631 748 650 656 632
          678 681 774 771 679 682
          775 772 679 682 775 772
          680 683 776 773 681 678
          657 661 682 679 658 663
          682 679 658 663 683 680
          659 665 666 630 652 651
          667 631 654 653 667 631
          654 653 668 632 656 655
          651 569 568 666 653 573
          572 667 653 573 572 667
          655 577 576 668 681 684
          766 774 682 685 768 775
          682 685 768 775 683 686
          770 776 759 580 714 777
          760 583 715 778 760 583
          715 778 761 586 716 779
          672 581 498 477 673 584
          499 478 673 584 499 478
          674 587 500 479 639 556
          555 640 641 560 559 642
          641 560 559 642 643 564
          563 644 675 669 69 42
          676 670 70 44 676 670
          70 44 677 671 71 46
          684 681 661 660 685 682
          663 662 685 682 663 662
          686 683 665 664 660 669
          766 684 662 670 768 685
          662 670 768 685 664 671
          770 686
        </DataArray>
        <DataArray type="Int64" Name="offsets" format="ascii" RangeMin="8" RangeMax="3632">
          8 16 24 32 40 48
          56 64 72 80 88 96
          104 112 120 128 136 144
          152 160 168 176 184 192
          200 208 216 224 232 240
          248 256 264 272 280 288
          296 304 312 320 328 336
          344 352 360 368 376 384
          392 400 408 416 424 432
          440 448 456 464 472 480
          488 496 504 512 520 528
          536 544 552 560 568 576
          584 592 600 608 616 624
          632 640 648 656 664 672
          680 688 696 704 712 720
          728 736 744 752 760 768
          776 784 792 800 808 816
          824 832 840 848 856 864
          872 880 888 896 904 912
          920 928 936 944 952 960
          968 976 984 992 1000 1008
          1016 1024 1032 1040 1048 1056
          1064 1072 1080 1088 1096 1104
          1112 1120 1128 1136 1144 1152
          1160 1168 1176 1184 1192 1200
          1208 1216 1224 1232 1240 1248
          1256 1264 1272 1280 1288 1296
          1304 1312 1320 1328 1336 1344
          1352 1360 1368 1376 1384 1392
          1400 1408 1416 1424 1432 1440
          1448 1456 1464 1472 1480 1488
          1496 1504 1512 1520 1528 1536
          1544 1552 1560 1568 1576 1584
          1592 1600 1608 1616 1624 1632
          1640 1648 1656 1664 1672 1680
          1688 1696 1704 1712 1720 1728
          1736 1744 1752 1760 1768 1776
          1784 1792 1800 1808 1816 1824
          1832 1840 1848 1856 1864 1872
          1880 1888 1896 1904 1912 1920
          1928 1936 1944 1952 1960 1968
          1976 1984 1992 2000 2008 2016
          2024 2032 2040 2048 2056 2064
          2072 2080 2088 2096 2104 2112
          2120 2128 2136 2144 2152 2160
          2168 2176 2184 2192 2200 2208
          2216 2224 2232 2240 2248 2256
          2264 2272 2280 2288 2296 2304
          2312 2320 2328 2336 2344 2352
          2360 2368 2376 2384 2392 2400
          2408 2416 2424 2432 2440 2448
          2456 2464 2472 2480 2488 2496
          2504 2512 2520 2528 2536 2544
          2552 2560 2568 2576 2584 2592
          2600 2608 2616 2624 2632 2640
          2648 2656 2664 2672 2680 2688
          2696 2704 2712 2720 2728 2736
          2744 2752 2760 2768 2776 2784
          2792 2800 2808 2816 2824 2832
          2840 2848 2856 2864 2872 2880
          2888 2896 2904 2912 2920 2928
          2936 2944 2952 2960 2968 2976
          2984 2992 3000 3008 3016 3024
          3032 3040 3048 3056 3064 3072
          3080 3088 3096 3104 3112 3120
          3128 3136 3144 3152 3160 3168
          3176 3184 3192 3200 3208 3216
          3224 3232 3240 3248 3256 3264
          3272 3280 3288 3296 3304 3312
          3320 3328 3336 3344 3352 3360
          3368 3376 3384 3392 3400 3408
          3416 3424 3432 3440 3448 3456
          3464 3472 3480 3488 3496 3504
          3512 3520 3528 3536 3544 3552
          3560 3568 3576 3584 3592 3600
          3608 3616 3624 3632
        </DataArray>
        <DataArray type="UInt8" Name="types" format="ascii" RangeMin="12" RangeMax="12">
          12 12 12 12 12 12
          12 12 12 12 12 12
          12 12 12 12 12 12
          12 12 12 12 12 12
          12 12 12 12 12 12
          12 12 12 12 12 12
          12 12 12 12 12 12
          12 12 12 12 12 12
          12 12 12 12 12 12
          12 12 12 12 12 12
          12 12 12 12 12 12
          12 12 12 12 12 12
          12 12 12 12 12 12
          12 12 12 12 12 12
          12 12 12 12 12 12
          12 12 12 12 12 12
          12 12 12 12 12 12
          12 12 12 12 12 12
          12 12 12 12 12 12
          12 12 12 12 12 12
          12 12 12 12 12 12
          12 12 12 12 12 12
          12 12 12 12 12 12
          12 12 12 12 12 12
          12 12 12 12 12 12
          12 12 12 12 12 12
          12 12 12 12 12 12
          12 12 12 12 12 12
          12 12 12 12 12 12
          12 12 12 12 12 12
          12 12 12 12 12 12
          12 12 12 12 12 12
          12 12 12 12 12 12
          12 12 12 12 12 12
          12 12 12 12 12 12
          12 12 12 12 12 12
          12 12 12 12 12 12
          12 12 12 12 12 12
          12 12 12 12 12 12
          12 12 12 12 12 12
          12 12 12 12 12 12
          12 12 12 12 12 12
          12 12 12 12 12 12
          12 12 12 12 12 12
          12 12 12 12 12 12
          12 12 12 12 12 12
          12 12 12 12 12 12
          12 12 12 12 12 12
          12 12 12 12 12 12
          12 12 12 12 12 12
          12 12 12 12 12 12
          12 12 12 12 12 12
          12 12 12 12 12 12
          12 12 12 12 12 12
          12 12 12 12 12 12
          12 12 12 12 12 12
          12 12 12 12 12 12
          12 12 12 12 12 12
          12 12 12 12 12 12
          12 12 12 12 12 12
          12 12 12 12 12 12
          12 12 12 12 12 12
          12 12 12 12 12 12
          12 12 12 12 12 12
          12 12 12 12 12 12
          12 12 12 12 12 12
          12 12 12 12 12 12
          12 12 12 12 12 12
          12 12 12 12 12 12
          12 12 12 12 12 12
          12 12 12 12 12 12
          12 12 12 12 12 12
          12 12 12 12 12 12
          12 12 12 12 12 12
          12 12 12 12 12 12
          12 12 12 12
        </DataArray>
      </Cells>
    </Piece>
  </UnstructuredGrid>
</VTKFile>
