<?xml version="1.0"?>
<VTKFile type="UnstructuredGrid" version="0.1" byte_order="LittleEndian" header_type="UInt32" compressor="vtkZLibDataCompressor">
  <UnstructuredGrid>
    <Piece NumberOfPoints="783" NumberOfCells="456">
      <PointData>
        <DataArray type="Int32" Name="libmesh_node_id" format="ascii" RangeMin="1863" RangeMax="4982">
          1863 1864 1865 1887 1888 1889
          1890 1891 1892 1899 1900 1901
          1902 1903 1904 1905 1906 1907
          1908 1909 1910 1911 1912 1913
          1914 1915 1916 1917 1918 1919
          1926 1927 1928 1929 1930 1931
          1932 1933 1934 1935 1936 1937
          1938 1939 1940 1941 1942 1943
          1944 1945 1946 1950 1951 1952
          1953 1954 1955 1956 1957 1958
          1959 1960 1961 1962 1963 1964
          1965 1966 1967 1968 1969 1970
          1971 1972 1973 1977 1978 1979
          1980 1981 1982 1983 1984 1985
          1986 1987 1988 1989 1990 1991
          1992 1993 1994 1995 1996 1997
          1998 1999 2000 2004 2005 2006
          2007 2008 2009 2010 2011 2012
          2013 2014 2015 2016 2017 2018
          2019 2020 2021 2022 2023 2024
          2025 2026 2027 2031 2032 2033
          2034 2035 2036 2037 2038 2039
          2040 2041 2042 2043 2044 2045
          2046 2047 2048 2049 2050 2051
          2052 2053 2054 2058 2059 2060
          2061 2062 2063 2064 2065 2066
          2067 2068 2069 2070 2071 2072
          2073 2074 2075 2076 2077 2078
          2079 2080 2081 2082 2083 2084
          2085 2086 2087 2088 2089 2090
          2091 2092 2093 2094 2095 2096
          2097 2098 2099 2100 2101 2102
          2103 2104 2105 2106 2107 2108
          2109 2110 2111 2118 2119 2120
          2121 2122 2123 2136 2137 2138
          2139 2140 2141 2142 2143 2144
          2145 2146 2147 2154 2155 2156
          2157 2158 2159 2160 2161 2162
          2163 2165 2167 2169 2170 2171
          2172 2173 2174 2175 2176 2177
          2178 2179 2180 2181 2182 2183
          2209 2213 2217 2232 2233 2234
          2235 2236 2237 2238 2239 2240
          2241 2242 2243 2245 2247 2249
          2310 2311 2312 2313 2314 2315
          2364 2365 2366 2367 2368 2369
          2370 2371 2372 2373 2374 2375
          2574 2575 2576 2577 2578 2579
          2586 2587 2588 2589 2590 2591
          2634 2635 2636 2637 2638 2639
          2640 2641 2642 2673 2674 2675
          2676 2677 2678 2679 2680 2681
          2682 2683 2684 2727 2728 2729
          2730 2731 2732 2733 2734 2735
          2826 2827 2828 2829 2830 2831
          2832 2833 2834 2835 2836 2837
          2874 2875 2876 2877 2878 2879
          2901 2902 2903 2904 2905 2906
          2907 2908 2909 2910 2911 2912
          3003 3004 3005 3006 3007 3008
          3009 3010 3011 3012 3013 3014
          3015 3016 3017 3024 3025 3026
          3027 3028 3029 3030 3031 3032
          3033 3034 3035 3037 3038 3041
          3042 3045 3046 3048 3049 3050
          3051 3052 3053 3105 3106 3107
          3108 3109 3110 3168 3169 3170
          3171 3172 3173 3174 3175 3176
          3177 3178 3179 3228 3229 3230
          3231 3232 3233 3234 3235 3236
          3237 3238 3239 3246 3247 3248
          3249 3250 3251 3264 3265 3266
          3267 3268 3269 3375 3376 3377
          3393 3394 3395 3396 3397 3398
          3423 3424 3425 3426 3427 3428
          3429 3430 3431 3432 3433 3434
          3441 3442 3443 3444 3445 3446
          3465 3466 3467 3468 3469 3470
          3471 3472 3473 3474 3475 3476
          3477 3478 3479 3480 3481 3482
          3516 3517 3518 3546 3547 3548
          3549 3550 3551 3552 3553 3554
          3573 3574 3575 3576 3577 3578
          3600 3601 3602 3663 3664 3665
          3666 3667 3668 3705 3706 3707
          3723 3724 3725 3726 3727 3728
          3729 3730 3731 3732 3733 3734
          3789 3790 3791 3810 3811 3812
          3813 3814 3815 3819 3820 3821
          3840 3841 3842 3843 3844 3845
          3864 3865 3866 3891 3892 3893
          3894 3895 3896 3897 3898 3899
          3933 3934 3935 3936 3937 3938
          3945 3946 3947 3948 3949 3950
          3996 3997 3998 3999 4000 4001
          4002 4003 4004 4005 4006 4007
          4038 4039 4040 4071 4072 4073
          4074 4075 4076 4083 4084 4085
          4110 4111 4112 4113 4114 4115
          4131 4132 4133 4134 4135 4136
          4137 4138 4139 4140 4141 4142
          4143 4144 4145 4239 4240 4241
          4242 4243 4244 4245 4246 4247
          4248 4249 4250 4329 4330 4331
          4332 4333 4334 4356 4357 4358
          4359 4360 4361 4362 4363 4364
          4392 4393 4394 4419 4420 4421
          4446 4447 4448 4449 4450 4451
          4467 4468 4469 4479 4480 4481
          4503 4504 4505 4512 4513 4514
          4524 4525 4526 4542 4543 4544
          4548 4549 4550 4563 4564 4565
          4575 4576 4577 4596 4597 4598
          4632 4633 4634 4674 4675 4676
          4686 4687 4688 4755 4756 4757
          4758 4759 4760 4776 4777 4778
          4824 4825 4826 4827 4828 4829
          4839 4840 4841 4959 4960 4961
          4980 4981 4982 3036 3039 3040
          3043 3044 3047 3609 3693 3610
          3613 3695 3614 3617 3697 3618
          4021 4024 4027 4020 4023 4026
          4009 4008 4013 4012 4017 4016
          3671 4188 3675 4189 3679 4190
          2402 2409 2405 2410 2408 2411
          2389 4395 2393 4396 2397 4397
          2400 2403 2406 3939 4287 3941
          4288 3943 4289 3694 3696 3698
          4599 4380 4600 4384 4601 4388
          4830 4831 4832 4022 4025 4028
          4656 4657 4658
        </DataArray>
        <DataArray type="Float64" Name="resid_x" format="ascii" RangeMin="-0.00002017703239909352" RangeMax="0.000006352764496675434">
          -0.0000024534494090788783 -0.0000043173909574090175 -0.0000022159410668631807 -7.207014328658445e-7 -0.000001967642740074993 -0.0000038005781639594005
          4.015051713324169e-8 -4.211517197205694e-7 -0.0000023855031970887453 -0.0000036964315802689995 -0.000004662599457416761 -0.0000017040331025119926
          -3.827690522317795e-7 -0.0000010192151885801692 -6.984050996416968e-7 -0.000002071147033211318 -0.0000021022861328434672 -0.000001971494690056197
          -0.000001702966656913496 -0.000001969403197188413 -9.121798807409931e-7 -0.000003263705602774003 -2.7406472458135767e-7 -0.0000015194670508478225
          2.2888946982213554e-7 -0.000001243372052650571 -0.0000037220567118412262 -1.744771956913027e-7 -3.328364307497722e-7 -0.0000025215688695956473
          -2.5478856047200793e-7 -8.961616262403993e-7 1.0156886109946583e-7 4.795612539298943e-7 0.0000010545469851797051 1.3015510835767685e-7
          -5.078454998752591e-7 4.7045421458502545e-7 -7.946275201176078e-7 -6.47063327918751e-7 6.617347341197899e-7 -0.000001046551120542638
          -0.0000019866088062370224 -5.55001182012127e-7 -0.0000016897755278355575 -0.000002223403273160507 -0.0000013961916086602244 -0.0000028831454875755114
          -0.0000011902301682020777 7.633879195445559e-8 -0.0000023966092317362353 -0.0000019230347565457606 -0.0000014857290628889075 0.0000019736625040955857
          6.005905728301286e-7 0.00000144822779724052 0.000001451789217843391 3.6708605299917707e-7 0.0000014875425269345044 3.793101464033555e-7
          -8.904188599778706e-7 6.065979614167105e-7 -6.738763704827733e-7 -0.0000012655429779684368 8.248511215169785e-7 -0.0000012872079943049286
          -0.0000015999071010242005 3.161470508716846e-7 -0.0000018759913055221844 -0.0000023045084963646545 -7.968484130316256e-7 -0.0000026578557267287195
          -0.000001791215841373539 -1.2487431655383574e-7 -0.000003060988769121309 5.382650436480674e-7 0.0000020629457186949196 0.000003722991789967267
          0.0000011015990477591941 0.000003328274994496283 0.00000267606498172146 3.3019083267582516e-7 0.0000023334849886813558 8.521207437439671e-7
          -6.251238658938618e-7 0.0000013737645155886824 -4.710225169901605e-7 -0.0000013127030695780917 6.353672862280391e-7 -0.000001441272583169173
          -0.0000019608333211573736 -4.200635417284104e-8 -0.000002232812211344637 -0.000002696642409705241 -0.000001100485002902829 -0.000003047526075494744
          -0.0000020437983632159984 -3.0567964026673167e-7 -0.0000027997956025815895 0.0000019973713407672733 0.000005109213808474067 0.0000057850571621997915
          0.000002192393022459882 0.000005193229006161815 0.0000035217558531641657 3.9868161805234337e-7 0.0000026357506242025153 5.096360825573854e-7
          -8.289997994737064e-7 0.0000012916161038489804 -0.0000010373561901699802 -0.0000017265574470126666 1.6341915398676576e-7 -0.000002185961629486144
          -0.0000024191607043144714 -5.865293818407835e-7 -0.0000029492589046498097 -0.000003108516564487296 -0.0000018381602983064127 -0.0000037802568141342974
          -0.000002359558120001992 -7.496270719720144e-7 -0.0000034286204116940056 0.0000028463884893525915 0.000006352764496675434 0.000006137772846415146
          0.0000021591151831978905 0.000005121381657757773 0.000002681566209306041 -3.7224679161340646e-7 0.0000016620640524989128 -9.101018451085352e-7
          -0.000001614908665903414 1.5691111510118816e-7 -0.0000024652001558989056 -0.0000024975324441900426 -8.988681525767817e-7 -0.000003374702824743281
          -0.0000030506580875888645 -0.0000014167642884421738 -0.0000038773413612025465 -0.000003594285372554573 -0.0000023858991213820957 -0.000004429822359153235
          -0.0000028391288265927628 -0.000001282265226887347 -0.000004120687469022499 0.0000021606333751034157 0.000004959363597567545 0.0000034907841133247075
          5.170952461774903e-7 0.0000021348719406177885 -4.502308688092427e-7 -0.0000018669280304577096 -8.645345273804173e-7 -0.000003968636751221222
          -0.00000306421884410657 -0.000002175606794108109 -0.000004395034695292566 -0.0000033233036301205665 -0.0000023624557363155496 -0.0000044568779361542354
          -0.000003589376237678188 -0.00000248741968100763 -0.000004608924385141044 -0.000004019028618240661 -0.0000031994743837637785 -0.000005148739601779084
          -0.0000034967815502051636 -0.0000021681955725272317 -0.00000511598077657105 -0.0000022943919937290502 -0.0000023520833540846553 -0.0000010000690564559989
          -0.0000016774311701883704 -0.0000026778862644016854 -0.000003909185388395464 -0.0000030866060481971047 -0.000004955519625871041 -0.000004516018923594878
          -0.000005533785940925462 -0.000004556259422638931 -0.000005636267507269643 -0.0000023134320314976975 -0.0000043932950340008076 -0.000005927485596246562
          -0.000001513990132484544 -0.000003712237794273321 -0.000008580863307915826 -0.000012858411856608853 -0.000003128116083717103 -0.000005785541249192505
          -0.000010708606619541823 -0.000012839485804938544 -0.000005616609266789752 -0.000004650067035760763 -0.0000036122600324262066 -0.000005631720122467598
          -0.000005245888488769612 -0.000005815103970796542 -0.000007050733556668298 -0.0000060579583350817146 -0.0000054328643328549475 -0.000005576585760946884
          -0.0000042529180830364055 -0.0000058740062125473 -0.000005021178334674303 -0.000005954941445618367 -0.0000023633002534640367 -0.000006835691478912498
          -0.0000026320629759790572 -0.0000066143304104926415 -0.000003822224669244043 -0.000004291169537817829 -0.000010152851447731148 -0.000006118318747416751
          -0.00001693125857604727 -0.000004132667984602101 -0.000012041846393862077 -0.0000028254268487071243 -0.0000027993232059042583 -0.000003739613976816436
          -0.000004068487777078578 -0.0000032503465709488033 -0.000004810834144816645 -0.000005348834680174441 -0.000004660079478413515 -0.000006262261684431003
          -0.000010714559415925251 -0.00002017703239909352 -0.000014417391358989562 -0.000006547021419334165 -0.000010948444965963589 -0.000008168534296137953
          -0.000005170766168294261 -0.0000031294932044678703 -0.000008765133696853056 -0.0000040832268490831325 -0.000006548431004671507 -0.00000431339351819604
          -0.000004531177417332888 -0.000004102432498709341 -0.0000037388729854370695 -0.0000027863333885713715 -0.0000018076979151349093 -0.000003994981834010147
          -0.000004502910823100947 -0.000004978338671524085 -0.000004448850686067374 -0.000003320780652682487 -0.0000030784248197246455 -7.437939910648339e-7
          -5.214271455722397e-7 -0.000004467247573969324 -0.0000030921363086688913 -0.0000011365808926244725 -4.3418705952813497e-7 -0.000006997229729743815
          -0.000005329834449563364 -0.000002829971539553 -0.000003304971747608576 -0.000006724611485431353 -0.000008513910972229866 -0.000006842827358077841
          -7.501994272463008e-7 -0.000005562737568354237 -5.732545104164544e-7 -0.000006717459631211398 -0.000004798189905286243 -0.000007748003076679666
          -4.992421174243589e-7 -4.929916219698072e-7 -6.474302507442076e-7 2.7935544599788642e-8 -0.0000011710204855797102 -0.000002258576309532856
          -0.0000022667237603579693 -5.083774252678808e-7 -0.0000043276294561245265 -0.0000032993404854853026 -0.000003219413794219861 -0.000004006947802892569
          -0.000001378525402939701 -0.000002499943238309932 -6.359882708251163e-7 -0.0000035445342705942018 -0.000002557767355249041 -0.000004857382461032067
          -0.0000023242514498589273 -0.000003249552905981723 -7.990491426301816e-7 -0.000002099019903334387 -0.000004544881271550949 -0.000004606734254730682
          -0.0000020047664442968127 -0.0000015305067890825086 -0.000003001478132036439 -0.0000024795162100188506 -0.0000023675823357383052 -0.000004364386988475744
          -0.000003909960376358157 -0.000005829935260104335 -0.000004746617622508609 -8.669160620478067e-7 -6.915587976719095e-7 -7.70785860360057e-7
          -2.5323548058509004e-7 -0.0000020084321300517516 -0.0000030279346827644105 -0.0000025744595923415936 -0.0000021576951249047127 -0.000005357623194979233
          -0.000006050076200248 -0.000006728834492486513 -0.0000065206942746476315 -0.0000020858576862542444 -5.323957789071798e-7 -3.894751953170683e-7
          -0.000002206335556823036 -0.0000011258307481831764 -0.00000317045609010691 -0.0000027110450483425197 -0.000003470812780181909 -0.000005046016035681333
          -0.0000017344582411427112 -0.000005147370107427829 -0.000002179264708218609 -1.0129341987408225e-7 -0.0000035321921445508053 -0.000011575410867104008
          -0.000004396118632538082 -0.0000013358330953061603 -0.000005449699291837362 -0.0000088195089359977 -0.0000065567574230041 -0.000005018755782071338
          -0.000002677889184510285 -0.0000012137930421873833 -0.000002919409212154278 -3.398088249673137e-7 -0.0000035103406375025514 -0.0000020500808856072084
          -9.772164654142657e-7 -0.0000014690580988352409 -0.0000014689844236581706 -6.763739829329651e-7 -0.0000020626300872850223 -0.0000016286036667034764
          -0.000003911206773565823 -0.0000026888317872231227 -0.0000050861942133551 -0.000004816686733577491 -0.000007714157607918715 -0.000006218249470557602
          -0.0000026695935803067172 -0.0000025494086726696175 -7.083380603178924e-7 -0.0000012828281601429126 -0.0000024042546795111086 -7.545309247403154e-7
          -0.000003678831453635123 -0.000003708846025463064 -0.0000015997266136213995 -0.000004071438395092386 -0.0000033711124033386497 -0.0000032735839770037245
          -0.000002474781678807325 -0.000004941139644776271 -0.000004802871610976034 -0.0000010362141505959599 -0.0000013184244747055374 -0.0000015383151620307345
          -7.366024894484013e-7 -0.0000022115261790744967 -0.0000022942265199832335 -0.0000029783237958103115 -0.0000020686462924857096 -0.000004855891027832904
          -0.000005827832554428092 -0.000005435536310272049 -0.000005445804895698458 -0.000005170670377030451 -0.000004384448595545765 -0.00000972237939167453
          -0.000009894639810686945 -0.000007222926782457506 -0.000006935622447690193 -0.000001167236090227064 -0.0000012722943583121094 -0.0000015830691598717195
          -0.0000030847846378967425 -0.0000052516769808441666 -0.000005522853281647588 -0.000003334376790245508 -0.0000032347734092441627 -0.0000019297205461343836
          -0.0000024815067065642182 -0.0000035838075822941518 -0.000003946410164545888 -7.034553655138609e-7 -4.4635776774715197e-7 -1.436436330992663e-7
          -2.0588941662680327e-7 -0.0000018551998002269698 -0.0000028963314769869797 -0.0000011771164494245312 -0.000003141546756513236 -0.000004786056813421702
          -0.000005506856445403052 -0.000004917247488522847 -0.0000069061529871516925 -0.000005091654357136655 -0.0000042728391832502766 -0.000005268058911545026
          -0.0000033904356174785377 -0.0000025967857082420664 -0.000003087897068487777 -0.000004792454832314164 -0.000005567124600203144 -0.000006700242473733908
          -0.000007745005415227268 -0.0000062498973794067325 -0.0000057757040944350635 -0.000003947969005935192 -0.0000035031958321996015 -0.0000030406260429494125
          -0.000002743332040644475 -0.000004247202612273071 -0.000004452367388996237 -0.0000019362071751460874 -0.000004407748977808268 -8.496164962679131e-7
          -0.000004589497397788911 -0.00000441603153611414 -0.000005176112348848072 -0.000004186023395691407 -0.0000018204753545747465 -0.000004227347462415487
          -0.000007128485988938671 -0.000004582506402228681 -0.0000032786373926896317 -0.0000015437863400968865 -0.000003926419813060633 -0.0000033444329216036905
          -0.000002390246875649815 -0.0000010244643224854855 -7.885557546938315e-7 -0.0000012667323411319487 -0.000002650793232916726 -0.000001765761108329933
          -0.000002341106541403626 -0.0000019831055072527803 -0.0000050369274294803645 -0.000004363976710552997 -0.000004956123766053366 -0.000004766649093101982
          -0.000001550545231210343 -0.000001927286690517338 -0.0000026945345970030843 -0.000002065028884501441 -0.000005673454266830191 -0.000004428174341208901
          -0.0000020457787262007088 -0.000005218871696244243 -0.000001454553930191338 -0.0000011973883146110254 -0.000003300855906940292 -4.742859524009546e-7
          -0.000002506665893076132 -0.000004815968958515882 -0.000001926835164978158 -0.0000030173448710701933 -0.000004755980407833427 -0.000001593612822148316
          -0.000003873098366247163 -0.000001966984343293454 -0.0000011073031014330326 -0.0000053528754568876735 -0.0000037692653684917587 -0.000002449539849402882
          -0.000004090520507135653 -0.0000022103429040687406 -0.000004391544739940079 -0.000002853325445695276 -0.00000207658495177121 -0.0000028934008535763667
          -0.0000019777289672617826 -0.000002399132758679201 -0.0000016163424705339935 -9.36732659884143e-7 -0.0000030374490170848034 -0.000002817425735379686
          -0.0000027257767218902273 -0.000003683190025083327 -9.4875726519561e-7 -8.632038490663518e-7 -0.000003314396894826821 -0.0000033949251412312975
          -0.000005113332107897772 -0.000002903952145916211 -0.000008246260287170237 -0.000004338103165801854 -0.0000012272021825548984 -0.000008218199471166088
          -6.293783772898243e-7 -0.000005511731259844055 -0.000001500188027483973 -0.000010722208425129054 -0.000014915976874529946 -0.00000824255706932675
          -0.000005611912609948533 -0.000005488120615182446 -0.0000040205697700024245 -0.0000016777613776053357 -0.000010239334836126268 -0.000011034068002624409
          -0.000007618842920664726 -0.0000024796721959652324 -0.000007181532875377705 -0.000006937860560385367 -0.000005699735269981687 -0.000003638651451476349
          -0.0000014492899123030867 -2.0083765106537754e-7 -0.0000020125212519817026 -7.755743371973267e-7 -0.000003824884342917834 -2.2376001707069548e-7
          -0.0000032798459692617854 -0.0000030269978844588152 -0.000005017054147238298 -0.000004349550451698825 -0.0000017851340103902658 -0.000003078933761835323
          -0.00000292672023016749 -0.0000032464713255048183 -0.0000020863051600761295 -0.0000015299773161725483 -0.00000402940413057884 -0.000004044246277312702
          -0.00000830369900284289 -0.000013331578666120336 -0.000008752935700684361 -8.205289753204781e-7 -0.000007204404857463764 -0.0000011424848413987831
          5.036227044286079e-7 -0.000006141715621188482 -2.95626973123575e-7 -0.0000015513907802855442 -0.000006815004475857478 -0.000001489632722839751
          -0.000005869201294528281 -0.00000372621229166592 -0.000003070113126502072 -0.0000016914974797499482 -0.000004275538652009914 -0.0000036995199097500375
          -0.000007094068764923467 -0.000006620913170329867 -0.000004553613809354928 -0.0000053884488399325026 -0.000005577316532723309 -0.000005930965628425655
          -0.000002547326797053273 -0.000003017913449310239 -0.0000015772919887968584 -0.0000032246113910172625 -0.0000060490427996606755 -0.000004844028017592095
          -0.000002898298035514113 -0.000004052933507248113 -0.0000011721578342394068 -0.000004799203321748102 -0.000003954794105032189 -0.000004734094066649597
          -0.000006182384888420156 -0.000005235032426303965 -0.000005698659197000966 -0.000005423764239842477 -0.000003059349995004901 -0.0000062050465533536325
          -0.000008159962478382354 -0.000008505809448666746 -0.0000069274419451925695 -0.000005200938151928014 -0.000003835671787189021 -0.0000033723847832067833
          -0.000007524086345522818 -0.0000012071903376931203 -0.000004069805022322015 -0.000002904692420924171 -5.710266898217853e-7 -0.0000039894067960233315
          -0.0000053317385716455945 -0.000006248374692208181 -0.000003873149097000095 -0.000005463462859567336 -0.000004450986689996661 -0.000005568936203070862
          -0.000005426107956452153 -0.000004583214487152709 -0.000003909159819348584 -0.0000031703171762265114 -0.000004261932755503239 -0.00000532388511886861
          -0.0000046440545480308515 -0.000002394845707742732 -0.000007393538302480351 -0.000007268819865791087 -0.0000013948113354311786 -0.000003235007330237849
          -0.000005445967465100843 -0.0000046475445263371995 -0.000006759662808608624 -0.0000022512992588485936 -0.0000048824925877877234 -0.000002031829191340151
          -0.0000040274004031171096 -0.000005117618244510069 -0.000003687693700960004 -0.00001158708166282274 -0.000011973250081287468 -0.000016855418425332225
          -0.00001755762302457775 -0.000009886315203266882 -0.000010933636891974352 -0.0000044159581185088115 -2.4742007642686303e-7 -0.0000034457958524303223
          -0.0000020859463987221716 -3.402434993748926e-7 -0.0000017591776141356874 -0.000008153008634437242 -0.000009748771619189078 -0.000007894725663981639
          -0.000008151950705748146 -0.000003096588211570772 -0.000004618720093052531 -0.000009634550206194525 -0.0000117495153159064 -0.000007145740539560297
          -0.000004504707467156699 -0.0000031140916100791394 -0.0000041358829101501016 -0.000005738322076620506 -0.0000033056799136899073 -0.000004581280390714149
          -0.0000024335618418747096 0.0000010331299307164699 -1.2463324056133374e-7 -0.0000033710055590274735 -0.000001927007435287287 -0.000002261887611543223
          -0.000007142575444984978 -0.000007182750043854824 -0.000005279986466044662 -0.0000027241488800289204 -0.000001517181858035066 -0.0000029710424465090313
          -0.000008154624288603252 -0.000011082735797862675 -0.00000696635107144683 -0.0000030384547289874497 -0.0000019565853945358036 -0.0000031342257612587687
          -0.000004203783644185499 -0.0000018297983231940762 -0.00000362361091432728 -0.000006064786759352181 -0.0000041303361622002654 -0.000004793044408257785
          -0.000003771360851390071 -0.000001942210382854803 -0.0000037823188027141796 -0.00000498077192967461 -0.0000016632251750303695 -0.000003415346992552415
          -0.000005488340156900584 -0.0000020104983958768585 -0.000003588934432308122 -0.000006347193558464692 -0.000004660869727279859 -0.000005090400872487244
          -0.000007858212075939619 -0.000003046168575715491 -0.000004492158583335737 -0.0000033326605659578235 -0.0000033840021417264055 9.537467460241089e-8
          -3.7395181662347454e-7 -0.0000016173549715059465 -0.0000013836451770998792 -0.000004057706452953447 -0.0000012843231849135606 -0.0000026463751501282218
          -0.000006467037231838724 -0.000003429310527214291 -0.000003895412605481319 -0.0000018843672681123635 -0.000004786686637836546 -0.0000024092352670646022
          -0.000006939744975231754 -0.0000017255776867397543 -0.0000025555767707574617 -0.0000017012299786678398 -2.037111130892555e-7 -0.000001845826677393525
          -0.0000061032833930108055 -0.000003386026823037902 -0.000004370636360384594 -0.000008289575038844532 -0.000007505283056596923 -0.000013857393269756102
          -0.000013167572126882021 -0.0000076253753611421615 -0.000006979416524943716 -0.000004140982351463762 -0.000009768185004532803 -0.000001308554628431935
          -0.000007282197638236454 -0.000013040938644071076 -0.0000031191428455368264 -0.00000910191240843794 -0.000008300221780999095 -0.000004499350094375187
          -0.000006876506439268404 -0.000010691162507958651 -0.000006187159697246258 -0.00000672355835951155 -0.000004561267100910982 -0.000005367574743675441
          -0.000006788509856692215 -0.0000026821012762967555 -0.000011424181765917751 -0.000004667564790672429 -0.00000871511825506488 -0.000003561262197582238
          -0.000002631100793126784 -0.000009051997910458631 -0.000005825118467805979 -0.000010397814067752975 -0.000007818633433909206 -0.000008210913274298015
          -0.000009013061747609186 -0.000009981800980551903 -0.00001198503899946246 -0.00001143873604103618 -0.000008337122813228959 -0.000007854746430391302
          -0.000001583491711532048 -0.000009104024313977277 -0.00000465597539589524 -0.000010279746777808185 -0.000007836960040696894 -0.000007794769668834078
          -0.000009214443797422867 -0.000012977922384305174 -0.000009230192476561427 -0.000008178905324451868 -0.0000066225859989277325 -0.000010401581490793177
          -0.000007635297744279512 -0.00000774524934432641 -0.000009219331652765561 -0.000007787399977976506 -0.000009894545909938657 -0.000009253009095822051
          -0.000009581055681051609 -0.000004916744082761326 -0.000015849874807960518 -0.000008568490752480784 -0.000010623380535590421 -0.000009684683042410214
          -0.000009337772843620584 -0.0000126573790415474 -0.00000822223755680973 -0.000008927048297469042 -0.0000121019441459147 -0.000007371417406254466
          -0.000005845152218908467 -0.000007239698190719679 -0.000006647079976995762
        </DataArray>
        <DataArray type="Float64" Name="resid_y" format="ascii" RangeMin="-0.000007765130490571762" RangeMax="0.000012494394369455541">
          0.000005990781954579201 0.000009839394425886251 0.000004888551616699568 0.0000015925278757759898 0.0000054284844297619594 0.000005937447336076297
          -1.8227505801157035e-7 0.0000024419470395498077 0.00000433746425429829 0.0000025311978625137607 0.000008645345525448364 0.0000061742496186376755
          0.0000024930298425131225 0.000007267488996185595 0.000005273162466349485 0.000002943819041322654 0.000006748292713715243 0.000005394658839346506
          0.000003632911376689335 0.000008065097877658911 0.00000543466482439553 0.000003890269573078586 0.000005733734755285214 0.00000465605974324379
          -2.6047935693020857e-7 -1.9454248331891855e-7 0.0000027295162960405683 -8.620405725118414e-8 6.465099717416819e-7 0.0000034411326694364953
          -0.0000015679134048127846 -0.000003048447653877795 -4.640730526597747e-8 -9.533255309491367e-7 -0.000001851035006533025 5.927480037481309e-7
          -4.22008312652572e-7 -0.0000015866382436658527 8.998168054014793e-7 -2.003182891265054e-9 -0.000001005791807139056 0.0000010259085705720608
          0.0000012903832353277321 3.7692111861829455e-7 0.0000016167940250682092 0.000003915636364741886 0.0000030537119278107976 0.00000392799407994502
          0.00000286083514294648 0.0000015502578228007713 0.0000038043053110798503 0.0000025597645434520533 0.000004683435202580688 0.00000346345861833644
          0.0000020988099509837432 3.384053663263442e-7 0.0000022134373559197507 0.0000019819419599890337 8.918999452947607e-7 0.0000026547591421063194
          0.0000024853860172494024 0.0000011835220463211893 0.0000028027871743756955 0.000002697108966682321 0.0000014732253119020475 0.0000029425301388144934
          0.000002674944898910887 0.0000011977464258283547 0.000003130340734688571 0.00000301845310941173 0.000001311200477959796 0.000003439898168518013
          0.0000026658332660104474 7.54246957522086e-7 0.000004106172057104273 -4.134226067147029e-7 -0.000002802417082274633 -6.040453477216406e-7
          4.811383784615597e-7 -0.0000029236681088392474 5.318059372420858e-7 0.0000013520559574882463 -0.0000017702618514432028 0.0000015812491840974663
          0.0000017703711544716366 -5.603993537780551e-7 0.0000019634533298196546 0.0000021553244689347887 2.2175139699487367e-7 0.000002414296909757042
          0.0000025326062081173096 5.263951716125972e-7 0.0000028092866250049734 0.000003126048093167466 0.000001120354316184102 0.000003439218616184663
          0.0000027997984227770556 7.355850232867306e-7 0.000003399471573130655 0.0000013587812098293794 -0.0000012621576387095157 8.005328467862449e-7
          0.000001319212037173903 -0.0000014625612495787477 0.0000016647896777504528 0.000002085640561593112 -4.265140632936544e-7 0.0000024404070241767703
          0.0000024608022132910487 5.336200070031388e-7 0.0000026863044913901174 0.0000027059404187667127 9.398052047328992e-7 0.000002942779885363022
          0.000002940193907668455 0.000001027044288390462 0.000003189864204277814 0.0000034319134333163186 0.000001639196830356595 0.0000038005071071691744
          0.0000031228621828940234 0.0000017313483192046841 0.000003981092779774004 0.000002100861807616261 -4.413871796810076e-7 0.0000017334886685677064
          0.0000023149550369422215 2.660083288953674e-7 0.00000263876369577384 0.000002933766655771955 0.000001048397377172855 0.0000032438398958733322
          0.0000032692693465868894 0.000001765884191903648 0.000003451920258081345 0.0000032157763677834184 0.0000016074481276303135 0.0000034176690067826143
          0.000003268250700147121 0.0000013880034103845584 0.000003475779600844997 0.0000036069767905362246 0.0000017343411578534668 0.000003906803260729334
          0.000003206161852233394 0.0000016329673066892841 0.000003976025042982598 0.000003157263873877769 0.0000024757006478609567 0.000002545112015986395
          0.000003978713042744608 0.000003239223537176983 0.000004008505047954636 0.000004203868143336231 0.0000029762427935058067 0.000004677139740019709
          0.000003839663898101697 0.0000025777805798682385 0.0000037234592674510736 0.0000033729188130063315 0.0000017470117660046969 0.00000329045498228403
          0.000003297505520520605 0.0000014133240422223303 0.0000033342987650047257 0.0000035432526885176285 0.0000016735050033973853 0.000003911039622609552
          0.0000033487512647477 0.0000017228541515793352 0.000004310855089899486 0.0000022555744834257263 0.0000019588187253633677 1.7374898969232944e-8
          1.5561413915484226e-7 0.000002089467483430696 0.0000028452095550551837 7.029398600847184e-7 7.682443435804744e-7 0.0000037618611791051526
          0.000004784583308709359 0.00000202071378777079 0.0000016227317298392156 0.000003231677822533585 0.000001314153690204099 0.0000020814589025766606
          0.000005101033752460873 0.000003979154832380732 0.000002689686049994755 0.000004556669179853201 0.000007826540376273516 0.000004743054136863156
          0.0000032881576154176247 0.0000037464338977222233 0.000006653009621811288 0.000004398223327293366 5.251437679709703e-7 0.000004988157685223427
          2.504574128127379e-7 0.000005013853381533734 0.0000019202161706055945 0.0000024560129054450146 0.000004950500922095563 0.0000010549064502290116
          0.0000052852350452773506 0.0000017953044692538105 0.000005162759595953373 0.000004364410104440615 1.6705880094276641e-7 0.000005694582792978688
          4.3987358166173475e-9 0.0000064816347462925495 0.0000015559041646649946 0.000008358327527477338 0.0000054230193982998665 0.000012494394369455541
          0.000009940716834092034 0.000007187115903903307 0.000005410942685912801 0.00000363680718537551 0.000003631085119073065 0.0000037823920270278906
          0.000003519442317498334 0.0000024218215319461592 0.000002727344571475305 0.000004420322577357826 0.000003859237695497987 0.000005367252260713232
          0.0000033921041860769316 0.0000028111325422417463 0.000001905794767933231 0.000004474461585848508 0.000004643683037422984 0.00000293196534481956
          0.000004134252987826256 0.0000027639481578922882 0.000003953452791190942 0.0000022897250392980677 0.000002613565858359569 0.00000192368489931264
          0.000003683103593268497 0.000002830805205148324 0.0000016778007233407728 0.00000236250618897366 4.6841038284966066e-7 0.000002066084928399603
          0.000002357213370639006 0.000005398258674958398 0.000007366653564025785 0.000001938986794970763 0.0000017780326454479994 2.285783180962231e-7
          -7.59453314316122e-8 0.0000029992403358992427 0.0000026627334410219555 0.0000016683473526846182 0.0000020325340607104878 0.000005214551252362681
          0.000004453637989182066 0.0000040461212403586355 0.000005027107103527766 0.0000043211672442027005 0.000004086553515586164 0.00000502910060893539
          0.0000023840442590289737 0.000005246088748361508 0.0000018355297725378486 0.000003741076848843075 0.000005176319784513939 0.000005208419440825424
          -3.8429871855507475e-8 -1.8916303664521378e-7 -2.931954326632763e-7 -4.602057750002081e-7 4.590891265151588e-7 0.0000011460447490087983
          7.461813180849319e-7 0.0000025740765960237735 0.00000459484461953286 0.000002834908957114607 0.000004142405276881013 0.0000069255941444676394
          0.0000031705439047890853 0.0000027088779476909216 0.0000017223519363472606 0.000001640317674068601 0.000003549213275976567 0.0000034146123744101644
          0.000004302345705210417 0.0000016944204694240364 0.0000026586545873882005 0.000001006213821033372 0.000006393905120754542 0.000004697146067168031
          4.1809035596605815e-7 -3.2537206361279644e-7 0.000002101928671195512 9.922153886192733e-7 0.0000010231757082562742 0.0000024366064843841725
          0.000003103615500744299 0.0000050867918928577775 0.000002722736407631196 7.988760637733794e-8 -9.68173007429192e-8 -1.0172422300553166e-7
          -2.1049259574940082e-9 3.3596462380245523e-7 3.8894271802390745e-7 -2.27042215339944e-7 0.0000013978123588509646 0.0000016824311835170885
          9.7741848108018e-7 7.122515480969573e-7 0.0000022255377290481514 0.0000018880077696367334 1.2161561981690466e-7 0.000001981514192480986
          0.0000027076132499605915 3.6957168863833295e-7 0.0000024691756610809024 0.0000033468670823724733 0.000003031750796198343 0.000005035898112988081
          0.0000026669048205901075 7.616971598118152e-7 0.000002596184309596773 3.9943099198677667e-7 0.000004124230534624691 0.0000022484840843241087
          0.0000040996574497409455 1.5485345762102087e-7 0.0000036773269709161616 5.901934648621515e-7 0.0000024568804427235746 2.721565655738195e-7
          0.000002940793498558414 0.0000020295145462577782 0.000002554022650640142 -2.7390724953793577e-8 0.0000031949799151487907 0.000002227437496831776
          9.584829579849241e-8 8.219569774953195e-7 0.0000013248611962046568 -8.490472341859956e-8 4.172358688361334e-7 0.000001158448767450953
          0.0000024389970717454863 -2.484053094140709e-7 0.0000018043395915946434 0.000002338157891122218 0.0000022933859412117147 9.796438404760695e-7
          0.000002214322675455748 0.0000023195389014301834 0.0000010342140348029195 8.683016904425991e-7 1.7858174323689968e-7 5.343494964189528e-7
          0.000005370245974679086 0.000002691726384341543 0.0000016059329014876233 0.000001156429321150015 2.477165476051993e-7 0.0000011491983276205875
          8.970232820938381e-7 0.0000030107590926751245 0.000003325826494668914 3.1001191672412e-8 4.780952984784637e-7 -3.785093276188062e-7
          -1.9080247613508568e-7 2.5629890392577263e-7 0.0000010108502816917001 5.008167304266283e-7 -2.27669007238601e-7 0.000001322453077679431
          0.0000019820333054694755 8.551803627829951e-7 6.993317496936896e-7 -0.000001446248188287575 -0.0000025142831763280997 -0.000004236589086230877
          -0.000003191616010095002 -0.0000022734453345758126 -0.000002415678037111398 5.764109998482661e-7 0.0000017609498773212863 -1.1806854380985721e-7
          2.7392208916789465e-7 0.0000010957921901724038 0.0000011757355368366938 0.0000030315007670030786 0.0000010383841132985405 0.000003114302608271148
          9.585100415095832e-7 0.000003991463475475077 0.0000030662199635290814 1.0968256007473989e-7 -9.606401211049304e-8 -4.657383860171005e-7
          -4.963297812853994e-7 9.298080431972312e-7 8.979284167147383e-7 0.0000013779740105756416 0.0000018109045141188624 0.000003821733432603919
          0.000004647427075127417 0.00000584643015041908 0.000005888831613511136 0.0000027197066483040933 0.0000021453418713335975 0.000002938758847724314
          0.0000021672117029819353 0.000002604661188885561 0.00000479089855148513 0.000001237119609031733 0.0000026333328860335577 -0.0000015391830417571528
          0.0000019025488945390023 9.771601096361486e-7 0.0000029621939121081756 0.0000021102613211015225 0.000002423441540367298 0.000001943681137107564
          0.0000033796339377403783 0.000003762082980354395 0.000004852873234885945 0.0000027529587718745727 0.0000034150941431209184 0.00000155529790254582
          0.000002431214439872764 0.000003118404469604273 0.0000032856016105549998 0.000006491318647312491 0.0000038152380676965275 0.000005520161977809815
          0.000003636005862360514 0.0000036810280814535655 0.000001628588616072596 0.000002466856705426665 0.000004787139959517087 0.000004470818427492786
          0.0000023996345307089433 4.169011063497388e-8 -9.524695496784634e-8 5.600039262691758e-7 0.0000020090455445363233 1.4236430417695345e-7
          4.1369134130614035e-7 0.0000013872990350435183 0.0000031414050112995792 0.000001927375507840409 0.000002582223011228296 0.0000035258986595819615
          0.000005310545313830456 0.0000026011619827697244 0.000003994059166916595 0.0000018923987711062795 0.00000527206174750789 0.000003271062851394231
          0.0000019033595055602346 0.0000014354054285511259 0.0000030773014127308046 0.000001723056169167323 9.604662498737156e-7 0.000002575426529190705
          0.0000019371156602112586 0.0000027863747903470425 0.0000022717406757143165 0.000006043991778389296 0.000003533517357441618 0.0000014368648623766522
          0.000003121275107775129 0.0000017710499748487159 5.819316537016006e-7 0.000004618372476990727 0.000004623568962080615 0.0000025787983175644402
          0.0000017505471054529709 3.1285319104529946e-7 0.0000029389614719941073 0.000006132233086457526 0.000004565616436026567 0.000004910163637232784
          0.000004606959239740038 0.0000011828012807441925 0.000003996552977593437 -2.2290233735395085e-9 0.000004761142717649158 0.000002600479068576864
          0.0000033820609237733123 0.000003353368005920218 0.00000244939485806602 8.41886000852235e-7 0.000003204751531095309 0.0000025786759415263177
          3.70767227349765e-8 2.0377060296950834e-7 5.4033780723752346e-8 9.188944056816046e-7 0.0000016130157751131219 0.0000013170154492575699
          -6.305361623186977e-7 0.0000021998043862516553 9.90634817786204e-7 0.000006662870576674496 0.000008922681417462136 0.000004872307179178744
          -5.802834182988374e-7 -9.03723956118159e-7 -0.000001766904519345542 8.095271391626684e-7 -0.0000023896750173208955 -0.0000022589097215829947
          -0.0000034610971873460204 0.000001058737510447206 -7.725204849307749e-7 -0.0000012706523751819174 -0.000002527397042871235 1.3351282265742018e-7
          0.0000027109264448833804 0.0000015112097674824297 0.0000017930573771467498 0.0000021036173559092763 0.000004992473000291816 0.0000015256023630184565
          0.0000033944900247584973 0.000003526465922628827 0.000004551612579671224 0.000006931391633095696 0.000003189179481780796 0.000004166958752596303
          0.0000023222864852867967 0.0000026310326732706737 5.292267149289293e-7 0.000001235812428186829 0.0000025640066608691604 0.0000037608311719049617
          7.79264207623892e-8 -0.0000020626187297169245 -4.83327806315853e-7 2.545883637491747e-7 -7.271219285366658e-7 -4.804307162821074e-7
          1.542976443307171e-8 -0.0000016133368036877222 1.4297855735652398e-7 3.073188740224651e-7 -0.0000012497917294696783 -0.0000013871260078661613
          0.0000036957184996050385 0.0000016278487786603422 0.000002341925776074179 8.128896301479692e-7 0.0000022997267586939013 0.0000018408479547878977
          0.0000012569720454053655 6.06956618662757e-7 1.5937626759131296e-7 -4.02456442347935e-7 -8.940515395217639e-7 -0.0000016268108847632134
          3.358014036584575e-7 9.410361173252391e-7 8.577294603479696e-8 0.0000010978297288622568 0.000002815086727165142 0.000002979459694934204
          0.000002265786040289708 0.0000023868236619767856 0.000001345510484585628 0.0000012076951456489737 0.0000016096987248751232 9.230848144361863e-7
          -3.5342161822373374e-7 0.000003113808970422045 5.375865348391422e-9 7.22538831868973e-7 0.0000010447710589888597 3.021503386912419e-7
          -0.0000012474193286514564 -5.129059432911268e-7 -7.340213503698872e-7 0.0000033166305568855213 0.0000029644540078060076 0.0000029229047351312515
          -0.0000023816171052363534 2.7924109345005624e-7 -3.634827401188985e-7 0.0000024769492429216333 3.5538909467841204e-8 0.000002647114320774137
          8.810676770643587e-7 0.0000029769499177130856 -1.8820659791968578e-7 0.0000027234160655436115 0.0000013619012126901567 0.0000030747387967072336
          9.20655413915155e-7 3.218297313645202e-7 6.979993903023091e-7 -1.8526342130276846e-7 5.607362833829309e-7 2.6190649708929606e-7
          5.906888702984434e-7 -3.743328890522951e-8 9.425015383545537e-7 -0.0000013340975838439708 5.940436157976341e-7 -1.588645324036679e-7
          0.0000028810321434490777 2.5036654937096725e-7 0.0000036628259656632488 0.0000012586170263723453 8.354846403168387e-8 0.0000020341440619383103
          0.000003675762238935891 0.000002208606256072325 0.0000033260368858664333 0.0000012139142019599192 0.0000011656859551000334 0.000003021401717323872
          0.000003825554099109313 7.941036338032868e-7 8.392192310541918e-7 0.000002700571654678033 -1.1704283420883518e-7 0.000002095181231819617
          0.0000025191873340867543 0.0000012926408124055945 0.0000012249215681253603 7.488789107268183e-7 0.0000027765564902348765 0.0000018000851700222288
          0.000004280151518285501 6.22424150719357e-7 0.000001885871719125784 0.000004832248257634038 0.000006644146510342581 0.000003428354492876224
          0.0000025730271931414736 0.000001445872506495964 0.0000024326433453398036 0.000003374102466736917 4.5584011709775066e-7 0.000002747853083154457
          0.000005377637700096707 0.000007314901208987229 0.000005390869666997353 0.0000018136956446632158 8.527560676459614e-7 0.0000026027861868881466
          0.000004812255944347185 0.000004620179680939716 0.0000026922867710438628 0.0000032297543466810325 0.00000236483678416749 0.00000378434079612109
          0.000005325640342840419 0.0000061145331658324364 0.000004131077148708095 0.000004278379736228494 0.000002037662827218331 0.0000033906109653848715
          0.000003977862347018073 0.0000013574834855974854 0.0000025884924637160564 0.000003496850284606147 0.0000017425243923081118 0.000002150344126243802
          0.000003194936644470084 0.0000010266530550964367 0.000002618548748904194 0.0000036536931963425043 0.0000019033533953027523 0.0000031321513478382162
          0.000004518111978065072 0.000001756285667558078 0.000002792324648935498 0.0000016094978473575952 0.0000014421064237406332 0.0000014512888519327936
          1.845470131425428e-7 3.237215161159407e-7 4.2386507911190696e-7 0.0000028439991350043183 0.000004530608531749499 3.704058836616125e-7
          0.0000016420028935642357 0.0000020298129186575907 0.0000025808574077603157 0.000006280847532690731 0.0000029120152411068675 0.0000034078919589905846
          0.000004782068950840313 0.0000018177028124699915 0.00000104855056536372 2.963438408434913e-7 0.0000023893889637060725 7.55271770238328e-7
          -3.9101470769554135e-7 7.065658414917748e-7 4.197194779522427e-7 0.000002472365551000981 0.0000016833567048777026 0.0000014033629167189748
          0.000004273961343744144 0.0000027238279022854042 0.00000396874003824035 -0.000003574737781036029 -0.000002578514739275551 -0.000007765130490571762
          -0.0000051055245496017115 -0.0000033463785028328003 -0.000003185812300351065 0.0000031638221226811675 0.000004088693946449964 0.0000010156571036809732
          0.000004417217841768545 0.000004609256359213408 0.0000019409150932734806 0.000002584528866525146 0.000001928401349023459 0.0000012873112736240533
          -0.0000037825603729506503 -0.000006657844618406655 -0.000003367481555491443 0.0000013547674330332063 0.0000030331907983271664 0.0000013962860850877737
          -0.0000020977157904354454 -0.0000023046279570115413 -0.000005134694386444132 -0.0000032790620628637664 -0.000002643328977681666 -0.0000023349615870741486
          1.4663938110071224e-7 -8.721680968552976e-7 0.0000010603397313877633 -0.000002521479995703027 0.0000017867809688535373 -0.0000010293794432427155
          5.456047185888047e-7 6.825265159039057e-7 0.000003910401116606274 -0.0000015741659697568813 2.8084795005399454e-7 -7.343731402206094e-7
          4.231543723268172e-7 0.0000013345148233315056 0.0000011161081742436588 0.0000019043830394808309 5.082337193144937e-7 7.938120787031287e-7
          -8.134415838449097e-7 -0.0000013275460443709294 -0.0000010326916544812874 0.000007514412132023952 0.000004883016013356237 0.000012305652834191869
          0.00001053355214782059 0.000006548749186495711 0.000005727060275313028 0.0000036357727201830753 0.000007514822034241156 0.0000035317647487098647
          0.000006433877760105185 9.442458480967732e-7 0.00000983498806491484 0.00000364725985430199 0.00000456921501133193 0.0000029302694555073325
          0.0000027652709973149253 0.0000029202135058241374 0.0000028261457444417326 -0.0000021797257898901502 -0.00000392729100758514 -0.0000017843744656068604
          0.000003231144901115219 0.0000045958322807395854 0.0000028807064579327614
        </DataArray>
        <DataArray type="Float64" Name="resid_z" format="ascii" RangeMin="0" RangeMax="0">
          0 0 0 0 0 0
          0 0 0 0 0 0
          0 0 0 0 0 0
          0 0 0 0 0 0
          0 0 0 0 0 0
          0 0 0 0 0 0
          0 0 0 0 0 0
          0 0 0 0 0 0
          0 0 0 0 0 0
          0 0 0 0 0 0
          0 0 0 0 0 0
          0 0 0 0 0 0
          0 0 0 0 0 0
          0 0 0 0 0 0
          0 0 0 0 0 0
          0 0 0 0 0 0
          0 0 0 0 0 0
          0 0 0 0 0 0
          0 0 0 0 0 0
          0 0 0 0 0 0
          0 0 0 0 0 0
          0 0 0 0 0 0
          0 0 0 0 0 0
          0 0 0 0 0 0
          0 0 0 0 0 0
          0 0 0 0 0 0
          0 0 0 0 0 0
          0 0 0 0 0 0
          0 0 0 0 0 0
          0 0 0 0 0 0
          0 0 0 0 0 0
          0 0 0 0 0 0
          0 0 0 0 0 0
          0 0 0 0 0 0
          0 0 0 0 0 0
          0 0 0 0 0 0
          0 0 0 0 0 0
          0 0 0 0 0 0
          0 0 0 0 0 0
          0 0 0 0 0 0
          0 0 0 0 0 0
          0 0 0 0 0 0
          0 0 0 0 0 0
          0 0 0 0 0 0
          0 0 0 0 0 0
          0 0 0 0 0 0
          0 0 0 0 0 0
          0 0 0 0 0 0
          0 0 0 0 0 0
          0 0 0 0 0 0
          0 0 0 0 0 0
          0 0 0 0 0 0
          0 0 0 0 0 0
          0 0 0 0 0 0
          0 0 0 0 0 0
          0 0 0 0 0 0
          0 0 0 0 0 0
          0 0 0 0 0 0
          0 0 0 0 0 0
          0 0 0 0 0 0
          0 0 0 0 0 0
          0 0 0 0 0 0
          0 0 0 0 0 0
          0 0 0 0 0 0
          0 0 0 0 0 0
          0 0 0 0 0 0
          0 0 0 0 0 0
          0 0 0 0 0 0
          0 0 0 0 0 0
          0 0 0 0 0 0
          0 0 0 0 0 0
          0 0 0 0 0 0
          0 0 0 0 0 0
          0 0 0 0 0 0
          0 0 0 0 0 0
          0 0 0 0 0 0
          0 0 0 0 0 0
          0 0 0 0 0 0
          0 0 0 0 0 0
          0 0 0 0 0 0
          0 0 0 0 0 0
          0 0 0 0 0 0
          0 0 0 0 0 0
          0 0 0 0 0 0
          0 0 0 0 0 0
          0 0 0 0 0 0
          0 0 0 0 0 0
          0 0 0 0 0 0
          0 0 0 0 0 0
          0 0 0 0 0 0
          0 0 0 0 0 0
          0 0 0 0 0 0
          0 0 0 0 0 0
          0 0 0 0 0 0
          0 0 0 0 0 0
          0 0 0 0 0 0
          0 0 0 0 0 0
          0 0 0 0 0 0
          0 0 0 0 0 0
          0 0 0 0 0 0
          0 0 0 0 0 0
          0 0 0 0 0 0
          0 0 0 0 0 0
          0 0 0 0 0 0
          0 0 0 0 0 0
          0 0 0 0 0 0
          0 0 0 0 0 0
          0 0 0 0 0 0
          0 0 0 0 0 0
          0 0 0 0 0 0
          0 0 0 0 0 0
          0 0 0 0 0 0
          0 0 0 0 0 0
          0 0 0 0 0 0
          0 0 0 0 0 0
          0 0 0 0 0 0
          0 0 0 0 0 0
          0 0 0 0 0 0
          0 0 0 0 0 0
          0 0 0 0 0 0
          0 0 0 0 0 0
          0 0 0 0 0 0
          0 0 0 0 0 0
          0 0 0 0 0 0
          0 0 0 0 0 0
          0 0 0 0 0 0
          0 0 0 0 0 0
          0 0 0 0 0 0
          0 0 0 0 0 0
          0 0 0 0 0 0
          0 0 0
        </DataArray>
        <DataArray type="Float64" Name="stress_zz" format="ascii" RangeMin="-74095.48703601383" RangeMax="139559.2163150256">
          -1968.1350264285986 -2058.662218070768 -2149.189409712938 -2143.4055349671244 -2127.9152359181335 -2112.4249368691426
          -3214.3226571844834 -3308.918386292878 -3403.514115401272 9467.984287565167 9360.96729352681 9253.950299488453
          5399.590373785349 5481.211590399707 5562.832807014067 1880.0814102413074 1900.5264488252487 1920.97148740919
          -510.6285032746228 -547.7622441489386 -584.8959850232544 -1737.2752889103506 -1683.3207893531248 -1629.366289795899
          -3664.4268720830314 -3663.46006100279 -3662.4932499225492 -4418.166391753901 -4615.781753749411 -4813.397115744921
          10569.58988442082 10398.732789603418 10227.875694786017 3706.8352416168796 3802.618450957516 3898.4016602981524
          -767.881241610874 -760.8453731975842 -753.8095047842942 -3029.3181040085533 -3074.609187682096 -3119.9002713556383
          -3630.0004787373423 -3583.2479445822187 -3536.495410427095 -5413.864945842378 -5416.384634773455 -5418.904323704532
          -5382.732276565622 -5535.037680460002 -5687.343084354383 21910.44803347435 22465.007724802657 23019.567416130965
          8287.675957635938 7966.677450777952 7645.678943919967 -1237.693692992027 -1163.1347000665282 -1088.5757071410294
          -5401.381808387543 -5448.50085510023 -5495.619901812917 -6413.331395614878 -6465.870678942387 -6518.409962269894
          -5740.515299646798 -5760.527118741797 -5780.5389378367945 -5412.127752542461 -5378.7058599525335 -5345.283967362605
          -5353.585289936505 -5423.673485928064 -5493.761681919623 18918.13104685745 19953.351585353987 20988.57212385053
          -2161.800722341218 -2335.62650736778 -2509.452292394342 -10900.207052272728 -10685.428938872648 -10470.650825472569
          -11699.186182887986 -11704.727624260482 -11710.269065632985 -9967.183805915041 -9973.467636293048 -9979.751466671052
          -7341.896537167128 -7388.14740052372 -7434.398263880309 -4648.175531070332 -4594.15323767922 -4540.130944288108
          -5668.815278061975 -5634.0839978344175 -5599.35271760686 -5928.560597263655 -5598.205216290432 -5267.849835317206
          -24559.217097852903 -25118.99134590645 -25678.76559395999 -22546.274943499353 -22705.00209663664 -22863.72924977393
          -17559.197811970105 -17773.721953502485 -17988.246095034865 -12184.425067551578 -12233.708100322066 -12282.991133092553
          -7165.458426303607 -7238.267899608665 -7311.077372913725 -3724.239008624243 -3749.8602108559903 -3775.4814130877376
          -2679.6852401296082 -2549.9100717739334 -2420.1349034182585 -46425.64285181962 -48925.77954927174 -51425.91624672386
          -38889.94264401051 -39953.94282861383 -41017.943013217155 -27419.833391454344 -27608.890169365568 -27797.946947276796
          -15763.396728142543 -16184.498036977595 -16605.599345812647 -7135.409600219831 -7389.329584867294 -7643.249569514755
          -3609.9938173714004 -3646.901225701414 -3683.808634031429 -486.16127195769525 -509.5383446090477 -532.9154172604002
          -534.4778846170725 -408.1114439938574 -281.7450033706423 -50100.453096958045 -48042.28166150293 -45984.11022604782
          -27956.843397430726 -26832.46112238292 -25708.078847335113 -22854.72507111013 -22554.13300811351 -22253.540945116878
          6714.136961763378 6884.164178498297 7054.191395233217 2650.929411540533 2515.326630760559 2379.723849980586
          2637.3050773564055 2711.068259982192 2784.8314426079774 880.1290887871023 877.8208519642191 875.5126151413357
          -19.520830917864828 -67.12460290000081 -114.72837488213679 13018.625251485992 9263.21270210216 12265.78701649803
          17685.35763160447 13391.413044050812 9440.632037985557 12187.98922082219 17787.78424571059 13764.200836615639
          9618.051373868951 12110.191425146348 17890.210859816707 -39321.920896258845 44342.102680891156 41615.76014256179
          -17343.25952554084 -40375.515872400596 42812.5121242863 37674.0343056763 -18220.4227107103 -41429.11084854235
          41282.92156768145 33732.30846879081 -19097.585895879747 -10534.75659444795 19335.536927120083 -10336.658013056345
          20137.75741428348 -10138.559431664744 20939.977901446873 17625.75123946139 20670.821139586846 18034.67986207326
          21524.828243432756 18443.60848468513 22378.83534727867 3334.622745106646 14391.812902550038 3541.9429132411456
          14700.571923516462 3749.263081375645 15009.330944482883 -72357.68472898412 80085.63895688392 -73226.58588249898
          74903.88297477513 -74095.48703601383 69722.12699266632 22165.08280895297 11364.73017603272 22308.590334426954
          10837.921356524455 22452.097859900936 10311.112537016188 216.89233570501136 -11.860895018691682 -240.6141257423949
          100877.80433071803 97918.8399990256 94959.87566733317 139559.2163150256 137513.6560424537 135468.09576988174
          19468.65945503207 10429.49320890482 15012.94288394296 10670.993098129935 10557.22631285385 10912.49298735505
          18894.809488061244 18677.817095416125 18460.824702771002 14860.665778567003 15048.207149917 15235.748521267
          -582.7927388822667 -561.3582452484541 -539.9237516146417 -2872.468272980761 -3811.3927513369617 -2307.583860020695
          395.6769450043014 -3088.571852315433 -3837.0668945611937 -2287.29127130541 349.6123305969004 -3304.675431650104
          -3862.7410377854258 -2266.998682590126 303.5477161894996 180.803330367194 177.01461637217585 173.2259023771578
          3020.23700779682 2272.3931543256217 3124.518642604658 2231.317943421344 3228.8002774124952 2190.2427325170665
          -991.2562175862706 -1782.9903011858526 -2774.043620478608 -1305.69212713902 -992.8602918373987 -1861.9959416262966
          -2882.8615240842655 -1325.745674169226 -994.4643660885265 -1941.0015820667413 -2991.6794276899236 -1345.7992211994324
          -4786.444518388191 -8260.210875711893 -4930.112022511615 -8571.437264616283 -5073.779526635039 -8882.663653520674
          630.8977104261106 422.15894291781984 659.4417458213692 470.0439632339027 687.9857812166277 517.9289835499854
          -2682.6528030040913 -2842.8805159718913 1722.2374404627353 -2721.205402539338 -3209.3793916347704 2001.1054199124228
          -2759.7580020745845 -3575.878267297649 2279.9733993621107 -304.58018614581374 -495.98116427953295 447.17017075064416
          -764.0667023585404 -262.4296545035802 -541.0228688640377 462.69198613710165 -757.0157663853805 -220.27912286134665
          -586.0645734485427 478.21380152355914 -749.9648304122205 -1834.1159496849857 -2518.342522793236 -1651.86425175798
          -1912.9914347652946 -2602.773951033702 -1638.4770500415177 -1991.8669198456034 -2687.205379274167 -1625.089848325055
          -459.94611112465043 -1669.2656302139385 -760.5837690878268 617.9997413262861 -479.88471928099204 -1763.878780377336
          -789.2284631432194 628.502995959029 -499.8233274373339 -1858.4919305407336 -817.8731571986125 639.0062505917717
          -7695.145505079162 -3445.9317995242204 -8118.54694417624 -3567.4704598514886 -8541.94838327332 -3689.0091201787573
          245.78855634325816 -214.34027063323884 -106.03070288599628 1211.0545727809995 249.48696205140124 -220.83251901902275
          -131.36699996714253 1213.3312301248534 253.18536775954425 -227.3247674048067 -156.7032970482888 1215.6078874687075
          623.9444961127308 840.3630972374287 4657.91308378031 690.8904622706347 1053.2076881663388 4958.9934345176625
          757.8364284285384 1266.052279095249 5260.073785255015 77.11458993218567 -170.91644822271687 88.7031040858343
          -169.11710023768796 100.29161823948294 -167.31775225265906 801.962462553103 997.1747832659781 2121.922048569757
          820.3361357332187 779.0383082229675 973.5958378520454 2175.612209253184 787.6899378560033 756.1141538928322
          950.0168924381126 2229.3023699366113 755.043739978788 -647.5456848702906 -1164.2994926594565 -662.4610011540846
          -1182.0303565199347 -677.3763174378785 -1199.7612203804126 638.5451727338399 1914.2597818886998 680.7507494353579
          1962.1473042197667 722.9563261368758 2010.034826550834 -706.2446480647445 -1323.5924373158687 -723.3722170728345
          -1385.031735530302 -740.4997860809244 -1446.471033744735 -1690.4161061268899 -884.5751266161419 -1625.991161824712
          -1945.3486690562538 -1670.198044149197 -874.335728885611 -1600.3058858870995 -1956.1373594156685 -1649.9799821715035
          -864.0963311550802 -1574.6206099494875 -1966.9260497750831 -788.6787493568281 -762.2925650367024 -735.9063807165769
          -1063.1258133557849 -1019.5641804664812 -976.0025475771779 -730.75898934073 347.7254406832169 -733.6233179710615
          408.5677635689249 -736.4876466013931 469.41008645463296 1087.784275252548 4163.310935089148 1152.8069926860107
          4473.653537762475 1217.8297101194737 4783.996140435802 4337.2262473015035 9847.732571199405 4489.141178162747
          10565.662293176067 4641.05610902399 11283.59201515273 437.5424314947886 555.1111944269438 672.679957359099
          -1071.1787128734761 881.356122555796 -1147.7317162768804 870.7810428701868 -1224.2847196802852 860.205963184577
          201.22301170150217 1384.6978399199181 1426.440459226773 -636.6465531679255 196.70288864384963 1318.6020587087232
          1519.2419966963766 -567.8121892030352 192.1827655861971 1252.5062774975286 1612.0435341659797 -498.97782523814504
          -1841.1942148613316 276.412398010012 -1844.9170242387536 289.0530768950874 -1848.6398336161756 301.6937557801628
          1037.3016462483838 -1167.88046580036 3731.782823454819 980.9362483659628 -1285.3421540204047 3868.139685204677
          924.5708504835418 -1402.8038422404493 4004.496546954534 -2408.984649714411 -1820.6360852397306 -1164.469925245225
          -2397.1651371177377 -1869.606097685478 -1129.4084848594264 -2385.3456245210655 -1918.576110131226 -1094.3470444736274
          245.64717685865486 265.8153683143316 285.98355977000847 -1358.111309307174 -1355.945064542846 -1353.7788197785176
          -1607.4734347380027 -250.65233134081132 -1687.3736201080783 -313.6254534358036 -1767.273805478154 -376.59857553079587
          1839.2572381424275 1721.6766468021615 1949.7819776010026 1640.5768413729836 2060.306717059578 1559.4770359438062
          396.38767600647753 388.68066244635844 380.97364888623923 880.1393192540177 597.4448845841093 933.1451768955271
          612.1016971110963 986.1510345370364 626.758509638083 -418.40149261234626 -434.8955644385919 -451.38963626483763
          1734.053208548097 1858.8532667733853 1770.450003595025 1728.094377964172 1754.4666186930904 1896.0149332790752
          1787.8009787873402 1736.1495779518914 1774.8800288380835 1933.1765997847651 1805.1519539796561 1744.2047779396103
          2428.306336672223 2333.7767094605924 2239.2470822489613 -680.8856487562675 -408.6550944359417 -651.5408168363585
          -422.71477423060577 -622.1959849164496 -436.77445402526973 938.3319566698505 877.3570719016803 816.3821871335099
          -379.9880270085162 -258.14793542548944 -409.8079780681648 -321.2848052306816 -439.62792912781345 -384.4216750358738
          -756.745407500189 -769.1329805059386 -781.5205535116883 368.2592460785244 848.0207258384642 1102.3990483076946
          343.5254572909531 855.438806213325 1088.4286987343405 318.79166850338174 862.8568865881858 1074.4583491609865
          1737.953202045684 2487.0959602194007 1725.0808908324368 2530.4849596975023 1712.2085796191895 2573.873959175604
          1678.7690327534035 1019.8568698301178 1708.4901177335403 1035.0149729508305 1738.2112027136768 1050.173076071543
          594.6323699798234 -1803.8723409603595 621.4823331007158 -1871.2254396478004 648.3322962216083 -1938.578538335241
          1609.3485468493275 3163.2514497263364 1667.1437266223438 3248.1561560578393 1724.9389063953602 3333.060862389342
          -680.6266216066003 -698.343376823233 -716.060132039866 2232.464943316731 2309.405482917928 2386.3460225191243
          -579.2394937908623 -568.5603448687145 -557.8811959465669 -4039.6204535135057 -4256.852051104899 -4474.0836486962935
          -1021.1142670825586 -1076.3441351350423 -1131.5740031875257 72.20458000821804 84.88521058781265 97.56584116740726
          1180.1205068974195 560.7965602062011 1193.9412925900099 572.5840991157854 1207.7620782826002 584.3716380253699
          -1621.4927999061413 -1389.1237511840109 -1712.8964274177545 -1465.4692675661806 -1804.3000549293677 -1541.8147839483504
          -746.2468097622411 -783.9628019125394 -821.6787940628371 1288.3613711318067 1352.050077001079 1415.7387828703513
          14.44069658138989 32.94177993108326 -66.17029567804741 1.376548181727017 37.68313858639581 -31.356067690376392
          -11.687600217935767 42.4244972417085 3.4581602972946257 -1019.080559091261 296.5815138061336 -1044.3558631053422
          332.98582485190354 -1069.6311671194235 369.39013589767364 422.52885018323644 444.73618361996387 466.9435170566913
          1750.6108574288833 1770.478112508889 1790.3453675888945 1261.8000536017594 1278.865211630893 1295.9303696600268
          611.336489576312 621.1719867823292 631.0074839883464 67.87684315585129 74.16447657021567 80.45210998458018
          -3153.9587506725534 -3270.2532612258897 -3386.5477717792273 -805.2901184137979 -781.9504200144453 -758.6107216150924
          -701.9809888122477 -655.853962145388 -609.726935478528 -1758.9970312606963 -1682.5766412403336 -1606.1562512199707
          464.303417701413 536.177212021921 608.0510063424291 -1442.477162919407 -1419.953084071683 -1397.4290052239592
          309.197468315867 341.05631251441275 372.91515671295855 503.29609454622613 663.1107327167447 822.9253708872634
          386.0963641248576 339.4845992783536 292.8728344318496 -1898.793913456775 -1924.2406990330321 -1949.6874846092887
          -498.30797531887185 -484.9614908746835 -471.6150064304951 -242.77229925636115 -247.2166231526128 -251.66094704886447
          -306.84201798834374 -267.7179002616757 -228.59378253500762 -1351.902690519484 -1465.3644537515192 -1578.8262169835543
          131.66407667596144 113.21431780375968 94.7645589315581 243.44487995844366 4152.112601802702 274.16388361584933
          4324.087848350524 304.882887273255 4496.063094898346 -977.6360328371013 -925.3973397949057 -873.15864675271
          8059.752160601851 8585.868228606865 8240.937381226699 8594.581287660165 8422.122601851548 8603.294346713465
          2627.663375048333 2772.1224276213475 2916.581480194362 1133.8593921920292 1135.958241998942 1138.0570918058547
          -2353.78794336041 -2383.6332174845406 -2413.4784916086714 -1308.960189046647 -1333.9615829510303 -1291.987722128255
          -1312.5384383677547 -1275.015255209863 -1291.115293784479 273.6178767445442 339.6401444376417 1548.1605437292246
          291.79675196340264 381.6548843393407 1623.7997664268369 309.9756271822612 423.6696242410397 1699.438989124449
          773.1515852060924 768.0331138714221 762.914642536752 364.82819169336756 361.41988914523785 358.01158659710813
          200.69948556490283 1687.3211587378094 197.5048485740632 1700.6213404357288 194.3102115832236 1713.921522133648
          526.7288703261831 -529.7946399874751 538.5731556392518 -524.5577484928709 550.4174409523207 -519.320856998267
          757.106687723485 1180.0656276883908 764.8202063321392 1167.055357645496 772.5337249407935 1154.0450876026014
          738.2857647665735 1300.2883539249817 729.0464501292157 1309.884115448032 719.8071354918582 1319.479876971082
          369.06870964740455 394.08818068289395 419.10765171838324 753.3832993828017 480.549412949241 778.9720661793649
          473.2067321569364 804.5608329759282 465.864051364632 26.924138844972095 23.412473210428924 19.900807575885846
          -124.1703932715872 523.1268138941607 -141.86937286574312 542.3161150596785 -159.56835245989907 561.5054162251961
          388.620614539637 395.05630603814143 401.4919975366459 1396.2672071279571 1399.378633644623 1402.490060161289
          306.84388275773847 301.91575313785154 296.98762351796466
        </DataArray>
        <DataArray type="Float64" Name="peeq" format="ascii" RangeMin="0" RangeMax="0">
          0 0 0 0 0 0
          0 0 0 0 0 0
          0 0 0 0 0 0
          0 0 0 0 0 0
          0 0 0 0 0 0
          0 0 0 0 0 0
          0 0 0 0 0 0
          0 0 0 0 0 0
          0 0 0 0 0 0
          0 0 0 0 0 0
          0 0 0 0 0 0
          0 0 0 0 0 0
          0 0 0 0 0 0
          0 0 0 0 0 0
          0 0 0 0 0 0
          0 0 0 0 0 0
          0 0 0 0 0 0
          0 0 0 0 0 0
          0 0 0 0 0 0
          0 0 0 0 0 0
          0 0 0 0 0 0
          0 0 0 0 0 0
          0 0 0 0 0 0
          0 0 0 0 0 0
          0 0 0 0 0 0
          0 0 0 0 0 0
          0 0 0 0 0 0
          0 0 0 0 0 0
          0 0 0 0 0 0
          0 0 0 0 0 0
          0 0 0 0 0 0
          0 0 0 0 0 0
          0 0 0 0 0 0
          0 0 0 0 0 0
          0 0 0 0 0 0
          0 0 0 0 0 0
          0 0 0 0 0 0
          0 0 0 0 0 0
          0 0 0 0 0 0
          0 0 0 0 0 0
          0 0 0 0 0 0
          0 0 0 0 0 0
          0 0 0 0 0 0
          0 0 0 0 0 0
          0 0 0 0 0 0
          0 0 0 0 0 0
          0 0 0 0 0 0
          0 0 0 0 0 0
          0 0 0 0 0 0
          0 0 0 0 0 0
          0 0 0 0 0 0
          0 0 0 0 0 0
          0 0 0 0 0 0
          0 0 0 0 0 0
          0 0 0 0 0 0
          0 0 0 0 0 0
          0 0 0 0 0 0
          0 0 0 0 0 0
          0 0 0 0 0 0
          0 0 0 0 0 0
          0 0 0 0 0 0
          0 0 0 0 0 0
          0 0 0 0 0 0
          0 0 0 0 0 0
          0 0 0 0 0 0
          0 0 0 0 0 0
          0 0 0 0 0 0
          0 0 0 0 0 0
          0 0 0 0 0 0
          0 0 0 0 0 0
          0 0 0 0 0 0
          0 0 0 0 0 0
          0 0 0 0 0 0
          0 0 0 0 0 0
          0 0 0 0 0 0
          0 0 0 0 0 0
          0 0 0 0 0 0
          0 0 0 0 0 0
          0 0 0 0 0 0
          0 0 0 0 0 0
          0 0 0 0 0 0
          0 0 0 0 0 0
          0 0 0 0 0 0
          0 0 0 0 0 0
          0 0 0 0 0 0
          0 0 0 0 0 0
          0 0 0 0 0 0
          0 0 0 0 0 0
          0 0 0 0 0 0
          0 0 0 0 0 0
          0 0 0 0 0 0
          0 0 0 0 0 0
          0 0 0 0 0 0
          0 0 0 0 0 0
          0 0 0 0 0 0
          0 0 0 0 0 0
          0 0 0 0 0 0
          0 0 0 0 0 0
          0 0 0 0 0 0
          0 0 0 0 0 0
          0 0 0 0 0 0
          0 0 0 0 0 0
          0 0 0 0 0 0
          0 0 0 0 0 0
          0 0 0 0 0 0
          0 0 0 0 0 0
          0 0 0 0 0 0
          0 0 0 0 0 0
          0 0 0 0 0 0
          0 0 0 0 0 0
          0 0 0 0 0 0
          0 0 0 0 0 0
          0 0 0 0 0 0
          0 0 0 0 0 0
          0 0 0 0 0 0
          0 0 0 0 0 0
          0 0 0 0 0 0
          0 0 0 0 0 0
          0 0 0 0 0 0
          0 0 0 0 0 0
          0 0 0 0 0 0
          0 0 0 0 0 0
          0 0 0 0 0 0
          0 0 0 0 0 0
          0 0 0 0 0 0
          0 0 0 0 0 0
          0 0 0 0 0 0
          0 0 0 0 0 0
          0 0 0 0 0 0
          0 0 0 0 0 0
          0 0 0
        </DataArray>
        <DataArray type="Float64" Name="pe11" format="ascii" RangeMin="0" RangeMax="0">
          0 0 0 0 0 0
          0 0 0 0 0 0
          0 0 0 0 0 0
          0 0 0 0 0 0
          0 0 0 0 0 0
          0 0 0 0 0 0
          0 0 0 0 0 0
          0 0 0 0 0 0
          0 0 0 0 0 0
          0 0 0 0 0 0
          0 0 0 0 0 0
          0 0 0 0 0 0
          0 0 0 0 0 0
          0 0 0 0 0 0
          0 0 0 0 0 0
          0 0 0 0 0 0
          0 0 0 0 0 0
          0 0 0 0 0 0
          0 0 0 0 0 0
          0 0 0 0 0 0
          0 0 0 0 0 0
          0 0 0 0 0 0
          0 0 0 0 0 0
          0 0 0 0 0 0
          0 0 0 0 0 0
          0 0 0 0 0 0
          0 0 0 0 0 0
          0 0 0 0 0 0
          0 0 0 0 0 0
          0 0 0 0 0 0
          0 0 0 0 0 0
          0 0 0 0 0 0
          0 0 0 0 0 0
          0 0 0 0 0 0
          0 0 0 0 0 0
          0 0 0 0 0 0
          0 0 0 0 0 0
          0 0 0 0 0 0
          0 0 0 0 0 0
          0 0 0 0 0 0
          0 0 0 0 0 0
          0 0 0 0 0 0
          0 0 0 0 0 0
          0 0 0 0 0 0
          0 0 0 0 0 0
          0 0 0 0 0 0
          0 0 0 0 0 0
          0 0 0 0 0 0
          0 0 0 0 0 0
          0 0 0 0 0 0
          0 0 0 0 0 0
          0 0 0 0 0 0
          0 0 0 0 0 0
          0 0 0 0 0 0
          0 0 0 0 0 0
          0 0 0 0 0 0
          0 0 0 0 0 0
          0 0 0 0 0 0
          0 0 0 0 0 0
          0 0 0 0 0 0
          0 0 0 0 0 0
          0 0 0 0 0 0
          0 0 0 0 0 0
          0 0 0 0 0 0
          0 0 0 0 0 0
          0 0 0 0 0 0
          0 0 0 0 0 0
          0 0 0 0 0 0
          0 0 0 0 0 0
          0 0 0 0 0 0
          0 0 0 0 0 0
          0 0 0 0 0 0
          0 0 0 0 0 0
          0 0 0 0 0 0
          0 0 0 0 0 0
          0 0 0 0 0 0
          0 0 0 0 0 0
          0 0 0 0 0 0
          0 0 0 0 0 0
          0 0 0 0 0 0
          0 0 0 0 0 0
          0 0 0 0 0 0
          0 0 0 0 0 0
          0 0 0 0 0 0
          0 0 0 0 0 0
          0 0 0 0 0 0
          0 0 0 0 0 0
          0 0 0 0 0 0
          0 0 0 0 0 0
          0 0 0 0 0 0
          0 0 0 0 0 0
          0 0 0 0 0 0
          0 0 0 0 0 0
          0 0 0 0 0 0
          0 0 0 0 0 0
          0 0 0 0 0 0
          0 0 0 0 0 0
          0 0 0 0 0 0
          0 0 0 0 0 0
          0 0 0 0 0 0
          0 0 0 0 0 0
          0 0 0 0 0 0
          0 0 0 0 0 0
          0 0 0 0 0 0
          0 0 0 0 0 0
          0 0 0 0 0 0
          0 0 0 0 0 0
          0 0 0 0 0 0
          0 0 0 0 0 0
          0 0 0 0 0 0
          0 0 0 0 0 0
          0 0 0 0 0 0
          0 0 0 0 0 0
          0 0 0 0 0 0
          0 0 0 0 0 0
          0 0 0 0 0 0
          0 0 0 0 0 0
          0 0 0 0 0 0
          0 0 0 0 0 0
          0 0 0 0 0 0
          0 0 0 0 0 0
          0 0 0 0 0 0
          0 0 0 0 0 0
          0 0 0 0 0 0
          0 0 0 0 0 0
          0 0 0 0 0 0
          0 0 0 0 0 0
          0 0 0 0 0 0
          0 0 0 0 0 0
          0 0 0 0 0 0
          0 0 0
        </DataArray>
        <DataArray type="Float64" Name="pe22" format="ascii" RangeMin="0" RangeMax="0">
          0 0 0 0 0 0
          0 0 0 0 0 0
          0 0 0 0 0 0
          0 0 0 0 0 0
          0 0 0 0 0 0
          0 0 0 0 0 0
          0 0 0 0 0 0
          0 0 0 0 0 0
          0 0 0 0 0 0
          0 0 0 0 0 0
          0 0 0 0 0 0
          0 0 0 0 0 0
          0 0 0 0 0 0
          0 0 0 0 0 0
          0 0 0 0 0 0
          0 0 0 0 0 0
          0 0 0 0 0 0
          0 0 0 0 0 0
          0 0 0 0 0 0
          0 0 0 0 0 0
          0 0 0 0 0 0
          0 0 0 0 0 0
          0 0 0 0 0 0
          0 0 0 0 0 0
          0 0 0 0 0 0
          0 0 0 0 0 0
          0 0 0 0 0 0
          0 0 0 0 0 0
          0 0 0 0 0 0
          0 0 0 0 0 0
          0 0 0 0 0 0
          0 0 0 0 0 0
          0 0 0 0 0 0
          0 0 0 0 0 0
          0 0 0 0 0 0
          0 0 0 0 0 0
          0 0 0 0 0 0
          0 0 0 0 0 0
          0 0 0 0 0 0
          0 0 0 0 0 0
          0 0 0 0 0 0
          0 0 0 0 0 0
          0 0 0 0 0 0
          0 0 0 0 0 0
          0 0 0 0 0 0
          0 0 0 0 0 0
          0 0 0 0 0 0
          0 0 0 0 0 0
          0 0 0 0 0 0
          0 0 0 0 0 0
          0 0 0 0 0 0
          0 0 0 0 0 0
          0 0 0 0 0 0
          0 0 0 0 0 0
          0 0 0 0 0 0
          0 0 0 0 0 0
          0 0 0 0 0 0
          0 0 0 0 0 0
          0 0 0 0 0 0
          0 0 0 0 0 0
          0 0 0 0 0 0
          0 0 0 0 0 0
          0 0 0 0 0 0
          0 0 0 0 0 0
          0 0 0 0 0 0
          0 0 0 0 0 0
          0 0 0 0 0 0
          0 0 0 0 0 0
          0 0 0 0 0 0
          0 0 0 0 0 0
          0 0 0 0 0 0
          0 0 0 0 0 0
          0 0 0 0 0 0
          0 0 0 0 0 0
          0 0 0 0 0 0
          0 0 0 0 0 0
          0 0 0 0 0 0
          0 0 0 0 0 0
          0 0 0 0 0 0
          0 0 0 0 0 0
          0 0 0 0 0 0
          0 0 0 0 0 0
          0 0 0 0 0 0
          0 0 0 0 0 0
          0 0 0 0 0 0
          0 0 0 0 0 0
          0 0 0 0 0 0
          0 0 0 0 0 0
          0 0 0 0 0 0
          0 0 0 0 0 0
          0 0 0 0 0 0
          0 0 0 0 0 0
          0 0 0 0 0 0
          0 0 0 0 0 0
          0 0 0 0 0 0
          0 0 0 0 0 0
          0 0 0 0 0 0
          0 0 0 0 0 0
          0 0 0 0 0 0
          0 0 0 0 0 0
          0 0 0 0 0 0
          0 0 0 0 0 0
          0 0 0 0 0 0
          0 0 0 0 0 0
          0 0 0 0 0 0
          0 0 0 0 0 0
          0 0 0 0 0 0
          0 0 0 0 0 0
          0 0 0 0 0 0
          0 0 0 0 0 0
          0 0 0 0 0 0
          0 0 0 0 0 0
          0 0 0 0 0 0
          0 0 0 0 0 0
          0 0 0 0 0 0
          0 0 0 0 0 0
          0 0 0 0 0 0
          0 0 0 0 0 0
          0 0 0 0 0 0
          0 0 0 0 0 0
          0 0 0 0 0 0
          0 0 0 0 0 0
          0 0 0 0 0 0
          0 0 0 0 0 0
          0 0 0 0 0 0
          0 0 0 0 0 0
          0 0 0 0 0 0
          0 0 0 0 0 0
          0 0 0 0 0 0
          0 0 0 0 0 0
          0 0 0
        </DataArray>
        <DataArray type="Float64" Name="pe33" format="ascii" RangeMin="0" RangeMax="0">
          0 0 0 0 0 0
          0 0 0 0 0 0
          0 0 0 0 0 0
          0 0 0 0 0 0
          0 0 0 0 0 0
          0 0 0 0 0 0
          0 0 0 0 0 0
          0 0 0 0 0 0
          0 0 0 0 0 0
          0 0 0 0 0 0
          0 0 0 0 0 0
          0 0 0 0 0 0
          0 0 0 0 0 0
          0 0 0 0 0 0
          0 0 0 0 0 0
          0 0 0 0 0 0
          0 0 0 0 0 0
          0 0 0 0 0 0
          0 0 0 0 0 0
          0 0 0 0 0 0
          0 0 0 0 0 0
          0 0 0 0 0 0
          0 0 0 0 0 0
          0 0 0 0 0 0
          0 0 0 0 0 0
          0 0 0 0 0 0
          0 0 0 0 0 0
          0 0 0 0 0 0
          0 0 0 0 0 0
          0 0 0 0 0 0
          0 0 0 0 0 0
          0 0 0 0 0 0
          0 0 0 0 0 0
          0 0 0 0 0 0
          0 0 0 0 0 0
          0 0 0 0 0 0
          0 0 0 0 0 0
          0 0 0 0 0 0
          0 0 0 0 0 0
          0 0 0 0 0 0
          0 0 0 0 0 0
          0 0 0 0 0 0
          0 0 0 0 0 0
          0 0 0 0 0 0
          0 0 0 0 0 0
          0 0 0 0 0 0
          0 0 0 0 0 0
          0 0 0 0 0 0
          0 0 0 0 0 0
          0 0 0 0 0 0
          0 0 0 0 0 0
          0 0 0 0 0 0
          0 0 0 0 0 0
          0 0 0 0 0 0
          0 0 0 0 0 0
          0 0 0 0 0 0
          0 0 0 0 0 0
          0 0 0 0 0 0
          0 0 0 0 0 0
          0 0 0 0 0 0
          0 0 0 0 0 0
          0 0 0 0 0 0
          0 0 0 0 0 0
          0 0 0 0 0 0
          0 0 0 0 0 0
          0 0 0 0 0 0
          0 0 0 0 0 0
          0 0 0 0 0 0
          0 0 0 0 0 0
          0 0 0 0 0 0
          0 0 0 0 0 0
          0 0 0 0 0 0
          0 0 0 0 0 0
          0 0 0 0 0 0
          0 0 0 0 0 0
          0 0 0 0 0 0
          0 0 0 0 0 0
          0 0 0 0 0 0
          0 0 0 0 0 0
          0 0 0 0 0 0
          0 0 0 0 0 0
          0 0 0 0 0 0
          0 0 0 0 0 0
          0 0 0 0 0 0
          0 0 0 0 0 0
          0 0 0 0 0 0
          0 0 0 0 0 0
          0 0 0 0 0 0
          0 0 0 0 0 0
          0 0 0 0 0 0
          0 0 0 0 0 0
          0 0 0 0 0 0
          0 0 0 0 0 0
          0 0 0 0 0 0
          0 0 0 0 0 0
          0 0 0 0 0 0
          0 0 0 0 0 0
          0 0 0 0 0 0
          0 0 0 0 0 0
          0 0 0 0 0 0
          0 0 0 0 0 0
          0 0 0 0 0 0
          0 0 0 0 0 0
          0 0 0 0 0 0
          0 0 0 0 0 0
          0 0 0 0 0 0
          0 0 0 0 0 0
          0 0 0 0 0 0
          0 0 0 0 0 0
          0 0 0 0 0 0
          0 0 0 0 0 0
          0 0 0 0 0 0
          0 0 0 0 0 0
          0 0 0 0 0 0
          0 0 0 0 0 0
          0 0 0 0 0 0
          0 0 0 0 0 0
          0 0 0 0 0 0
          0 0 0 0 0 0
          0 0 0 0 0 0
          0 0 0 0 0 0
          0 0 0 0 0 0
          0 0 0 0 0 0
          0 0 0 0 0 0
          0 0 0 0 0 0
          0 0 0 0 0 0
          0 0 0 0 0 0
          0 0 0 0 0 0
          0 0 0 0 0 0
          0 0 0 0 0 0
          0 0 0
        </DataArray>
        <DataArray type="Float64" Name="disp_x" format="ascii" RangeMin="3.7378538138363947e-7" RangeMax="0.000002200133564585583">
          9.837613620061141e-7 9.837593702530115e-7 9.837532301121204e-7 8.977132680407083e-7 8.977108892742163e-7 8.977043417046995e-7
          9.853018237628686e-7 9.852999780850864e-7 9.85294357576003e-7 4.5845968478224626e-7 4.58447929822048e-7 4.5841189879603954e-7
          5.470985449426163e-7 5.470889892774555e-7 5.470605686107442e-7 6.356348398507234e-7 6.356278074876459e-7 6.356066078961108e-7
          7.239358228064543e-7 7.239307034831881e-7 7.239155744548921e-7 8.11946514927923e-7 8.11943197578671e-7 8.119325814191983e-7
          8.996664149746263e-7 8.99664368383961e-7 8.996590748612302e-7 9.871275311627473e-7 9.871259709415095e-7 9.871212113273998e-7
          4.6049841565219366e-7 4.6048406974806445e-7 4.6044003641923926e-7 5.495313654422205e-7 5.495205205390892e-7 5.494882909617967e-7
          6.38254273629851e-7 6.382469013964725e-7 6.382246841520846e-7 7.265658606769227e-7 7.2656093270661e-7 7.265463842440469e-7
          8.144624672118842e-7 8.14459625109491e-7 8.144503446152107e-7 9.019909025436956e-7 9.019894377369957e-7 9.01986154293518e-7
          9.892308859097338e-7 9.892298793770985e-7 9.892263871895752e-7 3.73881082151075e-7 3.738560378569674e-7 3.7378538138363947e-7
          4.6363954759408613e-7 4.6362271457510717e-7 4.6357083029042235e-7 5.529958078196112e-7 5.529841774681332e-7 5.529497065172072e-7
          6.417453863202023e-7 6.417383261063903e-7 6.417170649733718e-7 7.298806806532384e-7 7.298766278368349e-7 7.298645146949854e-7
          8.174877474191075e-7 8.174857610463902e-7 8.17479543176797e-7 9.046799203401372e-7 9.046793798312178e-7 9.046778987332307e-7
          9.915668065308155e-7 9.915668783819059e-7 9.915672123352267e-7 3.780434927495369e-7 3.780123472235801e-7 3.779246909401682e-7
          4.683874355802279e-7 4.683689564369873e-7 4.6831174380200993e-7 5.577942557815928e-7 5.577830789291933e-7 5.577500130118754e-7
          6.462436918484306e-7 6.462381458374169e-7 6.46221333184652e-7 7.339052828756626e-7 7.339030054729567e-7 7.338961044889774e-7
          8.209856940235873e-7 8.209852110761744e-7 8.209839579989556e-7 9.076650540063836e-7 9.076658176822127e-7 9.076672115791817e-7
          9.940717716792735e-7 9.940732303131254e-7 9.940787175294745e-7 3.8489823749981945e-7 3.848624358618152e-7 3.847614290549464e-7
          4.753197984363836e-7 4.7530194676810593e-7 4.752464575137704e-7 5.641472001856678e-7 5.64138912263397e-7 5.641143680243385e-7
          6.517568544110643e-7 6.517546663098272e-7 6.517481854261141e-7 7.385429491367186e-7 7.385436425863785e-7 7.385454369006064e-7
          8.248197871617871e-7 8.248216544653243e-7 8.248275285071507e-7 9.108095729387383e-7 9.108119734231378e-7 9.108186559547591e-7
          9.966478238797537e-7 9.966506104596798e-7 9.966589491490723e-7 3.9568900952783565e-7 3.956577980018654e-7 3.955612549089359e-7
          4.847926572864121e-7 4.847806055054126e-7 4.847418988114701e-7 5.719777227861066e-7 5.719766563124584e-7 5.719729870606466e-7
          6.58041828154773e-7 6.580459049593948e-7 6.580585583636055e-7 7.434955095041704e-7 7.435005197976329e-7 7.435143433455724e-7
          8.287292959015075e-7 8.287341833937521e-7 8.287494898996614e-7 9.138982302137644e-7 9.139028477028052e-7 9.139156664113621e-7
          9.99087178580454e-7 9.99091516606332e-7 9.991049076751274e-7 4.1083967130366143e-7 4.108282989803468e-7 4.107961368313523e-7
          4.964287294501052e-7 4.964354365929378e-7 4.964507173771061e-7 5.8066107160728e-7 5.806724090225194e-7 5.807082288113056e-7
          6.643946008907629e-7 6.644064595730843e-7 6.644460904452827e-7 7.482609326535414e-7 7.482718825318203e-7 7.483017661017091e-7
          8.323204518723198e-7 8.323289531215202e-7 8.323559938645216e-7 9.166374799330227e-7 9.166448365878624e-7 9.166655433483676e-7
          0.0000010011920684148355 0.0000010011977306465636 0.0000010012155005047278 7.730731912524419e-7 8.487794503342028e-7 8.592311279050805e-7
          7.909089915398492e-7 7.730870270594668e-7 8.487908912600421e-7 8.59243089972083e-7 7.909248575941641e-7 7.731307406949352e-7
          8.488243302433185e-7 8.592785853366354e-7 7.909733303435621e-7 5.535752801785195e-7 5.557735510753935e-7 4.6759547439946235e-7
          4.812598475779552e-7 5.53601607545472e-7 5.558262172695041e-7 4.676755070575046e-7 4.812908188684667e-7 5.536804643272958e-7
          5.559680142161203e-7 4.6790188082639445e-7 4.813835730265097e-7 6.274279719585252e-7 6.462859403176235e-7 6.274518609151114e-7
          6.463123578327729e-7 6.27515983850171e-7 6.463993515979173e-7 7.243928002672769e-7 6.960230734356973e-7 7.244136924676844e-7
          6.960406611719238e-7 7.244751610224935e-7 6.960936411018823e-7 9.250127996538784e-7 9.198965824103134e-7 9.250218341244162e-7
          9.199070405549561e-7 9.250512244902569e-7 9.19936793802882e-7 3.987341722942688e-7 4.074249960976096e-7 3.9876220523909285e-7
          4.075228666632181e-7 3.9884895142827157e-7 4.078182318594271e-7 9.199175090999812e-7 8.36985421621699e-7 9.199281762612552e-7
          8.369991776505921e-7 9.199572519999625e-7 8.370405149844273e-7 0.0000010029905331080893 0.0000010029975574389332 0.000001003018619379831
          4.459249012509772e-7 4.4604280638760646e-7 4.4643703559407446e-7 5.178271594421947e-7 5.178883569753828e-7 5.181358202111076e-7
          5.945724947376157e-7 6.73924469117633e-7 5.946164165815111e-7 6.739529853709162e-7 5.947549294281704e-7 6.740326574214279e-7
          7.547898973748833e-7 7.548089294588354e-7 7.548701136922804e-7 0.0000010035817392545929 0.0000010035896350544132 0.0000010036173461928315
          0.000001151948861242702 0.0000011519477575607412 0.0000011519446638925329 0.0000010778594528852332 0.0000010708898257388334 0.0000011451144086747575
          0.0000011552360830776794 0.0000010778632548692083 0.0000010708925316705868 0.0000011451165685218384 0.00000115523914097283 0.0000010778755430705843
          0.000001070901001948648 0.0000011451230009748983 0.0000011552458491015687 0.0000012119430413004423 0.0000012119420476702813 0.000001211938636067834
          0.0000011756962261180284 0.0000010825175604458307 0.0000011757007816599517 0.000001082522243650327 0.0000011757152597936665 0.0000010825366185014141
          0.0000013234239062359965 0.0000012616905233660213 0.0000012101890429917673 0.0000012468537760463322 0.0000013234233783287951 0.0000012616899811946968
          0.0000012101883247942032 0.0000012468529980304846 0.0000013234217844797876 0.0000012616876542912856 0.0000012101865727425983 0.000001246850350771684
          0.0000011331350575894625 0.0000010634483353995685 0.0000011331363496382902 0.0000010634498295551999 0.0000011331383715056022 0.0000010634551730268168
          0.000001309110333098863 0.0000013874783591619114 0.0000013091096546054718 0.0000013874780112465764 0.000001309107689450241 0.000001387476977442548
          0.0000012869421759256595 0.0000012546592940736882 0.0000012336130245935701 0.0000012869452898579052 0.0000012546632711606005 0.0000012336167476852848
          0.0000012869547054913308 0.0000012546759994839937 0.0000012336278100494293 0.000001679188944693915 0.0000017609909176063963 0.0000017892603634220817
          0.000001700526147673021 0.000001679189657165205 0.000001760991578877528 0.000001789261066068375 0.0000017005270353652558 0.0000016791920354298169
          0.0000017609937204571342 0.0000017892629442701383 0.0000017005298543691077 0.0000013951376693726197 0.000001407852466454232 0.000001335943654304769
          0.0000013951374102142127 0.000001407852337742583 0.0000013359434500706985 0.0000013951368729998675 0.0000014078522066580446 0.0000013359431386875963
          0.000001613795903531946 0.0000017036721137878544 0.000001736937410315842 0.0000016360877864347054 0.000001613795923164558 0.0000017036721770006716
          0.0000017369376556257216 0.0000016360879677698273 0.0000016137962348465055 0.000001703672393353177 0.000001736938422334392 0.000001636088652252283
          0.000001059516748127604 0.0000011089330628036659 0.0000010595174284373143 0.0000011089336700018813 0.000001059519535726092 0.000001108934629910609
          0.0000016330009465700916 0.0000016254406089018153 0.0000017163105213480616 0.0000017223276489270339 0.0000016330023396275176 0.0000016254418748434316
          0.0000017163115930518115 0.0000017223287662253018 0.0000016330066408599284 0.0000016254457858930303 0.0000017163147887908497 0.0000017223318861130817
          0.0000011835698327395604 0.0000010784488644657831 0.000001127116696630104 0.0000011835705585766684 0.0000010784486741086727 0.0000011271166071557903
          0.0000011835731499221081 0.0000010784477874042259 0.0000011271174103194678 0.0000015449323060217085 0.0000015400602720483831 0.0000015449340054526786
          0.0000015400617069917152 0.0000015449390758040024 0.0000015400658817621635 0.0000017062946872268233 0.000001717890261802845 0.000001804605919469696
          0.0000018026310889812733 0.0000017062961597904632 0.0000017178915238895332 0.0000018046070624747074 0.0000018026322741211588 0.0000017063006918818502
          0.0000017178955561345987 0.0000018046098504260673 0.000001802635959380265 0.0000019736426171936164 0.0000020161236530317313 0.0000019736436656390444
          0.00000201612446142413 0.000001973646856845881 0.0000020161265616998213 0.000001724179106402016 0.0000016483740327155148 0.0000017241796261200156
          0.000001648374338559257 0.0000017241817119725617 0.0000016483750298846271 0.0000014421717356100833 0.0000014782778732139004 0.000001442171554902744
          0.0000014782776982814384 0.0000014421707731623236 0.000001478276991850715 0.0000014456143017333974 0.000001364747688602542 0.0000013576390698572065
          0.0000014568698868632352 0.000001445615306902908 0.0000013647485850303494 0.000001357639504461768 0.0000014568703978671585 0.0000014456188927699865
          0.000001364750736348537 0.0000013576405600408038 0.000001456872313254845 0.0000016132131813747633 0.000001613214228993468 0.0000016132174314721566
          0.000001136228819697455 0.0000011362278502124757 0.0000011362254491124776 0.000001340348016842555 0.0000012884563064579072 0.000001340347331828129
          0.0000012884555766166174 0.0000013403453317206178 0.0000012884537067829513 0.0000012207987952060916 0.000001228283087119448 0.000001220800889128536
          0.0000012282858444855975 0.0000012208073792127302 0.000001228294451356503 0.0000011981507226379217 0.0000011509828974635858 0.0000011981557552348167
          0.0000011509875917683142 0.0000011981720574909365 0.0000011510049929361677 0.0000012087549668039752 0.0000012087562350892808 0.0000012087601337396288
          0.0000012801027785554168 0.000001290173432952693 0.0000012801037407768517 0.0000012901750253589004 0.000001280106550809561 0.0000012901802398126935
          0.0000015374567167006873 0.0000015220698972760802 0.0000014276195581806098 0.0000014499908609413422 0.0000015374586105209016 0.0000015220720212500683
          0.0000014276219498918738 0.0000014499929553719439 0.0000015374642203211863 0.0000015220783145087762 0.0000014276294978391863 0.0000014499994638954885
          0.0000014273088330483726 0.0000015049175059277527 0.000001427308895164301 0.000001504917494223211 0.0000014273087109462355 0.000001504917114504769
          0.0000012959750388966346 0.0000013375219222988315 0.0000013941317631829623 0.000001295979001798109 0.000001337524926039304 0.0000013941344420715848
          0.0000012959895186956142 0.0000013375321267443628 0.0000013941441972854438 0.0000013470482878058999 0.0000012742801901256452 0.0000012683427126321438
          0.0000013470484169317232 0.0000012742806261774554 0.000001268342708429274 0.0000013470490450377918 0.000001274281687256496 0.0000012683428266704807
          0.0000015369571258998798 0.0000015369574265618128 0.0000015369584446919926 0.0000012637053379660223 0.0000012637050168858455 0.0000012637036579457094
          0.0000011955733543412841 0.0000011948147941639588 0.0000011955728678263738 0.0000011948146696355751 0.000001195571374869765 0.0000011948138188829301
          0.0000013008739061242988 0.0000012990500667907693 0.000001300876671347792 0.0000012990522900159491 0.0000013008857713860713 0.0000012990587441986356
          0.0000018314792666631289 0.0000018314802578447413 0.0000018314832580243154 0.000001247460717240306 0.0000013021759399916658 0.0000012474597847199123
          0.0000013021752089139118 0.0000012474568247501794 0.0000013021734995565433 0.0000013847775949453367 0.0000013847769482580241 0.0000013847749065389926
          0.000002020472772230943 0.0000020275932109041374 0.000001982354071399673 0.0000019485634650133003 0.0000020204734624852678 0.0000020275939650277195
          0.000001982354838477192 0.000001948564150046861 0.000002020475523778156 0.0000020275960605658705 0.0000019823571294512493 0.0000019485663191439373
          0.00000149251529316273 0.00000149251778613685 0.00000149252467949805 0.0000014510158890068744 0.0000013714011737116411 0.0000014510171875489806
          0.0000013714026820454868 0.0000014510209942808855 0.0000013714070844272226 0.0000011961723144157011 0.000001196172720048245 0.0000011961743057934454
          0.0000013497556719580593 0.0000014027634490148277 0.00000134975513603134 0.0000014027629951291046 0.0000013497534655336293 0.0000014027616270651468
          0.000001857275715783362 0.0000018572759345469499 0.0000018572765328852087 0.000001788607844612983 0.0000019121859547192336 0.000001887541787184693
          0.0000017886091109803332 0.000001912187032099401 0.0000018875427632041654 0.0000017886128276360218 0.0000019121903648464 0.0000018875453018835734
          0.000001576648853787376 0.00000160593765640497 0.0000015766489047718486 0.0000016059379681985056 0.0000015766491072409373 0.0000016059386722909425
          0.0000018723340668238344 0.0000019169548324385056 0.0000018723347615366354 0.000001916955702513211 0.0000018723367296601025 0.0000019169584005016005
          0.0000016629184778201161 0.0000015726975566340196 0.0000016629190191071635 0.0000015726980814582225 0.000001662920899937557 0.0000015726990037815908
          0.0000017062953441798614 0.0000016528756005696573 0.0000017062959155941269 0.000001652876122777448 0.0000017062980816229328 0.00000165287698217857
          0.000001982844243979017 0.0000019828450637363045 0.0000019828473528828922 0.0000018120144165919602 0.0000018120155635419992 0.000001812018851129421
          0.000002062545966203582 0.000002062546712791754 0.0000020625488625133695 0.0000015183769610349868 0.000001518377656659322 0.0000015183798365843113
          0.0000019320828837488643 0.000001932083947296627 0.0000019320870031144258 0.0000014114192015200088 0.0000014114186476361126 0.0000014114167912105243
          0.0000016137717850874436 0.000001629669282736359 0.0000016137735511942736 0.0000016296709245241885 0.0000016137786637915147 0.0000016296757684987828
          0.000001803743602796729 0.000001803449624440023 0.0000018037439035234267 0.0000018034500725014381 0.0000018037447592744078 0.0000018034514437798038
          0.0000017968060450655814 0.0000017968065644148356 0.0000017968078722244193 0.0000018957794531500566 0.000001895780700598715 0.0000018957850488136578
          0.0000014603461181085397 0.000001531296911768936 0.000001516219329817794 0.0000014603458303627694 0.0000015312967229078165 0.000001516219204642038
          0.000001460345004946828 0.0000015312958730617561 0.0000015162187406163435 0.0000018855141516687772 0.0000019025646297111584 0.0000018855144409998528
          0.000001902565026403227 0.000001885514736709342 0.0000019025662137667693 0.0000014707151676342644 0.0000014707148043282173 0.0000014707133210013894
          0.0000015910778484084645 0.000001591079685873885 0.000001591085299770209 0.0000019231742272413085 0.0000019231747850877805 0.000001923176497070649
          0.0000015524316485841245 0.0000015524316433612274 0.0000015524312471174747 0.000001487202177447117 0.000001487201756580368 0.0000014872004777704725
          0.0000015222404993336781 0.0000015222414175128929 0.0000015222441926549382 0.00000153133414185365 0.0000015313353328656748 0.0000015313387696207851
          0.0000010571857803751374 0.0000010571842249773362 0.0000010571790553456809 0.000001055396900419322 0.0000010553954435679711 0.0000010553903279401012
          0.0000015167242130531097 0.0000015167238856903663 0.00000151672302993708 0.00000105575574650434 0.0000010557544162123064 0.000001055749665747599
          0.0000015749109034068596 0.0000015749107176107717 0.0000015749102303445798 0.0000010606307749117118 0.0000010606299369640756 0.000001060625521085636
          0.0000013780168473428974 0.0000013780187914581922 0.0000013780245408976176 0.0000015984320121315018 0.0000015984327325339532 0.000001598434180333752
          0.0000013781361302044852 0.000001378138480664389 0.0000013781451948069006 0.000001457646911329071 0.0000014576485609613854 0.0000014576534538403503
          0.000001460546028276397 0.0000014605479659000969 0.0000014605536736723066 0.0000017409657283485849 0.0000017409664523802869 0.0000017409686933296057
          0.0000018403657564654307 0.0000018403663089106076 0.000001840367475735505 0.0000011252921520933864 0.0000011270885063420385 0.0000011252914146386982
          0.000001127088254923545 0.0000011252899592056106 0.0000011270880186367326 0.0000011270828794098803 0.0000011270819902387621 0.0000011270797370629888
          0.000001087760259076671 0.0000011006000060176176 0.0000010877659125360814 0.0000011006059461548144 0.0000010877772941469532 0.0000011006228862540818
          0.0000018689504158049136 0.0000018689516680337276 0.000001868955183461075 0.000001689782969818331 0.0000016897845927957592 0.0000016897894132624232
          0.0000013636722018033072 0.0000013636748100268641 0.0000013636821976852705 0.0000020546042141258967 0.0000020925413813890837 0.0000020546050961819495
          0.0000020925421430950692 0.0000020546074630036506 0.0000020925446495060314 0.0000019396429498466517 0.000001813554106435006 0.000001866864456670158
          0.000001939643297842848 0.0000018135542744387269 0.0000018668645974879523 0.000001939644414911762 0.0000018135543059910263 0.0000018668653933550205
          0.0000020379836607639354 0.000002037984380099876 0.000002037986610227727 0.0000021151054773165978 0.000002115106205227599 0.0000021151081657403074
          0.0000020223522567595543 0.0000019865326852460125 0.0000020223531953566517 0.000001986533631032222 0.000002022355925066023 0.0000019865366197046805
          0.000002200130895562875 0.000002142438026957866 0.0000022001315478032482 0.000002142438783564311 0.000002200133564585583 0.0000021424409487036666
          0.0000019936016163409907 0.0000020085601713585115 0.0000019936021578301325 0.0000020085608542950036 0.0000019936039081630166 0.000002008562801178731
          0.000002097136176616112 0.0000020974599758963027 0.00000209713679756089 0.000002097460686797178 0.0000020971386876988607 0.0000020974627861269746
          0.0000019735886333030063 0.0000019735890144905445 0.0000019735901745131455 0.000001410906283278705 0.0000015237282971284711 0.000001410905718407897
          0.0000015237279404367095 0.0000014109039593031761 0.000001523726840463099 0.0000017579081745800824 0.0000017579081620938471 0.00000175790787757221
          0.0000015966478606186323 0.0000016174166202144375 0.0000015966476515187804 0.0000016174164326924489 0.0000015966469125695073 0.000001617415757254482
          0.0000016553538347791292 0.0000016553538180333263 0.0000016553537693049054 0.0000020799340937903136 0.000002079934807950554 0.0000020799370797995213
          0.0000016807299995964996 0.0000016807299358373062 0.0000016807296282611298
        </DataArray>
        <DataArray type="Float64" Name="disp_y" format="ascii" RangeMin="-7.686908351985469e-7" RangeMax="-3.3927710250157593e-7">
          -5.134477708869263e-7 -5.134507862041971e-7 -5.134597767290448e-7 -5.375388502846533e-7 -5.375427659411673e-7 -5.375546256519722e-7
          -5.38546299008858e-7 -5.385499028238169e-7 -5.385605912878518e-7 -5.499436806906861e-7 -5.499457133237098e-7 -5.499519118237689e-7
          -5.539846011607683e-7 -5.539887355742776e-7 -5.540011624905328e-7 -5.572212910130036e-7 -5.572264337432776e-7 -5.572418629860868e-7
          -5.596946339206556e-7 -5.597000490697038e-7 -5.597163212784793e-7 -5.615137135650955e-7 -5.615190040280061e-7 -5.61534812939975e-7
          -5.628023798765883e-7 -5.62807214840982e-7 -5.628218733135084e-7 -5.63671770232935e-7 -5.636761774044884e-7 -5.636888703255735e-7
          -5.752564165803985e-7 -5.752613635152862e-7 -5.752762496768874e-7 -5.796506258218031e-7 -5.796575842741896e-7 -5.79678448026568e-7
          -5.82959026282709e-7 -5.82966564402708e-7 -5.829891686660415e-7 -5.853403760604014e-7 -5.853476897607429e-7 -5.853695774066267e-7
          -5.86991326171353e-7 -5.869979790967878e-7 -5.87017975009611e-7 -5.880931065046433e-7 -5.880990673902496e-7 -5.88116684066833e-7
          -5.887819276355746e-7 -5.88787004180624e-7 -5.888027861359677e-7 -5.950498944756009e-7 -5.950554588023285e-7 -5.95071780976502e-7
          -6.012213716230748e-7 -6.0123111134674e-7 -6.012602129461928e-7 -6.057875902221497e-7 -6.05798661658463e-7 -6.058316871673043e-7
          -6.089755145498446e-7 -6.089862267687613e-7 -6.090182031598902e-7 -6.111097641964434e-7 -6.111193262943982e-7 -6.1114794420319e-7
          -6.124860780482197e-7 -6.124942726835048e-7 -6.125187199130685e-7 -6.133301891365897e-7 -6.133371826943151e-7 -6.133580683234363e-7
          -6.138228853384018e-7 -6.13828639740184e-7 -6.138462293074563e-7 -6.213478749749718e-7 -6.213611326909782e-7 -6.214023467054018e-7
          -6.279267989169709e-7 -6.279436258356954e-7 -6.279944679451235e-7 -6.323403236464346e-7 -6.32356757052476e-7 -6.324064000475023e-7
          -6.351501500744145e-7 -6.351645626724338e-7 -6.352080358206066e-7 -6.368702934778859e-7 -6.368822149449251e-7 -6.369179638572502e-7
          -6.37877531273657e-7 -6.378871379466988e-7 -6.379161429863318e-7 -6.384249810358803e-7 -6.384327822361817e-7 -6.384558510347107e-7
          -6.386606063606443e-7 -6.38667030931315e-7 -6.386868692227488e-7 -6.488762936646495e-7 -6.489049083882421e-7 -6.489868725082124e-7
          -6.552701800582867e-7 -6.552983495516034e-7 -6.55380687938797e-7 -6.590817994936468e-7 -6.591062837016421e-7 -6.591776491343553e-7
          -6.612469977429972e-7 -6.612655328969209e-7 -6.613203754549903e-7 -6.624211363891491e-7 -6.624353578627201e-7 -6.624776564381545e-7
          -6.630171240098636e-7 -6.630279579101604e-7 -6.630600612868964e-7 -6.632625176304477e-7 -6.632707878250315e-7 -6.632954580625766e-7
          -6.632890357939625e-7 -6.632956991858666e-7 -6.633153294743533e-7 -6.774133594964545e-7 -6.774695005990664e-7 -6.776372580585163e-7
          -6.827490684922878e-7 -6.827933318352228e-7 -6.829234355430485e-7 -6.855813168524087e-7 -6.85612639780836e-7 -6.857132360210535e-7
          -6.869078158221777e-7 -6.869307621793622e-7 -6.869973085350592e-7 -6.875185543874583e-7 -6.875343479079655e-7 -6.875824437460812e-7
          -6.87753507328484e-7 -6.877649784172489e-7 -6.877993610255869e-7 -6.87756098179087e-7 -6.877642726751544e-7 -6.877888474644879e-7
          -6.876253718197464e-7 -6.876313791392059e-7 -6.876500876982887e-7 -7.057837604308198e-7 -7.058692297133167e-7 -7.061348423852765e-7
          -7.094503930737871e-7 -7.095016245369978e-7 -7.096702589163925e-7 -7.112662037727472e-7 -7.113019090032037e-7 -7.114030575338797e-7
          -7.11708895238177e-7 -7.117313803896701e-7 -7.118043587402516e-7 -7.119812547754759e-7 -7.119972848115785e-7 -7.120444019726598e-7
          -7.119772951900213e-7 -7.11987761190125e-7 -7.120201338082685e-7 -7.118541330765467e-7 -7.118616972264602e-7 -7.118837204928425e-7
          -7.1164007558461e-7 -7.116452789719205e-7 -7.116593117649629e-7 -7.313385592996923e-7 -7.317655461759163e-7 -7.491311823170731e-7
          -7.484818326544169e-7 -7.313496257729451e-7 -7.317739003412909e-7 -7.491364626393187e-7 -7.48489338082853e-7 -7.313861205536522e-7
          -7.317970614927704e-7 -7.491521165611003e-7 -7.485087555558052e-7 -7.330404894413821e-7 -7.520582448100375e-7 -7.475277480393025e-7
          -7.298795719608638e-7 -7.330794632764879e-7 -7.520908423376581e-7 -7.476145587582233e-7 -7.299509557439e-7 -7.331947216730047e-7
          -7.521910373811109e-7 -7.478923773441781e-7 -7.301303071463835e-7 -7.335981019489971e-7 -7.507249450514883e-7 -7.336222338147659e-7
          -7.507399459753821e-7 -7.336959413269082e-7 -7.507841446758884e-7 -7.50284356837969e-7 -7.31721264262225e-7 -7.502945134374094e-7
          -7.317383363740439e-7 -7.503197358393584e-7 -7.317894330477782e-7 -7.347266882034827e-7 -7.53050880375566e-7 -7.347322057337134e-7
          -7.530553845638406e-7 -7.347512571115218e-7 -7.530682358757531e-7 -7.269282737161786e-7 -7.436997880053878e-7 -7.270624294169174e-7
          -7.438594097349228e-7 -7.274389124551552e-7 -7.443531750683682e-7 -7.686779264761223e-7 -7.685754239062457e-7 -7.686822536650001e-7
          -7.685787543131856e-7 -7.686899340997885e-7 -7.685869625860003e-7 -7.402814056513218e-7 -7.402854506260004e-7 -7.402965563149819e-7
          -7.619660415263623e-7 -7.620672640444304e-7 -7.624026793511788e-7 -7.649871170646404e-7 -7.650388867557641e-7 -7.651446403147674e-7
          -7.67047865311387e-7 -7.678337710431212e-7 -7.67066125800806e-7 -7.678434657376213e-7 -7.670950421640399e-7 -7.678599760627412e-7
          -7.683521468444858e-7 -7.683565212075721e-7 -7.683730546246216e-7 -7.686780563547302e-7 -7.686809102460373e-7 -7.686908351985469e-7
          -4.6842239740219567e-7 -4.6842449280688454e-7 -4.6843077221563057e-7 -6.908932713760942e-7 -6.661616132243426e-7 -6.662660154643945e-7
          -6.917428685174543e-7 -6.908981310132609e-7 -6.661668145666248e-7 -6.66270257450984e-7 -6.917468476573773e-7 -6.909113740666578e-7
          -6.661827812691458e-7 -6.662830726909544e-7 -6.917578539504206e-7 -4.4216185560861005e-7 -4.421635786807919e-7 -4.421686806414093e-7
          -7.201645253279628e-7 -7.167304219017204e-7 -7.201674372521013e-7 -7.167347501607747e-7 -7.201777139255707e-7 -7.167496569120502e-7
          -4.904410889276285e-7 -5.053234528307803e-7 -5.013188868144769e-7 -4.776193084686193e-7 -4.904430470015345e-7 -5.053257431992912e-7
          -5.013212612134722e-7 -4.776212495816936e-7 -4.904487534249684e-7 -5.05332715471575e-7 -5.013283409514379e-7 -4.776269568508825e-7
          -6.414932753262608e-7 -6.424551579262429e-7 -6.414976620082712e-7 -6.424603916451252e-7 -6.415110946184726e-7 -6.424771064934981e-7
          -4.5028454705507393e-7 -4.7008526863265784e-7 -4.5028633632326826e-7 -4.700870237181272e-7 -4.502917284696574e-7 -4.7009249858108705e-7
          -7.128297409391255e-7 -7.359380861502359e-7 -7.081663423185242e-7 -7.128316455124383e-7 -7.359401766574815e-7 -7.081692566153514e-7
          -7.128351081077539e-7 -7.359462761890367e-7 -7.081750168111119e-7 -5.956565615664562e-7 -5.872006944648574e-7 -6.147623876807468e-7
          -6.237496197700033e-7 -5.956582103722879e-7 -5.872022733516531e-7 -6.147638750632387e-7 -6.237512008796194e-7 -5.956631692132176e-7
          -5.872075200069109e-7 -6.147681625717479e-7 -6.237556989788351e-7 -4.981428145267572e-7 -5.158692387395189e-7 -5.205987748863816e-7
          -4.981447093709072e-7 -5.15871223706278e-7 -5.206010429880538e-7 -4.981500032100644e-7 -5.158774778183607e-7 -5.206076527215732e-7
          -4.557661851171189e-7 -4.5848251596954666e-7 -4.820525702095695e-7 -4.876547534536126e-7 -4.557676919173797e-7 -4.5848387597516107e-7
          -4.820540515795917e-7 -4.876564899804785e-7 -4.55772203492745e-7 -4.5848796901416384e-7 -4.820588122228744e-7 -4.876618431912251e-7
          -6.257356366519665e-7 -6.19269158360301e-7 -6.25740797824977e-7 -6.192733988515255e-7 -6.257548298076208e-7 -6.192849420687897e-7
          -6.871759850142827e-7 -6.583295735452434e-7 -6.537582446931153e-7 -6.84253047671789e-7 -6.871774238559742e-7 -6.58331265931812e-7
          -6.537598134504685e-7 -6.842544106169964e-7 -6.871817527396205e-7 -6.583362818306916e-7 -6.537647413406716e-7 -6.842584890347346e-7
          -6.056869691243964e-7 -5.996888118876219e-7 -5.921409918957498e-7 -6.056906516163552e-7 -5.996931012090434e-7 -5.921448553071438e-7
          -6.057019752459288e-7 -5.997045918645545e-7 -5.921562902379063e-7 -6.900396929295952e-7 -6.61934508011251e-7 -6.900412848384503e-7
          -6.619363728663703e-7 -6.900461543457271e-7 -6.619419636998862e-7 -7.403680489232623e-7 -7.134323692389605e-7 -7.127095999152789e-7
          -7.391698335838614e-7 -7.403690229412064e-7 -7.134334401920725e-7 -7.1271051567469e-7 -7.391706870417413e-7 -7.40372053580023e-7
          -7.134366161045088e-7 -7.127128459102997e-7 -7.391731768102006e-7 -7.038863687945075e-7 -6.802918227625603e-7 -7.038873931203488e-7
          -6.802929204730222e-7 -7.038902596036232e-7 -6.802962954235402e-7 -5.120556208204014e-7 -5.131353140086366e-7 -5.120572676009135e-7
          -5.13137030392301e-7 -5.120622529605886e-7 -5.131421552639331e-7 -4.877159658414516e-7 -5.07731248387353e-7 -4.877177541100113e-7
          -5.077331076991582e-7 -4.877225493888087e-7 -5.077385973834198e-7 -6.077495456200492e-7 -6.066081097080465e-7 -5.763683576464757e-7
          -5.745764158283771e-7 -6.077519680628677e-7 -6.066108459332274e-7 -5.7637104068151e-7 -5.745786377059011e-7 -6.077591754401957e-7
          -6.066188359224167e-7 -5.76379411531634e-7 -5.745852994338228e-7 -6.298280604038515e-7 -6.298299371970352e-7 -6.29835601046217e-7
          -5.008167844252619e-7 -5.008193336927039e-7 -5.008269032590546e-7 -3.852713203653056e-7 -4.0371502557607253e-7 -3.852726598265916e-7
          -4.037164792353705e-7 -3.8527677345097137e-7 -4.0372077708219807e-7 -6.651868851689466e-7 -6.903781658765014e-7 -6.651905456605088e-7
          -6.903809187327015e-7 -6.652011637738761e-7 -6.903910577674767e-7 -7.68412098377962e-7 -7.432895939847376e-7 -7.684137797888936e-7
          -7.432918251767126e-7 -7.684176077208276e-7 -7.432982174398943e-7 -6.378676168983074e-7 -6.378713657575089e-7 -6.378824032946066e-7
          -6.062402130590639e-7 -6.363173340063283e-7 -6.06243518913841e-7 -6.363205665795467e-7 -6.062536031809945e-7 -6.363306053647836e-7
          -7.164943241540856e-7 -7.426750091128933e-7 -7.429544584908798e-7 -7.175390611281189e-7 -7.16495669022465e-7 -7.426761594908169e-7
          -7.429559525878177e-7 -7.175405745450108e-7 -7.164995326682518e-7 -7.426797028253581e-7 -7.429600870679784e-7 -7.175449755835163e-7
          -5.417611244021576e-7 -5.316521235834965e-7 -5.417634024376555e-7 -5.316540867232019e-7 -5.417702429696794e-7 -5.31660195030523e-7
          -7.680992309055397e-7 -7.420190544607077e-7 -7.677690083637429e-7 -7.681018766065619e-7 -7.420210348503972e-7 -7.677706469962953e-7
          -7.681121819640256e-7 -7.420278440299809e-7 -7.677743941229527e-7 -5.471988396256554e-7 -5.768408453894096e-7 -5.486916269730362e-7
          -5.472014414521756e-7 -5.768438673013228e-7 -5.48694442270379e-7 -5.47209133372289e-7 -5.768525067362652e-7 -5.48702804577104e-7
          -5.561600530938283e-7 -5.561619267134359e-7 -5.561673374732471e-7 -5.231628580434079e-7 -5.231654599462338e-7 -5.231734725545995e-7
          -5.243267084247969e-7 -5.488850732480643e-7 -5.243295564774523e-7 -5.4888827012328e-7 -5.243382382434238e-7 -5.488978530106334e-7
          -6.905396237625484e-7 -6.649607585229832e-7 -6.905419194984073e-7 -6.649637818453393e-7 -6.905493607115463e-7 -6.649723972297022e-7
          -6.491148696053152e-7 -6.491162377787059e-7 -6.491203521852374e-7 -4.2194439201188755e-7 -4.288552736755553e-7 -4.2194591519854415e-7
          -4.2885690258644827e-7 -4.2195044345943793e-7 -4.28861691702589e-7 -3.6391294086514675e-7 -3.6391399268910737e-7 -3.639169385053282e-7
          -5.838908728800056e-7 -6.001773376328762e-7 -6.103413025117925e-7 -5.905328627672792e-7 -5.83892133189464e-7 -6.001785733925936e-7
          -6.103424796196099e-7 -5.905341842789822e-7 -5.838960187170243e-7 -6.00182050558296e-7 -6.103461116390794e-7 -5.905380995262496e-7
          -7.673780095878436e-7 -7.673791059607039e-7 -7.673826965457836e-7 -6.365236065991657e-7 -6.365956242368193e-7 -6.365259565845529e-7
          -6.365983427475303e-7 -6.365329789946161e-7 -6.366063901695372e-7 -5.752766725503868e-7 -5.752802392816703e-7 -5.7529070437329e-7
          -4.1796372690851963e-7 -4.3471508547093203e-7 -4.1796519449824713e-7 -4.3471661475786083e-7 -4.179692753758871e-7 -4.347213639737412e-7
          -4.841321730876341e-7 -4.841334074535756e-7 -4.841367365616567e-7 -7.659004568293372e-7 -7.318796657646613e-7 -7.653035318414206e-7
          -7.659013840605016e-7 -7.31880617235857e-7 -7.653045777888101e-7 -7.659044009846506e-7 -7.318832850295799e-7 -7.653081058447114e-7
          -5.203473800437975e-7 -5.420685906036688e-7 -5.203491966720507e-7 -5.420703099387336e-7 -5.203546146828935e-7 -5.42075432766125e-7
          -6.024326351500148e-7 -6.260211049594545e-7 -6.024340327374664e-7 -6.260222904727442e-7 -6.024383468041377e-7 -6.260256237371352e-7
          -5.64539603570598e-7 -5.791059434542542e-7 -5.645411949659933e-7 -5.791077491945417e-7 -5.645460587621965e-7 -5.791127647883795e-7
          -5.368767197999161e-7 -5.309047812215971e-7 -5.368783375957534e-7 -5.309064480447454e-7 -5.368828735326475e-7 -5.309114924852984e-7
          -6.444568811579129e-7 -6.444579500548612e-7 -6.444609410946995e-7 -6.851130725108936e-7 -6.851143583882351e-7 -6.85118356372316e-7
          -6.585604138321524e-7 -6.585615100780418e-7 -6.585650411917518e-7 -5.882583979096066e-7 -5.882605022787443e-7 -5.882661610245453e-7
          -6.671984379278831e-7 -6.671997050533245e-7 -6.672035034072395e-7 -4.019298357170818e-7 -4.019311702051125e-7 -4.019352931922975e-7
          -7.415366021068512e-7 -7.151101361803321e-7 -7.415377021581869e-7 -7.151113467818597e-7 -7.415408524642538e-7 -7.151148919297297e-7
          -4.934685472774114e-7 -5.1333302495284e-7 -4.934699789340792e-7 -5.133344583920943e-7 -4.934735919037141e-7 -5.133391355144796e-7
          -5.467188726060483e-7 -5.467204018802732e-7 -5.467248568161433e-7 -6.930759791594908e-7 -6.930771268209537e-7 -6.930812830798398e-7
          -4.5318505553877575e-7 -4.353819347181448e-7 -4.7325257681680304e-7 -4.531867551596307e-7 -4.3538332521071397e-7 -4.732543077188426e-7
          -4.5319202709414633e-7 -4.353873633018331e-7 -4.732596289769004e-7 -5.086173745681334e-7 -5.370986247491438e-7 -5.086187409415592e-7
          -5.371000881852322e-7 -5.086229947081426e-7 -5.371045800103534e-7 -4.192030111945664e-7 -4.192044507869021e-7 -4.192081073633533e-7
          -7.66937472714354e-7 -7.669385411908852e-7 -7.669417664126284e-7 -5.65675135355882e-7 -5.656765083193127e-7 -5.656805663267888e-7
          -4.968302317562639e-7 -4.968320192632453e-7 -4.96837170336294e-7 -3.83622712319109e-7 -3.836239018904344e-7 -3.836275992222669e-7
          -6.076846843976192e-7 -6.076868175297314e-7 -6.076940571901448e-7 -6.343097911801082e-7 -6.343120140955646e-7 -6.343184817345657e-7
          -5.049185763669011e-7 -5.049213505270655e-7 -5.049296564903425e-7 -5.30766343697481e-7 -5.307696245355784e-7 -5.307796041876908e-7
          -4.073239958349321e-7 -4.073253013713667e-7 -4.073293153500213e-7 -5.552800459961541e-7 -5.552840210185215e-7 -5.552958489194569e-7
          -4.1503930829358254e-7 -4.150406108694828e-7 -4.1504472683106705e-7 -5.791471537157018e-7 -5.79151421208615e-7 -5.791646575182248e-7
          -6.652204499436494e-7 -6.652229504270077e-7 -6.652303281827838e-7 -6.030069851036733e-7 -6.030089055374345e-7 -6.030146093243952e-7
          -6.917793440431373e-7 -6.917813556671105e-7 -6.91787664657195e-7 -6.642392102200238e-7 -6.642413706935502e-7 -6.642477902244254e-7
          -6.918732080674352e-7 -6.918750696533784e-7 -6.918806180560935e-7 -5.673428077647845e-7 -5.673444171988035e-7 -5.673489611542759e-7
          -5.76204903895877e-7 -5.762064328489881e-7 -5.762110288896493e-7 -5.509892615281152e-7 -5.747909683991231e-7 -5.509929008055854e-7
          -5.747948406766978e-7 -5.51003818136371e-7 -5.748071164981228e-7 -5.263578171336868e-7 -5.263609481955264e-7 -5.263699960067042e-7
          -7.424239090890222e-7 -7.685770890194191e-7 -7.424267953807003e-7 -7.685779813836207e-7 -7.424354308301915e-7 -7.685771370093738e-7
          -7.117812775542608e-7 -7.117822746352379e-7 -7.117847208324082e-7 -7.664453529763068e-7 -7.66446353996177e-7 -7.664491998663625e-7
          -7.162267363335687e-7 -7.162284431095957e-7 -7.162331975281968e-7 -7.121308278814239e-7 -6.909387972174263e-7 -7.121318098394209e-7
          -6.90939787146093e-7 -7.12134718955783e-7 -6.909427238356582e-7 -4.6713685696820256e-7 -4.6336799422837065e-7 -4.529296046608134e-7
          -4.6713806330457357e-7 -4.6336922565705573e-7 -4.5293076087050335e-7 -4.671417157410245e-7 -4.6337272037392054e-7 -4.52934297127672e-7
          -6.252402331004701e-7 -6.252413303401817e-7 -6.252445997549646e-7 -6.379731492111382e-7 -6.379742782418118e-7 -6.379777711777643e-7
          -7.37684590757762e-7 -7.646518780829153e-7 -7.376856762805842e-7 -7.646530753052793e-7 -7.376890493728826e-7 -7.646568256104233e-7
          -6.524972340957305e-7 -6.722637542780662e-7 -6.524982924948555e-7 -6.722647664153985e-7 -6.525015033946971e-7 -6.722675432973056e-7
          -5.308974589772219e-7 -5.591340548098257e-7 -5.308987467881505e-7 -5.591354052423702e-7 -5.309025429710286e-7 -5.591395169948442e-7
          -5.578890832718934e-7 -5.843630087465683e-7 -5.578903381503249e-7 -5.843642457259967e-7 -5.57894120152899e-7 -5.843679520358495e-7
          -5.018599197709371e-7 -5.018611752407061e-7 -5.01864930397986e-7 -3.3927710250157593e-7 -3.4885528357477756e-7 -3.392779688672585e-7
          -3.48856279267962e-7 -3.3928036411505985e-7 -3.488593205034135e-7 -4.37634678740526e-7 -4.376358913050791e-7 -4.3763935931741813e-7
          -3.914083668997783e-7 -3.6743974370649677e-7 -3.914095625738613e-7 -3.674407902414911e-7 -3.914129952367054e-7 -3.674436867531721e-7
          -4.258223143812556e-7 -4.2582358107951813e-7 -4.2582711001742087e-7 -6.063704512322161e-7 -6.063716196180893e-7 -6.063750722076425e-7
          -4.0089517845432637e-7 -4.008963632255026e-7 -4.009001757986846e-7
        </DataArray>
        <DataArray type="Float64" Name="disp_z" format="ascii" RangeMin="-1.7983639008780196e-8" RangeMax="0">
          0 -8.77113453951404e-9 -1.754257953464605e-8 0 -8.762232303934057e-9 -1.752405374490377e-8
          0 -8.753192776081078e-9 -1.750685401878581e-8 0 -8.927937156910788e-9 -1.7855495289585797e-8
          0 -8.864124559486625e-9 -1.7728307734516873e-8 0 -8.815384712680277e-9 -1.7630761028054e-8
          0 -8.779778699097735e-9 -1.7559452390457294e-8 0 -8.754625968633106e-9 -1.7509584213814746e-8
          0 -8.737820137321967e-9 -1.7475105023960136e-8 0 -8.732107296822812e-9 -1.7464698989619162e-8
          0 -8.909235167088205e-9 -1.7817995267473443e-8 0 -8.834011702854973e-9 -1.766811676661726e-8
          0 -8.780733209317091e-9 -1.7561478358815714e-8 0 -8.744907893527868e-9 -1.7489701370069555e-8
          0 -8.721733609098894e-9 -1.7443864960703657e-8 0 -8.708084620278538e-9 -1.7415389732407925e-8
          0 -8.706517828364228e-9 -1.7414058889325188e-8 0 -8.990611557838629e-9 -1.7983639008780196e-8
          0 -8.869903325011096e-9 -1.7739132825116344e-8 0 -8.78509234224583e-9 -1.757026851033053e-8
          0 -8.73094706749573e-9 -1.746184526915884e-8 0 -8.698593717383917e-9 -1.7397144568898853e-8
          0 -8.680981075072696e-9 -1.736206478592422e-8 0 -8.672935269374561e-9 -1.7345806993589804e-8
          0 -8.67385348854777e-9 -1.7347486267198885e-8 0 -8.938984767072789e-9 -1.7882109729807183e-8
          0 -8.797711589627595e-9 -1.7594727174074124e-8 0 -8.709796060629913e-9 -1.7419902019878535e-8
          0 -8.661865437284738e-9 -1.7323858131075104e-8 0 -8.639314872271483e-9 -1.727868400085111e-8
          0 -8.631885363403452e-9 -1.726372888714964e-8 0 -8.632395943400957e-9 -1.7265202266087788e-8
          0 -8.637473029596425e-9 -1.727411209374067e-8 0 -8.828923097165634e-9 -1.7658288116082442e-8
          0 -8.677744369345957e-9 -1.7353512331871967e-8 0 -8.5999931423241e-9 -1.7198864439854916e-8
          0 -8.570977086187745e-9 -1.7141616491841624e-8 0 -8.567539914218249e-9 -1.713494286738336e-8
          0 -8.57517534656074e-9 -1.7149893693568756e-8 0 -8.588701148473822e-9 -1.717782080781504e-8
          0 -8.601295809606269e-9 -1.7202264596132387e-8 0 -8.619628984958124e-9 -1.7239927544089805e-8
          0 -8.488926775208665e-9 -1.6978714537040065e-8 0 -8.443139543577985e-9 -1.6888537449010148e-8
          0 -8.461850856339285e-9 -1.6924313747213847e-8 0 -8.48487125279612e-9 -1.6969276061180177e-8
          0 -8.514699986369601e-9 -1.7029654957501896e-8 0 -8.542909043578086e-9 -1.708617734196108e-8
          0 -8.565582774843412e-9 -1.713098509582324e-8 0 -8.205271975921289e-9 -1.640626179551828e-8
          0 -8.20193841096481e-9 -1.6409067125775022e-8 0 -8.238895085308437e-9 -1.6471104797472327e-8
          0 -8.330232078672786e-9 -1.6664407884602032e-8 0 -8.394293042104724e-9 -1.678718313492795e-8
          0 -8.45067756242844e-9 -1.6901322414401466e-8 0 -8.499992709043227e-9 -1.700013211234988e-8
          0 -8.534436949245615e-9 -1.706754988937865e-8 0 0 0
          0 -8.348770521747327e-9 -8.41731099641847e-9 -8.401255784327456e-9 -8.326753558276581e-9 -1.669943300483714e-8
          -1.6834182032322472e-8 -1.6806150255510642e-8 -1.6648763638582036e-8 0 0 0
          0 -8.039499633593309e-9 -7.84306094374602e-9 -7.53214045907026e-9 -7.900209982216918e-9 -1.6089793783502903e-8
          -1.5667572337821705e-8 -1.5083772477413314e-8 -1.5782577871175253e-8 0 0 -8.15023968829738e-9
          -8.09751899371939e-9 -1.6305035397645233e-8 -1.6189209534008154e-8 0 0 -8.242846122044226e-9
          -8.253035480711946e-9 -1.6490249663784272e-8 -1.6503215472008926e-8 0 0 -8.46670573796583e-9
          -8.435153851847003e-9 -1.6933721407441243e-8 -1.6866096772303503e-8 0 0 -7.715568381807351e-9
          -7.143770287983356e-9 -1.5431723004651822e-8 -1.4260144234730887e-8 0 0 -8.426453630013874e-9
          -8.362098506714171e-9 -1.6854981562634073e-8 -1.672443028083577e-8 0 -8.510792406269295e-9 -1.7021757920283037e-8
          0 -6.807755815525299e-9 -1.3565922033770858e-8 0 -7.515585606201545e-9 -1.503860639253512e-8
          0 0 -7.919816188281576e-9 -8.113161034916714e-9 -1.586415205625326e-8 -1.622460773929914e-8
          0 -8.260957569058608e-9 -1.652225994082694e-8 0 -8.485533254917877e-9 -1.6971087195085245e-8
          0 -8.77749493524267e-9 -1.7554965056112868e-8 0 0 0
          0 -8.589170528083134e-9 -8.614432700025662e-9 -8.62542413781567e-9 -8.603805133582216e-9 -1.7178187975340274e-8
          -1.722923386498198e-8 -1.7250676402769255e-8 -1.7207181421352067e-8 0 -8.784253754381366e-9 -1.756825668242564e-8
          0 0 -8.585100517846977e-9 -8.563577618820446e-9 -1.7171430873704724e-8 -1.712860030224814e-8
          0 0 0 0 -8.75815151641387e-9 -8.75520257470253e-9
          -8.75916919867069e-9 -8.767958758385625e-9 -1.7515919535562144e-8 -1.7511181010410927e-8 -1.751803878614802e-8 -1.7536050083913048e-8
          0 0 -8.649587140752456e-9 -8.644982698714763e-9 -1.72987204522463e-8 -1.729018546816473e-8
          0 0 -8.775602698630724e-9 -8.764372583691652e-9 -1.755132666953573e-8 -1.7528693688757035e-8
          0 0 0 -8.61999505271946e-9 -8.608545502940186e-9 -8.606329847665428e-9
          -1.7239758597431277e-8 -1.7218622038361717e-8 -1.7209814521563972e-8 0 0 0
          0 -8.715803020905165e-9 -8.724371126921922e-9 -8.715448781787886e-9 -8.707864731751127e-9 -1.7431428565226998e-8
          -1.7448629788133996e-8 -1.7430982934180845e-8 -1.7415733481224355e-8 0 0 0
          -8.755071080623368e-9 -8.746846542831216e-9 -8.743764141658708e-9 -1.7511290733583396e-8 -1.749349899693251e-8 -1.7487163203757354e-8
          0 0 0 0 -8.767881444800292e-9 -8.769532097560821e-9
          -8.760316017493272e-9 -8.755470591383909e-9 -1.7535563803135017e-8 -1.7539877121925017e-8 -1.7520378142005387e-8 -1.751069065789295e-8
          0 0 -8.663974465666743e-9 -8.670685402967639e-9 -1.7329224946970955e-8 -1.7341726944330278e-8
          0 0 0 0 -8.679066890185917e-9 -8.688454335765682e-9
          -8.698109273953788e-9 -8.687532397699428e-9 -1.7358139510437278e-8 -1.7376800106606683e-8 -1.7396291820304342e-8 -1.7375130825403293e-8
          0 0 0 -8.683814370832572e-9 -8.685052812322956e-9 -8.691840805091899e-9
          -1.7367770838726505e-8 -1.7369082973468683e-8 -1.7383916635579025e-8 0 0 -8.668516923841418e-9
          -8.679486649329896e-9 -1.7337054291409565e-8 -1.735906585405605e-8 0 0 0
          0 -8.6720252860697e-9 -8.679614648911885e-9 -8.686440194397657e-9 -8.681946531825282e-9 -1.7343890936113355e-8
          -1.7359182355265803e-8 -1.7373242597177826e-8 -1.736394574812829e-8 0 0 -8.702183321082653e-9
          -8.709899434377698e-9 -1.7404460144460764e-8 -1.7419588574298103e-8 0 0 -8.748877238732575e-9
          -8.746063455162508e-9 -1.749778611872003e-8 -1.7492512441969106e-8 0 0 -8.756995032544541e-9
          -8.748979872132647e-9 -1.7513689397650282e-8 -1.7497743308660655e-8 0 0 0
          0 -8.698819862347698e-9 -8.694143520075225e-9 -8.712136929833764e-9 -8.717063463132765e-9 -1.7397600491673267e-8
          -1.738823188988684e-8 -1.742412412690077e-8 -1.743393607080726e-8 0 -8.699326733727132e-9 -1.739868631826537e-8
          0 -8.762190591940257e-9 -1.752471788790075e-8 0 0 -8.796723525267437e-9
          -8.792739980003289e-9 -1.7593451721958586e-8 -1.7585637485043663e-8 0 0 -8.637350605040257e-9
          -8.61604735031535e-9 -1.727510891488519e-8 -1.7232380681033906e-8 0 0 -8.569862921055129e-9
          -8.549080196623161e-9 -1.71413567010684e-8 -1.7092408010032106e-8 0 -8.656523531557352e-9 -1.7312725696578914e-8
          0 0 -8.691346432479254e-9 -8.667569142798113e-9 -1.7382976464747235e-8 -1.733519344391812e-8
          0 0 0 0 -8.658746177053274e-9 -8.649768065880534e-9
          -8.634532590148645e-9 -8.646148360589586e-9 -1.731746219940938e-8 -1.7299459525623264e-8 -1.7269257151295804e-8 -1.7292317516779826e-8
          0 0 -8.734361222947765e-9 -8.737961776529268e-9 -1.7469035149972292e-8 -1.747591276000373e-8
          0 0 0 -8.593241466321092e-9 -8.619785586680443e-9 -8.619963091146403e-9
          -1.718383738548771e-8 -1.7238864083746895e-8 -1.7240769096037014e-8 0 0 0
          -8.730479602613929e-9 -8.71111234459116e-9 -8.728600894179142e-9 -1.746090425365754e-8 -1.7422182383150927e-8 -1.7457350985559486e-8
          0 -8.726933814679392e-9 -1.7453468722976996e-8 0 -8.74428562472838e-9 -1.7488546331204043e-8
          0 0 -8.745494699876274e-9 -8.728994775521128e-9 -1.7490709486662185e-8 -1.745788604482799e-8
          0 0 -8.633089883490525e-9 -8.649134887877237e-9 -1.7266762929175786e-8 -1.7298360309494427e-8
          0 -8.706931797146412e-9 -1.7413844080041443e-8 0 0 -8.788618605075341e-9
          -8.784098387688973e-9 -1.7577157706068357e-8 -1.756819310897054e-8 0 -8.800516389616323e-9 -1.7601095962000104e-8
          0 0 0 0 -8.735266721943231e-9 -8.730926070939941e-9
          -8.726419015351557e-9 -8.730319114020925e-9 -1.7470525342200357e-8 -1.74615761646187e-8 -1.7453061510342288e-8 -1.746072777776493e-8
          0 -8.638490206726055e-9 -1.72764920773202e-8 0 0 -8.683586416084711e-9
          -8.676400017711685e-9 -1.7367164001698247e-8 -1.735272600175301e-8 0 -8.70914210418062e-9 -1.741807477920896e-8
          0 0 -8.786193649921121e-9 -8.779179101113567e-9 -1.7572391175528926e-8 -1.7558424748382342e-8
          0 -8.761457393371132e-9 -1.7523028507474895e-8 0 0 0
          -8.674809953828033e-9 -8.691440957573542e-9 -8.68154479108732e-9 -1.734944168598955e-8 -1.7383009577697425e-8 -1.736281723090282e-8
          0 0 -8.743023513187527e-9 -8.734464664110304e-9 -1.7486181700305496e-8 -1.746936654058087e-8
          0 0 -8.72253858293202e-9 -8.718138851493858e-9 -1.7445100276007327e-8 -1.7436134511988345e-8
          0 0 -8.727516845488975e-9 -8.71969157215732e-9 -1.7455040235550647e-8 -1.7439312181507337e-8
          0 0 -8.738686718696041e-9 -8.738636927663781e-9 -1.7477214259906045e-8 -1.7476875257562723e-8
          0 -8.717966861714073e-9 -1.7435826508987768e-8 0 -8.692746190411826e-9 -1.7385376066065103e-8
          0 -8.717872158565811e-9 -1.7435732175284123e-8 0 -8.71580960253569e-9 -1.7432617629892734e-8
          0 -8.70989172936285e-9 -1.7419947677145378e-8 0 -8.788178859020172e-9 -1.7576242484402802e-8
          0 0 -8.661882203914317e-9 -8.669988156346296e-9 -1.7323807156047432e-8 -1.7339891500929558e-8
          0 0 -8.75856631218176e-9 -8.752490499933665e-9 -1.7517362478525957e-8 -1.7505082127084777e-8
          0 -8.739893444105884e-9 -1.7479646792131165e-8 0 -8.697842661522204e-9 -1.7395820345210956e-8
          0 0 0 -8.770436372608262e-9 -8.775201915285205e-9 -8.761806972083434e-9
          -1.7540793450717026e-8 -1.7550520107439583e-8 -1.7523858192990256e-8 0 0 -8.7546127529157e-9
          -8.745082202436369e-9 -1.750907818071983e-8 -1.749012052332131e-8 0 -8.781265203437251e-9 -1.756265090456666e-8
          0 -8.652755968589591e-9 -1.7305477258420678e-8 0 -8.73661854372639e-9 -1.7473313399179904e-8
          0 -8.752258500666154e-9 -1.7504700379618823e-8 0 -8.79130070994669e-9 -1.7582718217767008e-8
          0 -8.705254408260311e-9 -1.7410219863338006e-8 0 -8.691195507961942e-9 -1.7382427341319053e-8
          0 -8.765138530110449e-9 -1.7529955915571092e-8 0 -8.748251803722719e-9 -1.7496069076352154e-8
          0 -8.782807350266708e-9 -1.756505503621398e-8 0 -8.728513637279171e-9 -1.745616325899423e-8
          0 -8.780414665968003e-9 -1.7560964321596294e-8 0 -8.705878470402129e-9 -1.7411573685932833e-8
          0 -8.660038703717577e-9 -1.732004009896812e-8 0 -8.710249976057122e-9 -1.742042368309801e-8
          0 -8.646102841831605e-9 -1.729222258931789e-8 0 -8.670044394159622e-9 -1.7340063362676587e-8
          0 -8.6574587476461e-9 -1.7314944864415895e-8 0 -8.731814688196979e-9 -1.7464250906902643e-8
          0 -8.730866275814446e-9 -1.7461682310690834e-8 0 0 -8.729344974579645e-9
          -8.707547404565538e-9 -1.7459396813416815e-8 -1.7415705000319438e-8 0 -8.746791189294023e-9 -1.7493786328889902e-8
          0 0 -8.53576896637384e-9 -8.5362000806817e-9 -1.7072183883202638e-8 -1.7073951824056208e-8
          0 -8.689631182745822e-9 -1.7378523925479183e-8 0 -8.664454670060252e-9 -1.732882681207981e-8
          0 -8.63299317019418e-9 -1.7265386094148956e-8 0 0 -8.704824292800335e-9
          -8.711499906244955e-9 -1.740951826439901e-8 -1.7423076292888837e-8 0 0 0
          -8.767015511924252e-9 -8.765539689394254e-9 -8.768771759292403e-9 -1.753409074186406e-8 -1.753077710491341e-8 -1.753752360025674e-8
          0 -8.725231611752322e-9 -1.7450448962700416e-8 0 -8.725846884744843e-9 -1.7451777284760636e-8
          0 0 -8.697390430103598e-9 -8.687360016028589e-9 -1.7394688554915713e-8 -1.737462030079469e-8
          0 0 -8.725136304626892e-9 -8.718297645438482e-9 -1.7450122450551075e-8 -1.7436633375028504e-8
          0 0 -8.750445488899463e-9 -8.742421212003276e-9 -1.7501003124303346e-8 -1.748486008087109e-8
          0 0 -8.74644785326135e-9 -8.738994778564923e-9 -1.749284996205351e-8 -1.7478057052515197e-8
          0 -8.757537712357793e-9 -1.7515009522104185e-8 0 0 -8.803600036885915e-9
          -8.798271308062826e-9 -1.7607217295866663e-8 -1.7596404795209642e-8 0 -8.773562690162956e-9 -1.7547063059951803e-8
          0 0 -8.7875266086885e-9 -8.79185176823475e-9 -1.7575325658741793e-8 -1.7583560953945938e-8
          0 -8.776275966161145e-9 -1.755230061491674e-8 0 -8.732078184202864e-9 -1.7464174696390526e-8
          0 -8.783235923171583e-9 -1.756641780257832e-8
        </DataArray>
      </PointData>
      <CellData>
        <DataArray type="Int32" Name="libmesh_elem_id" format="ascii" RangeMin="1184" RangeMax="3139">
          1184 1185 1192 1193 1194 1195
          1196 1197 1198 1199 1200 1201
          1202 1203 1210 1211 1212 1213
          1214 1215 1216 1217 1218 1219
          1220 1221 1226 1227 1228 1229
          1230 1231 1232 1233 1234 1235
          1236 1237 1238 1239 1244 1245
          1246 1247 1248 1249 1250 1251
          1252 1253 1254 1255 1256 1257
          1262 1263 1264 1265 1266 1267
          1268 1269 1270 1271 1272 1273
          1274 1275 1280 1281 1282 1283
          1284 1285 1286 1287 1288 1289
          1290 1291 1292 1293 1294 1295
          1296 1297 1298 1299 1302 1303
          1308 1309 1310 1311 1312 1313
          1318 1319 1320 1321 1322 1323
          1324 1325 1332 1333 1334 1335
          1336 1337 1340 1341 1342 1343
          1346 1347 1350 1351 1352 1353
          1354 1355 1362 1363 1364 1365
          1368 1369 1370 1371 1382 1383
          1396 1397 1408 1409 1452 1453
          1456 1457 1468 1469 1476 1477
          1486 1487 1510 1511 1518 1519
          1532 1533 1558 1559 1560 1561
          1564 1565 1566 1567 1570 1571
          1586 1587 1602 1603 1618 1619
          1622 1623 1628 1629 1634 1635
          1680 1681 1686 1687 1696 1697
          1700 1701 1708 1709 1710 1711
          1728 1729 1740 1741 1750 1751
          1754 1755 1764 1765 1766 1767
          1782 1783 1804 1805 1814 1815
          1836 1837 1868 1869 1880 1881
          1884 1885 1890 1891 1900 1901
          1908 1909 1918 1919 1928 1929
          1948 1949 1952 1953 1968 1969
          1970 1971 1972 1973 1986 1987
          2004 2005 2006 2007 2008 2009
          2014 2015 2018 2019 2020 2021
          2030 2031 2040 2041 2044 2045
          2050 2051 2062 2063 2064 2065
          2068 2069 2082 2083 2092 2093
          2120 2121 2128 2129 2130 2131
          2134 2135 2146 2147 2160 2161
          2180 2181 2184 2185 2186 2187
          2208 2209 2214 2215 2216 2217
          2230 2231 2234 2235 2248 2249
          2262 2263 2270 2271 2276 2277
          2286 2287 2292 2293 2294 2295
          2296 2297 2302 2303 2304 2305
          2314 2315 2316 2317 2320 2321
          2330 2331 2332 2333 2344 2345
          2354 2355 2362 2363 2366 2367
          2374 2375 2382 2383 2390 2391
          2400 2401 2404 2405 2408 2409
          2410 2411 2412 2413 2414 2415
          2430 2431 2440 2441 2448 2449
          2456 2457 2460 2461 2474 2475
          2486 2487 2494 2495 2498 2499
          2500 2501 2506 2507 2520 2521
          2522 2523 2564 2565 2572 2573
          2578 2579 2586 2587 2592 2593
          2596 2597 2600 2601 2620 2621
          2624 2625 2658 2659 2660 2661
          2670 2671 2688 2689 2694 2695
          2722 2723 2754 2755 2764 2765
          2778 2779 2780 2781 2796 2797
          2824 2825 2832 2833 2846 2847
          2848 2849 2862 2863 2870 2871
          2878 2879 2880 2881 2886 2887
          2902 2903 2930 2931 2940 2941
          2958 2959 2968 2969 2988 2989
          3062 3063 3064 3065 3090 3091
          3106 3107 3132 3133 3138 3139
        </DataArray>
        <DataArray type="Int32" Name="subdomain_id" format="ascii" RangeMin="105" RangeMax="143">
          105 105 105 105 105 105
          105 105 105 105 105 105
          105 105 105 105 105 105
          105 105 105 105 105 105
          105 105 105 105 105 105
          105 105 105 105 105 105
          105 105 105 105 105 105
          105 105 105 105 105 105
          105 105 105 105 105 105
          105 105 105 105 105 105
          105 105 105 105 105 105
          105 105 105 105 105 105
          105 105 105 105 105 105
          105 105 105 105 106 106
          106 106 106 106 106 106
          106 106 106 106 106 106
          106 106 106 106 106 106
          106 106 106 106 106 106
          106 106 106 106 106 106
          106 106 106 106 106 106
          106 106 143 143 143 143
          143 143 143 143 107 107
          107 107 107 107 107 107
          107 107 107 107 107 107
          107 107 107 107 107 107
          107 107 107 107 107 107
          107 107 107 107 107 107
          107 107 107 107 107 107
          107 107 107 107 107 107
          107 107 107 107 107 107
          107 107 107 107 107 107
          107 107 107 107 107 107
          107 107 107 107 107 107
          107 107 107 107 107 107
          107 107 107 107 107 107
          107 107 107 107 107 107
          107 107 107 107 107 107
          107 107 107 107 107 107
          107 107 107 107 107 107
          107 107 107 107 107 107
          107 107 107 107 107 107
          107 107 107 107 107 107
          107 107 107 107 107 107
          107 107 107 107 107 107
          107 107 107 107 107 107
          107 107 107 107 107 107
          107 107 107 107 107 107
          107 107 107 107 107 107
          107 107 107 107 107 107
          107 107 107 107 107 107
          107 107 107 107 107 107
          107 107 107 107 107 107
          107 107 107 107 107 107
          107 107 107 107 107 107
          107 107 107 107 107 107
          107 107 107 107 107 107
          107 107 107 107 107 107
          107 107 107 107 107 107
          107 107 107 107 107 107
          107 107 107 107 107 107
          107 107 107 107 107 107
          107 107 107 107 107 107
          107 107 107 107 107 107
          107 107 107 107 107 107
          107 107 107 107 107 107
          107 107 107 107 107 107
          107 107 107 107 107 107
          107 107 107 107 107 107
          107 107 107 107 107 107
          107 107 107 107 107 107
          107 107 107 107 107 107
          107 107 107 107 107 107
          107 107 107 107 107 107
          107 107 107 107 107 107
          107 107 107 107 107 107
          107 107 107 107 107 107
        </DataArray>
        <DataArray type="Int32" Name="processor_id" format="ascii" RangeMin="4" RangeMax="4">
          4 4 4 4 4 4
          4 4 4 4 4 4
          4 4 4 4 4 4
          4 4 4 4 4 4
          4 4 4 4 4 4
          4 4 4 4 4 4
          4 4 4 4 4 4
          4 4 4 4 4 4
          4 4 4 4 4 4
          4 4 4 4 4 4
          4 4 4 4 4 4
          4 4 4 4 4 4
          4 4 4 4 4 4
          4 4 4 4 4 4
          4 4 4 4 4 4
          4 4 4 4 4 4
          4 4 4 4 4 4
          4 4 4 4 4 4
          4 4 4 4 4 4
          4 4 4 4 4 4
          4 4 4 4 4 4
          4 4 4 4 4 4
          4 4 4 4 4 4
          4 4 4 4 4 4
          4 4 4 4 4 4
          4 4 4 4 4 4
          4 4 4 4 4 4
          4 4 4 4 4 4
          4 4 4 4 4 4
          4 4 4 4 4 4
          4 4 4 4 4 4
          4 4 4 4 4 4
          4 4 4 4 4 4
          4 4 4 4 4 4
          4 4 4 4 4 4
          4 4 4 4 4 4
          4 4 4 4 4 4
          4 4 4 4 4 4
          4 4 4 4 4 4
          4 4 4 4 4 4
          4 4 4 4 4 4
          4 4 4 4 4 4
          4 4 4 4 4 4
          4 4 4 4 4 4
          4 4 4 4 4 4
          4 4 4 4 4 4
          4 4 4 4 4 4
          4 4 4 4 4 4
          4 4 4 4 4 4
          4 4 4 4 4 4
          4 4 4 4 4 4
          4 4 4 4 4 4
          4 4 4 4 4 4
          4 4 4 4 4 4
          4 4 4 4 4 4
          4 4 4 4 4 4
          4 4 4 4 4 4
          4 4 4 4 4 4
          4 4 4 4 4 4
          4 4 4 4 4 4
          4 4 4 4 4 4
          4 4 4 4 4 4
          4 4 4 4 4 4
          4 4 4 4 4 4
          4 4 4 4 4 4
          4 4 4 4 4 4
          4 4 4 4 4 4
          4 4 4 4 4 4
          4 4 4 4 4 4
          4 4 4 4 4 4
          4 4 4 4 4 4
          4 4 4 4 4 4
          4 4 4 4 4 4
          4 4 4 4 4 4
          4 4 4 4 4 4
          4 4 4 4 4 4
        </DataArray>
      </CellData>
      <Points>
        <DataArray type="Float64" Name="Points" NumberOfComponents="3" format="ascii" RangeMin="0.009206309225653747" RangeMax="0.01648243122598367">
          0.005 0.0086896551724064 0 0.005 0.0086896551724064 0.00015
          0.005 0.0086896551724064 0.0003 0.0045555555555561 0.0091034482758539 0
          0.0045555555555561 0.0091034482758539 0.00015 0.0045555555555561 0.0091034482758539 0.0003
          0.005 0.0091034482758539 0 0.005 0.0091034482758539 0.00015
          0.005 0.0091034482758539 0.0003 0.0023333333333353 0.0095172413793029 0
          0.0023333333333353 0.0095172413793029 0.00015 0.0023333333333353 0.0095172413793029 0.0003
          0.0027777777777802 0.0095172413793029 0 0.0027777777777802 0.0095172413793029 0.00015
          0.0027777777777802 0.0095172413793029 0.0003 0.0032222222222248 0.0095172413793029 0
          0.0032222222222248 0.0095172413793029 0.00015 0.0032222222222248 0.0095172413793029 0.0003
          0.0036666666666675 0.0095172413793029 0 0.0036666666666675 0.0095172413793029 0.00015
          0.0036666666666675 0.0095172413793029 0.0003 0.0041111111111126 0.0095172413793029 0
          0.0041111111111126 0.0095172413793029 0.00015 0.0041111111111126 0.0095172413793029 0.0003
          0.0045555555555561 0.0095172413793029 0 0.0045555555555561 0.0095172413793029 0.00015
          0.0045555555555561 0.0095172413793029 0.0003 0.005 0.0095172413793029 0
          0.005 0.0095172413793029 0.00015 0.005 0.0095172413793029 0.0003
          0.0023333333333355 0.0099310344827529 0 0.0023333333333355 0.0099310344827529 0.00015
          0.0023333333333355 0.0099310344827529 0.0003 0.0027777777777806 0.0099310344827529 0
          0.0027777777777806 0.0099310344827529 0.00015 0.0027777777777806 0.0099310344827529 0.0003
          0.0032222222222251 0.0099310344827529 0 0.0032222222222251 0.0099310344827529 0.00015
          0.0032222222222251 0.0099310344827529 0.0003 0.0036666666666677 0.0099310344827529 0
          0.0036666666666677 0.0099310344827529 0.00015 0.0036666666666677 0.0099310344827529 0.0003
          0.0041111111111127 0.0099310344827529 0 0.0041111111111127 0.0099310344827529 0.00015
          0.0041111111111127 0.0099310344827529 0.0003 0.0045555555555561 0.0099310344827529 0
          0.0045555555555561 0.0099310344827529 0.00015 0.0045555555555561 0.0099310344827529 0.0003
          0.005 0.0099310344827529 0 0.005 0.0099310344827529 0.00015
          0.005 0.0099310344827529 0.0003 0.0018888888888904 0.010344827586203 0
          0.0018888888888904 0.010344827586203 0.00015 0.0018888888888904 0.010344827586203 0.0003
          0.0023333333333357 0.010344827586203 0 0.0023333333333357 0.010344827586203 0.00015
          0.0023333333333357 0.010344827586203 0.0003 0.0027777777777809 0.010344827586203 0
          0.0027777777777809 0.010344827586203 0.00015 0.0027777777777809 0.010344827586203 0.0003
          0.0032222222222255 0.010344827586203 0 0.0032222222222255 0.010344827586203 0.00015
          0.0032222222222255 0.010344827586203 0.0003 0.0036666666666679 0.010344827586203 0
          0.0036666666666679 0.010344827586203 0.00015 0.0036666666666679 0.010344827586203 0.0003
          0.0041111111111129 0.010344827586203 0 0.0041111111111129 0.010344827586203 0.00015
          0.0041111111111129 0.010344827586203 0.0003 0.0045555555555562 0.010344827586203 0
          0.0045555555555562 0.010344827586203 0.00015 0.0045555555555562 0.010344827586203 0.0003
          0.005 0.010344827586203 0 0.005 0.010344827586203 0.00015
          0.005 0.010344827586203 0.0003 0.0018888888888905 0.010758620689653 0
          0.0018888888888905 0.010758620689653 0.00015 0.0018888888888905 0.010758620689653 0.0003
          0.0023333333333359 0.010758620689653 0 0.0023333333333359 0.010758620689653 0.00015
          0.0023333333333359 0.010758620689653 0.0003 0.0027777777777812 0.010758620689653 0
          0.0027777777777812 0.010758620689653 0.00015 0.0027777777777812 0.010758620689653 0.0003
          0.0032222222222258 0.010758620689653 0 0.0032222222222258 0.010758620689653 0.00015
          0.0032222222222258 0.010758620689653 0.0003 0.0036666666666681 0.010758620689653 0
          0.0036666666666681 0.010758620689653 0.00015 0.0036666666666681 0.010758620689653 0.0003
          0.004111111111113 0.010758620689653 0 0.004111111111113 0.010758620689653 0.00015
          0.004111111111113 0.010758620689653 0.0003 0.0045555555555562 0.010758620689653 0
          0.0045555555555562 0.010758620689653 0.00015 0.0045555555555562 0.010758620689653 0.0003
          0.005 0.010758620689653 0 0.005 0.010758620689653 0.00015
          0.005 0.010758620689653 0.0003 0.0018888888888907 0.0111724137931 0
          0.0018888888888907 0.0111724137931 0.00015 0.0018888888888907 0.0111724137931 0.0003
          0.002333333333336 0.0111724137931 0 0.002333333333336 0.0111724137931 0.00015
          0.002333333333336 0.0111724137931 0.0003 0.0027777777777815 0.0111724137931 0
          0.0027777777777815 0.0111724137931 0.00015 0.0027777777777815 0.0111724137931 0.0003
          0.0032222222222261 0.0111724137931 0 0.0032222222222261 0.0111724137931 0.00015
          0.0032222222222261 0.0111724137931 0.0003 0.0036666666666682 0.0111724137931 0
          0.0036666666666682 0.0111724137931 0.00015 0.0036666666666682 0.0111724137931 0.0003
          0.0041111111111132 0.0111724137931 0 0.0041111111111132 0.0111724137931 0.00015
          0.0041111111111132 0.0111724137931 0.0003 0.0045555555555562 0.0111724137931 0
          0.0045555555555562 0.0111724137931 0.00015 0.0045555555555562 0.0111724137931 0.0003
          0.005 0.0111724137931 0 0.005 0.0111724137931 0.00015
          0.005 0.0111724137931 0.0003 0.0018888888888908 0.01158620689655 0
          0.0018888888888908 0.01158620689655 0.00015 0.0018888888888908 0.01158620689655 0.0003
          0.0023333333333362 0.01158620689655 0 0.0023333333333362 0.01158620689655 0.00015
          0.0023333333333362 0.01158620689655 0.0003 0.0027777777777818 0.01158620689655 0
          0.0027777777777818 0.01158620689655 0.00015 0.0027777777777818 0.01158620689655 0.0003
          0.0032222222222264 0.01158620689655 0 0.0032222222222264 0.01158620689655 0.00015
          0.0032222222222264 0.01158620689655 0.0003 0.0036666666666684 0.01158620689655 0
          0.0036666666666684 0.01158620689655 0.00015 0.0036666666666684 0.01158620689655 0.0003
          0.0041111111111133 0.01158620689655 0 0.0041111111111133 0.01158620689655 0.00015
          0.0041111111111133 0.01158620689655 0.0003 0.0045555555555563 0.01158620689655 0
          0.0045555555555563 0.01158620689655 0.00015 0.0045555555555563 0.01158620689655 0.0003
          0.005 0.01158620689655 0 0.005 0.01158620689655 0.00015
          0.005 0.01158620689655 0.0003 0.0018888888888909 0.012 0
          0.0018888888888909 0.012 0.00015 0.0018888888888909 0.012 0.0003
          0.0023333333333364 0.012 0 0.0023333333333364 0.012 0.00015
          0.0023333333333364 0.012 0.0003 0.0027777777777821 0.012 0
          0.0027777777777821 0.012 0.00015 0.0027777777777821 0.012 0.0003
          0.0032222222222267 0.012 0 0.0032222222222267 0.012 0.00015
          0.0032222222222267 0.012 0.0003 0.0036666666666686 0.012 0
          0.0036666666666686 0.012 0.00015 0.0036666666666686 0.012 0.0003
          0.0041111111111135 0.012 0 0.0041111111111135 0.012 0.00015
          0.0041111111111135 0.012 0.0003 0.0045555555555563 0.012 0
          0.0045555555555563 0.012 0.00015 0.0045555555555563 0.012 0.0003
          0.005 0.012 0 0.005 0.012 0.00015
          0.005 0.012 0.0003 0.0037820013226837 0.012336480560236 0
          0.004185794034024 0.012345264070133 0 0.0042342826387353 0.012652901224832 0
          0.0038676442772706 0.012640465852933 0 0.0037820013226837 0.012336480560236 0.00015
          0.004185794034024 0.012345264070133 0.00015 0.0042342826387353 0.012652901224832 0.00015
          0.0038676442772706 0.012640465852933 0.00015 0.0037820013226837 0.012336480560236 0.0003
          0.004185794034024 0.012345264070133 0.0003 0.0042342826387353 0.012652901224832 0.0003
          0.0038676442772706 0.012640465852933 0.0003 0.0025889714655165 0.012382221976315 0
          0.0025681692138844 0.01272809974993 0 0.0020604062010233 0.012679406151259 0
          0.0021948734460593 0.012348192846391 0 0.0025889714655165 0.012382221976315 0.00015
          0.0025681692138844 0.01272809974993 0.00015 0.0020604062010233 0.012679406151259 0.00015
          0.0021948734460593 0.012348192846391 0.00015 0.0025889714655165 0.012382221976315 0.0003
          0.0025681692138844 0.01272809974993 0.0003 0.0020604062010233 0.012679406151259 0.0003
          0.0021948734460593 0.012348192846391 0.0003 0.0029921846324185 0.012381457466683 0
          0.0030781171064664 0.012687491868191 0 0.0029921846324185 0.012381457466683 0.00015
          0.0030781171064664 0.012687491868191 0.00015 0.0029921846324185 0.012381457466683 0.0003
          0.0030781171064664 0.012687491868191 0.0003 0.0035064061826528 0.012674722493539 0
          0.0033673902656471 0.012343623774248 0 0.0035064061826528 0.012674722493539 0.00015
          0.0033673902656471 0.012343623774248 0.00015 0.0035064061826528 0.012674722493539 0.0003
          0.0033673902656471 0.012343623774248 0.0003 0.0045893247731344 0.012399526217393 0
          0.004557077400537 0.01272310643902 0 0.0045893247731344 0.012399526217393 0.00015
          0.004557077400537 0.01272310643902 0.00015 0.0045893247731344 0.012399526217393 0.0003
          0.004557077400537 0.01272310643902 0.0003 0.0017386847932316 0.012348636106575 0
          0.001702980389272 0.012655949584096 0 0.0017386847932316 0.012348636106575 0.00015
          0.001702980389272 0.012655949584096 0.00015 0.0017386847932316 0.012348636106575 0.0003
          0.001702980389272 0.012655949584096 0.0003 0.0045555555555563 0.013 0
          0.0041111111111135 0.013 0 0.0045555555555563 0.013 0.00015
          0.0041111111111135 0.013 0.00015 0.0045555555555563 0.013 0.0003
          0.0041111111111135 0.013 0.0003 0.005 0.012499999999989 0
          0.005 0.012499999999989 0.00015 0.005 0.012499999999989 0.0003
          0.0018888888888909 0.013 0 0.0018888888888909 0.013 0.00015
          0.0018888888888909 0.013 0.0003 0.0023333333333364 0.013 0
          0.0023333333333364 0.013 0.00015 0.0023333333333364 0.013 0.0003
          0.0027777777777821 0.013 0 0.0032222222222267 0.013 0
          0.0027777777777821 0.013 0.00015 0.0032222222222267 0.013 0.00015
          0.0027777777777821 0.013 0.0003 0.0032222222222267 0.013 0.0003
          0.0036666666666686 0.013 0 0.0036666666666686 0.013 0.00015
          0.0036666666666686 0.013 0.0003 0.005 0.013 0
          0.005 0.013 0.00015 0.005 0.013 0.0003
          0.0058653844060618 0.0079194158644502 0 0.0058653844060618 0.0079194158644502 0.00015
          0.0058653844060618 0.0079194158644502 0.0003 0.0054092385319303 0.011645775400863 0
          0.0053833488776842 0.01122289251627 0 0.0057681451700529 0.011227839215398 0
          0.0058121034548515 0.011664867476358 0 0.0054092385319303 0.011645775400863 0.00015
          0.0053833488776842 0.01122289251627 0.00015 0.0057681451700529 0.011227839215398 0.00015
          0.0058121034548515 0.011664867476358 0.00015 0.0054092385319303 0.011645775400863 0.0003
          0.0053833488776842 0.01122289251627 0.0003 0.0057681451700529 0.011227839215398 0.0003
          0.0058121034548515 0.011664867476358 0.0003 0.0061750164335738 0.0074760206739226 0
          0.0061750164335738 0.0074760206739226 0.00015 0.0061750164335738 0.0074760206739226 0.0003
          0.0059117305299751 0.012157336766967 0 0.005424823391927 0.012092657417535 0
          0.0059117305299751 0.012157336766967 0.00015 0.005424823391927 0.012092657417535 0.00015
          0.0059117305299751 0.012157336766967 0.0003 0.005424823391927 0.012092657417535 0.0003
          0.0067343691031854 0.0082749920647978 0 0.0064165220606644 0.0085260954574503 0
          0.0061549788754448 0.0084621147205563 0 0.0063465715243025 0.0080645757596712 0
          0.0067343691031854 0.0082749920647978 0.00015 0.0064165220606644 0.0085260954574503 0.00015
          0.0061549788754448 0.0084621147205563 0.00015 0.0063465715243025 0.0080645757596712 0.00015
          0.0067343691031854 0.0082749920647978 0.0003 0.0064165220606644 0.0085260954574503 0.0003
          0.0061549788754448 0.0084621147205563 0.0003 0.0063465715243025 0.0080645757596712 0.0003
          0.0057156085606184 0.010806935576218 0 0.0053556270258422 0.010821833746382 0
          0.0057156085606184 0.010806935576218 0.00015 0.0053556270258422 0.010821833746382 0.00015
          0.0057156085606184 0.010806935576218 0.0003 0.0053556270258422 0.010821833746382 0.0003
          0.0066683322798844 0.007604545062767 0 0.0070645065688863 0.0079329639302151 0
          0.0066683322798844 0.007604545062767 0.00015 0.0070645065688863 0.0079329639302151 0.00015
          0.0066683322798844 0.007604545062767 0.0003 0.0070645065688863 0.0079329639302151 0.0003
          0.0064939459679252 0.012038015964773 0 0.0063228400853618 0.012437164584428 0
          0.0062168099714575 0.011953445524179 0 0.0064939459679252 0.012038015964773 0.00015
          0.0063228400853618 0.012437164584428 0.00015 0.0062168099714575 0.011953445524179 0.00015
          0.0064939459679252 0.012038015964773 0.0003 0.0063228400853618 0.012437164584428 0.0003
          0.0062168099714575 0.011953445524179 0.0003 0.0085394683783431 0.010062707851298 0
          0.0089610661825476 0.0099263712092025 0 0.0091044702108566 0.010399281799278 0
          0.0086466489465924 0.010543823526793 0 0.0085394683783431 0.010062707851298 0.00015
          0.0089610661825476 0.0099263712092025 0.00015 0.0091044702108566 0.010399281799278 0.00015
          0.0086466489465924 0.010543823526793 0.00015 0.0085394683783431 0.010062707851298 0.0003
          0.0089610661825476 0.0099263712092025 0.0003 0.0091044702108566 0.010399281799278 0.0003
          0.0086466489465924 0.010543823526793 0.0003 0.0070988195317831 0.0084027120924791 0
          0.0071605082668525 0.0086998196459927 0 0.0067922174506807 0.0087792626202703 0
          0.0070988195317831 0.0084027120924791 0.00015 0.0071605082668525 0.0086998196459927 0.00015
          0.0067922174506807 0.0087792626202703 0.00015 0.0070988195317831 0.0084027120924791 0.0003
          0.0071605082668525 0.0086998196459927 0.0003 0.0067922174506807 0.0087792626202703 0.0003
          0.0082212914374119 0.0076937845711927 0 0.0086800066977864 0.007743247126247 0
          0.0088477729813042 0.00814241905886 0 0.0083314775318771 0.0082316914297717 0
          0.0082212914374119 0.0076937845711927 0.00015 0.0086800066977864 0.007743247126247 0.00015
          0.0088477729813042 0.00814241905886 0.00015 0.0083314775318771 0.0082316914297717 0.00015
          0.0082212914374119 0.0076937845711927 0.0003 0.0086800066977864 0.007743247126247 0.0003
          0.0088477729813042 0.00814241905886 0.0003 0.0083314775318771 0.0082316914297717 0.0003
          0.0053430701544214 0.010541301697294 0 0.0055999206723275 0.01043253025418 0
          0.0053430701544214 0.010541301697294 0.00015 0.0055999206723275 0.01043253025418 0.00015
          0.0053430701544214 0.010541301697294 0.0003 0.0055999206723275 0.01043253025418 0.0003
          0.0082934157409751 0.011625007594535 0 0.0082561968973057 0.011128478524087 0
          0.0087259762319724 0.011059252375005 0 0.0087558560903097 0.01158375342748 0
          0.0082934157409751 0.011625007594535 0.00015 0.0082561968973057 0.011128478524087 0.00015
          0.0087259762319724 0.011059252375005 0.00015 0.0087558560903097 0.01158375342748 0.00015
          0.0082934157409751 0.011625007594535 0.0003 0.0082561968973057 0.011128478524087 0.0003
          0.0087259762319724 0.011059252375005 0.0003 0.0087558560903097 0.01158375342748 0.0003
          0.0059886023840467 0.010204624020488 0 0.005451541046517 0.010106162675601 0
          0.0057038380696848 0.0099786893665285 0 0.0059886023840467 0.010204624020488 0.00015
          0.005451541046517 0.010106162675601 0.00015 0.0057038380696848 0.0099786893665285 0.00015
          0.0059886023840467 0.010204624020488 0.0003 0.005451541046517 0.010106162675601 0.0003
          0.0057038380696848 0.0099786893665285 0.0003 0.0078369912454539 0.011665931946432 0
          0.0078144148304188 0.011182309200361 0 0.0078369912454539 0.011665931946432 0.00015
          0.0078144148304188 0.011182309200361 0.00015 0.0078369912454539 0.011665931946432 0.0003
          0.0078144148304188 0.011182309200361 0.0003 0.0086735759699153 0.012550377000034 0
          0.0087327775394086 0.012086203404192 0 0.0091819131238462 0.012082911785298 0
          0.0091730578335362 0.01253941989127 0 0.0086735759699153 0.012550377000034 0.00015
          0.0087327775394086 0.012086203404192 0.00015 0.0091819131238462 0.012082911785298 0.00015
          0.0091730578335362 0.01253941989127 0.00015 0.0086735759699153 0.012550377000034 0.0003
          0.0087327775394086 0.012086203404192 0.0003 0.0091819131238462 0.012082911785298 0.0003
          0.0091730578335362 0.01253941989127 0.0003 0.010056105947498 0.011950542930398 0
          0.010274327777913 0.011549885364188 0 0.010056105947498 0.011950542930398 0.00015
          0.010274327777913 0.011549885364188 0.00015 0.010056105947498 0.011950542930398 0.0003
          0.010274327777913 0.011549885364188 0.0003 0.0087795014641276 0.0086485955844896 0
          0.0083912374962093 0.008661976024637 0 0.0087795014641276 0.0086485955844896 0.00015
          0.0083912374962093 0.008661976024637 0.00015 0.0087795014641276 0.0086485955844896 0.0003
          0.0083912374962093 0.008661976024637 0.0003 0.0073407145553935 0.0082277946262138 0
          0.0075218701602762 0.0085641736532836 0 0.0073407145553935 0.0082277946262138 0.00015
          0.0075218701602762 0.0085641736532836 0.00015 0.0073407145553935 0.0082277946262138 0.0003
          0.0075218701602762 0.0085641736532836 0.0003 0.0073357310625303 0.010250124356937 0
          0.0069197896843151 0.010226005241683 0 0.0068905371289043 0.0097153304797672 0
          0.0074001182371208 0.0096888945892578 0 0.0073357310625303 0.010250124356937 0.00015
          0.0069197896843151 0.010226005241683 0.00015 0.0068905371289043 0.0097153304797672 0.00015
          0.0074001182371208 0.0096888945892578 0.00015 0.0073357310625303 0.010250124356937 0.0003
          0.0069197896843151 0.010226005241683 0.0003 0.0068905371289043 0.0097153304797672 0.0003
          0.0074001182371208 0.0096888945892578 0.0003 0.0081958803856553 0.010639401227375 0
          0.0081958803856553 0.010639401227375 0.00015 0.0081958803856553 0.010639401227375 0.0003
          0.0057785311780113 0.0084598603588589 0 0.0057785311780113 0.0084598603588589 0.00015
          0.0057785311780113 0.0084598603588589 0.0003 0.0068354780286894 0.0065149558629347 0
          0.0065694481807909 0.0068273110654121 0 0.0068354780286894 0.0065149558629347 0.00015
          0.0065694481807909 0.0068273110654121 0.00015 0.0068354780286894 0.0065149558629347 0.0003
          0.0065694481807909 0.0068273110654121 0.0003 0.0061608287914901 0.011213609336371 0
          0.0061928612734976 0.011646193292464 0 0.0061608287914901 0.011213609336371 0.00015
          0.0061928612734976 0.011646193292464 0.00015 0.0061608287914901 0.011213609336371 0.0003
          0.0061928612734976 0.011646193292464 0.0003 0.0060256410256453 0.013 0
          0.0057791181770977 0.012558961975135 0 0.0060256410256453 0.013 0.00015
          0.0057791181770977 0.012558961975135 0.00015 0.0060256410256453 0.013 0.0003
          0.0057791181770977 0.012558961975135 0.0003 0.0061071771839093 0.010748184383761 0
          0.0061071771839093 0.010748184383761 0.00015 0.0061071771839093 0.010748184383761 0.0003
          0.0064845320073614 0.010216336118065 0 0.0065278935143817 0.010725783571784 0
          0.0064845320073614 0.010216336118065 0.00015 0.0065278935143817 0.010725783571784 0.00015
          0.0064845320073614 0.010216336118065 0.0003 0.0065278935143817 0.010725783571784 0.0003
          0.0077968354342878 0.012121840026842 0 0.0077167513193965 0.012573751507337 0
          0.0072251022123942 0.012571145425366 0 0.0073422863282366 0.012132364188728 0
          0.0077968354342878 0.012121840026842 0.00015 0.0077167513193965 0.012573751507337 0.00015
          0.0072251022123942 0.012571145425366 0.00015 0.0073422863282366 0.012132364188728 0.00015
          0.0077968354342878 0.012121840026842 0.0003 0.0077167513193965 0.012573751507337 0.0003
          0.0072251022123942 0.012571145425366 0.0003 0.0073422863282366 0.012132364188728 0.0003
          0.0072550033809581 0.0091349332579085 0 0.0076541519095837 0.0089672912460138 0
          0.0072550033809581 0.0091349332579085 0.00015 0.0076541519095837 0.0089672912460138 0.00015
          0.0072550033809581 0.0091349332579085 0.0003 0.0076541519095837 0.0089672912460138 0.0003
          0.0065384615384679 0.013 0 0.0067552646820212 0.012548340065985 0
          0.007051282051287 0.013 0 0.0065384615384679 0.013 0.00015
          0.0067552646820212 0.012548340065985 0.00015 0.007051282051287 0.013 0.00015
          0.0065384615384679 0.013 0.0003 0.0067552646820212 0.012548340065985 0.0003
          0.007051282051287 0.013 0.0003 0.0068431084681841 0.0092248064360522 0
          0.0064629827835734 0.0097214310503871 0 0.0064401841603361 0.009249995775159 0
          0.0068431084681841 0.0092248064360522 0.00015 0.0064629827835734 0.0097214310503871 0.00015
          0.0064401841603361 0.009249995775159 0.00015 0.0068431084681841 0.0092248064360522 0.0003
          0.0064629827835734 0.0097214310503871 0.0003 0.0064401841603361 0.009249995775159 0.0003
          0.0078142698619037 0.0093821750433109 0 0.0078142698619037 0.0093821750433109 0.00015
          0.0078142698619037 0.0093821750433109 0.0003 0.0064227954769353 0.0088235452462607 0
          0.0064227954769353 0.0088235452462607 0.00015 0.0064227954769353 0.0088235452462607 0.0003
          0.0060749446210727 0.008846093909968 0 0.0060643722245677 0.0092551370126649 0
          0.0060749446210727 0.008846093909968 0.00015 0.0060643722245677 0.0092551370126649 0.00015
          0.0060749446210727 0.008846093909968 0.0003 0.0060643722245677 0.0092551370126649 0.0003
          0.0065702926001918 0.011654169374977 0 0.006566373886869 0.011214840249119 0
          0.0065702926001918 0.011654169374977 0.00015 0.006566373886869 0.011214840249119 0.00015
          0.0065702926001918 0.011654169374977 0.0003 0.006566373886869 0.011214840249119 0.0003
          0.0093206781870799 0.010991873758601 0 0.0093206781870799 0.010991873758601 0.00015
          0.0093206781870799 0.010991873758601 0.0003 0.0063586074578252 0.0071353312088165 0
          0.0066361392369192 0.0072470897144222 0 0.0063586074578252 0.0071353312088165 0.00015
          0.0066361392369192 0.0072470897144222 0.00015 0.0063586074578252 0.0071353312088165 0.0003
          0.0066361392369192 0.0072470897144222 0.0003 0.0070635342364542 0.0061542378287001 0
          0.0070635342364542 0.0061542378287001 0.00015 0.0070635342364542 0.0061542378287001 0.0003
          0.010295501843898 0.0098988447327244 0 0.010331968632679 0.010177975560165 0
          0.0100990439633 0.010345969653311 0 0.0099255608427027 0.010003443747144 0
          0.010295501843898 0.0098988447327244 0.00015 0.010331968632679 0.010177975560165 0.00015
          0.0100990439633 0.010345969653311 0.00015 0.0099255608427027 0.010003443747144 0.00015
          0.010295501843898 0.0098988447327244 0.0003 0.010331968632679 0.010177975560165 0.0003
          0.0100990439633 0.010345969653311 0.0003 0.0099255608427027 0.010003443747144 0.0003
          0.0075641025641077 0.013 0 0.0075641025641077 0.013 0.00015
          0.0075641025641077 0.013 0.0003 0.007358052416256 0.010740056955422 0
          0.0069470918478694 0.010735576046615 0 0.007358052416256 0.010740056955422 0.00015
          0.0069470918478694 0.010735576046615 0.00015 0.007358052416256 0.010740056955422 0.0003
          0.0069470918478694 0.010735576046615 0.0003 0.0060634003212644 0.00969554800092 0
          0.0060634003212644 0.00969554800092 0.00015 0.0060634003212644 0.00969554800092 0.0003
          0.0068797309840753 0.0070620910964483 0 0.0071475509773245 0.0073405239650904 0
          0.0068797309840753 0.0070620910964483 0.00015 0.0071475509773245 0.0073405239650904 0.00015
          0.0068797309840753 0.0070620910964483 0.0003 0.0071475509773245 0.0073405239650904 0.0003
          0.0094632087818517 0.0081862945076399 0 0.0094632087818517 0.0081862945076399 0.00015
          0.0094632087818517 0.0081862945076399 0.0003 0.0091025641025756 0.013 0
          0.0097400134531557 0.012425583162504 0 0.0096153846153981 0.013 0
          0.0091025641025756 0.013 0.00015 0.0097400134531557 0.012425583162504 0.00015
          0.0096153846153981 0.013 0.00015 0.0091025641025756 0.013 0.0003
          0.0097400134531557 0.012425583162504 0.0003 0.0096153846153981 0.013 0.0003
          0.0080231150782377 0.0087799001252051 0 0.0081700325353194 0.0091480386714452 0
          0.0080231150782377 0.0087799001252051 0.00015 0.0081700325353194 0.0091480386714452 0.00015
          0.0080231150782377 0.0087799001252051 0.0003 0.0081700325353194 0.0091480386714452 0.0003
          0.0095329104644106 0.010197774343332 0 0.0097620082938393 0.010606176712681 0
          0.0095329104644106 0.010197774343332 0.00015 0.0097620082938393 0.010606176712681 0.00015
          0.0095329104644106 0.010197774343332 0.0003 0.0097620082938393 0.010606176712681 0.0003
          0.008459458524824 0.0095324383395712 0 0.0079941048127097 0.0097727986382514 0
          0.008459458524824 0.0095324383395712 0.00015 0.0079941048127097 0.0097727986382514 0.00015
          0.008459458524824 0.0095324383395712 0.0003 0.0079941048127097 0.0097727986382514 0.0003
          0.0086852410268287 0.0090671784981495 0 0.0084121010432185 0.0089624922946051 0
          0.0086852410268287 0.0090671784981495 0.00015 0.0084121010432185 0.0089624922946051 0.00015
          0.0086852410268287 0.0090671784981495 0.0003 0.0084121010432185 0.0089624922946051 0.0003
          0.010101546658348 0.010930204106287 0 0.010101546658348 0.010930204106287 0.00015
          0.010101546658348 0.010930204106287 0.0003 0.009219770580739 0.01160836207586 0
          0.009219770580739 0.01160836207586 0.00015 0.009219770580739 0.01160836207586 0.0003
          0.010512959331867 0.011182607317474 0 0.010512959331867 0.011182607317474 0.00015
          0.010512959331867 0.011182607317474 0.0003 0.0077135351973544 0.0099243016659867 0
          0.0077135351973544 0.0099243016659867 0.00015 0.0077135351973544 0.0099243016659867 0.0003
          0.0098399724462143 0.011314297129672 0 0.0098399724462143 0.011314297129672 0.00015
          0.0098399724462143 0.011314297129672 0.0003 0.0071955324717728 0.0067909271139751 0
          0.0071955324717728 0.0067909271139751 0.00015 0.0071955324717728 0.0067909271139751 0.0003
          0.0081933420545987 0.012561933470251 0 0.0082754308174791 0.012106448253662 0
          0.0081933420545987 0.012561933470251 0.00015 0.0082754308174791 0.012106448253662 0.00015
          0.0081933420545987 0.012561933470251 0.0003 0.0082754308174791 0.012106448253662 0.0003
          0.0091885294783446 0.0083400759786555 0 0.009185366627384 0.008676208234384 0
          0.0091885294783446 0.0083400759786555 0.00015 0.009185366627384 0.008676208234384 0.00015
          0.0091885294783446 0.0083400759786555 0.0003 0.009185366627384 0.008676208234384 0.0003
          0.0091484396571168 0.0092413935725907 0 0.0091484396571168 0.0092413935725907 0.00015
          0.0091484396571168 0.0092413935725907 0.0003 0.0096530361744126 0.011754958706862 0
          0.0096530361744126 0.011754958706862 0.00015 0.0096530361744126 0.011754958706862 0.0003
          0.0074385983748104 0.0076487872335333 0 0.0078026145042184 0.0073499712891003 0
          0.0077209126941719 0.0079857422349365 0 0.0074385983748104 0.0076487872335333 0.00015
          0.0078026145042184 0.0073499712891003 0.00015 0.0077209126941719 0.0079857422349365 0.00015
          0.0074385983748104 0.0076487872335333 0.0003 0.0078026145042184 0.0073499712891003 0.0003
          0.0077209126941719 0.0079857422349365 0.0003 0.0096060866574151 0.0086034051599073 0
          0.0096917093907041 0.0090884547689663 0 0.0096060866574151 0.0086034051599073 0.00015
          0.0096917093907041 0.0090884547689663 0.00015 0.0096060866574151 0.0086034051599073 0.0003
          0.0096917093907041 0.0090884547689663 0.0003 0.0074956671905203 0.0070789212715492 0
          0.0074956671905203 0.0070789212715492 0.00015 0.0074956671905203 0.0070789212715492 0.0003
          0.0080769230769304 0.013 0 0.0080769230769304 0.013 0.00015
          0.0080769230769304 0.013 0.0003 0.0097960013481072 0.0095766790072516 0
          0.0097960013481072 0.0095766790072516 0.00015 0.0097960013481072 0.0095766790072516 0.0003
          0.0079025965714766 0.0083828176281282 0 0.0079025965714766 0.0083828176281282 0.00015
          0.0079025965714766 0.0083828176281282 0.0003 0.0075832963246375 0.0064815260672887 0
          0.0075832963246375 0.0064815260672887 0.00015 0.0075832963246375 0.0064815260672887 0.0003
          0.0077301559610225 0.010254379585944 0 0.0077301559610225 0.010254379585944 0.00015
          0.0077301559610225 0.010254379585944 0.0003 0.0077729216102883 0.010708725243031 0
          0.0077729216102883 0.010708725243031 0.00015 0.0077729216102883 0.010708725243031 0.0003
          0.0053754057810206 0.0085370600870078 0 0.0053754057810206 0.0085370600870078 0.00015
          0.0053754057810206 0.0085370600870078 0.0003 0.0053590367872451 0.0089652268696161 0
          0.0053590367872451 0.0089652268696161 0.00015 0.0053590367872451 0.0089652268696161 0.0003
          0.0077314143265107 0.0068791993815975 0 0.0077314143265107 0.0068791993815975 0.00015
          0.0077314143265107 0.0068791993815975 0.0003 0.0053527694027008 0.0093707431616054 0
          0.0053527694027008 0.0093707431616054 0.00015 0.0053527694027008 0.0093707431616054 0.0003
          0.0080272182678723 0.0070086219794164 0 0.0080272182678723 0.0070086219794164 0.00015
          0.0080272182678723 0.0070086219794164 0.0003 0.0053686841699875 0.0097656204902227 0
          0.0053686841699875 0.0097656204902227 0.00015 0.0053686841699875 0.0097656204902227 0.0003
          0.0069753270353201 0.011225035595701 0 0.0069753270353201 0.011225035595701 0.00015
          0.0069753270353201 0.011225035595701 0.0003 0.0081230348422786 0.010180774741819 0
          0.0081230348422786 0.010180774741819 0.00015 0.0081230348422786 0.010180774741819 0.0003
          0.0069714542407681 0.011681487349241 0 0.0069714542407681 0.011681487349241 0.00015
          0.0069714542407681 0.011681487349241 0.0003 0.0073877269320336 0.011214628569732 0
          0.0073877269320336 0.011214628569732 0.00015 0.0073877269320336 0.011214628569732 0.0003
          0.0073992085993983 0.011689991378362 0 0.0073992085993983 0.011689991378362 0.00015
          0.0073992085993983 0.011689991378362 0.0003 0.0088599825232994 0.0095868605102716 0
          0.0088599825232994 0.0095868605102716 0.00015 0.0088599825232994 0.0095868605102716 0.0003
          0.0093698999071837 0.0097470513643601 0 0.0093698999071837 0.0097470513643601 0.00015
          0.0093698999071837 0.0097470513643601 0.0003 0.005708830284701 0.0092938500467527 0
          0.005710003284826 0.0096895337898706 0 0.005708830284701 0.0092938500467527 0.00015
          0.005710003284826 0.0096895337898706 0.00015 0.005708830284701 0.0092938500467527 0.0003
          0.005710003284826 0.0096895337898706 0.0003 0.0057253261942579 0.008884797777202 0
          0.0057253261942579 0.008884797777202 0.00015 0.0057253261942579 0.008884797777202 0.0003
          0.0054465956081518 0.012540682824845 0 0.0055128205128226 0.013 0
          0.0054465956081518 0.012540682824845 0.00015 0.0055128205128226 0.013 0.00015
          0.0054465956081518 0.012540682824845 0.0003 0.0055128205128226 0.013 0.0003
          0.0095150035075373 0.012074113937236 0 0.0095150035075373 0.012074113937236 0.00015
          0.0095150035075373 0.012074113937236 0.0003 0.008589743589753 0.013 0
          0.008589743589753 0.013 0.00015 0.008589743589753 0.013 0.0003
          0.0068932543961937 0.012102712522565 0 0.0068932543961937 0.012102712522565 0.00015
          0.0068932543961937 0.012102712522565 0.0003 0.010475172867508 0.012102844227475 0
          0.010669582432454 0.011743114144408 0 0.010475172867508 0.012102844227475 0.00015
          0.010669582432454 0.011743114144408 0.00015 0.010475172867508 0.012102844227475 0.0003
          0.010669582432454 0.011743114144408 0.0003 0.0098857235699117 0.0079055319030787 0
          0.0092411258002763 0.0078319639415625 0 0.0095144479526816 0.0076594245921199 0
          0.0098857235699117 0.0079055319030787 0.00015 0.0092411258002763 0.0078319639415625 0.00015
          0.0095144479526816 0.0076594245921199 0.00015 0.0098857235699117 0.0079055319030787 0.0003
          0.0092411258002763 0.0078319639415625 0.0003 0.0095144479526816 0.0076594245921199 0.0003
          0.010385522435479 0.010608007769118 0 0.010385522435479 0.010608007769118 0.00015
          0.010385522435479 0.010608007769118 0.0003 0.010783127360108 0.010836567412064 0
          0.010783127360108 0.010836567412064 0.00015 0.010783127360108 0.010836567412064 0.0003
          0.010310686327751 0.012539165738252 0 0.010128205128219 0.013 0
          0.010310686327751 0.012539165738252 0.00015 0.010128205128219 0.013 0.00015
          0.010310686327751 0.012539165738252 0.0003 0.010128205128219 0.013 0.0003
          0.011222013645511 0.011097826594996 0 0.010925822172272 0.011428925131881 0
          0.011222013645511 0.011097826594996 0.00015 0.010925822172272 0.011428925131881 0.00015
          0.011222013645511 0.011097826594996 0.0003 0.010925822172272 0.011428925131881 0.0003
          0.010158980545183 0.0089928081418126 0 0.010234809282542 0.0094751596931164 0
          0.010158980545183 0.0089928081418126 0.00015 0.010234809282542 0.0094751596931164 0.00015
          0.010158980545183 0.0089928081418126 0.0003 0.010234809282542 0.0094751596931164 0.0003
          0.010689703280164 0.0094649590365737 0 0.010691300612525 0.0099168298135774 0
          0.010689703280164 0.0094649590365737 0.00015 0.010691300612525 0.0099168298135774 0.00015
          0.010689703280164 0.0094649590365737 0.0003 0.010691300612525 0.0099168298135774 0.0003
          0.010057653370411 0.0084974472595183 0 0.010057653370411 0.0084974472595183 0.00015
          0.010057653370411 0.0084974472595183 0.0003 0.0071984303565192 0.0057392272964834 0
          0.0077721363879251 0.0058968168784219 0 0.0071984303565192 0.0057392272964834 0.00015
          0.0077721363879251 0.0058968168784219 0.00015 0.0071984303565192 0.0057392272964834 0.0003
          0.0077721363879251 0.0058968168784219 0.0003 0.0089588909882048 0.0073942383853577 0
          0.0089588909882048 0.0073942383853577 0.00015 0.0089588909882048 0.0073942383853577 0.0003
          0.0081402125110085 0.0066115625704341 0 0.0082479601882269 0.0062087007836213 0
          0.0081402125110085 0.0066115625704341 0.00015 0.0082479601882269 0.0062087007836213 0.00015
          0.0081402125110085 0.0066115625704341 0.0003 0.0082479601882269 0.0062087007836213 0.0003
          0.0084364690699339 0.0071912877673881 0 0.0084364690699339 0.0071912877673881 0.00015
          0.0084364690699339 0.0071912877673881 0.0003 0.010601303654319 0.010290632654442 0
          0.010601303654319 0.010290632654442 0.00015 0.010601303654319 0.010290632654442 0.0003
          0.0085681017610313 0.0067725899286886 0 0.0085681017610313 0.0067725899286886 0.00015
          0.0085681017610313 0.0067725899286886 0.0003
          <InformationKey name="L2_NORM_RANGE" location="vtkDataArray" length="2">
            <Value index="0">
              0.0092063092257
            </Value>
            <Value index="1">
              0.016482431226
            </Value>
          </InformationKey>
        </DataArray>
      </Points>
      <Cells>
        <DataArray type="Int64" Name="connectivity" format="ascii" RangeMin="0" RangeMax="782">
          27 24 3 6 28 25
          4 7 28 25 4 7
          29 26 5 8 33 30
          9 12 34 31 10 13
          34 31 10 13 35 32
          11 14 36 33 12 15
          37 34 13 16 37 34
          13 16 38 35 14 17
          39 36 15 18 40 37
          16 19 40 37 16 19
          41 38 17 20 42 39
          18 21 43 40 19 22
          43 40 19 22 44 41
          20 23 45 42 21 24
          46 43 22 25 46 43
          22 25 47 44 23 26
          48 45 24 27 49 46
          25 28 49 46 25 28
          50 47 26 29 57 54
          30 33 58 55 31 34
          58 55 31 34 59 56
          32 35 60 57 33 36
          61 58 34 37 61 58
          34 37 62 59 35 38
          63 60 36 39 64 61
          37 40 64 61 37 40
          65 62 38 41 66 63
          39 42 67 64 40 43
          67 64 40 43 68 65
          41 44 69 66 42 45
          70 67 43 46 70 67
          43 46 71 68 44 47
          72 69 45 48 73 70
          46 49 73 70 46 49
          74 71 47 50 78 75
          51 54 79 76 52 55
          79 76 52 55 80 77
          53 56 81 78 54 57
          82 79 55 58 82 79
          55 58 83 80 56 59
          84 81 57 60 85 82
          58 61 85 82 58 61
          86 83 59 62 87 84
          60 63 88 85 61 64
          88 85 61 64 89 86
          62 65 90 87 63 66
          91 88 64 67 91 88
          64 67 92 89 65 68
          93 90 66 69 94 91
          67 70 94 91 67 70
          95 92 68 71 96 93
          69 72 97 94 70 73
          97 94 70 73 98 95
          71 74 102 99 75 78
          103 100 76 79 103 100
          76 79 104 101 77 80
          105 102 78 81 106 103
          79 82 106 103 79 82
          107 104 80 83 108 105
          81 84 109 106 82 85
          109 106 82 85 110 107
          83 86 111 108 84 87
          112 109 85 88 112 109
          85 88 113 110 86 89
          114 111 87 90 115 112
          88 91 115 112 88 91
          116 113 89 92 117 114
          90 93 118 115 91 94
          118 115 91 94 119 116
          92 95 120 117 93 96
          121 118 94 97 121 118
          94 97 122 119 95 98
          126 123 99 102 127 124
          100 103 127 124 100 103
          128 125 101 104 129 126
          102 105 130 127 103 106
          130 127 103 106 131 128
          104 107 132 129 105 108
          133 130 106 109 133 130
          106 109 134 131 107 110
          135 132 108 111 136 133
          109 112 136 133 109 112
          137 134 110 113 138 135
          111 114 139 136 112 115
          139 136 112 115 140 137
          113 116 141 138 114 117
          142 139 115 118 142 139
          115 118 143 140 116 119
          144 141 117 120 145 142
          118 121 145 142 118 121
          146 143 119 122 150 147
          123 126 151 148 124 127
          151 148 124 127 152 149
          125 128 153 150 126 129
          154 151 127 130 154 151
          127 130 155 152 128 131
          156 153 129 132 157 154
          130 133 157 154 130 133
          158 155 131 134 159 156
          132 135 160 157 133 136
          160 157 133 136 161 158
          134 137 162 159 135 138
          163 160 136 139 163 160
          136 139 164 161 137 140
          165 162 138 141 166 163
          139 142 166 163 139 142
          167 164 140 143 168 165
          141 144 169 166 142 145
          169 166 142 145 170 167
          143 146 171 172 173 174
          175 176 177 178 175 176
          177 178 179 180 181 182
          183 184 185 186 187 188
          189 190 187 188 189 190
          191 192 193 194 183 195
          196 184 187 197 198 188
          187 197 198 188 191 199
          200 192 201 202 171 174
          203 204 175 178 203 204
          175 178 205 206 179 182
          173 172 207 208 177 176
          209 210 177 176 209 210
          181 180 211 212 202 201
          196 195 204 203 198 197
          204 203 198 197 206 205
          200 199 213 186 185 214
          215 190 189 216 215 190
          189 216 217 194 193 218
          162 172 171 159 163 176
          175 160 163 176 175 160
          164 180 179 161 173 208
          219 220 177 210 221 222
          177 210 221 222 181 212
          223 224 159 171 202 156
          160 175 204 157 160 175
          204 157 161 179 206 158
          168 225 207 165 169 226
          209 166 169 226 209 166
          170 227 211 167 185 184
          231 228 189 188 232 229
          189 188 232 229 193 192
          233 230 234 184 196 235
          236 188 198 237 236 188
          198 237 238 192 200 239
          183 186 150 153 187 190
          151 154 187 190 151 154
          191 194 152 155 201 240
          235 196 203 241 237 198
          203 241 237 198 205 242
          239 200 174 220 240 201
          178 222 241 203 178 222
          241 203 182 224 242 205
          165 207 172 162 166 209
          176 163 166 209 176 163
          167 211 180 164 208 207
          225 243 210 209 226 244
          210 209 226 244 212 211
          227 245 195 153 156 202
          197 154 157 204 197 154
          157 204 199 155 158 206
          147 150 186 213 148 151
          190 215 148 151 190 215
          149 152 194 217 183 195
          153 187 197 154 187 197
          154 191 199 155 173 174
          220 177 178 222 177 178
          222 181 182 224 234 184
          231 236 188 232 236 188
          232 238 192 233 243 208
          219 244 210 221 244 210
          221 245 212 223 249 250
          251 252 253 254 255 256
          253 254 255 256 257 258
          259 260 264 265 249 252
          266 267 253 256 266 267
          253 256 268 269 257 260
          270 271 272 273 274 275
          276 277 274 275 276 277
          278 279 280 281 282 251
          250 283 284 255 254 285
          284 255 254 285 286 259
          258 287 273 288 289 270
          277 290 291 274 277 290
          291 274 281 292 293 278
          294 295 264 296 297 298
          266 299 297 298 266 299
          300 301 268 302 303 304
          305 306 307 308 309 310
          307 308 309 310 311 312
          313 314 270 315 316 317
          274 318 319 320 274 318
          319 320 278 321 322 323
          324 325 326 327 328 329
          330 331 328 329 330 331
          332 333 334 335 283 336
          337 282 285 338 339 284
          285 338 339 284 287 340
          341 286 342 343 344 345
          346 347 348 349 346 347
          348 349 350 351 352 353
          354 337 355 356 357 339
          358 359 357 339 358 359
          360 341 361 362 343 342
          363 364 347 346 365 366
          347 346 365 366 351 350
          367 368 369 370 371 372
          373 374 375 376 373 374
          375 376 377 378 379 380
          711 381 382 712 713 383
          384 714 713 383 384 714
          715 385 386 716 327 326
          387 388 331 330 389 390
          331 330 389 390 335 334
          391 392 393 394 316 315
          395 396 319 318 395 396
          319 318 397 398 322 321
          399 400 401 402 403 404
          405 406 403 404 405 406
          407 408 409 410 306 344
          343 411 310 348 347 412
          310 348 347 412 314 352
          351 413 414 246 273 272
          415 247 277 276 415 247
          277 276 416 248 281 280
          423 424 252 251 425 426
          256 255 425 426 256 255
          427 428 260 259 429 430
          264 295 431 432 266 298
          431 432 266 298 433 434
          268 301 282 337 354 435
          284 339 357 436 284 339
          357 436 286 341 360 437
          354 438 439 435 357 440
          441 436 357 440 441 436
          360 442 443 437 444 445
          446 447 448 449 450 451
          448 449 450 451 452 453
          454 455 456 316 394 457
          458 319 396 459 458 319
          396 459 460 322 398 461
          462 463 446 464 465 466
          450 467 465 466 450 467
          468 469 454 470 471 401
          472 473 474 405 475 476
          474 405 475 476 477 409
          478 479 402 456 457 480
          406 458 459 481 406 458
          459 481 410 460 461 482
          471 456 402 401 474 458
          406 405 474 458 406 405
          477 460 410 409 473 483
          317 471 476 484 320 474
          476 484 320 474 479 485
          323 477 486 483 473 487
          488 484 476 489 488 484
          476 489 490 485 479 491
          483 271 270 317 484 275
          274 320 484 275 274 320
          485 279 278 323 492 424
          423 493 494 426 425 495
          494 426 425 495 496 428
          427 497 498 344 306 305
          499 348 310 309 499 348
          310 309 500 352 314 313
          501 502 288 261 503 504
          290 262 503 504 290 262
          505 506 292 263 429 295
          463 462 431 298 466 465
          431 298 466 465 433 301
          469 468 510 511 512 513
          514 515 516 517 514 515
          516 517 518 519 520 521
          464 446 445 522 467 450
          449 523 467 450 449 523
          470 454 453 524 525 526
          400 399 527 528 404 403
          527 528 404 403 529 530
          408 407 487 473 472 531
          489 476 475 532 489 476
          475 532 491 479 478 533
          288 273 246 261 290 277
          247 262 290 277 247 262
          292 281 248 263 435 439
          493 423 436 441 495 425
          436 441 495 425 437 443
          497 427 288 502 534 535
          290 504 536 537 290 504
          536 537 292 506 538 539
          717 540 718 719 720 541
          721 722 720 541 721 722
          723 542 724 725 543 372
          544 545 546 376 547 548
          546 376 547 548 549 380
          550 551 480 457 552 553
          481 459 554 555 481 459
          554 555 482 461 556 557
          558 559 498 305 560 561
          499 309 560 561 499 309
          562 563 500 313 400 526
          439 438 404 528 441 440
          404 528 441 440 408 530
          443 442 564 565 480 553
          566 567 481 555 566 567
          481 555 568 569 482 557
          570 564 553 571 572 566
          555 573 572 566 555 573
          574 568 557 575 726 576
          559 512 727 577 561 516
          727 577 561 516 728 578
          563 520 579 345 344 498
          580 349 348 499 580 349
          348 499 581 353 352 500
          729 582 576 726 730 583
          577 727 730 583 577 727
          731 584 578 728 438 354
          531 472 440 357 532 475
          440 357 532 475 442 360
          533 478 438 472 401 400
          440 475 405 404 440 475
          405 404 442 478 409 408
          565 585 402 480 567 586
          406 481 567 586 406 481
          569 587 410 482 545 544
          732 733 548 547 734 735
          548 547 734 735 551 550
          736 737 534 502 501 418
          536 504 503 420 536 504
          503 420 538 506 505 422
          251 282 435 423 255 284
          436 425 255 284 436 425
          259 286 437 427 576 588
          498 559 577 589 499 561
          577 589 499 561 578 590
          500 563 591 534 418 417
          592 536 420 419 592 536
          420 419 593 538 422 421
          369 594 595 370 373 596
          597 374 373 596 597 374
          377 598 599 378 326 600
          601 387 330 602 603 389
          330 602 603 389 334 604
          605 391 606 570 387 601
          607 572 389 603 607 572
          389 603 608 574 391 605
          317 316 456 471 320 319
          458 474 320 319 458 474
          323 322 460 477 483 486
          272 271 484 488 276 275
          484 488 276 275 485 490
          280 279 582 729 738 739
          583 730 740 741 583 730
          740 741 584 731 742 743
          588 382 381 609 589 384
          383 610 589 384 383 610
          590 386 385 611 612 613
          324 614 615 616 328 617
          615 616 328 617 618 619
          332 620 382 582 739 712
          384 583 741 714 384 583
          741 714 386 584 743 716
          582 382 588 576 583 384
          589 577 583 384 589 577
          584 386 590 578 595 342
          345 370 597 346 349 374
          597 346 349 374 599 350
          353 378 621 622 606 601
          623 624 607 603 623 624
          607 603 625 626 608 605
          609 579 498 588 610 580
          499 589 610 580 499 589
          611 581 500 590 540 621
          601 600 541 623 603 602
          541 623 603 602 542 625
          605 604 591 627 535 534
          592 628 537 536 592 628
          537 536 593 629 539 538
          594 630 522 445 596 631
          523 449 596 631 523 449
          598 632 524 453 744 745
          633 622 746 747 634 624
          746 747 634 624 748 749
          635 626 324 327 636 614
          328 331 637 617 328 331
          637 617 332 335 638 620
          745 750 751 510 747 752
          753 514 747 752 753 514
          749 754 755 518 639 591
          417 507 640 592 419 508
          640 592 419 508 641 593
          421 509 371 370 345 579
          375 374 349 580 375 374
          349 580 379 378 353 581
          642 399 402 585 643 403
          406 586 643 403 406 586
          644 407 410 587 645 525
          399 642 646 527 403 643
          646 527 403 643 647 529
          407 644 326 718 540 600
          330 721 541 602 330 721
          541 602 334 724 542 604
          621 540 717 756 623 541
          720 757 623 541 720 757
          625 542 723 758 639 507
          759 760 640 508 761 762
          640 508 761 762 641 509
          763 764 388 387 570 571
          390 389 572 573 390 389
          572 573 392 391 574 575
          648 651 6 0 649 652
          7 1 649 652 7 1
          650 653 8 2 613 612
          535 627 616 615 537 628
          616 615 537 628 619 618
          539 629 627 591 639 654
          628 592 640 655 628 592
          640 655 629 593 641 656
          612 289 288 535 615 291
          290 537 615 291 290 537
          618 293 292 539 651 657
          27 6 652 658 28 7
          652 658 28 7 653 659
          29 8 756 744 622 621
          757 746 624 623 757 746
          624 623 758 748 626 625
          660 613 627 654 661 616
          628 655 661 616 628 655
          662 619 629 656 657 663
          48 27 658 664 49 28
          658 664 49 28 659 665
          50 29 666 493 439 526
          667 495 441 528 667 495
          441 528 668 497 443 530
          669 565 564 303 670 567
          566 307 670 567 566 307
          671 569 568 311 663 355
          72 48 664 358 73 49
          664 358 73 49 665 361
          74 50 672 492 493 666
          673 494 495 667 673 494
          495 667 674 496 497 668
          144 249 265 168 145 253
          267 169 145 253 267 169
          146 257 269 170 411 669
          303 306 412 670 307 310
          412 670 307 310 413 671
          311 314 765 718 326 325
          766 721 330 329 766 721
          330 329 767 724 334 333
          525 645 364 675 527 646
          366 676 527 646 366 676
          529 647 368 677 768 639
          760 769 770 640 762 771
          770 640 762 771 772 641
          764 773 669 411 645 642
          670 412 646 643 670 412
          646 643 671 413 647 644
          639 768 660 654 640 770
          661 655 640 770 661 655
          641 772 662 656 642 585
          565 669 643 586 567 670
          643 586 567 670 644 587
          569 671 393 315 270 289
          395 318 274 291 395 318
          274 291 397 321 278 293
          675 364 363 678 676 366
          365 679 676 366 365 679
          677 368 367 680 552 636
          327 388 554 637 331 390
          554 637 331 390 556 638
          335 392 675 678 672 666
          676 679 673 667 676 679
          673 667 677 680 674 668
          666 526 525 675 667 528
          527 676 667 528 527 676
          668 530 529 677 250 120
          96 283 254 121 97 285
          254 121 97 285 258 122
          98 287 444 447 678 363
          448 451 679 365 448 451
          679 365 452 455 680 367
          614 636 394 393 617 637
          396 395 617 637 396 395
          620 638 398 397 249 144
          120 250 253 145 121 254
          253 145 121 254 257 146
          122 258 564 681 304 303
          566 682 308 307 566 682
          308 307 568 683 312 311
          364 645 411 343 366 646
          412 347 366 646 412 347
          368 647 413 351 72 355
          337 336 73 358 339 338
          73 358 339 338 74 361
          341 340 304 681 606 684
          308 682 607 685 308 682
          607 685 312 683 608 686
          636 552 457 394 637 554
          459 396 637 554 459 396
          638 556 461 398 72 336
          283 96 73 338 285 97
          73 338 285 97 74 340
          287 98 289 612 614 393
          291 615 617 395 291 615
          617 395 293 618 620 397
          687 487 531 688 689 489
          532 690 689 489 532 690
          691 491 533 692 688 531
          354 356 690 532 357 359
          690 532 357 359 692 533
          360 362 388 571 553 552
          390 573 555 554 390 573
          555 554 392 575 557 556
          693 486 487 687 694 488
          489 689 694 488 489 689
          695 490 491 691 564 570
          606 681 566 572 607 682
          566 572 607 682 568 574
          608 683 414 272 486 693
          415 276 488 694 415 276
          488 694 416 280 490 695
          225 696 697 243 226 698
          699 244 226 698 699 244
          227 700 701 245 774 324
          613 660 775 328 616 661
          775 328 616 661 776 332
          619 662 544 702 609 381
          547 703 610 383 547 703
          610 383 550 704 611 385
          688 356 355 663 690 359
          358 664 690 359 358 664
          692 362 361 665 324 774
          765 325 328 775 766 329
          328 775 766 329 332 776
          767 333 684 558 305 304
          685 560 309 308 685 560
          309 308 686 562 313 312
          544 372 371 702 547 376
          375 703 547 376 375 703
          550 380 379 704 711 732
          544 381 713 734 547 383
          713 734 547 383 715 736
          550 385 513 512 559 558
          517 516 561 560 517 516
          561 560 521 520 563 562
          777 726 512 511 778 727
          516 515 778 727 516 515
          779 728 520 519 777 511
          510 751 778 515 514 753
          778 515 514 753 779 519
          518 755 294 296 424 492
          297 299 426 494 297 299
          426 494 300 302 428 496
          369 705 630 594 373 706
          631 596 373 706 631 596
          377 707 632 598 633 513
          558 684 634 517 560 685
          634 517 560 685 635 521
          562 686 684 606 622 633
          685 607 624 634 685 607
          624 634 686 608 626 635
          708 672 678 447 709 673
          679 451 709 673 679 451
          710 674 680 455 513 633
          745 510 517 634 747 514
          517 634 747 514 521 635
          749 518 774 660 768 780
          775 661 770 781 775 661
          770 781 776 662 772 782
          702 371 579 609 703 375
          580 610 703 375 580 610
          704 379 581 611 687 688
          663 657 689 690 664 658
          689 690 664 658 691 692
          665 659 696 265 264 430
          698 267 266 432 698 267
          266 432 700 269 268 434
          696 430 429 697 698 432
          431 699 698 432 431 699
          700 434 433 701 264 252
          424 296 266 256 426 299
          266 256 426 299 268 260
          428 302 708 294 492 672
          709 297 494 673 709 297
          494 673 710 300 496 674
          447 446 463 708 451 450
          466 709 451 450 466 709
          455 454 469 710 693 687
          657 651 694 689 658 652
          694 689 658 652 695 691
          659 653 595 594 445 444
          597 596 449 448 597 596
          449 448 599 598 453 452
          696 225 168 265 698 226
          169 267 698 226 169 267
          700 227 170 269 705 369
          372 543 706 373 376 546
          706 373 376 546 707 377
          380 549 414 693 651 648
          415 694 652 649 415 694
          652 649 416 695 653 650
          444 363 342 595 448 365
          346 597 448 365 346 597
          452 367 350 599 708 463
          295 294 709 466 298 297
          709 466 298 297 710 469
          301 300
        </DataArray>
        <DataArray type="Int64" Name="offsets" format="ascii" RangeMin="8" RangeMax="3632">
          8 16 24 32 40 48
          56 64 72 80 88 96
          104 112 120 128 136 144
          152 160 168 176 184 192
          200 208 216 224 232 240
          248 256 264 272 280 288
          296 304 312 320 328 336
          344 352 360 368 376 384
          392 400 408 416 424 432
          440 448 456 464 472 480
          488 496 504 512 520 528
          536 544 552 560 568 576
          584 592 600 608 616 624
          632 640 648 656 664 672
          680 688 696 704 712 720
          728 736 744 752 760 768
          776 784 792 800 808 816
          824 832 840 848 856 864
          872 880 888 896 904 912
          920 928 936 944 952 960
          968 976 982 988 994 1000
          1006 1012 1018 1024 1032 1040
          1048 1056 1064 1072 1080 1088
          1096 1104 1112 1120 1128 1136
          1144 1152 1160 1168 1176 1184
          1192 1200 1208 1216 1224 1232
          1240 1248 1256 1264 1272 1280
          1288 1296 1304 1312 1320 1328
          1336 1344 1352 1360 1368 1376
          1384 1392 1400 1408 1416 1424
          1432 1440 1448 1456 1464 1472
          1480 1488 1496 1504 1512 1520
          1528 1536 1544 1552 1560 1568
          1576 1584 1592 1600 1608 1616
          1624 1632 1640 1648 1656 1664
          1672 1680 1688 1696 1704 1712
          1720 1728 1736 1744 1752 1760
          1768 1776 1784 1792 1800 1808
          1816 1824 1832 1840 1848 1856
          1864 1872 1880 1888 1896 1904
          1912 1920 1928 1936 1944 1952
          1960 1968 1976 1984 1992 2000
          2008 2016 2024 2032 2040 2048
          2056 2064 2072 2080 2088 2096
          2104 2112 2120 2128 2136 2144
          2152 2160 2168 2176 2184 2192
          2200 2208 2216 2224 2232 2240
          2248 2256 2264 2272 2280 2288
          2296 2304 2312 2320 2328 2336
          2344 2352 2360 2368 2376 2384
          2392 2400 2408 2416 2424 2432
          2440 2448 2456 2464 2472 2480
          2488 2496 2504 2512 2520 2528
          2536 2544 2552 2560 2568 2576
          2584 2592 2600 2608 2616 2624
          2632 2640 2648 2656 2664 2672
          2680 2688 2696 2704 2712 2720
          2728 2736 2744 2752 2760 2768
          2776 2784 2792 2800 2808 2816
          2824 2832 2840 2848 2856 2864
          2872 2880 2888 2896 2904 2912
          2920 2928 2936 2944 2952 2960
          2968 2976 2984 2992 3000 3008
          3016 3024 3032 3040 3048 3056
          3064 3072 3080 3088 3096 3104
          3112 3120 3128 3136 3144 3152
          3160 3168 3176 3184 3192 3200
          3208 3216 3224 3232 3240 3248
          3256 3264 3272 3280 3288 3296
          3304 3312 3320 3328 3336 3344
          3352 3360 3368 3376 3384 3392
          3400 3408 3416 3424 3432 3440
          3448 3456 3464 3472 3480 3488
          3496 3504 3512 3520 3528 3536
          3544 3552 3560 3568 3576 3584
          3592 3600 3608 3616 3624 3632
        </DataArray>
        <DataArray type="UInt8" Name="types" format="ascii" RangeMin="12" RangeMax="13">
          12 12 12 12 12 12
          12 12 12 12 12 12
          12 12 12 12 12 12
          12 12 12 12 12 12
          12 12 12 12 12 12
          12 12 12 12 12 12
          12 12 12 12 12 12
          12 12 12 12 12 12
          12 12 12 12 12 12
          12 12 12 12 12 12
          12 12 12 12 12 12
          12 12 12 12 12 12
          12 12 12 12 12 12
          12 12 12 12 12 12
          12 12 12 12 12 12
          12 12 12 12 12 12
          12 12 12 12 12 12
          12 12 12 12 12 12
          12 12 12 12 12 12
          12 12 12 12 12 12
          12 12 13 13 13 13
          13 13 13 13 12 12
          12 12 12 12 12 12
          12 12 12 12 12 12
          12 12 12 12 12 12
          12 12 12 12 12 12
          12 12 12 12 12 12
          12 12 12 12 12 12
          12 12 12 12 12 12
          12 12 12 12 12 12
          12 12 12 12 12 12
          12 12 12 12 12 12
          12 12 12 12 12 12
          12 12 12 12 12 12
          12 12 12 12 12 12
          12 12 12 12 12 12
          12 12 12 12 12 12
          12 12 12 12 12 12
          12 12 12 12 12 12
          12 12 12 12 12 12
          12 12 12 12 12 12
          12 12 12 12 12 12
          12 12 12 12 12 12
          12 12 12 12 12 12
          12 12 12 12 12 12
          12 12 12 12 12 12
          12 12 12 12 12 12
          12 12 12 12 12 12
          12 12 12 12 12 12
          12 12 12 12 12 12
          12 12 12 12 12 12
          12 12 12 12 12 12
          12 12 12 12 12 12
          12 12 12 12 12 12
          12 12 12 12 12 12
          12 12 12 12 12 12
          12 12 12 12 12 12
          12 12 12 12 12 12
          12 12 12 12 12 12
          12 12 12 12 12 12
          12 12 12 12 12 12
          12 12 12 12 12 12
          12 12 12 12 12 12
          12 12 12 12 12 12
          12 12 12 12 12 12
          12 12 12 12 12 12
          12 12 12 12 12 12
          12 12 12 12 12 12
          12 12 12 12 12 12
          12 12 12 12 12 12
          12 12 12 12 12 12
          12 12 12 12 12 12
          12 12 12 12 12 12
          12 12 12 12 12 12
          12 12 12 12 12 12
          12 12 12 12 12 12
        </DataArray>
      </Cells>
    </Piece>
  </UnstructuredGrid>
</VTKFile>
