<?xml version="1.0"?>
<VTKFile type="UnstructuredGrid" version="0.1" byte_order="LittleEndian" header_type="UInt32" compressor="vtkZLibDataCompressor">
  <UnstructuredGrid>
    <Piece NumberOfPoints="780" NumberOfCells="454">
      <PointData>
        <DataArray type="Int32" Name="libmesh_node_id" format="ascii" RangeMin="1278" RangeMax="5063">
          1278 1279 1280 1281 1282 1283
          1284 1285 1286 1287 1288 1289
          1290 1291 1292 1293 1294 1295
          1296 1297 1298 1299 1300 1301
          1302 1303 1304 1305 1306 1307
          1308 1309 1310 1311 1312 1313
          1314 1315 1316 1317 1318 1319
          1320 1321 1322 1323 1324 1325
          1329 1330 1331 1332 1333 1334
          1335 1336 1337 1338 1339 1340
          1341 1342 1343 1344 1345 1346
          1347 1348 1349 1350 1351 1352
          1356 1357 1358 1359 1360 1361
          1362 1363 1364 1365 1366 1367
          1368 1369 1370 1371 1372 1373
          1374 1375 1376 1377 1378 1379
          1383 1384 1385 1386 1387 1388
          1389 1390 1391 1392 1393 1394
          1395 1396 1397 1398 1399 1400
          1401 1402 1403 1404 1405 1406
          1410 1411 1412 1413 1414 1415
          1416 1417 1418 1419 1420 1421
          1422 1423 1424 1425 1426 1427
          1428 1429 1430 1431 1432 1433
          1437 1438 1439 1440 1441 1442
          1443 1444 1445 1446 1447 1448
          1449 1450 1451 1452 1453 1454
          1455 1456 1457 1458 1459 1460
          1461 1462 1463 1464 1465 1466
          1467 1468 1469 1470 1471 1472
          1473 1474 1475 1476 1477 1478
          1479 1480 1481 1482 1483 1484
          1485 1486 1487 1488 1489 1490
          1491 1492 1493 1494 1495 1496
          1497 1498 1499 1500 1501 1502
          1503 1504 1505 1506 1507 1508
          1509 1510 1511 1512 1513 1514
          1515 1516 1517 1518 1519 1520
          1521 1522 1523 1524 1525 1526
          1527 1528 1529 1530 1531 1532
          1533 1534 1535 1536 1537 1538
          1539 1540 1541 1542 1543 1544
          1545 1546 1547 1548 1549 1550
          1551 1552 1553 1554 1555 1556
          1557 1558 1559 1560 1561 1562
          1563 1564 1565 1566 1567 1568
          1569 1570 1571 1572 1573 1574
          1575 1576 1577 1578 1579 1580
          1581 1582 1583 1584 1585 1586
          1587 1588 1589 1590 1591 1592
          1593 1594 1595 1596 1597 1598
          1599 1600 1601 1602 1603 1604
          1605 1606 1607 1608 1609 1610
          1611 1612 1613 1614 1615 1616
          1617 1618 1619 1620 1621 1622
          1623 1624 1625 1626 1627 1628
          1629 1630 1631 1632 1633 1634
          1635 1636 1637 1638 1639 1640
          1641 1642 1643 1644 1645 1646
          1647 1648 1649 1650 1651 1652
          1653 1654 1655 1656 1657 1658
          1659 1660 1661 1662 1663 1664
          1665 1666 1667 1668 1669 1670
          1671 1672 1673 1674 1675 1676
          1680 1681 1682 1683 1684 1685
          1686 1687 1688 1689 1690 1691
          1692 1693 1694 1695 1696 1697
          1698 1699 1700 1701 1702 1703
          1707 1708 1709 1710 1711 1712
          1713 1714 1715 1716 1717 1718
          1719 1720 1721 1722 1723 1724
          1725 1726 1727 1728 1729 1730
          1734 1735 1736 1737 1738 1739
          1740 1741 1742 1743 1744 1745
          1746 1747 1748 1749 1750 1751
          1752 1753 1754 1755 1756 1757
          1761 1762 1763 1764 1765 1766
          1767 1768 1769 1770 1771 1772
          1773 1774 1775 1776 1777 1778
          1779 1780 1781 1782 1783 1784
          1791 1792 1793 1794 1795 1796
          1797 1798 1799 1800 1801 1802
          1803 1804 1805 1806 1807 1808
          1809 1810 1811 1818 1819 1820
          1821 1822 1823 1824 1825 1826
          1827 1828 1829 1830 1831 1832
          1833 1834 1835 1836 1837 1838
          1845 1846 1847 1848 1849 1850
          1851 1852 1853 1854 1855 1856
          1857 1858 1859 1860 1861 1862
          1872 1873 1874 1875 1876 1877
          1878 1879 1880 1881 1882 1883
          1884 1885 1886 2184 2185 2186
          2187 2188 2189 2190 2191 2192
          2193 2194 2195 2196 2197 2198
          2199 2200 2201 2202 2203 2204
          2205 2206 2207 2208 2210 2211
          2212 2214 2215 2216 2218 2219
          2244 2246 2248 2262 2263 2264
          2265 2266 2267 2268 2269 2270
          2271 2272 2273 2592 2593 2594
          2595 2596 2597 2913 2914 2915
          2916 2917 2918 2919 2920 2921
          3336 3337 3338 3339 3340 3341
          3582 3583 3584 3585 3586 3587
          3688 3690 3692 3699 3700 3701
          3702 3703 3704 4161 4162 4163
          4164 4165 4166 4527 4528 4529
          4530 4531 4532 4536 4537 4538
          4539 4540 4541 4671 4672 4673
          4698 4699 4700 4701 4702 4703
          4725 4726 4727 4770 4771 4772
          4884 4885 4886 4905 4906 4907
          4983 4984 4985 5034 5035 5036
          5061 5062 5063 1863 1864 1865
          1887 1888 1889 1890 1891 1892
          1902 1899 1903 1900 1904 1901
          1905 1906 1907 1908 1909 1910
          1911 1912 1913 1914 1915 1916
          2209 2213 2217 2245 2247 2249
          2526 2525 2530 2529 2534 2533
          3234 3235 3236 3237 3238 3239
          3300 3301 3302 3303 3304 3305
          3366 3367 3368 3663 3665 3667
          3687 3386 3689 3389 3691 3392
          3705 3706 3707 3939 3940 3941
          3942 3943 3944 4467 4468 4469
          3455 3458 3461 3210 3120 3212
          3124 3214 3128 4441 4443 4445
          3119 3123 3127 3231 3232 3233
        </DataArray>
        <DataArray type="Float64" Name="resid_x" format="ascii" RangeMin="-0.00003189904091627227" RangeMax="0.000046701451640984715">
          -0.000013777971288764235 -0.000008045576409321242 -0.00003189904091627227 -0.000018323892432725586 -0.000020406329081623653 -0.000011726748482487892
          -0.0000010486227781658641 -2.2515576425519157e-7 -0.0000014140896513747947 -2.6243038275808317e-7 -0.000005333387731454309 -0.000002962888768553995
          -0.000008725998517755684 -0.0000049368805030702845 -0.000007335618020576362 -0.0000038481633846121355 -0.000009315738686233033 -0.000005545138274998251
          -0.000005954672321006882 -0.0000034810359990089523 -0.00000243667640642542 -0.0000015200979786023083 -0.000004895773753954558 -0.0000031660059565119525
          -0.000004734782124371506 -0.000002873475663411895 -0.000002404941312761366 -0.0000015970750488758512 -0.000002932552523926546 -0.0000021229012900914057
          -0.0000031409691647610316 -0.000002089433238872118 -0.000002250984762364183 -0.0000016080523859152152 -6.008016502079272e-7 -8.469578296477209e-7
          -0.000001261684483333525 -0.0000011989328982942027 -0.0000020130502043080867 -0.0000015914828501717437 0.0000018821662537416017 5.335222119651206e-7
          0.000002747964682026094 0.0000023943457685415837 0.0000023033813547623794 0.00000390916923675988 0.000004014528266482742 0.0000032732267147839167
          -0.000012063935696637884 -0.000023042354476032756 -0.000014809583297914486 -0.0000035810492908794345 -0.0000015286459593699675 -0.000004681033524134293
          -0.00000799918625427054 -0.0000058050930711317505 -0.000007256000308597521 -0.000005301992277439993 -0.0000017681443380546114 -0.0000037507626065025335
          -0.000003698818440645013 -0.0000012096318657839333 -0.0000018651694861926416 -0.0000017885789647120731 -5.998603760382082e-7 2.962171123943591e-7
          -6.091188131662761e-8 -6.337885469775983e-7 0.000002199355936038927 8.076700390713398e-7 -0.00000141098999928424 0.000002576670442344664
          -0.000006336616917401727 -0.000010661868817152254 -0.000005955588926909172 -0.0000030439547733518424 -0.0000019300707414515728 -0.000002170218634578447
          -0.000004459275942947372 -0.0000031564705811337745 -0.0000029237965444295355 -0.000003104791707286836 -0.0000015998354259139091 -0.0000013300827788054193
          -0.0000020994070442093005 -0.0000013306659509826346 -3.0942739859263213e-7 -9.291369496011725e-7 -0.000001088773611046534 8.411401553054532e-7
          5.342888311776761e-7 8.90701092881585e-8 0.0000024302447161339558 5.133489483499787e-7 -0.000001628640496353917 0.0000020831968223777864
          2.3516908687071236e-7 0.0000024614405580436483 0.0000027158708304497736 -0.0000016793137729287366 -0.0000016529120172581457 3.74778342804305e-7
          -8.076821891300767e-7 -0.0000011436843199152946 8.640151631933435e-7 -5.569115717474205e-7 -0.0000011236958106231043 9.931333797563724e-7
          -1.9564596498433673e-7 -9.661491799928257e-7 0.0000012813626089069885 2.349147378843952e-7 -8.626999605798602e-7 0.0000016229266255329833
          9.104501372814156e-7 7.094400333862438e-8 0.0000024460921996816154 3.0634650904914906e-7 -0.0000014588779939650465 0.0000018704233610833398
          0.000006982664395138727 0.000015673342375954746 0.000010991597179543788 -1.854343660845359e-7 -0.0000013509365497377246 0.000002716996833962426
          0.0000028401900147301262 8.315407618031401e-7 0.000004403756632687106 0.000001937387966277626 -7.578548100184435e-7 0.0000030822243559658347
          0.000001649118024138474 -7.069509919688244e-7 0.0000026470235829911815 0.0000013265197622569502 -7.191711073328833e-7 0.000002152357139628691
          0.0000012430096374416166 1.692897930727355e-7 0.000002151434785657713 -1.597046277446168e-7 -0.0000013884900244010012 0.0000012426826613287645
          0.00000923786562800899 0.000019682735562298603 0.000014562962378672495 0.000001189445353322327 -6.144123010365377e-7 0.000005141374814554567
          0.000005696549076006363 0.0000022202150495864714 0.000006939159041374765 0.0000039257817630034 -5.706920300774243e-7 0.0000046171304621811515
          0.0000031032225096261357 -6.189483252594385e-7 0.000003589417283622609 0.0000020933932018962764 -7.595407101046447e-7 0.0000023134747533237743
          0.0000012536674680596605 3.2492534662864614e-8 0.0000014115485049703835 -9.69522234717246e-7 -0.0000014309490539154979 -3.271483794975438e-8
          0.00001504772165272783 0.000022190463639493174 0.000013647331141619645 0.000003913329770233176 0.000008089876785799532 0.000011525572500392656
          0.000002033354628672157 6.941259298454128e-7 0.000008081317876440508 0.000007241069204688699 0.0000025807204018235552 0.000008284304892969274
          0.000005201803414012218 -5.269333431812129e-7 0.000005616681304498883 0.000004061388916065667 -6.77558391171118e-7 0.00000422192823035239
          0.000002542098672009274 -9.483541787425054e-7 0.0000023553744816773303 0.0000010086532737929588 -4.35895279427001e-7 6.322541430403561e-7
          -0.0000018067188494175213 -0.0000014761118920514349 -0.000001365801199249006 0.000007558286741371489 0.000016153842506305693 0.000011825698628342707
          0.0000018295353183539476 -3.743660283994643e-7 0.0000056268585177932096 0.000007264300986076222 0.0000034229331353774484 0.00000962629884249111
          0.0000068634998169336825 5.255739643494906e-7 0.000007643385786071377 0.000005900105345180151 -4.862838307584383e-7 0.0000064123388068271225
          0.000004721096270809966 -7.535902644129067e-7 0.000004873555022211207 0.0000029524102813649478 -0.0000011377308868354419 0.0000026989486145989616
          9.497583381978814e-7 -9.694499105705745e-7 4.281327170563287e-7 -0.0000021334636433056886 -0.000001467724856762942 -0.000001945111491874485
          0.000004003814325415078 0.000008979892390570399 0.000008985330581356976 0.0000015821813428296139 -0.0000014167580038026983 0.00000484526740662794
          0.0000069649468497079425 0.000002218608882165185 0.000009042786842217154 0.0000066285567272839074 -1.369168278753108e-7 0.000007842410638891906
          0.0000063622390154005615 -4.0464944395246505e-7 0.000007197439006123574 0.000005326145605888399 -7.611511601002263e-7 0.000005717850557918069
          0.000003580028123506551 -0.0000012131713624796703 0.0000035478508340069936 0.0000014616527699296 -0.0000012867646732583893 0.0000011050477035645656
          -0.0000015967953386208933 -0.0000013934924127934067 -0.000001446744703814673 0.0000037559599888048467 0.000009018760983359186 0.000008146647411777508
          0.000001426961178552233 -6.246135793031016e-7 0.000005355373155158105 0.000006501271473391412 0.000001654344816026665 0.00000899278435695372
          0.000006707088781476855 -5.0403923701480835e-8 0.000008260160665685135 0.000006661286740206052 -3.4192654729814365e-7 0.000007790210844627055
          0.000005867011927840338 -7.195820042049661e-7 0.000006559334085443069 0.000004385211305635295 -0.0000011738869130084595 0.000004683883752854001
          0.000002495717200678982 -0.000001288395622189853 0.000002512936197796023 -3.5429983169521506e-7 -0.0000013278892190271563 -9.234113940159716e-8
          0.000006023661170750927 0.00001312224756322422 0.000009480786461235624 0.0000013698220535651728 -7.720558474755279e-7 0.000005215102901745539
          0.000006511571750911216 0.0000020001233287381126 0.000008859962052687465 0.000006396661081708999 -1.7642126759476184e-7 0.000007945938041542533
          0.000006495252062199697 -4.095938903603269e-7 0.000007741208070788375 0.000006031623904778627 -7.106106600929252e-7 0.000006950531072469346
          0.000005016179965400269 -0.0000010806775554428327 0.0000056162264896464364 0.0000036746138083465496 -0.0000010458013375291841 0.000004054473015102644
          0.0000012161376763408782 -0.000001301359654259926 0.0000021783230490513006 0.000006226922880436803 0.000012322617668480973 0.00000816952427618034
          0.0000012926870498475296 -0.0000010300302919485915 0.000004101057309968681 0.0000055067083439830355 0.0000014938077115278503 0.000007282850172263267
          0.000005199577278292011 -5.518490504563545e-7 0.00000653846190190599 0.000005464649243780428 -6.705434876241867e-7 0.0000067033425532603275
          0.000005427854182116221 -8.089803169575305e-7 0.000006495660195282582 0.000005027534027091107 -0.000001002296464491792 0.000005844888928407954
          0.000004344494864527704 -8.666906323728796e-7 0.000004896833514900223 0.0000024138297687326116 -0.000001533796022412659 0.0000029876131992789823
          0.0000031238436228875344 0.000005147127887461522 0.000003996806183792501 6.183258640657385e-7 -0.0000014737381599516652 0.000002282721396573706
          0.000003071484305117167 2.2788788189842535e-8 0.000004398349953582681 0.0000029883498342542225 -0.0000011065616867256267 0.000004183222967801825
          0.0000034468638945295282 -0.0000010815538755704068 0.000004694080092182418 0.00000385351581644322 -0.0000010362983355882704 0.000005060047838512105
          0.000004088557284953609 -0.0000010239782226584282 0.000005125980341302849 0.000004196928393707111 -3.7096928062752e-7 0.000005039170953180516
          0.0000028798654989614647 -0.0000015758746267913182 0.0000035776569347056864 4.599743048672167e-7 -6.073276876961131e-7 6.244540027289247e-7
          1.6494252585985691e-7 -5.453638074470746e-7 0.0000011956564189841146 -4.633470718218291e-8 -0.0000019052872963776224 0.000001125765942244783
          1.9191330835610643e-7 -0.0000017406522292429116 0.0000014190158827975807 7.091673970283097e-7 -0.0000015607256445004936 0.000002058120839310007
          0.0000014165117359077328 -0.0000013624490380337306 0.0000028333457491314107 0.0000021782729928698785 -0.0000011883845589810704 0.0000035293184130757993
          0.00000291167972865658 -5.60304319385807e-7 0.000004093478286559815 0.000002614318117544201 -0.0000015323954669632656 0.000003501453766485696
          -0.000001566630169147487 -0.0000037302926454430008 -0.000001060193943747123 -0.0000017748846388165873 -0.0000026489956987951757 -8.520433245617909e-7
          -0.0000026607897554153936 -0.0000028370678752942524 -0.0000013171967474523427 -0.0000022079387749229795 -0.000002067726174725948 -5.951986055130476e-7
          -0.0000014089665492100778 -0.000001679420996492098 3.933300225522629e-7 -2.7433545812804994e-7 -0.0000012788074970071506 0.0000016106325126941101
          9.513941687799843e-7 -7.779030144483556e-7 0.0000027859415627773387 0.0000017583902576223664 -0.0000013870148731776055 0.0000030861100079881965
          -0.0000030715678653869816 -0.000007013381614129344 -0.000003290270891298519 -0.000002925774474915599 -0.000003506277755249698 -0.000002116198318136142
          -0.000004921321546724755 -0.0000036527335911529235 -0.0000032449135134449136 -0.000004596176819582354 -0.0000025197954129918543 -0.0000024385087451506138
          -0.0000037818576916759383 -0.0000018002295660846102 -0.0000013657711437353726 -0.000002481076536220428 -0.0000011093275680273962 1.1593208526505805e-7
          -9.527227151640005e-7 -7.078427222140249e-7 0.0000017278426360789467 8.663295454347519e-7 -8.465209266894647e-7 0.0000030153236885155366
          -0.000004521657339662255 -0.000009612629036759301 -0.000004407385930882413 -0.0000035816266643617922 -0.000004105372110707606 -0.0000024745270026382826
          -0.000006147965779357278 -0.000004484213554034611 -0.0000036518809656271856 -0.000005548846369940463 -0.000002602702826814962 -0.0000024723327669562423
          -0.0000047322654821435606 -0.000001464933474082386 -0.0000015773067032487376 -0.000003595933860900402 -5.565238005988959e-7 -3.615000976342486e-7
          -0.000002203004015433052 -2.8564328635738434e-7 0.0000010455954524424271 -1.074677968837534e-8 -3.805903205922334e-7 0.000002563382381026713
          -0.000006546691149633688 -0.000013094543255931512 -0.000004178746968674929 -0.000004715525473431015 -0.000006314413955266218 -0.0000011875807515160375
          -0.0000053730273652519145 -0.000004467238365002402 -9.668210427804524e-7 -0.000004295425802380848 -0.0000018099183225483984 -9.847336412960317e-8
          -0.0000037426515646643566 -5.627819175124671e-7 1.0894439794739696e-8 -0.0000031742208757012946 3.8208113228854756e-7 3.0303397990927294e-7
          -0.0000024499864703653174 5.130438947009708e-7 8.59602764302636e-7 -0.0000010235299940930531 -4.137017395322573e-10 0.0000010429189956084883
          -0.0000045970563311570345 -0.000007002947791434622 0.0000033012072160332195 -0.0000029277552549000774 -0.0000031806656215493945 0.0000035028807749970525
          -0.0000011848773211475816 -2.6457937263302256e-7 0.000004011278126547779 -0.000001141511846824983 7.375202566439754e-7 0.000002831824445159725
          -0.0000014820647480373594 0.0000015220268574367424 0.0000017988445155658894 -0.0000019238936070919976 0.0000010962966707772637 0.000001004071264132378
          -8.220736664732442e-7 0.0000011592258504222741 0.0000011011335050437054 0.0000020014939887680328 0.000005699880534670854 0.000012002288465762234
          -8.43033769015733e-7 -0.000001650191271185264 0.000007646047501808084 0.0000030607463246123956 0.000003168313239099163 0.0000089528238398362
          0.0000020204583361937978 0.0000022314212144713963 0.000006053098919434063 0.000001008699312521344 0.000002767991611918319 0.000004003111701900153
          -3.491131106425627e-7 0.0000023724227076193927 0.000002249404230880714 6.538369214936779e-7 0.000005767944963430693 0.0000026476794525720493
          0.000007908565665015743 0.00001574741431209503 0.000017991234382730426 0.0000013338791962080876 2.2328732662835193e-7 0.000010401962561301659
          0.0000062010897974307255 0.000006302028583871078 0.000012531515783509306 0.0000048739729214819505 0.000004001218067539725 0.000009329535231250574
          0.000006403848507696708 0.000008772386079547445 0.000009010276842857934 0.000003154449703668405 0.000005218233381176773 0.000004806452980732345
          0.000005161680842746819 0.000012842385093136954 0.000018425136849131718 0.0000070283369235646376 0.000011368130493627504 0.000014504838289797206
          0.000011403386959152328 0.00001669355946654072 0.00001577572106437053 0.000009006122964283492 0.000011097798172876594 0.000012679784967772889
          0.000013821368025856984 0.00002053436960469668 0.000014636376386434335 -0.000001041169802373787 8.810721703333968e-7 9.615769354098802e-7
          -0.0000027775893460812995 -2.453943461766528e-7 9.746498725871078e-7 0.000002072402890407332 -0.0000035350718525783975 0.000003871578961867073
          0.000005314075904871984 0.000006184103095163707 0.000001294236524618242 -0.000010326510030633784 -0.000008577546852128748 -0.0000019524997534325905
          -0.0000018736277063169382 -0.00001914052295037827 -0.000015997876337214834 -4.5796963821231884e-7 -0.000002077469988481795 -0.000011190729911181307
          -0.000009821435218215768 -0.000002253875261093441 -0.000003109529292721902 0.000008482814759069868 0.00000202942256422034 0.0000023209491015752093
          0.000018628646404561522 0.000006833994735888638 0.000005299708294881356 0.00001115641045768001 0.0000043572351446918844 0.0000023447156434208694
          0.000011414729664149803 0.000022077402365816567 0.00001199021205655626 0.0000037105328201114673 7.681193894271132e-7 9.89676726459443e-7
          -2.9224038566866284e-7 0.0000014769972178640955 -0.0000011561878503485445 0.00000366965876352765 2.67057485903166e-7 0.0000034385557969862646
          8.037854759557206e-7 0.0000023890497569123426 0.0000016759128826926428 -0.000005565769347182226 -0.000003495093170879926 -0.000009341714309663018
          -2.586848601993097e-7 -0.000005850712126553859 -4.985277057834026e-7 9.635469435664845e-7 0.000007002547270484882 0.000014334410688210397
          -9.358038659534884e-7 0.000013853710449929224 0.000020634528057339452 -6.228817075459858e-7 0.000007544772777201558 0.000012696642125220592
          -8.458483973239339e-7 0.0000017557229421427678 1.192212486511579e-7 0.000005270873715934599 7.336513472289141e-7 0.000002154715301072585
          0.000004113755082413295 0.000010500628601084472 5.412216242950407e-7 0.000022026526508789335 0.0000029921061020510287 0.000015254848999279869
          -0.00000930466610959968 -0.000015612940814424547 -0.000008740687612363018 0.0000014690968956898587 0.000005822105796360333 -0.0000013757360397548268
          0.000011975365650007674 6.386445483563818e-7 0.000006425927482345273 0.0000030802877075686297 0.0000013064118264960456 -0.0000019502738133336806
          -0.0000030819451579677803 0.0000010789815374501188 -1.3303772439243744e-7 9.3915228616126e-7 -4.769066419552104e-8 -3.2513823050583923e-7
          3.353458217780769e-7 -4.5693467787266684e-8 4.0378924204276245e-8 -0.0000018135043564626585 -0.00000236959264338088 -1.8020170466925833e-8
          -0.000005575150425096709 -0.000001566881286052535 -0.0000028138414812084456 0.0000016296401841309205 1.767643300620847e-7 0.000002279161727347656
          0.000002787435456674814 0.0000022241495916119902 0.0000030595127220589546 1.541489449419231e-7 0.000003958468509202007 0.0000030058171770486197
          -0.000007312743282028578 -0.000008138656489187213 -0.000005590049152015553 0.000007898407732520596 0.000011589351478491494 0.000007707899839282106
          8.032775062893904e-7 -0.000003037790439863741 -0.000001601581346211134 0.000011547816290979895 0.000017034979849617216 0.000009181902799637598
          0.000010090786423777587 0.00001676418558060888 0.000008617381995534856 0.000010158569260898531 0.000016627464453300433 0.000008660522791359426
          0.0000073673062044310456 0.000011235046452284791 0.000005913696167647586 0.0000017222308459352575 0.000003540391865008985 0.000007177414465431298
          0.000008895019898869094 0.000024208652427581967 0.000017492232975202526 3.855619601367266e-8 0.0000039311464039570865 0.000007604329989252534
          0.0000036635222857572813 0.000003362102363624331 0.000009186131509020257 0.000010342442849253786 0.000014450987675829197 0.00001797744688669667
          0.000007283022988469057 0.000011632795753779845 0.00001589535464874281 0.000007981443761240214 0.000014703556465711642 0.000015357588641684572
          0.000013293831847116522 0.00001613592717264467 0.000013926178844325676 0.000004956315863058336 0.000018196837529682597 0.00001789073791047535
          0.000016921601623920424 0.000025137302687383567 0.00001531748334659966 0.000027259101395671337 0.000046701451640984715 0.00002619262621195162
          9.731524963640936e-7 0.000002682496376138488 0.000001227311033247247 0.0000045417751133314255 -0.0000022615208843390633 1.3974908341651826e-8
          0.00001028704130456859 0.000017699342231392023 0.000026361687485376706 0.00003019618582822403 0.000018039169470185357 0.000016835299454065478
          -0.000011590664513505544 -0.000011894223990616126 -0.00002361593054800437 -0.000026757473854388536 -0.000013951351322205596 -0.000015918061515129978
          -0.0000019668729516197914 -0.0000036278955715118855 -0.0000022194378930251446 0.000014884534570658303 0.00003044247734251826 0.00001711412976668214
          -0.00000849419611581581 -0.00000793663978448933 -0.000012275231354053062 -0.000016752596408764475 -0.0000067516524349109375 -0.000011775102821243166
          0.000004242694992218077 0.00001163131467407652 0.000009454761261018518 -0.000004389216748723612 -0.0000030458959854318124 -0.000005561823164690338
          -0.0000019035661025235129 2.690239484515189e-7 -2.808305517021381e-7 0.0000020947491861100787 0.000004584197613954899 0.000004843994114933636
          0.000005201820858502515 0.000013362918091175402 0.00000766141427366307 0.000005943886298709344 0.000009269823556756762 0.00001119312491137947
          0.000022505399210004384 0.0000061112707880894845 0.000013019064936337088 0.000010031097194662664 0.00001966369490169484 0.000011488188823349788
          0.0000063561843504089666 0.000015121540407392331 0.000008788842766449534 0.000006453319935761925 0.000009164702685637849 0.000006143268645786293
        </DataArray>
        <DataArray type="Float64" Name="resid_y" format="ascii" RangeMin="-0.047173976548503777" RangeMax="0.00003484645700822797">
          -8.575615092661082e-7 -0.023585400429908976 -0.000001268430747800725 -0.047173976548503777 -5.903358846551243e-8 -0.02359534286761253
          3.7751679612257893e-8 -0.02177060436617544 7.543079127633745e-8 -0.04354489400353627 4.6282224301467945e-7 -0.021779282745295846
          -0.000001623075395480733 -0.019713221940700586 -0.0000010111906196038495 -0.039429234436037165 -4.30143890508064e-7 -0.019720584751932547
          -0.0000010883521077906244 -0.01748244198921997 -3.3449943604661053e-7 -0.03496671410129483 -7.585365653407783e-7 -0.017487815695557036
          -8.979826294011617e-7 -0.015144471719941037 -2.612177962338369e-7 -0.03029016316614586 -0.0000011828083485883323 -0.015148150811250065
          -6.333863547397511e-7 -0.012767064496649428 -1.5372495763051747e-7 -0.025534511800645344 -0.0000014908893045595048 -0.012769843109846546
          -2.7708930303970564e-7 -0.010403471190492583 -1.1504823148843213e-8 -0.020805546349122944 -0.000001491161241113509 -0.010393893993471175
          -0.0000013557264448883777 -0.008684583135843948 -0.0000029009407265989575 -0.017370024570800918 -0.000001950707295088729 -0.008611344522973432
          0.0000022113234245321745 7.985014849661715e-7 5.737612340066256e-7 5.8868275467846565e-8 0.000001360269248591034 6.194421409994738e-7
          -0.0000010516410302811169 -3.9214010247312636e-7 -8.75502029042477e-7 -0.0000011023404398900413 5.246499965513851e-7 -0.0000015438986430138524
          -0.0000019426229668252637 -3.097160133436541e-7 -0.0000027436618845605443 -0.0000025688699048960484 -0.0000010871724470552097 -0.0000035949498846700456
          -0.000002445368190519097 -0.0000013043481815167533 -0.0000034846818853474446 -5.512689916884091e-7 -1.4891044246680488e-7 -0.0000014585341896753215
          3.715087473522838e-7 -0.0000014846758570712104 -7.604481590591655e-7 -2.681601950389745e-7 5.05857616904179e-7 -1.8934357364983057e-7
          -0.000001396701783734286 -2.3086254106671755e-7 -0.000001513174123526223 -0.000002102089443340241 3.737200799085877e-8 -0.0000027077526520207992
          -0.0000030083773067618794 -2.070559650185419e-7 -0.0000037938060207113114 -0.0000035711173176486075 -3.621989012941515e-7 -0.00000441833206991319
          -0.000003677312902027746 -0.0000011950374614660628 -0.000004578293241723312 -0.0000017302996020958708 -6.152321328379423e-7 -0.0000026897741314899776
          -6.094863034041692e-7 -0.00000196968935190292 -8.102021373385115e-7 -3.808676936820077e-7 3.806392803937242e-7 -5.393587282197937e-7
          -0.000001701147588366661 -1.8821191180053154e-7 -0.0000020125580228909368 -0.000002781469530048833 -1.0148189445117334e-7 -0.0000033296028977437137
          -0.000003864540311013069 -3.2043218654333183e-7 -0.000004535210170649069 -0.00000453407252918453 -4.51995112089789e-7 -0.000005267644373697401
          -0.000004636512840276025 -0.0000011914806389372833 -0.000005503522074800076 -0.0000025811233562661413 -6.695588416111872e-7 -0.0000036211102522107743
          -0.0000015693660604196996 -0.000002064417412468711 -6.060953492044441e-7 -5.087001806423908e-7 2.475252507232184e-7 -7.942855263180087e-7
          -0.0000018736389982634827 -1.183472889019696e-7 -0.0000023201879494737926 -0.000003221786657386233 -2.413607762862327e-7 -0.000003641501478432105
          -0.000004407632623853151 -4.3369134416788163e-7 -0.0000048910045060985424 -0.000005194983638375644 -5.649239110724208e-7 -0.000005744092194349612
          -0.0000054782543739372285 -0.0000013397028556523093 -0.000006262080436720153 -0.0000034264992651417657 -7.22151210783787e-7 -0.000004649777448580573
          6.442091066965333e-7 0.000003961866083141211 0.000002197858031939559 -5.473991227175623e-7 -6.902961981365696e-8 -0.000001366249054520971
          -0.0000018390537797549622 3.441824263615556e-8 -0.0000023670712734173704 -0.0000033683406137447955 -3.515707185227854e-7 -0.000003622694884941255
          -0.0000045677678429216495 -5.188135090987596e-7 -0.000004806560961789601 -0.000005440857028650523 -6.364866151470881e-7 -0.000005716508184874618
          -0.000005982079607987165 -0.0000014359812644400803 -0.000006514354689825903 -0.000004311451810866829 -8.67917651727057e-7 -0.000005533855975351203
          9.4407346022847e-7 0.000003442337151188246 0.0000012695200199471651 8.562390849294055e-7 0.000005696329693563595 0.0000020771783514842573
          -4.7100047518601473e-7 -1.855081504589795e-7 -0.000001988371453561996 -0.0000016939580287575473 2.2599965142280215e-7 -0.000002315399357805635
          -0.000003234662822300914 -4.074318532493529e-7 -0.000003333604461075272 -0.000004330854205277564 -5.550705548707131e-7 -0.0000043068966564599465
          -0.000005206336006592562 -6.499391193026411e-7 -0.000005153133591619032 -0.000005934116260530853 -0.0000013466275735961688 -0.00000608704305743999
          -0.00000496875809703496 -0.0000010379733182347764 -0.000005860406565609197 -7.888063920796773e-7 8.841991032543239e-7 -1.9151749241705374e-7
          -0.0000015045957283341127 1.536768941910044e-7 -9.222190606207603e-7 -9.189325817400562e-7 7.400124814975484e-7 -0.0000016399924216495276
          -0.0000016054484917316092 4.87447894325331e-7 -0.000002194919104976656 -0.0000029353086621660557 -4.2982992655210203e-7 -0.000002912315787922167
          -0.000003779487129056038 -5.754925794850679e-7 -0.0000035150256213296524 -0.000004547640971796943 -6.585192010679416e-7 -0.0000041692109079709315
          -0.0000053459897819222455 -0.0000011823435854417443 -0.000005102292734144535 -0.000005094327391594496 -0.000001109781752643528 -0.000005460398527424703
          -0.000003705319316616232 -0.000002257122828575736 -0.0000033630666630788536 -9.887886662889034e-7 6.719572047224343e-7 -0.000002446123776147016
          -0.0000012752301533393295 0.000001282556678601672 -0.0000022308089521749785 -0.0000021817700415439553 -2.3821229846142378e-7 -0.000002428240034234308
          -0.0000025853695805417784 -4.716628591579057e-7 -0.0000024295007372879783 -0.0000030478852677052245 -6.421331595572993e-7 -0.0000025785861612224667
          -0.000003598831663963176 -7.306125639095916e-7 -0.0000029446923872534928 -0.000004382783924766938 -0.0000011334085585328751 -0.0000037667025341021725
          -0.000004553236847194223 -0.000001105439793756477 -0.000004444722599359838 -0.0000055050455966335066 -0.000004937881062466037 -0.000004843948236044407
          -0.000002224913490729563 3.927590788033869e-7 -0.000003464498548889569 -0.000002429392120921643 4.183206479147633e-7 -0.0000032181400080495692
          -0.000002376460588672351 -3.1583500644753043e-7 -0.0000024634287578862574 -0.000002237399582039317 -5.982415493079908e-7 -0.000001941498932451439
          -0.0000022440663142350692 -7.994492139186166e-7 -0.0000016196438543435512 -0.0000024927990358847556 -8.948917787333054e-7 -0.000001639493304588912
          -0.000003178860012527287 -0.0000012798448226743545 -0.0000022663674637897653 -0.00000356897827159244 -0.000001168249425126562 -0.000003207419584198845
          -0.00000635413163319401 -0.000004585684867872142 -0.000004817026175579775 -0.0000029762755565133914 4.985997019892746e-7 -0.0000036250105713234865
          -0.0000029631113060701875 4.5831453581411663e-7 -0.000003401300931364995 -0.0000024660632760402368 -4.421470373478127e-7 -0.000002353190019391358
          -0.0000018602261898474637 -7.916687695961114e-7 -0.0000014580743149337355 -0.0000014371756749652093 -0.000001046204533907487 -7.40512436648395e-7
          -0.0000013562329080145895 -0.000001168153279258819 -4.0557436097304195e-7 -0.000001846709086969489 -0.000001588009260604286 -7.450369378719443e-7
          -0.000002520818657969319 -0.0000016506598962597735 -0.000002142583878803929 -0.000005270781107843264 -0.0000016942820256077296 -0.0000034394314624378725
          -0.000003059246013393385 6.269563093651287e-7 -0.0000033780543830796983 -0.0000029595793268151135 6.233870309870632e-7 -0.000003172881000245917
          -0.000002358736219410136 -5.661304433948224e-7 -0.0000021469861249262534 -0.0000014663974716538593 -0.0000010156283857778092 -0.0000010643987681847075
          -7.025553030457279e-7 -0.0000013435254893555924 -5.063080082143637e-8 -2.9264793311714263e-7 -0.0000015278105583429666 6.503170127268761e-7
          -4.99588343418414e-7 -0.0000018492959486379398 7.220160284024391e-7 -6.941916935376477e-7 -0.0000013064062110434982 2.445923311892445e-7
          -0.000003942595013368272 -2.2834456644624246e-7 -0.0000028814054102155318 -0.0000027345501051496968 8.197024458072438e-7 -0.000002994020171641354
          -0.0000026797235455743723 6.891772201481766e-7 -0.000002836916824089722 -0.0000021547236500596683 -6.75143541451189e-7 -0.0000019736014948629806
          -0.0000011543681265218427 -0.0000012455279824370464 -8.662634596290873e-7 -1.4572358473727287e-7 -0.000001652787437058257 3.4995228606442275e-7
          6.14165118944035e-7 -0.0000019020914728438629 0.0000014351618370933572 7.659265482381009e-7 -0.0000025258095669783084 0.0000019077112934804893
          8.180762191022962e-7 -0.000002402050489007379 0.0000019419045973320323 -0.000007161788530558877 -0.000008557441584011727 -0.0000064530558556881445
          -0.0000034483933625296948 -0.0000010785284946038254 -0.000003295720374451444 -0.0000025429967095372957 5.149329258954602e-7 -0.000002553502277416464
          -0.000001986671242667004 -7.885494408948809e-7 -0.0000018532428160216948 -0.0000010259134949472046 -0.000001501641270097026 -8.876243989953785e-7
          1.1967973517594543e-7 -0.000001978808283796367 3.8855456049608633e-7 0.000001253415519494351 -0.0000022272184122115388 0.000001845418899980994
          0.000002027867896050098 -0.0000026666743356169864 0.0000030858921045160206 0.000002535251687276179 -0.0000024563359728236363 0.000003993385851417536
          -0.0000016227717925081098 0.0000013429927406896636 -0.000001188668706915419 -0.0000017260661199529 3.453307605739975e-7 -0.0000017314214192554363
          -0.0000018204329092095985 -8.833842904487719e-7 -0.000001785992668145624 -0.0000011057974633786952 -0.0000018219979314318749 -0.0000010730579821285197
          2.3625510453366416e-8 -0.0000023493641113630365 5.076408580648173e-8 0.0000014487094620509872 -0.0000025888391056144017 0.0000017089676850635949
          0.000002916646740838344 -0.0000027453169463391436 0.000003658137092585681 0.000004044600422878006 -0.000002366353158630985 0.000005467602402487587
          -0.0000016372668273055557 -0.0000014552664285918948 -0.0000017704941264184981 -0.0000016456200657222805 2.384859889865282e-10 -9.792764888323906e-7
          -0.0000017217721220829513 -0.000001267197614142606 -0.0000015086707390588039 -0.0000013582363016118731 -0.0000022512894710842446 -0.0000013834404524832797
          -4.6104284450766697e-7 -0.0000028165499615182693 -6.119625982434901e-7 0.0000010712329197252318 -0.0000030426136194521003 9.914694766334498e-7
          0.0000031224829203004706 -0.0000028574038594755824 0.0000034014507746624872 0.000004840031455764955 -0.0000023713413638839186 0.00000615054594684211
          -1.95374855078978e-7 2.1119968919569576e-7 4.610822372172474e-8 -0.0000011019504440492982 -3.367266679587481e-7 -3.196351385970249e-7
          -0.0000016650784773206487 -0.000001875748091108298 -0.0000015164723980842093 -0.0000018436765930954224 -0.0000028720071626707477 -0.0000019006241687158365
          -0.0000012595639987053597 -0.000003435552856406038 -0.0000014197123531060896 1.8301130040761227e-7 -0.0000036160762282091974 -8.549053167120069e-8
          0.000002539025965992564 -0.000003116759597493468 0.000002381134073716623 0.00000507027272609803 -0.0000020872132203315907 0.000005506917743708026
          5.036047811615707e-7 4.585852080435382e-7 -0.0000020969299572085043 -8.859054971555036e-8 4.527554529065725e-7 -0.0000010890924160358861
          -0.0000021476330936635174 -0.0000028114943939928916 -0.000002440549916271628 -0.000002580144666327819 -0.0000037553766478754663 -0.0000025186118071986174
          -0.000002125580222788609 -0.000004267790108720276 -0.00000204084794535285 -8.869543147473069e-7 -0.000004307309218814018 -0.000001032972364709353
          0.0000013702371509036193 -0.0000034638827336470196 0.0000010000705534252141 0.0000034795216506747217 -0.0000018607218146672946 0.0000031464381601443298
          -0.0000037326483146721268 -0.000006214926555961342 -0.0000045072977877119724 -0.0000032896746176257208 -0.000004597717624638814 -0.0000038195509402486755
          -0.0000032986509684758414 -0.00000508342782423038 -0.0000030774534371495743 -0.000002663339797773223 -0.0000053084591670783665 -0.000002078402667263224
          -0.000001609717010148809 -0.000005063327119907146 -0.0000014211510601935817 2.2813484800397743e-7 -0.0000037407504021331334 -1.5251554909799514e-7
          0.0000012808131464887157 -0.0000031519153948830064 0.0000014599527134225715 -0.000008604544661360014 -0.000013029888562179903 -0.0000075809159523002045
          -0.0000045877598519109 -0.00000618230278858628 -0.0000047071903728976294 -0.00000384617097757417 -0.00000687724317997504 -0.000003241313735857787
          -0.0000024988763321596996 -0.0000064845613753257425 -0.000001401588253003433 -0.000001622063694677739 -0.000005743305110671865 -0.0000010937208047012703
          -6.115729076112963e-8 -0.0000031750398677039826 -3.0602622445863314e-7 0.0000025776936256292904 9.11745301996475e-7 0.0000027428148899766996
          -0.000011150032589474224 -0.00001469825509291256 -0.000007979039512509556 -0.000005743896757857969 -0.000008719387278324775 -0.000005534671583692918
          -0.0000035422309920402073 -0.000008208641378314174 -0.0000027507563082757036 -0.000001688682041107309 -0.000007589728106872223 -2.1392784698565093e-7
          0.0000010322165473267142 -0.0000020272475386093336 0.000001359992458968562 0.000001011950956707891 2.8614323205854164e-7 1.5764307382398757e-7
          -0.000017842756436382834 -0.00003196439921353267 -0.000013693095447762926 -0.000012470184869939338 -0.000021939990133348908 -0.000009689247647867716
          5.073690955599564e-7 -0.0000016984400767888763 3.84825179666759e-7 0.0000081187279527134 0.000008962693758413076 0.000005583636719031643
          0.00000669831305648641 0.000007592345715505544 0.0000037865660269184587 -0.0000012538721163189367 2.1509663358440512e-7 0.0000010377831737721013
          -0.0000017239426514771908 -0.000001740254360109439 -0.0000028885033521320463 0.000007127654883176335 0.000004496318975327589 0.000008843120787063643
          0.000006497862821738809 0.00001139770884840078 0.000010256268274097535 -0.0000019552562445296004 -5.079816426899458e-7 -0.0000018230341371039231
          -0.0000027754971979204214 -0.0000056558402921902395 -0.000002934271425367868 -0.000001883320535899305 -0.000006036655565301759 -0.00000621250093006025
          -0.000005033374412111982 -0.000005180460310600429 -0.000008266194236567197 0.000005434279768202002 0.00000205338593835952 0.0000021062125496046358
          0.000011314717452531094 0.000007940750780815672 0.0000023823237659459026 0.00001047405123550272 0.000007800059647837532 0.0000050965019451447435
          0.000012302407218570122 0.000022167386122463884 0.00001391003800121915 0.000005412301546074347 1.238067647187091e-7 -0.0000021224722312027273
          0.0000021748829432000766 0.0000036426823180968695 3.4586055473176044e-7 -0.0000038049162399422538 -9.433603259823703e-7 0.0000026309816813594594
          -5.242004773829689e-9 -0.0000018542281465330508 5.143380241998466e-7 -0.0000034558957761844297 -0.000006163867837997864 -0.0000050115501466817605
          -0.000003544442563310291 -0.0000033921934331111736 -0.000004526960605915264 0.000003848860653511872 0.000007751812881792546 0.00001463708560388256
          0.0000027654347430038084 0.000015599521055694072 0.00002750989073882341 0.000004331336824084028 0.000012357671818637346 0.000021702198169985375
          -0.000004348296206626006 -0.000002652055771574114 -0.0000020804255964172735 -0.000002770688233060415 -0.0000028399503799029537 -0.0000013536096624437374
          0.000006674713118092271 0.000014936754653792697 -0.0000020665549524696153 0.000013753732304576383 0.000008562750832811009 0.00001567260534024971
          -0.000006621074758888373 -0.000010526250527165704 -0.000006899138751461156 0.000007186743979848385 0.000009448973494259605 0.000006522502095538882
          0.0000166581555230208 0.0000061508636152833585 0.000009681335992143061 0.000013339551927261072 0.000013568141786398855 0.0000033972602537140142
          0.000004347071120673618 0.0000072710547954204716 0.000006004763546762701 2.1304745404112334e-7 -0.0000014858214189598321 0.0000015394657225289553
          -2.1795402009930354e-7 -3.03414642317118e-7 -0.0000020634370207902805 -0.000005323731531254629 -0.000004806381577649829 -0.0000029953350382514767
          -0.000003939334833787938 -0.0000037670999783970954 -0.0000038077747910607085 -0.000002982251032382279 -0.0000021608767917153694 -0.0000022984976800932873
          -0.0000025256939084955174 -0.000002233946788209821 -0.000003803608005707986 -0.0000019813766048300784 -0.000001711720560300823 -0.0000010980389391051365
          -0.000006878596668841597 -0.0000036370836696787354 -0.0000032613720300617675 -0.000002596169368663517 -0.000004910859581421564 -0.000002086297671867292
          0.000010133322280536303 0.000004504253574514477 0.000005384413230627438 3.0825264818153467e-7 -1.9019630915963898e-7 2.3991807679424326e-7
          -0.0000016993146478778195 -6.812159126188275e-7 1.896310232469417e-7 9.814508009008366e-8 5.578278104528779e-7 8.219101222514593e-7
          7.420443836792141e-7 8.080670136920501e-7 6.815684324111559e-7 9.393879646345249e-7 0.000002441737000645136 0.0000029427126396162906
          -0.0000010885512617825333 1.237794828475025e-7 0.0000019557162486642105 -0.000001130411421509936 -0.0000015915960030164766 6.382266619139182e-7
          -0.000008099998988243817 -0.000016664654598765385 -0.00001994108137495787 -0.000032956436997633176 -0.000011503381099627064 -0.000017331119660991823
          -0.0000012938398097489534 -0.000003607847924011476 -0.000002369558305709285 0.0000031054696068913423 0.000006578261076237157 0.000003490431479964695
          0.0000043057599816570535 0.000009317517600984648 0.000004891632639690557 0.0000014461879686410856 0.00000288184161996094 0.0000015655361377629046
          0.000019374110787237844 0.00003316840470656002 0.000020444358645173993 0.00002384722185162086 0.00003484645700822797 0.000019726292706667356
          -0.0000023321270997390085 0.000006040991450878552 -0.000002726251924264206 0.000012528888440568875 -0.0000012132448737652707 0.00000796049860116426
          0.00001033244520623304 0.000020668116337003994 0.0000183363531046591 0.00003058539773965856 0.000014481199007990858 0.000017832276347084716
          -0.0000014311767830791494 -0.000005288070422592231 -0.000001580082839350988 -0.000009387429272721126 0.0000013236396330150793 -0.0000024191897137629606
          1.669594211070255e-7 0.0000019226036456349016 0.0000027444636292381364 0.000014002782864773813 0.000024013463333383625 0.000013773845998982584
          -0.000011126799273153062 -0.000004141618917738281 -0.000018752562499701683 -0.0000030310340967867194 -0.000008248937184709808 2.757577877779416e-7
          0.000009063594766267613 0.000013676748075807689 0.00001027559049133174 0.000020078429739387935 0.0000160589756667065 0.000028444901335543393
          0.00002693184549230898 0.000017932302369976297 0.000015108654264602353 0.000003069364578472955 0.000005596132363623607 0.0000049484243843170295
          5.9273957408144395e-8 4.625245232474373e-7 0.000002008084020208717 -0.006697079995635492 -0.0000010747460309134746 -0.013407170431229439
          -2.880170437849841e-7 -0.006730981117391719 0.0000011945999388459326 0.0000029635429360129126 7.360219554082906e-7 0.000001675481538868269
          -0.000002083592471400879 -0.000004064939629619575 -7.217506046556556e-7 0.000001813013365329491 0.000001996620283495343 0.000003336778368886323
        </DataArray>
        <DataArray type="Float64" Name="resid_z" format="ascii" RangeMin="0" RangeMax="0">
          0 0 0 0 0 0
          0 0 0 0 0 0
          0 0 0 0 0 0
          0 0 0 0 0 0
          0 0 0 0 0 0
          0 0 0 0 0 0
          0 0 0 0 0 0
          0 0 0 0 0 0
          0 0 0 0 0 0
          0 0 0 0 0 0
          0 0 0 0 0 0
          0 0 0 0 0 0
          0 0 0 0 0 0
          0 0 0 0 0 0
          0 0 0 0 0 0
          0 0 0 0 0 0
          0 0 0 0 0 0
          0 0 0 0 0 0
          0 0 0 0 0 0
          0 0 0 0 0 0
          0 0 0 0 0 0
          0 0 0 0 0 0
          0 0 0 0 0 0
          0 0 0 0 0 0
          0 0 0 0 0 0
          0 0 0 0 0 0
          0 0 0 0 0 0
          0 0 0 0 0 0
          0 0 0 0 0 0
          0 0 0 0 0 0
          0 0 0 0 0 0
          0 0 0 0 0 0
          0 0 0 0 0 0
          0 0 0 0 0 0
          0 0 0 0 0 0
          0 0 0 0 0 0
          0 0 0 0 0 0
          0 0 0 0 0 0
          0 0 0 0 0 0
          0 0 0 0 0 0
          0 0 0 0 0 0
          0 0 0 0 0 0
          0 0 0 0 0 0
          0 0 0 0 0 0
          0 0 0 0 0 0
          0 0 0 0 0 0
          0 0 0 0 0 0
          0 0 0 0 0 0
          0 0 0 0 0 0
          0 0 0 0 0 0
          0 0 0 0 0 0
          0 0 0 0 0 0
          0 0 0 0 0 0
          0 0 0 0 0 0
          0 0 0 0 0 0
          0 0 0 0 0 0
          0 0 0 0 0 0
          0 0 0 0 0 0
          0 0 0 0 0 0
          0 0 0 0 0 0
          0 0 0 0 0 0
          0 0 0 0 0 0
          0 0 0 0 0 0
          0 0 0 0 0 0
          0 0 0 0 0 0
          0 0 0 0 0 0
          0 0 0 0 0 0
          0 0 0 0 0 0
          0 0 0 0 0 0
          0 0 0 0 0 0
          0 0 0 0 0 0
          0 0 0 0 0 0
          0 0 0 0 0 0
          0 0 0 0 0 0
          0 0 0 0 0 0
          0 0 0 0 0 0
          0 0 0 0 0 0
          0 0 0 0 0 0
          0 0 0 0 0 0
          0 0 0 0 0 0
          0 0 0 0 0 0
          0 0 0 0 0 0
          0 0 0 0 0 0
          0 0 0 0 0 0
          0 0 0 0 0 0
          0 0 0 0 0 0
          0 0 0 0 0 0
          0 0 0 0 0 0
          0 0 0 0 0 0
          0 0 0 0 0 0
          0 0 0 0 0 0
          0 0 0 0 0 0
          0 0 0 0 0 0
          0 0 0 0 0 0
          0 0 0 0 0 0
          0 0 0 0 0 0
          0 0 0 0 0 0
          0 0 0 0 0 0
          0 0 0 0 0 0
          0 0 0 0 0 0
          0 0 0 0 0 0
          0 0 0 0 0 0
          0 0 0 0 0 0
          0 0 0 0 0 0
          0 0 0 0 0 0
          0 0 0 0 0 0
          0 0 0 0 0 0
          0 0 0 0 0 0
          0 0 0 0 0 0
          0 0 0 0 0 0
          0 0 0 0 0 0
          0 0 0 0 0 0
          0 0 0 0 0 0
          0 0 0 0 0 0
          0 0 0 0 0 0
          0 0 0 0 0 0
          0 0 0 0 0 0
          0 0 0 0 0 0
          0 0 0 0 0 0
          0 0 0 0 0 0
          0 0 0 0 0 0
          0 0 0 0 0 0
          0 0 0 0 0 0
          0 0 0 0 0 0
          0 0 0 0 0 0
          0 0 0 0 0 0
          0 0 0 0 0 0
          0 0 0 0 0 0
          0 0 0 0 0 0
          0 0 0 0 0 0
        </DataArray>
        <DataArray type="Float64" Name="stress_zz" format="ascii" RangeMin="-11099.946557769115" RangeMax="28564.30400571815">
          -494.81515267887306 -492.1054544032627 -487.95362293961324 -485.87326811571074 -481.0920932003535 -479.6410818281588
          -396.3628831788953 -398.43767710711086 -407.2333699181888 -408.6314666943418 -418.1038566574825 -418.8252562815726
          -266.925545360931 -272.45781888611396 -256.9395858530595 -261.2653336946063 -246.9536263451879 -250.07284850309858
          -94.80922004661184 -99.07092096036305 -97.02847570718664 -100.38832146459943 -99.24773136776147 -101.70572196883579
          43.88331532170274 49.02474592620286 47.131138885230584 45.55655845925307 50.37896244875844 42.08837099230327
          117.13784003189217 137.13621174378423 121.45250117839352 150.15259286991238 125.76716232489487 163.16897399604056
          560.1802490227965 383.7990328107667 521.9757127420457 321.4287177786549 483.771176461295 259.05840274654315
          2038.1501306062298 1192.251745002045 2142.7653962612303 1220.4660195573178 2247.3806619162315 1248.6802941125904
          -506.9388732896431 -496.84428787519414 -486.7497024607451 -395.45289990345145 -406.89838489517393 -418.34386988689636
          -255.6093980852632 -247.43350999422174 -239.25762190318028 -83.38146903886025 -86.54623890815697 -89.71100877745369
          46.95929865653396 57.55623878192069 68.15317890730742 118.56274062714009 109.48368864661842 100.40463666609672
          719.4145538965083 706.7624979060325 694.1104419155567 2086.3375233256797 2124.18249269569 2162.0274620657005
          -523.1281914489481 -508.2850510045247 -493.4419105601012 -394.7665234761098 -406.433142397115 -418.09976131812016
          -240.59946013577718 -234.4825220265978 -228.36558391741838 -62.889442082082354 -66.39075958214858 -69.8920770822148
          74.7649111649691 85.79054680800502 96.81618245104094 168.3999610448405 156.04660554171946 143.69325003859842
          726.6618324533014 723.7131136006734 720.7643947480456 1185.7346017347022 1158.264990058657 1130.795378382612
          -538.9282739758161 -518.8056335176323 -498.68299305944845 -389.6008947846121 -402.0720181600762 -414.54314153554026
          -218.5928008745476 -214.99006156641008 -211.38732225827258 -30.1481732660182 -34.266263846858585 -38.384354427698966
          120.18714196969655 131.49896922553677 142.81079648137697 223.91381932558608 212.2149447212342 200.5160701168823
          776.2615353760275 773.7428898672292 771.2242443584307 1334.7066252737793 1378.5024268137158 1422.2982283536526
          -554.6694538229181 -530.0589231153367 -505.4483924077553 -378.71319778228815 -391.85806063798776 -405.0029234936873
          -189.0634900155174 -187.64174688365887 -186.22000375180028 14.68255499928495 10.086919471118183 5.491283942951423
          178.51637373673697 190.45918475121007 202.40199576568318 287.7045499495643 274.78707651651536 261.8696030834664
          843.1437572249667 834.1957251507465 825.2476930765265 1494.2499873865106 1531.5854825323268 1568.9209776781438
          -563.7025182187253 -534.1144922425038 -504.52646626628234 -362.5503431388358 -378.20727595109736 -393.8642087633588
          -150.33041409356505 -150.40166960891733 -150.4729251242696 72.72290892238912 67.88250340315516 63.04209788392122
          253.12695281457678 265.00489478595654 276.88283675733635 375.29609894762365 362.2090002294864 349.12190151134917
          927.8317843725983 921.4361026295772 915.040420886556 1368.8647411834972 1404.4038123629664 1439.9428835424358
          -1355.6004071055695 -1376.071564500505 -1396.5427218954403 -573.6834154426848 -539.8680152510943 -506.05261505950386
          -344.254225744647 -364.21284566890694 -384.1714655931668 -101.45015647046856 -100.41908257556979 -99.38800868067102
          147.98864784946255 143.2516496389792 138.51465142849577 347.41957674550594 359.0205818418118 370.6215869381177
          489.3140582625358 476.1758409109828 463.0376235594299 1018.3172878290646 1012.987451862368 1007.6576158956711
          1337.0665327007268 1376.9494422553882 1416.8323518100497 -1488.0702224987717 -1512.3892135177607 -1536.70820453675
          -590.8885856972856 -558.3908752419176 -525.8931647865497 -316.4041052468807 -338.8673987951023 -361.3306923433239
          -36.19632136343291 -32.188706780965234 -28.18109219849756 250.12116706465568 246.23136993331596 242.3415728019763
          463.7186678662564 474.60251458197615 485.4863612976958 618.7329787049516 606.6914097310236 594.6498407570956
          1171.2095226994131 1163.037292410529 1154.865062121645 1351.3200043753145 1390.0720039907937 1428.8240036062728
          -1652.6011281504739 -1684.1854453345218 -1715.7697625185692 -602.697999012987 -568.867400345635 -535.0368016782832
          -267.51262506719894 -291.4208838007535 -315.32914253430795 63.02279261058695 69.34585111238471 75.66890961418245
          391.20325040097845 387.6173262825904 384.0314021642023 622.4447499913389 634.4535273007714 646.462304610204
          748.184859035807 732.9280605873688 717.6712621389306 1377.098699319716 1363.2197793200894 1349.3408593204629
          1607.192641465574 1680.9612156408334 1754.7297898160923 -1840.0559510692933 -1876.7868124934353 -1913.5176739175768
          -592.6895299078972 -552.8894719998606 -513.089414091824 -184.7044206917203 -211.68821305897106 -238.6720054262218
          208.72541428315273 216.638838787561 224.55226329196933 581.2871342339611 577.4030720641374 573.5190098943139
          832.0024836949873 846.0380533809546 860.0736230669218 960.4939191652695 945.9264616856694 931.3590042060692
          1419.1216545633124 1408.8637295784927 1398.6058045936725 2089.277630823666 2130.1030847753873 2170.928538727109
          -2060.4534939502687 -2104.5684277893197 -2148.6833616283707 -556.0748683323271 -509.7470686246758 -463.41926891702445
          -56.2091168028701 -87.80888209886159 -119.40864739485305 410.35414816276943 419.5915027738174 428.8288573848655
          827.6700905884377 825.4741944886456 823.2782983888538 1096.20028494926 1104.6185880804644 1113.0368912116687
          1210.9682247104806 1214.7501464100292 1218.5320681095777 1530.855940301375 1506.1803840094526 1481.5048277175308
          2867.751780847959 2936.4654575815302 3005.179134315101 -2319.048550751785 -2373.411449679123 -2427.7743486064605
          -488.25539705220035 -434.05755347335514 -379.85970989450993 131.6758231553331 95.27329749535956 58.87077183538601
          687.7451840486904 698.5634766347947 709.3817692208992 1148.2784682222077 1148.450802569299 1148.6231369163904
          1422.2521743795235 1422.6743197581843 1423.0964651368458 1473.039095194623 1489.9110686066451 1506.7830420186674
          1657.1634996079079 1612.2172743598403 1567.2710491117725 3505.4000583738352 3495.2129738036756 3485.025889233518
          -2617.041629607756 -2685.3135452144957 -2753.585460821235 -367.40438012390905 -303.5237033187869 -239.64302651366472
          407.95531068711193 366.6244291292944 325.2935475714769 1070.6200356387853 1084.0403149545994 1097.4605942704134
          1573.6198286123563 1574.6607669781793 1575.7017053440027 1822.575005857932 1822.31013191393 1822.045257969929
          1848.144053299957 1861.6505746606517 1875.1570960213467 1679.3186565979559 1676.973066746043 1674.6274768941307
          2130.902195848843 2070.2409954501504 2009.5797950514584 -2954.0216091197963 -3039.3234452384213 -3124.625281357046
          -149.75025969020749 -73.11670723414689 3.5168452219137265 818.5657306578685 770.7035121019069 722.8412935459453
          1597.4588024249606 1614.3390465620066 1631.2192906990522 2132.4290715716097 2134.569197572796 2136.709323573982
          2330.825055145662 2331.230424317479 2331.6357934892967 2260.5880040640336 2269.2868263179507 2277.9856485718688
          1909.1393861471095 1912.7782450407342 1916.4171039343585 1708.8343471564394 1687.8469133091955 1666.8594794619519
          214.17414916183293 307.6319141889139 401.0896792159949 1421.0178346589157 1363.5199392925986 1306.0220439262819
          2315.1774739034195 2337.2027740947055 2359.228074285992 2849.4839877221248 2852.789741754983 2856.095495787841
          2951.3088847383415 2952.1534418438036 2952.997998949266 2708.0826969864197 2724.451596133766 2740.820495281113
          2152.574887417923 2141.094350216773 2129.6138130156223 2048.372746678766 2024.7531491070586 2001.133551535351
          801.1284538541024 919.0309321830199 1036.9334105119374 2295.807505530375 2226.2465853357253 2156.685665141076
          3283.803638095401 3313.019511094477 3342.2353840935525 3749.9369340718267 3754.7523317941195 3759.5677295164132
          3655.123287531535 3654.078051240116 3653.0328149486977 3193.5450077040555 3220.6739256551973 3247.8028436063396
          2147.9981105146726 2127.3826383068617 2106.767166099051 1940.3703757682574 2059.3741426322545 2178.377909496251
          1741.1145097356336 1889.9476033977335 2038.7806970598333 3559.080476924802 3473.539087824934 3387.997698725066
          4579.234711482233 4617.364148913174 4655.493586344114 4849.267223237876 4859.713056332113 4870.158889426351
          4431.686560521228 4420.890670127933 4410.094779734637 3627.1148159941367 3655.1424994076824 3683.170182821228
          2337.360925540474 2315.9868048071958 2294.6126840739175 -1930.6481157605585 -1979.2971533736045 -2027.9461909866502
          3248.908145904387 3443.9724741145064 3639.036802324626 5372.910890152301 5266.7493629935125 5160.587835834724
          6275.2958457601435 6324.928011640741 6374.560177521339 6144.6016974388185 6161.820885270949 6179.040073103079
          5205.960775313231 5189.248018111463 5172.535260909696 4041.2909249631 4070.8570352457427 4100.423145528386
          1712.3706101794985 1783.3729076176294 1854.3752050557603 -5486.809237017294 -5699.01046201164 -5911.211687005987
          7952.254804413975 7822.980176099125 7693.705547784276 8432.777573796338 8499.67234201321 8566.56711023008
          7562.9168593029335 7584.039028780328 7605.161198257725 5823.235265802642 5802.75604649237 5782.2768271821
          3998.9083484701664 4039.243207825959 4079.578067181752 291.5470793717841 366.6564418226414 441.7658042734986
          -3862.0938693956423 -3998.6104492548843 -4135.127029114127 11555.312376572336 11393.45437159561 11231.596366618884
          11041.197729294927 11132.00723157152 11222.816733848114 8886.299116134804 8913.701190903688 8941.103265672577
          5997.886939589711 5964.700033575049 5931.513127560387 3265.3490465819514 3337.528885305029 3409.7087240281057
          -915.1595069149721 -904.441606575841 -893.7237062367097 -3230.314790860082 -3431.50063765275 -3632.686484445417
          16394.0403604097 16195.043101561123 15996.045842712541 13861.314527033133 13986.860976705402 14112.407426377671
          9660.07224144918 9692.760453505998 9725.448665562817 5266.567971956719 5209.355115386517 5152.142258816315
          1861.5223879880618 1966.1217758624232 2070.7211637367845 -3057.9874543170727 -3036.878859158176 -3015.770263999279
          22384.802320230112 22132.601343292732 21880.400366355356 16168.970941957166 16335.956247183967 16502.94155241077
          9056.3385791808 9090.839794390222 9125.341009599648 2995.084304814274 2907.2932547003616 2819.502204586449
          -825.021627474908 -694.0967750305878 -563.1719225862676 -4214.2651574741785 191.30569638382264 2199.008907312502
          -1313.8637395335663 -4308.004164974734 190.96101925424756 2291.458175186787 -1261.682628862662 -4401.743172475288
          190.61634212467266 2383.9074430610717 -1209.5015181917584 -464.1663847266851 -1279.2058679541133 58.26599644866474
          197.20845538542943 -518.5404257286743 -1356.8552185749822 25.306772445978964 155.52763194872114 -572.9144667306634
          -1434.504569195851 -7.652451556706666 113.84680851201284 -2657.119171287171 -657.4280390775955 -2953.246586032345
          -2669.4269719295266 -529.9190288042656 -2955.672159565082 -2681.734772571882 -402.41001853093576 -2958.0977330978176
          -4723.120495125363 -4971.899232992946 -5220.677970860529 3015.675043559597 4908.136180039559 3576.605891370445
          2271.9229092286205 2992.7275027677474 5080.229628945681 3651.791122963672 2321.648331492973 2969.779961975898
          5252.323077851803 3726.9763545568985 2371.3737537573265 470.24779420423175 641.5658438476146 466.2340198020185
          631.3279690057268 462.22024539980526 621.0900941638391 -5985.826219214893 -3221.428588836485 -1307.2715888815567
          -6265.804467738762 -3326.4836228053673 -1180.249075140962 -6545.782716262631 -3431.538656774251 -1053.2265614003677
          913.5647924236983 384.6540686890637 891.6040709159995 368.56671770966045 869.6433494083004 352.4793667302572
          -3330.6595281494338 -2927.574395300151 -3338.9584426104775 -2988.6710625738438 -3347.257357071522 -3049.7677298475364
          420.6302089504981 407.08901805334744 393.54782715619666 -5096.740825007168 -2910.309645417335 -5259.597924813439
          -3019.4293419892506 -5422.455024619709 -3128.5490385611656 -1000.9410728425605 -5216.149660344716 -905.9636846017979
          -5402.193961549606 -810.9862963610353 -5588.238262754495 4492.8989931794395 2259.9665642716186 4848.111699960398
          2284.1136727516846 5203.324406741359 2308.2607812317515 597.8581141614677 961.9353944908737 568.2783302322841
          866.6372469333949 538.6985463031008 771.339099375916 967.3091624133466 922.97768259892 878.6462027844937
          1490.6208735712337 1678.336450042861 1474.0230493485503 1719.714299841815 1457.4252251258674 1761.0921496407693
          -1115.8088708736461 -1147.705127306182 -1179.601383738718 1245.9530539247564 1227.4727527855268 1208.992451646297
          -6748.109242063973 -6999.516532688103 -7250.923823312233 1830.7884792661187 1999.58851022837 2168.3885411906217
          342.15279235145664 287.03138654198113 231.9099807325056 1327.6648180982174 1404.521517864722 1481.3782176312266
          1456.3531436734045 1589.0134133666286 1721.6736830598522 -5934.706834399152 -6221.144124478518 -6507.581414557882
          -6489.4948285110095 -6436.8316426951915 -6384.1684568793735 -9685.146007302603 -9983.582393154844 -10282.018779007087
          16298.689118018689 28564.30400571815 16514.381326448587 28207.12442781022 16730.073534878487 27849.94484990229
          5669.738443843615 5703.402879478484 5737.067315113352 -1569.6703787994497 -1692.6526971926414 -1815.635015585834
          -5287.3757285281945 -5107.0730256821225 -4926.770322836051 -11099.946557769115 -11074.099222189832 -11048.251886610546
          -1730.3756318458168 -1655.5491728953064 -1580.7227139447962 585.4186864534222 577.1251443494384 568.8316022454537
          45.25424607980017 -204.48872343723573 -0.6966509639569267 -220.93063599799333 -46.647548007713795 -237.3725485587508
          -2217.6740168350116 1071.6255803158704 -2221.5938687015014 1256.3729105313314 -2225.5137205679903 1441.1202407467927
          964.7078396405423 -329.6472197084123 993.9729288344762 -271.0524135977018 1023.2380180284105 -212.4576074869912
          763.3185233901536 773.2201071032121 783.1216908162705 2667.438444771912 2824.032875000623 2980.6273052293345
          778.3780388013188 -1903.521202659517 730.7258808691352 -1881.0247587592987 683.0737229369515 -1858.5283148590809
          -1328.3565021740085 -1378.6800892503932 -1429.0036763267776 2208.539425348901 322.34360819917424 2292.5838256726543
          387.1032094621752 2376.6282259964073 451.86281072517613 -2100.1017954749504 -1964.8867058335122 -1829.671616192073
          253.7105334858471 258.4186577905051 263.12678209516304 1024.7088969533468 -229.57761234774208 1052.714994405813
          -262.9918050597491 1080.7210918582794 -296.405997771756 23.18456555131803 47.18759815102541 71.19063075073282
          -641.1066589634667 -615.5213040250949 -589.9359490867229 -3204.0194871934855 -3058.447211726814 -2912.8749362601425
        </DataArray>
        <DataArray type="Float64" Name="peeq" format="ascii" RangeMin="0" RangeMax="0">
          0 0 0 0 0 0
          0 0 0 0 0 0
          0 0 0 0 0 0
          0 0 0 0 0 0
          0 0 0 0 0 0
          0 0 0 0 0 0
          0 0 0 0 0 0
          0 0 0 0 0 0
          0 0 0 0 0 0
          0 0 0 0 0 0
          0 0 0 0 0 0
          0 0 0 0 0 0
          0 0 0 0 0 0
          0 0 0 0 0 0
          0 0 0 0 0 0
          0 0 0 0 0 0
          0 0 0 0 0 0
          0 0 0 0 0 0
          0 0 0 0 0 0
          0 0 0 0 0 0
          0 0 0 0 0 0
          0 0 0 0 0 0
          0 0 0 0 0 0
          0 0 0 0 0 0
          0 0 0 0 0 0
          0 0 0 0 0 0
          0 0 0 0 0 0
          0 0 0 0 0 0
          0 0 0 0 0 0
          0 0 0 0 0 0
          0 0 0 0 0 0
          0 0 0 0 0 0
          0 0 0 0 0 0
          0 0 0 0 0 0
          0 0 0 0 0 0
          0 0 0 0 0 0
          0 0 0 0 0 0
          0 0 0 0 0 0
          0 0 0 0 0 0
          0 0 0 0 0 0
          0 0 0 0 0 0
          0 0 0 0 0 0
          0 0 0 0 0 0
          0 0 0 0 0 0
          0 0 0 0 0 0
          0 0 0 0 0 0
          0 0 0 0 0 0
          0 0 0 0 0 0
          0 0 0 0 0 0
          0 0 0 0 0 0
          0 0 0 0 0 0
          0 0 0 0 0 0
          0 0 0 0 0 0
          0 0 0 0 0 0
          0 0 0 0 0 0
          0 0 0 0 0 0
          0 0 0 0 0 0
          0 0 0 0 0 0
          0 0 0 0 0 0
          0 0 0 0 0 0
          0 0 0 0 0 0
          0 0 0 0 0 0
          0 0 0 0 0 0
          0 0 0 0 0 0
          0 0 0 0 0 0
          0 0 0 0 0 0
          0 0 0 0 0 0
          0 0 0 0 0 0
          0 0 0 0 0 0
          0 0 0 0 0 0
          0 0 0 0 0 0
          0 0 0 0 0 0
          0 0 0 0 0 0
          0 0 0 0 0 0
          0 0 0 0 0 0
          0 0 0 0 0 0
          0 0 0 0 0 0
          0 0 0 0 0 0
          0 0 0 0 0 0
          0 0 0 0 0 0
          0 0 0 0 0 0
          0 0 0 0 0 0
          0 0 0 0 0 0
          0 0 0 0 0 0
          0 0 0 0 0 0
          0 0 0 0 0 0
          0 0 0 0 0 0
          0 0 0 0 0 0
          0 0 0 0 0 0
          0 0 0 0 0 0
          0 0 0 0 0 0
          0 0 0 0 0 0
          0 0 0 0 0 0
          0 0 0 0 0 0
          0 0 0 0 0 0
          0 0 0 0 0 0
          0 0 0 0 0 0
          0 0 0 0 0 0
          0 0 0 0 0 0
          0 0 0 0 0 0
          0 0 0 0 0 0
          0 0 0 0 0 0
          0 0 0 0 0 0
          0 0 0 0 0 0
          0 0 0 0 0 0
          0 0 0 0 0 0
          0 0 0 0 0 0
          0 0 0 0 0 0
          0 0 0 0 0 0
          0 0 0 0 0 0
          0 0 0 0 0 0
          0 0 0 0 0 0
          0 0 0 0 0 0
          0 0 0 0 0 0
          0 0 0 0 0 0
          0 0 0 0 0 0
          0 0 0 0 0 0
          0 0 0 0 0 0
          0 0 0 0 0 0
          0 0 0 0 0 0
          0 0 0 0 0 0
          0 0 0 0 0 0
          0 0 0 0 0 0
          0 0 0 0 0 0
          0 0 0 0 0 0
          0 0 0 0 0 0
          0 0 0 0 0 0
          0 0 0 0 0 0
          0 0 0 0 0 0
          0 0 0 0 0 0
        </DataArray>
        <DataArray type="Float64" Name="pe11" format="ascii" RangeMin="0" RangeMax="0">
          0 0 0 0 0 0
          0 0 0 0 0 0
          0 0 0 0 0 0
          0 0 0 0 0 0
          0 0 0 0 0 0
          0 0 0 0 0 0
          0 0 0 0 0 0
          0 0 0 0 0 0
          0 0 0 0 0 0
          0 0 0 0 0 0
          0 0 0 0 0 0
          0 0 0 0 0 0
          0 0 0 0 0 0
          0 0 0 0 0 0
          0 0 0 0 0 0
          0 0 0 0 0 0
          0 0 0 0 0 0
          0 0 0 0 0 0
          0 0 0 0 0 0
          0 0 0 0 0 0
          0 0 0 0 0 0
          0 0 0 0 0 0
          0 0 0 0 0 0
          0 0 0 0 0 0
          0 0 0 0 0 0
          0 0 0 0 0 0
          0 0 0 0 0 0
          0 0 0 0 0 0
          0 0 0 0 0 0
          0 0 0 0 0 0
          0 0 0 0 0 0
          0 0 0 0 0 0
          0 0 0 0 0 0
          0 0 0 0 0 0
          0 0 0 0 0 0
          0 0 0 0 0 0
          0 0 0 0 0 0
          0 0 0 0 0 0
          0 0 0 0 0 0
          0 0 0 0 0 0
          0 0 0 0 0 0
          0 0 0 0 0 0
          0 0 0 0 0 0
          0 0 0 0 0 0
          0 0 0 0 0 0
          0 0 0 0 0 0
          0 0 0 0 0 0
          0 0 0 0 0 0
          0 0 0 0 0 0
          0 0 0 0 0 0
          0 0 0 0 0 0
          0 0 0 0 0 0
          0 0 0 0 0 0
          0 0 0 0 0 0
          0 0 0 0 0 0
          0 0 0 0 0 0
          0 0 0 0 0 0
          0 0 0 0 0 0
          0 0 0 0 0 0
          0 0 0 0 0 0
          0 0 0 0 0 0
          0 0 0 0 0 0
          0 0 0 0 0 0
          0 0 0 0 0 0
          0 0 0 0 0 0
          0 0 0 0 0 0
          0 0 0 0 0 0
          0 0 0 0 0 0
          0 0 0 0 0 0
          0 0 0 0 0 0
          0 0 0 0 0 0
          0 0 0 0 0 0
          0 0 0 0 0 0
          0 0 0 0 0 0
          0 0 0 0 0 0
          0 0 0 0 0 0
          0 0 0 0 0 0
          0 0 0 0 0 0
          0 0 0 0 0 0
          0 0 0 0 0 0
          0 0 0 0 0 0
          0 0 0 0 0 0
          0 0 0 0 0 0
          0 0 0 0 0 0
          0 0 0 0 0 0
          0 0 0 0 0 0
          0 0 0 0 0 0
          0 0 0 0 0 0
          0 0 0 0 0 0
          0 0 0 0 0 0
          0 0 0 0 0 0
          0 0 0 0 0 0
          0 0 0 0 0 0
          0 0 0 0 0 0
          0 0 0 0 0 0
          0 0 0 0 0 0
          0 0 0 0 0 0
          0 0 0 0 0 0
          0 0 0 0 0 0
          0 0 0 0 0 0
          0 0 0 0 0 0
          0 0 0 0 0 0
          0 0 0 0 0 0
          0 0 0 0 0 0
          0 0 0 0 0 0
          0 0 0 0 0 0
          0 0 0 0 0 0
          0 0 0 0 0 0
          0 0 0 0 0 0
          0 0 0 0 0 0
          0 0 0 0 0 0
          0 0 0 0 0 0
          0 0 0 0 0 0
          0 0 0 0 0 0
          0 0 0 0 0 0
          0 0 0 0 0 0
          0 0 0 0 0 0
          0 0 0 0 0 0
          0 0 0 0 0 0
          0 0 0 0 0 0
          0 0 0 0 0 0
          0 0 0 0 0 0
          0 0 0 0 0 0
          0 0 0 0 0 0
          0 0 0 0 0 0
          0 0 0 0 0 0
          0 0 0 0 0 0
          0 0 0 0 0 0
          0 0 0 0 0 0
          0 0 0 0 0 0
        </DataArray>
        <DataArray type="Float64" Name="pe22" format="ascii" RangeMin="0" RangeMax="0">
          0 0 0 0 0 0
          0 0 0 0 0 0
          0 0 0 0 0 0
          0 0 0 0 0 0
          0 0 0 0 0 0
          0 0 0 0 0 0
          0 0 0 0 0 0
          0 0 0 0 0 0
          0 0 0 0 0 0
          0 0 0 0 0 0
          0 0 0 0 0 0
          0 0 0 0 0 0
          0 0 0 0 0 0
          0 0 0 0 0 0
          0 0 0 0 0 0
          0 0 0 0 0 0
          0 0 0 0 0 0
          0 0 0 0 0 0
          0 0 0 0 0 0
          0 0 0 0 0 0
          0 0 0 0 0 0
          0 0 0 0 0 0
          0 0 0 0 0 0
          0 0 0 0 0 0
          0 0 0 0 0 0
          0 0 0 0 0 0
          0 0 0 0 0 0
          0 0 0 0 0 0
          0 0 0 0 0 0
          0 0 0 0 0 0
          0 0 0 0 0 0
          0 0 0 0 0 0
          0 0 0 0 0 0
          0 0 0 0 0 0
          0 0 0 0 0 0
          0 0 0 0 0 0
          0 0 0 0 0 0
          0 0 0 0 0 0
          0 0 0 0 0 0
          0 0 0 0 0 0
          0 0 0 0 0 0
          0 0 0 0 0 0
          0 0 0 0 0 0
          0 0 0 0 0 0
          0 0 0 0 0 0
          0 0 0 0 0 0
          0 0 0 0 0 0
          0 0 0 0 0 0
          0 0 0 0 0 0
          0 0 0 0 0 0
          0 0 0 0 0 0
          0 0 0 0 0 0
          0 0 0 0 0 0
          0 0 0 0 0 0
          0 0 0 0 0 0
          0 0 0 0 0 0
          0 0 0 0 0 0
          0 0 0 0 0 0
          0 0 0 0 0 0
          0 0 0 0 0 0
          0 0 0 0 0 0
          0 0 0 0 0 0
          0 0 0 0 0 0
          0 0 0 0 0 0
          0 0 0 0 0 0
          0 0 0 0 0 0
          0 0 0 0 0 0
          0 0 0 0 0 0
          0 0 0 0 0 0
          0 0 0 0 0 0
          0 0 0 0 0 0
          0 0 0 0 0 0
          0 0 0 0 0 0
          0 0 0 0 0 0
          0 0 0 0 0 0
          0 0 0 0 0 0
          0 0 0 0 0 0
          0 0 0 0 0 0
          0 0 0 0 0 0
          0 0 0 0 0 0
          0 0 0 0 0 0
          0 0 0 0 0 0
          0 0 0 0 0 0
          0 0 0 0 0 0
          0 0 0 0 0 0
          0 0 0 0 0 0
          0 0 0 0 0 0
          0 0 0 0 0 0
          0 0 0 0 0 0
          0 0 0 0 0 0
          0 0 0 0 0 0
          0 0 0 0 0 0
          0 0 0 0 0 0
          0 0 0 0 0 0
          0 0 0 0 0 0
          0 0 0 0 0 0
          0 0 0 0 0 0
          0 0 0 0 0 0
          0 0 0 0 0 0
          0 0 0 0 0 0
          0 0 0 0 0 0
          0 0 0 0 0 0
          0 0 0 0 0 0
          0 0 0 0 0 0
          0 0 0 0 0 0
          0 0 0 0 0 0
          0 0 0 0 0 0
          0 0 0 0 0 0
          0 0 0 0 0 0
          0 0 0 0 0 0
          0 0 0 0 0 0
          0 0 0 0 0 0
          0 0 0 0 0 0
          0 0 0 0 0 0
          0 0 0 0 0 0
          0 0 0 0 0 0
          0 0 0 0 0 0
          0 0 0 0 0 0
          0 0 0 0 0 0
          0 0 0 0 0 0
          0 0 0 0 0 0
          0 0 0 0 0 0
          0 0 0 0 0 0
          0 0 0 0 0 0
          0 0 0 0 0 0
          0 0 0 0 0 0
          0 0 0 0 0 0
          0 0 0 0 0 0
          0 0 0 0 0 0
          0 0 0 0 0 0
        </DataArray>
        <DataArray type="Float64" Name="pe33" format="ascii" RangeMin="0" RangeMax="0">
          0 0 0 0 0 0
          0 0 0 0 0 0
          0 0 0 0 0 0
          0 0 0 0 0 0
          0 0 0 0 0 0
          0 0 0 0 0 0
          0 0 0 0 0 0
          0 0 0 0 0 0
          0 0 0 0 0 0
          0 0 0 0 0 0
          0 0 0 0 0 0
          0 0 0 0 0 0
          0 0 0 0 0 0
          0 0 0 0 0 0
          0 0 0 0 0 0
          0 0 0 0 0 0
          0 0 0 0 0 0
          0 0 0 0 0 0
          0 0 0 0 0 0
          0 0 0 0 0 0
          0 0 0 0 0 0
          0 0 0 0 0 0
          0 0 0 0 0 0
          0 0 0 0 0 0
          0 0 0 0 0 0
          0 0 0 0 0 0
          0 0 0 0 0 0
          0 0 0 0 0 0
          0 0 0 0 0 0
          0 0 0 0 0 0
          0 0 0 0 0 0
          0 0 0 0 0 0
          0 0 0 0 0 0
          0 0 0 0 0 0
          0 0 0 0 0 0
          0 0 0 0 0 0
          0 0 0 0 0 0
          0 0 0 0 0 0
          0 0 0 0 0 0
          0 0 0 0 0 0
          0 0 0 0 0 0
          0 0 0 0 0 0
          0 0 0 0 0 0
          0 0 0 0 0 0
          0 0 0 0 0 0
          0 0 0 0 0 0
          0 0 0 0 0 0
          0 0 0 0 0 0
          0 0 0 0 0 0
          0 0 0 0 0 0
          0 0 0 0 0 0
          0 0 0 0 0 0
          0 0 0 0 0 0
          0 0 0 0 0 0
          0 0 0 0 0 0
          0 0 0 0 0 0
          0 0 0 0 0 0
          0 0 0 0 0 0
          0 0 0 0 0 0
          0 0 0 0 0 0
          0 0 0 0 0 0
          0 0 0 0 0 0
          0 0 0 0 0 0
          0 0 0 0 0 0
          0 0 0 0 0 0
          0 0 0 0 0 0
          0 0 0 0 0 0
          0 0 0 0 0 0
          0 0 0 0 0 0
          0 0 0 0 0 0
          0 0 0 0 0 0
          0 0 0 0 0 0
          0 0 0 0 0 0
          0 0 0 0 0 0
          0 0 0 0 0 0
          0 0 0 0 0 0
          0 0 0 0 0 0
          0 0 0 0 0 0
          0 0 0 0 0 0
          0 0 0 0 0 0
          0 0 0 0 0 0
          0 0 0 0 0 0
          0 0 0 0 0 0
          0 0 0 0 0 0
          0 0 0 0 0 0
          0 0 0 0 0 0
          0 0 0 0 0 0
          0 0 0 0 0 0
          0 0 0 0 0 0
          0 0 0 0 0 0
          0 0 0 0 0 0
          0 0 0 0 0 0
          0 0 0 0 0 0
          0 0 0 0 0 0
          0 0 0 0 0 0
          0 0 0 0 0 0
          0 0 0 0 0 0
          0 0 0 0 0 0
          0 0 0 0 0 0
          0 0 0 0 0 0
          0 0 0 0 0 0
          0 0 0 0 0 0
          0 0 0 0 0 0
          0 0 0 0 0 0
          0 0 0 0 0 0
          0 0 0 0 0 0
          0 0 0 0 0 0
          0 0 0 0 0 0
          0 0 0 0 0 0
          0 0 0 0 0 0
          0 0 0 0 0 0
          0 0 0 0 0 0
          0 0 0 0 0 0
          0 0 0 0 0 0
          0 0 0 0 0 0
          0 0 0 0 0 0
          0 0 0 0 0 0
          0 0 0 0 0 0
          0 0 0 0 0 0
          0 0 0 0 0 0
          0 0 0 0 0 0
          0 0 0 0 0 0
          0 0 0 0 0 0
          0 0 0 0 0 0
          0 0 0 0 0 0
          0 0 0 0 0 0
          0 0 0 0 0 0
          0 0 0 0 0 0
          0 0 0 0 0 0
          0 0 0 0 0 0
        </DataArray>
        <DataArray type="Float64" Name="disp_x" format="ascii" RangeMin="8.448155277876692e-7" RangeMax="0.000004233331582452487">
          0.0000011071924528123612 0.0000011072024197231827 0.0000011071915275700695 0.0000011072015074040714 0.0000011071889841629404 0.0000011071989880143162
          0.0000013678915860557744 0.0000013679025839563326 0.0000013678905639242464 0.000001367901575210175 0.000001367887437115284 0.0000013678984708004593
          0.00000162869349776313 0.000001628704656580581 0.0000016286923646068434 0.0000016287035454606337 0.0000016286888778858162 0.0000016287000758184961
          0.0000018896083540047215 0.000001889618897996713 0.0000018896071239324213 0.0000018896176885775406 0.0000018896033500743938 0.0000018896139382518231
          0.000002150641874532786 0.0000021506510491821436 0.0000021506405868613726 0.000002150649761244935 0.00000215063661856247 0.0000021506458338773257
          0.0000024117959682998506 0.000002411803048608525 0.000002411794636272568 0.000002411801750034921 0.0000024117906681705102 0.0000024117976838791364
          0.0000026730691885562295 0.000002673073015952634 0.0000026730676725863885 0.0000026730715997419533 0.000002673063232103937 0.000002673067659809423
          0.00000293445355787495 0.0000029344581695138807 0.000002934452322867903 0.0000029344567539089068 0.0000029344474670051357 0.000002934452539766378
          0.0000011071623118683474 0.000001107161387339039 0.0000011071587577160736 0.000001367858543307058 0.0000013678575201842243 0.0000013678543037254609
          0.0000016286600184041455 0.0000016286588557844128 0.0000016286552614769924 0.0000018895767834675538 0.000001889575516869174 0.0000018895716288449707
          0.0000021506144626417748 0.000002150613146918439 0.000002150609070172357 0.0000024117748240451313 0.0000024117734240425546 0.0000024117693496159357
          0.0000026730561639292872 0.0000026730547080032305 0.0000026730501619052773 0.000002934452177088022 0.0000029344507847494965 0.0000029344468538711863
          0.0000011071118669355443 0.000001107110895906205 0.0000011071081217059781 0.0000013678035203909177 0.0000013678024321422314 0.0000013677990673131084
          0.0000016286045079188854 0.000001628603268397598 0.0000016285995016598467 0.0000018895247059583312 0.0000018895233605280159 0.000001889519288438301
          0.000002150569495535557 0.0000021505680996437715 0.0000021505638334670343 0.0000024117400775635185 0.0000024117386031361403 0.00000241173431738192
          0.0000026730337910970017 0.0000026730322869356746 0.000002673027576653472 0.0000029344423199150303 0.000002934440829194312 0.000002934436530297946
          0.0000011070407298691308 0.0000011070396855736776 0.0000011070366854105962 0.0000013677264608782466 0.0000013677252847808018 0.0000013677216839965932
          0.0000016285273650732175 0.0000016285260183101512 0.000001628521983599333 0.000001889453087326033 0.0000018894516328236533 0.0000018894472786567276
          0.00000215050850679577 0.000002150507003827108 0.000002150502446165497 0.000002411693900706458 0.0000024116923257912877 0.0000024116877579657815
          0.000002673005466389904 0.0000026730038374990806 0.000002672998810051763 0.0000029344341504209146 0.0000029344326377534285 0.000002934428068295252
          0.000001106948582455915 0.0000011069474344539456 0.0000011069441258029883 0.0000013676275392490244 0.0000013676262424475726 0.0000013676223141358974
          0.0000016284294596662793 0.0000016284279716500811 0.0000016284235717225295 0.0000018893635982390244 0.0000018893619999288669 0.0000018893572640832354
          0.0000021504340897794563 0.0000021504324469317476 0.0000021504275023909097 0.000002411639980892227 0.0000024116382673733526 0.000002411633320662177
          0.0000026729760329066738 0.0000026729742826979257 0.0000026729688595627503 0.0000029344318805976155 0.000002934430280630603 0.0000029344254629340737
          0.0000011068351161315055 0.0000011068338349677557 0.000001106830128412607 0.0000013675072610444777 0.0000013675058077369212 0.000001367501446160444
          0.0000016283122175372216 0.0000016283105548524695 0.0000016283056723461 0.0000018892587492213645 0.0000018892569725755123 0.00000188925174130779
          0.000002150349955872828 0.0000021503481375572668 0.0000021503426983340796 0.0000024115832664295202 0.00000241158138750164 0.0000024115759543410063
          0.0000026729514527158662 0.0000026729495552995546 0.0000026729436923308095 0.0000029344418000876732 0.0000029344400583707095 0.000002934434836316721
          8.461634694201786e-7 8.461622161086183e-7 8.461582378038713e-7 0.0000011067003839023022 0.0000011066989323145013 0.0000011066948113547218
          0.0000013673666813714987 0.0000013673650610366357 0.0000013673601222991754 0.00000162817784934463 0.0000016281759674286206 0.0000016281704778745409
          0.0000018891420793206624 0.000001889140087794939 0.0000018891342314253757 0.00000215026107593197 0.0000021502590443120284 0.000002150252989018977
          0.0000024115301471664342 0.0000024115280700699184 0.000002411522046185487 0.00000267293941450249 0.0000026729373465868147 0.0000026729309712994355
          0.0000029344734455510023 0.000002934471548902515 0.000002934465867188314 8.460274152047997e-7 8.46026038501571e-7 8.460215089685017e-7
          0.000001106545470997778 0.0000011065437713561149 0.000001106538971217558 0.0000013672077065956001 0.0000013672057969079864 0.0000013672001223279646
          0.0000016280295340975864 0.0000016280273981039856 0.0000016280211416600812 0.000001889018457057901 0.0000018890162023256307 0.0000018890095735044997
          0.000002150173986190271 0.0000021501716994583335 0.0000021501648925047777 0.0000024114887613938914 0.000002411486444014299 0.00000241147970832543
          0.000002672949662190488 0.0000026729473858036607 0.0000026729403958430332 0.0000029345375125622348 0.0000029345354783948505 0.000002934529356324958
          8.458725080157404e-7 8.458708855613159e-7 8.458656239725768e-7 0.0000011063714917838974 0.0000011063695168555076 0.0000011063639172122925
          0.000001367032736759737 0.0000013670305372302004 0.0000013670239642415112 0.0000016278717830756527 0.0000016278693320394296 0.0000016278621368672315
          0.0000018888944614445794 0.0000018888918904964166 0.0000018888843165418054 0.0000021500973908408026 0.0000021500947939189355 0.0000021500870818696322
          0.000002411469438827332 0.0000024114668392852847 0.0000024114592438375493 0.0000026729940573739723 0.000002672991493387983 0.0000026729837256093777
          0.000002934646725365754 0.0000029346445126826064 0.000002934637665183519 8.456991479304984e-7 8.456972364699998e-7 8.456910197677725e-7
          0.0000011061800394936171 0.0000011061777282497049 0.0000011061711468782739 0.0000013668454726229455 0.000001366842908968658 0.0000013668352293764722
          0.0000016277106247676193 0.0000016277077887150866 0.000001627699440337002 0.0000018887788868847065 0.0000018887759290981271 0.0000018887672128106778
          0.0000021500428479876725 0.0000021500398910433598 0.000002150031068850525 0.000002411486298406316 0.0000024114833316293572 0.000002411474754150925
          0.000002673086868652155 0.0000026730840006464723 0.0000026730751694192516 0.000002934819641263814 0.0000029348170840482495 0.000002934809503938812
          8.455076298372282e-7 8.455053449197053e-7 8.454979317822017e-7 0.0000011059732673297611 0.0000011059705250460445 0.000001105962718626031
          0.000001366650740518708 0.0000013666477270907725 0.0000013666386716687242 0.000001627554167083727 0.0000016275508584230408 0.0000016275410966740545
          0.0000018886833760750552 0.0000018886799607784266 0.0000018886698586471056 0.000002150025524679424 0.0000021500221213374955 0.00000215001200182013
          0.0000024115578954413187 0.0000024115545543780194 0.0000024115447564346 0.0000026732509795780306 0.000002673247693236343 0.0000026732377710584584
          0.0000029350692304668368 0.0000029350663346153514 0.000002935057385272244 8.452983399464561e-7 8.452955790726923e-7 8.452866582468958e-7
          0.00000110575428460573 0.0000011057510016544669 0.0000011057416427533707 0.0000013664552649159447 0.0000013664516943326176 0.0000013664409266851346
          0.000001627413421442086 0.0000016274095378076818 0.0000016273980395603947 0.000001888623365670617 0.0000018886194057933188 0.000001888607632389246
          0.0000021500649757369734 0.000002150061038198813 0.0000021500493809821768 0.0000024117071891217837 0.000002411703456291761 0.0000024116922372674594
          0.0000026735134917908237 0.00000267350984979596 0.0000026734995327581804 0.000002935445364606068 0.0000029354419385300522 0.000002935431106145562
          8.450725508324265e-7 8.450691885160828e-7 8.450583650838326e-7 0.0000011055278933963273 0.0000011055239318223582 0.000001105512604704767
          0.0000013662686631836112 0.0000013662644033877237 0.0000013662515026254305 0.000001627303531316559 0.0000016272989487441873 0.0000016272853164347079
          0.0000018886195020153754 0.0000018886148794198188 0.0000018886010892491637 0.0000021501864590383294 0.000002150181934180809 0.0000021501684463267365
          0.0000024119627559114316 0.0000024119584600991457 0.000002411945680465803 0.0000026739008957783452 0.0000026738969219625806 0.0000026738850487966467
          0.000002935952538352132 0.0000029359488297513997 0.0000029359379856788937 8.44832941712722e-7 8.448288056433271e-7 8.448155277876692e-7
          0.0000011053014545690672 0.0000011052966375060738 0.0000011052828193786473 0.0000013661047582713123 0.0000013660996382160623 0.0000013660840685743338
          0.0000016272455139035236 0.0000016272400718274106 0.000001627223817549987 0.0000018886996342384518 0.0000018886942208033487 0.0000018886779958047306
          0.00000215042343270135 0.0000021504181975972993 0.000002150402559272579 0.0000024123612540961093 0.00000241235637254604 0.000002412341722056853
          0.000002674453373670542 0.000002674448910372272 0.000002674435710051435 0.0000029366416286338176 0.0000029366375811160937 0.00000293662536054656
          0.0000011050860171646173 0.000001105080086737894 0.0000011050630751040711 0.0000013659835116810913 0.0000013659773017506699 0.0000013659583819939998
          0.0000016272686826130568 0.0000016272621771399338 0.0000016272426992986535 0.0000018889015877738654 0.0000018888952193757683 0.0000018888760665876253
          0.000002150820258415049 0.0000021508141996140495 0.000002150796038884504 0.000002412951147373485 0.0000024129455845285053 0.0000024129288323218486
          0.0000026752197530919393 0.0000026752147707117108 0.000002675199990279687 0.000002937559746875238 0.0000029375553409250187 0.0000029375424170413257
          0.0000011048984528249742 0.0000011048910884865997 0.0000011048699682749673 0.0000013659337972958366 0.0000013659262030646203 0.000001365903050369932
          0.0000016274141555994605 0.0000016274063359069956 0.0000016273828862226715 0.0000018892768401416865 0.000001889269318957594 0.000001889246668102153
          0.000002151435513599721 0.00000215142849699362 0.0000021514073988059436 0.0000024137948550509085 0.000002413788557418052 0.0000024137695461940188
          0.0000026762618732675796 0.0000026762562168862375 0.000002676239403094397 0.000002938755620434581 0.0000029387509151307667 0.000002938735710742503
          0.0000011047644933353321 0.000001104755263984894 0.0000011047287851715071 0.000001365997893653735 0.0000013659885378644079 0.0000013659600065659657
          0.0000016277399570813724 0.0000016277305069921056 0.0000016277021678220023 0.0000018898955863634644 0.0000018898866913203453 0.000001889859882856642
          0.000002152346394115237 0.0000021523382442979074 0.000002152313788085539 0.000002414970320865785 0.000002414963234800987 0.0000024149416446179315
          0.0000026776582958123023 0.000002677652182155088 0.000002677634569803255 0.000002940323570892718 0.0000029403184447661955 0.0000029403021828554225
          0.0000011047239325001164 0.0000011047122388026445 0.0000011046787244366602 0.0000013662382561921672 0.0000013662266651722755 0.0000013661912789072712
          0.0000016283284935332285 0.0000016283170227047255 0.0000016282826959280933 0.0000018908537894341382 0.0000018908432672853829 0.0000018908115459537896
          0.0000021536542939067813 0.000002153644860941045 0.0000021536166904394536 0.00000241657691198838 0.000002416568845089189 0.0000024165441568985306
          0.0000026794907880981165 0.0000026794843787413726 0.0000026794650725296055 0.000002942290915787136 0.0000029422852203396483 0.0000029422699023815816
          0.0000013667481339570661 0.0000013667336719677792 0.0000013666895918674488 0.0000016292972991951016 0.0000016292833643588197 0.0000016292416938796301
          0.0000018922824852472794 0.000001892270039887266 0.0000018922326465784883 0.0000021554920932892765 0.000002155481277493365 0.0000021554489184813455
          0.0000024187392045687044 0.0000024187302444468207 0.000002418702999277022 0.0000026818782366233463 0.000002681871151627148 0.000002681850163328308
          0.0000029448240767927015 0.0000029448182464190785 0.0000029448007598406036 0.0000013676679364876597 0.0000013676498260886028 0.0000013675945410334576
          0.0000016308145701064183 0.0000016307976482215204 0.0000016307471415954844 0.0000018943598839795983 0.0000018943452899908385 0.0000018943014519695468
          0.0000021580309461163173 0.0000021580186481927345 0.0000021579820472837667 0.0000024216094235703325 0.0000024215997012457267 0.00000242156981744644
          0.000002684946385438956 0.00000268493892048515 0.000002684917518429145 0.0000029479654871810264 0.000002947959370283683 0.0000029479407516013204
          0.000001369210323459853 0.000001369187568065179 0.0000013691180687345991 0.0000016331214467604786 0.0000016331009963446485 0.0000016330400271378503
          0.00000189732626411931 0.0000018973093454158726 0.0000018972585540787294 0.000002161486807982675 0.000002161473101618054 0.0000021614324060098715
          0.0000024253650540914963 0.00000242535470958428 0.0000024253227692950358 0.000002688822644806478 0.0000026888150977265523 0.0000026887938817608327
          0.0000013717011902650148 0.0000013716726912527293 0.000001371585508388998 0.0000016365622414898426 0.0000016365377524021465 0.0000016364648470020003
          0.000001901500128176459 0.0000019014808931599503 0.0000019014230847494694 0.0000021661236166567673 0.000002166108747599716 0.000002166064747906983
          0.0000024302040178717435 0.0000024301934419548457 0.0000024301604751484196 0.0000034453074831362453 0.000003170970528575132 0.000003168069302402608
          0.000003403804470973449 0.00000344530434838052 0.000003170966859394951 0.000003168065873161205 0.000003403801536165451 0.0000034452944707274102
          0.0000031709556788234835 0.0000031680549396662498 0.0000034037939067314194 0.0000033795742142253214 0.0000033545397261648226 0.000003146969681775276
          0.0000031546887674189023 0.000003379572405533036 0.000003354537771922139 0.000003146967691513333 0.0000031546869028685202 0.000003379566662943519
          0.000003354531583420799 0.0000031469622421262165 0.0000031546816457058925 0.0000033231759009353235 0.0000031685134776303745 0.0000031308204707991782
          0.0000033231716092286193 0.000003168508565652733 0.0000031308155098001564 0.000003323160221905621 0.000003168492685818441 0.0000031307994951861703
          0.00000347490552268844 0.0000034749019158820377 0.0000034748905420528216 0.000003153672788643722 0.0000031384023103489293 0.000003344006237913771
          0.0000033845637381152864 0.0000031536694177352313 0.0000031383993601313758 0.0000033440036699707618 0.000003384561052619063 0.000003153659529990536
          0.0000031383897555865094 0.0000033439967836828402 0.000003384552503708514 0.00000337232079451141 0.0000031513277524967845 0.0000033723192414277005
          0.00000315132609667311 0.000003372314430169442 0.000003151321173844938 0.0000036286848762181998 0.0000037906978827496844 0.00000366172058555111
          0.000003628681935952653 0.000003790695391512168 0.0000036617176266569425 0.0000036286739616777585 0.000003790687984531632 0.0000036617082191618543
          0.0000031435916199038545 0.0000033532842695898044 0.000003143590082026191 0.000003353282841608735 0.000003143585665736923 0.0000033532783555804036
          0.0000031908587013386923 0.0000034866232791980783 0.0000031908542085223137 0.0000034866197228559174 0.000003190840820489481 0.0000034866084070330486
          0.0000033938732500698057 0.0000033938711526553737 0.0000033938642412057613 0.000003637752167156613 0.00000388136300234373 0.0000036377496107194025
          0.000003881360609796281 0.000003637741732575856 0.0000038813528050105655 0.000003176112314297712 0.000003359085536578747 0.0000031761081415196663
          0.000003359081927199027 0.0000031760974679105128 0.0000033590718555818564 0.000003131264239202706 0.000003277882165018637 0.000003131261444837468
          0.000003277879689542058 0.0000031312537669307408 0.0000032778728748089754 0.000003152271326386817 0.000003198508866571977 0.000003152269098989059
          0.0000031985065092779934 0.000003152263063520751 0.00000319849958838777 0.000003134252621747146 0.000003134251192961564 0.00000313424728618674
          0.0000031325693184969154 0.0000031248938739141167 0.0000031325682300713846 0.000003124892460323893 0.000003132564081366798 0.0000031248887222290795
          0.0000033073576230475567 0.0000033073556868563468 0.0000033073490629367494 0.000003124861677123381 0.0000031248604402765986 0.0000031248578631906384
          0.0000030821619624671605 0.0000030821570457488845 0.00000308214010966493 0.000003090431778785608 0.000003090430389051877 0.0000030904273408530276
          0.0000033317300192693276 0.000003331728716346823 0.0000033317244805767605 0.0000033158566609217017 0.000003315855353365534 0.000003315851831913831
          0.0000032591174590546973 0.0000032591162684252355 0.0000032591127502458887 0.00000295180893838114 0.000002951802942798895 0.0000029517844849126694
          0.000002693644950484652 0.000002693637862271363 0.0000026936182584284656 0.000002956452114988166 0.0000029564466244792228 0.000002956429826908779
          0.0000016416208304230108 0.0000013756410107049598 0.000001641592105813889 0.0000013756055932539198 0.000001641506552875889 0.000001375497080019606
          0.0000019072892313865167 0.00000190726803072347 0.0000019072042783737126 0.0000021722464030755363 0.0000021722310261479875 0.0000021721855056344975
          0.0000024363274477893365 0.0000024363173208893075 0.0000024362853926857407 0.0000026995306776477205 0.0000026995246737207062 0.000002699508912278585
          0.0000034564184279586644 0.000003456415029995532 0.00000345640564703867 0.000003636414213430643 0.000003636411106833372 0.0000036364008054071995
          0.0000035549764160237693 0.0000036665686834587295 0.000003554974269063065 0.0000036665662245172797 0.000003554967563271619 0.000003666559199060797
          0.000004021653642756769 0.000003865966900194176 0.000004021651629419621 0.000003865964602172826 0.0000040216456685192285 0.000003865958918413564
          0.000003618447373053105 0.000003604539479784639 0.000003618445749224357 0.000003604537636246948 0.0000036184406695835646 0.0000036045322138956038
          0.000003595719821316352 0.0000035957183474630084 0.0000035957141381105386 0.0000037429720031861187 0.0000037429692312895555 0.0000037429602587727884
          0.0000034817110029854957 0.0000037040477808483528 0.000003481708953468824 0.00000370404596837864 0.000003481702368320864 0.0000037040410491275676
          0.000004154948853949062 0.000004154946840233966 0.000004154940689458017 0.000004233331582452487 0.000003950826040615657 0.000004233329831337377
          0.000003950823725543032 0.000004233324495237757 0.000003950816828948042 0.0000031721093817000606 0.000003172104620656623 0.000003172089028973032
          0.0000035655817122215876 0.00000356558035652791 0.0000035655763289577214 0.000003236170053969549 0.0000033499767545805097 0.000003236168792942206
          0.000003349975646619097 0.00000323616500103577 0.0000033499722370010263 0.000003531102421278371 0.0000035311011122580136 0.000003531097197011417
          0.000003478569695990084 0.000003478568487959803 0.000003478564887580542 0.0000034092706209942814 0.000003409267663717362 0.0000034092604488760436
        </DataArray>
        <DataArray type="Float64" Name="disp_y" format="ascii" RangeMin="-0.0000016885061077992893" RangeMax="0">
          -7.150246092310589e-8 0 -7.15023001471316e-8 0 -7.150184268161262e-8 0
          -7.162796485189333e-8 0 -7.162784011873794e-8 0 -7.162744808185276e-8 0
          -7.17698072642953e-8 0 -7.176969323756427e-8 0 -7.176938050865493e-8 0
          -7.19232352659149e-8 0 -7.192315176682317e-8 0 -7.19229231316945e-8 0
          -7.208346629252031e-8 0 -7.208341557920328e-8 0 -7.208326799341452e-8 0
          -7.22457376299408e-8 0 -7.224569896651524e-8 0 -7.224563338262e-8 0
          -7.240566657123421e-8 0 -7.24057054914113e-8 0 -7.240563190538499e-8 0
          -7.256089919278826e-8 0 -7.256084852246197e-8 0 -7.256146610771451e-8 0
          -1.429969579537513e-7 -1.4299667443560083e-7 -1.4299576375518726e-7 -1.432502908982878e-7 -1.4325001910425377e-7 -1.432492343509403e-7
          -1.4353632024634894e-7 -1.4353611047897333e-7 -1.4353548858171927e-7 -1.4384561182846537e-7 -1.4384545232886107e-7 -1.4384500390744068e-7
          -1.441684118704394e-7 -1.441683086345349e-7 -1.441680338329088e-7 -1.4449513349554723e-7 -1.4449508215366806e-7 -1.4449497183045275e-7
          -1.4481690098074226e-7 -1.4481689879348826e-7 -1.4481694965398466e-7 -1.4512622208863706e-7 -1.4512628346285493e-7 -1.4512620935914426e-7
          -2.144757613169006e-7 -2.1447529939155302e-7 -2.1447389850548384e-7 -2.148613396513312e-7 -2.1486093806235072e-7 -2.1485974257128875e-7
          -2.152964241424811e-7 -2.152961017689043e-7 -2.1529515818378472e-7 -2.1576644006483742e-7 -2.157661995120511e-7 -2.1576552169584126e-7
          -2.1625640560065085e-7 -2.162562490891529e-7 -2.1625584162692962e-7 -2.1675170512386864e-7 -2.1675163596384594e-7 -2.1675149878850492e-7
          -2.1723870309624588e-7 -2.1723871815097286e-7 -2.1723885143828592e-7 -2.1770472201143545e-7 -2.177048276503096e-7 -2.1770527666884053e-7
          -2.859307645137852e-7 -2.8593012060112004e-7 -2.8592819056876576e-7 -2.864556005170329e-7 -2.86455054649022e-7 -2.8645342484795394e-7
          -2.870471739100462e-7 -2.870467363982784e-7 -2.870454544631235e-7 -2.876853000062795e-7 -2.876849754014196e-7 -2.8768405883427726e-7
          -2.883493483019858e-7 -2.883491415990352e-7 -2.883485985901783e-7 -2.89019311872476e-7 -2.8901922367982305e-7 -2.8901905043414353e-7
          -2.896764898477322e-7 -2.8967652347771607e-7 -2.8967670263639315e-7 -2.903032998497143e-7 -2.9030347196570146e-7 -2.9030401555548665e-7
          -3.5735388603349414e-7 -3.573530397311117e-7 -3.573505374161606e-7 -3.5802771265464873e-7 -3.580270130777924e-7 -3.580249154082845e-7
          -3.587860431138822e-7 -3.587854839284451e-7 -3.5878384352625083e-7 -3.5960237736961724e-7 -3.5960196767720555e-7 -3.5960080280993705e-7
          -3.6044987743295746e-7 -3.604496217159778e-7 -3.6044894156475096e-7 -3.613027023024803e-7 -3.6130259921782166e-7 -3.613023931059593e-7
          -3.6213693457417773e-7 -3.621369816556168e-7 -3.621372284415417e-7 -3.629313779080497e-7 -3.6293157026995783e-7 -3.629322331416556e-7
          -4.2873693908563845e-7 -4.287358791950074e-7 -4.287327342299867e-7 -4.295726272899787e-7 -4.2957176231889265e-7 -4.2956916541349114e-7
          -4.3051109474109867e-7 -4.305104080596731e-7 -4.3050838481067837e-7 -4.315187027774495e-7 -4.315182068866183e-7 -4.315167856226441e-7
          -4.325616837657211e-7 -4.3256138295346326e-7 -4.325605698709576e-7 -4.336078008958039e-7 -4.3360769124044096e-7 -4.3360746821964576e-7
          -4.3462770927499573e-7 -4.346277784048413e-7 -4.346281055810351e-7 -4.355960358767288e-7 -4.3559627861601393e-7 -4.3559708785442085e-7
          -4.992193006737341e-7 -4.9921783182914e-7 -4.992134832888056e-7 -5.000718383422489e-7 -5.000705491848026e-7 -5.000667179764773e-7
          -5.010857095950285e-7 -5.010846636236856e-7 -5.010815187534175e-7 -5.022211925341855e-7 -5.022203676865338e-7 -5.022179351706478e-7
          -5.034364105526393e-7 -5.03435829667434e-7 -5.034341484486552e-7 -5.046897874999321e-7 -5.046894487716061e-7 -5.046885149468926e-7
          -5.059419452482643e-7 -5.059418400811786e-7 -5.059416280664894e-7 -5.071575399739139e-7 -5.0715765110084e-7 -5.071580937705386e-7
          -5.08306673859872e-7 -5.083069713049431e-7 -5.083079502801162e-7 -5.703279360348916e-7 -5.703261621772069e-7 -5.703208380816123e-7
          -5.713503681966466e-7 -5.713488308062684e-7 -5.713442454595822e-7 -5.725628489115825e-7 -5.725615900743839e-7 -5.725578379082625e-7
          -5.739162131475201e-7 -5.739152461570926e-7 -5.739123857397014e-7 -5.753590442622056e-7 -5.753583797119873e-7 -5.753564400545816e-7
          -5.768408179400866e-7 -5.768404509221107e-7 -5.768394236274295e-7 -5.783142133387244e-7 -5.783141335174355e-7 -5.783139698873733e-7
          -5.797369857188451e-7 -5.797371615711308e-7 -5.797378126305203e-7 -5.810745424992546e-7 -5.810749531606945e-7 -5.810762589938898e-7
          -6.41348779766443e-7 -6.41346638953318e-7 -6.413403094716038e-7 -6.425642032038466e-7 -6.425623922045736e-7 -6.425569708198741e-7
          -6.440006462767522e-7 -6.43999162903715e-7 -6.439947584644448e-7 -6.455974478081025e-7 -6.455963312854355e-7 -6.455930201017738e-7
          -6.47291964923057e-7 -6.472912188806254e-7 -6.472890301120562e-7 -6.490233541037728e-7 -6.490229744187995e-7 -6.49021887130318e-7
          -6.507356516856382e-7 -6.50735613133111e-7 -6.507355779544356e-7 -6.523791109869126e-7 -6.523794167754998e-7 -6.523803352603198e-7
          -6.539114365833482e-7 -6.539119963488086e-7 -6.539138861245372e-7 -7.122681745867971e-7 -7.122656382482142e-7 -7.1225812003356e-7
          -7.137053474695454e-7 -7.13703205618526e-7 -7.136968216604285e-7 -7.15396846247295e-7 -7.153951186083377e-7 -7.15389994639264e-7
          -7.172680673940237e-7 -7.172667921158939e-7 -7.172630095251167e-7 -7.192429244898532e-7 -7.192421042764009e-7 -7.192396833199473e-7
          -7.212486450091623e-7 -7.212482659665696e-7 -7.212471659194578e-7 -7.232193232539035e-7 -7.232193583553197e-7 -7.232195025420447e-7
          -7.250990643079127e-7 -7.250994749995772e-7 -7.251008212045861e-7 -7.268363470205142e-7 -7.268371637321666e-7 -7.268397116069137e-7
          -7.830716712279882e-7 -7.830686543840908e-7 -7.83059743047714e-7 -7.847661787001728e-7 -7.847636641692251e-7 -7.847561742315586e-7
          -7.867508449131992e-7 -7.867488475697611e-7 -7.867429294175093e-7 -7.889338365096621e-7 -7.889323994688487e-7 -7.889281318053327e-7
          -7.912228845908472e-7 -7.912220032360268e-7 -7.91219389286057e-7 -7.935312500815353e-7 -7.93530896732267e-7 -7.935298484795058e-7
          -7.957822503676746e-7 -7.957823803937205e-7 -7.957828104373466e-7 -7.979113495470682e-7 -7.979118772159462e-7 -7.979133736879796e-7
          -7.99873007451657e-7 -7.998739590520727e-7 -7.998770588762522e-7 -8.537440218214242e-7 -8.537404542781956e-7 -8.537299015417265e-7
          -8.557400388419222e-7 -8.557371032013312e-7 -8.557283496684442e-7 -8.580644770336013e-7 -8.580621884731189e-7 -8.58055400543501e-7
          -8.606040511770286e-7 -8.606024556926398e-7 -8.605977090699761e-7 -8.632469088828468e-7 -8.632459892187574e-7 -8.632432491940093e-7
          -8.658901132427272e-7 -8.658898258241336e-7 -8.658889643465299e-7 -8.684448770970769e-7 -8.684451539022761e-7 -8.684459606853776e-7
          -8.708398612791862e-7 -8.708405948604599e-7 -8.70842835269529e-7 -8.730220873218402e-7 -8.73023163825544e-7 -8.730259857291203e-7
          -9.242693656412062e-7 -9.242651593073079e-7 -9.242526880259329e-7 -9.266218477718382e-7 -9.266184316637023e-7 -9.266082350467561e-7
          -9.29343032623167e-7 -9.293404342805623e-7 -9.293327098760681e-7 -9.322927404615154e-7 -9.322909980604158e-7 -9.322858061141425e-7
          -9.353353337526467e-7 -9.353344134599146e-7 -9.353316662410793e-7 -9.383491254708974e-7 -9.383489620369929e-7 -9.383484519289933e-7
          -9.412324611252557e-7 -9.412329572699159e-7 -9.412344218727937e-7 -9.439068403550816e-7 -9.439079010188498e-7 -9.439110500950213e-7
          -9.463151320471179e-7 -9.463164802569077e-7 -9.463209885720007e-7 -9.946313814236994e-7 -9.946264135425748e-7 -9.94611642169204e-7
          -9.974089894353898e-7 -9.974050262817738e-7 -9.973931820790098e-7 -0.000001000596701536275 -0.0000010005937746900533 -0.0000010005850666892947
          -0.0000010040202849801922 -0.0000010040184218050058 -0.000001004012862781889 -0.0000010075152070209646 -0.0000010075143446357624 -0.0000010075117645051584
          -0.000001010938302650764 -0.0000010109383388708071 -0.0000010109384308445912 -0.0000010141745716020155 -0.0000010141753835544692 -0.0000010141777547805694
          -0.0000010171384674063065 -0.0000010171399066468525 -0.0000010171441703598078 -0.000001019774968857144 -0.0000010197769410250358 -0.000001019782293705989
          -0.0000010681028206385803 -0.0000010680982385536819 -0.0000010680845293380486 -0.0000010718426633178255 -0.0000010718394122653844 -0.0000010718297008234168
          -0.0000010758155905398198 -0.0000010758136546747699 -0.0000010758078813669574 -0.000001079822204783362 -0.0000010798214870751343 -0.000001079819341728275
          -0.0000010836951811994704 -0.0000010836955285493872 -0.00000108369654557568 -0.000001087306162417805 -0.000001087307393567252 -0.0000010873110424739511
          -0.000001090566926381992 -0.0000010905688562407595 -0.0000010905745973796942 -0.0000010934212074456947 -0.0000010934236870233049 -0.0000010934314864076694
          -0.0000011387111730729433 -0.0000011387059188288953 -0.0000011386901331913775 -0.000001143108092172052 -0.0000011431045202247375 -0.0000011430938597196802
          -0.0000011477190214529232 -0.0000011477171048548092 -0.0000011477113789053779 -0.000001152302903372937 -0.0000011523024636300994 -0.0000011523011528168283
          -0.0000011566663058538106 -0.0000011566671155529947 -0.0000011566695307629244 -0.0000011606690037247352 -0.0000011606708172957414 -0.0000011606762021601625
          -0.0000011642231547384278 -0.0000011642256947128494 -0.0000011642331428916662 -0.0000011672854806911544 -0.0000011672885233521326 -0.0000011672972789350766
          -0.00000120925172420069 -0.0000012092457252617249 -0.0000012092276566495664 -0.0000012144343525312413 -0.0000012144305313196284 -0.0000012144191137310868
          -0.0000012197862022117437 -0.0000012197844536857818 -0.0000012197792210794617 -0.000001225017431760169 -0.0000012250174666744347 -0.000001225017584680813
          -0.000001229908107296155 -0.0000012299095939009115 -0.0000012299140612886808 -0.0000012343112941377024 -0.0000012343139227708185 -0.0000012343217089015844
          -0.0000012381430454551036 -0.0000012381464222157976 -0.0000012381567767600346 -0.0000012413879589129923 -0.0000012413917087991016 -0.000001241401966352254
          -0.000001279757724992187 -0.0000012797509579666894 -0.00000127973060688928 -0.0000012858830387263224 -0.0000012858791100744179 -0.0000012858673456110075
          -0.000001292092830494141 -0.000001292091488117585 -0.0000012920874799676622 -0.000001298042102011413 -0.0000012980428980133752 -0.0000012980453133380289
          -0.000001303487742888373 -0.0000013034902056169985 -0.0000013034975922936723 -0.000001308283897714671 -0.0000013082875751503282 -0.0000013082986131096922
          -0.0000013123669705904052 -0.000001312371483524616 -0.000001312385053156806 -0.0000013157132894141428 -0.0000013157181233795584 -0.0000013157331793058335
          -0.0000013575442260027635 -0.0000013575404409035911 -0.0000013575291244972409 -0.0000013647403756118115 -0.0000013647398205119756 -0.000001364738184621024
          -0.0000013714718997386108 -0.0000013714738806282793 -0.000001371479847251079 -0.0000013774817790748034 -0.0000013774856071397034 -0.000001377497101965652
          -0.0000013826415177713097 -0.0000013826465870512292 -0.0000013826617708410954 -0.0000013869178492801782 -0.000001386923616875149 -0.000001386940800128481
          -0.00000139034014162505 -0.0000013903463690130575 -0.0000013903645695588888 -0.000001429547315288579 -0.000001429544134918118 -0.0000014295346813136622
          -0.0000014378623824057903 -0.000001437863209591241 -0.0000014378657333968308 -0.0000014454211581093192 -0.0000014454249223131504 -0.0000014454362324834137
          -0.0000014519735108255214 -0.0000014519792351806389 -0.0000014519964179641582 -0.000001457433086137704 -0.0000014574399972285711 -0.0000014574606416316298
          -0.0000014618241488706025 -0.000001461831528666312 -0.000001461853922816928 -0.0000014652434478279856 -0.0000014652509196536305 -0.0000014652725346442328
          -0.0000015020757636636798 -0.0000015020739836987712 -0.000001502068849774543 -0.0000015116297591396274 -0.0000015116328895028492 -0.000001511642318028117
          -0.000001520020455769657 -0.0000015200268532350967 -0.0000015200460339195132 -0.0000015270437054870698 -0.0000015270520434407923 -0.0000015270769803445636
          -0.0000015326938031197286 -0.0000015327030884235003 -0.0000015327308562002092 -0.0000015370812584799097 -0.000001537090715578398 -0.0000015371192516576825
          -0.0000015753835016275387 -0.0000015753845646639064 -0.0000015753878230790777 -0.0000015862514057490916 -0.0000015862581868201978 -0.000001586278591582555
          -0.0000015954052700653258 -0.0000015954154679451214 -0.0000015954460275347522 -0.000001602754320311548 -0.0000016027661667739444 -0.0000016028016235492142
          -0.0000016084270852924278 -0.0000016084393819340215 -0.0000016084761361061722 -0.0000011166438792829182 -0.000001104312066831578 -0.0000010281843467938348
          -0.000001031076443181431 -0.0000011166472099435236 -0.0000011043149112908622 -0.0000010281865240217251 -0.0000010310786318796798 -0.0000011166566354288631
          -0.0000011043231689361276 -0.0000010281929649356077 -0.000001031085735321292 -5.380649042142537e-7 -6.192813333185784e-7 -6.302801310989531e-7
          -5.555999695273943e-7 -5.380655229786979e-7 -6.192822139434109e-7 -6.302808200738686e-7 -5.55600526520921e-7 -5.380669918074881e-7
          -6.192848022062267e-7 -6.302831838070262e-7 -5.556020325731857e-7 -0.0000013316414217613995 -0.0000014380838837633943 -0.0000013657488878366986
          -0.00000133164674521796 -0.0000014380910064770808 -0.0000013657548945598307 -0.0000013316632582449768 -0.0000014381127440531597 -0.000001365774055375604
          -0.0000013012265812317663 -0.0000013012316193370253 -0.0000013012470199177163 -9.537703489565408e-7 -8.817125649007167e-7 -8.741209091145007e-7
          -9.500546500499339e-7 -9.537719586057787e-7 -8.817141520735396e-7 -8.741226322316962e-7 -9.500566180355902e-7 -9.537771921990696e-7
          -8.817171662241434e-7 -8.741279764805381e-7 -9.500621541830122e-7 -4.527475177390176e-7 -4.79587309037441e-7 -4.5274803669970734e-7
          -4.795876671132371e-7 -4.527497133845241e-7 -4.795888996419735e-7 -0.0000010889230679538554 -0.0000011158754992292975 -0.0000011704264659878554
          -0.000001088926028552557 -0.0000011158789777051726 -0.000001170430511107347 -0.0000010889362487292673 -0.0000011158908108260957 -0.0000011704429928041582
          -4.024049063422696e-7 -3.725076808238024e-7 -4.024052358924452e-7 -3.725081345721202e-7 -4.024063301055019e-7 -3.7250949030958974e-7
          -0.0000012618603752174292 -0.000001234647464471686 -0.000001261864788796912 -0.0000012346518104467304 -0.0000012618768936003783 -0.000001234664537953934
          -7.094980373800108e-7 -7.094992305763682e-7 -7.095025528873362e-7 -0.000001034132091076971 -0.000001054274320772394 -0.000001034134865353745
          -0.00000105427714377915 -0.0000010341414065733107 -0.0000010542847049139166 -0.0000011761949352405684 -0.0000011772156563018474 -0.000001176198430861173
          -0.0000011772195743444809 -0.0000011762099348232841 -0.0000011772307894815193 -8.32523185648612e-7 -8.084033226253864e-7 -8.3252442948303e-7
          -8.084047495768005e-7 -8.325291175094393e-7 -8.084105738911948e-7 -6.952764697179086e-7 -7.526935990846716e-7 -6.952774328430537e-7
          -7.5269484291443e-7 -6.952797220138622e-7 -7.526984607317963e-7 -3.270096925503479e-7 -3.2700993646259036e-7 -3.2701070588148387e-7
          -1.8227539669670656e-7 -2.554373010271828e-7 -1.8227543465442943e-7 -2.5543750772912736e-7 -1.822762864990216e-7 -2.554379833146182e-7
          -6.740521014378442e-7 -6.740528831809363e-7 -6.740568604897978e-7 -1.1722788248874745e-7 -1.1722803941773492e-7 -1.1722759878625148e-7
          -0.0000013164929709097006 -0.000001316498216451639 -0.0000013165130682247039 -7.070807305432937e-8 -7.070807125846836e-8 -7.070756031648492e-8
          -2.9453912637721055e-7 -2.945393310762519e-7 -2.9454024496146575e-7 -2.1215153694457466e-7 -2.121519114182835e-7 -2.1215222236036852e-7
          -1.7489898011171183e-7 -1.7489913837521827e-7 -1.7490028504567494e-7 -0.0000015403677616707732 -0.0000015403768025880787 -0.000001540403778223422
          -0.0000016126490793149873 -0.0000016126608990055512 -0.0000016126966414504206 -0.0000016156691057235304 -0.0000016156800184549645 -0.000001615712272327147
          -0.000001661961047702658 -0.0000016498075891471203 -0.0000016619735611696809 -0.0000016498137649005142 -0.0000016620110008162816 -0.000001649832454944936
          -0.0000016716906036245747 -0.0000016717061049670714 -0.0000016717525981350287 -0.000001679121216869554 -0.0000016791375461869423 -0.0000016791865568625263
          -0.0000016845824424239542 -0.0000016845983372373163 -0.000001684645965214672 -0.0000016884473630210811 -0.0000016884619455231366 -0.0000016885061077992893
          -0.000001405273614780275 -0.0000014052799567728452 -0.0000014052989127562969 -0.0000013264841216331648 -0.0000013264893248143313 -0.0000013265047525942957
          -8.464493741656535e-7 -9.395419209637345e-7 -8.4645117876309e-7 -9.395439656056273e-7 -8.46456702267972e-7 -9.395508184188375e-7
          -0.0000011557996907001002 -0.0000012111346804121992 -0.0000011558036573232213 -0.0000012111390852266312 -0.000001155816019193099 -0.0000012111521092206374
          -5.244362729492136e-7 -6.370657334786693e-7 -5.244370342374681e-7 -6.370667129930811e-7 -5.244393728589327e-7 -6.370695900628585e-7
          -4.308471614996742e-7 -4.3084780445023316e-7 -4.308499312414255e-7 -0.0000012658270979782813 -0.0000012658317050969827 -0.0000012658453748244556
          -7.708409418846981e-7 -7.281108967721145e-7 -7.708424295840346e-7 -7.28112188923246e-7 -7.708460733863737e-7 -7.28116664193688e-7
          -0.0000010917214501770453 -0.0000010917245748958907 -0.000001091733378172375 -0.0000010178116884007455 -9.84012785937404e-7 -0.000001017814303175002
          -9.840151666695789e-7 -0.000001017821467291601 -9.840226172540224e-7 -0.0000015147752056254288 -0.000001514783502827355 -0.0000015148084942741943
          -3.442638249430284e-7 -3.442642721216952e-7 -3.4426549730345974e-7 0 -1.1464012950178071e-7 0
          -1.1464008292834033e-7 0 -1.1464025333383894e-7 -2.6472009445214436e-7 -2.6472048700701785e-7 -2.6472147253217243e-7
          -1.9113296060678027e-7 -1.9113323037697872e-7 -1.9113447043054696e-7 -0.0000015024639916055163 -0.000001502471669684511 -0.0000015024944601547015
        </DataArray>
        <DataArray type="Float64" Name="disp_z" format="ascii" RangeMin="-5.3623292454073806e-8" RangeMax="0">
          0 0 -2.657905477957636e-8 -2.6578629842456524e-8 -5.315820847312277e-8 -5.315736618498069e-8
          0 0 -2.657340847505933e-8 -2.657305080616063e-8 -5.31467864507102e-8 -5.314607645502717e-8
          0 0 -2.656695361428718e-8 -2.6566674113149514e-8 -5.3133909042730257e-8 -5.3133329288918894e-8
          0 0 -2.6559810649910487e-8 -2.6559584618858107e-8 -5.3119615376775404e-8 -5.311918550029299e-8
          0 0 -2.655216910981124e-8 -2.6552036797843517e-8 -5.3104358350173325e-8 -5.310407153475064e-8
          0 0 -2.65442593486051e-8 -2.654415139431988e-8 -5.308846346713945e-8 -5.30883659373337e-8
          0 0 -2.6536367236212404e-8 -2.653611958127909e-8 -5.3072712898026345e-8 -5.307206332913655e-8
          0 0 -2.6526366056119833e-8 -2.652867758447638e-8 -5.305279864048285e-8 -5.305799125701686e-8
          0 -2.658028867551147e-8 -5.31606789798608e-8 0 -2.6574487499425472e-8 -5.314894503219802e-8
          0 -2.6567809380283676e-8 -5.313561522190635e-8 0 -2.6560443637288604e-8 -5.3120882384720537e-8
          0 -2.6552570847083473e-8 -5.310517034814844e-8 0 -2.6544482845837265e-8 -5.308887127679682e-8
          0 -2.6536336870404384e-8 -5.307282653353651e-8 0 -2.652688329041484e-8 -5.3053687071474343e-8
          0 -2.6582412827884912e-8 -5.316492069811201e-8 0 -2.657630537888388e-8 -5.3152582632626745e-8
          0 -2.6569255085110238e-8 -5.31385127053848e-8 0 -2.6561502738577403e-8 -5.312300168961793e-8
          0 -2.6553234703038373e-8 -5.310649251949259e-8 0 -2.6544745130986897e-8 -5.308941169025651e-8
          0 -2.6536158410183187e-8 -5.307243447181126e-8 0 -2.652643685876586e-8 -5.305258637386556e-8
          0 -2.658546144738388e-8 -5.3171014320738764e-8 0 -2.6578905457577434e-8 -5.315778558056383e-8
          0 -2.657131463897434e-8 -5.314263416910983e-8 0 -2.656300011857321e-8 -5.312599548517297e-8
          0 -2.6554149044881148e-8 -5.310832349693517e-8 0 -2.6545076721316388e-8 -5.309007027122516e-8
          0 -2.6535942795249745e-8 -5.3072005760131415e-8 0 -2.6525455351294114e-8 -5.305080660606216e-8
          0 -2.6589510596349594e-8 -5.317911509907533e-8 0 -2.6582339169984433e-8 -5.316465308078035e-8
          0 -2.657401910381366e-8 -5.3148047083889216e-8 0 -2.6564947644064103e-8 -5.31298896318635e-8
          0 -2.6555318606039905e-8 -5.311066440815667e-8 0 -2.6545485611604556e-8 -5.309088105671519e-8
          0 -2.6535602336464938e-8 -5.307134473329055e-8 0 -2.6524387596401537e-8 -5.30486248603667e-8
          0 -2.6594654938307216e-8 -5.318939006087117e-8 0 -2.6586671064069466e-8 -5.3173321227318896e-8
          0 -2.6577408845078824e-8 -5.3154827094047534e-8 0 -2.6567358653550185e-8 -5.3134712345631496e-8
          0 -2.65567393668015e-8 -5.311350414816574e-8 0 -2.654593841415452e-8 -5.3091790921750394e-8
          0 -2.6535119901450996e-8 -5.3070374462656925e-8 0 -2.6523120769834305e-8 -5.304610874490637e-8
          0 -2.660867074278574e-8 -5.321705456273287e-8 0 -2.6601071479617587e-8 -5.320227511785425e-8
          0 -2.6591970084930354e-8 -5.3183902485212e-8 0 -2.6581522818828245e-8 -5.3163062323758814e-8
          0 -2.657024346657204e-8 -5.3140480278350245e-8 0 -2.6558390087739723e-8 -5.3116804277936195e-8
          0 -2.654639158603065e-8 -5.309270251783305e-8 0 -2.6534467649870807e-8 -5.306906410030179e-8
          0 -2.6521568970769974e-8 -5.304299503684731e-8 0 -2.6617578042693926e-8 -5.3234882363489084e-8
          0 -2.6608809742077064e-8 -5.3217758885517005e-8 0 -2.6598324383043885e-8 -5.319661524193082e-8
          0 -2.658641806655795e-8 -5.3172842106674196e-8 0 -2.6573598696005895e-8 -5.314719229964087e-8
          0 -2.6560234546043945e-8 -5.312049339660042e-8 0 -2.6546782869082382e-8 -5.3093481907560336e-8
          0 -2.653351965641776e-8 -5.306718258172419e-8 0 -2.6519600642145392e-8 -5.3039050497487026e-8
          0 -2.6628268616971547e-8 -5.325621246972089e-8 0 -2.661800883017477e-8 -5.323617371149781e-8
          0 -2.6605847402066944e-8 -5.321165508894174e-8 0 -2.6592110005103777e-8 -5.318422529449053e-8
          0 -2.657741851268384e-8 -5.315483401836255e-8 0 -2.6562205346161592e-8 -5.312442893295691e-8
          0 -2.654701855408954e-8 -5.30939728715716e-8 0 -2.65321187084781e-8 -5.3064306352076996e-8
          0 -2.6516708545548905e-8 -5.3033414703564984e-8 0 -2.6640955969443832e-8 -5.328154617558336e-8
          0 -2.6628877876291345e-8 -5.325794141962061e-8 0 -2.6614636891614525e-8 -5.3229224902848645e-8
          0 -2.659864920015909e-8 -5.319730699932803e-8 0 -2.6581679060595853e-8 -5.3163349362627404e-8
          0 -2.656423338082233e-8 -5.3128504793470415e-8 0 -2.654692800126672e-8 -5.3093726071669374e-8
          0 -2.6530126541714992e-8 -5.306053394737312e-8 0 -2.6512609589378553e-8 -5.3024878907698023e-8
          0 -2.665599837967655e-8 -5.33115617044832e-8 0 -2.6641651199094313e-8 -5.328352358840885e-8
          0 -2.6624820532461114e-8 -5.3249583605695016e-8 0 -2.6606068521648422e-8 -5.321214665356173e-8
          0 -2.658632669016485e-8 -5.317264785560284e-8 0 -2.6566224192245264e-8 -5.313246931361229e-8
          0 -2.6546432587712398e-8 -5.3092799856600035e-8 0 -2.6527298115660664e-8 -5.305461035638039e-8
          0 -2.6507288362135982e-8 -5.3014695485831014e-8 0 -2.6673822981730023e-8 -5.334713640618768e-8
          0 -2.665659551259592e-8 -5.331345110998081e-8 0 -2.6636535565305745e-8 -5.3273002820514997e-8
          0 -2.661437420307806e-8 -5.322875918506809e-8 0 -2.6591266540491692e-8 -5.3182533512100424e-8
          0 -2.6568007864490302e-8 -5.313600401524693e-8 0 -2.654528417469324e-8 -5.309063205082129e-8
          0 -2.6523935418763357e-8 -5.304764054230571e-8 0 -2.6504030681821166e-8 -5.30086982162041e-8
          0 -2.669491920293668e-8 -5.3389247396659936e-8 0 -2.6674015525811848e-8 -5.3348337215971406e-8
          0 -2.66499116342536e-8 -5.329973982275545e-8 0 -2.6623531673664626e-8 -5.324707780691859e-8
          0 -2.659633452208052e-8 -5.3192665501514465e-8 0 -2.6569286371792608e-8 -5.313857681426461e-8
          0 -2.6543224595554156e-8 -5.308644178739104e-8 0 -2.6518854400102237e-8 -5.303770131205179e-8
          0 -2.6496402574184448e-8 -5.299260385999617e-8 0 -2.6719845747093995e-8 -5.3438996253971465e-8
          0 -2.669426430988886e-8 -5.338889192030447e-8 0 -2.6665055959340277e-8 -5.3330010671791854e-8
          0 -2.6633441751221642e-8 -5.326690081287552e-8 0 -2.6601262521663758e-8 -5.3202524880745286e-8
          0 -2.656970123552517e-8 -5.3139393514125454e-8 0 -2.6539706218839684e-8 -5.307944712740361e-8
          0 -2.6512038512479386e-8 -5.302398998814029e-8 0 -2.6487409041790318e-8 -5.297479943078678e-8
          0 -2.6717727592451468e-8 -5.3435907864318954e-8 0 -2.6682025318645965e-8 -5.336392476222268e-8
          0 -2.6643900300390674e-8 -5.328782228478951e-8 0 -2.660565457946944e-8 -5.321131078421315e-8
          0 -2.656872187219396e-8 -5.3137430797660554e-8 0 -2.653420333343837e-8 -5.306844745813002e-8
          0 -2.650280264291167e-8 -5.300558401327465e-8 0 -2.6475957471304442e-8 -5.295220724414034e-8
          0 -2.6744797772836653e-8 -5.349016143087829e-8 0 -2.670079525583558e-8 -5.340143523558996e-8
          0 -2.6654528106290017e-8 -5.330908382241675e-8 0 -2.6608904773869652e-8 -5.321780617919506e-8
          0 -2.6565637345166946e-8 -5.3131277820885735e-8 0 -2.6525942012055694e-8 -5.3051902380853965e-8
          0 -2.6490678898867154e-8 -5.298114554493818e-8 0 -2.6458792300609004e-8 -5.2917805490842105e-8
          0 -2.677585871020581e-8 -5.355241216436765e-8 0 -2.6721155961202882e-8 -5.3442116886795725e-8
          0 -2.6664683475919695e-8 -5.332940085878804e-8 0 -2.661010518233528e-8 -5.3220213367943245e-8
          0 -2.6559438232236738e-8 -5.3118847487787065e-8 0 -2.651386355225355e-8 -5.3027871122965446e-8
          0 -2.6474823517974402e-8 -5.294940985961909e-8 0 -2.6443522733134427e-8 -5.2887818235282385e-8
          0 -2.6811183179199746e-8 -5.3623292454073806e-8 0 -2.6742562568974457e-8 -5.348486155612388e-8
          0 -2.667331363335501e-8 -5.334667316083779e-8 0 -2.6607921022691623e-8 -5.3215860722862596e-8
          0 -2.6548707329510902e-8 -5.3097319741868144e-8 0 -2.6496743486602342e-8 -5.299375059616662e-8
          0 -2.6451699203263258e-8 -5.290309749141619e-8 0 -2.642047875420273e-8 -5.2840603170754906e-8
          0 -2.676400272181066e-8 -5.352770299042854e-8 0 -2.667870710993847e-8 -5.335746783792722e-8
          0 -2.660044320601321e-8 -5.320089070058792e-8 0 -2.653154575751873e-8 -5.306304214914012e-8
          0 -2.6472668673763985e-8 -5.2945519931261326e-8 0 -2.6424247786381892e-8 -5.284835083738276e-8
          0 -2.6388522536481177e-8 -5.277718750027256e-8 0 -2.67833688558012e-8 -5.3566292543975516e-8
          0 -2.6678219446683347e-8 -5.335652114731687e-8 0 -2.6584857704674224e-8 -5.3169736113687314e-8
          0 -2.6505445562151657e-8 -5.301078404155421e-8 0 -2.6439939953881628e-8 -5.28802904787321e-8
          0 -2.638789975494777e-8 -5.277507132430775e-8 0 -2.6353335953607955e-8 -5.2707579656305995e-8
          0 -2.6797253787120298e-8 -5.359395936907264e-8 0 -2.666771378946554e-8 -5.333554645765863e-8
          0 -2.6557245693450375e-8 -5.311450772527981e-8 0 -2.646707608871527e-8 -5.29339886266916e-8
          0 -2.639557922643822e-8 -5.2791670367501094e-8 0 -2.6341177305228628e-8 -5.2681459019322586e-8
          0 -2.6799709087213482e-8 -5.35985772958937e-8 0 -2.6640969035902527e-8 -5.328210117802842e-8
          0 -2.6512103563567832e-8 -5.3024250669665385e-8 0 -2.6412060773605297e-8 -5.28239068162922e-8
          0 -2.6336546237883413e-8 -5.267383290952547e-8 0 0 0
          0 -2.6429175949790866e-8 -2.6452793171406486e-8 -2.6465383089873794e-8 -2.6448488656030822e-8 -5.2857363081965626e-8
          -5.290597678050607e-8 -5.2930572348435925e-8 -5.2896615305706685e-8 0 0 0
          0 -2.6503316257601318e-8 -2.6501650936858444e-8 -2.650910203709045e-8 -2.651214618778373e-8 -5.30064365246773e-8
          -5.3003699296313634e-8 -5.3018294732463674e-8 -5.3024322935802724e-8 0 0 0
          -2.637221098468828e-8 -2.63346520021781e-8 -2.6375648518232195e-8 -5.274445651323585e-8 -5.26690680998858e-8 -5.275057795541716e-8
          0 -2.6373695894684824e-8 -5.274936927357941e-8 0 0 0
          0 -2.6478809360736748e-8 -2.6486002893087208e-8 -2.6474806128569425e-8 -2.646299073133268e-8 -5.295778447616495e-8
          -5.297238348659597e-8 -5.294952045738505e-8 -5.292624549606502e-8 0 0 -2.6507038098302633e-8
          -2.6514662968448047e-8 -5.301403571598844e-8 -5.302953031453781e-8 0 0 0
          -2.6426588386329226e-8 -2.640803600001768e-8 -2.6396233636801075e-8 -5.285498259196082e-8 -5.2815719335632975e-8 -5.2791662634090934e-8
          0 0 -2.6517280046151575e-8 -2.6510850209100122e-8 -5.303473589988375e-8 -5.302157607919305e-8
          0 0 -2.6406833351314408e-8 -2.639310632758078e-8 -5.281260901649123e-8 -5.278615626287248e-8
          0 -2.649025488488584e-8 -5.2979788200186967e-8 0 0 -2.6436500279362404e-8
          -2.641734146529318e-8 -5.287321514057454e-8 -5.283446962489016e-8 0 0 -2.643257872871495e-8
          -2.6423377634925037e-8 -5.2863972829878724e-8 -5.284948556307848e-8 0 0 -2.6489586505926722e-8
          -2.648811554798033e-8 -5.29770440519532e-8 -5.2976761766634875e-8 0 0 -2.6504288573068657e-8
          -2.64994032288874e-8 -5.300831804373195e-8 -5.299978120624474e-8 0 -2.6519422410603698e-8 -5.303900582912045e-8
          0 0 -2.6521463208338995e-8 -2.652059450052432e-8 -5.30432402541838e-8 -5.3041382031267256e-8
          0 -2.649845448989043e-8 -5.299663285330732e-8 0 -2.6523203722762938e-8 -5.3047486268970086e-8
          0 -2.640471019808819e-8 -5.281090170353479e-8 0 -2.6520440726556248e-8 -5.3038937154486785e-8
          0 -2.651396894231297e-8 -5.302776691861422e-8 0 -2.6515636791519252e-8 -5.303168288176599e-8
          0 -2.6516533506162165e-8 -5.303104043849556e-8 0 -2.630880021033214e-8 -5.26185925661791e-8
          0 -2.62819626365498e-8 -5.256269269652999e-8 0 -2.625483540838134e-8 -5.2511071221620975e-8
          0 0 -2.6588827579048635e-8 -2.678097319443597e-8 -5.3177860291407984e-8 -5.3560912379613986e-8
          0 -2.6442000213938784e-8 -5.2884052529756205e-8 0 -2.6334857108222744e-8 -5.266941052712321e-8
          0 -2.625914831970123e-8 -5.25192579310364e-8 0 -2.6208534808040355e-8 -5.241542887110929e-8
          0 -2.632762830921322e-8 -5.2655165621209636e-8 0 -2.6347852945155224e-8 -5.2694893793110564e-8
          0 0 -2.64694828504421e-8 -2.6448438396860433e-8 -5.2939195874641736e-8 -5.289640137858767e-8
          0 0 -2.6385275413143033e-8 -2.6373260261112684e-8 -5.27705177950295e-8 -5.274701043143392e-8
          0 0 -2.6493771962306077e-8 -2.6487698513786643e-8 -5.298749197590907e-8 -5.2975458822434154e-8
          0 -2.6500802488921545e-8 -5.3001709214473894e-8 0 -2.63609455611149e-8 -5.272162873707198e-8
          0 0 -2.648148651831965e-8 -2.6475874802557727e-8 -5.296303028722349e-8 -5.2951807903038387e-8
          0 -2.6396628437750153e-8 -5.2793379523350066e-8 0 0 -2.6405808595997068e-8
          -2.642453650108791e-8 -5.281169044548024e-8 -5.284865486372627e-8 0 -2.6290680760674094e-8 -5.258036988533748e-8
          0 -2.6505094127712327e-8 -5.3010166948542656e-8 0 0 -2.6518673140630358e-8
          -2.651787928261436e-8 -5.303778534802099e-8 -5.303602084955603e-8 0 -2.650822904219446e-8 -5.301648204791667e-8
          0 -2.6511757386914113e-8 -5.302340389265476e-8 0 -2.6281735291136326e-8 -5.256447333938206e-8
        </DataArray>
      </PointData>
      <CellData>
        <DataArray type="Int32" Name="libmesh_elem_id" format="ascii" RangeMin="776" RangeMax="3207">
          776 777 778 779 780 781
          782 783 784 785 786 787
          788 789 794 795 796 797
          798 799 800 801 802 803
          804 805 806 807 812 813
          814 815 816 817 818 819
          820 821 822 823 824 825
          830 831 832 833 834 835
          836 837 838 839 840 841
          842 843 848 849 850 851
          852 853 854 855 856 857
          858 859 860 861 866 867
          868 869 870 871 872 873
          874 875 876 877 878 879
          884 885 886 887 888 889
          890 891 892 893 894 895
          896 897 900 901 902 903
          904 905 906 907 908 909
          910 911 912 913 914 915
          918 919 920 921 922 923
          924 925 926 927 928 929
          930 931 932 933 936 937
          938 939 940 941 942 943
          944 945 946 947 948 949
          950 951 954 955 956 957
          958 959 960 961 962 963
          964 965 966 967 968 969
          972 973 974 975 976 977
          978 979 980 981 982 983
          984 985 986 987 990 991
          992 993 994 995 996 997
          998 999 1000 1001 1002 1003
          1004 1005 1008 1009 1010 1011
          1012 1013 1014 1015 1016 1017
          1018 1019 1020 1021 1022 1023
          1028 1029 1030 1031 1032 1033
          1034 1035 1036 1037 1038 1039
          1040 1041 1046 1047 1048 1049
          1050 1051 1052 1053 1054 1055
          1056 1057 1058 1059 1064 1065
          1066 1067 1068 1069 1070 1071
          1072 1073 1074 1075 1076 1077
          1082 1083 1084 1085 1086 1087
          1088 1089 1090 1091 1092 1093
          1094 1095 1102 1103 1104 1105
          1106 1107 1108 1109 1110 1111
          1112 1113 1120 1121 1122 1123
          1124 1125 1126 1127 1128 1129
          1130 1131 1138 1139 1140 1141
          1142 1143 1144 1145 1146 1147
          1148 1149 1156 1157 1158 1159
          1160 1161 1162 1163 1164 1165
          1166 1167 1174 1175 1176 1177
          1178 1179 1180 1181 1182 1183
          1374 1375 1376 1377 1378 1379
          1384 1385 1388 1389 1404 1405
          1458 1459 1536 1537 1542 1543
          1624 1625 1648 1649 1658 1659
          1672 1673 1770 1771 1810 1811
          1818 1819 1828 1829 1830 1831
          1866 1867 2074 2075 2078 2079
          2116 2117 2124 2125 2288 2289
          2290 2291 2336 2337 2342 2343
          2348 2349 2352 2353 2356 2357
          2358 2359 2424 2425 2452 2453
          2464 2465 2496 2497 2526 2527
          2530 2531 2532 2533 2554 2555
          2560 2561 2590 2591 2594 2595
          2622 2623 2736 2737 2740 2741
          2762 2763 2768 2769 2794 2795
          2800 2801 2864 2865 2890 2891
          2904 2905 2920 2921 2956 2957
          2986 2987 3018 3019 3036 3037
          3088 3089 3114 3115 3144 3145
          3156 3157 3176 3177 3184 3185
          3190 3191 3206 3207
        </DataArray>
        <DataArray type="Int32" Name="subdomain_id" format="ascii" RangeMin="105" RangeMax="107">
          105 105 105 105 105 105
          105 105 105 105 105 105
          105 105 105 105 105 105
          105 105 105 105 105 105
          105 105 105 105 105 105
          105 105 105 105 105 105
          105 105 105 105 105 105
          105 105 105 105 105 105
          105 105 105 105 105 105
          105 105 105 105 105 105
          105 105 105 105 105 105
          105 105 105 105 105 105
          105 105 105 105 105 105
          105 105 105 105 105 105
          105 105 105 105 105 105
          105 105 105 105 105 105
          105 105 105 105 105 105
          105 105 105 105 105 105
          105 105 105 105 105 105
          105 105 105 105 105 105
          105 105 105 105 105 105
          105 105 105 105 105 105
          105 105 105 105 105 105
          105 105 105 105 105 105
          105 105 105 105 105 105
          105 105 105 105 105 105
          105 105 105 105 105 105
          105 105 105 105 105 105
          105 105 105 105 105 105
          105 105 105 105 105 105
          105 105 105 105 105 105
          105 105 105 105 105 105
          105 105 105 105 105 105
          105 105 105 105 105 105
          105 105 105 105 105 105
          105 105 105 105 105 105
          105 105 105 105 105 105
          105 105 105 105 105 105
          105 105 105 105 105 105
          105 105 105 105 105 105
          105 105 105 105 105 105
          105 105 105 105 105 105
          105 105 105 105 105 105
          105 105 105 105 105 105
          105 105 105 105 105 105
          105 105 105 105 105 105
          105 105 105 105 105 105
          105 105 105 105 105 105
          105 105 105 105 105 105
          105 105 105 105 105 105
          105 105 105 105 105 105
          105 105 105 105 105 105
          105 105 105 105 105 105
          105 105 105 105 105 105
          107 107 107 107 107 107
          107 107 107 107 107 107
          107 107 107 107 107 107
          107 107 107 107 107 107
          107 107 107 107 107 107
          107 107 107 107 107 107
          107 107 107 107 107 107
          107 107 107 107 107 107
          107 107 107 107 107 107
          107 107 107 107 107 107
          107 107 107 107 107 107
          107 107 107 107 107 107
          107 107 107 107 107 107
          107 107 107 107 107 107
          107 107 107 107 107 107
          107 107 107 107 107 107
          107 107 107 107 107 107
          107 107 107 107 107 107
          107 107 107 107 107 107
          107 107 107 107 107 107
          107 107 107 107 107 107
          107 107 107 107
        </DataArray>
        <DataArray type="Int32" Name="processor_id" format="ascii" RangeMin="6" RangeMax="6">
          6 6 6 6 6 6
          6 6 6 6 6 6
          6 6 6 6 6 6
          6 6 6 6 6 6
          6 6 6 6 6 6
          6 6 6 6 6 6
          6 6 6 6 6 6
          6 6 6 6 6 6
          6 6 6 6 6 6
          6 6 6 6 6 6
          6 6 6 6 6 6
          6 6 6 6 6 6
          6 6 6 6 6 6
          6 6 6 6 6 6
          6 6 6 6 6 6
          6 6 6 6 6 6
          6 6 6 6 6 6
          6 6 6 6 6 6
          6 6 6 6 6 6
          6 6 6 6 6 6
          6 6 6 6 6 6
          6 6 6 6 6 6
          6 6 6 6 6 6
          6 6 6 6 6 6
          6 6 6 6 6 6
          6 6 6 6 6 6
          6 6 6 6 6 6
          6 6 6 6 6 6
          6 6 6 6 6 6
          6 6 6 6 6 6
          6 6 6 6 6 6
          6 6 6 6 6 6
          6 6 6 6 6 6
          6 6 6 6 6 6
          6 6 6 6 6 6
          6 6 6 6 6 6
          6 6 6 6 6 6
          6 6 6 6 6 6
          6 6 6 6 6 6
          6 6 6 6 6 6
          6 6 6 6 6 6
          6 6 6 6 6 6
          6 6 6 6 6 6
          6 6 6 6 6 6
          6 6 6 6 6 6
          6 6 6 6 6 6
          6 6 6 6 6 6
          6 6 6 6 6 6
          6 6 6 6 6 6
          6 6 6 6 6 6
          6 6 6 6 6 6
          6 6 6 6 6 6
          6 6 6 6 6 6
          6 6 6 6 6 6
          6 6 6 6 6 6
          6 6 6 6 6 6
          6 6 6 6 6 6
          6 6 6 6 6 6
          6 6 6 6 6 6
          6 6 6 6 6 6
          6 6 6 6 6 6
          6 6 6 6 6 6
          6 6 6 6 6 6
          6 6 6 6 6 6
          6 6 6 6 6 6
          6 6 6 6 6 6
          6 6 6 6 6 6
          6 6 6 6 6 6
          6 6 6 6 6 6
          6 6 6 6 6 6
          6 6 6 6 6 6
          6 6 6 6 6 6
          6 6 6 6 6 6
          6 6 6 6 6 6
          6 6 6 6 6 6
          6 6 6 6
        </DataArray>
      </CellData>
      <Points>
        <DataArray type="Float64" Name="Points" NumberOfComponents="3" format="ascii" RangeMin="0.0018888888888872" RangeMax="0.010555613193541787">
          0.0018888888888873 0.00041379310344749 0 0.0018888888888872 0 0
          0.0018888888888873 0.00041379310344749 0.00015 0.0018888888888872 0 0.00015
          0.0018888888888873 0.00041379310344749 0.0003 0.0018888888888872 0 0.0003
          0.0023333333333313 0.00041379310344749 0 0.0023333333333311 0 0
          0.0023333333333313 0.00041379310344749 0.00015 0.0023333333333311 0 0.00015
          0.0023333333333313 0.00041379310344749 0.0003 0.0023333333333311 0 0.0003
          0.0027777777777734 0.00041379310344749 0 0.0027777777777731 0 0
          0.0027777777777734 0.00041379310344749 0.00015 0.0027777777777731 0 0.00015
          0.0027777777777734 0.00041379310344749 0.0003 0.0027777777777731 0 0.0003
          0.003222222222218 0.00041379310344749 0 0.0032222222222177 0 0
          0.003222222222218 0.00041379310344749 0.00015 0.0032222222222177 0 0.00015
          0.003222222222218 0.00041379310344749 0.0003 0.0032222222222177 0 0.0003
          0.0036666666666636 0.00041379310344749 0 0.0036666666666634 0 0
          0.0036666666666636 0.00041379310344749 0.00015 0.0036666666666634 0 0.00015
          0.0036666666666636 0.00041379310344749 0.0003 0.0036666666666634 0 0.0003
          0.0041111111111091 0.00041379310344749 0 0.004111111111109 0 0
          0.0041111111111091 0.00041379310344749 0.00015 0.004111111111109 0 0.00015
          0.0041111111111091 0.00041379310344749 0.0003 0.004111111111109 0 0.0003
          0.0045555555555554 0.00041379310344749 0 0.0045555555555553 0 0
          0.0045555555555554 0.00041379310344749 0.00015 0.0045555555555553 0 0.00015
          0.0045555555555554 0.00041379310344749 0.0003 0.0045555555555553 0 0.0003
          0.005 0.00041379310344749 0 0.005 0 0
          0.005 0.00041379310344749 0.00015 0.005 0 0.00015
          0.005 0.00041379310344749 0.0003 0.005 0 0.0003
          0.0018888888888875 0.00082758620689497 0 0.0018888888888875 0.00082758620689497 0.00015
          0.0018888888888875 0.00082758620689497 0.0003 0.0023333333333315 0.00082758620689497 0
          0.0023333333333315 0.00082758620689497 0.00015 0.0023333333333315 0.00082758620689497 0.0003
          0.0027777777777737 0.00082758620689497 0 0.0027777777777737 0.00082758620689497 0.00015
          0.0027777777777737 0.00082758620689497 0.0003 0.0032222222222183 0.00082758620689497 0
          0.0032222222222183 0.00082758620689497 0.00015 0.0032222222222183 0.00082758620689497 0.0003
          0.0036666666666638 0.00082758620689497 0 0.0036666666666638 0.00082758620689497 0.00015
          0.0036666666666638 0.00082758620689497 0.0003 0.0041111111111093 0.00082758620689497 0
          0.0041111111111093 0.00082758620689497 0.00015 0.0041111111111093 0.00082758620689497 0.0003
          0.0045555555555554 0.00082758620689497 0 0.0045555555555554 0.00082758620689497 0.00015
          0.0045555555555554 0.00082758620689497 0.0003 0.005 0.00082758620689497 0
          0.005 0.00082758620689497 0.00015 0.005 0.00082758620689497 0.0003
          0.0018888888888876 0.0012413793103426 0 0.0018888888888876 0.0012413793103426 0.00015
          0.0018888888888876 0.0012413793103426 0.0003 0.0023333333333317 0.0012413793103426 0
          0.0023333333333317 0.0012413793103426 0.00015 0.0023333333333317 0.0012413793103426 0.0003
          0.002777777777774 0.0012413793103426 0 0.002777777777774 0.0012413793103426 0.00015
          0.002777777777774 0.0012413793103426 0.0003 0.0032222222222186 0.0012413793103426 0
          0.0032222222222186 0.0012413793103426 0.00015 0.0032222222222186 0.0012413793103426 0.0003
          0.003666666666664 0.0012413793103426 0 0.003666666666664 0.0012413793103426 0.00015
          0.003666666666664 0.0012413793103426 0.0003 0.0041111111111095 0.0012413793103426 0
          0.0041111111111095 0.0012413793103426 0.00015 0.0041111111111095 0.0012413793103426 0.0003
          0.0045555555555554 0.0012413793103426 0 0.0045555555555554 0.0012413793103426 0.00015
          0.0045555555555554 0.0012413793103426 0.0003 0.005 0.0012413793103426 0
          0.005 0.0012413793103426 0.00015 0.005 0.0012413793103426 0.0003
          0.0018888888888877 0.0016551724137901 0 0.0018888888888877 0.0016551724137901 0.00015
          0.0018888888888877 0.0016551724137901 0.0003 0.0023333333333319 0.0016551724137901 0
          0.0023333333333319 0.0016551724137901 0.00015 0.0023333333333319 0.0016551724137901 0.0003
          0.0027777777777743 0.0016551724137901 0 0.0027777777777743 0.0016551724137901 0.00015
          0.0027777777777743 0.0016551724137901 0.0003 0.0032222222222189 0.0016551724137901 0
          0.0032222222222189 0.0016551724137901 0.00015 0.0032222222222189 0.0016551724137901 0.0003
          0.0036666666666642 0.0016551724137901 0 0.0036666666666642 0.0016551724137901 0.00015
          0.0036666666666642 0.0016551724137901 0.0003 0.0041111111111096 0.0016551724137901 0
          0.0041111111111096 0.0016551724137901 0.00015 0.0041111111111096 0.0016551724137901 0.0003
          0.0045555555555555 0.0016551724137901 0 0.0045555555555555 0.0016551724137901 0.00015
          0.0045555555555555 0.0016551724137901 0.0003 0.005 0.0016551724137901 0
          0.005 0.0016551724137901 0.00015 0.005 0.0016551724137901 0.0003
          0.0018888888888879 0.0020689655172371 0 0.0018888888888879 0.0020689655172371 0.00015
          0.0018888888888879 0.0020689655172371 0.0003 0.002333333333332 0.0020689655172371 0
          0.002333333333332 0.0020689655172371 0.00015 0.002333333333332 0.0020689655172371 0.0003
          0.0027777777777746 0.0020689655172371 0 0.0027777777777746 0.0020689655172371 0.00015
          0.0027777777777746 0.0020689655172371 0.0003 0.0032222222222192 0.0020689655172371 0
          0.0032222222222192 0.0020689655172371 0.00015 0.0032222222222192 0.0020689655172371 0.0003
          0.0036666666666643 0.0020689655172371 0 0.0036666666666643 0.0020689655172371 0.00015
          0.0036666666666643 0.0020689655172371 0.0003 0.0041111111111098 0.0020689655172371 0
          0.0041111111111098 0.0020689655172371 0.00015 0.0041111111111098 0.0020689655172371 0.0003
          0.0045555555555555 0.0020689655172371 0 0.0045555555555555 0.0020689655172371 0.00015
          0.0045555555555555 0.0020689655172371 0.0003 0.005 0.0020689655172371 0
          0.005 0.0020689655172371 0.00015 0.005 0.0020689655172371 0.0003
          0.001888888888888 0.0024827586206843 0 0.001888888888888 0.0024827586206843 0.00015
          0.001888888888888 0.0024827586206843 0.0003 0.0023333333333322 0.0024827586206843 0
          0.0023333333333322 0.0024827586206843 0.00015 0.0023333333333322 0.0024827586206843 0.0003
          0.0027777777777749 0.0024827586206843 0 0.0027777777777749 0.0024827586206843 0.00015
          0.0027777777777749 0.0024827586206843 0.0003 0.0032222222222196 0.0024827586206843 0
          0.0032222222222196 0.0024827586206843 0.00015 0.0032222222222196 0.0024827586206843 0.0003
          0.0036666666666645 0.0024827586206843 0 0.0036666666666645 0.0024827586206843 0.00015
          0.0036666666666645 0.0024827586206843 0.0003 0.0041111111111099 0.0024827586206843 0
          0.0041111111111099 0.0024827586206843 0.00015 0.0041111111111099 0.0024827586206843 0.0003
          0.0045555555555555 0.0024827586206843 0 0.0045555555555555 0.0024827586206843 0.00015
          0.0045555555555555 0.0024827586206843 0.0003 0.005 0.0024827586206843 0
          0.005 0.0024827586206843 0.00015 0.005 0.0024827586206843 0.0003
          0.0014444444444442 0.0028965517241314 0 0.0014444444444442 0.0028965517241314 0.00015
          0.0014444444444442 0.0028965517241314 0.0003 0.0018888888888881 0.0028965517241314 0
          0.0018888888888881 0.0028965517241314 0.00015 0.0018888888888881 0.0028965517241314 0.0003
          0.0023333333333324 0.0028965517241314 0 0.0023333333333324 0.0028965517241314 0.00015
          0.0023333333333324 0.0028965517241314 0.0003 0.0027777777777753 0.0028965517241314 0
          0.0027777777777753 0.0028965517241314 0.00015 0.0027777777777753 0.0028965517241314 0.0003
          0.0032222222222199 0.0028965517241314 0 0.0032222222222199 0.0028965517241314 0.00015
          0.0032222222222199 0.0028965517241314 0.0003 0.0036666666666647 0.0028965517241314 0
          0.0036666666666647 0.0028965517241314 0.00015 0.0036666666666647 0.0028965517241314 0.0003
          0.0041111111111101 0.0028965517241314 0 0.0041111111111101 0.0028965517241314 0.00015
          0.0041111111111101 0.0028965517241314 0.0003 0.0045555555555556 0.0028965517241314 0
          0.0045555555555556 0.0028965517241314 0.00015 0.0045555555555556 0.0028965517241314 0.0003
          0.005 0.0028965517241314 0 0.005 0.0028965517241314 0.00015
          0.005 0.0028965517241314 0.0003 0.0014444444444442 0.0033103448275785 0
          0.0014444444444442 0.0033103448275785 0.00015 0.0014444444444442 0.0033103448275785 0.0003
          0.0018888888888882 0.0033103448275785 0 0.0018888888888882 0.0033103448275785 0.00015
          0.0018888888888882 0.0033103448275785 0.0003 0.0023333333333326 0.0033103448275785 0
          0.0023333333333326 0.0033103448275785 0.00015 0.0023333333333326 0.0033103448275785 0.0003
          0.0027777777777756 0.0033103448275785 0 0.0027777777777756 0.0033103448275785 0.00015
          0.0027777777777756 0.0033103448275785 0.0003 0.0032222222222202 0.0033103448275785 0
          0.0032222222222202 0.0033103448275785 0.00015 0.0032222222222202 0.0033103448275785 0.0003
          0.0036666666666649 0.0033103448275785 0 0.0036666666666649 0.0033103448275785 0.00015
          0.0036666666666649 0.0033103448275785 0.0003 0.0041111111111102 0.0033103448275785 0
          0.0041111111111102 0.0033103448275785 0.00015 0.0041111111111102 0.0033103448275785 0.0003
          0.0045555555555556 0.0033103448275785 0 0.0045555555555556 0.0033103448275785 0.00015
          0.0045555555555556 0.0033103448275785 0.0003 0.005 0.0033103448275785 0
          0.005 0.0033103448275785 0.00015 0.005 0.0033103448275785 0.0003
          0.0014444444444443 0.0037241379310256 0 0.0014444444444443 0.0037241379310256 0.00015
          0.0014444444444443 0.0037241379310256 0.0003 0.0018888888888884 0.0037241379310256 0
          0.0018888888888884 0.0037241379310256 0.00015 0.0018888888888884 0.0037241379310256 0.0003
          0.0023333333333328 0.0037241379310256 0 0.0023333333333328 0.0037241379310256 0.00015
          0.0023333333333328 0.0037241379310256 0.0003 0.0027777777777759 0.0037241379310256 0
          0.0027777777777759 0.0037241379310256 0.00015 0.0027777777777759 0.0037241379310256 0.0003
          0.0032222222222205 0.0037241379310256 0 0.0032222222222205 0.0037241379310256 0.00015
          0.0032222222222205 0.0037241379310256 0.0003 0.003666666666665 0.0037241379310256 0
          0.003666666666665 0.0037241379310256 0.00015 0.003666666666665 0.0037241379310256 0.0003
          0.0041111111111104 0.0037241379310256 0 0.0041111111111104 0.0037241379310256 0.00015
          0.0041111111111104 0.0037241379310256 0.0003 0.0045555555555556 0.0037241379310256 0
          0.0045555555555556 0.0037241379310256 0.00015 0.0045555555555556 0.0037241379310256 0.0003
          0.005 0.0037241379310256 0 0.005 0.0037241379310256 0.00015
          0.005 0.0037241379310256 0.0003 0.0014444444444444 0.0041379310344727 0
          0.0014444444444444 0.0041379310344727 0.00015 0.0014444444444444 0.0041379310344727 0.0003
          0.0018888888888885 0.0041379310344727 0 0.0018888888888885 0.0041379310344727 0.00015
          0.0018888888888885 0.0041379310344727 0.0003 0.002333333333333 0.0041379310344727 0
          0.002333333333333 0.0041379310344727 0.00015 0.002333333333333 0.0041379310344727 0.0003
          0.0027777777777762 0.0041379310344727 0 0.0027777777777762 0.0041379310344727 0.00015
          0.0027777777777762 0.0041379310344727 0.0003 0.0032222222222208 0.0041379310344727 0
          0.0032222222222208 0.0041379310344727 0.00015 0.0032222222222208 0.0041379310344727 0.0003
          0.0036666666666652 0.0041379310344727 0 0.0036666666666652 0.0041379310344727 0.00015
          0.0036666666666652 0.0041379310344727 0.0003 0.0041111111111105 0.0041379310344727 0
          0.0041111111111105 0.0041379310344727 0.00015 0.0041111111111105 0.0041379310344727 0.0003
          0.0045555555555557 0.0041379310344727 0 0.0045555555555557 0.0041379310344727 0.00015
          0.0045555555555557 0.0041379310344727 0.0003 0.005 0.0041379310344727 0
          0.005 0.0041379310344727 0.00015 0.005 0.0041379310344727 0.0003
          0.0014444444444444 0.0045517241379199 0 0.0014444444444444 0.0045517241379199 0.00015
          0.0014444444444444 0.0045517241379199 0.0003 0.0018888888888886 0.0045517241379199 0
          0.0018888888888886 0.0045517241379199 0.00015 0.0018888888888886 0.0045517241379199 0.0003
          0.0023333333333331 0.0045517241379199 0 0.0023333333333331 0.0045517241379199 0.00015
          0.0023333333333331 0.0045517241379199 0.0003 0.0027777777777765 0.0045517241379199 0
          0.0027777777777765 0.0045517241379199 0.00015 0.0027777777777765 0.0045517241379199 0.0003
          0.0032222222222211 0.0045517241379199 0 0.0032222222222211 0.0045517241379199 0.00015
          0.0032222222222211 0.0045517241379199 0.0003 0.0036666666666654 0.0045517241379199 0
          0.0036666666666654 0.0045517241379199 0.00015 0.0036666666666654 0.0045517241379199 0.0003
          0.0041111111111107 0.0045517241379199 0 0.0041111111111107 0.0045517241379199 0.00015
          0.0041111111111107 0.0045517241379199 0.0003 0.0045555555555557 0.0045517241379199 0
          0.0045555555555557 0.0045517241379199 0.00015 0.0045555555555557 0.0045517241379199 0.0003
          0.005 0.0045517241379199 0 0.005 0.0045517241379199 0.00015
          0.005 0.0045517241379199 0.0003 0.0014444444444445 0.0049655172413669 0
          0.0014444444444445 0.0049655172413669 0.00015 0.0014444444444445 0.0049655172413669 0.0003
          0.0018888888888888 0.0049655172413669 0 0.0018888888888888 0.0049655172413669 0.00015
          0.0018888888888888 0.0049655172413669 0.0003 0.0023333333333333 0.0049655172413669 0
          0.0023333333333333 0.0049655172413669 0.00015 0.0023333333333333 0.0049655172413669 0.0003
          0.0027777777777768 0.0049655172413669 0 0.0027777777777768 0.0049655172413669 0.00015
          0.0027777777777768 0.0049655172413669 0.0003 0.0032222222222214 0.0049655172413669 0
          0.0032222222222214 0.0049655172413669 0.00015 0.0032222222222214 0.0049655172413669 0.0003
          0.0036666666666656 0.0049655172413669 0 0.0036666666666656 0.0049655172413669 0.00015
          0.0036666666666656 0.0049655172413669 0.0003 0.0041111111111108 0.0049655172413669 0
          0.0041111111111108 0.0049655172413669 0.00015 0.0041111111111108 0.0049655172413669 0.0003
          0.0045555555555557 0.0049655172413669 0 0.0045555555555557 0.0049655172413669 0.00015
          0.0045555555555557 0.0049655172413669 0.0003 0.005 0.0049655172413669 0
          0.005 0.0049655172413669 0.00015 0.005 0.0049655172413669 0.0003
          0.0014444444444445 0.0053793103448139 0 0.0014444444444445 0.0053793103448139 0.00015
          0.0014444444444445 0.0053793103448139 0.0003 0.0018888888888889 0.0053793103448139 0
          0.0018888888888889 0.0053793103448139 0.00015 0.0018888888888889 0.0053793103448139 0.0003
          0.0023333333333335 0.0053793103448139 0 0.0023333333333335 0.0053793103448139 0.00015
          0.0023333333333335 0.0053793103448139 0.0003 0.0027777777777771 0.0053793103448139 0
          0.0027777777777771 0.0053793103448139 0.00015 0.0027777777777771 0.0053793103448139 0.0003
          0.0032222222222217 0.0053793103448139 0 0.0032222222222217 0.0053793103448139 0.00015
          0.0032222222222217 0.0053793103448139 0.0003 0.0036666666666658 0.0053793103448139 0
          0.0036666666666658 0.0053793103448139 0.00015 0.0036666666666658 0.0053793103448139 0.0003
          0.004111111111111 0.0053793103448139 0 0.004111111111111 0.0053793103448139 0.00015
          0.004111111111111 0.0053793103448139 0.0003 0.0045555555555558 0.0053793103448139 0
          0.0045555555555558 0.0053793103448139 0.00015 0.0045555555555558 0.0053793103448139 0.0003
          0.005 0.0053793103448139 0 0.005 0.0053793103448139 0.00015
          0.005 0.0053793103448139 0.0003 0.0014444444444446 0.0057931034482612 0
          0.0014444444444446 0.0057931034482612 0.00015 0.0014444444444446 0.0057931034482612 0.0003
          0.001888888888889 0.0057931034482612 0 0.001888888888889 0.0057931034482612 0.00015
          0.001888888888889 0.0057931034482612 0.0003 0.0023333333333337 0.0057931034482612 0
          0.0023333333333337 0.0057931034482612 0.00015 0.0023333333333337 0.0057931034482612 0.0003
          0.0027777777777774 0.0057931034482612 0 0.0027777777777774 0.0057931034482612 0.00015
          0.0027777777777774 0.0057931034482612 0.0003 0.003222222222222 0.0057931034482612 0
          0.003222222222222 0.0057931034482612 0.00015 0.003222222222222 0.0057931034482612 0.0003
          0.0036666666666659 0.0057931034482612 0 0.0036666666666659 0.0057931034482612 0.00015
          0.0036666666666659 0.0057931034482612 0.0003 0.0041111111111112 0.0057931034482612 0
          0.0041111111111112 0.0057931034482612 0.00015 0.0041111111111112 0.0057931034482612 0.0003
          0.0045555555555558 0.0057931034482612 0 0.0045555555555558 0.0057931034482612 0.00015
          0.0045555555555558 0.0057931034482612 0.0003 0.005 0.0057931034482612 0
          0.005 0.0057931034482612 0.00015 0.005 0.0057931034482612 0.0003
          0.0018888888888891 0.0062068965517097 0 0.0018888888888891 0.0062068965517097 0.00015
          0.0018888888888891 0.0062068965517097 0.0003 0.0023333333333339 0.0062068965517097 0
          0.0023333333333339 0.0062068965517097 0.00015 0.0023333333333339 0.0062068965517097 0.0003
          0.0027777777777778 0.0062068965517097 0 0.0027777777777778 0.0062068965517097 0.00015
          0.0027777777777778 0.0062068965517097 0.0003 0.0032222222222224 0.0062068965517097 0
          0.0032222222222224 0.0062068965517097 0.00015 0.0032222222222224 0.0062068965517097 0.0003
          0.0036666666666661 0.0062068965517097 0 0.0036666666666661 0.0062068965517097 0.00015
          0.0036666666666661 0.0062068965517097 0.0003 0.0041111111111113 0.0062068965517097 0
          0.0041111111111113 0.0062068965517097 0.00015 0.0041111111111113 0.0062068965517097 0.0003
          0.0045555555555558 0.0062068965517097 0 0.0045555555555558 0.0062068965517097 0.00015
          0.0045555555555558 0.0062068965517097 0.0003 0.005 0.0062068965517097 0
          0.005 0.0062068965517097 0.00015 0.005 0.0062068965517097 0.0003
          0.0018888888888893 0.0066206896551586 0 0.0018888888888893 0.0066206896551586 0.00015
          0.0018888888888893 0.0066206896551586 0.0003 0.002333333333334 0.0066206896551586 0
          0.002333333333334 0.0066206896551586 0.00015 0.002333333333334 0.0066206896551586 0.0003
          0.0027777777777781 0.0066206896551586 0 0.0027777777777781 0.0066206896551586 0.00015
          0.0027777777777781 0.0066206896551586 0.0003 0.0032222222222227 0.0066206896551586 0
          0.0032222222222227 0.0066206896551586 0.00015 0.0032222222222227 0.0066206896551586 0.0003
          0.0036666666666663 0.0066206896551586 0 0.0036666666666663 0.0066206896551586 0.00015
          0.0036666666666663 0.0066206896551586 0.0003 0.0041111111111115 0.0066206896551586 0
          0.0041111111111115 0.0066206896551586 0.00015 0.0041111111111115 0.0066206896551586 0.0003
          0.0045555555555559 0.0066206896551586 0 0.0045555555555559 0.0066206896551586 0.00015
          0.0045555555555559 0.0066206896551586 0.0003 0.005 0.0066206896551586 0
          0.005 0.0066206896551586 0.00015 0.005 0.0066206896551586 0.0003
          0.0018888888888894 0.0070344827586082 0 0.0018888888888894 0.0070344827586082 0.00015
          0.0018888888888894 0.0070344827586082 0.0003 0.0023333333333342 0.0070344827586082 0
          0.0023333333333342 0.0070344827586082 0.00015 0.0023333333333342 0.0070344827586082 0.0003
          0.0027777777777784 0.0070344827586082 0 0.0027777777777784 0.0070344827586082 0.00015
          0.0027777777777784 0.0070344827586082 0.0003 0.003222222222223 0.0070344827586082 0
          0.003222222222223 0.0070344827586082 0.00015 0.003222222222223 0.0070344827586082 0.0003
          0.0036666666666665 0.0070344827586082 0 0.0036666666666665 0.0070344827586082 0.00015
          0.0036666666666665 0.0070344827586082 0.0003 0.0041111111111116 0.0070344827586082 0
          0.0041111111111116 0.0070344827586082 0.00015 0.0041111111111116 0.0070344827586082 0.0003
          0.0045555555555559 0.0070344827586082 0 0.0045555555555559 0.0070344827586082 0.00015
          0.0045555555555559 0.0070344827586082 0.0003 0.005 0.0070344827586082 0
          0.005 0.0070344827586082 0.00015 0.005 0.0070344827586082 0.0003
          0.0018888888888895 0.0074482758620575 0 0.0018888888888895 0.0074482758620575 0.00015
          0.0018888888888895 0.0074482758620575 0.0003 0.0023333333333344 0.0074482758620575 0
          0.0023333333333344 0.0074482758620575 0.00015 0.0023333333333344 0.0074482758620575 0.0003
          0.0027777777777787 0.0074482758620575 0 0.0027777777777787 0.0074482758620575 0.00015
          0.0027777777777787 0.0074482758620575 0.0003 0.0032222222222233 0.0074482758620575 0
          0.0032222222222233 0.0074482758620575 0.00015 0.0032222222222233 0.0074482758620575 0.0003
          0.0036666666666666 0.0074482758620576 0 0.0036666666666666 0.0074482758620576 0.00015
          0.0036666666666666 0.0074482758620576 0.0003 0.0041111111111118 0.0074482758620576 0
          0.0041111111111118 0.0074482758620576 0.00015 0.0041111111111118 0.0074482758620576 0.0003
          0.0045555555555559 0.0074482758620576 0 0.0045555555555559 0.0074482758620576 0.00015
          0.0045555555555559 0.0074482758620576 0.0003 0.005 0.0074482758620575 0
          0.005 0.0074482758620575 0.00015 0.005 0.0074482758620575 0.0003
          0.0023333333333346 0.0078620689655065 0 0.0023333333333346 0.0078620689655065 0.00015
          0.0023333333333346 0.0078620689655065 0.0003 0.002777777777779 0.0078620689655065 0
          0.002777777777779 0.0078620689655065 0.00015 0.002777777777779 0.0078620689655065 0.0003
          0.0032222222222236 0.0078620689655065 0 0.0032222222222236 0.0078620689655065 0.00015
          0.0032222222222236 0.0078620689655065 0.0003 0.0036666666666668 0.0078620689655065 0
          0.0036666666666668 0.0078620689655065 0.00015 0.0036666666666668 0.0078620689655065 0.0003
          0.0041111111111119 0.0078620689655065 0 0.0041111111111119 0.0078620689655065 0.00015
          0.0041111111111119 0.0078620689655065 0.0003 0.004555555555556 0.0078620689655065 0
          0.004555555555556 0.0078620689655065 0.00015 0.004555555555556 0.0078620689655065 0.0003
          0.005 0.0078620689655065 0 0.005 0.0078620689655065 0.00015
          0.005 0.0078620689655065 0.0003 0.0023333333333348 0.0082758620689564 0
          0.0023333333333348 0.0082758620689564 0.00015 0.0023333333333348 0.0082758620689564 0.0003
          0.0027777777777793 0.0082758620689564 0 0.0027777777777793 0.0082758620689564 0.00015
          0.0027777777777793 0.0082758620689564 0.0003 0.0032222222222239 0.0082758620689564 0
          0.0032222222222239 0.0082758620689564 0.00015 0.0032222222222239 0.0082758620689564 0.0003
          0.003666666666667 0.0082758620689564 0 0.003666666666667 0.0082758620689564 0.00015
          0.003666666666667 0.0082758620689564 0.0003 0.0041111111111121 0.0082758620689564 0
          0.0041111111111121 0.0082758620689564 0.00015 0.0041111111111121 0.0082758620689564 0.0003
          0.004555555555556 0.0082758620689564 0 0.004555555555556 0.0082758620689564 0.00015
          0.004555555555556 0.0082758620689564 0.0003 0.005 0.0082758620689564 0
          0.005 0.0082758620689564 0.00015 0.005 0.0082758620689564 0.0003
          0.002333333333335 0.0086896551724064 0 0.002333333333335 0.0086896551724064 0.00015
          0.002333333333335 0.0086896551724064 0.0003 0.0027777777777796 0.0086896551724064 0
          0.0027777777777796 0.0086896551724064 0.00015 0.0027777777777796 0.0086896551724064 0.0003
          0.0032222222222242 0.0086896551724064 0 0.0032222222222242 0.0086896551724064 0.00015
          0.0032222222222242 0.0086896551724064 0.0003 0.0036666666666672 0.0086896551724064 0
          0.0036666666666672 0.0086896551724064 0.00015 0.0036666666666672 0.0086896551724064 0.0003
          0.0041111111111122 0.0086896551724064 0 0.0041111111111122 0.0086896551724064 0.00015
          0.0041111111111122 0.0086896551724064 0.0003 0.004555555555556 0.0086896551724064 0
          0.004555555555556 0.0086896551724064 0.00015 0.004555555555556 0.0086896551724064 0.0003
          0.0023333333333351 0.0091034482758539 0 0.0023333333333351 0.0091034482758539 0.00015
          0.0023333333333351 0.0091034482758539 0.0003 0.0027777777777799 0.0091034482758539 0
          0.0027777777777799 0.0091034482758539 0.00015 0.0027777777777799 0.0091034482758539 0.0003
          0.0032222222222245 0.0091034482758539 0 0.0032222222222245 0.0091034482758539 0.00015
          0.0032222222222245 0.0091034482758539 0.0003 0.0036666666666673 0.0091034482758539 0
          0.0036666666666673 0.0091034482758539 0.00015 0.0036666666666673 0.0091034482758539 0.0003
          0.0041111111111124 0.0091034482758539 0 0.0041111111111124 0.0091034482758539 0.00015
          0.0041111111111124 0.0091034482758539 0.0003 0.0058597010152523 0.0063127004857001 0
          0.0053951839928307 0.0062556571299739 0 0.0053921082338215 0.005828945826549 0
          0.0057916174309905 0.0058352682535246 0 0.0058597010152523 0.0063127004857001 0.00015
          0.0053951839928307 0.0062556571299739 0.00015 0.0053921082338215 0.005828945826549 0.00015
          0.0057916174309905 0.0058352682535246 0.00015 0.0058597010152523 0.0063127004857001 0.0003
          0.0053951839928307 0.0062556571299739 0.0003 0.0053921082338215 0.005828945826549 0.0003
          0.0057916174309905 0.0058352682535246 0.0003 0.0057558905586118 0.0030553709280972 0
          0.0057130501801562 0.0035159257865852 0 0.005360618756523 0.0035837068269911 0
          0.0053739732009329 0.0031599138809835 0 0.0057558905586118 0.0030553709280972 0.00015
          0.0057130501801562 0.0035159257865852 0.00015 0.005360618756523 0.0035837068269911 0.00015
          0.0053739732009329 0.0031599138809835 0.00015 0.0057558905586118 0.0030553709280972 0.0003
          0.0057130501801562 0.0035159257865852 0.0003 0.005360618756523 0.0035837068269911 0.0003
          0.0053739732009329 0.0031599138809835 0.0003 0.0056439388514995 0.0075162532529611 0
          0.0053753336003136 0.0081134227852172 0 0.0053162760057692 0.0077147827843445 0
          0.0056439388514995 0.0075162532529611 0.00015 0.0053753336003136 0.0081134227852172 0.00015
          0.0053162760057692 0.0077147827843445 0.00015 0.0056439388514995 0.0075162532529611 0.0003
          0.0053753336003136 0.0081134227852172 0.0003 0.0053162760057692 0.0077147827843445 0.0003
          0.0059025575310583 0.0073410103875386 0 0.0059025575310583 0.0073410103875386 0.00015
          0.0059025575310583 0.0073410103875386 0.0003 0.005369078903807 0.0054112957512825 0
          0.0053441966179727 0.0050059769161847 0 0.0056930202847481 0.0049554676612008 0
          0.0057606246390047 0.0053811345728149 0 0.005369078903807 0.0054112957512825 0.00015
          0.0053441966179727 0.0050059769161847 0.00015 0.0056930202847481 0.0049554676612008 0.00015
          0.0057606246390047 0.0053811345728149 0.00015 0.005369078903807 0.0054112957512825 0.0003
          0.0053441966179727 0.0050059769161847 0.0003 0.0056930202847481 0.0049554676612008 0.0003
          0.0057606246390047 0.0053811345728149 0.0003 0.0057438065986578 0.0025718646608386 0
          0.0053684283361675 0.002728434685479 0 0.0057438065986578 0.0025718646608386 0.00015
          0.0053684283361675 0.002728434685479 0.00015 0.0057438065986578 0.0025718646608386 0.0003
          0.0053684283361675 0.002728434685479 0.0003 0.0061712548385041 0.0061513410385421 0
          0.006445117357903 0.0062971891343806 0 0.0062246515840748 0.0066057171706914 0
          0.0061712548385041 0.0061513410385421 0.00015 0.006445117357903 0.0062971891343806 0.00015
          0.0062246515840748 0.0066057171706914 0.00015 0.0061712548385041 0.0061513410385421 0.0003
          0.006445117357903 0.0062971891343806 0.0003 0.0062246515840748 0.0066057171706914 0.0003
          0.0053553835295756 0.0022900157905326 0 0.0057116151882083 0.0021168511926722 0
          0.0053553835295756 0.0022900157905326 0.00015 0.0057116151882083 0.0021168511926722 0.00015
          0.0053553835295756 0.0022900157905326 0.0003 0.0057116151882083 0.0021168511926722 0.0003
          0.0054233068561349 0.007134337670225 0 0.0059254586078826 0.006969673542248 0
          0.0054233068561349 0.007134337670225 0.00015 0.0059254586078826 0.006969673542248 0.00015
          0.0054233068561349 0.007134337670225 0.0003 0.0059254586078826 0.006969673542248 0.0003
          0.0057792643598707 0.0040250905144168 0 0.0057792643598707 0.0040250905144168 0.00015
          0.0057792643598707 0.0040250905144168 0.0003 0.0061880810420103 0.0058441905555885 0
          0.0066005814160285 0.0059502230786403 0 0.0061880810420103 0.0058441905555885 0.00015
          0.0066005814160285 0.0059502230786403 0.00015 0.0061880810420103 0.0058441905555885 0.0003
          0.0066005814160285 0.0059502230786403 0.0003 0.0054017220983371 0.0066575347525889 0
          0.0057115805714605 0.0066548075405697 0 0.0054017220983371 0.0066575347525889 0.00015
          0.0057115805714605 0.0066548075405697 0.00015 0.0054017220983371 0.0066575347525889 0.0003
          0.0057115805714605 0.0066548075405697 0.0003 0.005332609719228 0.0047287620137874 0
          0.0055816175545808 0.004587255111362 0 0.005332609719228 0.0047287620137874 0.00015
          0.0055816175545808 0.004587255111362 0.00015 0.005332609719228 0.0047287620137874 0.0003
          0.0055816175545808 0.004587255111362 0.0003 0.0053693194142364 0.0039518184911864 0
          0.0054474185858658 0.0042751360204936 0 0.0053693194142364 0.0039518184911864 0.00015
          0.0054474185858658 0.0042751360204936 0.00015 0.0053693194142364 0.0039518184911864 0.0003
          0.0054474185858658 0.0042751360204936 0.0003 0.0053395672611724 0.0018614292474742 0
          0.0053395672611724 0.0018614292474742 0.00015 0.0053395672611724 0.0018614292474742 0.0003
          0.0053367365074525 0.0010378216876611 0 0.0053236825500972 0.0014543115259673 0
          0.0053367365074525 0.0010378216876611 0.00015 0.0053236825500972 0.0014543115259673 0.00015
          0.0053367365074525 0.0010378216876611 0.0003 0.0053236825500972 0.0014543115259673 0.0003
          0.0056326688189693 0.0038271453778623 0 0.0056326688189693 0.0038271453778623 0.00015
          0.0056326688189693 0.0038271453778623 0.0003 0.0053236477572007 0.00066751117045644 0
          0.0053236477572007 0.00066751117045644 0.00015 0.0053236477572007 0.00066751117045644 0.0003
          0.0052365987891119 0.0074441888076402 0 0.0052365987891119 0.0074441888076402 0.00015
          0.0052365987891119 0.0074441888076402 0.0003 0.0052651323069134 0.00040272801788152 0
          0.0052651323069134 0.00040272801788152 0.00015 0.0052651323069134 0.00040272801788152 0.0003
          0.005675081773805 0.0016743369040255 0 0.005675081773805 0.0016743369040255 0.00015
          0.005675081773805 0.0016743369040255 0.0003 0.0056481668838523 0.0012062671985027 0
          0.0056481668838523 0.0012062671985027 0.00015 0.0056481668838523 0.0012062671985027 0.0003
          0.0055517738097912 0.00099492145317098 0 0.0055517738097912 0.00099492145317098 0.00015
          0.0055517738097912 0.00099492145317098 0.0003 0.005 0.0086896551724064 0
          0.005 0.0086896551724064 0.00015 0.005 0.0086896551724064 0.0003
          0.0045555555555561 0.0091034482758539 0 0.0045555555555561 0.0091034482758539 0.00015
          0.0045555555555561 0.0091034482758539 0.0003 0.005 0.0091034482758539 0
          0.005 0.0091034482758539 0.00015 0.005 0.0091034482758539 0.0003
          0.0027777777777802 0.0095172413793029 0 0.0023333333333353 0.0095172413793029 0
          0.0027777777777802 0.0095172413793029 0.00015 0.0023333333333353 0.0095172413793029 0.00015
          0.0027777777777802 0.0095172413793029 0.0003 0.0023333333333353 0.0095172413793029 0.0003
          0.0032222222222248 0.0095172413793029 0 0.0032222222222248 0.0095172413793029 0.00015
          0.0032222222222248 0.0095172413793029 0.0003 0.0036666666666675 0.0095172413793029 0
          0.0036666666666675 0.0095172413793029 0.00015 0.0036666666666675 0.0095172413793029 0.0003
          0.0041111111111126 0.0095172413793029 0 0.0041111111111126 0.0095172413793029 0.00015
          0.0041111111111126 0.0095172413793029 0.0003 0.0045555555555561 0.0095172413793029 0
          0.0045555555555561 0.0095172413793029 0.00015 0.0045555555555561 0.0095172413793029 0.0003
          0.0058653844060618 0.0079194158644502 0 0.0058653844060618 0.0079194158644502 0.00015
          0.0058653844060618 0.0079194158644502 0.0003 0.0061750164335738 0.0074760206739226 0
          0.0061750164335738 0.0074760206739226 0.00015 0.0061750164335738 0.0074760206739226 0.0003
          0.0060512178389602 0.0047929387822649 0 0.0062389906493372 0.0053128670028646 0
          0.0060512178389602 0.0047929387822649 0.00015 0.0062389906493372 0.0053128670028646 0.00015
          0.0060512178389602 0.0047929387822649 0.0003 0.0062389906493372 0.0053128670028646 0.0003
          0.0068354780286894 0.0065149558629347 0 0.0065694481807909 0.0068273110654121 0
          0.0068354780286894 0.0065149558629347 0.00015 0.0065694481807909 0.0068273110654121 0.00015
          0.0068354780286894 0.0065149558629347 0.0003 0.0065694481807909 0.0068273110654121 0.0003
          0.0061614658010566 0.0029736343202522 0 0.0061372854142827 0.0036106222238676 0
          0.0061614658010566 0.0029736343202522 0.00015 0.0061372854142827 0.0036106222238676 0.00015
          0.0061614658010566 0.0029736343202522 0.0003 0.0061372854142827 0.0036106222238676 0.0003
          0.0061231952422177 0.002444135475079 0 0.0061231952422177 0.002444135475079 0.00015
          0.0061231952422177 0.002444135475079 0.0003 0.0063586074578252 0.0071353312088165 0
          0.0063586074578252 0.0071353312088165 0.00015 0.0063586074578252 0.0071353312088165 0.0003
          0.005927800859391 0.0043689372395662 0 0.0063054236008776 0.0041223407032968 0
          0.005927800859391 0.0043689372395662 0.00015 0.0063054236008776 0.0041223407032968 0.00015
          0.005927800859391 0.0043689372395662 0.0003 0.0063054236008776 0.0041223407032968 0.0003
          0.0070635342364542 0.0061542378287001 0 0.0070635342364542 0.0061542378287001 0.00015
          0.0070635342364542 0.0061542378287001 0.0003 0.0071984303565192 0.0057392272964834 0
          0.0067200519522164 0.0055550541115669 0 0.0071984303565192 0.0057392272964834 0.00015
          0.0067200519522164 0.0055550541115669 0.00015 0.0071984303565192 0.0057392272964834 0.0003
          0.0067200519522164 0.0055550541115669 0.0003 0.0053754057810206 0.0085370600870078 0
          0.0053754057810206 0.0085370600870078 0.00015 0.0053754057810206 0.0085370600870078 0.0003
          0.0060722038988066 0.0019538017587265 0 0.0060722038988066 0.0019538017587265 0.00015
          0.0060722038988066 0.0019538017587265 0.0003 0.0055128205128194 0 0
          0.0057061681768373 0.00065177476244477 0 0.0055128205128194 0 0.00015
          0.0057061681768373 0.00065177476244477 0.00015 0.0055128205128194 0 0.0003
          0.0057061681768373 0.00065177476244477 0.0003 0.0060137569775388 0.0015029488511318 0
          0.0060137569775388 0.0015029488511318 0.00015 0.0060137569775388 0.0015029488511318 0.0003
          0.0059245902968253 0.0010856763727913 0 0.0059245902968253 0.0010856763727913 0.00015
          0.0059245902968253 0.0010856763727913 0.0003 0.0057785311780113 0.0084598603588589 0
          0.0057785311780113 0.0084598603588589 0.00015 0.0057785311780113 0.0084598603588589 0.0003
          <InformationKey name="L2_NORM_RANGE" location="vtkDataArray" length="2">
            <Value index="0">
              0.0018888888889
            </Value>
            <Value index="1">
              0.010555613194
            </Value>
          </InformationKey>
        </DataArray>
      </Points>
      <Cells>
        <DataArray type="Int64" Name="connectivity" format="ascii" RangeMin="0" RangeMax="779">
          6 0 1 7 8 2
          3 9 8 2 3 9
          10 4 5 11 12 6
          7 13 14 8 9 15
          14 8 9 15 16 10
          11 17 18 12 13 19
          20 14 15 21 20 14
          15 21 22 16 17 23
          24 18 19 25 26 20
          21 27 26 20 21 27
          28 22 23 29 30 24
          25 31 32 26 27 33
          32 26 27 33 34 28
          29 35 36 30 31 37
          38 32 33 39 38 32
          33 39 40 34 35 41
          42 36 37 43 44 38
          39 45 44 38 39 45
          46 40 41 47 51 48
          0 6 52 49 2 8
          52 49 2 8 53 50
          4 10 54 51 6 12
          55 52 8 14 55 52
          8 14 56 53 10 16
          57 54 12 18 58 55
          14 20 58 55 14 20
          59 56 16 22 60 57
          18 24 61 58 20 26
          61 58 20 26 62 59
          22 28 63 60 24 30
          64 61 26 32 64 61
          26 32 65 62 28 34
          66 63 30 36 67 64
          32 38 67 64 32 38
          68 65 34 40 69 66
          36 42 70 67 38 44
          70 67 38 44 71 68
          40 46 75 72 48 51
          76 73 49 52 76 73
          49 52 77 74 50 53
          78 75 51 54 79 76
          52 55 79 76 52 55
          80 77 53 56 81 78
          54 57 82 79 55 58
          82 79 55 58 83 80
          56 59 84 81 57 60
          85 82 58 61 85 82
          58 61 86 83 59 62
          87 84 60 63 88 85
          61 64 88 85 61 64
          89 86 62 65 90 87
          63 66 91 88 64 67
          91 88 64 67 92 89
          65 68 93 90 66 69
          94 91 67 70 94 91
          67 70 95 92 68 71
          99 96 72 75 100 97
          73 76 100 97 73 76
          101 98 74 77 102 99
          75 78 103 100 76 79
          103 100 76 79 104 101
          77 80 105 102 78 81
          106 103 79 82 106 103
          79 82 107 104 80 83
          108 105 81 84 109 106
          82 85 109 106 82 85
          110 107 83 86 111 108
          84 87 112 109 85 88
          112 109 85 88 113 110
          86 89 114 111 87 90
          115 112 88 91 115 112
          88 91 116 113 89 92
          117 114 90 93 118 115
          91 94 118 115 91 94
          119 116 92 95 123 120
          96 99 124 121 97 100
          124 121 97 100 125 122
          98 101 126 123 99 102
          127 124 100 103 127 124
          100 103 128 125 101 104
          129 126 102 105 130 127
          103 106 130 127 103 106
          131 128 104 107 132 129
          105 108 133 130 106 109
          133 130 106 109 134 131
          107 110 135 132 108 111
          136 133 109 112 136 133
          109 112 137 134 110 113
          138 135 111 114 139 136
          112 115 139 136 112 115
          140 137 113 116 141 138
          114 117 142 139 115 118
          142 139 115 118 143 140
          116 119 147 144 120 123
          148 145 121 124 148 145
          121 124 149 146 122 125
          150 147 123 126 151 148
          124 127 151 148 124 127
          152 149 125 128 153 150
          126 129 154 151 127 130
          154 151 127 130 155 152
          128 131 156 153 129 132
          157 154 130 133 157 154
          130 133 158 155 131 134
          159 156 132 135 160 157
          133 136 160 157 133 136
          161 158 134 137 162 159
          135 138 163 160 136 139
          163 160 136 139 164 161
          137 140 165 162 138 141
          166 163 139 142 166 163
          139 142 167 164 140 143
          174 171 144 147 175 172
          145 148 175 172 145 148
          176 173 146 149 177 174
          147 150 178 175 148 151
          178 175 148 151 179 176
          149 152 180 177 150 153
          181 178 151 154 181 178
          151 154 182 179 152 155
          183 180 153 156 184 181
          154 157 184 181 154 157
          185 182 155 158 186 183
          156 159 187 184 157 160
          187 184 157 160 188 185
          158 161 189 186 159 162
          190 187 160 163 190 187
          160 163 191 188 161 164
          192 189 162 165 193 190
          163 166 193 190 163 166
          194 191 164 167 198 195
          168 171 199 196 169 172
          199 196 169 172 200 197
          170 173 201 198 171 174
          202 199 172 175 202 199
          172 175 203 200 173 176
          204 201 174 177 205 202
          175 178 205 202 175 178
          206 203 176 179 207 204
          177 180 208 205 178 181
          208 205 178 181 209 206
          179 182 210 207 180 183
          211 208 181 184 211 208
          181 184 212 209 182 185
          213 210 183 186 214 211
          184 187 214 211 184 187
          215 212 185 188 216 213
          186 189 217 214 187 190
          217 214 187 190 218 215
          188 191 219 216 189 192
          220 217 190 193 220 217
          190 193 221 218 191 194
          225 222 195 198 226 223
          196 199 226 223 196 199
          227 224 197 200 228 225
          198 201 229 226 199 202
          229 226 199 202 230 227
          200 203 231 228 201 204
          232 229 202 205 232 229
          202 205 233 230 203 206
          234 231 204 207 235 232
          205 208 235 232 205 208
          236 233 206 209 237 234
          207 210 238 235 208 211
          238 235 208 211 239 236
          209 212 240 237 210 213
          241 238 211 214 241 238
          211 214 242 239 212 215
          243 240 213 216 244 241
          214 217 244 241 214 217
          245 242 215 218 246 243
          216 219 247 244 217 220
          247 244 217 220 248 245
          218 221 252 249 222 225
          253 250 223 226 253 250
          223 226 254 251 224 227
          255 252 225 228 256 253
          226 229 256 253 226 229
          257 254 227 230 258 255
          228 231 259 256 229 232
          259 256 229 232 260 257
          230 233 261 258 231 234
          262 259 232 235 262 259
          232 235 263 260 233 236
          264 261 234 237 265 262
          235 238 265 262 235 238
          266 263 236 239 267 264
          237 240 268 265 238 241
          268 265 238 241 269 266
          239 242 270 267 240 243
          271 268 241 244 271 268
          241 244 272 269 242 245
          273 270 243 246 274 271
          244 247 274 271 244 247
          275 272 245 248 279 276
          249 252 280 277 250 253
          280 277 250 253 281 278
          251 254 282 279 252 255
          283 280 253 256 283 280
          253 256 284 281 254 257
          285 282 255 258 286 283
          256 259 286 283 256 259
          287 284 257 260 288 285
          258 261 289 286 259 262
          289 286 259 262 290 287
          260 263 291 288 261 264
          292 289 262 265 292 289
          262 265 293 290 263 266
          294 291 264 267 295 292
          265 268 295 292 265 268
          296 293 266 269 297 294
          267 270 298 295 268 271
          298 295 268 271 299 296
          269 272 300 297 270 273
          301 298 271 274 301 298
          271 274 302 299 272 275
          306 303 276 279 307 304
          277 280 307 304 277 280
          308 305 278 281 309 306
          279 282 310 307 280 283
          310 307 280 283 311 308
          281 284 312 309 282 285
          313 310 283 286 313 310
          283 286 314 311 284 287
          315 312 285 288 316 313
          286 289 316 313 286 289
          317 314 287 290 318 315
          288 291 319 316 289 292
          319 316 289 292 320 317
          290 293 321 318 291 294
          322 319 292 295 322 319
          292 295 323 320 293 296
          324 321 294 297 325 322
          295 298 325 322 295 298
          326 323 296 299 327 324
          297 300 328 325 298 301
          328 325 298 301 329 326
          299 302 333 330 303 306
          334 331 304 307 334 331
          304 307 335 332 305 308
          336 333 306 309 337 334
          307 310 337 334 307 310
          338 335 308 311 339 336
          309 312 340 337 310 313
          340 337 310 313 341 338
          311 314 342 339 312 315
          343 340 313 316 343 340
          313 316 344 341 314 317
          345 342 315 318 346 343
          316 319 346 343 316 319
          347 344 317 320 348 345
          318 321 349 346 319 322
          349 346 319 322 350 347
          320 323 351 348 321 324
          352 349 322 325 352 349
          322 325 353 350 323 326
          354 351 324 327 355 352
          325 328 355 352 325 328
          356 353 326 329 360 357
          330 333 361 358 331 334
          361 358 331 334 362 359
          332 335 363 360 333 336
          364 361 334 337 364 361
          334 337 365 362 335 338
          366 363 336 339 367 364
          337 340 367 364 337 340
          368 365 338 341 369 366
          339 342 370 367 340 343
          370 367 340 343 371 368
          341 344 372 369 342 345
          373 370 343 346 373 370
          343 346 374 371 344 347
          375 372 345 348 376 373
          346 349 376 373 346 349
          377 374 347 350 378 375
          348 351 379 376 349 352
          379 376 349 352 380 377
          350 353 381 378 351 354
          382 379 352 355 382 379
          352 355 383 380 353 356
          387 384 360 363 388 385
          361 364 388 385 361 364
          389 386 362 365 390 387
          363 366 391 388 364 367
          391 388 364 367 392 389
          365 368 393 390 366 369
          394 391 367 370 394 391
          367 370 395 392 368 371
          396 393 369 372 397 394
          370 373 397 394 370 373
          398 395 371 374 399 396
          372 375 400 397 373 376
          400 397 373 376 401 398
          374 377 402 399 375 378
          403 400 376 379 403 400
          376 379 404 401 377 380
          405 402 378 381 406 403
          379 382 406 403 379 382
          407 404 380 383 411 408
          384 387 412 409 385 388
          412 409 385 388 413 410
          386 389 414 411 387 390
          415 412 388 391 415 412
          388 391 416 413 389 392
          417 414 390 393 418 415
          391 394 418 415 391 394
          419 416 392 395 420 417
          393 396 421 418 394 397
          421 418 394 397 422 419
          395 398 423 420 396 399
          424 421 397 400 424 421
          397 400 425 422 398 401
          426 423 399 402 427 424
          400 403 427 424 400 403
          428 425 401 404 429 426
          402 405 430 427 403 406
          430 427 403 406 431 428
          404 407 435 432 408 411
          436 433 409 412 436 433
          409 412 437 434 410 413
          438 435 411 414 439 436
          412 415 439 436 412 415
          440 437 413 416 441 438
          414 417 442 439 415 418
          442 439 415 418 443 440
          416 419 444 441 417 420
          445 442 418 421 445 442
          418 421 446 443 419 422
          447 444 420 423 448 445
          421 424 448 445 421 424
          449 446 422 425 450 447
          423 426 451 448 424 427
          451 448 424 427 452 449
          425 428 453 450 426 429
          454 451 427 430 454 451
          427 430 455 452 428 431
          459 456 432 435 460 457
          433 436 460 457 433 436
          461 458 434 437 462 459
          435 438 463 460 436 439
          463 460 436 439 464 461
          437 440 465 462 438 441
          466 463 439 442 466 463
          439 442 467 464 440 443
          468 465 441 444 469 466
          442 445 469 466 442 445
          470 467 443 446 471 468
          444 447 472 469 445 448
          472 469 445 448 473 470
          446 449 474 471 447 450
          475 472 448 451 475 472
          448 451 476 473 449 452
          477 474 450 453 478 475
          451 454 478 475 451 454
          479 476 452 455 483 480
          459 462 484 481 460 463
          484 481 460 463 485 482
          461 464 486 483 462 465
          487 484 463 466 487 484
          463 466 488 485 464 467
          489 486 465 468 490 487
          466 469 490 487 466 469
          491 488 467 470 492 489
          468 471 493 490 469 472
          493 490 469 472 494 491
          470 473 495 492 471 474
          496 493 472 475 496 493
          472 475 497 494 473 476
          498 495 474 477 499 496
          475 478 499 496 475 478
          500 497 476 479 504 501
          480 483 505 502 481 484
          505 502 481 484 506 503
          482 485 507 504 483 486
          508 505 484 487 508 505
          484 487 509 506 485 488
          510 507 486 489 511 508
          487 490 511 508 487 490
          512 509 488 491 513 510
          489 492 514 511 490 493
          514 511 490 493 515 512
          491 494 516 513 492 495
          517 514 493 496 517 514
          493 496 518 515 494 497
          519 516 495 498 520 517
          496 499 520 517 496 499
          521 518 497 500 525 522
          501 504 526 523 502 505
          526 523 502 505 527 524
          503 506 528 525 504 507
          529 526 505 508 529 526
          505 508 530 527 506 509
          531 528 507 510 532 529
          508 511 532 529 508 511
          533 530 509 512 534 531
          510 513 535 532 511 514
          535 532 511 514 536 533
          512 515 537 534 513 516
          538 535 514 517 538 535
          514 517 539 536 515 518
          687 537 516 519 688 538
          517 520 688 538 517 520
          689 539 518 521 543 540
          522 525 544 541 523 526
          544 541 523 526 545 542
          524 527 546 543 525 528
          547 544 526 529 547 544
          526 529 548 545 527 530
          549 546 528 531 550 547
          529 532 550 547 529 532
          551 548 530 533 552 549
          531 534 553 550 532 535
          553 550 532 535 554 551
          533 536 690 552 534 537
          691 553 535 538 691 553
          535 538 692 554 536 539
          693 690 537 687 694 691
          538 688 694 691 538 688
          695 692 539 689 696 697
          540 543 698 699 541 544
          698 699 541 544 700 701
          542 545 702 696 543 546
          703 698 544 547 703 698
          544 547 704 700 545 548
          705 702 546 549 706 703
          547 550 706 703 547 550
          707 704 548 551 708 705
          549 552 709 706 550 553
          709 706 550 553 710 707
          551 554 711 708 552 690
          712 709 553 691 712 709
          553 691 713 710 554 692
          555 556 557 558 559 560
          561 562 559 560 561 562
          563 564 565 566 567 568
          569 570 571 572 573 574
          571 572 573 574 575 576
          577 578 579 714 580 581
          582 715 583 584 582 715
          583 584 585 716 586 587
          579 588 717 714 582 589
          718 715 582 589 718 715
          585 590 719 716 591 592
          593 594 595 596 597 598
          595 596 597 598 599 600
          601 602 594 558 557 591
          598 562 561 595 598 562
          561 595 602 566 565 599
          603 567 570 604 605 571
          574 606 605 571 574 606
          607 575 578 608 555 609
          610 611 559 612 613 614
          559 612 613 614 563 615
          616 617 594 593 720 721
          598 597 722 723 598 597
          722 723 602 601 724 725
          726 727 611 610 728 729
          614 613 728 729 614 613
          730 731 617 616 567 732
          733 568 571 734 735 572
          571 734 735 572 575 736
          737 576 604 618 619 603
          606 620 621 605 606 620
          621 605 608 622 623 607
          567 603 738 732 571 605
          739 734 571 605 739 734
          575 607 740 736 579 624
          625 588 582 626 627 589
          582 626 627 589 585 628
          629 590 625 741 717 588
          627 742 718 589 627 742
          718 589 629 743 719 590
          744 630 733 745 746 631
          735 747 746 631 735 747
          748 632 737 749 633 634
          610 609 635 636 613 612
          635 636 613 612 637 638
          616 615 634 750 726 610
          636 751 728 613 636 751
          728 613 638 752 730 616
          555 558 633 609 559 562
          635 612 559 562 635 612
          563 566 637 615 753 750
          634 754 755 751 636 756
          755 751 636 756 757 752
          638 758 639 640 625 624
          641 642 627 626 641 642
          627 626 643 644 629 628
          625 611 727 741 627 614
          729 742 627 614 729 742
          629 617 731 743 634 633
          721 754 636 635 723 756
          636 635 723 756 638 637
          725 758 580 759 687 519
          583 760 688 520 583 760
          688 520 586 761 689 521
          581 580 519 498 584 583
          520 499 584 583 520 499
          587 586 521 500 592 645
          646 593 596 647 648 597
          596 647 648 597 600 649
          650 601 651 652 300 273
          653 654 301 274 653 654
          301 274 655 656 302 275
          569 651 273 246 573 653
          274 247 573 653 274 247
          577 655 275 248 556 405
          381 557 560 406 382 561
          560 406 382 561 564 407
          383 565 570 569 246 219
          574 573 247 220 574 573
          247 220 578 577 248 221
          557 381 354 591 561 382
          355 595 561 382 355 595
          565 383 356 599 604 570
          219 192 606 574 220 193
          606 574 220 193 608 578
          221 194 640 555 611 625
          642 559 614 627 642 559
          614 627 644 563 617 629
          618 604 192 165 620 606
          193 166 620 606 193 166
          622 608 194 167 657 618
          165 141 658 620 166 142
          658 620 166 142 659 622
          167 143 660 661 117 93
          662 663 118 94 662 663
          118 94 664 665 119 95
          661 657 141 117 663 658
          142 118 663 658 142 118
          665 659 143 119 762 738
          603 619 763 739 605 621
          763 739 605 621 764 740
          607 623 429 639 624 453
          430 641 626 454 430 641
          626 454 431 643 628 455
          666 568 733 630 667 572
          735 631 667 572 735 631
          668 576 737 632 669 660
          93 69 670 662 94 70
          670 662 94 70 671 664
          95 71 592 327 300 645
          596 328 301 647 596 328
          301 647 600 329 302 649
          721 633 558 594 723 635
          562 598 723 635 562 598
          725 637 566 602 744 720
          593 646 746 722 597 648
          746 722 597 648 748 724
          601 650 477 453 624 672
          478 454 626 673 478 454
          626 673 479 455 628 674
          327 592 591 354 328 596
          595 355 328 596 595 355
          329 600 599 356 669 675
          765 766 670 676 767 768
          670 676 767 768 671 677
          769 770 639 429 405 556
          641 430 406 560 641 430
          406 560 643 431 407 564
          581 672 624 579 584 673
          626 582 584 673 626 582
          587 674 628 585 678 619
          618 657 679 621 620 658
          679 621 620 658 680 623
          622 659 42 43 765 675
          44 45 767 676 44 45
          767 676 46 47 769 677
          646 645 300 652 648 647
          301 654 648 647 301 654
          650 649 302 656 619 678
          771 762 621 679 772 763
          621 679 772 763 623 680
          773 764 744 646 652 630
          746 648 654 631 746 648
          654 631 748 650 656 632
          678 681 774 771 679 682
          775 772 679 682 775 772
          680 683 776 773 681 678
          657 661 682 679 658 663
          682 679 658 663 683 680
          659 665 666 630 652 651
          667 631 654 653 667 631
          654 653 668 632 656 655
          651 569 568 666 653 573
          572 667 653 573 572 667
          655 577 576 668 681 684
          766 774 682 685 768 775
          682 685 768 775 683 686
          770 776 759 580 714 777
          760 583 715 778 760 583
          715 778 761 586 716 779
          672 581 498 477 673 584
          499 478 673 584 499 478
          674 587 500 479 639 556
          555 640 641 560 559 642
          641 560 559 642 643 564
          563 644 675 669 69 42
          676 670 70 44 676 670
          70 44 677 671 71 46
          684 681 661 660 685 682
          663 662 685 682 663 662
          686 683 665 664 660 669
          766 684 662 670 768 685
          662 670 768 685 664 671
          770 686
        </DataArray>
        <DataArray type="Int64" Name="offsets" format="ascii" RangeMin="8" RangeMax="3632">
          8 16 24 32 40 48
          56 64 72 80 88 96
          104 112 120 128 136 144
          152 160 168 176 184 192
          200 208 216 224 232 240
          248 256 264 272 280 288
          296 304 312 320 328 336
          344 352 360 368 376 384
          392 400 408 416 424 432
          440 448 456 464 472 480
          488 496 504 512 520 528
          536 544 552 560 568 576
          584 592 600 608 616 624
          632 640 648 656 664 672
          680 688 696 704 712 720
          728 736 744 752 760 768
          776 784 792 800 808 816
          824 832 840 848 856 864
          872 880 888 896 904 912
          920 928 936 944 952 960
          968 976 984 992 1000 1008
          1016 1024 1032 1040 1048 1056
          1064 1072 1080 1088 1096 1104
          1112 1120 1128 1136 1144 1152
          1160 1168 1176 1184 1192 1200
          1208 1216 1224 1232 1240 1248
          1256 1264 1272 1280 1288 1296
          1304 1312 1320 1328 1336 1344
          1352 1360 1368 1376 1384 1392
          1400 1408 1416 1424 1432 1440
          1448 1456 1464 1472 1480 1488
          1496 1504 1512 1520 1528 1536
          1544 1552 1560 1568 1576 1584
          1592 1600 1608 1616 1624 1632
          1640 1648 1656 1664 1672 1680
          1688 1696 1704 1712 1720 1728
          1736 1744 1752 1760 1768 1776
          1784 1792 1800 1808 1816 1824
          1832 1840 1848 1856 1864 1872
          1880 1888 1896 1904 1912 1920
          1928 1936 1944 1952 1960 1968
          1976 1984 1992 2000 2008 2016
          2024 2032 2040 2048 2056 2064
          2072 2080 2088 2096 2104 2112
          2120 2128 2136 2144 2152 2160
          2168 2176 2184 2192 2200 2208
          2216 2224 2232 2240 2248 2256
          2264 2272 2280 2288 2296 2304
          2312 2320 2328 2336 2344 2352
          2360 2368 2376 2384 2392 2400
          2408 2416 2424 2432 2440 2448
          2456 2464 2472 2480 2488 2496
          2504 2512 2520 2528 2536 2544
          2552 2560 2568 2576 2584 2592
          2600 2608 2616 2624 2632 2640
          2648 2656 2664 2672 2680 2688
          2696 2704 2712 2720 2728 2736
          2744 2752 2760 2768 2776 2784
          2792 2800 2808 2816 2824 2832
          2840 2848 2856 2864 2872 2880
          2888 2896 2904 2912 2920 2928
          2936 2944 2952 2960 2968 2976
          2984 2992 3000 3008 3016 3024
          3032 3040 3048 3056 3064 3072
          3080 3088 3096 3104 3112 3120
          3128 3136 3144 3152 3160 3168
          3176 3184 3192 3200 3208 3216
          3224 3232 3240 3248 3256 3264
          3272 3280 3288 3296 3304 3312
          3320 3328 3336 3344 3352 3360
          3368 3376 3384 3392 3400 3408
          3416 3424 3432 3440 3448 3456
          3464 3472 3480 3488 3496 3504
          3512 3520 3528 3536 3544 3552
          3560 3568 3576 3584 3592 3600
          3608 3616 3624 3632
        </DataArray>
        <DataArray type="UInt8" Name="types" format="ascii" RangeMin="12" RangeMax="12">
          12 12 12 12 12 12
          12 12 12 12 12 12
          12 12 12 12 12 12
          12 12 12 12 12 12
          12 12 12 12 12 12
          12 12 12 12 12 12
          12 12 12 12 12 12
          12 12 12 12 12 12
          12 12 12 12 12 12
          12 12 12 12 12 12
          12 12 12 12 12 12
          12 12 12 12 12 12
          12 12 12 12 12 12
          12 12 12 12 12 12
          12 12 12 12 12 12
          12 12 12 12 12 12
          12 12 12 12 12 12
          12 12 12 12 12 12
          12 12 12 12 12 12
          12 12 12 12 12 12
          12 12 12 12 12 12
          12 12 12 12 12 12
          12 12 12 12 12 12
          12 12 12 12 12 12
          12 12 12 12 12 12
          12 12 12 12 12 12
          12 12 12 12 12 12
          12 12 12 12 12 12
          12 12 12 12 12 12
          12 12 12 12 12 12
          12 12 12 12 12 12
          12 12 12 12 12 12
          12 12 12 12 12 12
          12 12 12 12 12 12
          12 12 12 12 12 12
          12 12 12 12 12 12
          12 12 12 12 12 12
          12 12 12 12 12 12
          12 12 12 12 12 12
          12 12 12 12 12 12
          12 12 12 12 12 12
          12 12 12 12 12 12
          12 12 12 12 12 12
          12 12 12 12 12 12
          12 12 12 12 12 12
          12 12 12 12 12 12
          12 12 12 12 12 12
          12 12 12 12 12 12
          12 12 12 12 12 12
          12 12 12 12 12 12
          12 12 12 12 12 12
          12 12 12 12 12 12
          12 12 12 12 12 12
          12 12 12 12 12 12
          12 12 12 12 12 12
          12 12 12 12 12 12
          12 12 12 12 12 12
          12 12 12 12 12 12
          12 12 12 12 12 12
          12 12 12 12 12 12
          12 12 12 12 12 12
          12 12 12 12 12 12
          12 12 12 12 12 12
          12 12 12 12 12 12
          12 12 12 12 12 12
          12 12 12 12 12 12
          12 12 12 12 12 12
          12 12 12 12 12 12
          12 12 12 12 12 12
          12 12 12 12 12 12
          12 12 12 12 12 12
          12 12 12 12 12 12
          12 12 12 12 12 12
          12 12 12 12 12 12
          12 12 12 12 12 12
          12 12 12 12
        </DataArray>
      </Cells>
    </Piece>
  </UnstructuredGrid>
</VTKFile>
