<?xml version="1.0"?>
<VTKFile type="UnstructuredGrid" version="0.1" byte_order="LittleEndian" header_type="UInt32" compressor="vtkZLibDataCompressor">
  <UnstructuredGrid>
    <Piece NumberOfPoints="798" NumberOfCells="454">
      <PointData>
        <DataArray type="Int32" Name="libmesh_node_id" format="ascii" RangeMin="2250" RangeMax="5441">
          2250 2251 2252 2253 2254 2255
          2256 2257 2258 2259 2260 2261
          2274 2275 2276 2277 2278 2279
          2280 2281 2282 2283 2284 2285
          2298 2299 2300 2301 2302 2303
          2304 2305 2306 2307 2308 2309
          2328 2329 2330 2331 2332 2333
          2334 2335 2336 2337 2338 2339
          2352 2353 2354 2355 2356 2357
          2358 2359 2360 2361 2362 2363
          2376 2377 2378 2379 2380 2381
          2382 2383 2384 2385 2386 2387
          2424 2425 2426 2427 2428 2429
          2430 2431 2432 2445 2446 2447
          2448 2449 2450 2451 2452 2453
          2454 2455 2456 2457 2458 2459
          2460 2461 2462 2481 2482 2483
          2484 2485 2486 2493 2494 2495
          2496 2497 2498 2535 2536 2537
          2538 2539 2540 2541 2542 2543
          2544 2545 2546 2547 2548 2549
          2562 2563 2564 2565 2566 2567
          2568 2569 2570 2571 2572 2573
          2604 2605 2606 2607 2608 2609
          2610 2611 2612 2615 2619 2623
          2625 2626 2627 2628 2629 2630
          2631 2632 2633 2664 2665 2666
          2667 2668 2669 2670 2671 2672
          2787 2788 2789 2790 2791 2792
          2793 2794 2795 2820 2821 2822
          2823 2824 2825 2850 2851 2854
          2855 2858 2859 2880 2882 2884
          2886 2887 2888 2889 2890 2891
          2892 2893 2894 2895 2896 2897
          2898 2899 2900 2928 2929 2930
          2931 2932 2933 2934 2935 2936
          2937 2938 2939 2972 2975 2978
          2979 2980 2981 2982 2983 2984
          2985 2986 2987 2988 2989 2990
          3078 3079 3080 3111 3112 3113
          3114 3115 3116 3129 3130 3131
          3132 3133 3134 3135 3136 3137
          3138 3139 3140 3141 3142 3143
          3144 3145 3146 3147 3148 3149
          3150 3151 3152 3153 3154 3155
          3156 3157 3158 3159 3160 3161
          3162 3163 3164 3165 3166 3167
          3186 3188 3189 3191 3192 3194
          3259 3261 3263 3342 3343 3344
          3345 3346 3347 3435 3436 3437
          3438 3439 3440 3447 3448 3449
          3450 3451 3452 3513 3514 3515
          3519 3520 3521 3522 3523 3524
          3537 3538 3539 3540 3541 3542
          3714 3715 3716 3717 3718 3719
          3720 3721 3722 3792 3793 3794
          3822 3823 3824 3825 3826 3827
          3828 3829 3830 3831 3832 3833
          3855 3856 3857 3858 3859 3860
          3867 3868 3869 3870 3871 3872
          3873 3874 3875 3876 3877 3878
          3879 3880 3881 3883 3886 3889
          3921 3922 3923 3957 3961 3965
          4065 4066 4067 4077 4078 4079
          4086 4087 4088 4119 4120 4121
          4191 4192 4193 4206 4207 4210
          4211 4214 4215 4224 4225 4226
          4227 4228 4229 4251 4252 4253
          4260 4261 4262 4263 4264 4265
          4275 4276 4277 4278 4279 4280
          4296 4297 4298 4347 4348 4349
          4401 4402 4403 4404 4405 4406
          4407 4408 4409 4410 4411 4412
          4413 4414 4415 4431 4432 4433
          4452 4453 4454 4461 4462 4463
          4464 4465 4466 4533 4534 4535
          4551 4552 4553 4554 4555 4556
          4557 4558 4559 4560 4561 4562
          4590 4591 4592 4593 4594 4595
          4608 4609 4610 4617 4618 4619
          4620 4621 4622 4623 4624 4625
          4626 4627 4628 4629 4630 4631
          4665 4666 4667 4668 4669 4670
          4680 4681 4682 4683 4684 4685
          4719 4720 4721 4728 4729 4730
          4731 4732 4733 4734 4735 4736
          4752 4753 4754 4761 4762 4763
          4764 4765 4766 4767 4768 4769
          4773 4774 4775 4785 4786 4787
          4869 4870 4871 4881 4882 4883
          4887 4888 4889 4890 4891 4892
          4893 4894 4895 4917 4918 4919
          4920 4921 4922 4926 4927 4928
          4929 4930 4931 4962 4963 4964
          4965 4966 4967 4971 4972 4973
          4974 4975 4976 4995 4996 4997
          4998 4999 5000 5001 5002 5003
          5004 5005 5006 5022 5023 5024
          5031 5032 5033 5037 5038 5039
          5046 5047 5048 5049 5050 5051
          5052 5053 5054 5058 5059 5060
          5064 5065 5066 5067 5068 5069
          5070 5071 5072 5076 5077 5078
          5082 5083 5084 5085 5086 5087
          5091 5092 5093 5097 5098 5099
          5100 5101 5102 5106 5107 5108
          5109 5110 5111 5112 5113 5114
          5115 5116 5117 5118 5119 5120
          5121 5122 5123 5124 5125 5126
          5127 5128 5129 5130 5131 5132
          5133 5134 5135 5136 5137 5138
          5139 5140 5141 5142 5143 5144
          5145 5146 5147 5148 5149 5150
          5154 5155 5156 5157 5158 5159
          5163 5164 5165 5166 5167 5168
          5172 5173 5174 5175 5176 5177
          5181 5182 5183 5184 5185 5186
          5190 5191 5192 5193 5194 5195
          5196 5197 5198 5199 5200 5201
          5250 5251 5252 5277 5278 5279
          5304 5305 5306 5331 5332 5333
          2852 2853 2856 2857 2860 2861
          2970 2644 2971 2973 2647 2974
          2976 2650 2977 3187 3190 3193
          4662 4663 4664 3270 3271 3272
          5151 5152 5153 5160 5161 5162
          5169 5170 5171 5178 5179 5180
          5187 5188 5189 5202 5203 5204
          5205 5206 5207 5253 5254 5255
          5280 5281 5282 5307 5308 5309
          5334 5335 5336 5358 5359 5360
          5361 5362 5363 5385 5386 5387
          5412 5413 5414 5439 5440 5441
        </DataArray>
        <DataArray type="Float64" Name="resid_x" format="ascii" RangeMin="-0.29312174866164664" RangeMax="0.2570419589700954">
          -0.00001608024282795384 0.0006570204874796204 0.00028344168197741437 0.001654132533372099 -0.0038577462566484755 -0.0051366653075417545
          -0.006488876346319783 -0.0027097119328596264 -0.01033253934223577 -0.009732617578107394 -0.010486051308778443 -0.012863839573131308
          -0.00004574073531937728 0.0010752008222878473 0.0014894542620658147 0.0021534135529845955 -0.0030053428639051916 -0.0039373039825725265
          -0.0024481358816852428 -0.005422452934581656 -0.0191572811664269 -0.019009279656979405 -0.01779212959323284 -0.02103333565398957
          0.03341029924974048 -0.012647462942422472 -0.14703933923037305 -0.10429333564275645 0.06956905703532801 -0.02305967122140906
          -0.2906579607309787 -0.2134746471875566 0.04151492779113397 -0.009981665946511953 -0.14594743005997124 -0.0897732204295476
          -0.006787378761261564 0.0007662467136713147 -0.00006545938374191707 -0.009245872733744553 -0.0158846498888785 -0.00043419609844175255
          -0.004931301694149681 -0.02470049597145385 -0.015119397814385316 -0.010053254902889996 -0.014006741560587344 -0.019500989106795652
          -0.00017818337489750036 0.00041575984491437623 0.0010851337532225003 0.0015633222095923216 -0.0031311686348125534 -0.0021281401547144085
          -0.003673345061319111 -0.003039067692625075 -0.011282563034604287 -0.012403618547641493 -0.015158434897515782 -0.01401572263607509
          -0.00034170412706835407 0.0014601936654576875 0.0014662700875591739 0.0021616625738323236 -0.003746212121953363 -0.005390784221084743
          -0.0016813873146945824 -0.004243915386999753 -0.01965730465012605 -0.02604056628972984 -0.025038372208431525 -0.02310540899947089
          -0.01012997520124026 -0.001942308447792307 -0.003466757417607269 -0.0060597622896438885 -0.0027611030635110723 -0.004957296856464843
          -0.01930774417582848 -0.01888845351472357 -0.02261186510513369 -0.014879147690722405 -0.008951729966946154 -0.007598892528584145
          -0.0021825518038598446 -0.025220908357111327 -0.020853834347922984 0.000785028218600381 0.00106431526360673 0.0009222993114894606
          0.003893998922918307 0.0001233442063144352 0.0001252782169004485 0.00009106642372547213 0.0021632645265077244 -0.005625966849597486
          -0.006950836362441537 -0.007370365656657718 -0.007950143142808619 -0.0064203938743201405 -0.00880879030180104 -0.004024289770895528
          -0.006569417220475771 -0.014860031682028207 -0.017919722443188846 -0.018237334001742322 -0.009824788092732462 -0.005600510252152802
          -0.0013609301972770105 -0.017870322270618022 -0.017204839222503043 -0.019606110435338664 -0.14840279549516744 -0.0796118089894966
          -0.03307737879706352 -0.29312174866164664 -0.1590968801840731 -0.012398015135435259 -0.14269389168202729 -0.07839778159838673
          -0.01092869734230506 -0.00730788497767243 -0.0065603703848984285 -0.004754818174985687 -0.017373463316720628 -0.018115421274469412
          -0.00013134493918087742 0.0013335945030696905 0.0013073702627188766 0.0020534069505746544 -0.002010750751080259 -0.0025837525855032517
          -0.0009837504733951619 -0.002477247910808167 -0.015002777752145313 -0.019517210680493058 -0.017449075009450254 -0.016848017741192045
          -0.011238289156281667 -0.017014528110260052 -0.006301242923766104 -0.003223325914547104 -0.008901143935791112 -0.001992932913009504
          -0.014113501466911593 -0.017830872829831534 -0.012352668290406044 -0.012498312299476844 -0.013477230144674834 -0.019072567425097553
          -0.012347837233420478 -0.004623148644401276 -0.005196102482741161 -0.0059857240149812085 -0.0020409049721967776 -0.0027452576049951105
          -0.019706796936718618 -0.021815678985835696 -0.01385084610648235 -0.012578758299233161 -0.00199538030162838 -0.0113787517295032
          -0.002774455516851182 0.0003269858957093419 -0.004000359949839716 -0.01210116378978432 -0.011626737700897394 -0.01845196355838219
          -0.009322923600752375 -0.003436165007715708 -0.009184069798293226 -0.004648970589730794 -0.002414003032274792 -0.006100544560781795
          -0.014466769565438575 -0.009147406621736742 -0.012319113883036081 -0.00997457361271259 -0.0079732808766666 -0.007322217741738024
          -0.00347255565559923 -0.01193169670239591 -0.013680178264039 -0.006497234052853962 -0.0036226393305760496 -0.01331148396106041
          -0.010473567019948504 -0.014069640172558628 -0.015420659135955361 -0.012577842276493278 -0.02362638440777154 -0.008945842316927965
          -0.0019613708980710243 -0.0009176390187191075 -0.0010558651874053027 -0.003551396544662744 -0.006788339291640355 -0.007311300477458538
          -0.009740375751911667 -0.017855577360848862 -0.0011953325498219591 -0.004791042829762837 -0.015169310229490751 -0.016727056371238724
          -0.02304695979289839 -0.007048193813526282 -0.02083906778001321 -0.0003069615210691268 0.0012546572269034328 0.001133240698047544
          0.0020008584471464808 -0.0038941642037535473 -0.006185128616877478 -0.004224730257246456 -0.004932189793214636 -0.019079338496821308
          -0.022720283718779655 -0.02403667923374453 -0.02222347617892062 0.00019408033796075586 -0.0000372411109559323 0.00651100020260742
          0.05805310079283643 0.0032586605196698315 0.11626277212462632 0.009061022362887527 0.0646334797451864 0.006382100158763393
          -0.009607508839200918 -0.010876138400075952 -0.0064287316562294805 -0.007250968239240763 -0.0085022122970555 -0.008061455481166213
          -0.012431350670605745 -0.003295321578317356 -0.012220048373730918 -0.008822684562440841 -0.01694654840973442 -0.0030009081198993925
          -0.0029603406403282406 -0.010318754704957911 -0.011773166914988309 -0.011871450587835675 -0.009402572494499495 -0.010061906351250371
          -0.004912762118128633 -0.004673517986597986 -0.001859365078576758 -0.013848636996389274 -0.0049194137184382924 -0.010583229197661304
          -0.004375348348810704 -0.010324798216771569 -0.007200951973816316 -0.01375156080180151 -0.012823236651422987 -0.004377866988516388
          -0.00314885462746195 -0.005653431545427523 -0.0039882158076272045 0.040085368652706066 0.1032329633652731 0.08362952051327
          0.12738048552061798 0.07983033388557281 0.2036148113128018 0.16675925891974508 0.2570419589700954 0.03647912924349761
          0.0987037223296463 0.08594605320107096 0.12960979732212863 -0.012723633575074444 -0.004357410348450941 -0.016782604795544387
          -0.009468234250243235 -0.01147149786899826 -0.005860551177927498 -0.0120967158211851 -0.014155593681888234 -0.023935340705554253
          -0.013447320223281878 -0.016413816772295142 -0.00897384975266391 -0.02959948628100051 -0.015389815292011555 -0.01433874485650577
          -0.016091333230797922 -0.014469473897074536 -0.008501462844217933 -0.015366655015124575 -0.012744088365923556 -0.005840007356806787
          -0.007436858341699937 -0.01781100656219614 -0.0164137263223878 -0.010368786399013452 -0.018660046592693824 -0.0034816507644658823
          -0.012457867331702843 -0.01594609412519432 -0.013624520519003092 -0.01212672485540267 -0.010121591943639707 -0.001815350987276254
          -0.0051941050188295534 -0.013481333288996034 -0.012701886200515933 -0.011328071343352342 -0.006447218486316686 -0.010896996522389735
          -0.02072054553746394 -0.012197386269205523 -0.005785706036024685 -0.00888263674482559 -0.0226323264231576 -0.013851914367431384
          -0.01764513002333956 -0.015933115641054485 -0.017337806181625837 -0.009205992181048117 -0.008781496610572148 -0.00742472469578459
          -0.005056670448930101 -0.017831849178559844 -0.009283396140619349 -0.0020855446006592393 -0.009896227325323359 -0.006397438197554006
          -0.007770234849680424 -0.019219449213781825 -0.012927435543218735 -0.010769743916115848 -0.0012931535052216336 -0.010520086112686844
          -0.02502990977661934 -0.01888729416769941 -0.009754835124986982 -0.007316957881734254 -0.023913820233294913 -0.02062021534918479
          -0.011220898873785856 -0.015566719133316642 -0.0016111881676055262 -0.00437423458845787 -0.01422561312953885 -0.016313632555889246
          0.12364080553323764 -0.004311839009265128 0.25540183986431214 -0.001600040726195573 0.13241825951099417 -0.0012722685570292214
          -0.01741298680488157 -0.007096984500869041 -0.005363608458199387 -0.00353169622597882 -0.01396881309575404 -0.006391688818046859
          -0.015211841219246125 -0.012372073338941969 -0.014470930841143925 -0.02462976242426862 -0.0035041936960532594 -0.01362314881748361
          -0.013439994575255909 -0.0071916398855391694 -0.011713625100274072 -0.016693974671122547 -0.025891678485443492 -0.013437788599295786
          -0.018125794850539556 -0.0027375332243897432 -0.017613886926599154 -0.01661843576025923 -0.02404431540972407 -0.013134193872524236
          -0.01155138122715682 -0.005403287331842366 -0.0064826052030031445 -0.021823128059127672 -0.005097283681193776 -0.01721325673027918
          -0.013061025122670156 -0.0032327701753742666 -0.011051987924795004 -0.011527622930001868 -0.013736407614544532 -0.007583081016151461
          -0.010522634163317335 -0.0018697280932897797 -0.00849222993809251 -0.006726720378911644 -0.017369526269606084 -0.014911312483924632
          -0.02992091807436026 -0.008784530248255429 -0.018176553195466738 -0.00012793526879217865 -0.006589679950342653 -0.0005963001504349918
          -0.004164553640474633 -0.0032815612308212394 -0.010194236239779997 -0.01965299116107655 -0.025257805164040192 -0.011683604458527341
          -0.005584395311306167 -0.013440448747664036 -0.002117579713039497 -0.0035061326586314223 -0.006778641701813193 -0.012307419392801222
          0.05921481439953524 -0.09562474176861002 0.12461871497844257 -0.1896342839593892 0.06581647007141456 -0.09372714644662494
          -0.006498359816541566 -0.0013337788274601081 -0.001243965177096129 -0.016638179235997086 -0.016926633971696248 -0.009342748261671474
          -0.0022989705551248463 -0.0022974691412978032 -0.0008921434321482735 -0.0009912738616719707 -0.0031053214892899916 -0.004332238566706614
          -0.00481756511108955 -0.0033629583547387654 -0.0033287411031164282 -0.0035561170598761294 -0.010743981140861614 -0.01173923951550293
          -0.014154869649744661 -0.0070631580506148595 -0.007692518348167532 -0.013939480580412056 -0.013446726596811232 -0.01004409576302967
          -0.01013122568056346 -0.0023269056430279544 -0.004812492724704853 -0.012400695151360885 -0.005605089210923175 -0.007703746816719814
          -0.0029610637025054842 -0.017250673297104946 -0.008897589591542854 -0.018193311737866313 -0.005130140230877878 -0.014590007925893378
          -0.002926761662850552 -0.00916983866032961 0.0001209889563273947 0.0013062770812295454 -0.0030217553000930764 -0.006673542000839028
          -0.0006012164304474155 0.00014587099275598092 -0.0062513927795952995 -0.014797387973459308 -0.009917958528420812 -0.005706825002267379
          -0.01821454945601353 -0.0040725708610818145 -0.011834523010236353 0.000408038132731825 -0.02240429894248397 -0.010405416017695401
          -0.017470755320997178 -0.0076686523386326755 -0.009785715481489987 -0.009062745956550877 -0.01848181105379254 -0.0039752699867898755
          -0.012095716779855437 -0.012886250379550823 -0.017500476473481186 -0.011267872508685883 -0.004356005260105711 -0.0015024649955535097
          -0.0026280928603483744 -0.012634687786214016 -0.010745842024297403 -0.022845310962021692 -0.001869270360001174 -0.008648357584998934
          -0.02603752112733937 -0.001138812895512764 -0.010131085535571849 -0.010797433078732543 -0.0016480535486017578 -0.007493838364338923
          -0.017924330859913518 -0.009350143312919279 -0.0006439407874108127 -0.0004325818754882249 -0.0070705999227782534 -0.004085640163903115
          -0.011912694050350892 -0.0022698872560404926 -0.009054748936304868 -0.00016931244393703082 -0.006121127744568078 -0.011618698818374185
          0.0005104004811276042 -0.009021839130651799 -0.001974855740790815 -0.002841677395830189 -0.00969231732923026 -0.0070216034071632905
          -0.008728275840039879 -0.002764924676795677 -0.00545838632816209 -0.0031277905216677837 -0.0014404267973664453 -0.00809377666090505
          -0.001064268465436058 -0.002488001199193235 -0.00582290127655094 -0.007926906626359198 -0.007664940163058631 -0.013144086078814787
          -0.006531227089087821 -0.004843346845044394 -0.006982353652364104 -0.02448824034260655 -0.005330843821911291 -0.015220824223626916
          0.05513893612437215 0.12389367053600076 0.06497305520577434 -0.014188103320482703 -0.008957661424659591 -0.010494260706713554
          -0.017397635457134353 -0.009170102845597938 -0.006497260224129775 -0.004217672180911958 -0.011833795722131057 -0.00700723295700989
          -0.006997541828559051 0.0003483356089049039 -0.004912719074527061 -0.016544236568220683 -0.019920715248762377 -0.002594304695888283
          -0.010109924464674513 -0.007256377690812776 -0.014209256679962312 -0.01562396669692756 -0.014468761987622258 -0.0054170954021284246
          -0.00733521608787413 -0.011734612898854024 -0.008481996850843387 -0.009745806244426447 -0.01063949846710166 -0.000445761405413414
          -0.0011111680760116371 -0.0027571584234440394 -0.003748434142403667 -0.003049908864128703 -0.0027226184918891505 1.9792506567029022e-7
          -0.00002190108598565388 -0.0019499322036393707 -0.004611358522757847 -0.015091501148523534 -0.0033879906266953697 -0.0016132504633690203
          -0.007126508249604591 -0.001979803788015211 -0.0007038494949647145 -0.008045334754744893 -0.002826521702274043 -0.002042463977597997
          -0.01115838209585851 0.0005211995142984094 -0.002940982531732139 0.003008314628656805 0.010377003049454991 0.004210460730230459
          -0.006132505456729831 -0.001261492765094907 -0.003632994816923585 -0.008936279925030988 0.0038747676793970953 0.003391569279822093
          0.03491855272094657 -0.011826384302405124 -0.0010954666023827997 0.07007030784070345 -0.022989263421164807 -0.00026826602831686586
          0.035355066446742356 -0.009424727068724437 0.002529017341494022 0.0625405459359234 0.1268459475097483 0.06253576623954604
          -0.005886862833834883 -0.002295060140115268 -0.0031171111363770265 -0.008127994402393313 -0.01013742416637875 -0.0030518817710323276
          -0.001606031242072703 -0.0010163050410225694 0.0010537501091985035 -0.09653473189279271 -0.19255329617178862 -0.09471169530232615
          0.021463537128540544 0.048869830719870055 0.025103767888784878 -0.0016484973521357915 -0.000148571064588765 0.004013496795163718
          -0.00032281860934180173 -0.00025074535501889983 0.0013656257563230412 -0.0008681417504003974 -0.0002595825430624643 0.0027308953391100843
          -0.00008544356860618052 0.0004459862223988864 0.0025140261434835054 -0.0007892668613642684 -0.000770982575474477 -0.0005647761508384974
          0.00046807137883853045 0.001301140596089212 -0.00029188904838761687 -0.00004321179401856057 -0.00006455072395006312 0.0005956900997361458
          0.00023964844912782723 0.0003119359092735863 0.0002546688945734843 -0.0005686756590126407 -0.0005397095528145712 0.0005783312216696146
          0.0003447568068128959 -0.00010832590713860668 -0.0000695694175174566 -0.0550433791421856 -0.10771532858785804 -0.049007066486442596
          -0.0009817582865796481 0.00045026925848112853 0.0027893449872227194 0.0003075095851539089 0.0004889631938880257 -0.00007492543532627849
          -0.015943893037857038 -0.02972278833724218 -0.006437324931924948 -0.05509962906771193 -0.1082146237298609 -0.04858089673733801
          0.0004986039710654921 0.0007190159571770494 0.001966390704682297 0.0982304448587712 0.2001880885060192 0.10605273319122155
          -0.041928171554635796 -0.08377344613487914 -0.03344789186014552 -0.05617818398853558 -0.11179627623131161 -0.05121007282848744
          0.1201725435028056 0.23865915988919006 0.12770496969739398 -0.12954113532221 -0.25799822259518734 -0.12125184013883583
          0.07053623411040633 0.13939730323727595 0.07538973138089844 0.04348193490403318 0.08848772576232378 0.05297513811144405
          -0.00010133642128629106 0.0008446510124038298 0.0029694948673686383 0.12011269272111669 0.24452979088176008 0.1276953759968098
          -0.0058187374794851365 -0.00975934312224247 -0.008367499116491928 0.03806498204327724 0.08625476017661349 0.045313234810713254
          0.011633931775016038 0.0270901457720516 0.010419023141695405 0.009300699440808913 0.028835606370197553 0.014795252625001254
          -0.0005205085267316889 0.00006730863655057817 0.000958407824287022 0.00067599882639513 0.0005853604850720728 0.0002858310090712024
          -0.0001212888184483063 0.0003829292471291268 0.0005395985974647743 0.0009759970144713748 0.0013286770594316266 0.0007970239245072008
          0.0009834617182828964 0.001658067311769429 0.0022350886696091976 -0.010056682893425872 -0.01927409098662025 -0.00388805497066258
          -0.01977934584072827 -0.016901646305241158 -0.01642574712886713 -0.014810089362963907 -0.012572533154314058 -0.012302847454076726
          -0.007621270523010537 -0.0008712430122521653 -0.005364856006343288 0.0022322325595247605 0.0001884752931040623 -0.007161920756374229
          -0.0008166884724829515 -0.011987710935214224 -0.0012510685718503112 -0.020205065216755358 -0.023326034116895045 -0.01226833883588796
          -0.01567704591616703 -0.0062765688220824956 -0.010953615628841007 -0.01040932212608503 -0.014114177647581272 -0.007493980802409261
          0.014480575876243407 0.038570578740614536 0.026120916814475592 -0.006853150672199604 -0.001528716755515802 0.0026970531219454585
          -0.009259654080338464 -0.005329489671233034 -0.005011023192778907 -0.015081536864101963 -0.011050970257720394 -0.013160885829460511
          0.006707070350870481 0.03298056378615044 0.013187547964282231 -0.00013076620124152782 -0.00013578276768910769 0.0008760771400275758
          0.0004289529095586886 0.0005540589205210722 0.00036422665053947867 0.00008777727930464607 0.00012509647086744735 0.0005933696728419591
          0.00003503302356477889 -0.00014936312071256452 0.0008328285716672212 0.0006806351531807309 0.0009209245536965227 0.0013941244963362465
          0.0007317149047239013 0.0012531172354854903 0.002600339004061425 -0.12124801330998025 -0.24049002396434815 -0.10983871652258337
          0.000338657404624243 0.00084780365727255 0.005277394052718876 -0.12048277459468437 -0.23548403553667896 -0.10888106444209811
          0.07603156748624684 0.16845270257233835 0.09111297547653052 0.09241201961110512 0.1839358985290147 0.09445764775080612
        </DataArray>
        <DataArray type="Float64" Name="resid_y" format="ascii" RangeMin="-7.244973753383535" RangeMax="0.9920011343172315">
          0.00019810656886842803 0.00067210039018171 -0.0005112815466399023 0.00003657793567918288 0.001283824858652527 0.003507301318660734
          -0.0018004686894609878 0.0015971025786131188 0.0021750789897538175 0.0033954501385363538 0.0013937649463534596 0.0023516006908165243
          -0.000047965719174515586 0.0002504621676781976 -0.00015529231949985844 0.0004947777555157074 -0.0009726683744549838 -0.0004643528275693892
          -0.0000540352263047883 0.0011435771944822426 -0.0021285000979916896 -0.000989373026500165 -0.00008192403339674081 -0.0009958812763505853
          0.014088734882267917 0.02136701333720481 -0.018158112668361426 -0.0462515170051544 0.030202983389962523 0.042477256091058235
          -0.03856913705525433 -0.09190817179541577 0.008279964184109923 0.021792884195370732 -0.010492750267000722 -0.04513493840637528
          0.008062118581865133 0.0008045486234086324 0.0021829318201026793 0.0027438384712131086 0.016942543796744175 0.0008271322521814922
          0.0007683328697841649 0.007013007575715435 0.009483384131408243 -0.00035333408344229156 -0.0008276447164257961 0.004889504819091367
          0.000003315875372056354 0.00008798736750748309 0.0003643071771613493 -0.000020418293860823174 -0.000544621875546214 -0.00036476981143759683
          0.000429160847882859 -0.0020596483504857783 -0.0017806397244544137 -0.0018711619139749544 -0.0015398861865981994 -0.0018760766467336093
          -0.00009579859399816426 0.0004297042046995936 -0.0005671266669533548 -0.0002796620175967157 0.00039637297017910966 -0.000979106343081959
          -0.0012256373429354595 0.0008051966251424181 0.0014849093192902257 -0.0011335847826646206 0.00025020541503573135 0.0014005675133027806
          -0.005053817276226696 -0.002383563044005499 0.0009037780110594529 -0.0027239689482820573 -0.00042291166409705316 -0.0011786366016775796
          -0.0022388504858326386 -0.0007177128193442683 -0.0016853830065486353 -0.0012836618831204571 -0.00516150470595457 0.0007200528516725091
          -0.0023831539117457473 -0.00048171473261518494 -0.0001470073946418654 -0.000009838800844930162 0.0001354054358841117 -0.0001889081075605037
          0.0011320084143695425 -0.0007139222334022199 -0.0006477307375695046 -0.0011429255991254883 0.001842280299079499 -0.006491359874096714
          -0.004928790646707287 -0.003580319344685612 -0.0053464676805694 0.00527384965757563 0.005358942338564904 0.0021943427951311018
          -0.0007270080081547003 0.001431666199817383 -0.0011473632958090563 -0.00010737555432371176 -0.00498971838761177 0.002271316472759466
          -0.0012293777094872591 0.0001171696859064153 -0.0005494329018338757 0.021350086994681272 -0.014453627307881994 -0.0263808603072907
          0.043894654836139746 -0.02905515335012801 -0.05205569175056485 0.020354841523677142 -0.016257014576235518 -0.02610056402814251
          -0.0028503550657726223 -0.0047168663970049984 0.0008290955768366776 0.0001522218713565643 0.002830610617940668 0.002444907708156585
          -0.00035692277032607633 0.0003622260677879352 0.000058878800288750255 0.0009559305663659513 -0.0018650382958943987 -0.0008778751671372625
          -0.0017568865054911342 -0.0005414938425657399 -0.008135037519775873 -0.007604731465259973 -0.005966689540280609 -0.007833074420377034
          -0.001569635047531756 0.001139666195109551 0.004109629841226314 -0.00066042242796642 0.0012701213248172694 0.002027840818085491
          -0.0029937672290947653 -0.0019245430233202077 -0.003194905123226094 -0.001736043876866017 0.006222146597712849 0.003974593631834868
          -0.00363182578230678 0.0009477525654967081 0.0006001089832444462 -0.00025272945274344705 -0.0011172570087556247 -0.00044598955115701666
          -0.0038101136480930553 -0.010151615405322133 -0.005033891598743456 -0.00364373142977395 -0.002400309075037299 -0.0031264540046721245
          -0.0011739495687317636 -0.00039489605570031117 -0.00127800111115689 -0.00463149938992663 -0.0023131355670724663 -0.0031160483259649596
          0.003867500272327129 0.0009060201591984396 -0.0009646752105724188 0.0009356563368159571 -0.0008120004770223732 0.0038572101645623774
          0.0007991124745288236 0.0005650542197638692 0.004256837664896929 0.00013223463900137455 0.003484847386001518 -0.0002628578006072871
          0.003546575053749619 0.0008692604873248994 0.0027352971573272114 -0.008695902937531363 -0.007604668581507185 -0.01720370254677306
          -0.013989338809916957 -0.014140309216979868 -0.01087330603326575 0.0033336822532251107 0.004483568107601345 0.0014303067863018215
          -0.0032695666758462416 -0.0016315047982781508 -0.0011858052188910562 -0.00013443964325488 -0.002457575396799555 -0.0027327138908956466
          -0.004524999408841733 0.0028021480784835573 -0.0013328728685743918 0.004648562596750075 -0.0026002567830433476 -0.00039341410087084805
          0.003374937512742815 -0.000002206108847532806 -0.0024816798158488057 -0.00002938806282236795 0.000027550508306301014 -0.0005156627741393083
          0.0003064684475992535 -0.000055726209891228395 0.000058079096601520996 -0.002779566975913833 0.0013738584893973754 0.0003866708261196037
          0.00022824403833771045 -0.000943085238098329 0.00037460433509031027 0.0007796759192146285 0.0008157352463236955 -0.0014513549127404546
          0.03641790097392453 0.005307718287147267 0.07871066513374864 0.013315723890919728 0.037642339093708704 0.004714496258014622
          -0.003929302395661527 -0.0009288877664916581 -0.0019459882538334639 0.0033843885869171766 0.0019460641376699561 0.0038312827596113826
          -0.0025759143342112163 -0.0023942870435253866 -0.0037151912916967653 -0.000638706413012266 -0.011987543736870675 0.00046696405889831705
          -0.004077673887556557 -0.004572458384377157 -0.008207528062044306 -0.005297616119134672 -0.006446347544207465 -0.006541792801677965
          -0.009115272520662548 -0.003314682586542189 -0.0015052241834901461 -0.012880166912970281 -0.013515843613580353 -0.004332632535909847
          -0.0011665967242733485 -0.006992117509717011 -0.007632872175101474 -0.00324696200796086 -0.002519310407812003 -0.0020494069849907523
          -0.00007703699954070276 -0.003179525338057536 -0.0019437591965110745 0.006360324969400866 0.0019265108394571073 0.014583853943972103
          0.061205127077032004 0.012149710428853211 0.00368107127063938 0.027722276177460644 0.11790657453442373 0.004638212224440774
          0.0013904038498656068 0.012945247310561472 0.05435487782130842 -0.0020237902976662503 -0.0012558177956600303 -0.0025621176106352395
          0.004453178763887317 0.007706145226522465 0.0031987725444477116 0.003408733585669066 0.0009440853502958035 -0.00008887188553015346
          -0.005927892765467624 -0.0020122685820410102 -0.005071394224496983 -0.004942894398955733 -0.007180754591937899 -0.00561463054562461
          -0.0010534922067659824 -0.0002633178521402324 -0.003404546017087673 0.00571395115652501 0.004665936523336481 0.003471806376835078
          -0.00012956200348323427 -0.0007228936637458105 -0.0017171956274205716 0.002685243422188042 0.0011801531556180217 -0.0009999307904661851
          -0.0018769590211399415 0.0004648057064157076 -0.0005738648877449751 -0.00348759261878627 0.000604053444256708 -0.0017776030810838783
          0.00930503387941789 -0.0033926921258161102 0.0047118627118205025 0.0015156230861272935 0.004274861441825317 -0.0013898706567248564
          -0.0009960434703383259 -0.002229012746824891 -0.0013963174949814805 -0.000316115455075849 -0.002565703383609119 -0.0008722687787300135
          -0.00246139633926426 -0.001388707839962755 0.0015690283358869989 0.004776218489053297 0.000606493531049114 0.0018642018861725063
          -0.000053547149307289765 0.0003460186250212813 0.0005367188428573814 -0.0012235220983756873 0.0006371073740119998 -0.004517015080462244
          0.0012614192582109107 0.0037383874654466492 -0.0022117157886696465 0.0020107339233167987 -0.0010104416890321377 0.0021938806935247745
          -0.00028458003811799443 -0.004692927701237082 -0.0016053877633412927 -0.002708837854490248 0.00005919868192039851 -0.0006259333673858947
          -0.006818030241359699 0.00017796299218329759 -0.0025309577219195037 0.0035114714678803616 -0.0028113946485026423 0.0004029217744471042
          0.07902910443924094 -0.0014415286983185394 0.15809086301851893 -0.0002438742756360468 0.07454470325127105 -0.0027262381019877158
          -0.0012462760080258206 -0.0006868837148313045 0.0015159761643915581 0.0003071713139316673 0.002252815216585935 0.00010818194638030632
          0.005774462332916563 0.004283319086476334 0.006788115980333853 0.009911990798463777 0.0036513870454753794 0.005851911422875222
          0.005122032092854056 0.002336152194420904 0.0045251459554975365 0.004535753014384782 0.0073909042944182435 0.003551447285613671
          -0.0035736049579994378 -0.0026278280140853982 -0.0008793658769398749 0.008035958125170335 0.010248968115432674 0.006249018664390538
          0.0017824225892416057 0.0009396034562926259 0.0005240915415628267 0.0028725065963337605 0.002760424405760138 -0.0010899374230116977
          0.0017819455366727133 0.00190247509867994 0.0016307733068122998 0.009343787351176525 0.01408713938871875 0.006742738211309718
          0.0021674528661215914 -0.00013025263223856443 0.0017545737025590619 0.5095158685009886 -0.006779846066209148 0.9920011343172315
          -0.010438034878741002 0.3930210224437697 -0.0021441463478857614 0.3306115708844343 -0.00034150972552023096 0.6460371026672675
          -0.0012122314052599725 0.3102487630797143 0.0006309539188171925 -0.006270436204552976 -0.013035937393386932 -0.004841168326098988
          0.21509905937951465 -0.0008165447081814603 0.40386812795544325 -0.0006875282892483126 0.14146766705680808 0.00020731774204391096
          0.04472540896292959 -0.007625002661335006 0.09519178673624579 -0.010792713651201713 0.046210754997283 -0.005790075849533172
          -0.0031465414234787825 -0.000693790058645144 -0.004424034005705402 0.005929419945181091 0.008502603375355522 0.004406276008427752
          -0.00014301188156927436 -0.002031363622576332 0.0010097194052117245 -0.0002918484004766908 -0.00031466699469157033 -0.0003485146952281748
          -0.0987189090629004 -0.1568652886406139 -0.19984677233880047 -0.3146120296746313 -0.10562792655887042 -0.1522394991517859
          0.0006310539841071494 -0.0016470274508820215 -0.0001871275707977793 0.006512447914551744 0.011263783100828845 0.006735561923207373
          -0.002004122224610865 -0.0012806510607475431 -0.00204386296893011 -0.0017445797116888082 0.004073422996862922 -0.0016122528300129332
          -0.002087947795165898 -0.0009533472229874274 -0.025690203895998832 -0.0037954966758623615 -0.0005724259185573288 -0.0025926003803623254
          -0.2676008471787805 -0.003769238843890174 -0.0003184341705713134 -0.2818568560093919 -0.5341966669042095 -0.003470307189253355
          -0.00012754652982438497 -0.5565859688132848 -0.27446286189362623 -0.0021241017760550845 -0.0005308485598110313 -0.264959900168656
          -0.0016597795908100755 0.0005174719451475213 0.0011664290795071787 0.0006343707122446612 0.0013663376041825465 0.0003347902582395007
          -0.004664893512201087 -0.0028515613878360886 -0.0030592794972311467 0.004767613092983736 -0.0008431455803023236 0.0021480869694059795
          -0.003626815015549678 -0.001415474784709908 -0.004031072331961094 -0.0047025963545587884 -0.0035535307083283396 0.00004937322439474423
          -0.0018734879279467542 -0.0017770818160110086 -0.00410387683724691 -0.005766058439071301 -0.00041071168146806364 -0.0022547437464027903
          -0.004928348478298351 0.0020058733480028124 0.0006864867192219633 -0.0017069342162497614 0.0003280442027230879 -0.003909143803426718
          0.0007157687266822598 0.11418185661116198 -0.00019456870737998531 0.20784065660521814 0.000027356630364176737 0.051875380607466375
          -0.004110279676056455 -0.001119211472032977 -0.004694080049363392 -0.0013344651105117178 -0.003154344626825456 -0.008680204563488031
          0.00007295398155493515 -0.009483810579564517 0.0011165788513967517 -0.003657502072661134 -0.009492968075934277 -0.004264946069035699
          -0.005847573652634386 -0.002986982916601766 -0.004196709318838421 -0.20076854454526777 -0.31637022931812603 0.0003464635937219518
          -0.39647060503255815 -0.625157084319989 -0.0017487144045034708 -0.17917915683468053 -0.27924353984941913 -0.00031200757254851164
          -0.2552563207355922 -0.5136621906141139 -0.2754897932406165 -0.008451294241575362 -0.002604068717723472 -0.004152281948860588
          0.029375015883898792 0.06377780627462626 0.0289177388694275 -0.17101845865040277 -0.33737634634227653 -0.15367861089074758
          -0.005535882346683257 -0.31471088799027297 -0.002252686608526372 -0.6169878801523833 -0.000848377833728875 -0.2757289071370309
          -0.003022482338404117 -0.00021860296107435728 -0.004679488968687383 0.000612491913896937 0.0006266699979258356 -0.0015395625062411475
          0.0002109419960598241 -0.0006306432986548718 0.0002691940830337608 0.0011870870523691913 -0.0015450543731473539 0.0012668788712706614
          -0.002422419855419005 0.00029970180621339496 -0.0003453756455294244 -0.003883080258881055 -0.0057827352556805295 -0.00020403098729274323
          -0.00004104682541550275 -0.002353094271511838 -0.0018787994616257936 -0.003350767312971986 -0.004109675810234054 -0.0006552416151384133
          -0.0006126449450418979 -0.003713011097186303 -0.004910245324252254 -0.0023345002204258163 -0.21971259578204833 -0.24277752025835125
          0.00013544329120678683 -0.437296890174938 -0.4914893320567774 -0.0010346554118623418 -0.23848663017914826 -0.29104218099482626
          -0.008213546233151708 -0.0010556412930268766 -0.004429307272441091 -0.2653922091902341 -0.5501423931261151 -0.3508272250091602
          -0.2462977194655832 -0.4925125932997946 -0.26536203506223094 0.0022966187897384416 0.014603286503845847 0.004608156548446679
          -0.10445610647606009 -0.12631697527650387 0.0181571657888788 -0.22349791260238883 -0.2600876119090013 0.037882828564621586
          -0.13705771327080277 -0.20730666127645508 0.019463124717510008 -0.1651127932981258 -0.35741997920237384 -0.21401324823783896
          -0.003762269566348536 0.0009316028533310761 -0.001498665452255965 -0.005715115492364808 -0.005675378655295993 -0.0037801280004471915
          -0.005296901611338643 -0.0034225629891590503 -0.0037237194989574694 -0.07258685268387646 -0.1299990351418084 -0.05897793151521627
          0.013974947564986906 0.030354352138779517 0.013591063024374739 0.0003973909968797429 0.0005534383963507472 0.00010122653771443835
          -0.18829525818614168 -0.3460221239439951 -0.1432099684074572 -0.09207851365096137 -0.19464106541807025 -0.4820500905676312
          0.15924825992811742 0.2440694829889667 -0.7867603841820758 0.00010686535631154737 -1.6170598284464852 -0.00008693190845082688
          -3.2593428691344433 -0.00039861153542175565 -1.555175722171657 -0.00033430455568272954 -2.7789637092331017 -0.00002064302556448183
          -5.557295819701373 -0.00010792533044012842 -2.739697508689839 -0.000448650546491125 -3.4761432123810914 0.000018370252881760862
          -6.953836588384865 -0.0004417454144975963 -3.49905562572057 -0.03320822318604144 -0.06468359463384282 -0.033879030121943765
          -0.0008757841516198184 -0.00007702295246869717 -0.001609270219640413 -0.0003729234824150218 0.000057125843928584885 -0.0012202486725612083
          -0.011847425555973623 -0.01950008148936394 -0.011814626939490203 -0.03494332767378139 -0.06798739380503438 -0.03449587003231591
          -0.0007327969640571474 -0.00008767981075541442 -0.0007016609566066201 0.027794115308722167 0.0583891849485557 0.0278237389618865
          -0.028040984394140267 -0.05167262913506221 -0.026679802758283078 -0.03787902253309694 -0.07300691722837316 -0.03662372144988035
          0.028227180662348972 0.06025814498400994 0.028040214316217837 -0.02591448986403111 -0.04892861187169273 -0.025117849763949707
          0.03429400914832148 0.0719503487480278 0.032614437327984636 0.01007693344581373 0.021903134603429075 0.00855639071295955
          0.00007637146137934314 0.0026540919295036103 -0.0028870148853577526 0.030115168324534314 0.0619554818603254 0.028692699052262793
          -0.003811912338886586 -0.0021291016924339656 -0.006838636548393923 0.02384202757291798 0.049911821547172996 0.021727840444295987
          -0.006076785995788869 -0.004864306849024613 -0.00384822321991915 -0.004119152656460456 -0.0004056687361470024 -0.0009464973201649407
          -0.00041801938051566623 -3.6225796771726273 -0.00003762542991392337 -7.244973753383535 -0.00011539303201590911 -3.6370155891823037
          0.00017472093133097388 0.0002906945659661986 -0.0000815225467163394 -0.00036936171686630104 0.00026459027829961457 0.0005485684233152988
          -0.0007154447519277518 -0.0000819824025275473 -0.00005591893340772813 -0.01611461258426994 -0.033386621445439246 -0.016014360265168115
          -0.01644197949040538 -0.018608795712314385 -0.01423895377632306 -0.018539789168396992 -0.008310947046489436 -0.013617573123789195
          -0.007557562484406019 0.000005927694378127235 -0.007127547417792202 -0.0027121908447613197 0.0004687514142864835 -0.005152102078385068
          -0.007131715880576969 -0.007725995195929036 -0.005135879487600831 -0.010626314635535844 -0.013242849152692304 -0.009153955293415422
          -0.011733674154803392 -0.019005963179668878 -0.0152001910482161 -0.012020676380989193 -0.009324433315871627 -0.006235941202495654
          0.010811772824303456 0.025768039214642435 0.00829913499765067 -0.004606678020658894 -0.002453651598798068 -0.006240723061662179
          -0.005433224999185471 -0.0015554710667436966 -0.009377807221259915 -0.008660593975225672 -0.003884740252441732 -0.012517939790269467
          -0.010908970392329825 -0.0003249681287061934 -0.0036220722282194195 0.00003070992069975631 -3.45023375777447 0.00028444993364029614
          -6.901199686293738 -0.000012008244753003439 -3.460086546404695 0.0006703422654774638 0.0006864463513516217 -0.00035197985584911606
          0.00017145285466568794 0.0004003850621772109 0.0004893591215533455 -0.0005221839772897585 0.0006463455906913218 0.00019196291751821803
          0.0009213243084644773 0.000738657702176404 -0.00047547013827475837 -0.031794535229708654 -0.06450577479164821 -0.03410239357113687
          -0.000009155871051103048 -0.00030983918624905016 -0.0006144558936358457 -0.021363957377460663 -0.05207333924677959 -0.02740005295584913
          0.009737902768371498 0.028843726930654956 0.012604624938644893 0.06034559536995565 0.12083029127193967 0.05984253650463889
        </DataArray>
        <DataArray type="Float64" Name="resid_z" format="ascii" RangeMin="0" RangeMax="0">
          0 0 0 0 0 0
          0 0 0 0 0 0
          0 0 0 0 0 0
          0 0 0 0 0 0
          0 0 0 0 0 0
          0 0 0 0 0 0
          0 0 0 0 0 0
          0 0 0 0 0 0
          0 0 0 0 0 0
          0 0 0 0 0 0
          0 0 0 0 0 0
          0 0 0 0 0 0
          0 0 0 0 0 0
          0 0 0 0 0 0
          0 0 0 0 0 0
          0 0 0 0 0 0
          0 0 0 0 0 0
          0 0 0 0 0 0
          0 0 0 0 0 0
          0 0 0 0 0 0
          0 0 0 0 0 0
          0 0 0 0 0 0
          0 0 0 0 0 0
          0 0 0 0 0 0
          0 0 0 0 0 0
          0 0 0 0 0 0
          0 0 0 0 0 0
          0 0 0 0 0 0
          0 0 0 0 0 0
          0 0 0 0 0 0
          0 0 0 0 0 0
          0 0 0 0 0 0
          0 0 0 0 0 0
          0 0 0 0 0 0
          0 0 0 0 0 0
          0 0 0 0 0 0
          0 0 0 0 0 0
          0 0 0 0 0 0
          0 0 0 0 0 0
          0 0 0 0 0 0
          0 0 0 0 0 0
          0 0 0 0 0 0
          0 0 0 0 0 0
          0 0 0 0 0 0
          0 0 0 0 0 0
          0 0 0 0 0 0
          0 0 0 0 0 0
          0 0 0 0 0 0
          0 0 0 0 0 0
          0 0 0 0 0 0
          0 0 0 0 0 0
          0 0 0 0 0 0
          0 0 0 0 0 0
          0 0 0 0 0 0
          0 0 0 0 0 0
          0 0 0 0 0 0
          0 0 0 0 0 0
          0 0 0 0 0 0
          0 0 0 0 0 0
          0 0 0 0 0 0
          0 0 0 0 0 0
          0 0 0 0 0 0
          0 0 0 0 0 0
          0 0 0 0 0 0
          0 0 0 0 0 0
          0 0 0 0 0 0
          0 0 0 0 0 0
          0 0 0 0 0 0
          0 0 0 0 0 0
          0 0 0 0 0 0
          0 0 0 0 0 0
          0 0 0 0 0 0
          0 0 0 0 0 0
          0 0 0 0 0 0
          0 0 0 0 0 0
          0 0 0 0 0 0
          0 0 0 0 0 0
          0 0 0 0 0 0
          0 0 0 0 0 0
          0 0 0 0 0 0
          0 0 0 0 0 0
          0 0 0 0 0 0
          0 0 0 0 0 0
          0 0 0 0 0 0
          0 0 0 0 0 0
          0 0 0 0 0 0
          0 0 0 0 0 0
          0 0 0 0 0 0
          0 0 0 0 0 0
          0 0 0 0 0 0
          0 0 0 0 0 0
          0 0 0 0 0 0
          0 0 0 0 0 0
          0 0 0 0 0 0
          0 0 0 0 0 0
          0 0 0 0 0 0
          0 0 0 0 0 0
          0 0 0 0 0 0
          0 0 0 0 0 0
          0 0 0 0 0 0
          0 0 0 0 0 0
          0 0 0 0 0 0
          0 0 0 0 0 0
          0 0 0 0 0 0
          0 0 0 0 0 0
          0 0 0 0 0 0
          0 0 0 0 0 0
          0 0 0 0 0 0
          0 0 0 0 0 0
          0 0 0 0 0 0
          0 0 0 0 0 0
          0 0 0 0 0 0
          0 0 0 0 0 0
          0 0 0 0 0 0
          0 0 0 0 0 0
          0 0 0 0 0 0
          0 0 0 0 0 0
          0 0 0 0 0 0
          0 0 0 0 0 0
          0 0 0 0 0 0
          0 0 0 0 0 0
          0 0 0 0 0 0
          0 0 0 0 0 0
          0 0 0 0 0 0
          0 0 0 0 0 0
          0 0 0 0 0 0
          0 0 0 0 0 0
          0 0 0 0 0 0
          0 0 0 0 0 0
          0 0 0 0 0 0
          0 0 0 0 0 0
          0 0 0 0 0 0
          0 0 0 0 0 0
        </DataArray>
        <DataArray type="Float64" Name="stress_zz" format="ascii" RangeMin="-2772348.2439612364" RangeMax="4474371.548789187">
          70329.34265838287 410214.1892179643 919715.7545454423 -334658.38146540767 90983.15170412992 475449.95552028355
          1087879.8168465926 -172111.35565618647 111636.96074987698 540685.7218226027 1256043.879147743 -9564.329846965382
          499854.889269026 345638.087117919 450937.2335346701 411962.1274591105 489752.75105283095 303433.6538776355
          386719.82637472823 412533.78315128526 479650.61283663585 261229.22063735191 322502.41921478644 413105.43884346006
          1607875.5841051328 -2190810.682370022 854456.3423871769 1091280.5190137613 1595407.7360177834 -2265829.7774007563
          825537.183188265 1138732.0602728236 1582939.8879304335 -2340848.8724314906 796618.023989353 1186183.6015318858
          672371.8173678698 131199.7870637845 -189554.1332728601 1070423.0929498875 629910.3559537205 115559.80117070932
          -182752.4461736754 1047171.6968854078 587448.8945395713 99919.81527763416 -175950.75907449072 1023920.3008209283
          593449.5112290911 771860.548530837 654204.4453991551 722721.3770929712 589767.9331794669 757929.1556891111
          647934.7295125618 716226.1725598383 586086.3551298429 743997.7628473853 641665.0136259684 709730.9680267054
          -577554.9396761371 -2789.7126788735914 -206448.75312881346 -356464.23023778497 -586749.301372122 -6222.335340955069
          -229205.68614954845 -377763.4755941245 -595943.663068107 -9654.958003036503 -251962.61917028352 -399062.72095046396
          653996.0899857769 659232.033463983 640153.667853234 658127.3565608367 656397.7217091299 615785.6726686386
          662258.6231358964 653563.4099542766 591417.6774840432 429096.17689410265 104008.91946553811 465669.72988768213
          86277.5868595548 502243.28288126166 68546.25425357146 857031.8047696557 1842954.9275027225 1364672.0622699661
          644396.1456804061 849810.8455147749 1882572.069729977 1476525.0281916175 612482.4869502073 842589.8862598945
          1922189.2119572316 1588377.9941132688 580568.8282200083 -353757.27209702914 -421791.881530212 -343027.74455487827
          -386526.587769443 -332298.2170127273 -351261.2940086739 551138.0924173308 409412.4530394313 574465.2064142565
          409581.6676826482 597792.3204111821 409750.88232586527 2570852.981450922 2333438.355403428 3094154.927534286
          2586779.083931639 2367917.3504051636 2950973.0045109624 2602705.186412356 2402396.345406899 2807791.08148764
          -789516.2760796193 -816975.0638905719 -788744.2316855255 -802529.9953160937 -787972.1872914317 -788084.9267416152
          12249.345611530473 148896.86928759163 113534.39528036657 -411815.50186468725 27957.522404497933 175140.31749999966
          124491.13084481531 -401350.73939253914 43665.699197465394 201383.76571240765 135447.866409264 -390885.9769203911
          824965.267276356 648225.6284678527 679680.559347192 834991.0478036873 659041.6220123859 695397.2647290181
          845016.8283310183 669857.6155569188 711113.9701108445 322309.21731107496 342295.6496050975 362282.0818991199
          380902.36164317926 -379723.2862286068 -432455.09102160623 396212.72517364385 -364772.16458709654 -455077.145847375
          411523.08870410855 -349821.0429455862 -477699.20067314367 773912.4265336709 154314.85514746187 703980.3507322872
          743806.243716615 163213.6854490479 709066.1071970613 713700.0608995587 172112.5157506339 714151.8636618354
          -678953.4857067858 -1504364.3361482355 -1128555.6814069054 -634049.3714729917 -1452769.3542045318 -1088766.0269155386
          -589145.2572391974 -1401174.372260828 -1048976.372424172 -158410.80426771517 -786461.547062691 -168857.79758032697
          -836478.4021486707 -179304.79089293873 -886495.2572346508 -768314.1756406587 451361.9222366346 -759240.1291693973
          432683.3965835623 -750166.0826981361 414004.87093049 -934739.4055400317 -1020972.1459450496 -1107204.8863500678
          -487300.51325121813 127093.9872127693 -438598.99271959777 -87292.3615449965 -389897.47218797746 -301678.7103027622
          576714.45062927 602429.1713026225 570064.0257782853 591796.2891272905 563413.6009273005 581163.4069519583
          306294.8952729944 288114.014161429 269933.13304986357 -684386.9150080498 -81644.36595481122 -22605.32328569563
          -686219.1389876988 -695436.5258009264 -104630.07660818484 -43490.62976330731 -710649.1486343994 -706486.136593803
          -127615.78726155848 -64375.936240919014 -735079.1582811 2130842.824194543 2147451.4621110596 2164060.1000275756
          2222797.8921093387 2156937.72419948 2232278.4670318463 2143512.383951906 2241759.0419543535 2130087.043704332
          -1141517.2489806598 -934673.0136430184 -1163656.236822922 -903411.5525771204 -1185795.2246651845 -872150.0915112224
          693949.1588100337 645035.0603831883 596120.9619563427 -697093.0867982995 -494895.43330835114 -731406.860417574
          -483825.58984703367 -765720.6340368483 -472755.746385716 -1215731.2211759384 -1663137.4516362902 -1589844.8417755964
          -863422.6431855734 -1239818.2820474037 -1716886.704757387 -1620335.7349750395 -889438.7973395924 -1263905.342918869
          -1770635.9578784844 -1650826.6281744824 -915454.9514936114 1164268.3040946096 1611929.366098511 1141831.8813853816
          1568425.297952405 1119395.458676153 1524921.2298062984 944117.1040800699 216115.86891735997 364062.19244511955
          1010804.9585530848 685827.7301922301 149149.09943508438 477337.968323911 1038336.0159122495 427538.3563043904
          82182.32995280881 590613.7442027023 1065867.0732714147 336546.23968365847 370860.290449557 405174.34121545556
          -1191212.1907993113 -634699.39164986 -1159018.5085635926 -644861.6454671961 -1126824.8263278743 -655023.8992845323
          -29086.23776783576 196778.35393612614 -14748.681691271573 214428.56136589253 -411.1256147073582 232078.76879565895
          157661.30014989252 182710.03011304687 207758.7600762013 388485.5930313216 -250142.8350934519 390583.99969592574
          -270837.67500192317 392682.40636052995 -291532.5149103944 -23999.775873579292 -606252.1955358393 -22728.226780148565
          -643437.6068073314 -21456.677686717798 -680623.0180788233 499934.491508911 -629664.3568378186 504463.7181021114
          -635776.7252259313 508992.9446953118 -641889.0936140437 -603316.4128655028 -590155.208359961 -576994.0038544196
          103779.58090442265 376347.95167671726 113894.21339442581 360539.67001720966 124008.84588442901 344731.3883577019
          -1025621.1586249289 -1190591.9676322152 -1019731.6587838843 -1191898.8359956287 -1013842.1589428396 -1193205.7043590422
          488794.21569582314 39639.75559096862 464676.5451287132 511743.1351014397 39510.75708628321 457373.4571964257
          534692.0545070563 39381.75858159781 450070.3692641383 87171.39638373695 128980.2250055155 170789.053627294
          -167202.68666781473 442088.14818735945 -179113.94476826713 486899.3699916752 -191025.20286871953 531710.591795991
          607095.6421441977 654138.578756311 613563.3742590637 652144.8980112243 620031.1063739297 650151.2172661378
          659294.0978124253 -197107.67701222995 677392.7473993301 -223885.16632874543 695491.3969862349 -250662.6556452609
          -836437.297864083 -1680223.0768843035 -830775.7680722326 -1632796.7574573886 -825114.2382803822 -1585370.4380304732
          -149878.72999983217 -550902.6845190165 466409.248582744 -178506.4913250078 -520233.7132206731 433074.2600533081
          -207134.25265018348 -489564.74192232965 399739.27152387216 -998145.5981361207 -1020145.0844576975 -1042144.5707792742
          650304.6386461827 670831.7384909581 691358.8383357337 703417.7192975132 673476.0060334943 643534.2927694754
          -411412.3606199578 -407023.7598615225 -402635.1591030874 648537.5104644294 626637.4275963483 604737.3447282674
          -1308202.1130772382 -1377101.55149602 -1446000.989914802 -1111380.8488077526 -1200889.9695867326 -1290399.090365713
          1042116.3659390474 1061767.4687803402 1081418.5716216334 -403368.2327551651 -2188366.151473414 -237601.25159845175
          -2103864.342291631 -71834.27044173889 -2019362.5331098475 -2608024.5672763065 -2149955.422639045 -2690186.4056187714
          -2220786.467827381 -2772348.2439612364 -2291617.5130157163 -1968479.8607795795 -2044572.5552056895 -2120665.249631799
          -2222246.522025778 -1867711.2080867076 -2178669.6079070643 -1897763.633193374 -2135092.6937883506 -1927816.0583000402
          4424130.445574559 2619661.9654278765 4449250.997181873 2644283.116213113 4474371.548789187 2668904.2669983497
          830024.9988669166 804940.6459442372 779856.2930215579 -794655.5086451382 -780996.747633058 -767337.9866209779
          205265.70036031332 416263.8727202233 52786.00039241492 435386.89971173776 -99693.69957548348 454509.9267032521
          -695969.0201499964 -251965.45108567955 -706439.8351560537 -282951.3451718876 -716910.6501621108 -313937.2392580957
          1228806.403895669 1241170.5300096706 1253534.6561236724 941681.30392175 926547.6679264157 911414.0319310813
          -1401394.5061840632 -1432769.8376078194 -1464145.1690315753 -1154710.7204142504 -903027.8169900017 -1145040.5423358022
          -904594.5937314227 -1135370.364257354 -906161.3704728436 514949.1627705004 514223.0310352481 513496.89929999574
          850407.859746435 787981.1919554989 730416.9262042476 969383.49952553 861795.1828633457 787293.5876743256
          736467.027684597 957727.6055063838 873182.5059802565 786605.9833931526 742517.1291649463 946071.7114872374
          376833.0042735229 598232.7780550766 406227.46103151183 667375.100571319 435621.9177895008 736517.4230875614
          689822.0348191583 691898.4244992803 693974.8141794023 479300.35868064075 660130.3785020681 496290.3816007835
          663009.3051967212 513280.4045209263 665888.2318913745 12634.813285163997 -806329.2716959338 27582.885846759622
          -804858.1870119552 42530.95840835529 -803387.1023279765 -144212.64725211434 -171096.3527935049 -197980.05833489538
          606226.2631627126 590628.5825804945 575030.9019982766 483344.04375449824 460157.98981570656 436971.93587691494
          -1478499.0737512358 -1337556.131443795 -1440017.0965500027 -1261347.9362181171 -1401535.1193487698 -1185139.7409924394
          -79474.14793642808 -93824.40540888537 -108174.66288134264 1503829.6331429358 1082951.4720688704 577263.3408453473
          1459930.2177991502 1083253.3054785102 563196.3849911836 1416030.8024553638 1083555.13888815 549129.4291370199
          -946085.1650020927 -1020708.467333366 -1095331.7696646394 415888.6038458009 549984.8219441331 791431.4213758018
          434671.90915494144 527491.5341337644 769114.7366579524 453455.2144640819 504998.2463233957 746798.0519401032
          738939.3675836747 754766.8378165829 770594.3080494911 450102.1170292479 454479.7126041689 458857.3081790898
          1320660.0245639116 1308220.5657979797 1295781.1070320474 319272.5771197554 307655.1052374866 296037.63335521787
          800954.7210666894 993809.1265745107 747166.0768193954 941821.6594394073 693377.4325721015 889834.1923043041
          478241.50956229004 465377.60215261026 452513.69474293053 -1875297.1911990736 -1433823.6635084902 -1851425.408285432
          -1412867.9960624496 -1827553.625371791 -1391912.3286164096 317023.76645091013 517965.73958045366 245633.26969372202
          455214.3072881236 174242.77293653402 392462.87499579345 381545.6165272081 354050.65920570545 321756.81477762875
          316421.4309683462 261968.0130280495 278792.2027309868 2699887.4919236153 2080078.2797107403 2730153.149051072
          2109711.7163634417 2760418.8061785283 2139345.1530161425 635770.6769965778 1102656.6692843935 1514667.0200363602
          633315.1679877739 1116870.6857478193 1594554.7763666902 630859.65897897 1131084.7022112447 1674442.53269702
          1039721.7416300841 1029532.6420098703 1019343.5423896564 1020987.2871186942 1080326.0645441045 1139664.841969515
          640491.9131958329 643755.0644705503 647018.2157452676 3266668.0253143352 3256415.130048783 3246162.2347832303
          2041457.2835833258 2297058.5899644084 914557.2116876204 2175848.335908806 2267490.5705121895 808204.7071143439
          2310239.388234286 2237922.55105997 701852.2025410674 579080.0986300171 692761.7657427138 806443.4328554105
          2293899.690203491 2319710.540967161 2345521.3917308305 2552819.256642992 2338558.0807964974 2607789.376203156
          2329810.463714214 2662759.495763321 2321062.846631931 1615264.482488447 1728198.2625283212 1841132.0425681951
          1363589.846557454 1309272.5824443176 1254955.3183311808 2083230.4408439074 1862461.371670433 1641692.3024969588
          2336453.230730711 2069404.797444155 1802356.364157599 1632773.8886079711 1465684.614888027 1298595.3411680828
          616784.1086941336 888425.6808150308 1160067.252935928 -1793490.665254708 -776781.1253059455 -1804533.8181116395
          -797322.3161688057 -1815576.970968571 -817863.5070316659 -1330613.0254249892 -822933.8663230194 -1335824.9006795408
          -839382.1246979231 -1341036.7759340922 -855830.383072827 184273.7411353993 137133.640222329 188609.36198398733
          139006.72005461162 192944.98283257533 140879.79988689418 -1556629.1709242365 -1560388.4701149112 -1564147.769305586
          -2368677.068975939 -2368667.37928628 -2368657.689596621 -276414.29519992904 -301411.07493621163 -326407.85467249417
          354714.4968064843 354745.670685822 354776.8445651597 -2460995.0265818993 -2465282.7546995906 -2469570.482817282
          -1489204.4634436918 -1546012.1614204468 -1602819.8593972018 1253253.9138188637 1249435.683595721 1245617.4533725781
          -1154136.6890095915 -1158415.1296008346 -1162693.5701920781 -2141137.741102004 -2164011.474925062 -2186885.2087481213
          133652.6918200248 128473.43800192144 123294.18418381806 -1264717.8448464829 -1256150.529516095 -1247583.2141857077
          784876.3634722464 779349.3312038657 773822.298935485 30263.09708598681 27629.76237512093 24996.427664255025
          1175126.4864034283 1171488.1285071 1167849.770610772 1329162.9750401466 1324575.1472754632 1319987.3195107796
          192535.90471538063 195906.0334838665 199276.16225235234 828940.6227263405 829908.5530971128 830876.4834678852
          -948079.0983519552 -940744.2353564682 -933409.3723609813 -498591.80852762464 -498805.38536928594 -499018.9622109472
          -126540.93539124314 -98606.86576821473 -126769.59765663682 -102164.80352324276 -126998.2599220305 -105722.74127827078
          -19309.96848712981 -30696.872628714533 -42083.77677029925 -68673.13199253168 -108063.35173708634 -147453.571481641
          -965723.4701060567 -1000446.2246175844 -1035168.9791291119 -1605493.20434387 -1606675.9697001956 -1607858.7350565214
          399865.4799551673 -456713.9249476057 399220.2272900901 -442383.29272890964 398574.97462501295 -428052.66051021346
          2078505.8472951956 1106005.0723540653 1240486.4091019423 2096230.0192623062 1090806.8800963934 1225074.0928171917
          2113954.191229417 1075608.6878387216 1209661.776532441 246897.67100957347 259044.07363879788 271190.4762680223
          -895796.9168499237 -899452.225521079 -903107.5341922346 722133.2208760853 726299.6099253388 730465.9989745921
          1563797.2654893901 1556630.417426153 1549463.5693629165 1441416.0255717458 1440694.4401607304 1439972.854749715
          1054592.1605077998 1053058.4637352836 1051524.766962767 182180.39672535824 186335.6000849962 190490.80344463416
          -495565.3100204159 -484969.27618697216 -474373.24235352845 -42541.02501577938 -41126.904804485355 -41695.84515281088
          -39191.65751779229 -40850.66528984236 -37256.41023109924 -89252.36978520402 -84576.42539090278 -79900.48099660153
          -58837.92044296947 -54961.30794105699 -51084.69543914452 -11812.369738635265 -22290.058301444104 -32767.74686425295
          -631223.1656106001 -632917.7871931181 -634612.4087756361 -741445.9402374219 -744682.4231505994 -747918.9060637769
          -1238348.6946275337 -1225485.5722497776 -1212622.449872022 1272757.1042675013 1258099.0946987297 1243441.085129958
          974024.6121151424 965815.6856322777 957606.7591494131 -547616.0642788595 -555364.8242621055 -563113.5842453516
        </DataArray>
        <DataArray type="Float64" Name="peeq" format="ascii" RangeMin="0" RangeMax="0.004304367307506418">
          0.0030409926406967836 0.003379678736791018 0.003502231241109359 0.0030615242168189278 0.003043874783057438 0.003382920269457561
          0.0035049293421597575 0.003065722719229856 0.0030467569254180936 0.0033861618021241036 0.0035076274432101558 0.0030699212216407845
          0.0030482138334851894 0.0029770009505732664 0.0030564275867034424 0.0031210399195090483 0.00304710319659158 0.002976249922037264
          0.003054933214301209 0.003119648583234531 0.0030459925596979715 0.0029754988935012617 0.0030534388418989753 0.0031182572469600147
          0.001022662381222893 0.0011229078777868933 0.0009975801924731378 0.0005140392587734626 0.0010231811438194392 0.0011231350572299258
          0.0009978097360668866 0.0005154432866628051 0.0010236999064159855 0.001123362236672958 0.0009980392796606358 0.0005168473145521476
          0.0037474445934316813 0.003441177379685649 0.003453793664179331 0.003777755179620996 0.0037466261007880405 0.00344123612395204
          0.003454427584124016 0.0037773414829843192 0.0037458076081443997 0.0034412948682184304 0.0034550615040687006 0.003776927786347642
          0.0029792806565520566 0.0029913915317607595 0.003103894335105261 0.0030975820136566337 0.0029786121479285837 0.00299035858168328
          0.0031027419408994677 0.0030966534840857515 0.002977943639305111 0.0029893256316057995 0.003101589546693673 0.0030957249545148693
          0.002685110937654387 0.0027604657100132363 0.0029296732444629697 0.0028472752735234077 0.002685950371908046 0.002761005468658362
          0.002930200277389552 0.0028480394109993337 0.002686789806161705 0.002761545227303487 0.002930727310316135 0.00284880354847526
          0.0030647820351687696 0.002984292154545705 0.002971050484856617 0.0030639978350090946 0.002983674621286939 0.002970356582743127
          0.00306321363484942 0.002983057088028172 0.0029696626806296365 0.0028257727011074154 0.002913459930011026 0.0028264477524487883
          0.002914052861800849 0.0028271228037901604 0.0029146457935906715 0.0022639522544112916 0.0026161586091181187 0.0025879620843058714
          0.0022692294692648112 0.002263582310705966 0.0026154725647801703 0.002587648766074979 0.0022682134765439972 0.002263212367000641
          0.0026147865204422223 0.002587335447844087 0.0022671974838231823 0.003180948084779098 0.0031864503416502658 0.0031815468085781232
          0.003187204159735274 0.003182145532377149 0.0031879579778202817 0.002880530725510637 0.002914489189801915 0.0028809589003446654
          0.0029150215093814683 0.002881387075178695 0.002915553828961021 0.0013847861783809476 0.0012912206845317232 0.0009421066631157165
          0.0013848530578349269 0.0012911143321751816 0.0009412357180383627 0.0013849199372889059 0.0012910079798186401 0.000940364772961009
          0.002790899135988112 0.00262827132381404 0.002792341823923908 0.0026296275543079457 0.002793784511859704 0.0026309837848018515
          0.002473055635580865 0.0026081686874415153 0.002680868619611065 0.0025728728916831825 0.002472878031121786 0.0026086961209605963
          0.0026810164170536646 0.002572552002990062 0.0024727004266627073 0.002609223554479678 0.0026811642144962634 0.0025722311142969416
          0.003027219387399112 0.0031276060305727516 0.0030795769258152726 0.0030264562181038603 0.003126666879692074 0.003078540724369254
          0.0030256930488086076 0.0031257277288113967 0.0030775045229232355 0.003427304937921832 0.0034277890357727455 0.0034282731336236585
          0.002747721429203382 0.002606470405723299 0.002785858105332852 0.0027483139941481462 0.0026073738326405555 0.002786467587772085
          0.0027489065590929115 0.0026082772595578127 0.002787077070211319 0.00290547589179157 0.002859820636553842 0.0029482701220125158
          0.0029041131322313403 0.002859016960710916 0.002947771785458046 0.0029027503726711105 0.0028582132848679904 0.0029472734489035765
          0.003017310353170666 0.0030173813392244766 0.0027962830118540803 0.0030190037344277384 0.003019393097274906 0.0027982658041449974
          0.003020697115684811 0.0030214048553253367 0.002800248596435915 0.002805508812520755 0.0027640313086023135 0.0028073915437460957
          0.002766386460993684 0.0028092742749714354 0.0027687416133850545 0.002017047252048398 0.0019477719991560503 0.0020170584464564347
          0.0019477059851236876 0.002017069640864472 0.0019476399710913251 0.004304367307506418 0.004301970837190813 0.004299574366875208
          0.002625728681331242 0.002431403153190196 0.0026253605787586536 0.0024296473222986874 0.002624992476186064 0.0024278914914071786
          0.0029026109833874634 0.0029134157191136167 0.0029028142210144135 0.002913274192844573 0.0029030174586413622 0.0029131326665755293
          0.0029077265514989774 0.0029076816662656543 0.0029076367810323316 0.0024517185102513345 0.0025880236925881085 0.0026127903238955703
          0.0024916956483708825 0.0024523543916719934 0.0025882611360896397 0.002613129551596413 0.00249239550235476 0.002452990273092652
          0.002588498579591171 0.002613468779297256 0.0024930953563386373 0.0010713279225941287 0.0010714363454516556 0.0010715447683091823
          0.0008393290168658709 0.0011754700054847048 0.0008396249156221276 0.0011756553159049164 0.0008399208143783845 0.0011758406263251279
          0.0030394810580512675 0.0028482898703406337 0.003041490930075286 0.0028503671193607296 0.0030435008020993043 0.0028524443683808254
          0.0029823448885222662 0.0029809774580918935 0.0029796100276615204 0.0024779745340986026 0.00228571988204454 0.00247691121976677
          0.0022851666702331354 0.0024758479054349364 0.0022846134584217303 0.0023946799316763127 0.0022568403109896524 0.0021221734698150707
          0.002307528677585378 0.002394819433732665 0.00225655024956132 0.0021221622821163567 0.0023078937860771267 0.002394958935789017
          0.0022562601881329874 0.0021221510944176426 0.0023082588945688757 0.002817883629668789 0.002806668659145327 0.002817086833060518
          0.0028053664236785234 0.002816290036452247 0.0028040641882117203 0.002250058706057405 0.002157141449781267 0.0018892417061824576
          0.0019626647672922174 0.0022488092316461945 0.002156629421199323 0.0018901189035569503 0.00196264507647134 0.0022475597572349845
          0.002156117392617379 0.0018909961009314431 0.001962625385650463 0.003143294746289848 0.003143862882092476 0.003144431017895105
          0.0025017408077849627 0.0025671734722377 0.0025033859573709975 0.0025680179834525925 0.0025050311069570314 0.0025688624946674852
          0.0025358023384150345 0.002497354574482167 0.002536809074703858 0.0024984242757223702 0.0025378158109926816 0.002499493976962574
          0.0027948403218703813 0.002795953800012687 0.002797067278154993 0.0029974464765199892 0.003024287838442081 0.002997965795306795
          0.0030249344232482064 0.0029984851140936004 0.003025581008054332 0.0031298636139701535 0.00304001707116333 0.0031303593340595895
          0.0030406824926161127 0.0031308550541490265 0.0030413479140688963 0.003056576079243015 0.003199205861373932 0.003056813791368955
          0.0031992897854879725 0.003057051503494895 0.0031993737096020127 0.002820102056816179 0.002821121689273975 0.002822141321731771
          0.002794416570462961 0.002888994347925168 0.002795051467837155 0.0028891507431936174 0.0027956863652113494 0.0028893071384620667
          0.0030615038986939037 0.0030091979392019835 0.003061994195735966 0.003009501544544636 0.0030624844927780275 0.0030098051498872887
          0.0033495341602905746 0.003066615253809465 0.0033911197326353224 0.0033503984286889833 0.003067514497501254 0.0033912423430054075
          0.0033512626970873933 0.0030684137411930426 0.0033913649533754927 0.0033351249697550303 0.0033362157052222495 0.00333730644068947
          0.002664591161299096 0.0027447242496340513 0.0026651184475795058 0.0027454570611027056 0.0026656457338599163 0.00274618987257136
          0.0028605343377295727 0.0029068749125658717 0.002860708787258748 0.0029066247077100555 0.0028608832367879233 0.0029063745028542393
          0.0015689269358546178 0.0019248188450114165 0.001568991308502984 0.0019245247894362685 0.0015690556811513504 0.00192423073386112
          0.002635032108143819 0.002494300861607006 0.002636637415736634 0.0024962594859188583 0.00263824272332945 0.0024982181102307112
          0.0036977326829731273 0.0033526306789858477 0.0036384606712521338 0.003696949461728701 0.0033536117932580368 0.0036380424308905465
          0.0036961662404842747 0.0033545929075302254 0.0036376241905289597 0.0036736096786937115 0.0036739371129937562 0.0036742645472938014
          0.0029188269909444513 0.0029187671554891147 0.002918707320033778 0.0038377637772387956 0.0038363357969721187 0.0038349078167054422
          0.0033643236971010178 0.0033661166156099 0.0033679095341187827 0.002949728853195364 0.0029499429833487667 0.002950157113502168
          0.0025681391509720696 0.0025697700480908545 0.0025714009452096395 0.003852295929396875 0.0038513764003570237 0.0038504568713171724
          0.0036208362373775487 0.0036209051510639164 0.0036209740647502845 0.0031684292930324476 0.003250823030342617 0.0031724725319348668
          0.003255006843056999 0.003176515770837286 0.003259190655771381 0.002754790391055993 0.0027496400845737788 0.002757031577228981
          0.002752162934196068 0.0027592727634019685 0.002754685783818357 0.003821548185050476 0.0038220307635004284 0.0038225133419503812
          0.0024782561520873777 0.002506434308266477 0.002480089353581339 0.002508203575080394 0.002481922555075301 0.0025099728418943104
          0.0010350061792778337 0.0006144272882685545 0.001035499951007612 0.0006150449026225156 0.0010359937227373901 0.0006156625169764767
          0.0018596426557130994 0.0018594606364989014 0.0018592786172847036 0.0036436170769173558 0.003645304018711893 0.0036469909605064306
          0.002409701417853777 0.002634646493058634 0.0024079416895221445 0.0026337634664226547 0.002406181961190512 0.0026328804397866747
          0.002440705718460424 0.002582934203911289 0.002441374632720562 0.0025831831300561336 0.002442043546980701 0.0025834320562009776
          0.0035981756473584515 0.003597987547270281 0.00359779944718211 0.00382566181115582 0.0038246847355706787 0.0038237076599855367
          0.0028626882641453522 0.002863303985887265 0.002863919707629177 0.0023712404839498677 0.0023546549993298995 0.0023729430277249666
          0.0023562785865794754 0.002374645571500066 0.0023579021738290512 0.002857261095217136 0.0028571020672594188 0.0028569430393017015
          0.0031725927996876574 0.0031741823817715504 0.0031974220173858685 0.0032060243392474097 0.0031715359530359254 0.003173023956208252
          0.0031957501982194676 0.0032043166646094517 0.0031704791063841935 0.003171865530644953 0.0031940783790530653 0.0032026089899714937
          0.0027424529975336436 0.0028962664907536866 0.002743095938678804 0.002896687349984775 0.0027437388798239653 0.0028971082092158628
          0.0028266356503664526 0.002826278173068621 0.002825920695770789 0.0031714800921919936 0.003164362694907977 0.003169935638162046
          0.003163236999480329 0.0031683911841320985 0.00316211130405268 0.0027740777346855665 0.002675979217295571 0.0027738455706346533
          0.0026751572954610706 0.00277361340658374 0.00267433537362657 0.0029318423885331224 0.002931995898449943 0.0029321494083667642
          0.002867841699055264 0.002868074015391817 0.002868306331728371 0.0027027675036214276 0.0027014069636954172 0.002700046423769406
          0.0023821384607075986 0.0023549756890974814 0.002384347595575525 0.002357193427935504 0.002386556730443451 0.002359411166773526
          0.0027340579259390496 0.0027325820753102527 0.0027311062246814562 0.002076808850456155 0.0018348729127523461 0.002195240860378538
          0.002076545313720089 0.0018350971877749618 0.002194634273712764 0.0020762817769840224 0.0018353214627975778 0.002194027687046989
          0.0025923891558974504 0.002590889222765236 0.0025893892896330204 0.00290971062787085 0.0030556517107668216 0.003045223218363342
          0.002909962139525288 0.003054458356033419 0.003044032225363448 0.0029102136511797256 0.003053265001300016 0.0030428412323635534
          0.0030876308887586483 0.003086893275976618 0.0030861556631945884 0.0027824711081870348 0.0027827329822607606 0.0027829948563344864
          0.0014619615550116602 0.0014621229644954622 0.0014622843739792641 0.0027489866516049203 0.002749532200169522 0.0027500777487341234
          0.0031562178563021765 0.0031664642795498892 0.003154033613557223 0.003164331753650227 0.0031518493708122693 0.0031621992277505646
          0.0024734500431166013 0.002472590633954485 0.002471731224792369 0.002442649572939463 0.0024198707197523738 0.0024447797581477362
          0.002421657500375622 0.0024469099433560085 0.0024234442809988703 0.003121600887399605 0.0030403537986363766 0.0031195576673746237
          0.0030389860309257533 0.0031175144473496426 0.0030376182632151296 0.0025790380879466062 0.0023992846584400484 0.00257736760795889
          0.00239814554782325 0.0025756971279711736 0.0023970064372064513 0.0017745085606038484 0.0020514114569354213 0.001774606695487247
          0.002051364278946315 0.0017747048303706457 0.002051317100957209 0.002826157000580241 0.002820966380323587 0.0026214424055110317
          0.0028256889644799827 0.0028202047580306684 0.0026201073853464483 0.0028252209283797245 0.0028194431357377488 0.0026187723651818645
          0.002264659046647718 0.0022640589609877835 0.00226345887532785 0.0023706228789096943 0.002368903127168558 0.002367183375427422
          0.0029698472905986444 0.0029692215586020966 0.002968595826605549 0.001433738105736767 0.001433776227497635 0.0014338143492585032
          0.001849603700400537 0.0015682969808282821 0.0016043761777688888 0.0018500801485223212 0.0015684174153573194 0.001604708389517733
          0.0018505565966441054 0.0015685378498863567 0.0016050406012665776 0.0021074172716876787 0.0021070153116577125 0.0021066133516277463
          0.00195389806510239 0.0019541465682695763 0.0019543950714367626 0.001745822776550677 0.001472261150842182 0.001746288554006549
          0.0014723820955289178 0.0017467543314624205 0.0014725030402156537 0.0012601929235341763 0.0012599269494454007 0.001259660975356625
          0.0016433454815421068 0.0016438201428050133 0.00164429480406792 0.0006231355428138287 0.0006238390546129509 0.0006245425664120732
          0.0009297584498070326 0.0009278307982429461 0.0009259031466788594 0.000557282204065309 0.0005582499982950288 0.0005592177925247486
          0.00023553933568049582 0.00023848435655934386 0.00024142937743819188 0.00010348829094349032 0.00005612306875759987 0.00010384898997450522
          0.00005650717657864522 0.00010420968900552008 0.000056891284399690567 0.0000034744714360033065 0 0.000003506847042576306
          0 0.000003539222649149306 0 0 0 0
          0 0 0 0.0002508264437038773 0.0002510957872131601 0.00025136513072244305
          0.00004475441856195022 0.000044845157341001266 0.000044935896120052324 0 0 0
          0.00047793345594913396 0.0004780563506257765 0.0004781792453024192 0.0001680597160618277 0.00016817840683012092 0.00016829709759841414
          0.00002308048926789901 0.000023146753302610454 0.000023213017337321895 0.0007418160360135157 0.0007418279724789848 0.0007418399089444538
          0.00038551617443438856 0.0003855858226996639 0.0003856554709649394 0.00012164284306046737 0.00012179377733617441 0.00012194471161188144
          0.0006654366436034839 0.0006654040728340512 0.0006653715020646183 0.0003313643581079576 0.00033146498922604955 0.00033156562034414164
          0.0009591452472014854 0.0009590515243559205 0.0009589578015103557 0.0006292232676210376 0.0006292028576546131 0.0006291824476881883
          0.0012374491292148648 0.0012373351000096549 0.0012372210708044451 0.0009688223995317294 0.0009686757213369544 0.0009685290431421795
          0.0014819059889414918 0.0014818048096042872 0.001481703630267083 0.0013284366866268963 0.0013281341303409125 0.0013278315740549284
          0.0015938037376462722 0.0015937257745689394 0.0015936478114916067 0.0015120711008016307 0.0015116866029321707 0.0015113021050627107
          0 0 0 0 0 0
          0 0 0 0 0 0
          0.000015902885691317953 0.0000159519234246932 0.00001600096115806845 0.00010540947308097714 0.00010550491523351996 0.00010560035738606275
          0.0017258626229601005 0.001795823746045734 0.0017261394478704209 0.0017963398202359572 0.001726416272780741 0.0017968558944261802
          0.001273072259277337 0.001449669734257273 0.0013326195786768093 0.0012730620186045178 0.001449380633422234 0.001332517304133035
          0.001273051777931698 0.0014490915325871948 0.001332415029589261 0.0022257662233749077 0.002226185089187286 0.0022266039549996646
          0.001932215568447218 0.001932568245222642 0.0019329209219980659 0.0015793014916310247 0.0015793711272679561 0.0015794407629048871
          0.0010059207057044708 0.0010058731528543945 0.001005825600004318 0.0012407461139263044 0.0012406710269455249 0.0012405959399647455
          0.0014285262474071079 0.0014284503886462208 0.0014283745298853338 0.0015606860995985893 0.0015606357375981626 0.0015605853755977358
          0.0016125350552337674 0.0016125104608485158 0.0016124858664632643 0 0 0
          0 0 0 0 0 0
          0 0 0 0 0 0
          0.000015509932230946463 0.000015539514553737924 0.000015569096876529384 0.00032148636379316525 0.000321522188413315 0.0003215580130334646
          0.00010621308535860016 0.00010630213940345616 0.00010639119344831216 0.0006497539552473773 0.0006496031591703828 0.0006494523630933884
          0.0010577651094523636 0.0010573486104270154 0.0010569321114016674 0.001279981861216985 0.0012794292957222417 0.0012788767302274987
        </DataArray>
        <DataArray type="Float64" Name="pe11" format="ascii" RangeMin="0" RangeMax="0.004301355757074283">
          0.003039625334611277 0.003377687975285389 0.003500123896938906 0.0030599971762314904 0.0030425640091037457 0.003380979422554861
          0.003502871865173272 0.003064263659113021 0.0030455026835962138 0.003384270869824332 0.003505619833407638 0.0030685301419945514
          0.0030475792589929893 0.0029764750885697268 0.0030558073592515398 0.003120311755597615 0.0030464758354104577 0.002975725769052495
          0.0030543239970988964 0.003118937481901581 0.0030453724118279252 0.0029749764495352635 0.003052840634946254 0.0031175632082055464
          0.00102209396709781 0.0011223403322995916 0.0009972191935998262 0.0005137244078611136 0.00102260630938177 0.0011225626899362756
          0.0009974432794732481 0.0005151178442361333 0.0010231186516657302 0.0011227850475729597 0.0009976673653466703 0.0005165112806111531
          0.0037455116307514003 0.0034389972935992908 0.0034515460414762545 0.003775882165248939 0.00374467603357772 0.003439024847968084
          0.0034521569536519955 0.0037754524836729835 0.003743840436404039 0.0034390524023368775 0.003452767865827737 0.003775022802097028
          0.002978390395795479 0.002990426877274212 0.003102963622774506 0.0030966374799412306 0.002977736852336087 0.002989411387645049
          0.0031018309500950706 0.0030957266223266356 0.002977083308876695 0.002988395898015885 0.003100698277415636 0.0030948157647120414
          0.0026841690220889033 0.0027595844721861433 0.002928257530563564 0.0028458941910925375 0.0026849975345056235 0.0027601041983344628
          0.002928762073230839 0.0028466460579741064 0.0026858260469223437 0.0027606239244827822 0.002929266615898115 0.002847397924855675
          0.003064128054472636 0.002983740294883827 0.0029704807809964704 0.0030633536917182304 0.002983124558046049 0.002969781367715746
          0.0030625793289638242 0.0029825088212082707 0.002969081954435023 0.0028250632860507196 0.0029123255004004983 0.0028257171878789578
          0.0029128966442864314 0.002826371089707196 0.0029134677881723636 0.0022631789264547886 0.0026154900239152156 0.0025872483199626296
          0.0022685552303839895 0.002262814654852835 0.0026148133241829627 0.0025869439144284674 0.002267543367899802 0.0022624503832508803
          0.0026141366244507094 0.002586639508894305 0.002266531505415615 0.003179264293904968 0.0031846598664395567 0.0031798297739192953
          0.0031853830317159094 0.0031803952539336236 0.0031861061969922634 0.0028799334682654385 0.002913659874800317 0.0028803392173181626
          0.0029141680155108504 0.002880744966370886 0.0029146761562213836 0.001384391286135413 0.0012910389703680075 0.0009418827111331179
          0.0013844540860800856 0.0012909326434786218 0.0009410040435268226 0.001384516886024758 0.0012908263165892354 0.0009401253759205276
          0.002789743836932591 0.0026273779169601777 0.0027911947331698823 0.0026287429269154197 0.002792645629407174 0.002630107936870662
          0.0024727515407490033 0.0026078316817662495 0.0026805430934300468 0.002572428900608447 0.0024725695570836197 0.0026083495106908293
          0.0026806873024133974 0.002572111711612638 0.0024723875734182356 0.0026088673396154095 0.0026808315113967473 0.002571794522616828
          0.0030265538421811677 0.0031268398226174236 0.003078748534741909 0.003025802939298164 0.0031259162984903443 0.003077730488612025
          0.003025052036415161 0.003124992774363265 0.003076712442482141 0.00342503467213512 0.00342550106494827 0.0034259674577614197
          0.0027472778398637673 0.0026058734994364946 0.0027851678212051333 0.0027478534786977496 0.002606764797979635 0.002785758241307389
          0.002748429117531732 0.0026076560965227757 0.002786348661409645 0.002904758180553164 0.0028592591943410865 0.0029477553129061062
          0.0029034096417580833 0.002858463712442268 0.002947262075978374 0.0029020611029630028 0.0028576682305434496 0.002946768839050641
          0.0030158420209667955 0.0030160383310739274 0.0027951990965235486 0.0030175453966720554 0.003018069991760282 0.002797205809396435
          0.0030192487723773144 0.003020101652446636 0.0027992125222693212 0.0028043505346583624 0.0027627547446860455 0.0028062719582988807
          0.002765157297545582 0.0028081933819394 0.0027675598504051185 0.0020166277331021385 0.0019472986825534824 0.002016637583664269
          0.0019472261832074794 0.0020166474342264004 0.0019471536838614762 0.004301355757074283 0.004298880316102224 0.004296404875130166
          0.002624937015707845 0.0024306090918519907 0.0026245864197491807 0.002428871607815155 0.002624235823790516 0.0024271341237783193
          0.002901897960108001 0.0029128395652970865 0.0029020760024696555 0.0029126795443936496 0.0029022540448313096 0.002912519523490212
          0.002907229279777766 0.0029071725800888177 0.0029071158803998694 0.00245154708861641 0.0025878229961792186 0.0026124541638185683
          0.0024913635807389876 0.0024521813967198994 0.0025880548932286475 0.002612784378409521 0.0024920590244854567 0.0024528157048233886
          0.002588286790278076 0.0026131145930004735 0.0024927544682319253 0.0010707444958806247 0.001070850098499839 0.0010709557011190534
          0.000838629808814791 0.0011748441190097263 0.0008389237572354318 0.001175022572509556 0.000839217705656073 0.0011752010260093857
          0.003038193597044936 0.0028471992746816528 0.003040233688304671 0.0028493059787531787 0.003042273779564405 0.002851412682824703
          0.0029814323130238716 0.0029800844187739877 0.0029787365245241043 0.0024773544125509537 0.0022852967195637875 0.002476303252872922
          0.0022847437981436992 0.00247525209319489 0.0022841908767236114 0.002394365822223501 0.0022565488971463626 0.002121833993845983
          0.002307118864526287 0.002394499098892173 0.00225625721310682 0.0021218206577662785 0.0023074761221409303 0.0023946323755608453
          0.002255965529067278 0.002121807321686574 0.0023078333797555734 0.0028170204346729586 0.0028059146662690188 0.0028162367912428904
          0.0028046246256595102 0.0028154531478128218 0.0028033345850500013 0.0022493101008702315 0.0021564343646057033 0.001888838745773731
          0.0019620994481377744 0.0022480697759218854 0.00215592929993211 0.0018897150404842732 0.0019620793087416146 0.002246829450973539
          0.002155424235258517 0.001890591335194816 0.0019620591693454547 0.0031416049473683197 0.003142145686119938 0.003142686424871556
          0.0025011500079272714 0.002566594676646706 0.002502801044331502 0.002567431033586181 0.0025044520807357327 0.0025682673905256565
          0.0025351057752590863 0.0024967143327420944 0.0025360992195333472 0.0024977746512183287 0.0025370926638076077 0.0024988349696945626
          0.0027938910480130186 0.0027949898589683933 0.002796088669923767 0.002996299619502892 0.003022912803359444 0.0029967939955988215
          0.003023533088078575 0.0029972883716947517 0.003024153372797706 0.003128126402828059 0.0030385761529414016 0.0031285966182261577
          0.0030392133091320384 0.003129066833624257 0.003039850465322675 0.0030552421786774015 0.0031973433923116364 0.003055448589356672
          0.003197392934939411 0.0030556550000359435 0.0031974424775671846 0.002819216269672332 0.0028202175622111794 0.0028212188547500276
          0.0027939818874257033 0.0028885873223429073 0.00279460342978806 0.00288873920485829 0.0027952249721504155 0.002888891087373673
          0.0030603658752864993 0.0030080894375283003 0.0030608271510989037 0.0030083586745555564 0.003061288426911307 0.003008627911582813
          0.0033474473730319056 0.0030648810455679736 0.0033888935182613995 0.0033483139612183704 0.0030657713592230043 0.0033889959266125533
          0.003349180549404835 0.003066661672878035 0.0033890983349637075 0.003333361219257991 0.0033344671516881224 0.0033355730841182537
          0.0026640678473218806 0.002744397983557481 0.002664580229905354 0.0027451221233193157 0.0026650926124888266 0.002745846263081149
          0.0028599999357317766 0.0029063774802611 0.002860155175223645 0.002906117988947036 0.0028603104147155133 0.002905858497632971
          0.0015683021271006299 0.0019240547806785128 0.0015683626007140434 0.0019237608476355564 0.0015684230743274563 0.0019234669145926
          0.002634049087623846 0.002493570783220199 0.002635680078704054 0.002495546119495052 0.0026373110697842624 0.002497521455769905
          0.003696496285637736 0.003351027067972392 0.0036368733812946943 0.0036956993184213555 0.0033520238486346634 0.003636467172710405
          0.0036949023512049756 0.003353020629296935 0.0036360609641261157 0.0036719875086286035 0.003672288013452579 0.003672588518276554
          0.002918397280037298 0.0029183340316419554 0.0029182707832466114 0.0038366609434678997 0.0038352350306696424 0.003833809117871384
          0.003362622942113559 0.003364439734674183 0.003366256527234807 0.0029487702605179144 0.002948957481476411 0.002949144702434908
          0.002567096895814443 0.002568756631938987 0.0025704163680635313 0.003850191109917705 0.003849244512617245 0.0038482979153167847
          0.0036188588753357192 0.0036189333272234315 0.003619007779111144 0.0031648522249692218 0.0032480883470578014 0.0031690270398503292
          0.0032523386424194944 0.0031732018547314363 0.0032565889377811864 0.002752785885531564 0.0027479756124195462 0.0027551034089174265
          0.002750562266914633 0.0027574209323032893 0.00275314892140972 0.0038187777766150698 0.0038192275363190553 0.0038196772960230403
          0.002477332510034848 0.0025054564715387135 0.0024792133412994692 0.002507265060567262 0.002481094172564091 0.0025090736495958104
          0.0010343839875592057 0.0006138399065077428 0.0010348689038660224 0.0006144545257577345 0.0010353538201728393 0.0006150691450077263
          0.001858937704739345 0.0018587525633130724 0.0018585674218867996 0.003641479943634923 0.0036431651576338334 0.003644850371632744
          0.0024087668066763352 0.0026338337567307648 0.0024070246970198566 0.002632968321907186 0.0024052825873633783 0.002632102887083607
          0.0024405850810830703 0.0025827629410333118 0.002441253453020398 0.002583008453426745 0.002441921824957726 0.0025832539658201775
          0.003595946226247329 0.0035957456844944034 0.0035955451427414774 0.003824138315504156 0.0038231613756322027 0.0038221844357602492
          0.002861847915577471 0.0028624407579816934 0.002863033600385916 0.002370994442440999 0.002354482563019485 0.0023727071901173563
          0.002356117177740083 0.0023744199377937142 0.0023577517924606817 0.0028568474279614493 0.0028566861501993866 0.0028565248724373242
          0.003171589193204674 0.0031732110585313287 0.003196425770867187 0.0032049276341724643 0.003170554303895903 0.003172073722816046
          0.0031947812682442513 0.0032032500819480334 0.0031695194145871324 0.003170936387100762 0.0031931367656213155 0.003201572529723602
          0.002742216019655428 0.002895872730509252 0.0027428536942443044 0.0028962906737628343 0.002743491368833181 0.0028967086170164163
          0.0028257604737652363 0.0028254162221199672 0.0028250719704746986 0.003170642448368929 0.0031634838369091873 0.003169120311287291
          0.0031623772240358832 0.0031675981742056536 0.0031612706111625788 0.002773647234894544 0.0026754125113975795 0.002773417907574376
          0.0026746021486877126 0.0027731885802542077 0.0026737917859778453 0.0029308997879509907 0.0029310240059169566 0.002931148223882923
          0.0028671609894004467 0.0028673688156790494 0.002867576641957652 0.0027020750822040066 0.0027007283277595277 0.002699381573315048
          0.0023816171718652173 0.0023545494963877426 0.0023838508063853832 0.002356797404917137 0.0023860844409055483 0.0023590453134465315
          0.0027333949309076904 0.002731933357198256 0.0027304717834888215 0.002076389565101367 0.001834474960541584 0.0021947371905204137
          0.0020761215912494186 0.0018346902128086714 0.0021941300297572716 0.00207585361739747 0.0018349054650757587 0.0021935228689941295
          0.0025916906865510584 0.002590211484604217 0.0025887322826573748 0.002909290852596962 0.0030547933045228853 0.0030444854110318457
          0.0029095437978381303 0.0030536143355047686 0.0030433043312053125 0.002909796743079299 0.0030524353664866523 0.003042123251378779
          0.0030867087897401557 0.0030859873204619522 0.003085265851183749 0.002782110704363709 0.002782362061505939 0.0027826134186481697
          0.0014613560048921872 0.0014615098267476926 0.0014616636486031978 0.002748769946864114 0.002749312337160993 0.002749854727457872
          0.003155245141830597 0.0031653363861200174 0.003153086933684732 0.003163232444411853 0.003150928725538869 0.0031611285027036895
          0.0024726714268615384 0.0024718239752455754 0.0024709765236296125 0.0024419442401947167 0.0024194544215336393 0.0024440931618756184
          0.002421248994589973 0.0024462420835565197 0.0024230435676463064 0.003120852429192847 0.003039743313642923 0.003118827706259246
          0.0030383806743797762 0.0031168029833256454 0.003037018035116629 0.002578305762131701 0.002398615344549908 0.0025766540127549076
          0.0023974873230176606 0.0025750022633781143 0.0023963593014854137 0.0017739785229268028 0.0020508069207572704 0.0017740691688951484
          0.002050758785799115 0.0017741598148634937 0.0020507106508409595 0.0028253682683287355 0.0028202260418825806 0.0026206455595476456
          0.0028249142501087926 0.0028194790831978993 0.0026193217584222044 0.0028244602318888506 0.0028187321245132183 0.002617997957296763
          0.002263988273944606 0.0022633913987961615 0.002262794523647717 0.0023698069947850273 0.0023680904374470944 0.0023663738801091615
          0.0029690190423310578 0.00296840786917691 0.002967796696022763 0.0014331513911855116 0.00143317734867059 0.001433203306155668
          0.0018493543102679176 0.001568073336680425 0.001604093488531577 0.0018498272729452361 0.0015681908600510557 0.0016044244088906018
          0.0018503002356225545 0.0015683083834216864 0.0016047553292496267 0.002106935319708971 0.002106531861138588 0.002106128402568205
          0.001953534638606707 0.0019537778718412345 0.001954021105075763 0.001745450076109207 0.0014717261397577848 0.0017459073101011799
          0.001471836219057905 0.0017463645440931523 0.001471946298358025 0.0012600404656164992 0.0012597757226623545 0.0012595109797082099
          0.001642915486991481 0.0016433888760303604 0.0016438622650692403 0.0006228767594426142 0.0006235557897768829 0.0006242348201111516
          0.0009295004894923896 0.0009275629491941482 0.000925625408895907 0.0005569879868582437 0.0005579247937901257 0.0005588616007220075
          0.00023539557429753241 0.0002383203526595302 0.00024124513102152795 0.00010336942886493543 0.00005608495316141742 0.00010372955910710722
          0.00005646841566546815 0.00010408968934927898 0.000056851878169518876 0.0000034659441094791423 0 0.0000034981902740441646
          0 0.000003530436438609187 0 0 0 0
          0 0 0 0.00025042118508162106 0.0002506901469667681 0.00025095910885191515
          0.00004462266507728685 0.000044713059052445026 0.00004480345302760321 0 0 0
          0.0004771086894563582 0.00047723038848360773 0.0004773520875108574 0.00016747318914271921 0.00016759087031673232 0.00016770855149074543
          0.00002292861966426227 0.00002299454735300275 0.00002306047504174323 0.0007407613391398555 0.0007407717308972666 0.0007407821226546778
          0.00038416839010193236 0.0003842369988087107 0.000384305607515489 0.00012080067360104474 0.00012095070706089723 0.0001211007405207497
          0.0006635774906820479 0.0006635434285658721 0.0006635093664496962 0.00032922317524291796 0.0003293221204679835 0.0003294210656930491
          0.0009573805727048374 0.0009572841854860759 0.0009571877982673142 0.0006259369573383448 0.0006259137586147862 0.0006258905598912275
          0.0012361867319046096 0.001236069120192648 0.0012359515084806865 0.0009652829050979693 0.0009651309310425556 0.0009649789569871418
          0.0014812132842398867 0.0014811073247044833 0.0014810013651690803 0.0013252205428854929 0.001324907832649194 0.001324595122412895
          0.001593363112570175 0.001593279917404837 0.0015931967222394987 0.001509046947639466 0.001508649398922671 0.001508251850205876
          0 0 0 0 0 0
          0 0 0 0 0 0
          0.00001571926033279996 0.000015767821176576953 0.000015816382020353945 0.00010419749476738413 0.00010429181437540997 0.00010438613398343581
          0.0017254716596101394 0.001795498796293031 0.0017257407699646883 0.0017960110672232727 0.0017260098803192378 0.0017965233381535147
          0.0012726878709836604 0.0014493759494424315 0.0013321507953700839 0.0012726754808880503 0.001449083274056768 0.001332043075992164
          0.0012726630907924402 0.0014487905986711046 0.0013319353566142442 0.0022253502727031197 0.0022257622609927414 0.002226174249282363
          0.0019319395939313532 0.0019322885785683246 0.0019326375632052954 0.0015788562488369931 0.0015789173554151992 0.0015789784619934057
          0.0010049963408121764 0.0010049475686638655 0.0010048987965155546 0.0012401474954204799 0.0012400710092168215 0.0012399945230131626
          0.0014282287194517197 0.0014281515166206602 0.0014280743137896007 0.0015605687639588797 0.001560517215080662 0.001560465666202444
          0.0016124761631927105 0.0016124505542380225 0.0016124249452833348 0 0 0
          0 0 0 0 0 0
          0 0 0 0 0 0
          0.00001525791711388752 0.000015287206957291725 0.000015316496800695932 0.00031798157803911663 0.000318016588840052 0.00031805159964098733
          0.00010435735422417284 0.00010444615625488403 0.00010453495828559524 0.0006435108638000945 0.0006433580907782307 0.0006432053177563667
          0.0010485345633563367 0.0010481116602695122 0.0010476887571826878 0.0012690540863215492 0.001268492330265001 0.001267930574208453
        </DataArray>
        <DataArray type="Float64" Name="pe22" format="ascii" RangeMin="-0.002273975732439218" RangeMax="0">
          -0.001588779550860973 -0.0017813944119683498 -0.001844401917642639 -0.0016045776208033658 -0.001588216062756082 -0.0017814668971337917
          -0.0018440869450882845 -0.0016044983747116656 -0.001587652574651191 -0.0017815393822992337 -0.0018437719725339298 -0.0016044191286199653
          -0.0014812870627689196 -0.001453703361006038 -0.0014833756332205562 -0.0015088108735300063 -0.001481251614721065 -0.0014536877964914565
          -0.001483285695274769 -0.0015089148818438391 -0.00148121616667321 -0.0014536722319768748 -0.0014831957573289815 -0.0015090188901576724
          -0.0005041751854147605 -0.00054767038563537 -0.0004898021502643479 -0.0002544593820274285 -0.0005042578007818904 -0.000547645357004314
          -0.0004897995670762651 -0.00025491175161546634 -0.0005043404161490202 -0.0005476203283732579 -0.0004897969838881824 -0.0002553641212035042
          -0.0019100357026020636 -0.0017483223534077016 -0.00175066322244151 -0.0019264877188175126 -0.0019104717752863442 -0.0017483331199399069
          -0.0017508656847026168 -0.0019268497795610106 -0.0019109078479706246 -0.0017483438864721122 -0.001751068146963724 -0.0019272118403045075
          -0.0014284626763140184 -0.0014325305669053096 -0.0014890518213089821 -0.0014850226666416396 -0.0014286986350466762 -0.0014326851769898969
          -0.0014892526972771184 -0.0014852296434409774 -0.001428934593779334 -0.0014328397870744837 -0.0014894535732452544 -0.0014854366202403145
          -0.0013550128618117338 -0.0013834151890569212 -0.0014767516115886472 -0.0014419307291341414 -0.001354651880844821 -0.0013831244353096105
          -0.0014765051850509324 -0.001441569578945325 -0.0013542908998779083 -0.0013828336815622998 -0.0014762587585132173 -0.0014412084287565088
          -0.001485086437415399 -0.0014545139051843664 -0.0014530368305567377 -0.0014852306294614638 -0.0014545254671746977 -0.0014528341066106945
          -0.0014853748215075283 -0.001454537029165029 -0.001452631382664651 -0.0014083566998630438 -0.0014602692893279773 -0.0014081771722050224
          -0.0014601280587021007 -0.0014079976445470013 -0.0014599868280762243 -0.001092717225287389 -0.0012622654824560467 -0.001245338356322106
          -0.001098338395564691 -0.0010928491931203733 -0.0012623368149551535 -0.0012455376998150261 -0.0010982265197798222 -0.0010929811609533577
          -0.0012624081474542602 -0.0012457370433079462 -0.0010981146439949531 -0.001606391689653077 -0.001604751129597278 -0.0016062081778841506
          -0.0016045841824102423 -0.0016060246661152241 -0.0016044172352232071 -0.0014267642281090497 -0.0014518212741423916 -0.0014265609309515638
          -0.0014517052754832063 -0.001426357633794078 -0.0014515892768240213 -0.0006726840789221324 -0.0006356741063615578 -0.00046415979951805285
          -0.0006726699326256439 -0.0006357532424255233 -0.0004637938999170041 -0.0006726557863291554 -0.0006358323784894889 -0.0004634280003159554
          -0.0014227560429833036 -0.0013378980837251456 -0.0014223104004040443 -0.0013374697961124518 -0.0014218647578247848 -0.0013370415084997572
          -0.0012143628230655782 -0.001288374895393275 -0.0013144350450857423 -0.0012527419399544022 -0.0012140828933757846 -0.0012882709496620994
          -0.0013144016565511823 -0.0012527488097515411 -0.0012138029636859908 -0.0012881670039309242 -0.0013143682680166221 -0.0012527556795486798
          -0.0014640589674198544 -0.001508470320309271 -0.0014814314693204415 -0.001464251488341273 -0.0015086679054840358 -0.0014816631874068368
          -0.0014644440092626912 -0.0015088654906588001 -0.0014818949054932324 -0.0017339782192176824 -0.0017339404257423452 -0.0017339026322670081
          -0.0013640132834006123 -0.0013023760311024573 -0.001394357923508459 -0.001363928589022933 -0.0013023165977395072 -0.0013942919651803328
          -0.0013638438946452535 -0.0013022571643765567 -0.0013942260068522058 -0.0014015088753777545 -0.0013864005066675047 -0.0014343679382558742
          -0.001401477595683887 -0.0013864127332483143 -0.0014344503320743221 -0.001401446315990019 -0.0013864249598291238 -0.0014345327258927698
          -0.0015427573446074707 -0.0015538036514050348 -0.0014385114226943777 -0.0015424511465462485 -0.0015535731805191352 -0.0014380190605491755
          -0.0015421449484850267 -0.0015533427096332362 -0.0014375266984039735 -0.0014583321052186208 -0.0014421203807931564 -0.0014576512865178814
          -0.0014417220884542165 -0.0014569704678171417 -0.001441323796115277 -0.0009896297627054094 -0.000957516164370204 -0.000989502829410203
          -0.0009574431755636448 -0.0009893758961149967 -0.0009573701867570855 -0.002273975732439218 -0.0022738453511558037 -0.002273714969872389
          -0.0012602333445587953 -0.0011678879496104938 -0.0012607296431482418 -0.001167990765202466 -0.0012612259417376886 -0.0011680935807944382
          -0.0014380378741004915 -0.0014341840085998474 -0.0014378425519313716 -0.0014339388075661288 -0.0014376472297622516 -0.0014336936065324104
          -0.0014305568490791106 -0.001430426625346149 -0.0014302964016131873 -0.0012244199326061573 -0.0012812422089636417 -0.0012981193777098314
          -0.0012480219430299872 -0.0012238672467691446 -0.0012808458801638683 -0.001297696977369602 -0.0012474921646164455 -0.0012233145609321316
          -0.0012804495513640945 -0.0012972745770293726 -0.0012469623862029038 -0.0005263471541811304 -0.0005264559612871702 -0.0005265647683932099
          -0.0004116812841056024 -0.0005788848675603585 -0.0004118247322985885 -0.0005789815323761324 -0.0004119681804915746 -0.0005790781971919065
          -0.0015773550730919627 -0.0014734620801693575 -0.001576961760855743 -0.0014728873523361518 -0.0015765684486195235 -0.0014723126245029458
          -0.0014311938543173487 -0.0014313136625791981 -0.001431433470841048 -0.0011999029166277133 -0.001116935246976197 -0.0011998554327661889
          -0.0011166664987299253 -0.0011998079489046643 -0.0011163977504836534 -0.0011853337196056073 -0.0011077737639257814 -0.0010464593538397945
          -0.001150067642890132 -0.0011851495746610413 -0.001107550632538823 -0.0010462460876428737 -0.0011499054695754225 -0.0011849654297164756
          -0.001107327501151865 -0.001046032821445953 -0.0011497432962607127 -0.0013524876395251046 -0.0013511482991752151 -0.0013526162830918708
          -0.0013510604520480746 -0.001352744926658637 -0.0013509726049209343 -0.0010821097379583205 -0.0010380500276642877 -0.0009207087548315864
          -0.0009514188677261857 -0.0010823858533522354 -0.0010382295792957276 -0.0009213273157627402 -0.0009517179936052387 -0.0010826619687461503
          -0.0010384091309271674 -0.0009219458766938939 -0.0009520171194842919 -0.0015801929068859897 -0.0015799432054452037 -0.0015796935040044177
          -0.0012690516452573534 -0.001290487429991364 -0.0012686928648963538 -0.001290036342821203 -0.0012683340845353543 -0.0012895852556510413
          -0.0012748579847257349 -0.0012610724317308178 -0.0012747952579491074 -0.0012610490555957548 -0.0012747325311724803 -0.0012610256794606913
          -0.0014092630449248208 -0.00140919266406877 -0.001409122283212719 -0.001500524061977931 -0.0015193574602244144 -0.001500364029559055
          -0.0015192055078951199 -0.0015002039971401789 -0.0015190535555658254 -0.0015864158390655467 -0.0015308055482281975 -0.0015861592050286574
          -0.0015306343254320794 -0.001585902570991768 -0.0015304631026359615 -0.0015344753140081344 -0.0016111535231141405 -0.0015342006015710641
          -0.001611010451601261 -0.0015339258891339936 -0.0016108673800883813 -0.0014189200320563404 -0.0014188522188676952 -0.0014187844056790498
          -0.001381445546605482 -0.0014166669310810617 -0.0013813782978130723 -0.0014167516177894391 -0.0013813110490206626 -0.001416836304497817
          -0.00153926980236725 -0.0015128075116757275 -0.0015392929001297171 -0.001512744715687413 -0.0015393159978921841 -0.0015126819196990984
          -0.0017205150381454195 -0.0015613868968729291 -0.0017325550854005085 -0.0017204029967476638 -0.001561039980180482 -0.0017323685324860975
          -0.0017202909553499079 -0.001560693063488035 -0.0017321819795716857 -0.0017175745243058628 -0.0017175730486279541 -0.0017175715729500457
          -0.0013281324810766478 -0.0013548244018949528 -0.0013277955263990425 -0.0013546669918563282 -0.0013274585717214372 -0.0013545095818177037
          -0.0014129367131759827 -0.0014257510799397233 -0.0014127818683951447 -0.0014256346281615287 -0.0014126270236143068 -0.0014255181763833343
          -0.0007606082035084437 -0.000932976737252113 -0.0007606388387728094 -0.000933053334448374 -0.0007606694740371751 -0.0009331299316446352
          -0.001357868502782478 -0.0012755823366580826 -0.0013574263461061348 -0.0012753697257984324 -0.0013569841894297912 -0.001275157114938782
          -0.0019122489075568392 -0.0017374233875713406 -0.0018727172726951983 -0.0019125360910558688 -0.0017375999295427417 -0.0018729541594114645
          -0.0019128232745548983 -0.0017377764715141432 -0.0018731910461277307 -0.0019213191574376717 -0.001922016380906446 -0.0019227136043752204
          -0.0014265316636158962 -0.0014264570757266126 -0.001426382487837329 -0.0019573686487811487 -0.0019577108684098385 -0.001958053088038529
          -0.0017608508636768826 -0.0017611462743317625 -0.001761441684986642 -0.001470782297991783 -0.0014705469020610852 -0.0014703115061303871
          -0.001330386289798684 -0.0013300940653502183 -0.0013298018409017523 -0.0020233592665959213 -0.0020229990562762685 -0.0020226388459566157
          -0.0018607812823386513 -0.001861078922823571 -0.0018613765633084907 -0.0016993170099116007 -0.0017239286488674882 -0.001698892487991497
          -0.0017245215544563013 -0.0016984679660713934 -0.0017251144600451142 -0.0014582765938916872 -0.0014455383271281032 -0.0014575546289663944
          -0.0014450893896737129 -0.0014568326640411015 -0.0014446404522193228 -0.002019975760256399 -0.0020204714196405855 -0.0020209670790247722
          -0.001289495149184919 -0.001301711662594055 -0.00128863916963171 -0.001301129548213537 -0.0012877831900785011 -0.001300547433833019
          -0.0005107988020759951 -0.00030201187911944535 -0.0005109110514885765 -0.0003022025170561985 -0.0005110233009011579 -0.0003023931549929516
          -0.0009019983961050977 -0.0009021037055226191 -0.0009022090149401404 -0.0019200642718597667 -0.0019205663251627425 -0.0019210683784657186
          -0.001151216879343039 -0.0012630171970387841 -0.0011510825671418937 -0.001263311808955754 -0.0011509482549407484 -0.0012636064208727234
          -0.0012172862764140296 -0.0012761309308559582 -0.0012167566055817734 -0.0012757947259775955 -0.001216226934749517 -0.0012754585210992325
          -0.0018445079278522798 -0.0018446564020205096 -0.0018448048761887388 -0.001950387355293844 -0.0019509924165348846 -0.0019515974777759254
          -0.0014393314487119461 -0.0014392663444752474 -0.0014392012402385487 -0.0012010183075962222 -0.0011918831606812443 -0.001200510834511643
          -0.001191314314200964 -0.0012000033614270643 -0.0011907454677206842 -0.0013978095138376895 -0.0013977934480072613 -0.0013977773821768327
          -0.0015201958225207215 -0.0015222230539243653 -0.001533863097850873 -0.0015346017081524382 -0.0015204748820722967 -0.0015224398513422573
          -0.0015340414028466708 -0.0015348231381707381 -0.0015207539416238719 -0.0015226566487601494 -0.0015342197078424685 -0.0015350445681890385
          -0.0013521037534912279 -0.001416896619793925 -0.0013520406586588975 -0.001417005593448571 -0.0013519775638265671 -0.001417114567103217
          -0.0013548201515717327 -0.0013551211520807078 -0.0013554221525896829 -0.001527403148357516 -0.0015211138912071937 -0.0015275603741367386
          -0.0015213102908421994 -0.0015277175999159614 -0.001521506690477205 -0.001351418309754363 -0.001295178104790273 -0.0013514801895622862
          -0.0012952689646681215 -0.0013515420693702095 -0.0012953598245459695 -0.0014688858907133042 -0.0014686998729290194 -0.0014685138551447353
          -0.0014264408832759148 -0.001426253977031739 -0.0014260670707875634 -0.001305243850782202 -0.0013052020014158246 -0.0013051601520494471
          -0.0012230328921034503 -0.0012097462437864084 -0.0012225753947382233 -0.0012090806505215175 -0.0012221178973729962 -0.0012084150572566268
          -0.0013202433069535034 -0.0013201671939726202 -0.0013200910809917372 -0.0010169075182903569 -0.0009021656383043037 -0.0010738735968484911
          -0.001016892880130149 -0.0009022692971731898 -0.0010737370161007626 -0.001016878241969941 -0.0009023729560420759 -0.001073600435353034
          -0.0012484733229272968 -0.0012485425647111388 -0.001248611806494981 -0.0014225817070831269 -0.0014734647193527456 -0.0014721736173766383
          -0.001422801242045399 -0.0014734697056902192 -0.0014720860147249548 -0.001423020777007671 -0.0014734746920276932 -0.0014719984120732713
          -0.0014806550735776201 -0.001480888058639765 -0.0014811210437019099 -0.0013709971377071713 -0.0013709029283981114 -0.0013708087190890516
          -0.0007145331169869496 -0.0007146382674195637 -0.0007147434178521778 -0.0013539194775277746 -0.0013539764939765574 -0.0013540335104253402
          -0.0015158127065885063 -0.0015156291558877208 -0.001515736660760951 -0.0015156055270592133 -0.0015156606149333953 -0.0015155818982307062
          -0.0011940358307065049 -0.0011941684942899905 -0.0011943011578734763 -0.0012526653339894125 -0.001226545006207318 -0.0012524533004094377
          -0.0012261463072637652 -0.0012522412668294625 -0.0012257476083202127 -0.001508369759224846 -0.001475072379036129 -0.0015082144423546563
          -0.001474801981517856 -0.0015080591254844672 -0.0014745315839995831 -0.0012435088229618134 -0.0011622982176181852 -0.0012434925464562007
          -0.0011623077159004683 -0.001243476269950588 -0.0011623172141827516 -0.0008658158819353275 -0.0009950394643568647 -0.0008658635496876171
          -0.0009950660826491846 -0.0008659112174399066 -0.0009950927009415042 -0.0013566594783953785 -0.001355881203926 -0.0012574880578884538
          -0.0013569842831946143 -0.0013561151348542256 -0.0012573505851927527 -0.0013573090879938502 -0.0013563490657824515 -0.0012572131124970515
          -0.0010973427305865247 -0.001097368649070932 -0.0010973945675553398 -0.0011359002236557504 -0.0011351673279299261 -0.001134434432204102
          -0.0014257633467604917 -0.0014260187116089547 -0.001426274076457418 -0.0007037005857014502 -0.0007036848092979124 -0.0007036690328943747
          -0.0009095604042988444 -0.0007742271697031634 -0.000786600556727507 -0.0009096943383023739 -0.0007742470309389311 -0.0007867944809933454
          -0.0009098282723059033 -0.0007742668921746988 -0.0007869884052591834 -0.0010219613689738268 -0.00102159397042867 -0.0010212265718835133
          -0.0009554354292428423 -0.0009555006543055132 -0.0009555658793681841 -0.00085490213552935 -0.0007215799657329198 -0.0008550629754566212
          -0.0007216308231725774 -0.0008552238153838924 -0.0007216816806122348 -0.000623197873465544 -0.0006232885759458886 -0.0006233792784262331
          -0.0007976569549701221 -0.0007979095831047839 -0.0007981622112394456 -0.00030600848241444626 -0.0003060677729793335 -0.00030612706354422083
          -0.0004563652799678776 -0.0004555827863807633 -0.0004548002927936491 -0.00027074732014779424 -0.0002709118039418912 -0.00027107628773598817
          -0.00011500704656993144 -0.0001161849955631643 -0.00011736294455639716 -0.000050444042237313595 -0.00002755431808207327 -0.00005057648757683481
          -0.000027711574293489645 -0.00005070893291635601 -0.000027868830504906018 -0.0000015505999612847992 0 -0.0000015638751701094158
          0 -0.0000015771503789340324 0 0 0 0
          0 0 0 -0.00012035673253072926 -0.00012044729463285013 -0.00012053785673497099
          -0.000020327279527872264 -0.000020358335865345922 -0.000020389392202819583 0 0 0
          -0.00022803612824481688 -0.00022806480403976908 -0.00022809347983472126 -0.00007642816011613936 -0.00007645024075744485 -0.00007647232139875033
          -0.00000989876896191595 -0.000009922433392815033 -0.000009946097823714116 -0.00035567967840345507 -0.0003556918414986452 -0.0003557040045938354
          -0.0001765270607356347 -0.00017653544292951163 -0.00017654382512338862 -0.00005265285248008534 -0.00005270074539238191 -0.000052748638304678485
          -0.00030946772284086237 -0.00030946685725479297 -0.0003094659916687236 -0.0001457591995470425 -0.00014578056312085895 -0.00014580192669467535
          -0.0004549428075233762 -0.00045495076578742303 -0.00045495872405146987 -0.00028359175862790125 -0.00028359266286189644 -0.0002835935670958917
          -0.0005988310278344606 -0.0005988440093173245 -0.0005988569908001887 -0.0004510504286990546 -0.0004510144773813786 -0.00045097852606370246
          -0.0007278333421523276 -0.0007278141049085818 -0.0007277948676648361 -0.0006357788734292688 -0.0006356294420480045 -0.0006354800106667402
          -0.0007867059583729274 -0.000786667333982381 -0.0007866287095918347 -0.0007306301746584848 -0.0007304107528144607 -0.0007301913309704366
          0 0 0 0 0 0
          0 0 0 0 0 0
          -0.000006445099044796824 -0.000006461071821979445 -0.000006477044599162067 -0.00004359392639960567 -0.00004361482323743239 -0.000043635720075259116
          -0.0008502818599615616 -0.0008870381772325237 -0.0008503133482831843 -0.0008869735213732986 -0.0008503448366048069 -0.0008869088655140736
          -0.0006274864002791952 -0.0007152323589614433 -0.000656460517784338 -0.0006275853717964577 -0.000715229028191028 -0.0006565060303410131
          -0.0006276843433137202 -0.0007152256974206128 -0.0006565515428976882 -0.001116036452034779 -0.0011157342629536046 -0.0011154320738724298
          -0.0009612110501625488 -0.0009609234093521429 -0.0009606357685417371 -0.0007764212725228911 -0.0007764986994172301 -0.0007765761263115689
          -0.00048704947446523417 -0.000487090172334934 -0.00048713087020463384 -0.0006072460234646186 -0.0006073015980067528 -0.0006073571725488868
          -0.0007055737012371134 -0.0007056375835019635 -0.0007057014657668136 -0.0007758113913090866 -0.0007758465948768464 -0.0007758817984446061
          -0.0008035352771288964 -0.000803548137416676 -0.0008035609977044557 0 0 0
          0 0 0 0 0 0
          0 0 0 0 0 0
          -0.000006102004129041102 -0.000006110141941308724 -0.000006118279753576346 -0.00013655540545476466 -0.00013655316124421094 -0.00013655091703365722
          -0.00004308580142498793 -0.00004310875625765663 -0.00004313171109032533 -0.0002881041463000817 -0.0002880338897972026 -0.0002879636332943234
          -0.0004886461253568224 -0.0004884280483495108 -0.000488209971342199 -0.000599897114313393 -0.0005995871367621322 -0.0005992771592108715
        </DataArray>
        <DataArray type="Float64" Name="pe33" format="ascii" RangeMin="-0.0020273800246350645" RangeMax="0">
          -0.0014508457837503032 -0.0015962935633170396 -0.0016557219792962669 -0.0014554195554281246 -0.001454347946347663 -0.001599512525421069
          -0.001658784920084987 -0.0014597652844013554 -0.0014578501089450228 -0.0016027314875250985 -0.0016618478608737075 -0.0014641110133745863
          -0.0015662921962240688 -0.0015227717275636884 -0.0015724317260309827 -0.001611500882067609 -0.001565224220689392 -0.001522037972561038
          -0.0015710383018241272 -0.0016100226000577414 -0.001564156245154715 -0.001521304217558388 -0.0015696448776172714 -0.0016085443180478736
          -0.0005179187816830494 -0.0005746699466642216 -0.0005074170433354782 -0.000259265025833685 -0.0005183485085998796 -0.0005749173329319615
          -0.000507643712396983 -0.00026020609262066686 -0.0005187782355167098 -0.0005751647191997015 -0.0005078703814584877 -0.0002611471594076488
          -0.001835475928149336 -0.0016906749401915883 -0.0017008828190347438 -0.0018493944464314262 -0.0018342042582913751 -0.0016906917280281768
          -0.0017012912689493781 -0.0018486027041119727 -0.0018329325884334138 -0.0016907085158647654 -0.001701699718864013 -0.0018478109617925194
          -0.0015499277194814605 -0.0015578963103689027 -0.0016139118014655237 -0.0016116148132995908 -0.0015490382172894106 -0.001556726210655152
          -0.0016125782528179525 -0.0016104969788856584 -0.0015481487150973607 -0.0015555561109414013 -0.001611244704170381 -0.001609379144471726
          -0.0013291561602771689 -0.0013761692831292221 -0.0014515059189749162 -0.0014039634619583954 -0.0013303456536608023 -0.0013769797630248518
          -0.0014522568881799067 -0.0014050764790287803 -0.0013315351470444352 -0.0013777902429204817 -0.001453007857384897 -0.0014061894960991656
          -0.0015790416170572365 -0.0015292263896994598 -0.0015174439504397324 -0.001578123062256766 -0.0015285990908713507 -0.0015169472611050515
          -0.0015772045074562958 -0.0015279717920432408 -0.001516450571770371 -0.0014167065861876752 -0.001452056211072521 -0.0014175400156739347
          -0.0014527685855843305 -0.001418373445160194 -0.0014534809600961396 -0.0011704617011673998 -0.0013532245414591686 -0.0013419099636405238
          -0.0011702168348192983 -0.001169965461732461 -0.001352476509227809 -0.001341406214613441 -0.00116931684811998 -0.0011694692222975226
          -0.0013517284769964495 -0.0013409024655863582 -0.0011684168614206614 -0.0015728726042518906 -0.0015799087368422783 -0.001573621596035145
          -0.001580798849305667 -0.0015743705878183993 -0.0015816889617690563 -0.0014531692401563894 -0.0014618386006579258 -0.0014537782863665984
          -0.0014624627400276443 -0.0014543873325768074 -0.0014630868793973624 -0.0007117072072132803 -0.0006553648640064497 -0.00047772291161506466
          -0.0007117841534544415 -0.0006551794010530982 -0.00047721014360981837 -0.0007118610996956025 -0.0006549939380997464 -0.00047669737560457207
          -0.0013669877939492872 -0.0012894798332350318 -0.001368884332765838 -0.0012912731308029682 -0.001370780871582389 -0.0012930664283709046
          -0.0012583887176834255 -0.0013194567863729744 -0.0013661080483443042 -0.001319686960654045 -0.001258486663707835 -0.00132007856102873
          -0.0013662856458622145 -0.0013193629018610964 -0.0012585846097322444 -0.0013207003356844854 -0.0013664632433801247 -0.0013190388430681474
          -0.0015624948747613122 -0.0016183695023081522 -0.0015973170654214673 -0.0015615514509568912 -0.0016172483930063087 -0.0015960673012051878
          -0.0015606080271524693 -0.0016161272837044646 -0.0015948175369889085 -0.0016910564529174367 -0.0016915606392059238 -0.0016920648254944112
          -0.0013832645564631546 -0.0013034974683340376 -0.0013908098976966737 -0.0013839248896748162 -0.001304448200240128 -0.0013914662761270562
          -0.0013845852228864784 -0.0013053989321462182 -0.0013921226545574388 -0.001503249305175409 -0.0014728586876735813 -0.0015133873746502318
          -0.0015019320460741962 -0.0014720509791939535 -0.0015128117439040514 -0.001500614786972983 -0.0014712432707143256 -0.0015122361131578706
          -0.0014730846763593248 -0.0014622346796688912 -0.0013566876738291703 -0.0014750942501258065 -0.0014644968112411457 -0.0013591867488472592
          -0.0014771038238922877 -0.0014667589428134001 -0.0013616858238653482 -0.0013460184294397408 -0.0013206343638928893 -0.0013486206717809991
          -0.001323435209091365 -0.0013512229141222577 -0.0013262360542898406 -0.0010269979703967287 -0.0009897825181832782 -0.0010271347542540662
          -0.0009897830076438343 -0.0010272715381114033 -0.0009897834971043904 -0.0020273800246350645 -0.0020250349649464207 -0.002022689905257777
          -0.0013647036711490498 -0.0012627211422414964 -0.001363856776600939 -0.0012608808426126886 -0.0013630098820528278 -0.0012590405429838808
          -0.0014638600860075097 -0.0014786555566972392 -0.0014642334505382834 -0.00147874073682752 -0.0014646068150690576 -0.0014788259169578014
          -0.0014766724306986552 -0.0014767459547426684 -0.001476819478786682 -0.0012271271560102522 -0.0013065807872155767 -0.001314334786108737
          -0.001243341637709 -0.0012283141499507546 -0.0013072090130647792 -0.0013150874010399187 -0.0012445668598690107 -0.001229501143891257
          -0.0013078372389139815 -0.0013158400159711007 -0.0012457920820290215 -0.0005443973416994944 -0.0005443941372126689 -0.0005443909327258435
          -0.0004269485247091885 -0.0005959592514493678 -0.0004270990249368434 -0.0005960410401334236 -0.00042724952516449825 -0.000596122828817479
          -0.0014608385239529725 -0.0013737371945122953 -0.001463271927448927 -0.001376418626417026 -0.0014657053309448816 -0.0013791000583217572
          -0.0015502384587065226 -0.0015487707561947894 -0.0015473030536830561 -0.0012774514959232402 -0.0011683614725875903 -0.0012764478201067327
          -0.001168077299413774 -0.0012754441442902253 -0.0011677931262399576 -0.0012090321026178936 -0.001148775133220581 -0.0010753746400061885
          -0.0011570512216361548 -0.0012093495242311318 -0.0011487065805679969 -0.0010755745701234046 -0.0011575706525655076 -0.0012096669458443695
          -0.0011486380279154126 -0.0010757745002406207 -0.0011580900834948602 -0.0014645327951478538 -0.0014547663670938032 -0.001463620508151019
          -0.001453564173611435 -0.0014627082211541844 -0.0014523619801290666 -0.0011672003629119106 -0.0011183843369414154 -0.0009681299909421443
          -0.001010680580411588 -0.0011656839225696496 -0.0011176997206363824 -0.000968387724721533 -0.0010103613151363753 -0.0011641674822273883
          -0.0011170151043313494 -0.0009686454585009217 -0.0010100420498611626 -0.0015614120404823296 -0.001562202480674734 -0.0015629929208671382
          -0.0012320983626699171 -0.0012761072466553412 -0.0012341081794351475 -0.001277394690764978 -0.001236117996200378 -0.001278682134874615
          -0.0012602477905333516 -0.0012356419010112769 -0.0012613039615842392 -0.001236725595622574 -0.001262360132635127 -0.001237809290233871
          -0.0013846280030881978 -0.0013857971948996227 -0.0013869663867110478 -0.0014957755575249606 -0.001503555343135029 -0.0014964299660397667
          -0.0015043275801834546 -0.0014970843745545728 -0.0015050998172318805 -0.0015417105637625117 -0.0015077706047132034 -0.0015424374131975003
          -0.0015085789836999585 -0.001543164262632489 -0.0015093873626867138 -0.001520766864669267 -0.0015861898691974954 -0.001521247987785608
          -0.0015863824833381493 -0.0015217291109019492 -0.0015865750974788032 -0.0014002962376159914 -0.0014013653433434842 -0.0014024344490709774
          -0.0014125363408202213 -0.0014719203912618459 -0.001413225131974987 -0.001471987587068851 -0.001413913923129753 -0.0014720547828758555
          -0.0015210960729192496 -0.0014952819258525721 -0.0015215342509691861 -0.0014956139588681435 -0.0015219724290191229 -0.001495945991883715
          -0.001626932334886486 -0.0015034941486950445 -0.0016563384328608906 -0.0016279109644707066 -0.001504731379042522 -0.0016566273941264562
          -0.001628889594054927 -0.0015059686093899997 -0.0016569163553920214 -0.0016157866949521285 -0.001616894103060168 -0.0016180015111682078
          -0.0013359353662452333 -0.0013895735816625283 -0.0013367847035063113 -0.0013904551314629868 -0.0013376340407673891 -0.0013913366812634458
          -0.0014470632225557932 -0.0014806264003213764 -0.0014473733068284997 -0.0014804833607855064 -0.0014476833911012063 -0.0014803403212496368
          -0.0008076939235921864 -0.0009910780434264 -0.0008077237619412336 -0.0009907075131871822 -0.0008077536002902808 -0.0009903369829479646
          -0.0012761805848413676 -0.0012179884465621162 -0.0012782537325979192 -0.0012201763936966193 -0.0012803268803544708 -0.001222364340831122
          -0.0017842473780808963 -0.001613603680401051 -0.0017641561085994955 -0.0017831632273654862 -0.001614423919091921 -0.00176351301329894
          -0.0017820790766500763 -0.0016152441577827914 -0.0017628699179983844 -0.0017506683511909315 -0.0017502716325461325 -0.0017498749139013335
          -0.0014918656164214024 -0.0014918769559153422 -0.001491888295409282 -0.0018792922946867501 -0.0018775241622598026 -0.0018757560298328546
          -0.0016017720784366764 -0.0016032934603424204 -0.0016048148422481649 -0.0014779879625261318 -0.0014784105794153257 -0.0014788331963045203
          -0.001236710606015759 -0.0012386625665887687 -0.0012406145271617785 -0.0018268318433217836 -0.0018262454563409759 -0.001825659069360168
          -0.0017580775929970675 -0.0017578544043998607 -0.0017576312158026537 -0.0014655352150576202 -0.001524159698190313 -0.0014701345518588313
          -0.0015278170879631924 -0.0014747338886600425 -0.0015314744777360715 -0.001294509291639876 -0.001302437285291443 -0.0012975487799510316
          -0.0013054728772409201 -0.0013005882682621875 -0.001308508469190397 -0.0017988020163586713 -0.0017987561166784693 -0.0017987102169982673
          -0.0011878373608499287 -0.0012037448089446585 -0.0011905741716677592 -0.0012061355123537247 -0.0011933109824855896 -0.0012085262157627908
          -0.0005235851854832104 -0.00031182802738829746 -0.0005239578523774458 -0.0003122520087015361 -0.0005243305192716813 -0.0003126759900147746
          -0.000956939308634247 -0.0009566488577904531 -0.0009563584069466591 -0.0017214156717751557 -0.0017225988324710909 -0.0017237819931670256
          -0.0012575499273332958 -0.0013708165596919807 -0.0012559421298779627 -0.0013696565129514321 -0.0012543343324226295 -0.0013684964662108833
          -0.00122329880466904 -0.0013066320101773536 -0.0012244968474386243 -0.001307213727449149 -0.0012256948902082086 -0.001307795444720945
          -0.001751438298395049 -0.0017510892824738938 -0.0017507402665527386 -0.0018737509602103112 -0.0018721689590973172 -0.0018705869579843234
          -0.0014225164668655247 -0.001423174413506446 -0.0014238323601473669 -0.0011699761348447763 -0.0011625994023382403 -0.0011721963556057128
          -0.0011648028635391186 -0.0011744165763666495 -0.0011670063247399974 -0.001459037914123759 -0.0014588927021921252 -0.0014587474902604913
          -0.0016513933706839524 -0.0016509880046069627 -0.0016625626730163144 -0.0016703259260200261 -0.001650079421823606 -0.0016496338714737874
          -0.0016607398653975803 -0.0016684269437772948 -0.0016487654729632599 -0.001648279738340612 -0.0016589170577788464 -0.001666527961534563
          -0.0013901122661641996 -0.001478976110715327 -0.0013908130355854064 -0.0014792850803142625 -0.001391513805006614 -0.0014795940499131987
          -0.0014709403221935034 -0.0014702950700392597 -0.0014696498178850157 -0.0016432393000114132 -0.0016423699457019936 -0.0016415599371505522
          -0.0016410669331936832 -0.0016398805742896913 -0.0016397639206853732 -0.0014222289251401806 -0.001380234406607307 -0.0014219377180120895
          -0.0013793331840195907 -0.0014216465108839982 -0.001378431961431875 -0.001462013897237686 -0.0014623241329879367 -0.0014626343687381873
          -0.0014407201061245314 -0.0014411148386473099 -0.0014415095711700883 -0.0013968312314218045 -0.001395526326343703 -0.001394221421265601
          -0.0011585842797617668 -0.0011448032526013337 -0.0011612754116471593 -0.0011477167543956191 -0.0011639665435325519 -0.0011506302561899045
          -0.0014131516239541874 -0.001411766163225636 -0.0014103807024970839 -0.0010594820468110095 -0.0009323093222372802 -0.0011208635936719225
          -0.001059228711119269 -0.0009324209156354813 -0.0011203930136565086 -0.0010589753754275287 -0.0009325325090336824 -0.0011199224336410946
          -0.0013432173636237614 -0.0013416689198930774 -0.0013401204761623934 -0.001486709145513835 -0.0015813285851701392 -0.001572311793655207
          -0.0014867425557927314 -0.0015801446298145492 -0.0015712183164803574 -0.001486775966071628 -0.001578960674458959 -0.0015701248393055077
          -0.0016060537161625365 -0.0016050992618221872 -0.001604144807481838 -0.0014111135666565369 -0.001411459133107827 -0.0014118046995591172
          -0.0007468228879052374 -0.0007468715593281286 -0.0007469202307510198 -0.0013948504693363389 -0.0013953358431844356 -0.0013958212170325324
          -0.0016394324352420897 -0.0016497072302322962 -0.0016373502729237815 -0.00164762691735264 -0.0016352681106054727 -0.0016455466044729833
          -0.0012786355961550335 -0.0012776554809555848 -0.001276675365756136 -0.0011892789062053041 -0.0011929094153263213 -0.0011916398614661807
          -0.0011951026873262074 -0.0011940008167270568 -0.0011972959593260935 -0.0016124826699680012 -0.0015646709346067936 -0.001610613263904589
          -0.0015635786928619195 -0.0016087438578411772 -0.001562486451117045 -0.0013347969391698878 -0.0012363171269317223 -0.001333161466298707
          -0.001235179607117192 -0.0013315259934275259 -0.0012340420873026617 -0.0009081626409914753 -0.0010557674564004053 -0.000908205619207531
          -0.0010556927031499302 -0.0009082485974235869 -0.0010556179498994551 -0.001468708789933357 -0.0014643448379565807 -0.0013631575016591914
          -0.0014679299669141783 -0.0014633639483436734 -0.0013619711732294512 -0.001467151143895 -0.0014623830587307662 -0.0013607848447997107
          -0.0011666455433580808 -0.0011660227497252292 -0.0011653999560923777 -0.0012339067711292762 -0.0012329231095171676 -0.001231939447905059
          -0.001543255695570566 -0.0015423891575679547 -0.0015415226195653435 -0.0007294508054840616 -0.0007294925393726774 -0.000729534273261293
          -0.0009397939059690728 -0.0007938461669772617 -0.0008174929318040698 -0.0009401329346428618 -0.0007939438291121245 -0.0008176299278972563
          -0.0009404719633166506 -0.0007940414912469872 -0.0008177669239904429 -0.0010849739507351442 -0.0010849378907099175 -0.0010849018306846908
          -0.0009980992093638643 -0.0009982772175357215 -0.0009984552257075788 -0.0008905479405798568 -0.0007501461740248649 -0.0008908443346445584
          -0.0007502053958853273 -0.0008911407287092599 -0.0007502646177457898 -0.0006368425921509551 -0.0006364871467164657 -0.0006361317012819765
          -0.0008452585320213587 -0.0008454792929255764 -0.0008457000538297943 -0.00031686827702816786 -0.0003174880167975493 -0.00031810775656693067
          -0.00047313520952451163 -0.0004719801628133846 -0.00047082511610225766 -0.00028624066671044927 -0.0002870129898482342 -0.0002877853129860192
          -0.00012038852772760094 -0.00012213535709636585 -0.00012388218646513073 -0.000052925386627621844 -0.000028530635079344144 -0.0000531530715302724
          -0.00002875684137197849 -0.00005338075643292297 -0.00002898304766461284 -0.000001915344148194344 0 -0.000001934315103934749
          0 -0.0000019532860596751534 0 0 0 0
          0 0 0 -0.00013006445255089177 -0.00013024285233391794 -0.00013042125211694413
          -0.000024295385549414576 -0.000024354723187099097 -0.000024414060824783616 0 0 0
          -0.0002490725612115412 -0.0002491655844438387 -0.0002492586076761361 -0.00009104502902657983 -0.00009114062955928744 -0.00009123623009199508
          -0.000013029850702346315 -0.000013072113960187713 -0.000013114377218029111 -0.0003850816607364004 -0.0003850798893986213 -0.0003850781180608422
          -0.00020764132936629764 -0.00020770155587919903 -0.00020776178239210037 -0.00006814782112095939 -0.00006824996166851529 -0.00006835210221607119
          -0.00035410976784118557 -0.000354076571311079 -0.00035404337478097244 -0.00018346397569587536 -0.00018354155734712452 -0.00018361913899837367
          -0.0005024377651814613 -0.0005023334196986527 -0.0005022290742158443 -0.0003423451987104433 -0.0003423210957528895 -0.00034229699279533576
          -0.0006373557040701489 -0.0006372251108753233 -0.0006370945176804978 -0.0005142324763989145 -0.0005141164536611769 -0.0005140004309234393
          -0.0007533799420875589 -0.0007532932197959015 -0.000753206497504244 -0.0006894416694562238 -0.0006892783906011893 -0.0006891151117461547
          -0.0008066571541972473 -0.0008066125834224556 -0.0008065680126476639 -0.0007784167729809807 -0.0007782386461082099 -0.0007780605192354391
          0 0 0 0 0 0
          0 0 0 0 0 0
          -0.000009274161288003123 -0.0000093067493545975 -0.000009339337421191876 -0.00006060356836777842 -0.00006067699113797755 -0.00006075041390817668
          -0.0008751897996485775 -0.000908460619060507 -0.0008754274216815042 -0.000909037545849974 -0.0008756650437144308 -0.0009096144726394408
          -0.0006452014707044651 -0.0007341435904809884 -0.0006756902775857459 -0.0006450901090915925 -0.00073385424586574 -0.0006755370456511509
          -0.0006449787474787199 -0.0007335649012504918 -0.0006753838137165558 -0.0011093138206683404 -0.001110027998039137 -0.0011107421754099334
          -0.0009707285437688045 -0.0009713651692161814 -0.0009720017946635587 -0.0008024349763141017 -0.000802418655997969 -0.0008024023356818365
          -0.0005179468663469424 -0.0005178573963289315 -0.0005177679263109207 -0.0006329014719558614 -0.0006327694112100686 -0.0006326373504642758
          -0.0007226550182146063 -0.0007225139331186967 -0.0007223728480227872 -0.0007847573726497928 -0.0007846706202038155 -0.000784583867757838
          -0.0008089408860638138 -0.0008089024168213466 -0.0008088639475788792 0 0 0
          0 0 0 0 0 0
          0 0 0 0 0 0
          -0.00000915591298484642 -0.000009177065015983003 -0.000009198217047119587 -0.000181426172584352 -0.00018146342759584104 -0.00018150068260733006
          -0.0000612715527991849 -0.0000613373999972274 -0.00006140324719526989 -0.0003554067175000127 -0.000355324200981028 -0.0003552416844620433
          -0.0005598884379995141 -0.0005596836119200015 -0.0005594787858404888 -0.000669156972008156 -0.0006689051935028688 -0.0006686534149975816
        </DataArray>
        <DataArray type="Float64" Name="disp_x" format="ascii" RangeMin="0.000044287910668296026" RangeMax="0.00010669418040808596">
          0.00005077165807374178 0.000049093106390598926 0.00004816827976572651 0.000050206704234630064 0.00005076870288326305 0.00004908892260595086
          0.00004816187851909159 0.00005020306415081553 0.0000507604439993588 0.00004907738899519464 0.000048142946802941686 0.00005019302970212883
          0.00006938134687083364 0.00006712315274768587 0.00006800926074077637 0.000070227979842425 0.00006938222008497998 0.00006712454831389626
          0.00006801072812255645 0.00007022823521497989 0.00006938473376991046 0.00006712922288172566 0.0000680159198884201 0.00007022951956201869
          0.00009218739889624957 0.00009173325660875131 0.0000925498551777895 0.00009498573467614183 0.00009218412362361824 0.00009173011936311992
          0.0000925462718030112 0.00009498362840927941 0.00009217427627568728 0.00009172068810284224 0.00009253551330287492 0.00009497726340130888
          0.00005403072800344048 0.00005660471224982949 0.00005828597789031247 0.000055857437383038205 0.00005402876021489342 0.00005660280163189171
          0.000058283867712455196 0.00005585485808905514 0.00005402306872387824 0.000056596973719113144 0.00005827751813233459 0.000055847264897770076
          0.00007882211145205274 0.00007816431495795369 0.00007578187094548083 0.00007648328753358541 0.00007882027039462848 0.00007816254289856152
          0.00007578082818672658 0.00007648184438206286 0.0000788154073164682 0.00007815766275030177 0.00007577800949699853 0.00007647805901122716
          0.00005825161075473999 0.000060437813601609726 0.000059342837367595296 0.00005709182212087291 0.000058251941758350443 0.000060437953159333075
          0.00005934242420404666 0.0000570913562669093 0.000058253145738035415 0.00006043882132508711 0.00005934153535147955 0.00005709051497054978
          0.00007184971902986704 0.00007090840047623608 0.00006846544871886925 0.00007185001454665695 0.00007090848347178972 0.00006846612554001987
          0.00007185063929150515 0.00007090906843262031 0.00006846838845716236 0.00006283847429922209 0.00006210813860984723 0.00006283907145782757
          0.00006210809064129411 0.00006284026126148024 0.0000621074718205556 0.00008433108524801926 0.000081686024155647 0.00008253190235121709
          0.00008555812549428793 0.0000843286228358797 0.00008168332604391674 0.00008252973024268504 0.00008555537855061923 0.00008432149613513854
          0.00008167529057750599 0.00008252329669314265 0.00008554773282499799 0.000058518911189109175 0.00006021497957697767 0.00005851765390885827
          0.000060213737560907613 0.000058513927470596485 0.000060209542609526686 0.0000652129871667785 0.00006442552215790832 0.00006521389079564836
          0.00006442557359073447 0.00006521622876404805 0.00006442531306787689 0.00009087495429559518 0.0000916072118151498 0.00009304751814791442
          0.00009087174563581074 0.00009160402913023338 0.00009304433901352214 0.00009086172959643441 0.00009159259915276881 0.00009303735414365477
          0.00005526181624639525 0.00005640408523382669 0.000055261427963678627 0.0000564039723608243 0.000055259790454638485 0.000056403361963463565
          0.00007491489476472555 0.00007259406085586079 0.00007362587230338502 0.0000758279211763313 0.00007491421629568539 0.00007259342622266373
          0.00007362539635723775 0.00007582750516238174 0.00007491219109848148 0.00007259174769461263 0.00007362432316889124 0.00007582668754904579
          0.0000744920292591533 0.00007263911436019175 0.0000751835533292474 0.00007449193376233858 0.00007263930081332033 0.0000751832078867581
          0.00007449101599004306 0.00007263893465214767 0.00007518180251037328 0.000060585282562171927 0.00006058356494301698 0.00006057815400320825
          0.00007035536370172636 0.00007112599068555694 0.0000691630066164824 0.0000703544506839826 0.00007112468326267698 0.00006916130400865635
          0.00007035157651153564 0.00007112070058293139 0.00006915589499515711 0.00007773762281483835 0.00007598596031506815 0.0000734467917769932
          0.00007773673490170091 0.00007598553157379041 0.00007344684824441503 0.00007773393383445522 0.00007598452316795503 0.00007344653441697549
          0.00005381616507656046 0.00005243898237124641 0.00005368878395716682 0.000053814929323499296 0.00005243674331901445 0.00005368758035432022
          0.000053811249605407094 0.00005243001735542121 0.00005368417034903603 0.000052507953256876223 0.000052296185151711334 0.00005250614232675127
          0.00005229438894435572 0.00005250041217157531 0.00005228902951872361 0.00007853547863077386 0.00008143012542112833 0.00007853405383915757
          0.00008142858998555991 0.00007852988479339624 0.0000814242879270709 0.00004430600367692766 0.00004430136111320925 0.000044287910668296026
          0.00008286524651527298 0.00008499753394788188 0.00008286358723284759 0.0000849947586139369 0.00008285815156095477 0.00008498864768937561
          0.00006671837798252392 0.00006756914884773877 0.0000667183054957442 0.00006757006884938536 0.00006671790442893424 0.00006757192582735648
          0.00006613890732714534 0.00006614072316519613 0.00006614485386492857 0.000059620898541049876 0.00006153857164572275 0.00006136253318592275
          0.00005936513463753214 0.000059622508799672315 0.00006154007687542806 0.00006136365127881015 0.00005936627568905533 0.000059627460122358505
          0.00006154537176439933 0.00006136761552800617 0.000059370431600429227 0.00009241776253119115 0.00009241657990962465 0.00009241309614918079
          0.0000935494731861851 0.00009094901408998984 0.00009354810545700974 0.0000909471444829037 0.00009354401008674956 0.00009094142367395826
          0.000051446606620064736 0.00005256248402849866 0.00005144430443647054 0.0000525608526060059 0.0000514359201238406 0.000052554535026666836
          0.00007772923794748203 0.00007772818997141971 0.00007772478567585747 0.00007799139660361016 0.00007760582898031095 0.00007799066780306837
          0.00007760477286650811 0.00007798816624868042 0.00007760123857373381 0.00007400114168844945 0.0000757567977041022 0.00007589985449758325
          0.00007344381016101866 0.00007400053258830409 0.00007575588009301349 0.00007589850555169603 0.00007344245884033719 0.00007399848425639348
          0.00007575250928781983 0.00007589450993492679 0.00007343849348588301 0.0000801652534403062 0.00007996855021167035 0.0000801631402014601
          0.00007996700909142905 0.00008015534715984415 0.0000799602351138695 0.00008647370630588209 0.0000868929226702106 0.00008837025156262042
          0.00008751125126511896 0.00008647004300743529 0.00008688879568943211 0.00008836652471910183 0.00008750733290871984 0.00008645613396974818
          0.0000868754827161618 0.00008835651547548461 0.00008749450467409433 0.00006245908690727847 0.0000624580064339829 0.0000624544050927779
          0.000057194063264711004 0.000058977248521954746 0.00005719440077539085 0.00005897822851747037 0.00005719550897292922 0.00005898083240790256
          0.00007095299506215592 0.00007063282845770711 0.00007095138346999956 0.00007063045500881294 0.00007094631460488944 0.00007062322552596045
          0.00006843683078627636 0.00006843444358762841 0.0000684268479658738 0.00006361293583504849 0.00006141497103590624 0.00006361250598483499
          0.00006141451301097389 0.00006361092081525703 0.00006141238117795637 0.00005708656421105059 0.00005981851487386015 0.00005708583080950553
          0.000059818242496380786 0.00005708285688535956 0.00005981622698461915 0.0000649453204370775 0.00006400484643878776 0.00006494423394419318
          0.00006400305774924602 0.0000649409431360777 0.00006399724584390776 0.00006836988520934472 0.00006836762632870096 0.0000683606643861943
          0.00006380906528987776 0.00006559063941014052 0.00006381052623110512 0.0000655926215983706 0.00006381475960278467 0.00006559796097514212
          0.00006602572754993099 0.00006641507673035508 0.00006602310231285302 0.0000664132736796923 0.00006601431647655473 0.00006640765737466077
          0.000053741344981760294 0.000055481856851506136 0.0000552246548502846 0.00005373985532789501 0.00005548139642790204 0.00005522346430414902
          0.0000537358566233441 0.00005547891923813791 0.00005521923172664768 0.000052076400590864416 0.000052074608204941146 0.00005206834288943125
          0.00006107730272393286 0.00006350570833077553 0.00006107886777619223 0.00006350769493429742 0.00006108209954562083 0.00006351236183907511
          0.00006903329455626632 0.00006990647314500479 0.00006903299379602269 0.00006990691673108502 0.00006903212510221687 0.00006990741412892676
          0.00008971287961126958 0.00008756861693860404 0.00008970962327781985 0.0000875651204928859 0.00008970027625347875 0.00008755370749865983
          0.00005462523394743082 0.00005597905361440966 0.00005462449669932039 0.000055978874008210374 0.00005462129463315805 0.00005597762990206664
          0.000048051431004299414 0.000050654971006787264 0.000050420492432100286 0.00004804936139753015 0.000050652475864626724 0.000050418675118708344
          0.00004804352888274514 0.000050643619137093654 0.00005041236582072166 0.000047700643985190736 0.00004769708318486747 0.000047685674686326686
          0.00006593371607639556 0.00006593639508804907 0.00006594384267229268 0.000049195597232614355 0.000049194924612985484 0.0000491929118029999
          0.00004973426961420762 0.000049731243574632064 0.00004972171820630989 0.00006590357380215349 0.0000659032692484029 0.0000659013271730205
          0.000054223294560697346 0.000054222168760878675 0.000054218006835811554 0.00004647913925507388 0.00004647387547798556 0.00004645663903181087
          0.000052351527086933426 0.00005235024377897285 0.00005234497225399868 0.000050132016897533395 0.00004943553947631305 0.00005012817160564585
          0.00004943011102668657 0.00005011929542656462 0.000049413817227382896 0.000052300275973294236 0.0000521274970518117 0.00005229806358099945
          0.000052125281000117265 0.00005229066671219377 0.000052118726550817615 0.000047058696773072605 0.00004705179687480855 0.00004702729064893088
          0.00005426374771174009 0.00005418130501600831 0.00005426225863712122 0.00005418018823070948 0.00005425678754821777 0.0000541758961940439
          0.00009196810032991301 0.00009436364848801073 0.00009196573414740224 0.0000943624272662315 0.00009195862563635493 0.00009435884175965336
          0.00008743671269569222 0.00008743365696324428 0.00008742411979875811 0.00004775107233960979 0.00004774690318732144 0.000047731464695758043
          0.00008522362381303681 0.00008321250780459127 0.00008522056275912318 0.0000832104285297422 0.00008521162572486473 0.00008320428288199796
          0.00005985902513818768 0.00006180655303648679 0.00005986091785007142 0.00006180850064834472 0.00005986622708056178 0.00006181422823987114
          0.00005384383671519019 0.00005384294701808064 0.00005383887981181139 0.00005141028847659767 0.00005140926801772548 0.00005140531698781243
          0.00006804990430312763 0.00006804824217716277 0.00006804238428184472 0.000057777744325910625 0.000057977409925655145 0.000057778770982368674
          0.0000579787378865718 0.00005778162104627451 0.000057982270036021296 0.00007230871030586964 0.00007230879189921252 0.00007230849144666564
          0.00007509319862886628 0.00007418813100047388 0.00007185304336114018 0.0000727816123658836 0.00007509219789633512 0.00007418763321786776
          0.000071852948168202 0.00007278108925877192 0.00007508904571316592 0.0000741855526359294 0.00007185324510716292 0.00007277978247406596
          0.00006361114986377896 0.0000655807109296544 0.00006361314078126824 0.00006558308037987467 0.00006361792141125868 0.00006559011853035869
          0.00008056496189138872 0.00008056316652858794 0.00008055657735616957 0.00007105736633057656 0.00007339129698683044 0.00007105792207109364
          0.0000733913780901367 0.0000710588874638295 0.00007339060814105238 0.0000746564259364976 0.00007674729308162334 0.0000746565616129256
          0.0000767470441288335 0.0000746560409629732 0.00007674655067427101 0.00006721354545060816 0.0000672125126638898 0.00006720822121901215
          0.00006817398757979533 0.0000681734892797254 0.00006817051227516668 0.0000800025398926909 0.00008000066525036319 0.00007999466257556416
          0.00005601738265669971 0.000056127819539193514 0.00005601735479575434 0.00005612799937031901 0.000056016335356586786 0.0000561282886466949
          0.00007814444024810403 0.00007814387681254632 0.00007814147433853886 0.00008314665580748368 0.00008421769151427433 0.00008072090016895053
          0.0000831440623839629 0.00008421562081529097 0.00008071942053111836 0.00008313680322161015 0.00008420903373407483 0.00008071497893206997
          0.00007812877681581286 0.00007812829057262738 0.00007812592402129824 0.00006596858762668356 0.00006818273812238126 0.00006726837552580291
          0.00006597094354976368 0.00006818456377393019 0.00006727078119939487 0.00006597785334540418 0.00006819039509874438 0.00006727815293429111
          0.00007736437338042429 0.00007736342918509806 0.00007735936875932341 0.00007135754008839283 0.0000713576903933185 0.00007135691668898371
          0.0000898343867211457 0.00008983136387331355 0.00008982208582106288 0.00006384028416106227 0.00006384281640363265 0.00006384886212646922
          0.00006964360970663828 0.00007046347726735176 0.0000696451332443286 0.00007046469834679914 0.00006964825544855732 0.00007046654521299163
          0.00008164595155089042 0.00008164349668052957 0.00008163563020600035 0.00005596474667998868 0.00005759259712883117 0.00005596465772241909
          0.000057593724190949385 0.00005596296281903611 0.00005759596145665044 0.00006884683027730147 0.00006742142971715836 0.00006884881318773772
          0.00006742413034419561 0.00006885221486619372 0.00006743140078890562 0.00007952671666250073 0.00008023270003263887 0.00007952526522516778
          0.00008023090273237554 0.0000795202477346958 0.00008022481571763668 0.00008703306601217434 0.00008475411327170465 0.0000870306369688578
          0.0000847514150293584 0.00008702366500894142 0.0000847433355488913 0.00008101797430754639 0.00008173028562361732 0.0000837915468883019
          0.00008101650763433848 0.00008172824871944184 0.00008378902633738261 0.00008101085187380851 0.000081722030733384 0.00008378095578312796
          0.00008250097052602253 0.00008249859864021017 0.00008249076770489165 0.00008572301173205754 0.0000857197192691632 0.00008570954251489499
          0.00007957989926838028 0.00007957879326062632 0.00007957403883811779 0.00008943244623575174 0.0000894298062506639 0.00008942149463990434
          0.0000891678373558945 0.0000906825834869708 0.00009005461360476318 0.00008916471116381073 0.00009067922942274934 0.00009005141872225596
          0.0000891551152827839 0.00009066935040358189 0.00009004224899960738 0.0000875067145557772 0.00008750328040192419 0.00008749257030605231
          0.00008470193235282301 0.00008469933642322329 0.00008469018354196775 0.0000860953741707713 0.00008830167084923995 0.00008609333569807184
          0.00008830022239945801 0.00008608704508435353 0.00008829597604183157 0.00009204849700277246 0.00009204570718465673 0.00009203714873990706
          0.00008957057515194011 0.00008956733339517108 0.00008955837178908948 0.00009404080084857325 0.00009403676171987407 0.00009402338874831772
          0.00009327081933447716 0.00009326660030603912 0.00009325506986154655 0.00009431166098156027 0.00009430573270547819 0.00009428467576262101
          0.00009509982745972558 0.00009509863455332565 0.00009509585310708153 0.00009736218842520545 0.00009736867745670555 0.00009736198493341784
          0.00009736899647365147 0.0000973613627241796 0.00009736982551094412 0.00009943063846868341 0.00009943689431734616 0.00009943069761986124
          0.00009943673899734577 0.00009943091164365087 0.00009943623321169304 0.00010144928917034314 0.00010143911552631562 0.00010144932016477564
          0.00010143920012686701 0.0001014493958186662 0.00010143948349655462 0.00009721168467889736 0.00009721069636589184 0.00009720767050633323
          0.00009943757606247058 0.00009943734319276246 0.0000994366023299974 0.0001014859204736502 0.00010148602572924709 0.00010148639380233216
          0.00009680308341806884 0.0000968019620423429 0.00009679860753682322 0.00009941543615933392 0.00009941453002084418 0.00009941189334704167
          0.00010156200836147266 0.0001015619998451432 0.0001015619343408174 0.00009612400528234425 0.00009612300298908665 0.00009611995153547093
          0.00009920568246961893 0.00009920445289894976 0.00009920072035572715 0.00010167532484376108 0.00010167473311537021 0.00010167293145105912
          0.0000987232737211798 0.00009872208048907902 0.00009871847103738035 0.00010166996794667113 0.00010166890023244442 0.00010166567933806299
          0.00009793437984314572 0.00009793339296033316 0.00009793042584454178 0.00010141863869378666 0.00010141757323397592 0.00010141435626224749
          0.00009685232216209301 0.00009685165851333805 0.0000968496790130089 0.00010088302549882693 0.00010088216011714235 0.00010087953719245284
          0.00009552132116259647 0.00009552103617482332 0.00009552017173955212 0.00010007156008760341 0.00010007097062463031 0.00010006913040336541
          0.00009400990742715033 0.00009401034257663654 0.00009401171030099168 0.0000990221451300183 0.00009902225190046089 0.00009902253412240478
          0.00010335483761389076 0.00010332221448579627 0.00010335479758132104 0.00010332217156327673 0.00010335467279000074 0.00010332201577404996
          0.00010342920223882164 0.0001034291333923328 0.00010342889748829886 0.00010355725006144654 0.00010355728275118198 0.00010355735339242658
          0.00010375726618142071 0.0001037572159073402 0.00010375710625536177 0.00010404714808791659 0.00010404659098353263 0.00010404488036631557
          0.00008203338295983866 0.00007900857955009807 0.00008203255542097034 0.00007900757656736355 0.00008202980445002035 0.00007900449520832914
          0.00009103187766353088 0.00008816362297100973 0.00008957441577441665 0.0000910309896049205 0.00008816265633781167 0.00008957314761773159
          0.00009102821820050242 0.00008815974625323584 0.0000895692349176326 0.00007301092912614835 0.00007300925788374864 0.00007300414318584532
          0.00007591696320457248 0.00007591521979152934 0.00007590968086230616 0.00008597686610672909 0.00008597591859046466 0.000085973178924232
          0.00009514521855547152 0.00009514438491909987 0.00009514190538244615 0.00009389461285309642 0.00009389400750902814 0.00009389216284497362
          0.00009241587519593157 0.00009241549936555385 0.0000924143062642827 0.00009078300067341231 0.00009078290311673209 0.00009078254048106329
          0.00008908867168393379 0.0000890887762236428 0.00008908900523977614 0.00010523714954516412 0.00010518574885630043 0.00010523709845943819
          0.00010518569986436414 0.00010523694601838283 0.00010518556315206628 0.00010534441756906524 0.00010534436474449525 0.0001053442144798646
          0.00010551894788670956 0.00010551882776953413 0.0001055184728084493 0.00010577938846318831 0.0001057793356128929 0.0001057791605065646
          0.00010615636523585097 0.00010615625554787567 0.00010615597174689961 0.00010429390134610255 0.00010429278617982167 0.00010428941907202009
          0.00010669418040808596 0.000106693499392821 0.00010669144222692482 0.00010437451190532488 0.00010437326759313485 0.00010436955623541309
          0.00010426135759106137 0.00010426015424325832 0.0001042565587005994 0.00010399661718519564 0.0001039953875044813 0.0001039917117530749
        </DataArray>
        <DataArray type="Float64" Name="disp_y" format="ascii" RangeMin="-0.000012004435767327945" RangeMax="0">
          -0.000002889731353251224 -0.0000035582697482398855 -0.000003046557769498225 -0.0000022235662470735083 -0.000002887887144338329 -0.000003556297028411742
          -0.0000030457737456150447 -0.0000022221545062832216 -0.0000028816420432355283 -0.00000354920442756476 -0.000003041961839778026 -0.0000022185119974832474
          -0.0000032465942809745783 -0.0000028177851020017588 -0.00000209549478565952 -0.0000024077020549822002 -0.0000032474248581590827 -0.000002818341077610449
          -0.000002095904052161138 -0.0000024083588076429567 -0.000003249968619328032 -0.0000028201129459081936 -0.000002097495706809917 -0.0000024105930761998605
          -0.000001917943141750384 -0.0000015858797513522576 -0.0000010741297184975559 -7.496216623229572e-7 -0.0000019179821567845534 -0.000001585902184566863
          -0.0000010743362826179477 -7.486031069515005e-7 -0.0000019186373825247717 -0.0000015855391900319786 -0.0000010749239029846038 -7.453908951005203e-7
          -0.000007414166769472299 -0.000006546148905950085 -0.000007286772799022634 -0.000008214706953719375 -0.00000741157300422176 -0.000006543680710941101
          -0.000007284889184189375 -0.000008212748212585749 -0.0000074032442604308956 -0.000006536049173692595 -0.000007279002894051364 -0.00000820724371624921
          -9.105168171727033e-7 -0.0000018596210780510329 -0.000001838237257211739 -8.98452203414451e-7 -9.105881170963807e-7 -0.0000018599326316115502
          -0.0000018385228365419305 -8.986430168224035e-7 -9.108595923655867e-7 -0.0000018606150234437807 -0.0000018397152513097958 -8.988023058873223e-7
          -0.0000029851464707150544 -0.000003379912403852853 -0.000004459717933327926 -0.000003808734698716829 -0.0000029835713873916703 -0.0000033787486569832602
          -0.000004458096916727691 -0.0000038066523650004542 -0.000002978363138275819 -0.0000033752611100223814 -0.000004453205123952242 -0.0000038006617977259785
          -0.0000036140945730741996 -0.000004540766558485821 -0.000004082136614426596 -0.000003614940328643705 -0.000004541806784604539 -0.000004082945361879606
          -0.000003617815326786722 -0.000004545086855114289 -0.000004085209645585599 -0.000003832399491617996 -0.0000047665020768193895 -0.000003831712680493007
          -0.000004765507659820221 -0.000003829875680716301 -0.000004762253696506258 -0.000004038597608839173 -0.0000036923845155993714 -0.0000027009515132428416
          -0.000002516658599584659 -0.000004039432067313257 -0.0000036927549836381698 -0.0000027017192314877088 -0.0000025172619160684254 -0.000004041942546325541
          -0.0000036932352744703344 -0.0000027041780416557193 -0.0000025190188912802573 -0.0000058121292193039375 -0.000006443543144344798 -0.000005810260885190276
          -0.000006442130661735558 -0.000005804614914370214 -0.000006437402075681948 -0.00000436137511398809 -0.000005234892959960678 -0.00000436126750385884
          -0.000005234377208434387 -0.000004360952142107852 -0.000005232847751142236 -0.0000011230549837259894 -5.338037336852354e-7 -4.969240397580676e-7
          -0.0000011232199672026389 -5.33958876106145e-7 -4.970880594317473e-7 -0.000001123740422904436 -5.345970421787651e-7 -4.9863765568924e-7
          -0.0000034067672228444178 -0.000002640575980827145 -0.0000034045462034786297 -0.0000026387003457541424 -0.0000033978330261441113 -0.00000263322652955368
          -0.000008490089415110895 -0.000008238198556102181 -0.000007232924801333701 -0.000007470359460983688 -0.000008491404516034813 -0.000008239234115918856
          -0.000007234228243518426 -0.000007471889522827719 -0.000008495283296085647 -0.000008242449855872973 -0.000007238090973116455 -0.000007476466273627774
          -0.000003896447015102986 -0.0000026639670642977247 -0.0000028457035648588435 -0.000003897463635065277 -0.0000026648010522283515 -0.0000028464453647603626
          -0.000003900573044020663 -0.0000026671155523694473 -0.000002848410030479524 -0.000008280935338961863 -0.000008279246042566546 -0.000008274404917226389
          -0.00000774677158557941 -0.00000944079015287395 -0.000008568888259939955 -0.0000077474306363204 -0.00000944149029691919 -0.000008569328521321214
          -0.000007749636006027683 -0.000009443409768743382 -0.000008570458047829644 -0.000004069690934200424 -0.000005287604554209082 -0.000004936337153378382
          -0.00000407054762328135 -0.000005288748248707562 -0.000004937544481731132 -0.0000040733313329702095 -0.00000529222873699966 -0.000004941328810240957
          -0.000004236768666854954 -0.000003869310658432316 -0.0000031327603034667537 -0.000004234299575516127 -0.0000038668651694866886 -0.0000031306134896288197
          -0.000004226493495235478 -0.000003859454631069766 -0.0000031247772752329027 -0.0000024635351257531114 -0.0000017420264464473304 -0.0000024619269454477902
          -0.0000017410906589638214 -0.0000024576193631083004 -0.0000017380618174659475 -0.000009306883125298659 -0.000008068648710846897 -0.00000930842191275569
          -0.00000806990777069604 -0.000009312992651539258 -0.00000807376740945478 -0.000003900092533563239 -0.000003901155012626297 -0.000003903771844842031
          -0.000001737320959900378 -0.000001517049320708332 -0.000001738042010980184 -0.0000015173574042539465 -0.0000017409047497950189 -0.0000015194056733729625
          -0.000005760307012702053 -0.000004917661658901738 -0.000005760399057635271 -0.000004918097166974688 -0.000005760657037092811 -0.0000049195854860866984
          -0.0000035522371604022587 -0.0000035526585307707687 -0.0000035537856498902635 -7.116608503364404e-7 -7.736789215566221e-7 -0.0000015902053223678724
          -0.0000014374289253759632 -7.112985657883049e-7 -7.734911908469118e-7 -0.000001589801909618849 -0.0000014365810964669733 -7.101464990032716e-7
          -7.728835295660568e-7 -0.0000015884556865790126 -0.0000014341306118333368 -0.000004032330807437544 -0.0000040314400067670905 -0.000004028732216514089
          -0.0000027767088025673994 -0.000003777791387416963 -0.0000027757376643775956 -0.000003776853106407409 -0.0000027728206964561023 -0.000003773989371469695
          -0.000003440889520056842 -0.0000029977373960317115 -0.000003438552888105866 -0.0000029957337596586474 -0.000003431753160778324 -0.000002989651681947016
          -0.0000028606195844313724 -0.0000028611155175251637 -0.000002862596596596744 -0.000007331409558669691 -0.000008524270485940663 -0.000007333160100830588
          -0.00000852580627732272 -0.000007339119010392121 -0.00000853044744905646 -0.000009560118480134778 -0.000009505622830575811 -0.000010180220155373767
          -0.000010637139039472933 -0.00000956107275586585 -0.000009506708566685679 -0.000010181573902620542 -0.000010638128350132718 -0.000009563867299735026
          -0.000009509965742303706 -0.000010185940478456668 -0.000010641251542520649 -0.000002759714349465383 -0.000003467314554496043 -0.0000027602032270743553
          -0.0000034678475382202632 -0.0000027611488937773115 -0.000003470573461631703 -0.0000012589117453691743 -6.90555336339678e-7 -6.73899271459484e-7
          -0.0000015817751950110353 -0.0000012589570736961268 -6.901775731545484e-7 -6.738053858181346e-7 -0.0000015822138615268706 -0.000001260087747147832
          -6.875022516435672e-7 -6.737513681477123e-7 -0.0000015832460948721242 -0.000007034491726875292 -0.000007033374845442926 -0.000007029896868514939
          -0.0000019622596904638796 -0.000002189926960427256 -0.000001960958275992345 -0.0000021888243507182273 -0.0000019567803052232856 -0.0000021851936103920278
          -0.000010816780889231071 -0.000012002888138462947 -0.000010817159467730836 -0.000012003277278867542 -0.000010818339931868363 -0.000012004435767327945
          -0.000010935788278909915 -0.000010935766076541812 -0.00001093556727259335 -0.000006113912772549457 -0.000005631113122049285 -0.0000061132708251313044
          -0.000005630001691296184 -0.000006111282433308839 -0.000005626826489997418 -0.000005178498751433225 -0.000005335277731266202 -0.000005176279470327029
          -0.000005333821872268901 -0.000005169242932463392 -0.00000532917571385859 -0.000007546495640205702 -0.00000857787821991861 -0.0000075457806630435905
          -0.000008576687984236787 -0.000007543928728984678 -0.000008572880579901233 -0.000009824915129545994 -0.000009825102917747251 -0.000009826053134534216
          -0.000002783715321100677 -0.000002442353351064948 -0.000002783426028599541 -0.0000024423968067551915 -0.000002782661915731397 -0.00000244231157649848
          -0.00000983667060873843 -0.000008868233801889404 -0.000009836264095336293 -0.000008867875972592588 -0.000009835109607388774 -0.000008866996348702969
          -0.000005510468160185138 -0.0000046390393286034994 -0.000005938412056337595 -0.000005507553169277827 -0.000004636429461057578 -0.000005935817139196495
          -0.0000054985167478215625 -0.000004628638963281391 -0.000005927551865225687 -0.00000517069446933957 -0.000005167880178444634 -0.000005158967013092508
          -0.0000024691974204827554 -0.0000016852798107245427 -0.00000246837465115539 -0.0000016850852039336893 -0.000002465931126502664 -0.0000016845371840642192
          -0.000006301646113771251 -0.000005425883987855258 -0.000006302199278765257 -0.000005426764544320735 -0.000006304173413165177 -0.000005429610248682151
          -0.000001957735518704861 -0.0000026762874339301643 -0.0000019577635007392402 -0.000002676554487379808 -0.0000019576052473795455 -0.0000026770645616263057
          -0.0000022513384411702747 -0.0000018118845973706583 -0.0000022499030460034077 -0.0000018105493781214398 -0.000002245763062967772 -0.0000018063714904708484
          -0.000006056376057972041 -0.000004747019416333054 -0.000006301633385292449 -0.00000605469073897674 -0.0000047444229403618 -0.000006299151852420872
          -0.0000060496585750773435 -0.000004736261684608745 -0.000006290946720077584 -0.0000048928476976754144 -0.000004891358420388249 -0.000004885960096028422
          -0.0000016719352940756461 -0.0000016720470602702957 -0.000001671952505192007 -0.000007545051720141811 -0.000007542907285127793 -0.000007536489015205512
          -0.000004142805295264614 -0.000004140353871847861 -0.000004132736466086354 -0.000006632402921445035 -0.000006632230928209924 -0.000006631388209816214
          -0.0000014508407576666722 -0.0000014496608493534355 -0.0000014461559254387524 -0.0000041678185074818225 -0.000004166889975095041 -0.000004163006572115408
          -0.000006463031370072518 -0.000006460137692512913 -0.000006451021687591932 0 -0.000001328909238928777 0
          -0.0000013279009858505914 0 -0.000001325259847493141 0 -8.975918736305371e-7 0
          -8.970166371768014e-7 0 -8.956128211477802e-7 -0.000002541177375563598 -0.0000025407674041557992 -0.000002541657788818933
          0 -7.303310303867112e-7 0 -7.295899694187967e-7 0 -7.263606239595432e-7
          -0.000002656087568895248 -0.000001698644205093425 -0.0000026553653428080185 -0.0000016976431314658018 -0.000002652968389068305 -0.0000016947282874359588
          -0.0000034121828909201743 -0.0000034128632728308154 -0.0000034152849466826403 -0.000004193687460131874 -0.000004192295854094258 -0.000004187304961406665
          -7.418827915857226e-7 -8.367754706891978e-7 -7.41758641539685e-7 -8.369093504789506e-7 -7.398561039568558e-7 -8.370689401757182e-7
          0 0 0 0 0 0
          -0.0000065632332415183375 -0.000006560310839227029 -0.0000065510849816882 -0.000007499717377187601 -0.000007497176348608025 -0.000007489232434740472
          -0.00000909363037844693 -0.000009093740591502689 -0.000009094297607783665 -6.649174291486158e-7 0 -6.643848501693724e-7
          0 -6.629258615084468e-7 0 -0.000005889602775310071 -0.000005890852173478327 -0.000005894548983086908
          0 -8.54689146122415e-7 -7.85155708318451e-7 0 0 -8.548956000235817e-7
          -7.853824433448586e-7 0 0 -8.555794567062529e-7 -7.864859177930498e-7 0
          -8.112761382384744e-7 -7.819761315506442e-7 -8.112407215737648e-7 -7.819070028868495e-7 -8.11723506839551e-7 -7.824017315953473e-7
          -0.0000018207193435215529 -0.0000018209466973118569 -0.0000018218780250997073 -0.0000015894627469596264 -0.000001741878861086712 -0.0000015900486997982955
          -0.000001742432017627973 -0.0000015915758315413754 -0.0000017439286704246337 -0.000006272050632167608 -0.000006539150720143853 -0.000006273280477737682
          -0.000006540509230015567 -0.000006277301861948613 -0.000006544451137344577 -0.00000802309432625942 -0.000008022982692186075 -0.000008022872520327734
          -0.000007175931165746899 -0.000007176171163420909 -0.000007176905129694576 -0.000004676383779292407 -0.000004677023835357848 -0.000004678721739922353
          -6.664555369348129e-7 0 -6.658069349872842e-7 0 -6.635220862499613e-7 0
          -0.000005637677201056889 -0.000005638693042007399 -0.0000056420565417356205 -0.0000063756702473835695 -0.000006636461325347508 -0.0000074467133940578865
          -0.000006376656058984082 -0.000006637119031949471 -0.000007448185279294477 -0.000006379517516575722 -0.000006638891396287318 -0.000007453189509632115
          -0.000006659498561606229 -0.000006660874597484704 -0.000006664908783757515 0 0 -6.836047589241287e-7
          0 0 -6.839085154805688e-7 0 0 -6.843050283458914e-7
          0 0 0 -0.000006821097279068716 -0.00000682211727287606 -0.0000068254957585502785
          -0.0000027444940500911598 -0.0000027444777266055697 -0.000002744503863602101 0 0 0
          -7.137027652983403e-7 0 -7.137449814398328e-7 0 -7.144222161024312e-7 0
          -0.000005194491898628194 -0.000005195349909416391 -0.000005198177772156801 -0.0000013244155093413765 -0.0000013253257874745363 -0.000001323270143203146
          -0.0000013244093376244459 -0.0000013199243753329264 -0.0000013213868999153963 -0.0000014008334524240027 -0.0000012334255508333327 -0.0000014011719182780132
          -0.000001233885612844447 -0.0000014020361964315037 -0.000001234817082791197 -0.000006096055761721179 -0.000006725653822994034 -0.000006097107664932966
          -0.000006727016380931154 -0.0000061003096981797 -0.000006731382043156028 -0.000004376483680537279 -0.000005019801244503698 -0.000004377300688845015
          -0.000005020630036952475 -0.000004379884432571611 -0.0000050234445639637406 -8.89782750279288e-7 0 0
          -8.899492173214032e-7 0 0 -8.907314792683049e-7 0 0
          -0.000005830701796863181 -0.000005831534580438116 -0.000005834044431722447 0 0 0
          0 0 0 -0.0000036252910259827964 -0.000003625196424189122 -0.0000036249687860891804
          0 0 -5.635215347657868e-7 0 0 -5.637368102131379e-7
          0 0 -5.631159028134132e-7 0 0 0
          -0.00000561445806530354 -0.000005615002727116838 -0.0000056166536385477725 -0.000005399343284602996 -0.00000478183346436256 -0.000005399716313585446
          -0.00000478175195778635 -0.000005401109060476044 -0.0000047815912269829684 0 0 0
          -0.000001032222166752424 -0.0000010322294771041801 -0.0000010339881319218048 -3.633806677349864e-7 -3.628753783883038e-7 -3.6028998942182846e-7
          0 0 0 0 0 0
          0 0 0 -4.785199899831661e-7 0 -4.781752339471602e-7
          0 -4.772055716066948e-7 0 -3.8203497556044897e-7 0 -3.8207384504714326e-7
          0 -3.821956410407607e-7 0 -3.341966718779075e-7 0 -3.341256824574037e-7
          0 -3.339256706339404e-7 0 -0.0000010226291453434546 -0.0000010216133896471678 -0.000001018462176248135
          -7.690516452974889e-7 -7.687963911149958e-7 -7.681080176838649e-7 -6.721354959438535e-7 -6.721883785071144e-7 -6.722817700469618e-7
          -0.000001751026356298433 -0.0000017499354593916633 -0.0000017466792756945933 -0.0000012104017011360394 -0.0000012096135883104691 -0.0000012071415794886097
          -0.0000010117361020463396 -0.0000010115538032096273 -0.000001011175642611153 -0.0000026795939816204176 -0.000002678480060954433 -0.000002675137642170272
          -0.0000018031965592549343 -0.0000018020088939881127 -0.0000017984654191339818 -0.000001382474441164171 -0.0000013818081655954317 -0.0000013797132094282006
          -0.000002612771870386959 -0.000002611590455034224 -0.00000260803243256856 -0.0000018790196972806092 -0.0000018778222259695665 -0.000001874230035892334
          -0.0000036646494102156956 -0.000003663543695389968 -0.0000036602295026258885 -0.000002596773158145761 -0.0000025954253286839123 -0.0000025913624458835192
          -0.0000049586109815384285 -0.000004957689848350383 -0.000004954926247651072 -0.0000035849844537407483 -0.000003583747152427008 -0.0000035800779599559292
          -0.0000064768919746993905 -0.000006476107743510794 -0.00000647376864327221 -0.000004882097113429904 -0.000004880681526988396 -0.000004876445617793092
          -0.000008169219078284764 -0.00000816842906403571 -0.000008166085471000785 -0.000006488951594605788 -0.000006487053666987538 -0.000006481422953280459
          -3.173729134452908e-7 0 -3.1735833243973304e-7 0 -3.1731413388352597e-7 0
          -6.356415922373499e-7 -6.355449403448713e-7 -6.352686711725413e-7 -9.553494081525213e-7 -9.553381233137286e-7 -9.552574654389797e-7
          -0.0000012731121461416776 -0.0000012730020454208357 -0.0000012727496038474287 -0.0000016040090241923944 -0.0000016033494714403432 -0.000001601369167387553
          -0.00000856310046068015 -0.000009952969515346905 -0.000008564045439409972 -0.000009954262721982488 -0.000008567050907520049 -0.000009958509830604466
          -0.000005454414214567489 -0.000006510827212816133 -0.000005130874042850828 -0.000005453679999887624 -0.000006510425082762613 -0.00000513024536155499
          -0.000005451530951673121 -0.0000065091440461623245 -0.000005128445848584558 -0.00001173025691419926 -0.000011730871810665593 -0.000011733021286247363
          -0.00001125026012528162 -0.000011251363969414667 -0.000011254534059005559 -0.0000065730403578014145 -0.000006573033898476177 -0.000006572987881713017
          -0.000003823862506510688 -0.0000038229063402363035 -0.000003820034613663747 -0.000005172541682581833 -0.000005171774372534323 -0.000005169483013510435
          -0.000006693880573963218 -0.000006693321220665873 -0.000006691676495327841 -0.000008343551024679184 -0.00000834322576143805 -0.0000083422983047698
          -0.000010066447671656474 -0.000010066251625649372 -0.000010065776106442343 -3.2787562519147334e-7 0 -3.2784977568134144e-7
          0 -3.2777106076880915e-7 0 -6.564398708080616e-7 -6.564117170142948e-7 -6.563242043662386e-7
          -9.854517248713412e-7 -9.853554256685507e-7 -9.85069928918832e-7 -0.0000013140869727751453 -0.0000013140413524527956 -0.0000013138788093760849
          -0.0000016398493767796872 -0.0000016397624493400814 -0.000001639556827386658 -0.0000020474819592720206 -0.0000020461849081312366 -0.000002042222593592759
          -0.0000019720886045274537 -0.0000019714289672689554 -0.000001969432589684738 -0.0000027222902271934212 -0.0000027209382961051554 -0.0000027168988157947602
          -0.000003726328457216689 -0.000003724596693689694 -0.000003719404201658454 -0.000005120446722127587 -0.000005117957179262093 -0.00000511042354971676
        </DataArray>
        <DataArray type="Float64" Name="disp_z" format="ascii" RangeMin="-7.279244769444451e-7" RangeMax="0">
          0 0 0 0 -2.7136984876395395e-7 -2.9041905932158136e-7
          -2.960558352985381e-7 -2.6655388704823665e-7 -5.44064017580595e-7 -5.822095670792818e-7 -5.943010070679957e-7 -5.348389762937147e-7
          0 0 0 0 -2.953909632485392e-7 -2.882479440837336e-7
          -2.981834531936357e-7 -3.03402205557137e-7 -5.903784244449572e-7 -5.761348174862509e-7 -5.956385654278622e-7 -6.062493166496166e-7
          0 0 0 0 -1.3406025813293116e-7 -1.499472751224723e-7
          -1.321212155230447e-7 -8.232127978633251e-8 -2.682435553211283e-7 -3.0036271249728533e-7 -2.6417589958184925e-7 -1.6504085957529315e-7
          0 0 0 0 -3.34626360832615e-7 -3.105722616999917e-7
          -3.125989736747175e-7 -3.3560099500074187e-7 -6.685858245372211e-7 -6.211900532798077e-7 -6.254764471783663e-7 -6.708580563642888e-7
          0 0 0 0 -2.936174470245401e-7 -2.9522816862138824e-7
          -3.038593436825588e-7 -3.030380813038507e-7 -5.870975991279185e-7 -5.899767000457946e-7 -6.071986158371188e-7 -6.057346688292518e-7
          0 0 0 0 -2.561569983066124e-7 -2.6365758075227297e-7
          -2.7440249717573094e-7 -2.6752207974319086e-7 -5.126691439063656e-7 -5.275167902558525e-7 -5.489637406861342e-7 -5.354175651750853e-7
          0 0 0 -2.9790050469917944e-7 -2.894382954030897e-7 -2.878090358088524e-7
          -5.95470167101164e-7 -5.786849887709743e-7 -5.753688017450559e-7 0 0 -2.6851505519117786e-7
          -2.753575582033803e-7 -5.373553351534007e-7 -5.508814893861565e-7 0 0 0
          0 -2.3627352296975066e-7 -2.61168004534374e-7 -2.5755670435195256e-7 -2.3882502809001964e-7 -4.724272870838124e-7
          -5.221996821856386e-7 -5.151755734438248e-7 -4.772126849535149e-7 0 0 -2.914714079870535e-7
          -2.9232775376568425e-7 -5.830971815533605e-7 -5.849757851282239e-7 0 0 -2.7478290405812994e-7
          -2.7699782951172746e-7 -5.498999773391988e-7 -5.541999399146534e-7 0 0 0
          -1.639494778772117e-7 -1.5553312563182305e-7 -1.2870145137611077e-7 -3.2769806356261243e-7 -3.114260467435558e-7 -2.5650739015362363e-7
          0 0 -2.6080211173976373e-7 -2.4785193127979976e-7 -5.221709575591997e-7 -4.962493559318864e-7
          0 0 0 0 -2.4750746859556067e-7 -2.5507527036399137e-7
          -2.6387345548195214e-7 -2.578102710191762e-7 -4.950550769758882e-7 -5.103875215263929e-7 -5.278242596557729e-7 -5.155379022316264e-7
          0 0 0 -2.960650770923066e-7 -3.0398257484859405e-7 -3.0063242474573375e-7
          -5.918588196028235e-7 -6.077380361766937e-7 -6.008605639406399e-7 0 -3.0924525193832565e-7 -6.187245308767579e-7
          0 0 0 -2.640157017559873e-7 -2.508027990570059e-7 -2.6627166000330894e-7
          -5.283986030467712e-7 -5.020542748277035e-7 -5.326897282461852e-7 0 0 0
          -2.8771828461656037e-7 -2.8198663106329153e-7 -2.867835140592541e-7 -5.749564925961176e-7 -5.638249638285043e-7 -5.733628096869117e-7
          0 0 0 -2.7519070846223387e-7 -2.7217763548549455e-7 -2.582426808538019e-7
          -5.512452158265652e-7 -5.452740845085919e-7 -5.174892653354236e-7 0 0 -2.5554159191685506e-7
          -2.520633101454248e-7 -5.118232383982021e-7 -5.049265274734245e-7 0 0 -2.1297752702830577e-7
          -2.083336583390234e-7 -4.260034873337065e-7 -4.166065677273358e-7 0 -3.645293855083475e-7 -7.279244769444451e-7
          0 0 -2.6424785956989686e-7 -2.5474401655068156e-7 -5.283685077664769e-7 -5.083208549870115e-7
          0 0 -2.7754111041874226e-7 -2.8064917885217385e-7 -5.551963746015988e-7 -5.613030603324576e-7
          0 -2.807107423951487e-7 -5.61529050154958e-7 0 0 0
          0 -2.40975502743549e-7 -2.5419206337696385e-7 -2.557035992753283e-7 -2.436750398479719e-7 -4.823159541519292e-7
          -5.083685743396606e-7 -5.116253842602706e-7 -4.876705330211238e-7 0 -1.3911242060290841e-7 -2.781973816050152e-7
          0 0 -1.2043606567340832e-7 -1.4966007388194048e-7 -2.4087212036554107e-7 -2.9938894803537594e-7
          0 0 -2.744839503713271e-7 -2.6036876846774115e-7 -5.497220257318141e-7 -5.216680099952331e-7
          0 -2.9566440589624406e-7 -5.906060196031389e-7 0 0 -2.547320034767779e-7
          -2.3405263081859378e-7 -5.09069150711107e-7 -4.6800099173811314e-7 0 0 0
          0 -2.397741359095433e-7 -2.339153501865984e-7 -2.213271693485453e-7 -2.3216570705267471e-7 -4.795745695653022e-7
          -4.6781272107956956e-7 -4.4262364992828514e-7 -4.644472797450518e-7 0 0 -2.828824902735255e-7
          -2.809482561897734e-7 -5.655731798106378e-7 -5.614776691105502e-7 0 0 0
          0 -2.44812728051788e-7 -2.278504604482336e-7 -2.0194763869532256e-7 -2.1280039046682324e-7 -4.89944498932655e-7
          -4.5515683671454044e-7 -4.0389470905079554e-7 -4.2515972537894934e-7 0 -2.8913793083711553e-7 -5.785274442693635e-7
          0 0 -2.4077610219917134e-7 -2.4807400561277253e-7 -4.824365721558789e-7 -4.965296363134234e-7
          0 0 -2.455964746118788e-7 -2.4109717283594965e-7 -4.915431017704892e-7 -4.826201663908049e-7
          0 -2.6243408301256657e-7 -5.253836115789305e-7 0 0 -2.812356390631982e-7
          -2.831097931191341e-7 -5.62691366281731e-7 -5.664017713832999e-7 0 0 -2.87226531420822e-7
          -2.851237312830495e-7 -5.746213121957324e-7 -5.707579761567735e-7 0 0 -2.848106139642696e-7
          -2.9443500457563487e-7 -5.698933487974893e-7 -5.889376815507342e-7 0 -2.661684922059015e-7 -5.327602346219521e-7
          0 0 -2.6953216961372337e-7 -2.7965723271446204e-7 -5.392783007484212e-7 -5.593825246893424e-7
          0 0 -2.860076545578068e-7 -2.8110173494742693e-7 -5.72181511662948e-7 -5.621837708353133e-7
          0 0 0 -3.002397097279893e-7 -2.8073973210958816e-7 -3.0628803551722504e-7
          -6.01036084389617e-7 -5.617274950933927e-7 -6.126753737233094e-7 0 -2.9684033253738226e-7 -5.942964355842494e-7
          0 0 -2.57807142730104e-7 -2.6526138460916823e-7 -5.158754405363269e-7 -5.309609484841525e-7
          0 0 -2.751508818120375e-7 -2.8136507348560267e-7 -5.50517025589993e-7 -5.626281491048202e-7
          0 0 -1.7794482399897892e-7 -2.1261346024235293e-7 -3.560443441907355e-7 -4.254437385113706e-7
          0 0 -2.463062947267392e-7 -2.379337435781461e-7 -4.933230436328768e-7 -4.76405679787466e-7
          0 0 0 -3.26246830075564e-7 -2.9745211217447247e-7 -3.212363891852748e-7
          -6.519344418395894e-7 -5.9500714192699e-7 -6.421791566627339e-7 0 -3.1782236514002855e-7 -6.354577570463181e-7
          0 -2.8088878598975515e-7 -5.618976796972067e-7 0 -3.4145733896966433e-7 -6.821841813616619e-7
          0 -2.9537920729946836e-7 -5.9123016714726e-7 0 -2.7986480461255483e-7 -5.598241478572933e-7
          0 -2.417450841083197e-7 -4.838860871077269e-7 0 -3.3351008387670103e-7 -6.663589108467102e-7
          0 -3.190187444504418e-7 -6.38055002947182e-7 0 0 -2.622594258598023e-7
          -2.751308983119401e-7 -5.26069862063794e-7 -5.521429907413409e-7 0 0 -2.485973685246428e-7
          -2.4750586030303984e-7 -4.979393880751128e-7 -4.960632311905651e-7 0 -3.254585464958467e-7 -6.502627423465778e-7
          0 0 -2.2833768591997515e-7 -2.3518706493183444e-7 -4.5763279476818405e-7 -4.711184044428451e-7
          0 0 -1.3119229998162257e-7 -1.0194438906956426e-7 -2.628036849481363e-7 -2.0394937006913945e-7
          0 -2.0345120883445353e-7 -4.065292640914007e-7 0 -3.123271209112088e-7 -6.25511756106541e-7
          0 0 -2.526065232866298e-7 -2.677710644561654e-7 -5.044010065230327e-7 -5.351382582193089e-7
          0 0 -2.418228269989176e-7 -2.5579187857213754e-7 -4.840996797861091e-7 -5.117523980308127e-7
          0 -3.1746263360609104e-7 -6.347025740447126e-7 0 -3.401380201890183e-7 -6.798186000399273e-7
          0 -2.7265963872882105e-7 -5.455988892441939e-7 0 0 -2.3083635379024953e-7
          -2.3041767411822357e-7 -4.6252556957679134e-7 -4.614788477969977e-7 0 -2.781902174440712e-7 -5.563276726972633e-7
          0 0 0 0 -3.075662166335591e-7 -3.0922436755296997e-7
          -3.1094260814999735e-7 -3.1269091496451616e-7 -6.147583101646037e-7 -6.180604973270624e-7 -6.212803677060547e-7 -6.246606195210138e-7
          0 0 -2.6708408972648024e-7 -2.772917870426551e-7 -5.344999596548293e-7 -5.547504561618413e-7
          0 -2.8069676873153566e-7 -5.612863491647375e-7 0 0 -3.0731362797093226e-7
          -3.078400610027277e-7 -6.141298951012532e-7 -6.152227467831681e-7 0 0 -2.726428995452441e-7
          -2.6759654747410605e-7 -5.452414454857988e-7 -5.348739319312128e-7 0 -2.7756998543228513e-7 -5.551770999363467e-7
          0 -2.737537258828392e-7 -5.47536460391981e-7 0 -2.731279861814442e-7 -5.455656405615007e-7
          0 0 -2.2781110589380223e-7 -2.2484399024392115e-7 -4.566105597135768e-7 -4.510083536650099e-7
          0 -2.738016332830066e-7 -5.470216507371705e-7 0 0 0
          -2.210697999484504e-7 -1.981532991078781e-7 -2.282138411608636e-7 -4.4195362060885974e-7 -3.964811813221659e-7 -4.562623061525813e-7
          0 -2.6461935912990516e-7 -5.286084079058628e-7 0 0 0
          -2.846433993598745e-7 -3.0312013730642004e-7 -2.9468161931148306e-7 -5.692134756533492e-7 -6.060945207107629e-7 -5.886377080356701e-7
          0 -2.9915094330788367e-7 -5.980763541629886e-7 0 -2.6995431633580006e-7 -5.400308193263023e-7
          0 -1.6815588804397181e-7 -3.36161622509895e-7 0 -2.700055398954578e-7 -5.401542386731652e-7
          0 0 -3.0695886840713656e-7 -3.117440325134182e-7 -6.130401263112471e-7 -6.227767814168805e-7
          0 -2.5399720911942906e-7 -5.079251331786353e-7 0 0 -2.3344114094091507e-7
          -2.3435317258206052e-7 -4.6784375432270446e-7 -4.695261380333263e-7 0 0 -3.0398364983957726e-7
          -2.97499449838574e-7 -6.070647776828163e-7 -5.951248839932427e-7 0 0 -2.625934800214807e-7
          -2.4755945957196273e-7 -5.242990033010519e-7 -4.946239779162437e-7 0 0 -1.9483991681116598e-7
          -2.1488285952165453e-7 -3.8991360454530936e-7 -4.297434333099918e-7 0 0 0
          -2.8196975379448073e-7 -2.775537561840613e-7 -2.609418031061644e-7 -5.639104112742102e-7 -5.545609231808019e-7 -5.213739908868688e-7
          0 -2.3442582288578314e-7 -4.6862082533840083e-7 0 -2.396264405288413e-7 -4.790978826167483e-7
          0 -2.896322573319345e-7 -5.789137378308669e-7 0 -1.6768395353537866e-7 -3.353678433281297e-7
          0 0 0 -1.9208551824269642e-7 -1.7046703604702244e-7 -1.8515480338247282e-7
          -3.8419603052258615e-7 -3.4073202638391424e-7 -3.7053190334082355e-7 0 -2.1532324480705743e-7 -4.315421373157563e-7
          0 -2.0718825652627244e-7 -4.146181195447583e-7 0 0 -1.8797231200009434e-7
          -1.6999195914381374e-7 -3.761549734810187e-7 -3.39887835544919e-7 0 -1.4847796409320813e-7 -2.9695457965375327e-7
          0 -1.8746044362023824e-7 -3.755027466551402e-7 0 -1.1425697567156944e-7 -2.3046116274070217e-7
          0 -1.3006896195324714e-7 -2.583930860015068e-7 0 -9.192133146250949e-8 -1.8507275541494637e-7
          0 -5.9471857991312776e-8 -1.192169366380158e-7 0 0 -6.112660485153341e-8
          -6.443476023578763e-8 -1.2238586057555946e-7 -1.29076453719973e-7 0 0 -6.082378060340942e-8
          -6.027652495072508e-8 -1.2163741183940454e-7 -1.2045936244606552e-7 0 0 -6.229982439626125e-8
          -6.18860095097392e-8 -1.2462681166423903e-7 -1.238146460070194e-7 0 -7.736405853608383e-8 -1.5486227352111546e-7
          0 -6.089369802658155e-8 -1.219057919558502e-7 0 -6.338170918428546e-8 -1.2666926095876122e-7
          0 -9.764686318170938e-8 -1.9540131345889147e-7 0 -7.15269438461579e-8 -1.4295696620200802e-7
          0 -6.248931488969528e-8 -1.2553788210061067e-7 0 -1.1947856800545487e-7 -2.389611123284038e-7
          0 -9.175020914988496e-8 -1.8355601589305093e-7 0 -7.004943667974095e-8 -1.401516270761246e-7
          0 -1.1500691231570763e-7 -2.2995838961019995e-7 0 -8.958781808475014e-8 -1.792978080103053e-7
          0 -1.3705111652768e-7 -2.7403084923834457e-7 0 -1.1436793176326988e-7 -2.2870815061463074e-7
          0 -1.5701648587411015e-7 -3.139736035203115e-7 0 -1.401363134759814e-7 -2.8024637882597563e-7
          0 -1.7292013299018392e-7 -3.4579456635743363e-7 0 -1.633333539569824e-7 -3.2662662840640276e-7
          0 -1.8794060600977148e-7 -3.7590716966368264e-7 0 -1.9649683990317123e-7 -3.929417247200188e-7
          0 0 -6.177646730381013e-8 -6.153566580065034e-8 -1.2354409838883433e-7 -1.2304770920276847e-7
          0 -6.250143824760853e-8 -1.2501310856522496e-7 0 -6.451416501281796e-8 -1.2886724864620772e-7
          0 -6.435449535196895e-8 -1.2888882303813115e-7 0 -7.039435532556266e-8 -1.4090013637831524e-7
          0 0 -1.8998807317299866e-7 -1.9152285987925978e-7 -3.800962181642406e-7 -3.8330628580786734e-7
          0 0 0 -1.5481320791278587e-7 -1.718961306176022e-7 -1.6261139582684458e-7
          -3.0958382355700357e-7 -3.4371158997798005e-7 -3.25162013465571e-7 0 -2.2211596257196026e-7 -4.444529684125285e-7
          0 -2.023039977479285e-7 -4.0486967178472544e-7 0 -1.7771314571834852e-7 -3.554123458401503e-7
          0 -1.3947161948303228e-7 -2.789186816578738e-7 0 -1.5616940961972552e-7 -3.123126903165822e-7
          0 -1.6876500064040221e-7 -3.374773685020643e-7 0 -1.7703013519468838e-7 -3.540095844541334e-7
          0 -1.8096101124534565e-7 -3.6196631108500374e-7 0 0 -6.092962073373127e-8
          -6.072359267355886e-8 -1.2186203562191838e-7 -1.2145679216983888e-7 0 -6.157177355944792e-8 -1.2314910491205918e-7
          0 -6.242168110253716e-8 -1.2486898219283903e-7 0 -6.460103548651151e-8 -1.291617516030494e-7
          0 -6.490986814804614e-8 -1.2987556343408643e-7 0 -9.048598189996441e-8 -1.8103412381601548e-7
          0 -7.055045768000415e-8 -1.411884480942033e-7 0 -1.178232336366427e-7 -2.3562380948769866e-7
          0 -1.4425508605063318e-7 -2.884287119585813e-7 0 -1.8764468646306858e-7 -3.7523924833181927e-7
        </DataArray>
      </PointData>
      <CellData>
        <DataArray type="Int32" Name="libmesh_elem_id" format="ascii" RangeMin="1386" RangeMax="3465">
          1386 1387 1390 1391 1394 1395
          1400 1401 1406 1407 1410 1411
          1420 1421 1424 1425 1426 1427
          1432 1433 1436 1437 1444 1445
          1446 1447 1450 1451 1462 1463
          1466 1467 1474 1475 1498 1499
          1504 1505 1508 1509 1514 1515
          1524 1525 1526 1527 1530 1531
          1540 1541 1550 1551 1552 1553
          1554 1555 1578 1579 1588 1589
          1592 1593 1594 1595 1596 1597
          1598 1599 1600 1601 1606 1607
          1662 1663 1698 1699 1702 1703
          1712 1713 1726 1727 1730 1731
          1734 1735 1748 1749 1752 1753
          1774 1775 1778 1779 1834 1835
          1854 1855 1872 1873 1892 1893
          1894 1895 1896 1897 1902 1903
          1914 1915 1920 1921 1922 1923
          1932 1933 1942 1943 1944 1945
          1988 1989 2000 2001 2010 2011
          2024 2025 2070 2071 2100 2101
          2112 2113 2132 2133 2140 2141
          2150 2151 2166 2167 2206 2207
          2218 2219 2238 2239 2242 2243
          2244 2245 2256 2257 2258 2259
          2268 2269 2278 2279 2284 2285
          2306 2307 2334 2335 2340 2341
          2360 2361 2372 2373 2392 2393
          2396 2397 2398 2399 2418 2419
          2422 2423 2426 2427 2432 2433
          2434 2435 2436 2437 2476 2477
          2480 2481 2482 2483 2518 2519
          2534 2535 2540 2541 2542 2543
          2546 2547 2556 2557 2562 2563
          2568 2569 2574 2575 2584 2585
          2588 2589 2598 2599 2612 2613
          2638 2639 2656 2657 2664 2665
          2678 2679 2682 2683 2702 2703
          2704 2705 2708 2709 2720 2721
          2724 2725 2734 2735 2738 2739
          2742 2743 2746 2747 2774 2775
          2788 2789 2790 2791 2804 2805
          2806 2807 2834 2835 2840 2841
          2844 2845 2850 2851 2854 2855
          2858 2859 2872 2873 2888 2889
          2892 2893 2896 2897 2908 2909
          2912 2913 2916 2917 2918 2919
          2924 2925 2932 2933 2944 2945
          2972 2973 2984 2985 2996 2997
          3000 3001 3002 3003 3022 3023
          3024 3025 3030 3031 3032 3033
          3044 3045 3048 3049 3080 3081
          3092 3093 3108 3109 3120 3121
          3130 3131 3136 3137 3140 3141
          3142 3143 3146 3147 3150 3151
          3160 3161 3162 3163 3164 3165
          3170 3171 3172 3173 3174 3175
          3178 3179 3186 3187 3188 3189
          3198 3199 3216 3217 3218 3219
          3228 3229 3232 3233 3238 3239
          3242 3243 3246 3247 3250 3251
          3256 3257 3260 3261 3262 3263
          3266 3267 3268 3269 3270 3271
          3272 3273 3274 3275 3276 3277
          3278 3279 3280 3281 3282 3283
          3284 3285 3286 3287 3288 3289
          3290 3291 3292 3293 3294 3295
          3298 3299 3300 3301 3304 3305
          3306 3307 3310 3311 3312 3313
          3316 3317 3318 3319 3320 3321
          3322 3323 3338 3339 3340 3341
          3356 3357 3358 3359 3374 3375
          3376 3377 3392 3393 3394 3395
          3410 3411 3412 3413 3428 3429
          3446 3447 3464 3465
        </DataArray>
        <DataArray type="Int32" Name="subdomain_id" format="ascii" RangeMin="107" RangeMax="109">
          107 107 107 107 107 107
          107 107 107 107 107 107
          107 107 107 107 107 107
          107 107 107 107 107 107
          107 107 107 107 107 107
          107 107 107 107 107 107
          107 107 107 107 107 107
          107 107 107 107 107 107
          107 107 107 107 107 107
          107 107 107 107 107 107
          107 107 107 107 107 107
          107 107 107 107 107 107
          107 107 107 107 107 107
          107 107 107 107 107 107
          107 107 107 107 107 107
          107 107 107 107 107 107
          107 107 107 107 107 107
          107 107 107 107 107 107
          107 107 107 107 107 107
          107 107 107 107 107 107
          107 107 107 107 107 107
          107 107 107 107 107 107
          107 107 107 107 107 107
          107 107 107 107 107 107
          107 107 107 107 107 107
          107 107 107 107 107 107
          107 107 107 107 107 107
          107 107 107 107 107 107
          107 107 107 107 107 107
          107 107 107 107 107 107
          107 107 107 107 107 107
          107 107 107 107 107 107
          107 107 107 107 107 107
          107 107 107 107 107 107
          107 107 107 107 107 107
          107 107 107 107 107 107
          107 107 107 107 107 107
          107 107 107 107 107 107
          107 107 107 107 107 107
          107 107 107 107 107 107
          107 107 107 107 107 107
          107 107 107 107 107 107
          107 107 107 107 107 107
          107 107 107 107 107 107
          107 107 107 107 107 107
          107 107 107 107 107 107
          107 107 107 107 107 107
          107 107 107 107 107 107
          107 107 107 107 107 107
          107 107 107 107 107 107
          107 107 107 107 107 107
          107 107 107 107 107 107
          107 107 107 107 107 107
          107 107 107 107 107 107
          107 107 107 107 107 107
          107 107 107 107 107 107
          107 107 107 107 107 107
          107 107 107 107 107 107
          107 107 107 107 107 107
          107 107 107 107 107 107
          107 107 107 107 107 107
          107 107 107 107 107 107
          107 107 107 107 107 107
          108 108 108 108 108 108
          108 108 108 108 108 108
          108 108 108 108 108 108
          108 108 108 108 108 108
          108 108 108 108 108 108
          108 108 108 108 108 108
          108 108 108 108 108 108
          108 108 108 108 109 109
          109 109 109 109 109 109
          109 109 109 109 109 109
          109 109 109 109 109 109
          109 109 109 109 109 109
          109 109 109 109
        </DataArray>
        <DataArray type="Int32" Name="processor_id" format="ascii" RangeMin="1" RangeMax="1">
          1 1 1 1 1 1
          1 1 1 1 1 1
          1 1 1 1 1 1
          1 1 1 1 1 1
          1 1 1 1 1 1
          1 1 1 1 1 1
          1 1 1 1 1 1
          1 1 1 1 1 1
          1 1 1 1 1 1
          1 1 1 1 1 1
          1 1 1 1 1 1
          1 1 1 1 1 1
          1 1 1 1 1 1
          1 1 1 1 1 1
          1 1 1 1 1 1
          1 1 1 1 1 1
          1 1 1 1 1 1
          1 1 1 1 1 1
          1 1 1 1 1 1
          1 1 1 1 1 1
          1 1 1 1 1 1
          1 1 1 1 1 1
          1 1 1 1 1 1
          1 1 1 1 1 1
          1 1 1 1 1 1
          1 1 1 1 1 1
          1 1 1 1 1 1
          1 1 1 1 1 1
          1 1 1 1 1 1
          1 1 1 1 1 1
          1 1 1 1 1 1
          1 1 1 1 1 1
          1 1 1 1 1 1
          1 1 1 1 1 1
          1 1 1 1 1 1
          1 1 1 1 1 1
          1 1 1 1 1 1
          1 1 1 1 1 1
          1 1 1 1 1 1
          1 1 1 1 1 1
          1 1 1 1 1 1
          1 1 1 1 1 1
          1 1 1 1 1 1
          1 1 1 1 1 1
          1 1 1 1 1 1
          1 1 1 1 1 1
          1 1 1 1 1 1
          1 1 1 1 1 1
          1 1 1 1 1 1
          1 1 1 1 1 1
          1 1 1 1 1 1
          1 1 1 1 1 1
          1 1 1 1 1 1
          1 1 1 1 1 1
          1 1 1 1 1 1
          1 1 1 1 1 1
          1 1 1 1 1 1
          1 1 1 1 1 1
          1 1 1 1 1 1
          1 1 1 1 1 1
          1 1 1 1 1 1
          1 1 1 1 1 1
          1 1 1 1 1 1
          1 1 1 1 1 1
          1 1 1 1 1 1
          1 1 1 1 1 1
          1 1 1 1 1 1
          1 1 1 1 1 1
          1 1 1 1 1 1
          1 1 1 1 1 1
          1 1 1 1 1 1
          1 1 1 1 1 1
          1 1 1 1 1 1
          1 1 1 1 1 1
          1 1 1 1 1 1
          1 1 1 1
        </DataArray>
      </CellData>
      <Points>
        <DataArray type="Float64" Name="Points" NumberOfComponents="3" format="ascii" RangeMin="0.011720201602553146" RangeMax="0.03445906060790294">
          0.012969222910182 0.0014853020742274 0 0.012627852011276 0.0016898182928561 0
          0.01236786906931 0.0013587217336166 0 0.012783325134333 0.0011067100297067 0
          0.012969222910182 0.0014853020742274 0.00015 0.012627852011276 0.0016898182928561 0.00015
          0.01236786906931 0.0013587217336166 0.00015 0.012783325134333 0.0011067100297067 0.00015
          0.012969222910182 0.0014853020742274 0.0003 0.012627852011276 0.0016898182928561 0.0003
          0.01236786906931 0.0013587217336166 0.0003 0.012783325134333 0.0011067100297067 0.0003
          0.017563073004652 0.0017425656775748 0 0.017044554764736 0.0015497457581888 0
          0.017260149731535 0.0011385367421141 0 0.017760141546291 0.0012815461285561 0
          0.017563073004652 0.0017425656775748 0.00015 0.017044554764736 0.0015497457581888 0.00015
          0.017260149731535 0.0011385367421141 0.00015 0.017760141546291 0.0012815461285561 0.00015
          0.017563073004652 0.0017425656775748 0.0003 0.017044554764736 0.0015497457581888 0.0003
          0.017260149731535 0.0011385367421141 0.0003 0.017760141546291 0.0012815461285561 0.0003
          0.023776898874178 0.0022456328082928 0 0.023504823460796 0.0016933718681226 0
          0.023764932341086 0.0012053538973125 0 0.025 0.0014444444444417 0
          0.023776898874178 0.0022456328082928 0.00015 0.023504823460796 0.0016933718681226 0.00015
          0.023764932341086 0.0012053538973125 0.00015 0.025 0.0014444444444417 0.00015
          0.023776898874178 0.0022456328082928 0.0003 0.023504823460796 0.0016933718681226 0.0003
          0.023764932341086 0.0012053538973125 0.0003 0.025 0.0014444444444417 0.0003
          0.014128459199836 0.0039835282877348 0 0.014611363502717 0.0036877867763913 0
          0.015005639561329 0.0040763460944633 0 0.014554004584986 0.0044253882271801 0
          0.014128459199836 0.0039835282877348 0.00015 0.014611363502717 0.0036877867763913 0.00015
          0.015005639561329 0.0040763460944633 0.00015 0.014554004584986 0.0044253882271801 0.00015
          0.014128459199836 0.0039835282877348 0.0003 0.014611363502717 0.0036877867763913 0.0003
          0.015005639561329 0.0040763460944633 0.0003 0.014554004584986 0.0044253882271801 0.0003
          0.019696280766899 0.00050763342021358 0 0.019550033943553 0.0010320458815065 0
          0.01900444612813 0.00098950685152215 0 0.019158982336274 0.00048623495360749 0
          0.019696280766899 0.00050763342021358 0.00015 0.019550033943553 0.0010320458815065 0.00015
          0.01900444612813 0.00098950685152215 0.00015 0.019158982336274 0.00048623495360749 0.00015
          0.019696280766899 0.00050763342021358 0.0003 0.019550033943553 0.0010320458815065 0.0003
          0.01900444612813 0.00098950685152215 0.0003 0.019158982336274 0.00048623495360749 0.0003
          0.014859009547347 0.0018414606933245 0 0.015407964407671 0.0020438178723745 0
          0.01515544156871 0.0026588338800995 0 0.014598102610542 0.0022982704245768 0
          0.014859009547347 0.0018414606933245 0.00015 0.015407964407671 0.0020438178723745 0.00015
          0.01515544156871 0.0026588338800995 0.00015 0.014598102610542 0.0022982704245768 0.00015
          0.014859009547347 0.0018414606933245 0.0003 0.015407964407671 0.0020438178723745 0.0003
          0.01515544156871 0.0026588338800995 0.0003 0.014598102610542 0.0022982704245768 0.0003
          0.018126604709057 0.0019215066283495 0 0.017910174904861 0.0024312076221655 0
          0.017342980714859 0.0022157520731189 0 0.018126604709057 0.0019215066283495 0.00015
          0.017910174904861 0.0024312076221655 0.00015 0.017342980714859 0.0022157520731189 0.00015
          0.018126604709057 0.0019215066283495 0.0003 0.017910174904861 0.0024312076221655 0.0003
          0.017342980714859 0.0022157520731189 0.0003 0.015995561521593 0.0022418351865966 0
          0.01581460170494 0.0027743126456578 0 0.015995561521593 0.0022418351865966 0.00015
          0.01581460170494 0.0027743126456578 0.00015 0.015995561521593 0.0022418351865966 0.0003
          0.01581460170494 0.0027743126456578 0.0003 0.021203243478062 0.0026574159093233 0
          0.020454986610371 0.0022211941162512 0 0.020632218270446 0.001642443645643 0
          0.021442904813338 0.0016925342242502 0 0.021203243478062 0.0026574159093233 0.00015
          0.020454986610371 0.0022211941162512 0.00015 0.020632218270446 0.001642443645643 0.00015
          0.021442904813338 0.0016925342242502 0.00015 0.021203243478062 0.0026574159093233 0.0003
          0.020454986610371 0.0022211941162512 0.0003 0.020632218270446 0.001642443645643 0.0003
          0.021442904813338 0.0016925342242502 0.0003 0.015000171033694 0.0033600360828681 0
          0.015396645228865 0.0036775895732469 0 0.015000171033694 0.0033600360828681 0.00015
          0.015396645228865 0.0036775895732469 0.00015 0.015000171033694 0.0033600360828681 0.0003
          0.015396645228865 0.0036775895732469 0.0003 0.016564676280502 0.0024636417082771 0
          0.016363912484153 0.0029730068966809 0 0.016564676280502 0.0024636417082771 0.00015
          0.016363912484153 0.0029730068966809 0.00015 0.016564676280502 0.0024636417082771 0.0003
          0.016363912484153 0.0029730068966809 0.0003 0.023072410624366 0.001035238244058 0
          0.023303887517976 0.00051385162283572 0 0.023907474886085 0.00057797945625648 0
          0.023072410624366 0.001035238244058 0.00015 0.023303887517976 0.00051385162283572 0.00015
          0.023907474886085 0.00057797945625648 0.00015 0.023072410624366 0.001035238244058 0.0003
          0.023303887517976 0.00051385162283572 0.0003 0.023907474886085 0.00057797945625648 0.0003
          0.014126846853415 0.0020250855845452 0 0.014376196219822 0.0016213258676016 0
          0.014126846853415 0.0020250855845452 0.00015 0.014376196219822 0.0016213258676016 0.00015
          0.014126846853415 0.0020250855845452 0.0003 0.014376196219822 0.0016213258676016 0.0003
          0.018981322625637 0.0048047339747308 0 0.018357141436072 0.0045551651420339 0
          0.018591751365599 0.0039752866369835 0 0.01916753543825 0.0042045163914746 0
          0.018981322625637 0.0048047339747308 0.00015 0.018357141436072 0.0045551651420339 0.00015
          0.018591751365599 0.0039752866369835 0.00015 0.01916753543825 0.0042045163914746 0.00015
          0.018981322625637 0.0048047339747308 0.0003 0.018357141436072 0.0045551651420339 0.0003
          0.018591751365599 0.0039752866369835 0.0003 0.01916753543825 0.0042045163914746 0.0003
          0.018733892370512 0.0020905204418308 0 0.018302277235643 0.001411928503633 0
          0.018878430913296 0.0015272195647153 0 0.018733892370512 0.0020905204418308 0.00015
          0.018302277235643 0.001411928503633 0.00015 0.018878430913296 0.0015272195647153 0.00015
          0.018733892370512 0.0020905204418308 0.0003 0.018302277235643 0.001411928503633 0.0003
          0.018878430913296 0.0015272195647153 0.0003 0.015535554193674 0.0045828394817383 0
          0.015535554193674 0.0045828394817383 0.00015 0.015535554193674 0.0045828394817383 0.0003
          0.017780760549951 0.0042442262797048 0 0.018018112537919 0.0052480329433742 0
          0.017497318700769 0.0047182001999379 0 0.017780760549951 0.0042442262797048 0.00015
          0.018018112537919 0.0052480329433742 0.00015 0.017497318700769 0.0047182001999379 0.00015
          0.017780760549951 0.0042442262797048 0.0003 0.018018112537919 0.0052480329433742 0.0003
          0.017497318700769 0.0047182001999379 0.0003 0.019494677591535 0.00226139088066 0
          0.019117853172676 0.0029004952170283 0 0.018505903140776 0.002650294613165 0
          0.019494677591535 0.00226139088066 0.00015 0.019117853172676 0.0029004952170283 0.00015
          0.018505903140776 0.002650294613165 0.00015 0.019494677591535 0.00226139088066 0.0003
          0.019117853172676 0.0029004952170283 0.0003 0.018505903140776 0.002650294613165 0.0003
          0.013829014690192 0.0024142080164891 0 0.013458574547778 0.0021218274131508 0
          0.013711742209243 0.0017918189860839 0 0.013829014690192 0.0024142080164891 0.00015
          0.013458574547778 0.0021218274131508 0.00015 0.013711742209243 0.0017918189860839 0.00015
          0.013829014690192 0.0024142080164891 0.0003 0.013458574547778 0.0021218274131508 0.0003
          0.013711742209243 0.0017918189860839 0.0003 0.0133672983588 0.0013583262253912 0
          0.013268156677071 0.00095273786274694 0 0.0133672983588 0.0013583262253912 0.00015
          0.013268156677071 0.00095273786274694 0.00015 0.0133672983588 0.0013583262253912 0.0003
          0.013268156677071 0.00095273786274694 0.0003 0.020151989638292 0.0057951577471947 0
          0.020929132214341 0.005368110675239 0 0.020151989638292 0.0057951577471947 0.00015
          0.020929132214341 0.005368110675239 0.00015 0.020151989638292 0.0057951577471947 0.0003
          0.020929132214341 0.005368110675239 0.0003 0.011634800364854 0.0014122839921498 0
          0.011634800364854 0.0014122839921498 0.00015 0.011634800364854 0.0014122839921498 0.0003
          0.020690070611507 0.0010537467946972 0 0.021241463234904 0.0010007048777636 0
          0.020690070611507 0.0010537467946972 0.00015 0.021241463234904 0.0010007048777636 0.00015
          0.020690070611507 0.0010537467946972 0.0003 0.021241463234904 0.0010007048777636 0.0003
          0.01690585017332 0.0031962434076044 0 0.017120511962154 0.0027019865785896 0
          0.01690585017332 0.0031962434076044 0.00015 0.017120511962154 0.0027019865785896 0.00015
          0.01690585017332 0.0031962434076044 0.0003 0.017120511962154 0.0027019865785896 0.0003
          0.016801656731456 0.0019822328720047 0 0.016801656731456 0.0019822328720047 0.00015
          0.016801656731456 0.0019822328720047 0.0003 0.015193226280812 0.00045041659473928 0
          0.015698309574236 0.00047366638839958 0 0.015648437383567 0.00097128418016613 0
          0.015127663000402 0.00090574444628299 0 0.015193226280812 0.00045041659473928 0.00015
          0.015698309574236 0.00047366638839958 0.00015 0.015648437383567 0.00097128418016613 0.00015
          0.015127663000402 0.00090574444628299 0.00015 0.015193226280812 0.00045041659473928 0.0003
          0.015698309574236 0.00047366638839958 0.0003 0.015648437383567 0.00097128418016613 0.0003
          0.015127663000402 0.00090574444628299 0.0003 0.025 0.0057777777777625 0
          0.025 0.0057777777777625 0.00015 0.025 0.0057777777777625 0.0003
          0.025 0.0043333333333224 0 0.023896353247243 0.0043894596145303 0
          0.025 0.0043333333333224 0.00015 0.023896353247243 0.0043894596145303 0.00015
          0.025 0.0043333333333224 0.0003 0.023896353247243 0.0043894596145303 0.0003
          0.013179014717582 0.001822526704721 0 0.013420070576712 0.0016525675047962 0
          0.013179014717582 0.001822526704721 0.00015 0.013420070576712 0.0016525675047962 0.00015
          0.013179014717582 0.001822526704721 0.0003 0.013420070576712 0.0016525675047962 0.0003
          0.01946472134525 0.0015844882179861 0 0.01946472134525 0.0015844882179861 0.00015
          0.01946472134525 0.0015844882179861 0.0003 0.019738918970445 0.0042679072806348 0
          0.019737200842686 0.0050366958134185 0 0.019738918970445 0.0042679072806348 0.00015
          0.019737200842686 0.0050366958134185 0.00015 0.019738918970445 0.0042679072806348 0.0003
          0.019737200842686 0.0050366958134185 0.0003 0.018801022408002 0.0054477015438504 0
          0.019301386887175 0.0055580415356932 0 0.019427042946373 0.0060730727381959 0
          0.018733542944404 0.0061279994653871 0 0.018801022408002 0.0054477015438504 0.00015
          0.019301386887175 0.0055580415356932 0.00015 0.019427042946373 0.0060730727381959 0.00015
          0.018733542944404 0.0061279994653871 0.00015 0.018801022408002 0.0054477015438504 0.0003
          0.019301386887175 0.0055580415356932 0.0003 0.019427042946373 0.0060730727381959 0.0003
          0.018733542944404 0.0061279994653871 0.0003 0.020038894590203 0.0015918984718873 0
          0.020014763899096 0.0020069766457038 0 0.020038894590203 0.0015918984718873 0.00015
          0.020014763899096 0.0020069766457038 0.00015 0.020038894590203 0.0015918984718873 0.0003
          0.020014763899096 0.0020069766457038 0.0003 0.02163606673442 0.0008902471917336 0
          0.021744201350165 0.00049421716196859 0 0.022190644598282 0.0005058615377216 0
          0.021944604947084 0.0011684672971015 0 0.02163606673442 0.0008902471917336 0.00015
          0.021744201350165 0.00049421716196859 0.00015 0.022190644598282 0.0005058615377216 0.00015
          0.021944604947084 0.0011684672971015 0.00015 0.02163606673442 0.0008902471917336 0.0003
          0.021744201350165 0.00049421716196859 0.0003 0.022190644598282 0.0005058615377216 0.0003
          0.021944604947084 0.0011684672971015 0.0003 0.015913060403389 0.0039637658470315 0
          0.015913060403389 0.0039637658470315 0.00015 0.015913060403389 0.0039637658470315 0.0003
          0.014558693053864 0.0012292895498017 0 0.015031644896308 0.0013689537442351 0
          0.014558693053864 0.0012292895498017 0.00015 0.015031644896308 0.0013689537442351 0.00015
          0.014558693053864 0.0012292895498017 0.0003 0.015031644896308 0.0013689537442351 0.0003
          0.018057579772584 0.0060827128421873 0 0.018070157245618 0.0068021820766994 0
          0.018057579772584 0.0060827128421873 0.00015 0.018070157245618 0.0068021820766994 0.00015
          0.018057579772584 0.0060827128421873 0.0003 0.018070157245618 0.0068021820766994 0.0003
          0.017413401850906 0.0060417176080878 0 0.017413401850906 0.0060417176080878 0.00015
          0.017413401850906 0.0060417176080878 0.0003 0.016169389215855 0.0034677229039223 0
          0.015655980876909 0.003250339095381 0 0.016169389215855 0.0034677229039223 0.00015
          0.015655980876909 0.003250339095381 0.00015 0.016169389215855 0.0034677229039223 0.0003
          0.015655980876909 0.003250339095381 0.0003 0.014652329158707 0.0030238496825634 0
          0.015285307382498 0.0031101507370722 0 0.014652329158707 0.0030238496825634 0.00015
          0.015285307382498 0.0031101507370722 0.00015 0.014652329158707 0.0030238496825634 0.0003
          0.015285307382498 0.0031101507370722 0.0003 0.016487808895433 0.0042010147125967 0
          0.016291762387835 0.0047307906783276 0 0.016487808895433 0.0042010147125967 0.00015
          0.016291762387835 0.0047307906783276 0.00015 0.016487808895433 0.0042010147125967 0.0003
          0.016291762387835 0.0047307906783276 0.0003 0.017341722495578 0.0054175123203669 0
          0.017341722495578 0.0054175123203669 0.00015 0.017341722495578 0.0054175123203669 0.0003
          0.016251164393845 0.0016133033435965 0 0.016687160352932 0.001374608348519 0
          0.016251164393845 0.0016133033435965 0.00015 0.016687160352932 0.001374608348519 0.00015
          0.016251164393845 0.0016133033435965 0.0003 0.016687160352932 0.001374608348519 0.0003
          0.01678493258985 0.0053840721103251 0 0.016848637368385 0.0048798435935376 0
          0.01678493258985 0.0053840721103251 0.00015 0.016848637368385 0.0048798435935376 0.00015
          0.01678493258985 0.0053840721103251 0.0003 0.016848637368385 0.0048798435935376 0.0003
          0.013915703094631 0.0030656560250288 0 0.01425441565673 0.0027053116394345 0
          0.014277331184122 0.0033493109511997 0 0.013915703094631 0.0030656560250288 0.00015
          0.01425441565673 0.0027053116394345 0.00015 0.014277331184122 0.0033493109511997 0.00015
          0.013915703094631 0.0030656560250288 0.0003 0.01425441565673 0.0027053116394345 0.0003
          0.014277331184122 0.0033493109511997 0.0003 0.013503308513005 0.0027817056572273 0
          0.013503308513005 0.0027817056572273 0.00015 0.013503308513005 0.0027817056572273 0.0003
          0.015571407447371 0.001500509245043 0 0.016188320748251 0.0009824473909215 0
          0.015571407447371 0.001500509245043 0.00015 0.016188320748251 0.0009824473909215 0.00015
          0.015571407447371 0.001500509245043 0.0003 0.016188320748251 0.0009824473909215 0.0003
          0.017456683820944 0.0034405145363726 0 0.017671289470578 0.0029336357035204 0
          0.017456683820944 0.0034405145363726 0.00015 0.017671289470578 0.0029336357035204 0.00015
          0.017456683820944 0.0034405145363726 0.0003 0.017671289470578 0.0029336357035204 0.0003
          0.022716879195272 0.001694170750475 0 0.022069698771397 0.0020298487038736 0
          0.022716879195272 0.001694170750475 0.00015 0.022069698771397 0.0020298487038736 0.00015
          0.022716879195272 0.001694170750475 0.0003 0.022069698771397 0.0020298487038736 0.0003
          0.013893710777701 0.0013389894450257 0 0.014229820502632 0.0011148528015907 0
          0.013893710777701 0.0013389894450257 0.00015 0.014229820502632 0.0011148528015907 0.00015
          0.013893710777701 0.0013389894450257 0.0003 0.014229820502632 0.0011148528015907 0.0003
          0.012674188674928 0.0028095410694266 0 0.013119330518162 0.0024349279719224 0
          0.013248150362312 0.0031919567697963 0 0.012674188674928 0.0028095410694266 0.00015
          0.013119330518162 0.0024349279719224 0.00015 0.013248150362312 0.0031919567697963 0.00015
          0.012674188674928 0.0028095410694266 0.0003 0.013119330518162 0.0024349279719224 0.0003
          0.013248150362312 0.0031919567697963 0.0003 0.012451479243686 0.0021914486022899 0
          0.012451479243686 0.0021914486022899 0.00015 0.012451479243686 0.0021914486022899 0.0003
          0.016782084774574 0.00093367828557597 0 0.016782084774574 0.00093367828557597 0.00015
          0.016782084774574 0.00093367828557597 0.0003 0.013121586466294 0.0036708577033715 0
          0.013121586466294 0.0036708577033715 0.00015 0.013121586466294 0.0036708577033715 0.0003
          0.012837862818801 0.0020433604618052 0 0.012837862818801 0.0020433604618052 0.00015
          0.012837862818801 0.0020433604618052 0.0003 0.016706746155521 0.0036970402910047 0
          0.016706746155521 0.0036970402910047 0.00015 0.016706746155521 0.0036970402910047 0.0003
          0.013749164985008 0.00086088989331873 0 0.013749164985008 0.00086088989331873 0.00015
          0.013749164985008 0.00086088989331873 0.0003 0.012096711335481 0.0017058387426491 0
          0.012096711335481 0.0017058387426491 0.00015 0.012096711335481 0.0017058387426491 0.0003
          0.013693266362936 0.0034326845509566 0 0.013693266362936 0.0034326845509566 0.00015
          0.013693266362936 0.0034326845509566 0.0003 0.012692307692288 0 0
          0.012542896420733 0.00061304595643839 0 0.012692307692288 0 0.00015
          0.012542896420733 0.00061304595643839 0.00015 0.012692307692288 0 0.0003
          0.012542896420733 0.00061304595643839 0.0003 0.013205128205107 0 0
          0.013181655749567 0.00048421972568225 0 0.013205128205107 0 0.00015
          0.013181655749567 0.00048421972568225 0.00015 0.013205128205107 0 0.0003
          0.013181655749567 0.00048421972568225 0.0003 0.012087580163866 0.0010424427844857 0
          0.012087580163866 0.0010424427844857 0.00015 0.012087580163866 0.0010424427844857 0.0003
          0.013717948717925 0 0 0.013709151553936 0.00043508888993868 0
          0.013717948717925 0 0.00015 0.013709151553936 0.00043508888993868 0.00015
          0.013717948717925 0 0.0003 0.013709151553936 0.00043508888993868 0.0003
          0.023934294716764 0.0032087575652495 0 0.025 0.0028888888888822 0
          0.023934294716764 0.0032087575652495 0.00015 0.025 0.0028888888888822 0.00015
          0.023934294716764 0.0032087575652495 0.0003 0.025 0.0028888888888822 0.0003
          0.022119784948444 0.002618759724243 0 0.022119784948444 0.002618759724243 0.00015
          0.022119784948444 0.002618759724243 0.0003 0.012384518900215 0.0018567382086698 0
          0.012384518900215 0.0018567382086698 0.00015 0.012384518900215 0.0018567382086698 0.0003
          0.021279978971931 0.00049482730399591 0 0.020757556768826 0.00050973095909409 0
          0.021279978971931 0.00049482730399591 0.00015 0.020757556768826 0.00050973095909409 0.00015
          0.021279978971931 0.00049482730399591 0.0003 0.020757556768826 0.00050973095909409 0.0003
          0.015256410256382 0 0 0.015769230769205 0 0
          0.015256410256382 0 0.00015 0.015769230769205 0 0.00015
          0.015256410256382 0 0.0003 0.015769230769205 0 0.0003
          0.014025581742285 0.0035717972510793 0 0.014025581742285 0.0035717972510793 0.00015
          0.014025581742285 0.0035717972510793 0.0003 0.013590285783394 0.0038446716816234 0
          0.013590285783394 0.0038446716816234 0.00015 0.013590285783394 0.0038446716816234 0.0003
          0.017243082343815 0.0050067004105205 0 0.017243082343815 0.0050067004105205 0.00015
          0.017243082343815 0.0050067004105205 0.0003 0.014691316585943 0.00042340821879555 0
          0.014743589743561 0 0 0.014691316585943 0.00042340821879555 0.00015
          0.014743589743561 0 0.00015 0.014691316585943 0.00042340821879555 0.0003
          0.014743589743561 0 0.0003 0.018245486290569 0.0031782516753476 0
          0.018245486290569 0.0031782516753476 0.00015 0.018245486290569 0.0031782516753476 0.0003
          0.018846153846135 0 0 0.018644197304734 0.00045373129675669 0
          0.01812656348281 0.00041497632726255 0 0.018333333333313 0 0
          0.018846153846135 0 0.00015 0.018644197304734 0.00045373129675669 0.00015
          0.01812656348281 0.00041497632726255 0.00015 0.018333333333313 0 0.00015
          0.018846153846135 0 0.0003 0.018644197304734 0.00045373129675669 0.0003
          0.01812656348281 0.00041497632726255 0.0003 0.018333333333313 0 0.0003
          0.016222123693441 0.00047331176344161 0 0.016700854199337 0.00043557402690065 0
          0.016222123693441 0.00047331176344161 0.00015 0.016700854199337 0.00043557402690065 0.00015
          0.016222123693441 0.00047331176344161 0.0003 0.016700854199337 0.00043557402690065 0.0003
          0.020119253581834 0.0010505613075795 0 0.020119253581834 0.0010505613075795 0.00015
          0.020119253581834 0.0010505613075795 0.0003 0.017948162073368 0.00084248305268282 0
          0.018468108748109 0.00092264731154686 0 0.017948162073368 0.00084248305268282 0.00015
          0.018468108748109 0.00092264731154686 0.00015 0.017948162073368 0.00084248305268282 0.0003
          0.018468108748109 0.00092264731154686 0.0003 0.018823294200687 0.0034327213803771 0
          0.019357958441624 0.0036753812238739 0 0.018823294200687 0.0034327213803771 0.00015
          0.019357958441624 0.0036753812238739 0.00015 0.018823294200687 0.0034327213803771 0.0003
          0.019357958441624 0.0036753812238739 0.0003 0.017020820655581 0.0044256808272369 0
          0.017020820655581 0.0044256808272369 0.00015 0.017020820655581 0.0044256808272369 0.0003
          0.017246333426457 0.0039469397271967 0 0.017246333426457 0.0039469397271967 0.00015
          0.017246333426457 0.0039469397271967 0.0003 0.020078691259254 0.0027314397537426 0
          0.020078691259254 0.0027314397537426 0.00015 0.020078691259254 0.0027314397537426 0.0003
          0.014206101807249 0.00041708713844452 0 0.014230769230743 0 0
          0.014206101807249 0.00041708713844452 0.00015 0.014230769230743 0 0.00015
          0.014206101807249 0.00041708713844452 0.0003 0.014230769230743 0 0.0003
          0.019663480844036 0.0032045589214632 0 0.019663480844036 0.0032045589214632 0.00015
          0.019663480844036 0.0032045589214632 0.0003 0.021168425648455 0.0043064684914555 0
          0.021635594211814 0.0048272474453844 0 0.020555573714582 0.0046911399787169 0
          0.021168425648455 0.0043064684914555 0.00015 0.021635594211814 0.0048272474453844 0.00015
          0.020555573714582 0.0046911399787169 0.00015 0.021168425648455 0.0043064684914555 0.0003
          0.021635594211814 0.0048272474453844 0.0003 0.020555573714582 0.0046911399787169 0.0003
          0.019723975353689 0.0038421555098755 0 0.019723975353689 0.0038421555098755 0.00015
          0.019723975353689 0.0038421555098755 0.0003 0.01679487179485 0 0
          0.017307692307672 0 0 0.017098243235352 0.00037703288126221 0
          0.01679487179485 0 0.00015 0.017307692307672 0 0.00015
          0.017098243235352 0.00037703288126221 0.00015 0.01679487179485 0 0.0003
          0.017307692307672 0 0.0003 0.017098243235352 0.00037703288126221 0.0003
          0.019358974358957 0 0 0.019358974358957 0 0.00015
          0.019358974358957 0 0.0003 0.018021318366412 0.0037089471112668 0
          0.018021318366412 0.0037089471112668 0.00015 0.018021318366412 0.0037089471112668 0.0003
          0.022914230268928 0.0025172233828488 0 0.022914230268928 0.0025172233828488 0.00015
          0.022914230268928 0.0025172233828488 0.0003 0.016282051282027 0 0
          0.016282051282027 0 0.00015 0.016282051282027 0 0.0003
          0.017636327566636 0.00038375181151782 0 0.017820512820494 0 0
          0.017636327566636 0.00038375181151782 0.00015 0.017820512820494 0 0.00015
          0.017636327566636 0.00038375181151782 0.0003 0.017820512820494 0 0.0003
          0.020545307319607 0.0031941956482125 0 0.020545307319607 0.0031941956482125 0.00015
          0.020545307319607 0.0031941956482125 0.0003 0.014207774647908 0.00082121811907846 0
          0.014649951203035 0.00083908958777153 0 0.014207774647908 0.00082121811907846 0.00015
          0.014649951203035 0.00083908958777153 0.00015 0.014207774647908 0.00082121811907846 0.0003
          0.014649951203035 0.00083908958777153 0.0003 0.017453973974276 0.00075538641526017 0
          0.017131504825278 0.00067680946789985 0 0.017453973974276 0.00075538641526017 0.00015
          0.017131504825278 0.00067680946789985 0.00015 0.017453973974276 0.00075538641526017 0.0003
          0.017131504825278 0.00067680946789985 0.0003 0.020049549059284 0.0035870308776452 0
          0.020306231316884 0.0040846257713005 0 0.020049549059284 0.0035870308776452 0.00015
          0.020306231316884 0.0040846257713005 0.00015 0.020049549059284 0.0035870308776452 0.0003
          0.020306231316884 0.0040846257713005 0.0003 0.022163023796879 0.0034061119862663 0
          0.021471654866651 0.0034951402573089 0 0.022163023796879 0.0034061119862663 0.00015
          0.021471654866651 0.0034951402573089 0.00015 0.022163023796879 0.0034061119862663 0.0003
          0.021471654866651 0.0034951402573089 0.0003 0.020216848120139 0.00051365536395203 0
          0.020384615384602 0 0 0.020897435897425 0 0
          0.020216848120139 0.00051365536395203 0.00015 0.020384615384602 0 0.00015
          0.020897435897425 0 0.00015 0.020216848120139 0.00051365536395203 0.0003
          0.020384615384602 0 0.0003 0.020897435897425 0 0.0003
          0.020867240059882 0.0037570922548429 0 0.020867240059882 0.0037570922548429 0.00015
          0.020867240059882 0.0037570922548429 0.0003 0.021410256410247 0 0
          0.021410256410247 0 0.00015 0.021410256410247 0 0.0003
          0.01987179487178 0 0 0.01987179487178 0 0.00015
          0.01987179487178 0 0.0003 0.022975084693504 0.003367305376383 0
          0.022975084693504 0.003367305376383 0.00015 0.022975084693504 0.003367305376383 0.0003
          0.022435897435893 0 0 0.022948717948713 0 0
          0.022737844672879 0.00047743690091317 0 0.022435897435893 0 0.00015
          0.022948717948713 0 0.00015 0.022737844672879 0.00047743690091317 0.00015
          0.022435897435893 0 0.0003 0.022948717948713 0 0.0003
          0.022737844672879 0.00047743690091317 0.0003 0.02192307692307 0 0
          0.02192307692307 0 0.00015 0.02192307692307 0 0.0003
          0.021567010772127 0.0039949981403974 0 0.021567010772127 0.0039949981403974 0.00015
          0.021567010772127 0.0039949981403974 0.0003 0.02205136800235 0.0041574599345453 0
          0.022874799944018 0.0043411431204517 0 0.02205136800235 0.0041574599345453 0.00015
          0.022874799944018 0.0043411431204517 0.00015 0.02205136800235 0.0041574599345453 0.0003
          0.022874799944018 0.0043411431204517 0.0003 0.023461538461532 0 0
          0.023461538461532 0 0.00015 0.023461538461532 0 0.0003
          0.022597273609822 0.0008601076908125 0 0.022597273609822 0.0008601076908125 0.00015
          0.022597273609822 0.0008601076908125 0.0003 0.024392416230449 0.00057909033861659 0
          0.024392416230449 0.00057909033861659 0.00015 0.024392416230449 0.00057909033861659 0.0003
          0.023974358974355 0 0 0.023974358974355 0 0.00015
          0.023974358974355 0 0.0003 0.024487179487177 0 0
          0.024487179487177 0 0.00015 0.024487179487177 0 0.0003
          0.025 0 0 0.025 0 0.00015
          0.025 0 0.0003 0.026666666666664 0.0014444444444417 0
          0.026666666666663 0 0 0.026666666666664 0.0014444444444417 0.00015
          0.026666666666663 0 0.00015 0.026666666666664 0.0014444444444417 0.0003
          0.026666666666663 0 0.0003 0.028333333333331 0.0014444444444417 0
          0.02833333333333 0 0 0.028333333333331 0.0014444444444417 0.00015
          0.02833333333333 0 0.00015 0.028333333333331 0.0014444444444417 0.0003
          0.02833333333333 0 0.0003 0.03 0.0014444444444417 0
          0.03 0 0 0.03 0.0014444444444417 0.00015
          0.03 0 0.00015 0.03 0.0014444444444417 0.0003
          0.03 0 0.0003 0.026666666666665 0.0028888888888822 0
          0.026666666666665 0.0028888888888822 0.00015 0.026666666666665 0.0028888888888822 0.0003
          0.028333333333331 0.0028888888888822 0 0.028333333333331 0.0028888888888822 0.00015
          0.028333333333331 0.0028888888888822 0.0003 0.03 0.0028888888888822 0
          0.03 0.0028888888888822 0.00015 0.03 0.0028888888888822 0.0003
          0.026666666666666 0.0043333333333224 0 0.026666666666666 0.0043333333333224 0.00015
          0.026666666666666 0.0043333333333224 0.0003 0.028333333333332 0.0043333333333224 0
          0.028333333333332 0.0043333333333224 0.00015 0.028333333333332 0.0043333333333224 0.0003
          0.03 0.0043333333333224 0 0.03 0.0043333333333224 0.00015
          0.03 0.0043333333333224 0.0003 0.026666666666666 0.0057777777777625 0
          0.026666666666666 0.0057777777777625 0.00015 0.026666666666666 0.0057777777777625 0.0003
          0.028333333333333 0.0057777777777625 0 0.028333333333333 0.0057777777777625 0.00015
          0.028333333333333 0.0057777777777625 0.0003 0.03 0.0057777777777625 0
          0.03 0.0057777777777625 0.00015 0.03 0.0057777777777625 0.0003
          0.028333333333334 0.0072222222222063 0 0.028333333333334 0.0072222222222063 0.00015
          0.028333333333334 0.0072222222222063 0.0003 0.03 0.0072222222222063 0
          0.03 0.0072222222222063 0.00015 0.03 0.0072222222222063 0.0003
          0.028333333333334 0.0086666666666559 0 0.028333333333334 0.0086666666666559 0.00015
          0.028333333333334 0.0086666666666559 0.0003 0.03 0.0086666666666559 0
          0.03 0.0086666666666559 0.00015 0.03 0.0086666666666559 0.0003
          0.028333333333335 0.010111111111103 0 0.028333333333335 0.010111111111103 0.00015
          0.028333333333335 0.010111111111103 0.0003 0.03 0.010111111111103 0
          0.03 0.010111111111103 0.00015 0.03 0.010111111111103 0.0003
          0.028333333333336 0.011555555555552 0 0.028333333333336 0.011555555555552 0.00015
          0.028333333333336 0.011555555555552 0.0003 0.03 0.011555555555552 0
          0.03 0.011555555555552 0.00015 0.03 0.011555555555552 0.0003
          0.028333333333337 0.013 0 0.028333333333337 0.013 0.00015
          0.028333333333337 0.013 0.0003 0.03 0.013 0
          0.03 0.013 0.00015 0.03 0.013 0.0003
          0.031601181467612 0.0014508094753802 0 0.03158989866902 0 0
          0.031601181467612 0.0014508094753802 0.00015 0.03158989866902 0 0.00015
          0.031601181467612 0.0014508094753802 0.0003 0.03158989866902 0 0.0003
          0.031612464266204 0.0029016189507591 0 0.031612464266204 0.0029016189507591 0.00015
          0.031612464266204 0.0029016189507591 0.0003 0.031623747064796 0.0043524284261377 0
          0.031623747064796 0.0043524284261377 0.00015 0.031623747064796 0.0043524284261377 0.0003
          0.031635029863388 0.0058032379015163 0 0.031635029863388 0.0058032379015163 0.00015
          0.031635029863388 0.0058032379015163 0.0003 0.031646312661979 0.0072540473768985 0
          0.031646312661979 0.0072540473768985 0.00015 0.031646312661979 0.0072540473768985 0.0003
          0.021356284292895 0.0061182113295331 0 0.020489019208248 0.0065103794253073 0
          0.021356284292895 0.0061182113295331 0.00015 0.020489019208248 0.0065103794253073 0.00015
          0.021356284292895 0.0061182113295331 0.0003 0.020489019208248 0.0065103794253073 0.0003
          0.025 0.0072222222222063 0 0.023816654948859 0.0069324696013164 0
          0.023829479378086 0.0056593315311521 0 0.025 0.0072222222222063 0.00015
          0.023816654948859 0.0069324696013164 0.00015 0.023829479378086 0.0056593315311521 0.00015
          0.025 0.0072222222222063 0.0003 0.023816654948859 0.0069324696013164 0.0003
          0.023829479378086 0.0056593315311521 0.0003 0.018734278863615 0.0068564365277259 0
          0.018734278863615 0.0068564365277259 0.00015 0.018734278863615 0.0068564365277259 0.0003
          0.019611341590458 0.0069319215290848 0 0.019611341590458 0.0069319215290848 0.00015
          0.019611341590458 0.0069319215290848 0.0003 0.022477642087048 0.0055533155338694 0
          0.022477642087048 0.0055533155338694 0.00015 0.022477642087048 0.0055533155338694 0.0003
          0.026666666666667 0.0072222222222063 0 0.026666666666667 0.0072222222222063 0.00015
          0.026666666666667 0.0072222222222063 0.0003 0.026666666666668 0.0086666666666559 0
          0.026666666666668 0.0086666666666559 0.00015 0.026666666666668 0.0086666666666559 0.0003
          0.026666666666669 0.010111111111103 0 0.026666666666669 0.010111111111103 0.00015
          0.026666666666669 0.010111111111103 0.0003 0.026666666666669 0.011555555555552 0
          0.026666666666669 0.011555555555552 0.00015 0.026666666666669 0.011555555555552 0.0003
          0.02666666666667 0.013 0 0.02666666666667 0.013 0.00015
          0.02666666666667 0.013 0.0003 0.033201501647561 0.0014698753983525 0
          0.033179797338052 0 0 0.033201501647561 0.0014698753983525 0.00015
          0.033179797338052 0 0.00015 0.033201501647561 0.0014698753983525 0.0003
          0.033179797338052 0 0.0003 0.033223205957069 0.0029397507967035 0
          0.033223205957069 0.0029397507967035 0.00015 0.033223205957069 0.0029397507967035 0.0003
          0.033244910266578 0.0044096261950543 0 0.033244910266578 0.0044096261950543 0.00015
          0.033244910266578 0.0044096261950543 0.0003 0.033266614576087 0.0058795015934051 0
          0.033266614576087 0.0058795015934051 0.00015 0.033266614576087 0.0058795015934051 0.0003
          0.033288318885596 0.0073493769917596 0 0.033288318885596 0.0073493769917596 0.00015
          0.033288318885596 0.0073493769917596 0.0003 0.031657595460571 0.0087048568522863 0
          0.031657595460571 0.0087048568522863 0.00015 0.031657595460571 0.0087048568522863 0.0003
          0.033310023195106 0.0088192523901195 0 0.033310023195106 0.0088192523901195 0.00015
          0.033310023195106 0.0088192523901195 0.0003 0.031668878259163 0.010155666327672 0
          0.031668878259163 0.010155666327672 0.00015 0.031668878259163 0.010155666327672 0.0003
          0.031680161057755 0.011606475803059 0 0.031680161057755 0.011606475803059 0.00015
          0.031680161057755 0.011606475803059 0.0003 0.031691443856347 0.013057285278446 0
          0.031691443856347 0.013057285278446 0.00015 0.031691443856347 0.013057285278446 0.0003
          <InformationKey name="L2_NORM_RANGE" location="vtkDataArray" length="2">
            <Value index="0">
              0.011720201603
            </Value>
            <Value index="1">
              0.034459060608
            </Value>
          </InformationKey>
        </DataArray>
      </Points>
      <Cells>
        <DataArray type="Int64" Name="connectivity" format="ascii" RangeMin="0" RangeMax="797">
          0 1 2 3 4 5
          6 7 4 5 6 7
          8 9 10 11 12 13
          14 15 16 17 18 19
          16 17 18 19 20 21
          22 23 24 25 26 27
          28 29 30 31 28 29
          30 31 32 33 34 35
          36 37 38 39 40 41
          42 43 40 41 42 43
          44 45 46 47 48 49
          50 51 52 53 54 55
          52 53 54 55 56 57
          58 59 60 61 62 63
          64 65 66 67 64 65
          66 67 68 69 70 71
          72 73 74 12 75 76
          77 16 75 76 77 16
          78 79 80 20 61 81
          82 62 65 83 84 66
          65 83 84 66 69 85
          86 70 87 88 89 90
          91 92 93 94 91 92
          93 94 95 96 97 98
          37 99 100 38 41 101
          102 42 41 101 102 42
          45 103 104 46 81 105
          106 82 83 107 108 84
          83 107 108 84 85 109
          110 86 26 111 112 113
          30 114 115 116 30 114
          115 116 34 117 118 119
          63 120 121 60 67 122
          123 64 67 122 123 64
          71 124 125 68 126 127
          128 129 130 131 132 133
          130 131 132 133 134 135
          136 137 138 72 139 140
          141 75 142 143 141 75
          142 143 144 78 145 146
          150 127 151 152 153 131
          154 155 153 131 154 155
          156 135 157 158 159 160
          161 138 162 163 164 141
          162 163 164 141 165 166
          167 144 120 168 169 170
          122 171 172 173 122 171
          172 173 124 174 175 176
          15 139 72 12 19 142
          75 16 19 142 75 16
          23 145 78 20 177 0
          3 178 179 4 7 180
          179 4 7 180 181 8
          11 182 183 184 726 727
          185 186 728 729 185 186
          728 729 187 188 730 731
          192 193 90 89 194 195
          94 93 194 195 94 93
          196 197 98 97 198 106
          105 199 200 108 107 201
          200 108 107 201 202 110
          109 203 204 13 12 74
          205 17 16 77 205 17
          16 77 206 21 20 80
          207 208 209 210 211 212
          213 214 211 212 213 214
          215 216 217 218 732 733
          734 219 735 736 737 220
          735 736 737 220 738 739
          740 221 222 219 734 223
          224 220 737 225 224 220
          737 225 226 221 740 227
          228 229 170 169 230 231
          173 172 230 231 173 172
          232 233 176 175 234 140
          50 49 235 143 54 53
          235 143 54 53 236 146
          58 57 129 237 238 126
          133 239 240 130 133 239
          240 130 137 241 242 134
          243 244 245 246 247 248
          249 250 247 248 249 250
          251 252 253 254 255 256
          159 234 257 258 162 235
          257 258 162 235 259 260
          165 236 261 262 263 264
          265 266 267 268 265 266
          267 268 269 270 271 272
          273 147 38 100 274 148
          42 102 274 148 42 102
          275 149 46 104 121 276
          277 60 123 278 279 64
          123 278 279 64 125 280
          281 68 282 246 741 283
          284 250 742 285 284 250
          742 285 286 254 743 287
          291 292 82 106 293 294
          84 108 293 294 84 108
          295 296 86 110 99 297
          62 298 101 299 66 300
          101 299 66 300 103 301
          70 302 303 304 147 273
          305 306 148 274 305 306
          148 274 307 308 149 275
          105 204 74 199 107 205
          77 201 107 205 77 201
          109 206 80 203 288 309
          151 282 289 310 154 284
          289 310 154 284 290 311
          157 286 312 313 13 204
          314 315 17 205 314 315
          17 205 316 317 21 206
          99 298 292 100 101 300
          294 102 101 300 294 102
          103 302 296 104 292 298
          62 82 294 300 66 84
          294 300 66 84 296 302
          70 86 151 127 126 243
          154 131 130 247 154 131
          130 247 157 135 134 251
          246 282 151 243 250 284
          154 247 250 284 154 247
          254 286 157 251 100 292
          291 273 102 294 293 274
          102 294 293 274 104 296
          295 275 324 325 297 326
          327 328 299 329 327 328
          299 329 330 331 301 332
          325 63 62 297 328 67
          66 299 328 67 66 299
          331 71 70 301 333 168
          325 324 334 171 328 327
          334 171 328 327 335 174
          331 330 168 120 63 325
          171 122 67 328 171 122
          67 328 174 124 71 331
          312 336 209 337 314 338
          213 339 314 338 213 339
          316 340 217 341 88 256
          255 89 92 258 257 93
          92 258 257 93 96 260
          259 97 342 198 199 343
          344 200 201 345 344 200
          201 345 346 202 203 347
          90 264 348 349 94 268
          350 351 94 268 350 351
          98 272 352 353 354 355
          276 121 356 357 278 123
          356 357 278 123 358 359
          280 125 360 361 333 362
          363 364 334 365 363 364
          334 365 366 367 335 368
          336 277 210 209 338 279
          214 213 338 279 214 213
          340 281 218 217 73 72
          138 161 76 75 141 164
          76 75 141 164 79 78
          144 167 372 14 13 313
          373 18 17 315 373 18
          17 315 374 22 21 317
          168 333 361 169 171 334
          364 172 171 334 364 172
          174 335 367 175 378 361
          360 369 379 364 363 370
          379 364 363 370 380 367
          366 371 381 291 106 198
          382 293 108 200 382 293
          108 200 383 295 110 202
          354 177 178 384 356 179
          180 385 356 179 180 385
          358 181 182 386 37 326
          297 99 41 329 299 101
          41 329 299 101 45 332
          301 103 324 390 362 333
          327 391 365 334 327 391
          365 334 330 392 368 335
          394 393 399 400 396 395
          401 402 396 395 401 402
          398 397 403 404 2 387
          189 405 6 388 190 406
          6 388 190 406 10 389
          191 407 400 399 408 409
          402 401 410 411 402 401
          410 411 404 403 412 413
          414 24 27 415 416 28
          31 417 416 28 31 417
          418 32 35 419 420 87
          90 349 421 91 94 351
          421 91 94 351 422 95
          98 353 199 74 73 343
          201 77 76 345 201 77
          76 345 203 80 79 347
          336 61 60 277 338 65
          64 279 338 65 64 279
          340 69 68 281 426 193
          192 427 428 195 194 429
          428 195 194 429 430 197
          196 431 207 432 433 208
          211 434 435 212 211 434
          435 212 215 436 437 216
          326 438 390 324 329 439
          391 327 329 439 391 327
          332 440 392 330 441 375
          362 390 442 376 365 391
          442 376 365 391 443 377
          368 392 381 303 273 291
          382 305 274 293 382 305
          274 293 383 307 275 295
          348 111 26 25 350 114
          30 29 350 114 30 29
          352 117 34 33 319 444
          309 318 321 445 310 320
          321 445 310 320 323 446
          311 322 432 207 447 448
          434 211 449 450 434 211
          449 450 436 215 451 452
          238 244 243 126 240 248
          247 130 240 248 247 130
          242 252 251 134 140 234
          159 138 143 235 162 141
          143 235 162 141 146 236
          165 144 161 453 343 73
          164 454 345 76 164 454
          345 76 167 455 347 79
          456 457 458 459 460 461
          462 463 460 461 462 463
          464 465 466 467 61 336
          312 81 65 338 314 83
          65 338 314 83 69 340
          316 85 81 312 204 105
          83 314 205 107 83 314
          205 107 85 316 206 109
          468 469 372 337 470 471
          373 339 470 471 373 339
          472 473 374 341 468 337
          209 208 470 339 213 212
          470 339 213 212 472 341
          217 216 474 255 234 49
          475 257 235 53 475 257
          235 53 476 259 236 57
          372 313 312 337 373 315
          314 339 373 315 314 339
          374 317 316 341 152 151
          309 444 155 154 310 445
          155 154 310 445 158 157
          311 446 477 478 139 15
          479 480 142 19 479 480
          142 19 481 482 145 23
          483 484 129 128 485 486
          133 132 485 486 133 132
          487 488 137 136 489 319
          304 303 490 321 306 305
          490 321 306 305 491 323
          308 307 744 741 246 245
          745 742 250 249 745 742
          250 249 746 743 254 253
          492 381 198 342 493 382
          200 344 493 382 200 344
          494 383 202 346 88 495
          159 256 92 496 162 258
          92 496 162 258 96 497
          165 260 498 499 448 447
          500 501 450 449 500 501
          450 449 502 503 452 451
          223 414 415 222 225 416
          417 224 225 416 417 224
          227 418 419 226 354 121
          120 170 356 123 122 173
          356 123 122 173 358 125
          124 176 394 3 2 405
          396 7 6 406 396 7
          6 406 398 11 10 407
          453 161 160 483 454 164
          163 485 454 164 163 485
          455 167 166 487 495 504
          160 159 496 505 163 162
          496 505 163 162 497 506
          166 165 492 489 303 381
          493 490 305 382 493 490
          305 382 494 491 307 383
          264 90 193 261 268 94
          195 265 268 94 195 265
          272 98 197 269 507 508
          184 509 510 511 186 512
          510 511 186 512 513 514
          188 515 237 129 484 516
          239 133 486 517 239 133
          486 517 241 137 488 518
          469 519 520 521 471 522
          523 524 471 522 523 524
          473 525 526 527 457 456
          528 51 461 460 529 55
          461 460 529 55 465 464
          530 59 531 342 343 453
          532 344 345 454 532 344
          345 454 533 346 347 455
          238 183 245 244 240 185
          249 248 240 185 249 248
          242 187 253 252 1 378
          369 423 5 379 370 424
          5 379 370 424 9 380
          371 425 504 484 483 160
          505 486 485 163 505 486
          485 163 506 488 487 166
          453 483 128 531 454 485
          132 532 454 485 132 532
          455 487 136 533 747 726
          184 508 748 728 186 511
          748 728 186 511 749 730
          188 514 478 457 51 50
          480 461 55 54 480 461
          55 54 482 465 59 58
          400 409 384 178 402 411
          385 180 402 411 385 180
          404 413 386 182 420 349
          348 534 421 351 350 535
          421 351 350 535 422 353
          352 536 468 537 519 469
          470 538 522 471 470 538
          522 471 472 539 525 473
          509 184 183 238 512 186
          185 240 512 186 185 240
          515 188 187 242 170 229
          177 354 173 231 179 356
          173 231 179 356 176 233
          181 358 499 498 409 408
          501 500 411 410 501 500
          411 410 503 502 413 412
          540 541 459 458 542 543
          463 462 542 543 463 462
          544 545 467 466 87 546
          495 88 91 547 496 92
          91 547 496 92 95 548
          497 96 228 169 361 378
          230 172 364 379 230 172
          364 379 232 175 367 380
          549 550 276 355 551 552
          278 357 551 552 278 357
          553 554 280 359 478 50
          140 139 480 54 143 142
          480 54 143 142 482 58
          146 145 540 555 556 521
          542 557 558 524 542 557
          558 524 544 559 560 527
          36 441 390 438 40 442
          391 439 40 442 391 439
          44 443 392 440 561 562
          237 516 563 564 239 517
          563 564 239 517 565 566
          241 518 152 444 319 489
          155 445 321 490 155 445
          321 490 158 446 323 491
          567 568 87 420 569 570
          91 421 569 570 91 421
          571 572 95 422 150 492
          342 531 153 493 344 532
          153 493 344 532 156 494
          346 533 477 15 14 555
          479 19 18 557 479 19
          18 557 481 23 22 559
          531 128 127 150 532 132
          131 153 532 132 131 153
          533 136 135 156 24 534
          348 25 28 535 350 29
          28 535 350 29 32 536
          352 33 504 495 546 561
          505 496 547 563 505 496
          547 563 506 497 548 565
          474 192 89 255 475 194
          93 257 475 194 93 257
          476 196 97 259 573 574
          575 427 576 577 578 429
          576 577 578 429 579 580
          581 431 546 582 562 561
          547 583 564 563 547 583
          564 563 548 584 566 565
          561 516 484 504 563 517
          486 505 563 517 486 505
          565 518 488 506 555 540
          458 477 557 542 462 479
          557 542 462 479 559 544
          466 481 550 210 277 276
          552 214 279 278 552 214
          279 278 554 218 281 280
          744 245 183 727 745 249
          185 729 745 249 185 729
          746 253 187 731 210 550
          447 207 214 552 449 211
          214 552 449 211 218 554
          451 215 427 575 585 426
          429 578 586 428 429 578
          586 428 431 581 587 430
          150 152 489 492 153 155
          490 493 153 155 490 493
          156 158 491 494 48 588
          574 573 52 589 577 576
          52 589 577 576 56 590
          580 579 573 474 49 48
          576 475 53 52 576 475
          53 52 579 476 57 56
          562 509 238 237 564 512
          240 239 564 512 240 239
          566 515 242 241 372 556
          555 14 373 558 557 18
          373 558 557 18 374 560
          559 22 534 591 567 420
          535 592 569 421 535 592
          569 421 536 593 571 422
          521 556 372 469 524 558
          373 471 524 558 373 471
          527 560 374 473 178 3
          394 400 180 7 396 402
          180 7 396 402 182 11
          398 404 263 594 595 596
          267 597 598 599 267 597
          598 599 271 600 601 602
          549 355 354 384 551 357
          356 385 551 357 356 385
          553 359 358 386 0 228
          378 1 4 230 379 5
          4 230 379 5 8 232
          380 9 426 585 603 262
          428 586 604 266 428 586
          604 266 430 587 605 270
          582 546 87 568 583 547
          91 570 583 547 91 570
          584 548 95 572 474 573
          427 192 475 576 429 194
          475 576 429 194 476 579
          431 196 262 603 594 263
          266 604 597 267 266 604
          597 267 270 605 600 271
          537 468 208 433 538 470
          212 435 538 470 212 435
          539 472 216 437 36 438
          326 37 40 439 329 41
          40 439 329 41 44 440
          332 45 541 540 521 520
          543 542 524 523 543 542
          524 523 545 544 527 526
          1 423 387 2 5 424
          388 6 5 424 388 6
          9 425 389 10 498 447
          550 549 500 449 552 551
          500 449 552 551 502 451
          554 553 228 0 177 229
          230 4 179 231 230 4
          179 231 232 8 181 233
          507 582 568 606 510 583
          570 607 510 583 570 607
          513 584 572 608 588 48
          51 528 589 52 55 529
          589 52 55 529 590 56
          59 530 609 567 591 610
          611 569 592 612 611 569
          592 612 613 571 593 614
          596 595 615 112 599 598
          616 115 599 598 616 115
          602 601 617 118 414 591
          534 24 416 592 535 28
          416 592 535 28 418 593
          536 32 262 261 193 426
          266 265 195 428 266 265
          195 428 270 269 197 430
          223 610 591 414 225 612
          592 416 225 612 592 416
          227 614 593 418 477 458
          457 478 479 462 461 480
          479 462 461 480 481 466
          465 482 610 747 508 609
          612 748 511 611 612 748
          511 611 614 749 514 613
          549 384 409 498 551 385
          411 500 551 385 411 500
          553 386 413 502 223 734
          747 610 225 737 748 612
          225 737 748 612 227 740
          749 614 596 618 264 263
          599 619 268 267 599 619
          268 267 602 620 272 271
          507 606 609 508 510 607
          611 511 510 607 611 511
          513 608 613 514 582 507
          509 562 583 510 512 564
          583 510 512 564 584 513
          515 566 113 621 27 26
          116 622 31 30 116 622
          31 30 119 623 35 34
          112 615 624 113 115 616
          625 116 115 616 625 116
          118 617 626 119 609 606
          568 567 611 607 570 569
          611 607 570 569 613 608
          572 571 112 111 618 596
          115 114 619 599 115 114
          619 599 118 117 620 602
          113 624 627 621 116 625
          628 622 116 625 628 622
          119 626 629 623 111 348
          264 618 114 350 268 619
          114 350 268 619 117 352
          272 620 27 621 627 630
          31 622 628 631 31 622
          628 631 35 623 629 632
          633 27 630 634 635 31
          631 636 635 31 631 636
          637 35 632 638 639 633
          634 640 641 635 636 642
          641 635 636 642 643 637
          638 644 645 639 640 646
          647 641 642 648 647 641
          642 648 649 643 644 650
          651 415 27 633 652 417
          31 635 652 417 31 635
          653 419 35 637 654 651
          633 639 655 652 635 641
          655 652 635 641 656 653
          637 643 657 654 639 645
          658 655 641 647 658 655
          641 647 659 656 643 649
          660 222 415 651 661 224
          417 652 661 224 417 652
          662 226 419 653 663 660
          651 654 664 661 652 655
          664 661 652 655 665 662
          653 656 666 663 654 657
          667 664 655 658 667 664
          655 658 668 665 656 659
          669 219 222 660 670 220
          224 661 670 220 224 661
          671 221 226 662 672 669
          660 663 673 670 661 664
          673 670 661 664 674 671
          662 665 675 672 663 666
          676 673 664 667 676 673
          664 667 677 674 665 668
          750 732 219 669 751 735
          220 670 751 735 220 670
          752 738 221 671 678 750
          669 672 679 751 670 673
          679 751 670 673 680 752
          671 674 681 678 672 675
          682 679 673 676 682 679
          673 676 683 680 674 677
          684 753 750 678 685 754
          751 679 685 754 751 679
          686 755 752 680 687 684
          678 681 688 685 679 682
          688 685 679 682 689 686
          680 683 690 756 753 684
          691 757 754 685 691 757
          754 685 692 758 755 686
          693 690 684 687 694 691
          685 688 694 691 685 688
          695 692 686 689 696 759
          756 690 697 760 757 691
          697 760 757 691 698 761
          758 692 699 696 690 693
          700 697 691 694 700 697
          691 694 701 698 692 695
          702 762 759 696 703 763
          760 697 703 763 760 697
          704 764 761 698 705 702
          696 699 706 703 697 700
          706 703 697 700 707 704
          698 701 708 645 646 709
          710 647 648 711 710 647
          648 711 712 649 650 713
          765 708 709 766 767 710
          711 768 767 710 711 768
          769 712 713 770 714 657
          645 708 715 658 647 710
          715 658 647 710 716 659
          649 712 771 714 708 765
          772 715 710 767 772 715
          710 767 773 716 712 769
          717 666 657 714 718 667
          658 715 718 667 658 715
          719 668 659 716 774 717
          714 771 775 718 715 772
          775 718 715 772 776 719
          716 773 720 675 666 717
          721 676 667 718 721 676
          667 718 722 677 668 719
          777 720 717 774 778 721
          718 775 778 721 718 775
          779 722 719 776 723 681
          675 720 724 682 676 721
          724 682 676 721 725 683
          677 722 780 723 720 777
          781 724 721 778 781 724
          721 778 782 725 722 779
          783 687 681 723 784 688
          682 724 784 688 682 724
          785 689 683 725 786 783
          723 780 787 784 724 781
          787 784 724 781 788 785
          725 782 789 693 687 783
          790 694 688 784 790 694
          688 784 791 695 689 785
          792 699 693 789 793 700
          694 790 793 700 694 790
          794 701 695 791 795 705
          699 792 796 706 700 793
          796 706 700 793 797 707
          701 794
        </DataArray>
        <DataArray type="Int64" Name="offsets" format="ascii" RangeMin="8" RangeMax="3632">
          8 16 24 32 40 48
          56 64 72 80 88 96
          104 112 120 128 136 144
          152 160 168 176 184 192
          200 208 216 224 232 240
          248 256 264 272 280 288
          296 304 312 320 328 336
          344 352 360 368 376 384
          392 400 408 416 424 432
          440 448 456 464 472 480
          488 496 504 512 520 528
          536 544 552 560 568 576
          584 592 600 608 616 624
          632 640 648 656 664 672
          680 688 696 704 712 720
          728 736 744 752 760 768
          776 784 792 800 808 816
          824 832 840 848 856 864
          872 880 888 896 904 912
          920 928 936 944 952 960
          968 976 984 992 1000 1008
          1016 1024 1032 1040 1048 1056
          1064 1072 1080 1088 1096 1104
          1112 1120 1128 1136 1144 1152
          1160 1168 1176 1184 1192 1200
          1208 1216 1224 1232 1240 1248
          1256 1264 1272 1280 1288 1296
          1304 1312 1320 1328 1336 1344
          1352 1360 1368 1376 1384 1392
          1400 1408 1416 1424 1432 1440
          1448 1456 1464 1472 1480 1488
          1496 1504 1512 1520 1528 1536
          1544 1552 1560 1568 1576 1584
          1592 1600 1608 1616 1624 1632
          1640 1648 1656 1664 1672 1680
          1688 1696 1704 1712 1720 1728
          1736 1744 1752 1760 1768 1776
          1784 1792 1800 1808 1816 1824
          1832 1840 1848 1856 1864 1872
          1880 1888 1896 1904 1912 1920
          1928 1936 1944 1952 1960 1968
          1976 1984 1992 2000 2008 2016
          2024 2032 2040 2048 2056 2064
          2072 2080 2088 2096 2104 2112
          2120 2128 2136 2144 2152 2160
          2168 2176 2184 2192 2200 2208
          2216 2224 2232 2240 2248 2256
          2264 2272 2280 2288 2296 2304
          2312 2320 2328 2336 2344 2352
          2360 2368 2376 2384 2392 2400
          2408 2416 2424 2432 2440 2448
          2456 2464 2472 2480 2488 2496
          2504 2512 2520 2528 2536 2544
          2552 2560 2568 2576 2584 2592
          2600 2608 2616 2624 2632 2640
          2648 2656 2664 2672 2680 2688
          2696 2704 2712 2720 2728 2736
          2744 2752 2760 2768 2776 2784
          2792 2800 2808 2816 2824 2832
          2840 2848 2856 2864 2872 2880
          2888 2896 2904 2912 2920 2928
          2936 2944 2952 2960 2968 2976
          2984 2992 3000 3008 3016 3024
          3032 3040 3048 3056 3064 3072
          3080 3088 3096 3104 3112 3120
          3128 3136 3144 3152 3160 3168
          3176 3184 3192 3200 3208 3216
          3224 3232 3240 3248 3256 3264
          3272 3280 3288 3296 3304 3312
          3320 3328 3336 3344 3352 3360
          3368 3376 3384 3392 3400 3408
          3416 3424 3432 3440 3448 3456
          3464 3472 3480 3488 3496 3504
          3512 3520 3528 3536 3544 3552
          3560 3568 3576 3584 3592 3600
          3608 3616 3624 3632
        </DataArray>
        <DataArray type="UInt8" Name="types" format="ascii" RangeMin="12" RangeMax="12">
          12 12 12 12 12 12
          12 12 12 12 12 12
          12 12 12 12 12 12
          12 12 12 12 12 12
          12 12 12 12 12 12
          12 12 12 12 12 12
          12 12 12 12 12 12
          12 12 12 12 12 12
          12 12 12 12 12 12
          12 12 12 12 12 12
          12 12 12 12 12 12
          12 12 12 12 12 12
          12 12 12 12 12 12
          12 12 12 12 12 12
          12 12 12 12 12 12
          12 12 12 12 12 12
          12 12 12 12 12 12
          12 12 12 12 12 12
          12 12 12 12 12 12
          12 12 12 12 12 12
          12 12 12 12 12 12
          12 12 12 12 12 12
          12 12 12 12 12 12
          12 12 12 12 12 12
          12 12 12 12 12 12
          12 12 12 12 12 12
          12 12 12 12 12 12
          12 12 12 12 12 12
          12 12 12 12 12 12
          12 12 12 12 12 12
          12 12 12 12 12 12
          12 12 12 12 12 12
          12 12 12 12 12 12
          12 12 12 12 12 12
          12 12 12 12 12 12
          12 12 12 12 12 12
          12 12 12 12 12 12
          12 12 12 12 12 12
          12 12 12 12 12 12
          12 12 12 12 12 12
          12 12 12 12 12 12
          12 12 12 12 12 12
          12 12 12 12 12 12
          12 12 12 12 12 12
          12 12 12 12 12 12
          12 12 12 12 12 12
          12 12 12 12 12 12
          12 12 12 12 12 12
          12 12 12 12 12 12
          12 12 12 12 12 12
          12 12 12 12 12 12
          12 12 12 12 12 12
          12 12 12 12 12 12
          12 12 12 12 12 12
          12 12 12 12 12 12
          12 12 12 12 12 12
          12 12 12 12 12 12
          12 12 12 12 12 12
          12 12 12 12 12 12
          12 12 12 12 12 12
          12 12 12 12 12 12
          12 12 12 12 12 12
          12 12 12 12 12 12
          12 12 12 12 12 12
          12 12 12 12 12 12
          12 12 12 12 12 12
          12 12 12 12 12 12
          12 12 12 12 12 12
          12 12 12 12 12 12
          12 12 12 12 12 12
          12 12 12 12 12 12
          12 12 12 12 12 12
          12 12 12 12 12 12
          12 12 12 12 12 12
          12 12 12 12 12 12
          12 12 12 12
        </DataArray>
      </Cells>
    </Piece>
  </UnstructuredGrid>
</VTKFile>
