<?xml version="1.0"?>
<VTKFile type="UnstructuredGrid" version="0.1" byte_order="LittleEndian" header_type="UInt32" compressor="vtkZLibDataCompressor">
  <UnstructuredGrid>
    <Piece NumberOfPoints="756" NumberOfCells="468">
      <PointData>
        <DataArray type="Int32" Name="libmesh_node_id" format="ascii" RangeMin="120" RangeMax="2168">
          120 121 122 123 124 125
          126 127 128 129 130 131
          132 133 134 135 136 137
          138 139 140 141 142 143
          144 145 146 147 148 149
          150 151 152 153 154 155
          156 157 158 159 160 161
          162 163 164 165 166 167
          168 169 170 171 172 173
          174 175 176 177 178 179
          240 241 242 243 244 245
          246 247 248 249 250 251
          252 253 254 255 256 257
          258 259 260 261 262 263
          264 265 266 267 268 269
          330 331 332 333 334 335
          336 337 338 339 340 341
          342 343 344 345 346 347
          348 349 350 351 352 353
          354 355 356 357 358 359
          420 421 422 423 424 425
          426 427 428 429 430 431
          432 433 434 435 436 437
          438 439 440 441 442 443
          444 445 446 447 448 449
          510 511 512 513 514 515
          516 517 518 519 520 521
          522 523 524 525 526 527
          528 529 530 531 532 533
          534 535 536 537 538 539
          600 601 602 603 604 605
          606 607 608 609 610 611
          612 613 614 615 616 617
          618 619 620 621 622 623
          624 625 626 627 628 629
          690 691 692 693 694 695
          696 697 698 699 700 701
          702 703 704 705 706 707
          708 709 710 711 712 713
          714 715 716 717 718 719
          780 781 782 783 784 785
          786 787 788 789 790 791
          792 793 794 795 796 797
          798 799 800 801 802 803
          804 805 806 807 808 809
          876 877 878 879 880 881
          882 883 884 885 886 887
          888 889 890 891 892 893
          894 895 896 897 898 899
          900 901 902 903 904 905
          906 907 908 909 910 911
          912 913 914 915 916 917
          918 919 920 921 922 923
          924 925 926 927 928 929
          930 931 932 933 934 935
          936 937 938 939 940 941
          942 943 944 945 946 947
          948 949 950 951 952 953
          954 955 956 957 958 959
          960 961 962 963 964 965
          966 967 968 969 970 971
          972 973 974 975 976 977
          978 979 980 981 982 983
          984 985 986 987 988 989
          990 991 992 993 994 995
          996 997 998 999 1000 1001
          1002 1003 1004 1005 1006 1007
          1008 1009 1010 1011 1012 1013
          1014 1015 1016 1017 1018 1019
          1020 1021 1022 1023 1024 1025
          1026 1027 1028 1029 1030 1031
          1032 1033 1034 1035 1036 1037
          1038 1039 1040 1041 1042 1043
          1044 1045 1046 1047 1048 1049
          1050 1051 1052 1053 1054 1055
          1056 1057 1058 1059 1060 1061
          1062 1063 1064 1065 1066 1067
          1068 1069 1070 1071 1072 1073
          1074 1075 1076 1077 1078 1079
          1080 1081 1082 1083 1084 1085
          1086 1087 1088 1089 1090 1091
          1092 1093 1094 1095 1096 1097
          1098 1099 1100 1101 1102 1103
          1104 1105 1106 1107 1108 1109
          1110 1111 1112 1113 1114 1115
          1116 1117 1118 1119 1120 1121
          1122 1123 1124 1125 1126 1127
          1128 1129 1130 1131 1132 1133
          1134 1135 1136 1137 1138 1139
          1140 1141 1142 1143 1144 1145
          1146 1147 1148 1149 1150 1151
          1152 1153 1154 1155 1156 1157
          1158 1159 1160 1161 1162 1163
          1164 1165 1166 1167 1168 1169
          1170 1171 1172 1173 1174 1175
          1176 1177 1178 1179 1180 1181
          1182 1183 1184 1185 1186 1187
          1188 1189 1190 1191 1192 1193
          1194 1195 1196 1197 1198 1199
          1200 1201 1202 1203 1204 1205
          1206 1207 1208 1209 1210 1211
          1212 1213 1214 1215 1216 1217
          1218 1219 1220 1221 1222 1223
          1224 1225 1226 1227 1228 1229
          1230 1231 1232 1233 1234 1235
          1236 1237 1238 1239 1240 1241
          1242 1243 1244 1245 1246 1247
          1248 1249 1250 1251 1252 1253
          1254 1255 1256 1257 1258 1259
          1260 1261 1262 1263 1264 1265
          1266 1267 1268 1269 1270 1271
          1893 1894 1895 1896 1897 1898
          1920 1921 1922 1923 1924 1925
          1947 1948 1949 1974 1975 1976
          2001 2002 2003 2028 2029 2030
          2055 2056 2057 2112 2113 2114
          2115 2116 2117 2124 2125 2126
          2127 2128 2129 2130 2131 2132
          2133 2134 2135 2148 2149 2150
          2151 2152 2153 2164 2166 2168
          1926 1899 1927 1900 1928 1901
          1950 1951 1952 1953 1954 1955
          1977 1978 1979 2004 2005 2006
          2031 2032 2033 2058 2059 2060
          2142 2144 2146 2163 2143 2096
          2165 2145 2100 2167 2147 2104
        </DataArray>
        <DataArray type="Float64" Name="resid_x" format="ascii" RangeMin="-2.793162922453911" RangeMax="0.000046464046475375165">
          3.3238762686682577e-7 -1.2759633633712189 7.704381763673496e-7 -2.5518740586661695 6.596947765835637e-7 -1.2758883133585552
          -1.644902059005915e-8 -1.2767749248203377 -3.357650912860777e-8 -2.553475399849967 3.13711970734154e-7 -1.27666844831651
          -8.600685043047562e-7 -1.2780703182527688 -9.183592288852793e-7 -2.556031024589867 -1.1502056462830978e-7 -1.277913471725412
          -8.375248790049028e-7 -1.2801736461699573 -9.805873141255361e-7 -2.560177193632972 -2.5795554636776075e-7 -1.2799308302858385
          -8.457842308740027e-7 -1.2836938040954018 -0.0000010434009026782931 -2.567110477027171 -2.7095084975670147e-7 -1.28329823374476
          -8.788445589047456e-7 -1.289912504282618 -0.0000011340250285485354 -2.5793333357023727 -2.6485808790610577e-7 -1.2892169477937012
          -9.164308548692546e-7 -1.301846567692798 -0.0000012172742217542165 -2.6027253952554985 -1.5518483220677837e-7 -1.3004655546924218
          -9.88369588617033e-7 -1.3274759190308218 -0.0000013836823664625797 -2.6528086984866195 1.6360643073642933e-7 -1.324450100979734
          -7.722553257982767e-7 -1.3997135374780114 -0.000001040990392664476 -2.793162922453911 0.0000017564946080961263 -1.390648608775007
          -2.1380090267641982e-8 -0.8607572544170499 3.0281052573744027e-7 -1.7133547936809317 0.000003044401744395353 -0.849010155603286
          0.000003194756569291357 0.0000040647860320985885 0.000002217094502543482 0.000001528696345731717 0.0000028195626838867227 0.0000012070281584231068
          8.270676162824842e-7 8.527006313263641e-7 1.899725095011462e-7 7.812804214690772e-7 8.039322783037761e-7 2.700027329494148e-7
          7.32701538108671e-7 8.152092032531755e-7 3.942891717567676e-7 7.028164799027792e-7 7.903959159394347e-7 5.150181738855508e-7
          7.603050882210027e-7 7.490887132810542e-7 6.614695223783329e-7 8.969855648244263e-7 7.13454970435734e-7 0.0000011072618049112748
          0.0000022956722116607153 0.000002897667898404954 0.000004287651775736201 0.0000018991429063530685 0.0000028731946717375223 0.0000061740439793456225
          3.715471846854612e-7 -2.583892252383535e-7 -8.465257617107369e-8 3.6902405464722676e-8 1.0871462186035075e-7 2.3059990761353788e-7
          -1.9086971136950126e-7 -6.20677433671446e-7 -8.049601907256232e-8 -6.76018188094929e-8 -5.307075230387426e-7 -3.2430277019379616e-8
          -1.1763126006592017e-7 -6.376035351918219e-7 -1.1504970420794791e-8 -1.9465675871188637e-7 -7.969767689131046e-7 7.226090636969218e-8
          -2.9446140448197156e-7 -0.0000010289629638338127 3.2449370512832587e-7 -5.302013473817979e-7 -0.0000015063868793463442 0.0000010545496691438672
          6.790224276187473e-7 7.348209002389083e-7 0.000005288765503874693 0.0000020861572744348966 0.0000035569691070116982 0.000009034644092718175
          -6.479198932929364e-8 -5.782783245589229e-7 -1.9980737175906427e-8 5.750444631580365e-8 1.8987629135658324e-8 2.4079840155177834e-7
          -1.2785213121535577e-7 -5.350727274588962e-7 -9.344496954000192e-9 -5.199221142504484e-8 -5.137152694345559e-7 2.3440854146628e-8
          -1.046556474815219e-7 -6.309296554096733e-7 7.069905483270134e-8 -1.9277715446186505e-7 -8.182327534411726e-7 1.9824624752917686e-7
          -3.0576555676287143e-7 -0.0000010868817904574612 5.383525554236712e-7 -4.980654796371553e-7 -0.000001512181638463339 0.0000014826377979781924
          7.380057022166042e-7 8.377229706590938e-7 0.000006096355034124201 0.0000031487142608532803 0.000005703524078581879 0.000010319760115673482
          1.5182640222821675e-7 -2.556064453429485e-7 1.943087356570672e-7 4.3456725551394015e-8 -7.432406656793233e-8 2.463469681579511e-7
          -1.0064801703180137e-7 -4.92394200191093e-7 5.026610827574274e-8 -6.459982382356344e-8 -5.38797922278178e-7 6.744506630962377e-8
          -1.18688326611327e-7 -6.609190139617027e-7 1.3396095976947464e-7 -2.0104911202523112e-7 -8.559677736608151e-7 3.050554626682356e-7
          -3.0643874338043275e-7 -0.000001122876529535688 7.307810453438535e-7 -3.827710862713829e-7 -0.0000013364731431542154 0.0000019031362114008132
          9.512650237519793e-7 0.0000012696713657112113 0.000006597154045717701 0.000002889089100233111 0.000005405302697936154 0.000009646537745960915
          3.9449137989588934e-7 6.72167668192003e-8 2.8181182765152357e-7 3.583067564871811e-8 -1.4397486614026178e-7 2.5425756000618804e-7
          -8.76326892162993e-8 -4.853842485719184e-7 9.460602146127428e-8 -7.659282186267546e-8 -5.622725980369836e-7 1.0081337575851279e-7
          -1.2913558844473982e-7 -6.809390930007098e-7 1.864154999253742e-7 -1.9235238979398162e-7 -8.702253773140711e-7 3.9930356410255996e-7
          -2.6479976145132866e-7 -0.0000010903629592551312 9.059121846011209e-7 -2.2490260764840286e-7 -0.000001079442725537838 0.000002243938759249886
          0.0000013722337212085378 0.0000020382503177485134 0.000006945542020075912 0.00000287423121586583 0.0000053535261672899015 0.000008886269587810025
          6.290311335144239e-7 -7.480568231521545e-8 1.7119899720086096e-8 4.638212736107761e-8 -1.9396105210844894e-7 2.6974582267857983e-7
          -8.505959336879698e-8 -5.006553739361763e-7 1.371404089178796e-7 -8.934867645749023e-8 -5.772944666748714e-7 1.182625490869782e-7
          -1.3405807230970623e-7 -6.890075850973787e-7 2.294526190160795e-7 -1.736462446055853e-7 -8.492763051703989e-7 4.800111156333386e-7
          -1.9266833384268267e-7 -9.875163469175163e-7 0.0000010591724176611805 4.687987664730997e-9 -6.93299680665227e-7 0.000002521929764576214
          0.0000017703735446517044 0.0000027329008756016293 0.0000070315674911558546 0.0000032631766335444734 0.000006148308917403034 0.000008534118180858474
          0.0000021102737922662484 0.000004188657053205702 0.000002544766316114888 0.000003465939192759393 0.000006899300065033032 0.0000034229346461689403
          0.000002346134352015916 0.000004532384604738482 0.0000025323399245325007 2.1258113169775328e-7 7.716069849728058e-8 4.5173125262643055e-7
          -1.4105421031196386e-7 -6.952065843002231e-7 1.8848808380766968e-7 -1.2780857538974288e-7 -8.222556877601761e-7 4.714371257819039e-7
          -9.09854737107807e-8 -8.583736974543399e-7 0.0000011070788981104585 2.32344943063012e-7 -3.317807032443554e-7 0.0000026628264119255007
          0.000002120185538245778 0.000003387305472890567 0.000007128629870400971 0.000003087299778686825 0.000005891514960054689 0.000008049746808180824
          0.000002041199464342114 0.0000024742920212705855 0.0000027263395055987516 0.0000017206273182912568 0.000002974229782681803 0.0000025117613802194683
          2.572605296569108e-7 -3.2215689049763796e-7 0.0000016215817868481253 2.879697207358589e-7 -5.336614217199553e-7 0.0000027405135932800917
          7.42446947477049e-7 1.3816959687495967e-7 0.000004745502814373914 0.000002024178494042239 0.0000024633856129385734 0.000008098083516761001
          0.000005437745586145404 0.000009477942211622015 0.00001466411231410003 0.000007138272588524952 0.000013566626186789499 0.000015162273075464139
          -0.000004473113154270306 -0.000002821400511832106 -0.000003595849377823618 -0.000008031284753219625 -0.000007185352259403768 -0.000004221690959413382
          -0.000005047476666374118 -0.00001380753899748663 -0.000001583340300825159 1.4170052312079129e-8 -7.892463510933423e-7 -0.000006047059139466238
          -0.0000016193568050867913 -0.000006972389503252623 -0.0000020410694131986484 -0.000011926443496758192 -4.7020096237415654e-7 -0.000005754036844793017
          0.000007122671256708235 -0.0000013884294041283107 0.00000394606482884835 0.000010773862947240087 -0.0000027610377982580092 0.000007185185896197571
          0.000004684245205978377 -0.0000015951764973098914 0.00000354758470627603 0.0000010900288403836722 0.0000022998812773955546 0.000004206229326120248
          0.000001518812462571878 0.000002058407967187037 0.0000043033779553725005 0.000007836878304912087 0.000002555535591496072 0.0000034108191504234053
          0.000006425362838319293 0.000006160420581075021 0.0000024507301681700455 0.000004823549804688909 0.0000032931037198397073 -0.000002008315873686106
          0.0000026844974033782276 0.00000863389581923224 0.000006780305473921833 -0.000004433509464885077 0.00000480480479724682 0.000013825917685755806
          0.000013662115859638946 0.0000037818750970169956 0.000009699891199685395 0.000002528080420421963 0.000002404861813853909 0.00000377454593583626
          0.0000023876128905919725 0.000005194580034534324 0.000004527682604199557 0.00000717720235815511 0.000004476797878349981 0.000006514200485474575
          0.000006480176701351148 0.0000066927565612884266 0.000005338489575901217 0.0000015069736945538814 0.000002285582712452383 0.0000047167359184738245
          0.000001528638445436048 0.000003509897064851719 0.0000050411932162042206 0.000009685471922635247 0.000003121515115722673 0.0000056962732897236634
          0.0000062601866558931185 0.00000872333721120555 0.000006079061914576744 0.0000019203819390245513 0.000004028637281910941 0.0000040008532228297256
          0.00000792639287325314 0.000004305544675370365 0.000006114779239618784 0.0000019588517910507086 0.000004019670572674716 0.0000037123977896236227
          0.000007341400636184936 0.0000036947140863718975 0.000007408957642479619 0.0000012494058760081916 -0.000002014794389929757 1.0822211771367328e-7
          -0.000008135852504687763 -0.0000011502544814238902 -0.00000521357529979392 9.090902539592551e-8 -0.000017552818328252923 -0.000001162760219275416
          -0.000002938031662371582 -2.359221266479757e-7 -0.000008610144418271654 6.762261156451066e-7 -7.861910313045062e-7 -9.892392962007612e-7
          -0.2293452477762955 0.000001459824615690497 -0.0000015586020463420613 -0.000002131702503252453 -0.45476482220485875 0.0000011958929522909445
          5.217216924036094e-7 4.295979982860132e-8 -0.22395903931474578 0.0000027832914024084054 0.0000075631551169630384 0.000005338255295805894
          0.000014327376069767084 0.000006541509445595617 0.000013274700676163542 -0.0000030784555689056248 5.3301380203985e-7 -0.0000021300702596760424
          -0.000003355376096733642 -0.0000030859698315899298 0.0000017176972554044934 -0.0000030076383489771596 -0.0000030138674001617405 6.758490043168308e-7
          0.000002418178879776134 -0.0000011927868809463726 -3.499704525622427e-7 -0.00005631881467166311 -0.000041378697136218445 0.000013149267699602563
          0.000024073861246309836 -0.00011445613258898035 -0.00008344168136595331 0.000025768640951023825 0.000046464046475375165 -0.000051267347327021984
          -0.00003850310688965908 0.000017583017149547242 0.00003411486284582432 -3.1882779653489776e-7 -9.949327466742073e-7 0.000007293676946496918
          0.0000047197500423342646 -6.161381110041282e-7 -0.0000018770521411116958 0.000013871572895961942 0.000008824890724349038 -4.780268643982295e-7
          -0.000001092154211391333 0.000008264037909942127 0.000004703506604345712 0.0000020528979729483865 0.000004618798816607983 0.000004212013307636209
          0.000008840018851485887 0.000004334351156709548 0.000008041591321478192 0.000003218477726635305 0.000005901500062993614 0.0000062920517255593555
          0.000003984146691088375 0.0000055466286743993676 0.000004428912356684023 0.000007564527117628894 0.000003188821272072373 0.0000047084715576045655
          -0.0000026250629604623876 0.000001348602830436585 5.822638543817593e-7 -0.0000056352560393740925 0.0000022262207362566677 6.306858851556907e-7
          0.0000014436306488979644 0.00000585564356178625 0.0000029557430673010643 0.000004467728285467709 0.0000060745498448727675 0.000017467713227414805
          0.000008736998613798064 0.00000859618910872828 0.000011933325012009055 0.000033177070892037586 0.000016084756022480273 0.000011557552728934384
          0.000014708244913091972 0.000029534947711989945 0.00001916515975246974 -0.24407512743698195 0.000001216928060390754 -0.25843079126797985
          -0.48280073407302065 0.000002277254824753494 -0.5104016896269368 -0.2365676201765682 0.0000017417274867648214 -0.24911831120289707
          0.0000022046175626490305 0.0000029181965463254134 0.000004323230673102668 0.000005891967257420916 0.000005128375329295498 0.000005929109342106553
          2.91450982917163e-7 -0.00003173649204886442 -3.840928166354285e-7 -0.00006568446690841112 0.0000020936725819153956 -0.00003073163489435149
          0.0000038485972656265854 0.000002256496906924421 0.000006953170341772452 0.000004252579235163034 0.000007561568265423979 0.000008854588100522254
          -0.3609421493686227 0.00000181199999310655 0.0000013436148150539062 -0.42136202387943383 -0.7087547431667728 0.0000034646917148883905
          0.0000023194342474198992 -0.8274468980753329 -0.34135655742899984 0.000002598595895075828 0.0000026125438196272777 -0.3977712308947142
          0.0000025270835946888948 0.000006640840973348716 0.000004411388504710345 0.00000546911486586088 0.000013234622650903916 0.000008183529833644121
          0.000008007886729569091 0.00001362385545855549 0.000009304978593110969 3.034896099681286e-7 0.000003935232997243077 6.916929797965224e-7
          0.000007802143975832454 0.0000030295560247278752 0.000005247588051648933 0.00000474861158880624 0.0000033408370243293017 0.000009172728454187595
          0.000006799108783039909 0.00001002778517245062 0.000007156251952272763 0.000007379418516730019 0.000004615079673614408 0.00001429652322729874
          0.000009666489062198913 0.000016488523628344076 0.000012793175835856818 0.000004495212724803244 0.000001948707733415156 0.000008860015242834196
          0.000004095282374085019 0.000008170006872837421 0.000006129536776700029 -0.0000013754757629417039 -0.0000025682976220742226 -0.0000019465569635057633
          -0.0000022553234950871068 -0.000003490867633564043 -0.0000036115127053353707 -0.0000010103487946928544 -0.0000019242167301584956 -0.0000019954098408082876
          0.000002094448670941773 0.0000020086216477588348 0.000004238441551035477 0.000005046547333797946 0.000004724619129231611 0.000009096232690158912
          0.000005650230051779115 0.000005531787758805695 0.000007872864724672857 -3.928047133394674e-8 4.324129512373043e-7 -0.28367482490019524
          -1.4856434579074707e-7 8.967416523786298e-7 -0.5589428047991488 3.6651817966748546e-7 0.0000010884969134233868 -0.27149443232404125
          -0.3133813719695359 -0.6161748913247392 -0.29791665214870855 -0.0000018460676877579685 -8.22816092264228e-7 0.000006399149798941295
          0.0000021266667269981276 -0.0000033573606114702115 -0.000001330416024476061 0.000013290091472974164 0.000004261653617651517 -0.0000017156104641299907
          -0.0000011947940582214545 0.000007110765648729589 0.0000024418432045120175 0.0000020578909280533075 0.000005129818781007822 0.000003695509596696178
          0.000008981095638183056 0.000002915223170002479 0.000005863757139706882 -9.177103039645362e-8 8.352456768341565e-7 1.7484592331265536e-7
          0.0000019767421225967696 -2.7208681820795055e-7 7.87674572370542e-7 0.000004266953706061338 0.000007349342228957223 0.000008459202426452928
          0.000013397428292313135 0.00000609758128800042 0.000011749062303511443 0.000009895578092555812 0.000015175962788105402 0.000018247258089854057
          0.0000290008634100114 0.000017391016498002898 0.000022367604066597657 -0.0000015862077207169645 -0.0000018524768927753732 -3.298493614391218e-7
          0.000004558389217645953 0.000008630255527275477 0.000007503565747635221 0.000011591237595157122 -0.000047390021940096894 0.00002175513913992705
          -0.0000973024435405867 0.000022001518943118303 -0.00004338364351988422 0.000005093184886756363 0.000009980606794857128 0.000006684417723529235
          -0.000004509016212761799 -0.000011024310327916245 -0.000002816844328632287 0.000005393503060823054 0.00001001534010829151 0.000004734444305736028
          0.000005194971002708826 0.00000935203760488168 0.000007298332952709874 -0.000003404608559298694 -0.000006280497593130763 -0.000004082486084577841
          -0.000016797803077756024 -0.00003494150027259085 -0.00001759312196589896 -0.000055551888386767834 -0.00011336989858254376 -0.00004808703859923713
          -0.27640521394182127 -0.5441321877690651 -0.262221627171901 -0.22080487469563664 -0.4385398806023469 -0.216843329047832
          -0.000009451098676296898 -0.000019362545636808504 -0.000011102164005266646 -0.0000027513910660271373 -0.000004059390882283121 -0.0000020502768604187824
          0.0000017411377947196272 0.0000022119849319990337 0.0000030943817023176834 0.0000023204732048087706 0.000002335195490310582 0.000002251108148110248
          -6.656197130139319e-7 -0.000002258745595007383 0.000002450649943974703 0.000002050110402662675 0.000002730760050306813 0.000004745600956979068
          0.0000031837443090765305 0.000002512048607905548 0.000005895639260344865 0.000005776044465721775 0.000008723316866299236 0.000009941176972838583
          0.000008099225832225443 0.000013462460226265627 0.000014506500506716868 0.000013501144800587284 0.00002440685162141687 0.000021521904221222243
          0.000012898666157223904 0.000024226968916407632 0.000020812716807094844 0.000003860487157614223 0.000004355049891394125 0.000006060839705723797
          0.000007965248407529324 0.000005533098757393162 0.000006158107737977425 0.000005857082359575494 0.000004783150085008181 0.0000017566117065381803
          0.000003835032656607229 0.00001139053269715029 0.000008455470718371494 0.000003356463119802422 0.000006640741073010714 0.00000573807788901981
          0.0000013274838776000664 5.571650721625243e-7 0.000004929982385243337 0.0000013619051417029793 -4.18185352915601e-7 -0.0000019992489609932385
          0.000007370046881310932 0.000012583190332954297 0.000008122943007865535 -0.000012869113274124877 -0.000025344519870188625 -0.000017377415555595854
          -2.005400387972145e-7 0.000001811131885243178 5.412053205589018e-7 0.000002651252824614758 0.000003117757038095803 0.0000031429524387505126
          0.0000052403097670072896 0.000005858195166963398 0.00000587284239439434 0.0000012483980568189779 0.0000013832119720724734 0.0000041992745501984174
          0.000005505886325973819 0.000009949470423098461 0.000008516278428238877 0.00000785899189725825 0.000014685523129998046 0.000011715503889897505
          0.000009376695861762485 0.000017735117591399785 0.000014117201336816265 0.000008902016248812927 0.000016799279173085324 0.000012591720209620405
          0.000006980206571194358 0.000010140276624159839 0.000006649120946500275 -0.000005600256815008198 0.000005262170952258227 -0.0000032780675519039626
          -0.000012526951061908598 0.000006358967772346347 -0.00000376595774742583 -0.000007450852957779919 9.424363311971717e-7 -0.000002031081710152094
        </DataArray>
        <DataArray type="Float64" Name="resid_y" format="ascii" RangeMin="-0.00006741868720631927" RangeMax="0.000022911499160054027">
          -0.0000030906903711463984 -0.0000015593260871086395 -0.000006530360441677624 -0.000005619185459684178 -0.0000036651263240344845 -0.000004256832587168705
          2.46920498447184e-7 -0.0000018029377117081621 4.947627535289295e-7 -0.000006937705964094737 -9.222664979022938e-8 -0.000005349258785947511
          -1.2074660856852687e-7 -0.000002882286717322685 8.161309750179951e-7 -0.000008169830613108386 9.076992521853122e-8 -0.000005656796408085897
          1.287367708061038e-7 -0.000002860176398620032 0.0000012419945655192666 -0.000008088369065904419 2.91643562503989e-7 -0.000005566477380467005
          2.9684948577544945e-7 -0.000002779206434684947 0.000001578842795215904 -0.000007853853430923527 4.3055102176645793e-7 -0.000005414978987329164
          5.7393737843206e-7 -0.0000025304298580334367 0.0000020995921808115298 -0.0000072299571767173165 6.424827232263258e-7 -0.000005060307364876046
          9.771640840927631e-7 -0.000002182660912508627 0.0000029066970603907477 -0.000006376081567314312 9.368662869137234e-7 -0.0000046249103836937255
          0.0000017017974078808312 -0.0000016686586483925792 0.000004316898215851392 -0.000005268381097933705 0.0000013545017645329865 -0.0000041711063392055325
          0.000002812846336783248 -9.085321625648679e-7 0.0000065985139942499604 -0.0000036109277380610982 0.0000014196857712443778 -0.000003872106503904904
          0.0000027953526759924574 5.214241077383663e-7 0.0000064381354850789885 4.7390379723927234e-7 0.0000015305712591506815 -0.0000010056951821046933
          -0.000006931878955653004 -0.00001113977779822889 -0.0000060746942704137386 -0.000005291758747877611 -0.0000074006935558402175 -0.000004398793597521107
          -0.000005360673603793664 -0.000007532534374992371 -0.000004595383101134616 -0.000004629948073607386 -0.000006199273408721145 -0.000003987561923698112
          -0.0000042148558738247174 -0.0000054699070466393204 -0.0000036488721608645552 -0.00000395025713970272 -0.000005050387308365434 -0.0000034279888465544098
          -0.0000036480713051841723 -0.000004492919548325543 -0.000003165877386404267 -0.0000031273611919304355 -0.0000034369419666668843 -0.0000028121192006038548
          -0.000002661101894962676 -0.0000027774628098312885 -0.0000033888771347934023 7.208511900100301e-7 0.0000025349218339965063 -5.58043482500048e-7
          -0.000004465897865622501 -0.000006932603528651826 -0.000004635220242615173 -0.0000013553899555138194 2.627673343041752e-7 -0.000001446377849710287
          -0.000001560049949688759 5.775286960251966e-8 -0.0000016455294770127867 -0.0000013545718654996847 4.178316614943979e-7 -0.000001464803405481531
          -0.0000011727656202276115 6.871437842289642e-7 -0.000001291864642282304 -9.146279377036503e-7 0.0000010686667478202686 -0.0000010573722780807043
          -6.002662760211039e-7 0.0000015962156451729183 -7.991163426003794e-7 -9.316325878198223e-8 0.0000024954245702868416 -5.474678762733623e-7
          -6.332679729423307e-7 0.0000010635921059622827 -0.0000018189023441462365 8.235298695549731e-7 0.000002681658259093972 -4.1088038324824105e-7
          -0.000004360344207610459 -0.0000066180862023958176 -0.000004512440554889363 -0.000001520880087729987 1.8856179644305762e-7 -0.00000158533384660587
          -0.000001744219893461108 -3.905986703154306e-8 -0.000001805585039905749 -0.000001544268303258487 2.835055262271724e-7 -0.0000016216921374957987
          -0.0000013684352329467603 5.114789490644591e-7 -0.0000014534757661318959 -0.000001144475817290748 8.162526513068313e-7 -0.0000012548431185940498
          -9.201959952874483e-7 0.0000011585289837086343 -0.0000010911952798677363 -6.308758318737673e-7 0.0000016460898026818965 -0.000001006248508950841
          -0.0000015581811787859778 -6.716258167949185e-7 -0.000002523454363561467 -0.0000015734822414528726 -0.0000021524506781597785 -0.0000023578825786921276
          -0.000004169023969860866 -0.000006264354979013814 -0.000004416591184936217 -0.0000015731994941469167 1.5676227330745324e-7 -0.0000016464073619329271
          -0.0000018128452350734629 -7.994808507599295e-8 -0.000001868343892354402 -0.000001619649911888208 2.0423347194941516e-7 -0.000001685108937266944
          -0.0000014583285962545614 3.780994222721615e-7 -0.0000015358654365900046 -0.0000012891466974786214 5.796503967057942e-7 -0.0000013882340319168462
          -0.000001162213437837581 7.263810955868838e-7 -0.0000013236423634047784 -0.0000011517135097630082 6.725340953132874e-7 -0.0000014669126813353361
          -0.0000022691700576997487 -0.0000021261706555919524 -0.0000030856912282446747 -0.0000017545128487954104 -0.000002531098643402535 -0.0000022499621711441486
          -0.000004079513969723267 -0.0000061003165641414225 -0.00000437684114040944 -0.0000016024776726297112 1.2853282493018297e-7 -0.0000016801865115753873
          -0.0000018445059228506828 -1.1853420137553257e-7 -0.0000019065027451162404 -0.000001661417916868236 1.240944173400496e-7 -0.0000017277333846498627
          -0.0000015211357080290033 2.3891912490255074e-7 -0.0000016009643036456536 -0.000001414091419909766 3.2604675012301576e-7 -0.0000015107383330541235
          -0.0000013992256485094445 2.616703954488875e-7 -0.0000015501907800440085 -0.0000015559798078046416 -1.2833071160595066e-7 -0.0000018411765804471347
          -0.0000030659527009944954 -0.000003716797051356302 -0.0000036765668832913767 -0.0000022889849538290305 -0.0000036057910340787924 -0.0000024809989587204484
          -0.0000040482282804687325 -0.000006022932465373637 -0.000004323477865593103 -0.000001625025093975616 9.673116385796807e-8 -0.0000017076937141558782
          -0.0000018555422906397362 -1.6158270959047358e-7 -0.000001941010676661907 -0.0000016848639196606965 3.6638292047821985e-8 -0.0000017601844871407979
          -0.0000015810845526761236 9.025828543243741e-8 -0.0000016636097306000491 -0.0000015310923437567014 6.276748493877493e-8 -0.0000016302799548482266
          -0.0000016279081760488257 -2.093336389577538e-7 -0.0000017720435822286829 -0.000001932066006713612 -8.729322555668662e-7 -0.0000021747620838272197
          -0.0000035111301399624872 -0.0000046324035029403354 -0.0000039985739348387395 -0.000002402747766394684 -0.000003869678168593425 -0.000002439250846254272
          -0.000013669988533394906 -0.000025123953656325942 -0.000013575217369382955 -0.000011623106529239091 -0.00001998365789550663 -0.000011296602520308868
          -0.000004345026299123686 -0.00000570671226466854 -0.0000043308998518218345 -0.000001779503562172359 -2.884406819763513e-7 -0.00000185848134955785
          -0.000001630558147816888 -6.328215117028246e-8 -0.0000017170389876759728 -0.000001646484967251366 -2.0522324338176356e-7 -0.0000017406518737494991
          -0.000001835598706430297 -6.480279770917918e-7 -0.0000019677430509040805 -0.0000022020540305263403 -0.0000014175345501923897 -0.0000024200288884987375
          -0.000003707181809944199 -0.000005034414587023681 -0.000004132910251045119 -0.0000023226556332264434 -0.000003687878255377759 -0.0000022837021892378045
          -0.0000034007475715382846 -0.000008470863382837451 -0.00000554396256866041 -0.0000035331612894089204 -0.0000048552288158601464 -0.0000053120699224570855
          -0.000003817637955652858 -0.0000013473503378829028 -0.000004602249079179409 -0.0000038363541972547596 -0.0000016739580752885876 -0.00000485622518283952
          -0.000004511051276552894 -0.00000323408923613884 -0.000005735231982367112 -0.000005765745309978254 -0.000005747467652635757 -0.000007164036960057019
          -0.000007811333002913368 -0.000010594170356682808 -0.0000094968930666392 -0.000005588143548937441 -0.000007736257148185932 -0.000005669538999962531
          1.89276653533247e-7 0.0000040746851465642275 0.000002456467166372933 -0.0000051299593285258904 -0.000001103724022834436 0.000005737043471756159
          0.000003898281613019805 -0.000009414878812546296 -0.0000010030301780279 0.000002604297959847568 0.0000019958515853901737 -0.000005108330255052668
          -0.000010308935134293457 -0.000004442737297803657 -0.000017049578033057067 -0.000006991430538267392 -0.000007503151014422171 -0.0000030548937726913297
          -0.000008559827527039945 -0.0000029244035410934052 -0.000004205389513680172 -0.000013304105000448013 -0.000004854425264639792 -0.000007763228055731458
          -0.000005211109013518456 -0.0000024602168980161765 -0.000003866102696890861 4.865240498808099e-7 6.471253547121747e-7 -0.000002444053446768596
          -0.000003494789372483764 7.1467767538691e-7 0.0000014222872360171446 -0.000004617233652958255 -0.000006789717291420805 -4.7063380420597767e-7
          -6.52494265528103e-8 -0.0000030021239663738375 -0.0000042005909573969435 0.000011838478899225957 0.00000962387219620442 0.000005879819342448356
          0.0000063779996986755225 0.000022911499160054027 0.00001780438552153457 0.000011144837798501839 0.000012064905293664684 0.000014432165287334153
          0.000010681597927698905 0.000007836195634228216 0.000009885486783784564 -0.0000017870887182357218 0.0000010415075592205836 6.852971962123533e-8
          -0.000004092690538845534 -0.000004713064032502764 0.0000018619194490678004 6.470147599461906e-8 -0.000008654366106471828 -0.0000036094982880314
          6.812586550199173e-7 -3.73234642778858e-7 -0.00000570580551195049 9.927588962080347e-7 -0.0000019286881609579046 -3.633204667344986e-7
          -0.0000011723451141670838 8.771181527113953e-7 -0.000004697607323854089 -0.0000015154137588809999 -0.000003186569189697619 3.2040999151453087e-7
          -0.0000025222815000173343 -6.21980896431916e-7 -0.000001677306059370831 -0.0000021098828364117528 -0.000003947957429536499 -0.0000040489483848667185
          -0.00000743510485100643 -0.0000025222213740072608 -0.000004088196968483372 -0.000002634063686508814 -0.000002958127173432329 -0.000005326472889366496
          -0.000005020538334201546 -0.0000031416962933336623 -0.000002353653249825838 -0.0000037914442534182913 -0.000007252890908641691 -0.0000034254847098961778
          -0.000007119617880545215 -0.000007614400473145502 -0.000014756731882938686 -0.000007396527287540679 -0.00001513090753178098 -0.0000033956992660979374
          -0.000007460833020791601 -0.000004259435985200797 -0.000008041116220384309 -0.0000012869223225706137 -0.000004391763329839732 -0.0000013440962453690076
          6.444963135468496e-7 -0.0000027199449317821117 -0.000009075193396223397 -0.0000027099596195438117 0.0000013247698977189581 -0.000002121686604639574
          -0.0000058852055590911945 -0.0000023132332175939893 2.5798107916585877e-7 -0.0000018685470926857461 -9.28050308839426e-7 -0.0000034956463092206125
          -0.0000010573666776100826 -0.0000021342275373370523 -7.126017087157738e-7 0.0000016030995664481629 0.0000019853472121075105 -0.000003464312387249646
          -0.000003965099763657276 9.492449979456308e-7 0.0000029522741846407796 -0.000008341559704458379 -0.000008766781423849568 -2.5556386739483683e-7
          0.0000011535200071565235 -0.000005275359847185801 -0.000005452228225594213 -0.00002819329137054849 -0.000017599089605677132 -0.000005746269137998396
          -5.293009374407465e-7 -0.00005629838664666931 -0.00003472642430581152 -0.000010779342416290458 -4.2794779466642785e-8 -0.00002545818383313525
          -0.000016198278536522226 -0.000003899908018027871 0.0000033389816273612927 -3.8458562582054405e-7 -0.000001459516098795523 -0.000008438173699176505
          5.234920277229216e-7 -7.171682854665929e-7 -0.0000025829905949644513 -0.00001595848284735796 9.352010392393775e-7 -1.7697244891137374e-7
          -0.0000011227976243631446 -0.000008452926983973244 4.0864264113120094e-7 -0.0000012556462216178031 -0.0000022352843166168618 -0.0000027342467096127046
          -0.000004717387816623869 -0.0000014108988049613136 -0.0000024084056002536547 -0.0000045329648830257085 -0.000009060085709399618 -0.000006292611160162165
          0.000002429540762651644 0.000006034132086440991 8.79094184086382e-7 0.000010064890367464385 2.678565573926983e-7 0.000005364159051043926
          0.000004273978266917944 0.0000011658875960496307 0.000003642513011468257 0.000007260901514441476 0.0000015874736569235215 0.00000507823498548457
          0.000004558564922714503 0.0000012439154218751858 0.0000026035752998705697 0.000004003345573565242 -6.482644312739809e-7 0.000010443455444680838
          0.0000032903009570678377 0.000007402684943376425 1.3807553097449146e-7 0.000021507794298283867 0.000006004181444259349 0.000004089746617023937
          0.0000020146517226843352 0.000013769704319724352 0.000002903779086134428 -0.0000020942145479360685 -0.0000011340326509963472 -1.8490552108896274e-7
          -0.000004328244468339293 -0.0000017590357727047257 -1.300181193750194e-7 -0.0000026409166203472667 -0.0000012312963883626127 -3.806422417748645e-7
          1.3829589700677103e-7 -0.000005407589245710193 1.9342629950167e-7 -0.00001033337073678628 1.297013828005511e-7 -0.000005572559855695353
          9.033150108472832e-8 -0.00002253301350647885 1.856637515257331e-7 -0.000045912622021138105 0.000002275046497926536 -0.000020167919199579054
          -0.0000014396737183716701 0.0000031866967384816536 -0.000001765981109319581 0.000005865826193114654 3.229071891819313e-7 0.0000038138994149818084
          -0.0000015197062627481106 -0.0000012493600158175466 -0.000005842225760367692 -0.0000038191322276684425 -0.000003093974677799427 -0.000002494881059904308
          -0.000011595238281716935 -0.000007601461399477094 -0.0000017127688941749597 -0.0000017497324571354167 -0.000006279384382607001 -0.000003923094921778197
          2.2316887026557763e-7 -0.0000033837695776915352 -0.000006172333462400956 2.965250031627953e-7 -0.0000070334544160504005 -0.000012458066122610122
          2.914135772968951e-11 -0.000003417415190128722 -0.000006445477322979641 0.000002939686744533182 -0.0000024266388201008016 0.000004501605758423094
          -0.000007362237292404816 0.0000020242038092158077 -0.00000482691419231851 -0.000005662533546391124 -0.000005576379208902535 -0.000010709544133426924
          -0.000010443886783753588 -0.00000606833034862489 -0.000005784124664410736 -0.0000015508437333153213 -0.000003798238069365606 -0.0000025206404305859464
          -0.0000061649926385888565 -3.755670936935601e-7 -0.0000016835181485715112 -0.00000525157593352088 -0.0000012096712268330756 -0.00001048680811194247
          -0.000001549007203976993 -0.0000053364336410344215 6.499930626374661e-8 -8.816715844676103e-7 -0.000001476742968168146 -4.4898503589107727e-7
          -0.0000013293316962021892 -0.0000031154874493444923 -7.561781452617572e-7 -7.733400183267819e-7 -0.0000013658922174038246 -4.827868663962592e-7
          6.426074076956723e-7 -0.000005614507901402499 -0.0000018116165732126252 3.481961701936459e-7 -0.000010996565078733034 -0.0000037951812545239903
          -5.998937583316655e-8 -0.000005764568887386967 -0.0000022620453988043444 -2.1329806813158436e-7 -0.000003405477087915776 -6.965382312422441e-7
          -4.174992085242968e-7 -0.000005450775988520562 -0.0000012973648190091336 -6.133200405114558e-7 -0.0000026006685934359952 -8.461351532901285e-7
          -0.0000035340218223454956 -0.000006101754577533813 -0.0000027126020726159217 -1.9661354806960532e-7 -4.2936543708568115e-7 -0.0000042841967252162105
          0.0000015526896461007939 -7.229184801654971e-7 -0.000001151696483652452 -0.000008220725113486371 0.0000027672702374295297 -3.8236121869270404e-7
          -8.84772407746745e-7 -0.000004471950393474672 0.000001116991680300168 -0.0000033731172322543773 -0.000003535110538729902 -0.000006237429751226008
          -0.000006075403726796269 -0.000003563191989957616 -0.0000032006448065780013 -5.758009379575046e-7 -0.000003107428272564137 -0.0000014742991879777845
          -0.000006326077177558256 -7.343169263467758e-7 -0.0000031903066041588657 -0.000006327526065663669 -0.00000581547540545041 -0.000012537430614453782
          -0.000010378763090568288 -0.0000063067586152723565 -0.0000045712543367062985 5.691322408143962e-7 0.000004336759482942432 0.0000015402229967612091
          0.000009214775610458248 0.0000012535852763236044 0.000007813712333964995 -0.000006996830087773473 -0.000012648605678366055 -0.000006077764071246543
          -0.000007909127578142883 -0.000014037461487939606 -0.000007258944497955111 0.000007884651197131477 -0.00003098681778211654 0.0000163893750190899
          -0.00006210295421447964 0.000013631689771774155 -0.000026813602800712655 -0.000007272211696647199 -0.000014119072998600157 -0.000007476589374980427
          -0.00000204889380148697 -0.0000048423637822626875 1.1963365728964725e-7 -0.0000024978993514849536 -0.000004840171421936421 -0.0000024977247616519115
          -0.000005519936044195983 -0.000009690478051084528 -0.00000439732140971455 -0.0000015967901686973762 -0.0000019290068970882757 -6.148833319660763e-7
          -0.000013953313108647225 -0.000028874923517246964 -0.000014463379048319791 -0.00003391128204048577 -0.00006741868720631927 -0.000028534946796152094
          -0.000009766632535608555 -0.000019080843551353213 -0.000009252608028054513 -0.0000036193003784268374 -0.000006537957177699116 -0.0000031142641978842978
          -0.0000023518637172503278 -0.0000041565840424311225 -0.0000025488022742034544 5.866449809319553e-7 7.936017513338924e-7 4.801849420368865e-7
          -0.000010441945132076691 -0.00002116222156856723 -0.000013275404068136681 -0.000013167788065499703 -0.000026148534271800555 -0.000014081515022223642
          -0.000004602132254194827 -0.000004640432645150808 -0.000006082928692254311 -0.000008801341615427907 -0.000017185124410581953 -0.000008470671422594611
          -0.000007808905535446747 -0.000006640823925979991 -0.000007168054416089795 -0.000008727572708918524 -0.000009561642908648138 -0.000008636891774563282
          -0.000010425358499575182 -0.000011413964010539845 -0.000010572551757750959 -0.000009985183500406392 -0.00001563055864776952 -0.000011868557105387811
          -0.000007185510218755964 -0.000008594874350703607 -0.000008708913801953877 -0.000004516747053179282 1.20189618590949e-7 -0.00000845053857476824
          0.0000012940974974465225 -0.000005933520246595436 2.32047695211679e-7 1.3979484257686803e-8 -0.000003074675960036688 5.354438576618548e-7
          -0.000003539932185419453 -0.000002343404444646313 -0.000008049585247957292 5.40496042353289e-7 -0.000006843045055061545 -0.000002363382354854393
          -0.000005632980900161649 -9.601531317376955e-7 -0.0000048418219415705815 -0.000002763845696618014 -0.0000015656932398633305 -0.0000012529721061527166
          -0.000006181045521651621 -0.000008089004482021711 -0.0000048078647141083786 -0.00000863699113281928 -0.000014043971287732576 -0.000006736048051781546
          -4.51656032069217e-7 -0.000012227887285729336 -0.000002887377058270052 -0.000030931204180561014 -0.000003878676743628712 -0.000018630267384870704
          -0.000012097074113908562 -0.00002521900644160413 -0.000015243851828061067 -0.000008939851692304698 -0.00001088453310460133 -0.000011109620663160222
          -0.000006199750684349886 -0.000009863017499729676 -0.00000804373035638399 -0.000009958436357697387 -0.000010957565947482262 -0.00001045370641154092
          -0.0000068386890016286506 -0.000008690998970967145 -0.00000822770936027839 -0.00000468283978640599 -0.0000011946395633705142 -0.000005572813387186293
          -0.000004429429511176863 -0.000005524874811230207 -0.000006508052385112428 -0.000006389968240791996 -0.000005064053475799246 0.0000028261925022268763
          -0.000002618160671949074 -0.00000802685513223711 0.000005084703391902701 -0.000001908452426634469 -0.000005343045881470165 -0.0000013123890645547198
        </DataArray>
        <DataArray type="Float64" Name="resid_z" format="ascii" RangeMin="0" RangeMax="0">
          0 0 0 0 0 0
          0 0 0 0 0 0
          0 0 0 0 0 0
          0 0 0 0 0 0
          0 0 0 0 0 0
          0 0 0 0 0 0
          0 0 0 0 0 0
          0 0 0 0 0 0
          0 0 0 0 0 0
          0 0 0 0 0 0
          0 0 0 0 0 0
          0 0 0 0 0 0
          0 0 0 0 0 0
          0 0 0 0 0 0
          0 0 0 0 0 0
          0 0 0 0 0 0
          0 0 0 0 0 0
          0 0 0 0 0 0
          0 0 0 0 0 0
          0 0 0 0 0 0
          0 0 0 0 0 0
          0 0 0 0 0 0
          0 0 0 0 0 0
          0 0 0 0 0 0
          0 0 0 0 0 0
          0 0 0 0 0 0
          0 0 0 0 0 0
          0 0 0 0 0 0
          0 0 0 0 0 0
          0 0 0 0 0 0
          0 0 0 0 0 0
          0 0 0 0 0 0
          0 0 0 0 0 0
          0 0 0 0 0 0
          0 0 0 0 0 0
          0 0 0 0 0 0
          0 0 0 0 0 0
          0 0 0 0 0 0
          0 0 0 0 0 0
          0 0 0 0 0 0
          0 0 0 0 0 0
          0 0 0 0 0 0
          0 0 0 0 0 0
          0 0 0 0 0 0
          0 0 0 0 0 0
          0 0 0 0 0 0
          0 0 0 0 0 0
          0 0 0 0 0 0
          0 0 0 0 0 0
          0 0 0 0 0 0
          0 0 0 0 0 0
          0 0 0 0 0 0
          0 0 0 0 0 0
          0 0 0 0 0 0
          0 0 0 0 0 0
          0 0 0 0 0 0
          0 0 0 0 0 0
          0 0 0 0 0 0
          0 0 0 0 0 0
          0 0 0 0 0 0
          0 0 0 0 0 0
          0 0 0 0 0 0
          0 0 0 0 0 0
          0 0 0 0 0 0
          0 0 0 0 0 0
          0 0 0 0 0 0
          0 0 0 0 0 0
          0 0 0 0 0 0
          0 0 0 0 0 0
          0 0 0 0 0 0
          0 0 0 0 0 0
          0 0 0 0 0 0
          0 0 0 0 0 0
          0 0 0 0 0 0
          0 0 0 0 0 0
          0 0 0 0 0 0
          0 0 0 0 0 0
          0 0 0 0 0 0
          0 0 0 0 0 0
          0 0 0 0 0 0
          0 0 0 0 0 0
          0 0 0 0 0 0
          0 0 0 0 0 0
          0 0 0 0 0 0
          0 0 0 0 0 0
          0 0 0 0 0 0
          0 0 0 0 0 0
          0 0 0 0 0 0
          0 0 0 0 0 0
          0 0 0 0 0 0
          0 0 0 0 0 0
          0 0 0 0 0 0
          0 0 0 0 0 0
          0 0 0 0 0 0
          0 0 0 0 0 0
          0 0 0 0 0 0
          0 0 0 0 0 0
          0 0 0 0 0 0
          0 0 0 0 0 0
          0 0 0 0 0 0
          0 0 0 0 0 0
          0 0 0 0 0 0
          0 0 0 0 0 0
          0 0 0 0 0 0
          0 0 0 0 0 0
          0 0 0 0 0 0
          0 0 0 0 0 0
          0 0 0 0 0 0
          0 0 0 0 0 0
          0 0 0 0 0 0
          0 0 0 0 0 0
          0 0 0 0 0 0
          0 0 0 0 0 0
          0 0 0 0 0 0
          0 0 0 0 0 0
          0 0 0 0 0 0
          0 0 0 0 0 0
          0 0 0 0 0 0
          0 0 0 0 0 0
          0 0 0 0 0 0
          0 0 0 0 0 0
          0 0 0 0 0 0
          0 0 0 0 0 0
          0 0 0 0 0 0
          0 0 0 0 0 0
          0 0 0 0 0 0
        </DataArray>
        <DataArray type="Float64" Name="stress_zz" format="ascii" RangeMin="-2401802.6359980935" RangeMax="5256527.092784904">
          -2225.4950341170893 -2263.663147467634 -2256.1353165165197 -2292.3288054633786 -2286.7755989159496 -2320.994463459124
          -3072.373707953371 -3141.915449838405 -3109.9528552129295 -3173.2610595387087 -3147.532002472488 -3204.6066692390123
          -4355.273167854678 -4467.569662682613 -4407.02248726294 -4510.494742747496 -4458.7718066712 -4553.419822812379
          -6351.643090626183 -6540.405132866801 -6451.8024422649205 -6632.605988112991 -6551.961793903654 -6724.806843359182
          -9530.36986627195 -9883.068490574396 -9756.945687704363 -10093.995587312576 -9983.521509136774 -10304.922684050756
          -15471.429972257987 -16127.913941944218 -15553.937042272291 -16249.523969859969 -15636.4441122866 -16371.13399777572
          -23981.941181709917 -25764.069159832165 -25073.03001883119 -26648.95231288716 -26164.11885595246 -27533.835465942157
          -23731.043200922664 -29672.197134821043 -30352.909392250687 -37278.28791265114 -36974.77558357871 -44884.37869048123
          -31839.77381337645 -37164.7231134022 -21473.517151521206 -26315.062687096717 -11107.260489665967 -15465.40226079123
          -13136.480003135712 48229.16686004291 44672.77646189618 120142.68928512941 102482.03292692809 192056.21171021592
          -2115.792271630459 -2156.30097376765 -2196.8096759048403 -2883.587160526915 -2937.372954550056 -2991.158748573197
          -4039.47857677092 -4113.87327044566 -4188.2679641203995 -5806.043605515458 -5930.302880484376 -6054.562155453295
          -8523.453530224502 -8787.939270195513 -9052.425010166526 -13535.442223640619 -13546.67695047579 -13557.911677310964
          -18856.556072956904 -20375.0740286644 -21893.591984371888 -8016.2555407680065 -12297.595674212607 -16578.935807657203
          -18096.473677393726 -9031.945595541629 32.58248631046763 -45959.375732832945 -3848.0627066107204 38263.25031961151
          -1925.6769358962642 -1985.0318724815368 -2044.3868090668093 -2582.0442692044085 -2660.2400873277156 -2738.4359054510223
          -3541.111164791761 -3647.950686426631 -3754.7902080615004 -4945.650482372468 -5105.36252204361 -5265.074561714751
          -6930.190088181007 -7245.392877913008 -7560.595667645011 -10547.606326989586 -10494.895894230813 -10442.185461472043
          -10552.401900551582 -12471.18835838748 -14389.974816223381 10168.587014289915 8514.44597209329 6860.304929896665
          10771.94631417563 19142.91121627617 27513.87611837671 -42417.24061227005 -15168.15190898648 12080.936794297093
          -1687.517687982724 -1760.5099121309886 -1833.5021362792534 -2212.4514918020595 -2307.657988068609 -2402.864484335158
          -2934.56588255267 -3062.2554911401003 -3189.9450997275308 -3881.070287891209 -4058.1924076310233 -4235.314527370837
          -4983.626511656816 -5322.310702781946 -5660.994893907078 -6660.1638154754255 -6519.2916135488385 -6378.419411622251
          -1071.3136439557368 -3269.6462824127875 -5467.9789208698385 29121.9211007181 29988.15478022506 30854.388459732032
          34335.791559660596 42218.56652906413 50101.34149846765 -64434.114975015276 -55465.295145579395 -46496.47531614352
          -1557.0326399621083 -1591.6350542369732 -1626.237468511838 -1975.8860259576236 -2017.513579909712 -2059.1411338618
          -2483.7569675513496 -2536.3991050444374 -2589.0412425375266 -2992.0822699054365 -3062.6236201206084 -3133.1649703357807
          -3188.769452046078 -3369.3071631871035 -3549.8448743281288 -2712.624510456696 -2339.8049584150035 -1966.985406373311
          7888.6643802417375 5779.007504770463 3669.350629299188 45742.8174175047 48763.234093104365 51783.650768704
          38299.766706945804 43294.078059828615 48288.38941271143 -76493.23390288034 -82107.82486518673 -87722.41582749311
          -1900.5118776668266 -1733.3339615692666 -1566.1560454717069 -2351.1141335330817 -2121.962742324807 -1892.8113511165327
          -2835.0752993252377 -2522.8466519257986 -2210.61800452636 -3161.9258381380973 -2742.8711918349713 -2323.816545531846
          -2719.499536155129 -2233.949270376981 -1748.3990045988335 -431.6083967251989 704.9230267710266 1841.4544502672518
          14673.285816232958 13434.529757460587 12195.773698688212 54030.62623792903 58234.31378389649 62438.001329863946
          40960.990667627666 40908.08732393633 40855.18398024499 -75273.61736036709 -97719.71231779648 -120165.80727522587
          -3577.895840361927 -2661.1497959198496 -1744.4037514777713 -4460.160014458138 -3242.424635434554 -2024.6892564109712
          -5490.806929063912 -3861.02135001967 -2231.235770975428 -6382.153034089993 -4211.706035979851 -2041.259037869709
          -6277.631197206203 -3492.5473079425974 -707.4634186789916 -2993.3085144566076 846.3668780175658 4686.042270491739
          14881.414803206499 16529.82620258353 18178.23760196055 55044.62629439654 59501.047386243 63957.46847808946
          50751.91336004229 41644.5267626064 32537.140165170524 -34976.111088936945 -72420.93276747668 -109865.75444601644
          -6742.780933079136 -6165.383890175554 -5587.986847271973 -8503.767786518649 -7753.602377836662 -7003.436969154674
          -10674.751630307752 -9695.530565778363 -8716.309501248972 -12915.052431778375 -11645.089076023472 -10375.125720268567
          -14127.194772942115 -12567.15647492288 -11007.118176903645 -11023.412044349863 -8891.607924197711 -6759.8038040455585
          8141.723196812642 8588.690621400508 9035.658045988373 49243.54780020839 52695.29134152266 56147.03488283693
          69801.08516909424 63379.86798931239 56958.650809530554 50493.23910762764 29420.97675525034 8348.714402873034
          -9555.527203688633 -10460.145100374146 -11364.76299705966 -10583.852508055925 -11819.234899423745 -13054.617290791564
          -9741.628043853863 -11412.266420002967 -13082.904796152063 -3650.1181398163167 -5614.756926002488 -7579.395712188658
          15273.580377458093 12768.871970399447 10264.1635633408 43963.55407268336 46005.790090206894 48048.026107730446
          54347.83664128268 58577.30590292622 62806.77516456976 8575.597343815483 10164.811552994523 11754.025762173558
          -384259.6103093641 -358414.73270080885 -90673.88043400031 -157941.21314660422 -304770.69536170625 -344388.3541122234
          -117318.86076960828 -132206.2967173927 -225281.7804140484 -330361.97552363796 -143963.84110521624 -106471.38028818114
          -267394.6704491724 -202267.49438491112 -205660.92638209846 -131809.4526587978 -143927.18231502463 -61351.41093268448
          -384954.1040006715 -251214.75064551394 -388008.6235098452 -216526.88406110852 -205158.60757749068 -332821.16202911973
          -48099.664121545546 -159102.46450946742 -277633.70054839423 -161623.597643929 -145411.4798846927 65564.38064412499
          -94029.71021089333 -115955.72813859218 -103718.8917187949 71411.0790559217 -48858.653445251184 -70287.85863325535
          -62026.30355289708 77257.77746771844 -3687.596679609029 -124708.47189621441 -136609.0702702864 -523582.8768714372
          -176970.87476771054 -118540.65739702426 -73620.70978950993 -305685.0237766925 -35222.056409398734 -112372.84289783408
          -10632.34930873348 -87787.17068194778 106526.7619489131 -109062.07128750366 -165486.46262384602 -89402.58551886574
          -60695.5224002136 -77778.66723044481 -133437.2058000801 -50499.29970097563 -19367.151559528385 -46495.263173385974
          -101387.94897631416 -11596.013883085514 21961.219281156824 -105770.70272980654 -20749.923657265343 -42127.87723231459
          -10140.437878142326 -92045.12824837284 11183.26082314078 -27374.813643208367 -16891.446430965912 -78319.55376693915
          43116.4453035469 -12621.750054102158 -23642.45498378951 -20483.150104231376 -112762.35140039583 -17099.05248329552
          -128371.7234550469 -13714.954862359671 -143981.09550969797 -107434.78051948179 -217875.78352975848 -63984.6886501632
          -168379.57398147072 -20534.596780844604 -118883.36443318299 -975260.4731070154 -956510.0613780429 -1150850.9236905642
          -2299996.3675088426 -591356.5785908354 -658026.09850391 -890354.6422285888 -1798875.123585311 -207452.68407465558
          -359542.13562977716 -629858.3607666133 -1297753.8796617799 -17682.657699349536 -76911.16661618675 -136665.4110913414
          -76125.25553490479 39680.69420448946 -27272.01512714488 -88014.58926136405 -35329.10039564294 97044.04610832845
          22367.13636189699 -39363.76743138667 5467.0547436189145 -252534.79344712826 63957.90292326397 -224346.08064518124
          -35270.718058775215 -196157.3678432342 -134499.33904081438 -4323.237982595697 145856.0156656069 72206.34161893792
          -23066.5895856192 -37488.18068122069 151833.5542014406 43779.375675219606 -35154.47908116532 -70653.1233798457
          157811.09273727433 15352.409731501313 -47242.36857671143 3625227.756586913 5256527.092784904 3470032.1390040405
          2096255.5110026095 2700768.2657054733 4131758.7750428803 2599837.7387454743 1504593.6046566134 1776308.774824033
          3006990.4573008567 1729643.3384869075 912931.6983106171 -258466.4978622476 -461442.7404199559 -527839.0676156
          -276444.2095916979 -243626.22855245057 -376640.0060301109 -449333.42951239314 -295381.2083974856 -228785.95924265354
          -291837.27164026577 -370827.7914091864 -314318.2072032733 -11382.632808728225 -118941.74592587956 43143.066615755735
          -65338.119785889896 97668.7660402397 -11734.49364590025 -92433.57517317373 -45837.72295949326 758.1292541872041
          -742309.691457152 -620109.3503186085 -515663.5044016732 -558928.3039318265 -289017.3173461944 -497747.25754504435
          -561448.5378171427 -220059.74927737008 -265438.04321625346 -408842.766162048 -158143.03518353275 -257373.02956220793
          -256236.99450695326 -96226.32108969541 -249308.01590816243 -230961.3325518436 -96264.0774716064 406764.586961429
          -11786.427257794072 -239555.82515195495 -139377.42046403527 239792.76522036438 -1904.2335581210402 -248150.31775206624
          -182490.7634564641 72820.94347929963 7977.960141551991 -140652.73969221697 -221495.43753096933 -233975.3776557328
          -88879.34538728264 -168049.12100470313 -189694.79716031824 -37105.95108234831 -114602.80447843691 -145414.2166649037
          -19261.740681023257 -102946.16451022227 1507.4355990348395 -104576.60259943677 22276.61187909294 -106207.04068865125
          -1037245.8009479154 -359464.8441316259 -676928.3184302697 -75245.5414613575 -316610.83591262397 208973.76120891087
          -51880.748048219866 -49153.939677385315 -2563.3744845380443 -35032.35214191423 46753.999079143774 -20910.764606443114
          1435134.9212723416 991378.4405852072 2193660.924515119 2748656.3184246663 1147896.648954688 731728.8024209775
          1570321.3978791498 2042483.3955308923 860658.3766370345 472079.1642567474 946981.8712431812 1336310.4726371183
          -128529.96142323407 -87537.8208726238 -138829.27193623045 -75752.85430020315 -59591.307944531276 -108039.7690987357
          -22975.747177172252 -31644.795016438766 -77250.26626124099 19867.13388719168 -41549.074197245 -15672.910662247677
          -85665.11327227367 -51212.95521168703 -129781.15234730234 -134983.4590486496 -110129.42215957228 -101594.32632744232
          -97011.77398451917 -68205.19360623501 -83894.12580946606 -160096.92839214765 -281068.22291642136 -133943.665548479
          -281053.42187040526 -107790.40270481036 -281038.62082438916 -81889.8581253921 48344.54513969125 -86587.4628496848
          41951.03830126322 -91285.0675739775 35557.53146283519 -370495.88802515366 -271974.5138743329 -278444.04712465557
          -348306.8089442198 -228057.7917648554 -253424.79176442866 -326117.7298632859 -184141.06965537788 -228405.53640420176
          -46765.550680523 48201.0386558039 57673.121219117485 -27555.180159305535 73085.07620645486 65837.22457205267
          -8344.809638088056 97969.1137571058 74001.32792498784 -86581.87941252167 193651.49719308838 -80257.57289235148
          -56552.437253675234 152115.46520692628 -78519.49712191989 -26522.99509482881 110579.43322076416 -76781.4213514883
          417934.5984649232 343452.49448062445 268970.39049632574 -453594.30221938 -387972.04221896443 -391561.6412633264
          -722441.7423762366 -402954.5651784566 -304260.1058663108 -384360.891832308 -767090.5602012094 -352314.8281375333
          -220548.16951365722 -377160.1424012896 -811739.3780261822 125033.48647021176 117252.58170920258 111907.26304532665
          -54438.839330724666 98781.03962044157 -226130.2603706519 -319865.4892339809 -314093.03297955357 -259943.02236948407
          -281582.3033782167 -200020.55550498725 -249071.57377687987 3993944.910198173 997749.1383160191 3029108.721313609
          582729.3623742784 2064272.5324290441 167709.5864325375 718108.9251810648 1166117.9224012375 560753.3531199946
          676164.2512817392 403397.7810589246 186210.58016224077 -100563.99385655338 -26267.097306417632 48029.7992437181
          -59299.82326361498 -46619.80910423721 -33939.79494485943 896849.772141098 1542841.0605156485 709709.1918112217
          1478455.0548918769 522568.6114813454 1414069.0492681053 72874.43732405083 77091.72258396276 81309.00784387473
          -1458745.1493141626 -1072828.9950994854 -686912.8408848085 -384662.6125312345 -377940.69744549633 -371218.7823597581
          139006.76412736636 154122.3755385294 169237.98694969245 -69430.86388272485 -131963.28620857504 -194495.7085344252
          -2401802.6359980935 -1912943.0927277314 -1424083.5494573696 2395055.043301465 1894587.4428809974 1394119.8424605299
          4923825.255305912 3823999.422731824 2724173.590157736 60865.655982816395 128999.77417974653 197133.89237667667
          -274441.26267260767 -389874.6948366959 -505308.1270007841 -323632.18545642524 -260626.0463093103 -197619.90716219536
          4009.1767078415032 3811.388727119272 3613.600746397041 12025.39924661354 12361.731488379673 12698.063730145806
          9566.56718281684 9403.94683048878 9241.32647816072 17253.49574485887 17762.652656523947 18271.80956818903
          18880.986659457078 18749.193846426155 18617.401033395232 29801.68311865417 30192.18011685815 30582.67711506214
          27589.024487988187 29258.776274553955 30928.528061119723 -9881.655215106315 -8493.086567041066 -7104.5179189758155
          -26415.79696875841 -25146.106458706694 -23876.41594865499 -94485.7552416224 -49329.85893440649 -96401.52983645478
          -50244.81424866819 -98317.30443128715 -51159.7695629299 -123255.40005371674 -40869.975056207055 -4336.821722438466
          -49729.415522111514 -140446.08500757747 -41054.04964915612 -5451.946762385295 -59204.374496749006 -157636.7699614382
          -41238.124242105194 -6567.071802332124 -68679.33347138649 98483.48955702993 91998.82323163685 85514.15690624379
          -16194.43213011587 -18013.99658755014 -19833.56104498441 125699.98306778498 114788.33446741014 103876.6858670353
          10568.90857062794 9487.66548787349 10398.769172997316 9357.645513939693 10228.629775366695 9227.625540005898
          21913.874529782723 22474.157562217806 23034.440594652893 8280.743161089202 7968.371287155982 7655.999413222764
          18928.39206081193 19964.977440404633 21001.56281999734 -5929.326455755892 -5598.1329021345955 -5266.939348513301
          -46427.03514409787 -48925.901355510825 -51424.76756692379 -50093.30635933594 -48030.16030235041 -45967.01424536487
          -72337.20489422212 -73206.37177645606 -74075.53865869 100859.88907408703 80115.66198189973 41646.29887623414
          97933.4339108656 74954.79290453931 37718.91531674667 95006.97874764417 69793.92382717889 33791.53175725921
        </DataArray>
        <DataArray type="Float64" Name="peeq" format="ascii" RangeMin="0" RangeMax="0">
          0 0 0 0 0 0
          0 0 0 0 0 0
          0 0 0 0 0 0
          0 0 0 0 0 0
          0 0 0 0 0 0
          0 0 0 0 0 0
          0 0 0 0 0 0
          0 0 0 0 0 0
          0 0 0 0 0 0
          0 0 0 0 0 0
          0 0 0 0 0 0
          0 0 0 0 0 0
          0 0 0 0 0 0
          0 0 0 0 0 0
          0 0 0 0 0 0
          0 0 0 0 0 0
          0 0 0 0 0 0
          0 0 0 0 0 0
          0 0 0 0 0 0
          0 0 0 0 0 0
          0 0 0 0 0 0
          0 0 0 0 0 0
          0 0 0 0 0 0
          0 0 0 0 0 0
          0 0 0 0 0 0
          0 0 0 0 0 0
          0 0 0 0 0 0
          0 0 0 0 0 0
          0 0 0 0 0 0
          0 0 0 0 0 0
          0 0 0 0 0 0
          0 0 0 0 0 0
          0 0 0 0 0 0
          0 0 0 0 0 0
          0 0 0 0 0 0
          0 0 0 0 0 0
          0 0 0 0 0 0
          0 0 0 0 0 0
          0 0 0 0 0 0
          0 0 0 0 0 0
          0 0 0 0 0 0
          0 0 0 0 0 0
          0 0 0 0 0 0
          0 0 0 0 0 0
          0 0 0 0 0 0
          0 0 0 0 0 0
          0 0 0 0 0 0
          0 0 0 0 0 0
          0 0 0 0 0 0
          0 0 0 0 0 0
          0 0 0 0 0 0
          0 0 0 0 0 0
          0 0 0 0 0 0
          0 0 0 0 0 0
          0 0 0 0 0 0
          0 0 0 0 0 0
          0 0 0 0 0 0
          0 0 0 0 0 0
          0 0 0 0 0 0
          0 0 0 0 0 0
          0 0 0 0 0 0
          0 0 0 0 0 0
          0 0 0 0 0 0
          0 0 0 0 0 0
          0 0 0 0 0 0
          0 0 0 0 0 0
          0 0 0 0 0 0
          0 0 0 0 0 0
          0 0 0 0 0 0
          0 0 0 0 0 0
          0 0 0 0 0 0
          0 0 0 0 0 0
          0 0 0 0 0 0
          0 0 0 0 0 0
          0 0 0 0 0 0
          0 0 0 0 0 0
          0 0 0 0 0 0
          0 0 0 0 0 0
          0 0 0 0 0 0
          0 0 0 0 0 0
          0 0 0 0 0 0
          0 0 0 0 0 0
          0 0 0 0 0 0
          0 0 0 0 0 0
          0 0 0 0 0 0
          0 0 0 0 0 0
          0 0 0 0 0 0
          0 0 0 0 0 0
          0 0 0 0 0 0
          0 0 0 0 0 0
          0 0 0 0 0 0
          0 0 0 0 0 0
          0 0 0 0 0 0
          0 0 0 0 0 0
          0 0 0 0 0 0
          0 0 0 0 0 0
          0 0 0 0 0 0
          0 0 0 0 0 0
          0 0 0 0 0 0
          0 0 0 0 0 0
          0 0 0 0 0 0
          0 0 0 0 0 0
          0 0 0 0 0 0
          0 0 0 0 0 0
          0 0 0 0 0 0
          0 0 0 0 0 0
          0 0 0 0 0 0
          0 0 0 0 0 0
          0 0 0 0 0 0
          0 0 0 0 0 0
          0 0 0 0 0 0
          0 0 0 0 0 0
          0 0 0 0 0 0
          0 0 0 0 0 0
          0 0 0 0 0 0
          0 0 0 0 0 0
          0 0 0 0 0 0
          0 0 0 0 0 0
          0 0 0 0 0 0
          0 0 0 0 0 0
          0 0 0 0 0 0
          0 0 0 0 0 0
          0 0 0 0 0 0
          0 0 0 0 0 0
          0 0 0 0 0 0
          0 0 0 0 0 0
        </DataArray>
        <DataArray type="Float64" Name="pe11" format="ascii" RangeMin="0" RangeMax="0">
          0 0 0 0 0 0
          0 0 0 0 0 0
          0 0 0 0 0 0
          0 0 0 0 0 0
          0 0 0 0 0 0
          0 0 0 0 0 0
          0 0 0 0 0 0
          0 0 0 0 0 0
          0 0 0 0 0 0
          0 0 0 0 0 0
          0 0 0 0 0 0
          0 0 0 0 0 0
          0 0 0 0 0 0
          0 0 0 0 0 0
          0 0 0 0 0 0
          0 0 0 0 0 0
          0 0 0 0 0 0
          0 0 0 0 0 0
          0 0 0 0 0 0
          0 0 0 0 0 0
          0 0 0 0 0 0
          0 0 0 0 0 0
          0 0 0 0 0 0
          0 0 0 0 0 0
          0 0 0 0 0 0
          0 0 0 0 0 0
          0 0 0 0 0 0
          0 0 0 0 0 0
          0 0 0 0 0 0
          0 0 0 0 0 0
          0 0 0 0 0 0
          0 0 0 0 0 0
          0 0 0 0 0 0
          0 0 0 0 0 0
          0 0 0 0 0 0
          0 0 0 0 0 0
          0 0 0 0 0 0
          0 0 0 0 0 0
          0 0 0 0 0 0
          0 0 0 0 0 0
          0 0 0 0 0 0
          0 0 0 0 0 0
          0 0 0 0 0 0
          0 0 0 0 0 0
          0 0 0 0 0 0
          0 0 0 0 0 0
          0 0 0 0 0 0
          0 0 0 0 0 0
          0 0 0 0 0 0
          0 0 0 0 0 0
          0 0 0 0 0 0
          0 0 0 0 0 0
          0 0 0 0 0 0
          0 0 0 0 0 0
          0 0 0 0 0 0
          0 0 0 0 0 0
          0 0 0 0 0 0
          0 0 0 0 0 0
          0 0 0 0 0 0
          0 0 0 0 0 0
          0 0 0 0 0 0
          0 0 0 0 0 0
          0 0 0 0 0 0
          0 0 0 0 0 0
          0 0 0 0 0 0
          0 0 0 0 0 0
          0 0 0 0 0 0
          0 0 0 0 0 0
          0 0 0 0 0 0
          0 0 0 0 0 0
          0 0 0 0 0 0
          0 0 0 0 0 0
          0 0 0 0 0 0
          0 0 0 0 0 0
          0 0 0 0 0 0
          0 0 0 0 0 0
          0 0 0 0 0 0
          0 0 0 0 0 0
          0 0 0 0 0 0
          0 0 0 0 0 0
          0 0 0 0 0 0
          0 0 0 0 0 0
          0 0 0 0 0 0
          0 0 0 0 0 0
          0 0 0 0 0 0
          0 0 0 0 0 0
          0 0 0 0 0 0
          0 0 0 0 0 0
          0 0 0 0 0 0
          0 0 0 0 0 0
          0 0 0 0 0 0
          0 0 0 0 0 0
          0 0 0 0 0 0
          0 0 0 0 0 0
          0 0 0 0 0 0
          0 0 0 0 0 0
          0 0 0 0 0 0
          0 0 0 0 0 0
          0 0 0 0 0 0
          0 0 0 0 0 0
          0 0 0 0 0 0
          0 0 0 0 0 0
          0 0 0 0 0 0
          0 0 0 0 0 0
          0 0 0 0 0 0
          0 0 0 0 0 0
          0 0 0 0 0 0
          0 0 0 0 0 0
          0 0 0 0 0 0
          0 0 0 0 0 0
          0 0 0 0 0 0
          0 0 0 0 0 0
          0 0 0 0 0 0
          0 0 0 0 0 0
          0 0 0 0 0 0
          0 0 0 0 0 0
          0 0 0 0 0 0
          0 0 0 0 0 0
          0 0 0 0 0 0
          0 0 0 0 0 0
          0 0 0 0 0 0
          0 0 0 0 0 0
          0 0 0 0 0 0
          0 0 0 0 0 0
          0 0 0 0 0 0
          0 0 0 0 0 0
        </DataArray>
        <DataArray type="Float64" Name="pe22" format="ascii" RangeMin="0" RangeMax="0">
          0 0 0 0 0 0
          0 0 0 0 0 0
          0 0 0 0 0 0
          0 0 0 0 0 0
          0 0 0 0 0 0
          0 0 0 0 0 0
          0 0 0 0 0 0
          0 0 0 0 0 0
          0 0 0 0 0 0
          0 0 0 0 0 0
          0 0 0 0 0 0
          0 0 0 0 0 0
          0 0 0 0 0 0
          0 0 0 0 0 0
          0 0 0 0 0 0
          0 0 0 0 0 0
          0 0 0 0 0 0
          0 0 0 0 0 0
          0 0 0 0 0 0
          0 0 0 0 0 0
          0 0 0 0 0 0
          0 0 0 0 0 0
          0 0 0 0 0 0
          0 0 0 0 0 0
          0 0 0 0 0 0
          0 0 0 0 0 0
          0 0 0 0 0 0
          0 0 0 0 0 0
          0 0 0 0 0 0
          0 0 0 0 0 0
          0 0 0 0 0 0
          0 0 0 0 0 0
          0 0 0 0 0 0
          0 0 0 0 0 0
          0 0 0 0 0 0
          0 0 0 0 0 0
          0 0 0 0 0 0
          0 0 0 0 0 0
          0 0 0 0 0 0
          0 0 0 0 0 0
          0 0 0 0 0 0
          0 0 0 0 0 0
          0 0 0 0 0 0
          0 0 0 0 0 0
          0 0 0 0 0 0
          0 0 0 0 0 0
          0 0 0 0 0 0
          0 0 0 0 0 0
          0 0 0 0 0 0
          0 0 0 0 0 0
          0 0 0 0 0 0
          0 0 0 0 0 0
          0 0 0 0 0 0
          0 0 0 0 0 0
          0 0 0 0 0 0
          0 0 0 0 0 0
          0 0 0 0 0 0
          0 0 0 0 0 0
          0 0 0 0 0 0
          0 0 0 0 0 0
          0 0 0 0 0 0
          0 0 0 0 0 0
          0 0 0 0 0 0
          0 0 0 0 0 0
          0 0 0 0 0 0
          0 0 0 0 0 0
          0 0 0 0 0 0
          0 0 0 0 0 0
          0 0 0 0 0 0
          0 0 0 0 0 0
          0 0 0 0 0 0
          0 0 0 0 0 0
          0 0 0 0 0 0
          0 0 0 0 0 0
          0 0 0 0 0 0
          0 0 0 0 0 0
          0 0 0 0 0 0
          0 0 0 0 0 0
          0 0 0 0 0 0
          0 0 0 0 0 0
          0 0 0 0 0 0
          0 0 0 0 0 0
          0 0 0 0 0 0
          0 0 0 0 0 0
          0 0 0 0 0 0
          0 0 0 0 0 0
          0 0 0 0 0 0
          0 0 0 0 0 0
          0 0 0 0 0 0
          0 0 0 0 0 0
          0 0 0 0 0 0
          0 0 0 0 0 0
          0 0 0 0 0 0
          0 0 0 0 0 0
          0 0 0 0 0 0
          0 0 0 0 0 0
          0 0 0 0 0 0
          0 0 0 0 0 0
          0 0 0 0 0 0
          0 0 0 0 0 0
          0 0 0 0 0 0
          0 0 0 0 0 0
          0 0 0 0 0 0
          0 0 0 0 0 0
          0 0 0 0 0 0
          0 0 0 0 0 0
          0 0 0 0 0 0
          0 0 0 0 0 0
          0 0 0 0 0 0
          0 0 0 0 0 0
          0 0 0 0 0 0
          0 0 0 0 0 0
          0 0 0 0 0 0
          0 0 0 0 0 0
          0 0 0 0 0 0
          0 0 0 0 0 0
          0 0 0 0 0 0
          0 0 0 0 0 0
          0 0 0 0 0 0
          0 0 0 0 0 0
          0 0 0 0 0 0
          0 0 0 0 0 0
          0 0 0 0 0 0
          0 0 0 0 0 0
          0 0 0 0 0 0
          0 0 0 0 0 0
        </DataArray>
        <DataArray type="Float64" Name="pe33" format="ascii" RangeMin="0" RangeMax="0">
          0 0 0 0 0 0
          0 0 0 0 0 0
          0 0 0 0 0 0
          0 0 0 0 0 0
          0 0 0 0 0 0
          0 0 0 0 0 0
          0 0 0 0 0 0
          0 0 0 0 0 0
          0 0 0 0 0 0
          0 0 0 0 0 0
          0 0 0 0 0 0
          0 0 0 0 0 0
          0 0 0 0 0 0
          0 0 0 0 0 0
          0 0 0 0 0 0
          0 0 0 0 0 0
          0 0 0 0 0 0
          0 0 0 0 0 0
          0 0 0 0 0 0
          0 0 0 0 0 0
          0 0 0 0 0 0
          0 0 0 0 0 0
          0 0 0 0 0 0
          0 0 0 0 0 0
          0 0 0 0 0 0
          0 0 0 0 0 0
          0 0 0 0 0 0
          0 0 0 0 0 0
          0 0 0 0 0 0
          0 0 0 0 0 0
          0 0 0 0 0 0
          0 0 0 0 0 0
          0 0 0 0 0 0
          0 0 0 0 0 0
          0 0 0 0 0 0
          0 0 0 0 0 0
          0 0 0 0 0 0
          0 0 0 0 0 0
          0 0 0 0 0 0
          0 0 0 0 0 0
          0 0 0 0 0 0
          0 0 0 0 0 0
          0 0 0 0 0 0
          0 0 0 0 0 0
          0 0 0 0 0 0
          0 0 0 0 0 0
          0 0 0 0 0 0
          0 0 0 0 0 0
          0 0 0 0 0 0
          0 0 0 0 0 0
          0 0 0 0 0 0
          0 0 0 0 0 0
          0 0 0 0 0 0
          0 0 0 0 0 0
          0 0 0 0 0 0
          0 0 0 0 0 0
          0 0 0 0 0 0
          0 0 0 0 0 0
          0 0 0 0 0 0
          0 0 0 0 0 0
          0 0 0 0 0 0
          0 0 0 0 0 0
          0 0 0 0 0 0
          0 0 0 0 0 0
          0 0 0 0 0 0
          0 0 0 0 0 0
          0 0 0 0 0 0
          0 0 0 0 0 0
          0 0 0 0 0 0
          0 0 0 0 0 0
          0 0 0 0 0 0
          0 0 0 0 0 0
          0 0 0 0 0 0
          0 0 0 0 0 0
          0 0 0 0 0 0
          0 0 0 0 0 0
          0 0 0 0 0 0
          0 0 0 0 0 0
          0 0 0 0 0 0
          0 0 0 0 0 0
          0 0 0 0 0 0
          0 0 0 0 0 0
          0 0 0 0 0 0
          0 0 0 0 0 0
          0 0 0 0 0 0
          0 0 0 0 0 0
          0 0 0 0 0 0
          0 0 0 0 0 0
          0 0 0 0 0 0
          0 0 0 0 0 0
          0 0 0 0 0 0
          0 0 0 0 0 0
          0 0 0 0 0 0
          0 0 0 0 0 0
          0 0 0 0 0 0
          0 0 0 0 0 0
          0 0 0 0 0 0
          0 0 0 0 0 0
          0 0 0 0 0 0
          0 0 0 0 0 0
          0 0 0 0 0 0
          0 0 0 0 0 0
          0 0 0 0 0 0
          0 0 0 0 0 0
          0 0 0 0 0 0
          0 0 0 0 0 0
          0 0 0 0 0 0
          0 0 0 0 0 0
          0 0 0 0 0 0
          0 0 0 0 0 0
          0 0 0 0 0 0
          0 0 0 0 0 0
          0 0 0 0 0 0
          0 0 0 0 0 0
          0 0 0 0 0 0
          0 0 0 0 0 0
          0 0 0 0 0 0
          0 0 0 0 0 0
          0 0 0 0 0 0
          0 0 0 0 0 0
          0 0 0 0 0 0
          0 0 0 0 0 0
          0 0 0 0 0 0
          0 0 0 0 0 0
          0 0 0 0 0 0
          0 0 0 0 0 0
        </DataArray>
        <DataArray type="Float64" Name="disp_x" format="ascii" RangeMin="0" RangeMax="4.67990998372259e-7">
          2.1566464717058632e-8 0 2.1565902500015686e-8 0 2.1564211508900675e-8 0
          2.1546231727227268e-8 0 2.1545437894149164e-8 0 2.154302920125944e-8 0
          2.1524005138652947e-8 0 2.1522844938311223e-8 0 2.1519315465150016e-8 0
          2.150067526326896e-8 0 2.1498888996959787e-8 0 2.1493480065893085e-8 0
          2.147883398086382e-8 0 2.1475968964932234e-8 0 2.146726843403228e-8 0
          2.1466641221110173e-8 0 2.1461607544063497e-8 0 2.144654042812185e-8 0
          2.148806986921479e-8 0 2.1478838297536808e-8 0 2.1450999424843673e-8 0
          2.1621390403488546e-8 0 2.1600877840932738e-8 0 2.1540096309084546e-8 0
          2.2108641186375096e-8 0 2.2061665787372425e-8 0 2.1912846558358527e-8 0
          2.4999255390238997e-8 0 2.481853654642733e-8 0 2.4266340568194776e-8 0
          4.313573729451667e-8 4.313461464365792e-8 4.313125246459251e-8 4.309633234022643e-8 4.3094779608681815e-8 4.309000870240949e-8
          4.3053612943280876e-8 4.3051319068740236e-8 4.304433337441918e-8 4.3009696543631074e-8 4.300617862382449e-8 4.2995495707016215e-8
          4.297068176412824e-8 4.296503341063284e-8 4.2947844649906105e-8 4.295452653614477e-8 4.294466496985892e-8 4.291507475214093e-8
          4.301367009102569e-8 4.29954739911922e-8 4.2940513737053065e-8 4.3309983945309945e-8 4.327049139566947e-8 4.315312718845866e-8
          4.439778747409878e-8 4.4306538985223235e-8 4.401910254359459e-8 5.012220541564495e-8 4.979496993536641e-8 4.8811290835145646e-8
          6.47104774497898e-8 6.47088608184967e-8 6.47039038280888e-8 6.465410147624621e-8 6.465184086006593e-8 6.464483292946432e-8
          6.459422331492177e-8 6.459089337851824e-8 6.458063407746534e-8 6.453508863522361e-8 6.452997627751326e-8 6.45143078291991e-8
          6.448798310842722e-8 6.447976869996365e-8 6.445460288713751e-8 6.448381937123762e-8 6.446951740633767e-8 6.442633510916575e-8
          6.461110446381726e-8 6.458470716549646e-8 6.45047740938284e-8 6.513028976196268e-8 6.507409351006388e-8 6.490580375486054e-8
          6.699724524562161e-8 6.686862051180912e-8 6.64710063391886e-8 7.544045643891668e-8 7.502135333264571e-8 7.375681285007778e-8
          8.629337203948681e-8 8.629133424277062e-8 8.628494439626384e-8 8.622316860481417e-8 8.622029976849567e-8 8.621127497706265e-8
          8.61509775999376e-8 8.614675379415095e-8 8.61335505052348e-8 8.608438028344922e-8 8.607789496589365e-8 8.605775415140539e-8
          8.604209012034256e-8 8.60316370962672e-8 8.599934605665214e-8 8.607291279310685e-8 8.60547983151806e-8 8.59995899453681e-8
          8.630829401856085e-8 8.627474905026283e-8 8.61727882124197e-8 8.714254217534923e-8 8.707287889581968e-8 8.686335703202677e-8
          8.993269351838815e-8 8.977589497919409e-8 8.929622344158616e-8 1.0114312266331632e-7 1.0068925984992368e-7 9.933520039212337e-8
          1.0788691451311617e-7 1.078845469727014e-7 1.0787700391145735e-7 1.0780691677462907e-7 1.0780357342489207e-7 1.0779291749653748e-7
          1.0772859552262891e-7 1.0772366630692378e-7 1.0770807773170832e-7 1.0766429780219981e-7 1.0765672133006182e-7 1.0763293784127086e-7
          1.0764310316312025e-7 1.0763084871561208e-7 1.0759276710466191e-7 1.0773625846638627e-7 1.0771509360052627e-7 1.0765002989893189e-7
          1.0813116449874919e-7 1.0809191910118475e-7 1.0797249201032023e-7 1.0936777036585084e-7 1.0928817172529814e-7 1.090469328819757e-7
          1.1325561422840819e-7 1.1308178115062494e-7 1.1255782430921483e-7 1.2695081969122279e-7 1.2650376276025028e-7 1.2518603868341689e-7
          1.294934665187779e-7 1.2949083036263206e-7 1.2948254587111863e-7 1.2940851673122447e-7 1.2940478592997447e-7 1.2939306305643525e-7
          1.2933137692855677e-7 1.2932587159345096e-7 1.293086950164163e-7 1.292808549160341e-7 1.29272389680277e-7 1.2924613048521148e-7
          1.2929922839069258e-7 1.2928552398119574e-7 1.2924340812612309e-7 1.2948613595644553e-7 1.2946258301262256e-7 1.2939064717571006e-7
          1.300932910709431e-7 1.3004984820043048e-7 1.2991807221385193e-7 1.318231621840633e-7 1.3173740437110694e-7 1.3147667037448142e-7
          1.3690482178834093e-7 1.3672407865777214e-7 1.361852225254905e-7 1.5268268501836832e-7 1.5227647149392113e-7 1.510750191069427e-7
          1.5111541079617422e-7 1.5111236793781364e-7 1.5110371911631574e-7 1.5103108239408293e-7 1.510267840622912e-7 1.5101450434328973e-7
          1.5096344065154124e-7 1.509571311530351e-7 1.5093909352135944e-7 1.5093946339610142e-7 1.5092983980598881e-7 1.5090216920998758e-7
          1.5101758280443752e-7 1.510021605203441e-7 1.5095767016572598e-7 1.5133082077137594e-7 1.5130479951534994e-7 1.5122883449547138e-7
          1.5220287227064004e-7 1.5215600887936595e-7 1.5201736011016467e-7 1.545008113232901e-7 1.5441235243757156e-7 1.5414424873453655e-7
          1.6078211928335939e-7 1.6060525073877492e-7 1.6007501676565525e-7 1.782079712184036e-7 1.7786115298283806e-7 1.7681133552818508e-7
          1.7275563582529786e-7 1.7275124952817252e-7 1.7274186036560655e-7 1.7267829271131755e-7 1.726721864361104e-7 1.7265885501627562e-7
          1.7262952650414573e-7 1.7262075938263646e-7 1.726012387317292e-7 1.7264609628758659e-7 1.7263316442166385e-7 1.7260334923980426e-7
          1.7280530879103544e-7 1.727854159369235e-7 1.7273784682985633e-7 1.7327727389576313e-7 1.732456039592506e-7 1.7316547645777362e-7
          1.7446237084845597e-7 1.744094866337597e-7 1.74266709953175e-7 1.7737621805725647e-7 1.7728684585444407e-7 1.770214617053887e-7
          1.8477790356213586e-7 1.846190028521217e-7 1.841225828987226e-7 2.0338269535589603e-7 2.0312079442266828e-7 2.0223513827019613e-7
          1.9433199404371444e-7 1.9432286190028452e-7 1.942950899932594e-7 1.9440329618538384e-7 1.9438990875624475e-7 1.9434907383652406e-7
          1.9466422424953894e-7 1.9464384204179447e-7 1.9458172243681453e-7 1.953247773868034e-7 1.9529281404647084e-7 1.9519494728724527e-7
          1.9686071526451712e-7 1.9680852861104367e-7 1.96650002392129e-7 2.0041499272232742e-7 2.0032939964691682e-7 2.000706991145148e-7
          2.0879303127481803e-7 2.0864828029553812e-7 2.0823173560178687e-7 2.2813719306194575e-7 2.279219737184395e-7 2.2728387888044688e-7
          2.8583994795314033e-7 2.673349798496231e-7 2.7364246573959534e-7 2.923887574683315e-7 2.8577656075264047e-7 2.670946485612871e-7
          2.7351316745912e-7 2.9243959120708435e-7 2.85943853708943e-7 2.665956213021214e-7 2.733286067499137e-7 2.929025107171741e-7
          3.039021951383287e-7 3.0871877241248844e-7 3.040074957344171e-7 3.08899207493848e-7 3.0480366168497926e-7 3.099125656224184e-7
          2.9946797944339093e-7 3.141133960315671e-7 3.128883795097662e-7 2.9948140262788375e-7 3.142340493065429e-7 3.129957298466952e-7
          3.000077927862717e-7 3.1523822733396295e-7 3.138504914562822e-7 3.714855138339093e-8 5.824850649849629e-8 4.301724317670247e-8
          3.00677980196845e-8 3.672303146344298e-8 5.7582577575192236e-8 4.246136771697481e-8 2.9683318284302718e-8 3.5242627365412274e-8
          5.5168170715751485e-8 4.0355104697471234e-8 2.828221336510655e-8 1.6795528613436508e-7 1.8769934008215913e-7 2.1182630673225758e-7
          1.9502021176037778e-7 1.6685925732422127e-7 1.8673557124458584e-7 2.1095855775213226e-7 1.941441011196915e-7 1.6199069873475722e-7
          1.8321826252420346e-7 2.0740864141397512e-7 1.894379434815298e-7 9.322484664102718e-8 9.868745840401643e-8 7.695136930804573e-8
          7.222740101816859e-8 9.262566562591467e-8 9.794352956293597e-8 7.627061157252951e-8 7.167990674599765e-8 9.069384451512349e-8
          9.54480521365329e-8 7.396589142484777e-8 6.989861370434085e-8 1.6948623113353133e-7 1.6156835307192685e-7 1.905303623597754e-7
          1.960862525699925e-7 1.6882305371440734e-7 1.6099190212853405e-7 1.900759522677684e-7 1.9555016727324605e-7 1.6677896861416276e-7
          1.5921084704713763e-7 1.8868356803007313e-7 1.9385773440696273e-7 2.1420731838864428e-7 1.911595196619553e-7 2.1393015923730851e-7
          1.9079558603788439e-7 2.1304020296356197e-7 1.896599122885902e-7 6.152744767043481e-8 8.078068698149887e-8 6.092905059882912e-8
          7.997470612049382e-8 5.8875939473115005e-8 7.714300338193449e-8 2.8834054420752425e-7 3.0276821220556116e-7 3.0551604706375877e-7
          2.8553193233344766e-7 2.882397733622974e-7 3.0281048409304684e-7 3.0559142177861534e-7 2.8548411388741114e-7 2.882542950025949e-7
          3.03328508133338e-7 3.062692761224293e-7 2.853396494910784e-7 1.1867096934817571e-8 2.6442136423257185e-8 1.747317408697245e-8
          0 1.1752486022231691e-8 2.6196763673597065e-8 1.727581208683001e-8 0 1.1383784376865694e-8
          2.5384016254516767e-8 1.6606592665328263e-8 0 6.90324461687294e-8 5.6588245326178523e-8 6.823171054921105e-8
          5.5866079198841534e-8 6.504505705848404e-8 5.277945801690431e-8 2.789531998465829e-7 2.8804006575183375e-7 3.070224141445921e-7
          3.021319804683159e-7 2.789184239620224e-7 2.8800239129281455e-7 3.071318451861875e-7 3.0224907566059044e-7 2.788241226190646e-7
          2.879556232755011e-7 3.0756511765466156e-7 3.02927014940966e-7 1.0248692450281621e-7 5.2183821930065164e-8 4.899613748838735e-8
          8.045002161119516e-8 1.0191891930460481e-7 5.1839891939479177e-8 4.85659758163915e-8 7.967166575641725e-8 9.71010147323656e-8
          4.904460767351614e-8 4.554285094419459e-8 7.50098230392908e-8 3.226981826635924e-7 3.1468757073819413e-7 3.132659618019479e-7
          3.22258970984041e-7 3.2279667683765673e-7 3.1477304228046e-7 3.1335758192575233e-7 3.2232069581021504e-7 3.2349394242073667e-7
          3.154814132749865e-7 3.141085965709589e-7 3.2305718117335824e-7 1.4343608456045063e-7 1.45690127664081e-7 1.4277831235465625e-7
          1.4494666760695384e-7 1.4072064083660684e-7 1.4257575437179868e-7 4.8820787140389814e-8 4.8383426560036176e-8 4.692214464446409e-8
          2.711304161182209e-7 2.5357293425206956e-7 2.708395748019304e-7 2.5313809829092695e-7 2.702011359833651e-7 2.5195161680600195e-7
          2.3348910712335237e-7 2.1919662642776675e-7 2.449708637762263e-7 2.328025352945386e-7 2.184842005290904e-7 2.4451860411564095e-7
          2.3054379735998006e-7 2.1621746072894484e-7 2.4325246145556883e-7 1.2980569946818268e-7 1.426405866942818e-7 1.1854572866168811e-7
          9.536057691105906e-8 1.2873987876741961e-7 1.4150563671385748e-7 1.1743515103233181e-7 9.434037602313081e-8 1.2483439788801352e-7
          1.368873126114281e-7 1.122640287477564e-7 9.051038865862394e-8 0 1.6330424237066712e-8 0
          0 1.6121413334269822e-8 0 0 1.53740677476273e-8 0
          2.1732841439397857e-7 1.6972942258667973e-7 2.170032848532002e-7 1.692825769272433e-7 2.1599937409916388e-7 1.679226281670153e-7
          2.3013596892364473e-7 2.2801985528337257e-7 2.295019094504709e-7 2.2753663775711176e-7 2.2630280028712707e-7 2.2380003311770157e-7
          1.8947061329438978e-7 2.1753044143725715e-7 1.8864121275083963e-7 2.1694005390764317e-7 1.859333355809818e-7 2.1518281521964133e-7
          0 1.72908480799083e-8 2.2612953149180227e-8 0 0 1.7039553209943345e-8
          2.2337440211712128e-8 0 0 1.5960370199257454e-8 2.0856311946614437e-8 0
          1.231730839954757e-7 1.2773137101083296e-7 1.0303870707788339e-7 1.2240919455072913e-7 1.26817243978213e-7 1.0214375401294474e-7
          1.1988447836196037e-7 1.2362576024201275e-7 9.903979629897633e-8 2.542675309258391e-7 2.567673357816258e-7 2.5400252031032477e-7
          2.564823810311027e-7 2.5327564556331866e-7 2.557502879345465e-7 1.200378648298967e-7 1.4473904618189513e-7 1.194286881677241e-7
          1.4421469759390044e-7 1.1749934248980862e-7 1.426009954991748e-7 1.6471146461655458e-7 1.570156146282661e-7 1.638605471796975e-7
          1.5598567253932407e-7 1.6107732608812893e-7 1.5218064685628275e-7 1.9368781110723475e-7 2.2638545500202598e-7 1.930261450406094e-7
          2.2598874165140575e-7 1.9094052886145397e-7 2.2477945942438106e-7 3.2221392768856164e-7 3.166512544212729e-7 3.2300597207581573e-7
          3.2225102388771686e-7 3.167802412566377e-7 3.2304358192686165e-7 3.231814662495109e-7 3.1792800333386555e-7 3.240754269644235e-7
          2.526040716545694e-7 2.6941331523265913e-7 2.284729622242308e-7 2.523888087042105e-7 2.692703814288124e-7 2.281447087648379e-7
          2.5180158224438884e-7 2.68884051143378e-7 2.271330130768755e-7 1.3653101984376917e-8 1.1341229106026711e-8 0
          1.346748168817678e-8 1.1174593135932891e-8 0 1.2767280852630951e-8 1.0528573023093037e-8 0
          0 0 0 3.2676196319842765e-7 3.2087781000272755e-7 3.22069906059456e-7
          3.297332558778295e-7 3.26802845445116e-7 3.2102809926429153e-7 3.222361179747462e-7 3.297778027161037e-7 3.279859561031395e-7
          3.2235009125687723e-7 3.235259195436987e-7 3.310026844886046e-7 2.6793937234403684e-8 3.3052978260853184e-8 2.6421862495182177e-8
          3.259955106686209e-8 2.4976455429239714e-8 3.0661294288511234e-8 3.189874180994181e-7 3.244991951219205e-7 3.1913356946410105e-7
          3.2453883299840755e-7 3.2039110743691115e-7 3.256618424755882e-7 2.7156238787740626e-8 4.646049435131687e-8 2.691529891262445e-8
          4.589175758705765e-8 2.5193947413014165e-8 4.297814684985961e-8 8.369183519658047e-8 1.125804750779944e-7 8.274935193132919e-8
          1.1167868067851897e-7 7.838894308347297e-8 1.0624642711178382e-7 3.1343710812865776e-7 3.1363305171576236e-7 3.147462157354873e-7
          2.3864749245630617e-7 2.3840969495125347e-7 2.3776185150404455e-7 1.5270185196247997e-7 1.9146649782841175e-7 1.5171549661321284e-7
          1.9078675898503298e-7 1.4601237973836674e-7 1.8554637371693328e-7 2.0934974209285532e-7 2.0892754583015086e-7 2.0760505256293912e-7
          2.5326975970034385e-7 2.527932689747517e-7 2.5094557312932927e-7 3.2202802331880235e-7 3.2207209046515654e-7 3.228957697326768e-7
          2.546413009022761e-7 2.544351726053511e-7 2.537728719066501e-7 3.2374187010516546e-7 3.240217997469952e-7 3.249773921418471e-7
          2.596609648803827e-7 2.5933951025465036e-7 2.5765741539039345e-7 1.4952730784112806e-7 1.4882690022688952e-7 1.4299754519802673e-7
          0 0 0 0 0 0
          3.3342103995666007e-7 3.3357490222113503e-7 3.3467150873682743e-7 3.228603788456668e-7 3.2295564584051223e-7 3.2369405038961904e-7
          2.819008642895205e-7 2.818849894235385e-7 2.818343611403489e-7 3.7003513403681467e-7 3.7002048392732636e-7 3.699787795864707e-7
          2.82710652787778e-7 2.8268812133274404e-7 2.8261639381754097e-7 3.714943632121835e-7 3.714750732537188e-7 3.7142032423388023e-7
          2.8427585321855943e-7 2.8424368724378793e-7 2.84141617718659e-7 2.8727172290588554e-7 2.872261607468595e-7 2.870833299417432e-7
          2.92993842468268e-7 2.929326409277288e-7 2.9274402917008444e-7 3.0369229736311377e-7 3.0361429551875915e-7 3.033929281866847e-7
          3.2243354073227553e-7 3.2236973778236473e-7 3.2217093190457335e-7 2.775553402928568e-7 2.9344559814729786e-7 2.774227710454685e-7
          2.933683799685981e-7 2.770423623657192e-7 2.9310698447860964e-7 3.480206323888271e-7 3.625122671891407e-7 3.251163056184738e-7
          3.0883142303340165e-7 3.480614558899115e-7 3.626427936476345e-7 3.2523463999517917e-7 3.088038341094879e-7 3.481570114961246e-7
          3.6304047872868914e-7 3.2561137606835416e-7 3.0879558967100177e-7 3.407607014435653e-7 3.409921589453043e-7 3.417674330433092e-7
          3.3724600259930597e-7 3.372219908168593e-7 3.371460406713424e-7 3.822120332962148e-7 3.824042428559477e-7 3.8305399461304085e-7
          4.6061019662027944e-7 4.585741728640604e-7 4.6059586928410674e-7 4.585623973967247e-7 4.605518553448018e-7 4.5852635544396795e-7
          3.739706726463493e-7 3.739455855739533e-7 3.738748968884506e-7 4.637490176213653e-7 4.637321885350101e-7 4.6368031448773704e-7
          3.7813185068934596e-7 3.781007044066506e-7 3.7801303587418923e-7 3.849859034855483e-7 3.849500935692465e-7 3.8484907823899633e-7
          3.957765458903535e-7 3.9574533893470796e-7 3.9564880663898226e-7 4.1092724090875146e-7 4.1091588393793316e-7 4.108837796886375e-7
          3.988167776959452e-7 3.988448039082163e-7 3.9893161786067614e-7 4.460038150106211e-7 4.0750538292334977e-7 4.6768433868967993e-7
          4.46121729986237e-7 4.076032221131036e-7 4.67764452324798e-7 4.4651612767860165e-7 4.0789864398077653e-7 4.67990998372259e-7
        </DataArray>
        <DataArray type="Float64" Name="disp_y" format="ascii" RangeMin="-7.628408232829521e-7" RangeMax="-4.664642553564814e-7">
          -4.665284247476291e-7 -4.664965456271469e-7 -4.665203714930837e-7 -4.6648850513326715e-7 -4.6649615087246703e-7 -4.664642553564814e-7
          -4.882954184882976e-7 -4.882542185126002e-7 -4.88284846441175e-7 -4.882436762741042e-7 -4.882531161049403e-7 -4.882118968506909e-7
          -5.096056160242522e-7 -5.095510327066044e-7 -5.095913942747224e-7 -5.095367990507552e-7 -5.09548717380743e-7 -5.094939827180363e-7
          -5.303222190948994e-7 -5.302478146128092e-7 -5.30302532818324e-7 -5.302280779762897e-7 -5.302434622974947e-7 -5.301687295314753e-7
          -5.502484446151322e-7 -5.501434386159767e-7 -5.50220222573097e-7 -5.501150519887924e-7 -5.501353579469405e-7 -5.500296449505694e-7
          -5.690918816925253e-7 -5.689371132669879e-7 -5.690488599422016e-7 -5.688938348826815e-7 -5.689205271336346e-7 -5.687643892575783e-7
          -5.864006686707468e-7 -5.861594174945478e-7 -5.863335707103677e-7 -5.860912062572307e-7 -5.861276832365486e-7 -5.858827649534315e-7
          -6.014659184874916e-7 -6.010634332061026e-7 -6.013496222352329e-7 -6.009458421990031e-7 -6.010035780363612e-7 -6.00593322872309e-7
          -6.131961499014992e-7 -6.124190015825249e-7 -6.129455437291468e-7 -6.121615231536621e-7 -6.121928711826712e-7 -6.113883877153283e-7
          -6.208212205471698e-7 -6.191368656221501e-7 -6.202748777397947e-7 -6.185517841855292e-7 -6.185645738925038e-7 -6.167362681511251e-7
          -4.6662369423166556e-7 -4.666156688206469e-7 -4.6659166451314606e-7 -4.884187662556497e-7 -4.884082623363704e-7 -4.883768770472637e-7
          -5.097689073076517e-7 -5.097548406015206e-7 -5.097127295171265e-7 -5.305444869693109e-7 -5.305250877687106e-7 -5.304669869058544e-7
          -5.50561605208953e-7 -5.505339445528647e-7 -5.504508524334599e-7 -5.695525301672456e-7 -5.695105522011495e-7 -5.693855979633697e-7
          -5.871158375710008e-7 -5.870516193850225e-7 -5.868535539754456e-7 -6.026582249852816e-7 -6.025469086028884e-7 -6.022194485114515e-7
          -6.154551887957777e-7 -6.152244511085479e-7 -6.145317641019594e-7 -6.256065380201174e-7 -6.251509216722731e-7 -6.237225668340849e-7
          -4.6678137697744136e-7 -4.6677347744150455e-7 -4.6674985093943456e-7 -4.886226989052911e-7 -4.886123795012784e-7 -4.885815825016496e-7
          -5.100385878076461e-7 -5.100248219963585e-7 -5.099836525713409e-7 -5.309109100884131e-7 -5.308920253919891e-7 -5.308355247501886e-7
          -5.510764733872191e-7 -5.51049775425738e-7 -5.509695552609272e-7 -5.703071991323412e-7 -5.702669726129008e-7 -5.701476302149879e-7
          -5.882804697821057e-7 -5.882208533376713e-7 -5.880350416778461e-7 -6.045856711401485e-7 -6.044823607591729e-7 -6.041852855509771e-7
          -6.190286120892453e-7 -6.18829293878333e-7 -6.182257115705622e-7 -6.32625439953674e-7 -6.322952520726649e-7 -6.312525842274129e-7
          -4.670001613313674e-7 -4.669924260854994e-7 -4.6696930709398617e-7 -4.889052483614148e-7 -4.888951797905499e-7 -4.888651677301584e-7
          -5.104113738350548e-7 -5.103980188120328e-7 -5.103581137927314e-7 -5.314158751185022e-7 -5.313976850885748e-7 -5.313433394459674e-7
          -5.517830644624473e-7 -5.517576605077622e-7 -5.516812971309722e-7 -5.713370159400702e-7 -5.712992117264207e-7 -5.711874522707164e-7
          -5.898556349144753e-7 -5.898018032782019e-7 -5.896322330490126e-7 -6.071684752562485e-7 -6.070765951118994e-7 -6.068186639563213e-7
          -6.235918042726803e-7 -6.234296277564256e-7 -6.229341366140365e-7 -6.412776168074037e-7 -6.41083443812965e-7 -6.4046195173861e-7
          -4.6727809002359293e-7 -4.672705541655921e-7 -4.672480595286641e-7 -4.892634081470755e-7 -4.892536465636951e-7 -4.892245939928814e-7
          -5.108825329277234e-7 -5.108696766866535e-7 -5.108313241421127e-7 -5.320515406339262e-7 -5.320342067910513e-7 -5.319824887557548e-7
          -5.526678207517033e-7 -5.526439642028317e-7 -5.525723382427886e-7 -5.726158851996708e-7 -5.725811164208568e-7 -5.724785038883537e-7
          -5.917944568968149e-7 -5.91747330796589e-7 -5.915976576544376e-7 -6.102737904390435e-7 -6.101953327513964e-7 -6.099806759856675e-7
          -6.289106545110964e-7 -6.287911599453488e-7 -6.284195478983103e-7 -6.502837445725458e-7 -6.502080158099314e-7 -6.499359442213586e-7
          -4.6761270146732485e-7 -4.676053926384627e-7 -4.675836100267022e-7 -4.89693445847232e-7 -4.896840341361918e-7 -4.89656075394321e-7
          -5.114461799523144e-7 -5.114338945086409e-7 -5.113973129503186e-7 -5.328083131839448e-7 -5.327919570254793e-7 -5.327432428455648e-7
          -5.537138855021521e-7 -5.536917843169717e-7 -5.536255376633459e-7 -5.74114056450475e-7 -5.740828152951411e-7 -5.739906989790352e-7
          -5.940329813942292e-7 -5.939929911601648e-7 -5.93865354347256e-7 -6.137848174298279e-7 -6.137218415294888e-7 -6.135541066710048e-7
          -6.346042889463662e-7 -6.345268705142848e-7 -6.342763780696839e-7 -6.591160619724312e-7 -6.591310218681233e-7 -6.59132881116769e-7
          -4.6800107184837065e-7 -4.6799401356419895e-7 -4.6797299372693985e-7 -4.901909611662932e-7 -4.90181936815928e-7 -4.901551483907767e-7
          -5.120954396796883e-7 -5.120837846439416e-7 -5.120491090786151e-7 -5.33674964847346e-7 -5.336596856460129e-7 -5.336142069290029e-7
          -5.549023689079835e-7 -5.548821852371286e-7 -5.54821748285441e-7 -5.757965213040176e-7 -5.757691429935375e-7 -5.756883482323998e-7
          -5.965060430987106e-7 -5.964733546543942e-7 -5.963691005720149e-7 -6.175594153930008e-7 -6.175130290426525e-7 -6.173929204843258e-7
          -6.403877119316956e-7 -6.403483801104198e-7 -6.402114711343139e-7 -6.673259334881353e-7 -6.674047108082272e-7 -6.675950853200566e-7
          -4.684398825868542e-7 -4.6843308840404864e-7 -4.6841285647655115e-7 -4.907509853133067e-7 -4.907423683501892e-7 -4.907167837808451e-7
          -5.128225463039739e-7 -5.128115634131902e-7 -5.127788633053168e-7 -5.34639129112698e-7 -5.346249747355562e-7 -5.345828688361556e-7
          -5.56212376231767e-7 -5.561941988232315e-7 -5.561397929199601e-7 -5.776267211071888e-7 -5.776033248330684e-7 -5.775342716844103e-7
          -5.991438456694896e-7 -5.991185141483051e-7 -5.990377591015754e-7 -6.214611074178396e-7 -6.21431252713057e-7 -6.21357791826612e-7
          -6.460398043923249e-7 -6.460354715601799e-7 -6.459998597016426e-7 -6.746953922243049e-7 -6.748101949574179e-7 -6.751216451597006e-7
          -5.136188030444614e-7 -5.136088125126471e-7 -5.135779612059276e-7 -5.356872897934283e-7 -5.356746529631523e-7 -5.356357483843126e-7
          -5.576217897900086e-7 -5.576060537016315e-7 -5.575574796308181e-7 -5.795666044995181e-7 -5.795476558763934e-7 -5.794900084031467e-7
          -6.018789465960537e-7 -6.01860144187984e-7 -6.018025868349139e-7 -6.253637168851057e-7 -6.253485082913002e-7 -6.253199079462565e-7
          -6.514223210102293e-7 -6.514366926154458e-7 -6.514994689039961e-7 -6.811630926549196e-7 -6.813094948337453e-7 -6.816928623844511e-7
          -7.098547216773232e-7 -7.081724498067837e-7 -7.154984166039939e-7 -7.200300610526248e-7 -7.110561099348413e-7 -7.092583549329632e-7
          -7.164386637740153e-7 -7.210127538140838e-7 -7.148615393031414e-7 -7.128252103944865e-7 -7.194402881948693e-7 -7.240870895612083e-7
          -7.145699117511591e-7 -7.231630519974164e-7 -7.15772477499533e-7 -7.241953333248137e-7 -7.193886191937046e-7 -7.273000294044902e-7
          -7.038648493912818e-7 -7.154306116855469e-7 -7.067436023152665e-7 -7.0523383509405e-7 -7.166700970729283e-7 -7.08115062055334e-7
          -7.093612959877639e-7 -7.203001661773296e-7 -7.121048078653118e-7 -6.246542780479263e-7 -6.302041025592318e-7 -6.264848983393483e-7
          -6.237549582535773e-7 -6.240055095998712e-7 -6.296627458671515e-7 -6.25821730102423e-7 -6.230332682978753e-7 -6.214380737630855e-7
          -6.274088770486801e-7 -6.229298131040958e-7 -6.200298658553623e-7 -6.643470794947819e-7 -6.783508157027909e-7 -6.775576109298003e-7
          -6.657662847571862e-7 -6.647781039915326e-7 -6.790728484169154e-7 -6.784099228259712e-7 -6.663245134124604e-7 -6.671173116929022e-7
          -6.81815754193502e-7 -6.823579126130054e-7 -6.697723857101316e-7 -6.412114946996675e-7 -6.446009269955738e-7 -6.362162711632846e-7
          -6.336796496903242e-7 -6.409755733765469e-7 -6.444062043313756e-7 -6.358508409181022e-7 -6.332981436293838e-7 -6.401051134858235e-7
          -6.436127496478639e-7 -6.344070604622099e-7 -6.31935261301365e-7 -6.754385699847789e-7 -6.699975100513349e-7 -6.81366957171045e-7
          -6.872673860907915e-7 -6.757298061034139e-7 -6.70158902609415e-7 -6.816234242919349e-7 -6.876888575033719e-7 -6.765868858841013e-7
          -6.706689418294674e-7 -6.824264305961315e-7 -6.88963474088576e-7 -6.838711071518586e-7 -6.762712929109615e-7 -6.84044339203648e-7
          -6.764088346576951e-7 -6.846551959627573e-7 -6.769226085340337e-7 -6.310793023176605e-7 -6.380254452324599e-7 -6.305946399792379e-7
          -6.376751399379702e-7 -6.286887624385005e-7 -6.362101201826149e-7 -6.92206677057847e-7 -6.922679396627318e-7 -6.77159966144083e-7
          -6.725090330107272e-7 -6.935819327110229e-7 -6.937245390408071e-7 -6.785936657017738e-7 -6.736619285297476e-7 -6.981813973057383e-7
          -6.981656694728124e-7 -6.830580791585043e-7 -6.785080240282413e-7 -6.203173948187125e-7 -6.219639024670099e-7 -6.212760017698613e-7
          -6.201266571756883e-7 -6.197082499152737e-7 -6.213628639872542e-7 -6.205757159362618e-7 -6.194469048232052e-7 -6.175022036604172e-7
          -6.191446331240067e-7 -6.178621278623929e-7 -6.168987248345466e-7 -6.337892025645505e-7 -6.298529066986839e-7 -6.333112897478175e-7
          -6.292352286496464e-7 -6.311675409226934e-7 -6.264193500356916e-7 -7.205225200468062e-7 -7.235691895981347e-7 -7.307774970827091e-7
          -7.282355510002263e-7 -7.212855790562157e-7 -7.241340040619168e-7 -7.31397211386089e-7 -7.289936762764653e-7 -7.236109550561816e-7
          -7.257358317083626e-7 -7.331168819224349e-7 -7.313570257569159e-7 -6.417560629165123e-7 -6.392713830395611e-7 -6.330551362306781e-7
          -6.359415104407916e-7 -6.409337503074533e-7 -6.381271833769395e-7 -6.320872057373058e-7 -6.353343321760483e-7 -6.377476183243256e-7
          -6.329521079121352e-7 -6.277020136932202e-7 -6.3263895655474e-7 -6.900158216644502e-7 -6.888788602417997e-7 -6.966818120226654e-7
          -7.00288178028609e-7 -6.915286019578966e-7 -6.903933287470448e-7 -6.981617529146461e-7 -7.017351698315952e-7 -6.958176106708937e-7
          -6.947082826280482e-7 -7.024001603538989e-7 -7.058875914120009e-7 -6.627208496848849e-7 -6.650197372630483e-7 -6.628029074808221e-7
          -6.65177635449518e-7 -6.630381605210916e-7 -6.656266350405381e-7 -6.266548487026335e-7 -6.261353196208527e-7 -6.241938621120933e-7
          -6.965414645842943e-7 -6.989941386116047e-7 -6.977943945303927e-7 -7.001347949979683e-7 -7.022755447094355e-7 -7.041442607276749e-7
          -6.891112186890871e-7 -6.914520822007569e-7 -7.030412891605666e-7 -6.901761900486306e-7 -6.92376170247724e-7 -7.040391629622461e-7
          -6.943011444896949e-7 -6.95653643485178e-7 -7.073142803363169e-7 -6.569550510684679e-7 -6.591150060392321e-7 -6.481464357068795e-7
          -6.429176861350808e-7 -6.57112442488761e-7 -6.593740532943641e-7 -6.480915588587889e-7 -6.427015702151738e-7 -6.5749697129243e-7
          -6.60495312093959e-7 -6.479227894575482e-7 -6.416419461935631e-7 -6.206286064899082e-7 -6.218379861537909e-7 -6.209692665689678e-7
          -6.198882661279852e-7 -6.210741296327468e-7 -6.201790461963199e-7 -6.16982202852763e-7 -6.179668372994994e-7 -6.16921249375728e-7
          -6.904405066393081e-7 -6.694803301382653e-7 -6.907258462468752e-7 -6.695762969275697e-7 -6.916150470144759e-7 -6.69956585168893e-7
          -6.738322443409589e-7 -6.589554835451125e-7 -6.746928157568328e-7 -6.59437638799553e-7 -6.791596327855179e-7 -6.633834548196768e-7
          -6.830373976529239e-7 -6.96614330056067e-7 -6.836750997292621e-7 -6.973486314183351e-7 -6.858210306901126e-7 -6.997083431187098e-7
          -6.25592775876305e-7 -6.246175355908799e-7 -6.277452775529449e-7 -6.298552596863505e-7 -6.246341537522569e-7 -6.237310262294204e-7
          -6.267752428850511e-7 -6.287926822085824e-7 -6.201371540423758e-7 -6.1958978850366e-7 -6.222104896641224e-7 -6.237080539418047e-7
          -6.550793185620664e-7 -6.573358506214487e-7 -6.466320231545639e-7 -6.550692330153979e-7 -6.574356617598839e-7 -6.464866178531116e-7
          -6.549318785364387e-7 -6.575782773167813e-7 -6.45768493519998e-7 -7.113148087088964e-7 -7.100688102488911e-7 -7.120992579073994e-7
          -7.109637177871021e-7 -7.145103267439544e-7 -7.138206990928195e-7 -6.517456872954946e-7 -6.604940289018778e-7 -6.516603581179726e-7
          -6.605138974628348e-7 -6.513718869620421e-7 -6.60622800834559e-7 -6.742216606267734e-7 -6.679210390039365e-7 -6.746068457045067e-7
          -6.683224810075711e-7 -6.758355412170662e-7 -6.697691910595962e-7 -6.867050004714524e-7 -7.003431119048732e-7 -6.872171128088438e-7
          -7.008850071805101e-7 -6.888914965680338e-7 -7.025506228697213e-7 -7.169820701652562e-7 -7.219153270269579e-7 -7.234487604533889e-7
          -7.182073800783639e-7 -7.230277029826658e-7 -7.245454782003889e-7 -7.218036977667407e-7 -7.262868139031733e-7 -7.277708356477754e-7
          -7.032327184416396e-7 -7.142417033178961e-7 -6.989667198179526e-7 -7.035593041066781e-7 -7.14669157151867e-7 -6.993903349904186e-7
          -7.04558854926725e-7 -7.159954929227814e-7 -7.006786939840435e-7 -6.220866338152678e-7 -6.226929888504921e-7 -6.220585812574807e-7
          -6.212820000386223e-7 -6.218444359606567e-7 -6.21213708387634e-7 -6.178735444184988e-7 -6.180638349699519e-7 -6.175793326095655e-7
          -6.233465710052085e-7 -6.224539559505944e-7 -6.184205445970092e-7 -7.334009012105723e-7 -7.310382571686857e-7 -7.345695993636081e-7
          -7.372444393192592e-7 -7.342281813966401e-7 -7.319143601537351e-7 -7.353133592052198e-7 -7.379492369151248e-7 -7.365984996319746e-7
          -7.344403653062784e-7 -7.374508386173861e-7 -7.398215046391798e-7 -6.238020952257701e-7 -6.257842413724302e-7 -6.230224726019141e-7
          -6.249928057365697e-7 -6.195950589992864e-7 -6.213291403439067e-7 -7.270926025976071e-7 -7.288337049411002e-7 -7.280795923511927e-7
          -7.297981211492312e-7 -7.309638670156197e-7 -7.326062445752056e-7 -6.313063125409902e-7 -6.292430415438316e-7 -6.302552522372214e-7
          -6.284350560464739e-7 -6.254004742104257e-7 -6.247237012641945e-7 -6.372316072855996e-7 -6.430915738945519e-7 -6.36821969295827e-7
          -6.427285914401656e-7 -6.349017012427688e-7 -6.417334616976535e-7 -7.294703151643106e-7 -7.303219930579983e-7 -7.328648949570076e-7
          -6.920305108420517e-7 -6.922461946000106e-7 -6.929197459893365e-7 -6.535112034573699e-7 -6.519403994967254e-7 -6.535917246724258e-7
          -6.519554996876513e-7 -6.549641644483747e-7 -6.541200106350258e-7 -6.909164165795575e-7 -6.912975470066252e-7 -6.924506044430364e-7
          -6.821797647179563e-7 -6.832824077153058e-7 -6.882418078091006e-7 -7.093081764375388e-7 -7.106499638842816e-7 -7.145641168579962e-7
          -7.116385562966287e-7 -7.122436267137978e-7 -7.140795634206502e-7 -7.364558003615385e-7 -7.371075746004616e-7 -7.387793655658874e-7
          -6.659001177223295e-7 -6.66706065756465e-7 -6.714256001710926e-7 -6.451194205549631e-7 -6.446597258164315e-7 -6.442835610968504e-7
          -6.365141680162672e-7 -6.352349878485769e-7 -6.293430264106557e-7 -6.197524294705964e-7 -6.191496460236296e-7 -6.169594397692145e-7
          -7.408245863838771e-7 -7.414126193827874e-7 -7.428190187267858e-7 -6.788519882991133e-7 -6.803805180683552e-7 -6.846751494019634e-7
          -5.404895672189487e-7 -5.404830263988275e-7 -5.404639029632751e-7 -5.455735755533613e-7 -5.455721789609727e-7 -5.455679819225976e-7
          -5.638818498139131e-7 -5.638755864735321e-7 -5.63857811913291e-7 -5.701472253246868e-7 -5.701480905784319e-7 -5.701507165229433e-7
          -5.878026420872902e-7 -5.877990001539112e-7 -5.877888887099646e-7 -6.12710278713617e-7 -6.127129208975318e-7 -6.127240276581177e-7
          -6.392494780375638e-7 -6.392694062959339e-7 -6.393240507198867e-7 -6.679727377419983e-7 -6.680343678831447e-7 -6.682099921776288e-7
          -6.984179024782807e-7 -6.985441527151282e-7 -6.989387803077569e-7 -7.024100795822841e-7 -7.121477840586796e-7 -7.026301198410616e-7
          -7.124106100699236e-7 -7.033058774281663e-7 -7.132287440810833e-7 -7.297098917650976e-7 -7.406771162303356e-7 -7.357676254010835e-7
          -7.24228655307133e-7 -7.29946662992411e-7 -7.40928205690706e-7 -7.361435847945417e-7 -7.245847073575423e-7 -7.306531748653599e-7
          -7.416752389247874e-7 -7.374202552183509e-7 -7.256196969223588e-7 -7.423088728436818e-7 -7.427327172903426e-7 -7.439082430674485e-7
          -7.168983548923809e-7 -7.171008891613816e-7 -7.176576729675853e-7 -7.581980412788375e-7 -7.584354378546495e-7 -7.590341440456147e-7
          -5.756295889230854e-7 -5.503064306423374e-7 -5.756345541946029e-7 -5.5030851853732e-7 -5.756494813582267e-7 -5.503147223848194e-7
          -5.954389664659774e-7 -5.95444579422492e-7 -5.954609328114116e-7 -6.01604748745267e-7 -6.01614452343323e-7 -6.016436185303028e-7
          -6.217467868750461e-7 -6.21760060267293e-7 -6.218013331858372e-7 -6.492849763354796e-7 -6.493135640669235e-7 -6.493955973204397e-7
          -6.778312006988094e-7 -6.77887342460737e-7 -6.780551830195691e-7 -7.062098603142483e-7 -7.062953113735381e-7 -7.065610196312518e-7
          -7.273636775636284e-7 -7.274978099546631e-7 -7.278743742699071e-7 -7.624044408210012e-7 -7.441399419665168e-7 -7.479592270840889e-7
          -7.625054842740866e-7 -7.44299525077147e-7 -7.480460563354046e-7 -7.628408232829521e-7 -7.447932948904199e-7 -7.483238796862942e-7
        </DataArray>
        <DataArray type="Float64" Name="disp_z" format="ascii" RangeMin="-4.7742032442275886e-8" RangeMax="1.030273576121256e-9">
          0 0 -9.064993526574592e-9 -9.06539902480069e-9 -1.8130023474107692e-8 -1.8130846731797608e-8
          0 0 -9.116030947769555e-9 -9.116646937292068e-9 -1.823208874096423e-8 -1.8233295613111164e-8
          0 0 -9.183873535785091e-9 -9.184756738019234e-9 -1.8367785341342353e-8 -1.8369550472121048e-8
          0 0 -9.276446062462448e-9 -9.277802780941878e-9 -1.8552962345197612e-8 -1.855565595745578e-8
          0 0 -9.407043378184412e-9 -9.409205047256556e-9 -1.881421348124957e-8 -1.881856808833657e-8
          0 0 -9.59937958139578e-9 -9.60318037736769e-9 -1.9199300458360076e-8 -1.9206684823299517e-8
          0 0 -9.901227195254688e-9 -9.907795841356813e-9 -1.980084599374291e-8 -1.981497365370173e-8
          0 0 -1.0402353145984224e-8 -1.041855533006278e-8 -2.0807314143258196e-8 -2.0835475671249136e-8
          0 0 -1.1315733653084428e-8 -1.1348742478789526e-8 -2.2656245269231695e-8 -2.2739405991121735e-8
          0 0 -1.3640740945192389e-8 -1.3804102343008219e-8 -2.7139155587543572e-8 -2.740528894348327e-8
          0 -9.063714221780475e-9 -1.8127484128259664e-8 0 -9.114221399473054e-9 -1.8228501498636723e-8
          0 -9.181226925890953e-9 -1.8362545120161468e-8 0 -9.272411661045793e-9 -1.8544951141050937e-8
          0 -9.40056726118586e-9 -1.880132864881939e-8 0 -9.588252634328441e-9 -1.917717522520385e-8
          0 -9.881032798962224e-9 -1.9759902797072166e-8 0 -1.0357278605696734e-8 -2.0720086627515138e-8
          0 -1.1209116293544694e-8 -2.243090303371503e-8 0 -1.3228013794522197e-8 -2.6345109848947626e-8
          0 -9.061588770462384e-9 -1.812329247719604e-8 0 -9.111223306808432e-9 -1.82225767663752e-8
          0 -9.176850088351264e-9 -1.835388234461021e-8 0 -9.265752751478671e-9 -1.8531752070665643e-8
          0 -9.389901912254319e-9 -1.878013060181846e-8 0 -9.570080726867658e-9 -1.9141048652906358e-8
          0 -9.847751484845476e-9 -1.969276462422501e-8 0 -1.0285819303979791e-8 -2.0580842476858926e-8
          0 -1.1038296579645302e-8 -2.2070733950469716e-8 0 -1.2648156073747945e-8 -2.5259076945859305e-8
          0 -9.058643246229322e-9 -1.8117487197688033e-8 0 -9.107078384461508e-9 -1.82144024702687e-8
          0 -9.170810931999228e-9 -1.8341947249568536e-8 0 -9.256589061231877e-9 -1.851363237699484e-8
          0 -9.375293095935189e-9 -1.8751083443081906e-8 0 -9.545338343685684e-9 -1.9092028193397225e-8
          0 -9.802475437554787e-9 -1.9601470744747418e-8 0 -1.0191401725494521e-8 -2.0395576662904296e-8
          0 -1.0820061003579877e-8 -2.162165731051939e-8 0 -1.198294393446414e-8 -2.3950091737698767e-8
          0 -9.05496028454857e-9 -1.811021499815933e-8 0 -9.10190535425305e-9 -1.820417412095914e-8
          0 -9.163288573855544e-9 -1.8327058125136132e-8 0 -9.245205932635498e-9 -1.8491046798157404e-8
          0 -9.357214317937936e-9 -1.8715192807890953e-8 0 -9.514880205334755e-9 -1.9031226058482278e-8
          0 -9.746887259723952e-9 -1.94905996654236e-8 0 -1.0078575881318714e-8 -2.0171332439337043e-8
          0 -1.057289229324977e-8 -2.1115169869540087e-8 0 -1.1308399427841504e-8 -2.2652885000703078e-8
          0 -9.050774739085583e-9 -1.8101800881624338e-8 0 -9.096025982926831e-9 -1.8192346493334183e-8
          0 -9.154737770008117e-9 -1.830985345504411e-8 0 -9.23225515123734e-9 -1.846500060362406e-8
          0 -9.336653193956129e-9 -1.8673838675519456e-8 0 -9.480233768320852e-9 -1.8961539869024606e-8
          0 -9.683561348752164e-9 -1.9363870735911908e-8 0 -9.95314768215972e-9 -1.9920268613098076e-8
          0 -1.0311348891843027e-8 -2.0588869727138446e-8 0 -1.068378119185266e-8 -2.1429980942556927e-8
          0 -9.04662444768187e-9 -1.8092958325348576e-8 0 -9.090161704737097e-9 -1.8179882132946013e-8
          0 -9.146147266980828e-9 -1.8291679910725586e-8 0 -9.219103487979978e-9 -1.8437360307795988e-8
          0 -9.315527558541485e-9 -1.8629804739868637e-8 0 -9.444177707590865e-9 -1.888704185975448e-8
          0 -9.616446592332903e-9 -1.922793311238873e-8 0 -9.82178384715647e-9 -1.965523553969162e-8
          0 -1.0045264993006707e-8 -2.0063867112537493e-8 0 -1.0125741544580136e-8 -2.0332945278497253e-8
          0 -9.043811857681145e-9 -1.8084614515338186e-8 0 -9.086023868877606e-9 -1.8168026294114118e-8
          0 -9.13983808434707e-9 -1.8274238506699654e-8 0 -9.20886376674035e-9 -1.8410497640339362e-8
          0 -9.298072237809316e-9 -1.8586437146169162e-8 0 -9.41237293746211e-9 -1.881266690091794e-8
          0 -9.552975553102582e-9 -1.909047095455891e-8 0 -9.69227743940118e-9 -1.9388821258152877e-8
          0 -9.776408388224408e-9 -1.9552439233132057e-8 0 -9.610363710174821e-9 -1.9363130864689026e-8
          0 -9.133080582354696e-9 -1.8269648554042353e-8 0 -9.197919947633583e-9 -1.8400521786076023e-8
          0 -9.279502246922951e-9 -1.856539920634873e-8 0 -9.37895256160216e-9 -1.876652820882523e-8
          0 -9.488227624959414e-9 -1.8985325580072715e-8 0 -9.566246105476432e-9 -1.9144831511092047e-8
          0 -9.526432347471026e-9 -1.9029306764186133e-8 0 -9.168615473521082e-9 -1.8318104899073572e-8
          0 0 0 0 -3.682920338216417e-9 -5.211636485060641e-9
          -5.385614619027266e-9 -4.1230306264834436e-9 -7.413496213530127e-9 -1.0556654134304927e-8 -1.0833766564827233e-8 -8.299792969846416e-9
          0 0 -2.409287349545669e-9 -2.813510601425146e-9 -4.891301115594415e-9 -5.622567635037074e-9
          0 0 0 -2.162486053338362e-9 -1.4607105722480133e-9 -1.074449997984572e-9
          -4.320787154686059e-9 -2.890370975487228e-9 -2.15062403781698e-9 0 0 0
          0 -1.5723735089000952e-8 -1.5826652687232173e-8 -1.713116292808961e-8 -1.6719351701380492e-8 -3.120354850738033e-8
          -3.1340594524842914e-8 -3.388887073363523e-8 -3.310439175690034e-8 0 0 0
          0 -1.2293152280391738e-8 -1.0137002605197511e-8 -8.976128647338129e-9 -1.0979032401586864e-8 -2.449824968626323e-8
          -2.0205569137869376e-8 -1.7786902196545834e-8 -2.155592850648883e-8 0 0 0
          0 -1.2838986410225392e-8 -1.3280321807866773e-8 -1.4136616038685409e-8 -1.3547832610862145e-8 -2.5639125403948387e-8
          -2.642123430680683e-8 -2.81373970468812e-8 -2.696172547938789e-8 0 0 0
          0 -1.0428179581142454e-8 -1.060582309350909e-8 -9.712905621260086e-9 -9.454059113808643e-9 -2.0855390547793282e-8
          -2.116289762624468e-8 -1.939117166463343e-8 -1.89262750302031e-8 0 0 -9.294728394481861e-9
          -9.800007796277496e-9 -1.853487957634453e-8 -1.9571336493563387e-8 0 0 -1.4742891529819243e-8
          -1.4846163392665474e-8 -2.9310934949026344e-8 -2.9408470617179802e-8 0 0 0
          0 -2.85597483797218e-9 -1.5702596108047858e-9 -1.1097594699044009e-9 -3.177899949227729e-9 -5.1972408163637046e-9
          -2.9298515863816473e-9 -1.7451728491268703e-9 -5.64862794569817e-9 0 0 0
          0 -1.4477379218963898e-8 -1.4573061617694158e-8 -1.5649550699508925e-8 -1.5115114040425064e-8 -2.887689723321415e-8
          -2.9052657421371064e-8 -3.1079066914709766e-8 -3.00938167286102e-8 0 0 -1.6481624494113736e-8
          -1.7907981279088152e-8 -3.2612238746868665e-8 -3.549461602957417e-8 0 0 0
          0 -5.872399678770137e-9 -6.588160216532977e-9 -5.579786787012014e-9 -4.660337478624531e-9 -1.1915883200549782e-8
          -1.3039692098582036e-8 -1.1248526192115405e-8 -9.341573075762619e-9 0 0 0
          0 -2.0319455081221683e-8 -2.2539528358737062e-8 -2.141633850669215e-8 -1.9483706975840222e-8 -4.178433325346401e-8
          -4.603848375964865e-8 -4.291952774482661e-8 -3.8937980544571294e-8 0 0 0
          0 4.2695227426660074e-10 -3.7396406147186136e-10 -6.766061059786667e-10 1.503542301233944e-10 6.473315528768089e-10
          -6.842510494387919e-10 -1.328201708825461e-9 1.5224183786338566e-10 0 0 -1.1294772939222096e-8
          -1.1407343154169634e-8 -2.2477608696185917e-8 -2.2670191121549504e-8 0 -1.4340846692113893e-8 -2.85916391139375e-8
          0 0 -4.293287153506873e-9 -5.8049738717485954e-9 -8.583739602069266e-9 -1.1720176811699368e-8
          0 0 0 -7.163300825062151e-9 -8.089216019478097e-9 -6.713597861350029e-9
          -1.4321759903480718e-8 -1.6237647793880647e-8 -1.3442860250391438e-8 0 0 0
          0 -1.3409820661848681e-8 -1.3380835556118836e-8 -1.587008517356193e-8 -1.5322485747516054e-8 -2.6632467947906078e-8
          -2.6712806537909835e-8 -3.1489447539918645e-8 -3.0308089464653305e-8 0 0 0
          -1.596421239536522e-8 -1.6652853678424415e-8 -1.6947691803793128e-8 -3.16552942542333e-8 -3.299429187820808e-8 -3.3554271531620715e-8
          0 0 -9.039959861452746e-9 -1.0324596921474024e-8 -1.8098656054309782e-8 -2.057112999886526e-8
          0 0 -8.020365616417005e-9 -9.462119627159968e-9 -1.537286267939656e-8 -1.8745716954070155e-8
          0 0 -9.789158880602794e-9 -8.358068643210984e-9 -1.9371785120247994e-8 -1.671082542496158e-8
          0 0 0 0 -2.0629082085520836e-8 -1.986261241155639e-8
          -2.1117344861090462e-8 -2.1998152547668903e-8 -4.0801273500693e-8 -3.9394407009911446e-8 -4.226219243056262e-8 -4.394480268331598e-8
          0 0 0 -1.2292990145014519e-8 -1.2710420054070652e-8 -1.3786996396524248e-8
          -2.4454000627183423e-8 -2.5286508482332065e-8 -2.7476665949657726e-8 0 0 -6.839356188399299e-9
          -6.344111110479502e-9 -1.3811903311497285e-8 -1.2828476636540213e-8 0 0 -1.1910782636023777e-8
          -1.1013522453614789e-8 -2.3747304696826443e-8 -2.198064215323406e-8 0 0 -1.0871452913086895e-8
          -1.1846611880683192e-8 -2.1673564257520935e-8 -2.367206164060866e-8 0 0 -9.504540306565565e-9
          -8.32391664513632e-9 -1.914613914684277e-8 -1.6653112523886433e-8 0 0 0
          -6.401506010173257e-10 -1.788081395629964e-9 -1.1375280402530995e-9 -1.35924389493904e-9 -3.560369427976687e-9 -2.341468776336975e-9
          0 0 0 -8.297128362008406e-9 -7.525253438301588e-9 -8.509752818504272e-9
          -1.656673319860231e-8 -1.502081832923317e-8 -1.7023041819448376e-8 0 0 0
          -1.74916012586636e-8 -1.859203444624013e-8 -1.80220704477656e-8 -3.459203013464642e-8 -3.6728054272982004e-8 -3.566739162591718e-8
          0 -1.926965471818343e-8 -3.8017881806895856e-8 0 0 0
          0 -2.317127650004172e-9 -2.7271625052337255e-9 -3.438075767011175e-9 -2.9695334502444145e-9 -4.643853737591271e-9
          -5.344391945418581e-9 -6.792579475837313e-9 -5.868502847651314e-9 0 0 -1.7910566090006268e-8
          -1.9010386721347085e-8 -3.53877828756016e-8 -3.7615332767928576e-8 0 0 -2.2069119902929904e-9
          -1.7029328599873966e-9 -4.3840735315342426e-9 -3.4511206589361696e-9 0 0 -2.189227521751983e-8
          -1.9963583908991017e-8 -4.433187506408047e-8 -3.9789538982743235e-8 0 0 -1.752397927808339e-8
          -1.7635079302744336e-8 -3.459988991140592e-8 -3.554009975583777e-8 0 -3.4388888852958728e-9 -6.697832978295146e-9
          0 -8.852812267993619e-9 -1.7594420403705452e-8 0 0 -1.4577549767501121e-8
          -1.3330484380611302e-8 -2.8962364478073427e-8 -2.6617270116065463e-8 0 -9.07153482333132e-9 -1.8184587551935282e-8
          0 -5.848070858410125e-9 -1.140168084419457e-8 0 -2.07412547726116e-10 -5.068742878982993e-10
          0 -7.331191582702358e-9 -1.4693437275927878e-8 0 -4.466203522350128e-9 -9.17017951914948e-9
          0 -5.921824132593844e-9 -1.1258101924452597e-8 0 -1.71627533726384e-8 -3.469955809984195e-8
          0 -2.3373868710546537e-8 -4.7742032442275886e-8 0 -1.4372876346089133e-8 -2.8704696197700726e-8
          0 -3.545323941270412e-9 -7.5673570956508e-9 0 6.022291634037472e-10 1.030273576121256e-9
          0 -9.09406768525508e-9 -1.818574434970945e-8 0 -9.006494358504716e-9 -1.8014275220299955e-8
          0 -9.127930348961577e-9 -1.8252541250938256e-8 0 -9.00834132881932e-9 -1.8018461430503504e-8
          0 -9.154183884109972e-9 -1.8303573783909742e-8 0 -9.154225046110202e-9 -1.8304101993071736e-8
          0 -9.096612226489492e-9 -1.8186075025933498e-8 0 -8.917175607717963e-9 -1.7839182578134202e-8
          0 -8.396118410798175e-9 -1.6809830740608226e-8 0 0 -8.380799418496961e-9
          -7.95983907378401e-9 -1.6808675781388427e-8 -1.5960598125941882e-8 0 0 0
          0 -7.329424569050601e-9 -6.6148724845782795e-9 -6.217373095854666e-9 -7.2529784072570576e-9 -1.472038863865544e-8
          -1.3188274299118146e-8 -1.257979979589809e-8 -1.4488776255252879e-8 0 -5.28695831656349e-9 -1.0095409214143794e-8
          0 -7.820532693519314e-9 -1.556795798506304e-8 0 -5.7278269072259085e-9 -1.1510901492713905e-8
          0 0 -8.910568985784464e-9 -8.929269716594893e-9 -1.7820643198341212e-8 -1.785822769992239e-8
          0 -8.991988069176985e-9 -1.7986420009041234e-8 0 -8.871235021796647e-9 -1.774177651177006e-8
          0 -8.94026931894912e-9 -1.788467037928266e-8 0 -8.830158513639085e-9 -1.766074800389368e-8
          0 -8.62078299785956e-9 -1.7242229760633247e-8 0 -8.2063060696953e-9 -1.64083116848307e-8
          0 -7.71649574782253e-9 -1.543357464254189e-8 0 0 0
          -6.808839421626601e-9 -7.14459142051331e-9 -7.533153324588228e-9 -1.3567990350801343e-8 -1.4261690343320739e-8 -1.508585931503243e-8
        </DataArray>
      </PointData>
      <CellData>
        <DataArray type="Int32" Name="libmesh_elem_id" format="ascii" RangeMin="40" RangeMax="1373">
          40 41 42 43 44 45
          46 47 48 49 50 51
          52 53 54 55 56 57
          98 99 100 101 102 103
          104 105 106 107 108 109
          110 111 112 113 114 115
          156 157 158 159 160 161
          162 163 164 165 166 167
          168 169 170 171 172 173
          214 215 216 217 218 219
          220 221 222 223 224 225
          226 227 228 229 230 231
          272 273 274 275 276 277
          278 279 280 281 282 283
          284 285 286 287 288 289
          330 331 332 333 334 335
          336 337 338 339 340 341
          342 343 344 345 346 347
          388 389 390 391 392 393
          394 395 396 397 398 399
          400 401 402 403 404 405
          446 447 448 449 450 451
          452 453 454 455 456 457
          458 459 460 461 462 463
          508 509 510 511 512 513
          514 515 516 517 518 519
          520 521 522 523 524 525
          526 527 528 529 530 531
          532 533 534 535 536 537
          538 539 540 541 542 543
          544 545 546 547 548 549
          550 551 552 553 554 555
          556 557 558 559 560 561
          562 563 564 565 566 567
          568 569 570 571 572 573
          574 575 576 577 578 579
          580 581 582 583 584 585
          586 587 588 589 590 591
          592 593 594 595 596 597
          598 599 600 601 602 603
          604 605 606 607 608 609
          610 611 612 613 614 615
          616 617 618 619 620 621
          622 623 624 625 626 627
          628 629 630 631 632 633
          634 635 636 637 638 639
          640 641 642 643 644 645
          646 647 648 649 650 651
          652 653 654 655 656 657
          658 659 660 661 662 663
          664 665 666 667 668 669
          670 671 672 673 674 675
          676 677 678 679 680 681
          682 683 684 685 686 687
          688 689 690 691 692 693
          694 695 696 697 698 699
          700 701 702 703 704 705
          706 707 708 709 710 711
          712 713 714 715 716 717
          718 719 720 721 722 723
          724 725 726 727 728 729
          730 731 732 733 734 735
          736 737 738 739 740 741
          742 743 744 745 746 747
          748 749 750 751 752 753
          754 755 756 757 758 759
          760 761 762 763 764 765
          766 767 768 769 770 771
          1186 1187 1188 1189 1190 1191
          1204 1205 1206 1207 1208 1209
          1222 1223 1224 1225 1240 1241
          1242 1243 1258 1259 1260 1261
          1276 1277 1278 1279 1300 1301
          1304 1305 1306 1307 1314 1315
          1316 1317 1326 1327 1328 1329
          1330 1331 1338 1339 1344 1345
          1348 1349 1356 1357 1358 1359
          1360 1361 1366 1367 1372 1373
        </DataArray>
        <DataArray type="Int32" Name="subdomain_id" format="ascii" RangeMin="103" RangeMax="143">
          103 103 103 103 103 103
          103 103 103 103 103 103
          103 103 103 103 103 103
          103 103 103 103 103 103
          103 103 103 103 103 103
          103 103 103 103 103 103
          103 103 103 103 103 103
          103 103 103 103 103 103
          103 103 103 103 103 103
          103 103 103 103 103 103
          103 103 103 103 103 103
          103 103 103 103 103 103
          103 103 103 103 103 103
          103 103 103 103 103 103
          103 103 103 103 103 103
          103 103 103 103 103 103
          103 103 103 103 103 103
          103 103 103 103 103 103
          103 103 103 103 103 103
          103 103 103 103 103 103
          103 103 103 103 103 103
          103 103 103 103 103 103
          103 103 103 103 103 103
          103 103 103 103 103 103
          103 103 103 103 103 103
          103 103 103 103 103 103
          103 103 104 104 104 104
          104 104 104 104 104 104
          104 104 104 104 104 104
          104 104 104 104 104 104
          104 104 104 104 104 104
          104 104 104 104 104 104
          104 104 104 104 104 104
          104 104 104 104 104 104
          104 104 104 104 104 104
          104 104 104 104 104 104
          104 104 104 104 104 104
          104 104 104 104 104 104
          104 104 104 104 104 104
          104 104 104 104 104 104
          104 104 104 104 104 104
          104 104 104 104 104 104
          104 104 104 104 104 104
          104 104 104 104 104 104
          104 104 104 104 104 104
          104 104 104 104 104 104
          104 104 104 104 104 104
          104 104 104 104 104 104
          104 104 104 104 104 104
          104 104 104 104 104 104
          104 104 104 104 104 104
          104 104 104 104 104 104
          104 104 104 104 104 104
          104 104 104 104 104 104
          104 104 104 104 104 104
          104 104 104 104 104 104
          104 104 104 104 104 104
          104 104 104 104 104 104
          104 104 104 104 104 104
          141 141 141 141 141 141
          141 141 141 141 141 141
          141 141 141 141 141 141
          141 141 141 141 141 141
          141 141 141 141 141 141
          141 141 141 141 141 141
          141 141 141 141 141 141
          141 141 141 141 141 141
          141 141 141 141 141 141
          105 105 105 105 105 105
          105 105 105 105 105 105
          105 105 105 105 105 105
          105 105 105 105 105 105
          105 105 105 105 106 106
          106 106 106 106 106 106
          106 106 106 106 106 106
          106 106 106 106 106 106
          106 106 106 106 106 106
          143 143 143 143 143 143
        </DataArray>
        <DataArray type="Int32" Name="processor_id" format="ascii" RangeMin="5" RangeMax="5">
          5 5 5 5 5 5
          5 5 5 5 5 5
          5 5 5 5 5 5
          5 5 5 5 5 5
          5 5 5 5 5 5
          5 5 5 5 5 5
          5 5 5 5 5 5
          5 5 5 5 5 5
          5 5 5 5 5 5
          5 5 5 5 5 5
          5 5 5 5 5 5
          5 5 5 5 5 5
          5 5 5 5 5 5
          5 5 5 5 5 5
          5 5 5 5 5 5
          5 5 5 5 5 5
          5 5 5 5 5 5
          5 5 5 5 5 5
          5 5 5 5 5 5
          5 5 5 5 5 5
          5 5 5 5 5 5
          5 5 5 5 5 5
          5 5 5 5 5 5
          5 5 5 5 5 5
          5 5 5 5 5 5
          5 5 5 5 5 5
          5 5 5 5 5 5
          5 5 5 5 5 5
          5 5 5 5 5 5
          5 5 5 5 5 5
          5 5 5 5 5 5
          5 5 5 5 5 5
          5 5 5 5 5 5
          5 5 5 5 5 5
          5 5 5 5 5 5
          5 5 5 5 5 5
          5 5 5 5 5 5
          5 5 5 5 5 5
          5 5 5 5 5 5
          5 5 5 5 5 5
          5 5 5 5 5 5
          5 5 5 5 5 5
          5 5 5 5 5 5
          5 5 5 5 5 5
          5 5 5 5 5 5
          5 5 5 5 5 5
          5 5 5 5 5 5
          5 5 5 5 5 5
          5 5 5 5 5 5
          5 5 5 5 5 5
          5 5 5 5 5 5
          5 5 5 5 5 5
          5 5 5 5 5 5
          5 5 5 5 5 5
          5 5 5 5 5 5
          5 5 5 5 5 5
          5 5 5 5 5 5
          5 5 5 5 5 5
          5 5 5 5 5 5
          5 5 5 5 5 5
          5 5 5 5 5 5
          5 5 5 5 5 5
          5 5 5 5 5 5
          5 5 5 5 5 5
          5 5 5 5 5 5
          5 5 5 5 5 5
          5 5 5 5 5 5
          5 5 5 5 5 5
          5 5 5 5 5 5
          5 5 5 5 5 5
          5 5 5 5 5 5
          5 5 5 5 5 5
          5 5 5 5 5 5
          5 5 5 5 5 5
          5 5 5 5 5 5
          5 5 5 5 5 5
          5 5 5 5 5 5
          5 5 5 5 5 5
        </DataArray>
      </CellData>
      <Points>
        <DataArray type="Float64" Name="Points" NumberOfComponents="3" format="ascii" RangeMin="0.0082758620689774" RangeMax="0.013139935358843113">
          0.00011111111111123 0.0082758620689751 0 0 0.0082758620689774 0
          0.00011111111111123 0.0082758620689751 0.00015 0 0.0082758620689774 0.00015
          0.00011111111111123 0.0082758620689751 0.0003 0 0.0082758620689774 0.0003
          0.00011111111111125 0.0086896551724226 0 0 0.0086896551724246 0
          0.00011111111111125 0.0086896551724226 0.00015 0 0.0086896551724246 0.00015
          0.00011111111111125 0.0086896551724226 0.0003 0 0.0086896551724246 0.0003
          0.00011111111111126 0.0091034482758696 0 0 0.0091034482758716 0
          0.00011111111111126 0.0091034482758696 0.00015 0 0.0091034482758716 0.00015
          0.00011111111111126 0.0091034482758696 0.0003 0 0.0091034482758716 0.0003
          0.00011111111111128 0.0095172413793168 0 0 0.0095172413793185 0
          0.00011111111111128 0.0095172413793168 0.00015 0 0.0095172413793185 0.00015
          0.00011111111111128 0.0095172413793168 0.0003 0 0.0095172413793185 0.0003
          0.00011111111111129 0.0099310344827632 0 0 0.0099310344827645 0
          0.00011111111111129 0.0099310344827632 0.00015 0 0.0099310344827645 0.00015
          0.00011111111111129 0.0099310344827632 0.0003 0 0.0099310344827645 0.0003
          0.00011111111111131 0.01034482758621 0 0 0.01034482758621 0
          0.00011111111111131 0.01034482758621 0.00015 0 0.01034482758621 0.00015
          0.00011111111111131 0.01034482758621 0.0003 0 0.01034482758621 0.0003
          0.00011111111111132 0.010758620689657 0 0 0.010758620689657 0
          0.00011111111111132 0.010758620689657 0.00015 0 0.010758620689657 0.00015
          0.00011111111111132 0.010758620689657 0.0003 0 0.010758620689657 0.0003
          0.00011111111111134 0.011172413793104 0 0 0.011172413793104 0
          0.00011111111111134 0.011172413793104 0.00015 0 0.011172413793104 0.00015
          0.00011111111111134 0.011172413793104 0.0003 0 0.011172413793104 0.0003
          0.00011111111111135 0.011586206896551 0 0 0.011586206896551 0
          0.00011111111111135 0.011586206896551 0.00015 0 0.011586206896551 0.00015
          0.00011111111111135 0.011586206896551 0.0003 0 0.011586206896551 0.0003
          0.00011111111111137 0.012 0 0 0.012 0
          0.00011111111111137 0.012 0.00015 0 0.012 0.00015
          0.00011111111111137 0.012 0.0003 0 0.012 0.0003
          0.00022222222222243 0.0082758620689727 0 0.00022222222222243 0.0082758620689727 0.00015
          0.00022222222222243 0.0082758620689727 0.0003 0.00022222222222246 0.0086896551724206 0
          0.00022222222222246 0.0086896551724206 0.00015 0.00022222222222246 0.0086896551724206 0.0003
          0.00022222222222249 0.0091034482758676 0 0.00022222222222249 0.0091034482758676 0.00015
          0.00022222222222249 0.0091034482758676 0.0003 0.00022222222222253 0.0095172413793151 0
          0.00022222222222253 0.0095172413793151 0.00015 0.00022222222222253 0.0095172413793151 0.0003
          0.00022222222222256 0.0099310344827619 0 0.00022222222222256 0.0099310344827619 0.00015
          0.00022222222222256 0.0099310344827619 0.0003 0.0002222222222226 0.010344827586209 0
          0.0002222222222226 0.010344827586209 0.00015 0.0002222222222226 0.010344827586209 0.0003
          0.00022222222222263 0.010758620689656 0 0.00022222222222263 0.010758620689656 0.00015
          0.00022222222222263 0.010758620689656 0.0003 0.00022222222222266 0.011172413793103 0
          0.00022222222222266 0.011172413793103 0.00015 0.00022222222222266 0.011172413793103 0.0003
          0.0002222222222227 0.011586206896551 0 0.0002222222222227 0.011586206896551 0.00015
          0.0002222222222227 0.011586206896551 0.0003 0.00022222222222273 0.012 0
          0.00022222222222273 0.012 0.00015 0.00022222222222273 0.012 0.0003
          0.00033333333333363 0.0082758620689704 0 0.00033333333333363 0.0082758620689704 0.00015
          0.00033333333333363 0.0082758620689704 0.0003 0.00033333333333368 0.0086896551724185 0
          0.00033333333333368 0.0086896551724185 0.00015 0.00033333333333368 0.0086896551724185 0.0003
          0.00033333333333373 0.0091034482758657 0 0.00033333333333373 0.0091034482758657 0.00015
          0.00033333333333373 0.0091034482758657 0.0003 0.00033333333333379 0.0095172413793133 0
          0.00033333333333379 0.0095172413793133 0.00015 0.00033333333333379 0.0095172413793133 0.0003
          0.00033333333333384 0.0099310344827607 0 0.00033333333333384 0.0099310344827607 0.00015
          0.00033333333333384 0.0099310344827607 0.0003 0.00033333333333389 0.010344827586208 0
          0.00033333333333389 0.010344827586208 0.00015 0.00033333333333389 0.010344827586208 0.0003
          0.00033333333333394 0.010758620689656 0 0.00033333333333394 0.010758620689656 0.00015
          0.00033333333333394 0.010758620689656 0.0003 0.000333333333334 0.011172413793103 0
          0.000333333333334 0.011172413793103 0.00015 0.000333333333334 0.011172413793103 0.0003
          0.00033333333333405 0.011586206896551 0 0.00033333333333405 0.011586206896551 0.00015
          0.00033333333333405 0.011586206896551 0.0003 0.0003333333333341 0.012 0
          0.0003333333333341 0.012 0.00015 0.0003333333333341 0.012 0.0003
          0.00044444444444486 0.0082758620689681 0 0.00044444444444486 0.0082758620689681 0.00015
          0.00044444444444486 0.0082758620689681 0.0003 0.00044444444444493 0.0086896551724165 0
          0.00044444444444493 0.0086896551724165 0.00015 0.00044444444444493 0.0086896551724165 0.0003
          0.00044444444444501 0.0091034482758637 0 0.00044444444444501 0.0091034482758637 0.00015
          0.00044444444444501 0.0091034482758637 0.0003 0.00044444444444508 0.0095172413793116 0
          0.00044444444444508 0.0095172413793116 0.00015 0.00044444444444508 0.0095172413793116 0.0003
          0.00044444444444516 0.0099310344827594 0 0.00044444444444516 0.0099310344827594 0.00015
          0.00044444444444516 0.0099310344827594 0.0003 0.00044444444444523 0.010344827586207 0
          0.00044444444444523 0.010344827586207 0.00015 0.00044444444444523 0.010344827586207 0.0003
          0.00044444444444531 0.010758620689655 0 0.00044444444444531 0.010758620689655 0.00015
          0.00044444444444531 0.010758620689655 0.0003 0.00044444444444538 0.011172413793103 0
          0.00044444444444538 0.011172413793103 0.00015 0.00044444444444538 0.011172413793103 0.0003
          0.00044444444444546 0.011586206896551 0 0.00044444444444546 0.011586206896551 0.00015
          0.00044444444444546 0.011586206896551 0.0003 0.00044444444444553 0.012 0
          0.00044444444444553 0.012 0.00015 0.00044444444444553 0.012 0.0003
          0.00055555555555597 0.0082758620689657 0 0.00055555555555597 0.0082758620689657 0.00015
          0.00055555555555597 0.0082758620689657 0.0003 0.00055555555555605 0.0086896551724145 0
          0.00055555555555605 0.0086896551724145 0.00015 0.00055555555555605 0.0086896551724145 0.0003
          0.00055555555555613 0.0091034482758618 0 0.00055555555555613 0.0091034482758618 0.00015
          0.00055555555555613 0.0091034482758618 0.0003 0.00055555555555621 0.0095172413793099 0
          0.00055555555555621 0.0095172413793099 0.00015 0.00055555555555621 0.0095172413793099 0.0003
          0.00055555555555629 0.0099310344827581 0 0.00055555555555629 0.0099310344827581 0.00015
          0.00055555555555629 0.0099310344827581 0.0003 0.00055555555555636 0.010344827586206 0
          0.00055555555555636 0.010344827586206 0.00015 0.00055555555555636 0.010344827586206 0.0003
          0.00055555555555644 0.010758620689655 0 0.00055555555555644 0.010758620689655 0.00015
          0.00055555555555644 0.010758620689655 0.0003 0.00055555555555652 0.011172413793102 0
          0.00055555555555652 0.011172413793102 0.00015 0.00055555555555652 0.011172413793102 0.0003
          0.0005555555555566 0.011586206896551 0 0.0005555555555566 0.011586206896551 0.00015
          0.0005555555555566 0.011586206896551 0.0003 0.00055555555555667 0.012 0
          0.00055555555555667 0.012 0.00015 0.00055555555555667 0.012 0.0003
          0.00066666666666675 0.0082758620689634 0 0.00066666666666675 0.0082758620689634 0.00015
          0.00066666666666675 0.0082758620689634 0.0003 0.00066666666666679 0.0086896551724125 0
          0.00066666666666679 0.0086896551724125 0.00015 0.00066666666666679 0.0086896551724125 0.0003
          0.00066666666666684 0.0091034482758598 0 0.00066666666666684 0.0091034482758598 0.00015
          0.00066666666666684 0.0091034482758598 0.0003 0.00066666666666688 0.0095172413793081 0
          0.00066666666666688 0.0095172413793081 0.00015 0.00066666666666688 0.0095172413793081 0.0003
          0.00066666666666693 0.0099310344827568 0 0.00066666666666693 0.0099310344827568 0.00015
          0.00066666666666693 0.0099310344827568 0.0003 0.00066666666666697 0.010344827586205 0
          0.00066666666666697 0.010344827586205 0.00015 0.00066666666666697 0.010344827586205 0.0003
          0.00066666666666701 0.010758620689654 0 0.00066666666666701 0.010758620689654 0.00015
          0.00066666666666701 0.010758620689654 0.0003 0.00066666666666706 0.011172413793102 0
          0.00066666666666706 0.011172413793102 0.00015 0.00066666666666706 0.011172413793102 0.0003
          0.0006666666666671 0.01158620689655 0 0.0006666666666671 0.01158620689655 0.00015
          0.0006666666666671 0.01158620689655 0.0003 0.00066666666666715 0.012 0
          0.00066666666666715 0.012 0.00015 0.00066666666666715 0.012 0.0003
          0.00077777777777787 0.0082758620689611 0 0.00077777777777787 0.0082758620689611 0.00015
          0.00077777777777787 0.0082758620689611 0.0003 0.00077777777777791 0.0086896551724104 0
          0.00077777777777791 0.0086896551724104 0.00015 0.00077777777777791 0.0086896551724104 0.0003
          0.00077777777777794 0.0091034482758578 0 0.00077777777777794 0.0091034482758578 0.00015
          0.00077777777777794 0.0091034482758578 0.0003 0.00077777777777797 0.0095172413793064 0
          0.00077777777777797 0.0095172413793064 0.00015 0.00077777777777797 0.0095172413793064 0.0003
          0.000777777777778 0.0099310344827555 0 0.000777777777778 0.0099310344827555 0.00015
          0.000777777777778 0.0099310344827555 0.0003 0.00077777777777803 0.010344827586205 0
          0.00077777777777803 0.010344827586205 0.00015 0.00077777777777803 0.010344827586205 0.0003
          0.00077777777777806 0.010758620689654 0 0.00077777777777806 0.010758620689654 0.00015
          0.00077777777777806 0.010758620689654 0.0003 0.00077777777777809 0.011172413793101 0
          0.00077777777777809 0.011172413793101 0.00015 0.00077777777777809 0.011172413793101 0.0003
          0.00077777777777813 0.01158620689655 0 0.00077777777777813 0.01158620689655 0.00015
          0.00077777777777813 0.01158620689655 0.0003 0.00077777777777816 0.012 0
          0.00077777777777816 0.012 0.00015 0.00077777777777816 0.012 0.0003
          0.0008888888888888 0.0082758620689588 0 0.0008888888888888 0.0082758620689588 0.00015
          0.0008888888888888 0.0082758620689588 0.0003 0.00088888888888881 0.0086896551724084 0
          0.00088888888888881 0.0086896551724084 0.00015 0.00088888888888881 0.0086896551724084 0.0003
          0.00088888888888882 0.0091034482758559 0 0.00088888888888882 0.0091034482758559 0.00015
          0.00088888888888882 0.0091034482758559 0.0003 0.00088888888888883 0.0095172413793047 0
          0.00088888888888883 0.0095172413793047 0.00015 0.00088888888888883 0.0095172413793047 0.0003
          0.00088888888888884 0.0099310344827542 0 0.00088888888888884 0.0099310344827542 0.00015
          0.00088888888888884 0.0099310344827542 0.0003 0.00088888888888885 0.010344827586204 0
          0.00088888888888885 0.010344827586204 0.00015 0.00088888888888885 0.010344827586204 0.0003
          0.00088888888888885 0.010758620689653 0 0.00088888888888885 0.010758620689653 0.00015
          0.00088888888888885 0.010758620689653 0.0003 0.00088888888888886 0.011172413793101 0
          0.00088888888888886 0.011172413793101 0.00015 0.00088888888888886 0.011172413793101 0.0003
          0.00088888888888887 0.01158620689655 0 0.00088888888888887 0.01158620689655 0.00015
          0.00088888888888887 0.01158620689655 0.0003 0.00088888888888888 0.012 0
          0.00088888888888888 0.012 0.00015 0.00088888888888888 0.012 0.0003
          0.001 0.0091034482758539 0 0.001 0.0091034482758539 0.00015
          0.001 0.0091034482758539 0.0003 0.001 0.0095172413793029 0
          0.001 0.0095172413793029 0.00015 0.001 0.0095172413793029 0.0003
          0.001 0.0099310344827529 0 0.001 0.0099310344827529 0.00015
          0.001 0.0099310344827529 0.0003 0.001 0.010344827586203 0
          0.001 0.010344827586203 0.00015 0.001 0.010344827586203 0.0003
          0.001 0.010758620689653 0 0.001 0.010758620689653 0.00015
          0.001 0.010758620689653 0.0003 0.001 0.0111724137931 0
          0.001 0.0111724137931 0.00015 0.001 0.0111724137931 0.0003
          0.001 0.01158620689655 0 0.001 0.01158620689655 0.00015
          0.001 0.01158620689655 0.0003 0.001 0.012 0
          0.001 0.012 0.00015 0.001 0.012 0.0003
          0.00067947077571632 0.012798245728111 0 0.00068678568032061 0.012710429785181 0
          0.00076344362314339 0.012698069087358 0 0.00078000626700894 0.012788238676479 0
          0.00067947077571632 0.012798245728111 0.00015 0.00068678568032061 0.012710429785181 0.00015
          0.00076344362314339 0.012698069087358 0.00015 0.00078000626700894 0.012788238676479 0.00015
          0.00067947077571632 0.012798245728111 0.0003 0.00068678568032061 0.012710429785181 0.0003
          0.00076344362314339 0.012698069087358 0.0003 0.00078000626700894 0.012788238676479 0.0003
          0.0007101811699723 0.012881232243155 0 0.00078737528777453 0.012884598822829 0
          0.0007101811699723 0.012881232243155 0.00015 0.00078737528777453 0.012884598822829 0.00015
          0.0007101811699723 0.012881232243155 0.0003 0.00078737528777453 0.012884598822829 0.0003
          0.00063149088332091 0.012876508075697 0 0.00071156048039536 0.012943694476106 0
          0.00064992343237843 0.012944046337553 0 0.00063149088332091 0.012876508075697 0.00015
          0.00071156048039536 0.012943694476106 0.00015 0.00064992343237843 0.012944046337553 0.00015
          0.00063149088332091 0.012876508075697 0.0003 0.00071156048039536 0.012943694476106 0.0003
          0.00064992343237843 0.012944046337553 0.0003 0.00014271480927744 0.012184528409521 0
          0.00021074182908597 0.012239195039162 0 0.00014617236906556 0.012274772666576 0
          0.00010836971036758 0.0122326927564 0 0.00014271480927744 0.012184528409521 0.00015
          0.00021074182908597 0.012239195039162 0.00015 0.00014617236906556 0.012274772666576 0.00015
          0.00010836971036758 0.0122326927564 0.00015 0.00014271480927744 0.012184528409521 0.0003
          0.00021074182908597 0.012239195039162 0.0003 0.00014617236906556 0.012274772666576 0.0003
          0.00010836971036758 0.0122326927564 0.0003 0.00040316247653445 0.012523054457121 0
          0.00050524235438491 0.012516470580574 0 0.00047556583290331 0.012611926172403 0
          0.00040677839563254 0.01259579728731 0 0.00040316247653445 0.012523054457121 0.00015
          0.00050524235438491 0.012516470580574 0.00015 0.00047556583290331 0.012611926172403 0.00015
          0.00040677839563254 0.01259579728731 0.00015 0.00040316247653445 0.012523054457121 0.0003
          0.00050524235438491 0.012516470580574 0.0003 0.00047556583290331 0.012611926172403 0.0003
          0.00040677839563254 0.01259579728731 0.0003 0.00038389728538556 0.012111104172094 0
          0.00037958632650406 0.012195366170904 0 0.00029855370140418 0.012181148574691 0
          0.00029802321336891 0.012105931916082 0 0.00038389728538556 0.012111104172094 0.00015
          0.00037958632650406 0.012195366170904 0.00015 0.00029855370140418 0.012181148574691 0.00015
          0.00029802321336891 0.012105931916082 0.00015 0.00038389728538556 0.012111104172094 0.0003
          0.00037958632650406 0.012195366170904 0.0003 0.00029855370140418 0.012181148574691 0.0003
          0.00029802321336891 0.012105931916082 0.0003 0.00062435778703091 0.012280526392523 0
          0.00063694887874418 0.012191685157308 0 0.00075163746499696 0.012211869018538 0
          0.0007101306235237 0.012330652999586 0 0.00062435778703091 0.012280526392523 0.00015
          0.00063694887874418 0.012191685157308 0.00015 0.00075163746499696 0.012211869018538 0.00015
          0.0007101306235237 0.012330652999586 0.00015 0.00062435778703091 0.012280526392523 0.0003
          0.00063694887874418 0.012191685157308 0.0003 0.00075163746499696 0.012211869018538 0.0003
          0.0007101306235237 0.012330652999586 0.0003 0.00090036231429234 0.012108977226849 0
          0.00080269198720626 0.012096984730608 0 0.00090036231429234 0.012108977226849 0.00015
          0.00080269198720626 0.012096984730608 0.00015 0.00090036231429234 0.012108977226849 0.0003
          0.00080269198720626 0.012096984730608 0.0003 0.00023865656240352 0.012177237347116 0
          0.00029061852669854 0.01224857812735 0 0.00023865656240352 0.012177237347116 0.00015
          0.00029061852669854 0.01224857812735 0.00015 0.00023865656240352 0.012177237347116 0.0003
          0.00029061852669854 0.01224857812735 0.0003 0.00056164385173704 0.012835416164401 0
          0.00056508360468666 0.012898794448667 0 0.00049240387645224 0.012913175910861 0
          0.00046984631090009 0.012828989929731 0 0.00056164385173704 0.012835416164401 0.00015
          0.00056508360468666 0.012898794448667 0.00015 0.00049240387645224 0.012913175910861 0.00015
          0.00046984631090009 0.012828989929731 0.00015 0.00056164385173704 0.012835416164401 0.0003
          0.00056508360468666 0.012898794448667 0.0003 0.00049240387645224 0.012913175910861 0.0003
          0.00046984631090009 0.012828989929731 0.0003 0.000050495613361417 0.012066083920595 0
          0.00011131843390441 0.012086989142678 0 0.000069577205110887 0.012153607960951 0
          0 0.012111111111109 0 0.000050495613361417 0.012066083920595 0.00015
          0.00011131843390441 0.012086989142678 0.00015 0.000069577205110887 0.012153607960951 0.00015
          0 0.012111111111109 0.00015 0.000050495613361417 0.012066083920595 0.0003
          0.00011131843390441 0.012086989142678 0.0003 0.000069577205110887 0.012153607960951 0.0003
          0 0.012111111111109 0.0003 0.00022470825547396 0.012306913365418 0
          0.00017103954025546 0.012340304715306 0 0.00022470825547396 0.012306913365418 0.00015
          0.00017103954025546 0.012340304715306 0.00015 0.00022470825547396 0.012306913365418 0.0003
          0.00017103954025546 0.012340304715306 0.0003 0.00085640575367095 0.012657655614724 0
          0.001 0.012571428571438 0 0.001 0.012714285714292 0
          0.00089085524488654 0.012778191533234 0 0.00085640575367095 0.012657655614724 0.00015
          0.001 0.012571428571438 0.00015 0.001 0.012714285714292 0.00015
          0.00089085524488654 0.012778191533234 0.00015 0.00085640575367095 0.012657655614724 0.0003
          0.001 0.012571428571438 0.0003 0.001 0.012714285714292 0.0003
          0.00089085524488654 0.012778191533234 0.0003 0.00017101007138246 0.012530153689505 0
          0.000086824088695593 0.01250759612347 0 0.00010015626416536 0.012463076177022 0
          0.00018026894988108 0.012457509098897 0 0.00017101007138246 0.012530153689505 0.00015
          0.000086824088695593 0.01250759612347 0.00015 0.00010015626416536 0.012463076177022 0.00015
          0.00018026894988108 0.012457509098897 0.00015 0.00017101007138246 0.012530153689505 0.0003
          0.000086824088695593 0.01250759612347 0.0003 0.00010015626416536 0.012463076177022 0.0003
          0.00018026894988108 0.012457509098897 0.0003 0.00055555555555552 0.013 0
          0.00054972466987376 0.012958523613261 0 0.00059017772624368 0.012950117696029 0
          0.00061111111111072 0.013 0 0.00055555555555552 0.013 0.00015
          0.00054972466987376 0.012958523613261 0.00015 0.00059017772624368 0.012950117696029 0.00015
          0.00061111111111072 0.013 0.00015 0.00055555555555552 0.013 0.0003
          0.00054972466987376 0.012958523613261 0.0003 0.00059017772624368 0.012950117696029 0.0003
          0.00061111111111072 0.013 0.0003 0.00056012017374448 0.012193168747791 0
          0.00054338833040714 0.012250054231166 0 0.00056012017374448 0.012193168747791 0.00015
          0.00054338833040714 0.012250054231166 0.00015 0.00056012017374448 0.012193168747791 0.0003
          0.00054338833040714 0.012250054231166 0.0003 0.00020164702899907 0.012111009853496 0
          0.00020164702899907 0.012111009853496 0.00015 0.00020164702899907 0.012111009853496 0.0003
          0.00058698867508036 0.01276393301723 0 0.00061242021253103 0.012689969395149 0
          0.00058698867508036 0.01276393301723 0.00015 0.00061242021253103 0.012689969395149 0.00015
          0.00058698867508036 0.01276393301723 0.0003 0.00061242021253103 0.012689969395149 0.0003
          0.00054704952286259 0.01264760123259 0 0.00058547756026548 0.012574831423214 0
          0.00066845126455385 0.012625352450745 0 0.00054704952286259 0.01264760123259 0.00015
          0.00058547756026548 0.012574831423214 0.00015 0.00066845126455385 0.012625352450745 0.00015
          0.00054704952286259 0.01264760123259 0.0003 0.00058547756026548 0.012574831423214 0.0003
          0.00066845126455385 0.012625352450745 0.0003 0.00040316497174951 0.012375710115571 0
          0.00038996592658543 0.012448925709731 0 0.00030251984068288 0.012451026681152 0
          0.00030273327950676 0.012339921797294 0 0.00040316497174951 0.012375710115571 0.00015
          0.00038996592658543 0.012448925709731 0.00015 0.00030251984068288 0.012451026681152 0.00015
          0.00030273327950676 0.012339921797294 0.00015 0.00040316497174951 0.012375710115571 0.0003
          0.00038996592658543 0.012448925709731 0.0003 0.00030251984068288 0.012451026681152 0.0003
          0.00030273327950676 0.012339921797294 0.0003 0 0.012166666666663 0
          0.000060257043043922 0.012213388328671 0 0 0.012222222222217 0
          0 0.012166666666663 0.00015 0.000060257043043922 0.012213388328671 0.00015
          0 0.012222222222217 0.00015 0 0.012166666666663 0.0003
          0.000060257043043922 0.012213388328671 0.0003 0 0.012222222222217 0.0003
          0.00086766031505541 0.012218873949421 0 0.00070802748250363 0.01210226547145 0
          0.00086766031505541 0.012218873949421 0.00015 0.00070802748250363 0.01210226547145 0.00015
          0.00086766031505541 0.012218873949421 0.0003 0.00070802748250363 0.01210226547145 0.0003
          0.00045681564832724 0.012667985356076 0 0.00038302222240927 0.012678606196169 0
          0.00045681564832724 0.012667985356076 0.00015 0.00038302222240927 0.012678606196169 0.00015
          0.00045681564832724 0.012667985356076 0.0003 0.00038302222240927 0.012678606196169 0.0003
          0.00057343997443155 0.012462111372123 0 0.00067467937701806 0.012497336760124 0
          0.00057343997443155 0.012462111372123 0.00015 0.00067467937701806 0.012497336760124 0.00015
          0.00057343997443155 0.012462111372123 0.0003 0.00067467937701806 0.012497336760124 0.0003
          0 0.012388888888886 0 0.00004805763346656 0.012364070531781 0
          0.000052775834931525 0.012418323433379 0 0 0.012444444444443 0
          0 0.012388888888886 0.00015 0.00004805763346656 0.012364070531781 0.00015
          0.000052775834931525 0.012418323433379 0.00015 0 0.012444444444443 0.00015
          0 0.012388888888886 0.0003 0.00004805763346656 0.012364070531781 0.0003
          0.000052775834931525 0.012418323433379 0.0003 0 0.012444444444443 0.0003
          0.0004655657017567 0.012222981448331 0 0.0004403524252846 0.012306679111378 0
          0.00036518397892919 0.012268658791136 0 0.0004655657017567 0.012222981448331 0.00015
          0.0004403524252846 0.012306679111378 0.00015 0.00036518397892919 0.012268658791136 0.00015
          0.0004655657017567 0.012222981448331 0.0003 0.0004403524252846 0.012306679111378 0.0003
          0.00036518397892919 0.012268658791136 0.0003 0.00079059026611164 0.012574208252283 0
          0.00074033738884001 0.012629472897336 0 0.00079059026611164 0.012574208252283 0.00015
          0.00074033738884001 0.012629472897336 0.00015 0.00079059026611164 0.012574208252283 0.0003
          0.00074033738884001 0.012629472897336 0.0003 0.00049134001885305 0.012124425854677 0
          0.00060162315338905 0.012101782274206 0 0.00049134001885305 0.012124425854677 0.00015
          0.00060162315338905 0.012101782274206 0.00015 0.00049134001885305 0.012124425854677 0.0003
          0.00060162315338905 0.012101782274206 0.0003 0.00055165526617401 0.012365152711649 0
          0.00046621557592763 0.012427373679685 0 0.00055165526617401 0.012365152711649 0.00015
          0.00046621557592763 0.012427373679685 0.00015 0.00055165526617401 0.012365152711649 0.0003
          0.00046621557592763 0.012427373679685 0.0003 0.00065175768920993 0.012395993188634 0
          0.00078658012555766 0.01242031863996 0 0.00065175768920993 0.012395993188634 0.00015
          0.00078658012555766 0.01242031863996 0.00015 0.00065175768920993 0.012395993188634 0.0003
          0.00078658012555766 0.01242031863996 0.0003 0.00072222222222142 0.013 0
          0.00076767785213736 0.012949407633443 0 0.00077777777777722 0.013 0
          0.00072222222222142 0.013 0.00015 0.00076767785213736 0.012949407633443 0.00015
          0.00077777777777722 0.013 0.00015 0.00072222222222142 0.013 0.0003
          0.00076767785213736 0.012949407633443 0.0003 0.00077777777777722 0.013 0.0003
          0.001 0.01228571428572 0 0.001 0.012428571428581 0
          0.00085243404696798 0.012340254950119 0 0.001 0.01228571428572 0.00015
          0.001 0.012428571428581 0.00015 0.00085243404696798 0.012340254950119 0.00015
          0.001 0.01228571428572 0.0003 0.001 0.012428571428581 0.0003
          0.00085243404696798 0.012340254950119 0.0003 0.000047305708530005 0.012255757186949 0
          0.000035989657241992 0.012305788523607 0 0 0.012277777777773 0
          0.000047305708530005 0.012255757186949 0.00015 0.000035989657241992 0.012305788523607 0.00015
          0 0.012277777777773 0.00015 0.000047305708530005 0.012255757186949 0.0003
          0.000035989657241992 0.012305788523607 0.0003 0 0.012277777777773 0.0003
          0 0.01233333333333 0 0 0.01233333333333 0.00015
          0 0.01233333333333 0.0003 0.00088888888888861 0.013 0
          0.00086852226729803 0.012945143609779 0 0.00092105077811413 0.012923509600428 0
          0.0009444444444442 0.013 0 0.00088888888888861 0.013 0.00015
          0.00086852226729803 0.012945143609779 0.00015 0.00092105077811413 0.012923509600428 0.00015
          0.0009444444444442 0.013 0.00015 0.00088888888888861 0.013 0.0003
          0.00086852226729803 0.012945143609779 0.0003 0.00092105077811413 0.012923509600428 0.0003
          0.0009444444444442 0.013 0.0003 0.000088322519872331 0.012287262323421 0
          0.000098057359918883 0.01234321954228 0 0.000088322519872331 0.012287262323421 0.00015
          0.000098057359918883 0.01234321954228 0.00015 0.000088322519872331 0.012287262323421 0.0003
          0.000098057359918883 0.01234321954228 0.0003 0.00082037799021753 0.012949927278989 0
          0.00083333333333302 0.013 0 0.00082037799021753 0.012949927278989 0.00015
          0.00083333333333302 0.013 0.00015 0.00082037799021753 0.012949927278989 0.0003
          0.00083333333333302 0.013 0.0003 0.000055423585756317 0.01245648439217 0
          0.00011750487062481 0.01240389197138 0 0.000055423585756317 0.01245648439217 0.00015
          0.00011750487062481 0.01240389197138 0.00015 0.000055423585756317 0.01245648439217 0.0003
          0.00011750487062481 0.01240389197138 0.0003 0.00022703795328819 0.012397087263253 0
          0.00024412512388832 0.012487409031957 0 0.00022703795328819 0.012397087263253 0.00015
          0.00024412512388832 0.012487409031957 0.00015 0.00022703795328819 0.012397087263253 0.0003
          0.00024412512388832 0.012487409031957 0.0003 0.00086622784349606 0.012879340816766 0
          0.00086622784349606 0.012879340816766 0.00015 0.00086622784349606 0.012879340816766 0.0003
          0.001 0.01214285714286 0 0.001 0.01214285714286 0.00015
          0.001 0.01214285714286 0.0003 0.00032807036377433 0.012530514194312 0
          0.00032139380548758 0.012616977778981 0 0.00032807036377433 0.012530514194312 0.00015
          0.00032139380548758 0.012616977778981 0.00015 0.00032807036377433 0.012530514194312 0.0003
          0.00032139380548758 0.012616977778981 0.0003 0.00078653837511981 0.012300730611142 0
          0.00078653837511981 0.012300730611142 0.00015 0.00078653837511981 0.012300730611142 0.0003
          0.00050187285486533 0.012723776617989 0 0.00050187285486533 0.012723776617989 0.00015
          0.00050187285486533 0.012723776617989 0.0003 0.00066666666666612 0.013 0
          0.00066666666666612 0.013 0.00015 0.00066666666666612 0.013 0.0003
          0.00086640285866826 0.012499721374928 0 0.00086640285866826 0.012499721374928 0.00015
          0.00086640285866826 0.012499721374928 0.0003 0.001 0.012857142857146 0
          0.001 0.012857142857146 0.00015 0.001 0.012857142857146 0.0003
          0.00043301270230906 0.012750000000722 0 0.00043301270230906 0.012750000000722 0.00015
          0.00043301270230906 0.012750000000722 0.0003 0.00025000000019401 0.01256698729822 0
          0.00025000000019401 0.01256698729822 0.00015 0.00025000000019401 0.01256698729822 0.0003
          0 0.0125 0 0 0.0125 0.00015
          0 0.0125 0.0003 0 0.012055555555554 0
          0 0.012055555555554 0.00015 0 0.012055555555554 0.0003
          0.001 0.013 0 0.001 0.013 0.00015
          0.001 0.013 0.0003 0.0005 0.013 0
          0.0005 0.013 0.00015 0.0005 0.013 0.0003
          0.0014444444444451 0.0095172413793029 0 0.0014444444444451 0.0095172413793029 0.00015
          0.0014444444444451 0.0095172413793029 0.0003 0.0018888888888902 0.0095172413793029 0
          0.0018888888888902 0.0095172413793029 0.00015 0.0018888888888902 0.0095172413793029 0.0003
          0.0014444444444452 0.0099310344827529 0 0.0014444444444452 0.0099310344827529 0.00015
          0.0014444444444452 0.0099310344827529 0.0003 0.0018888888888903 0.0099310344827529 0
          0.0018888888888903 0.0099310344827529 0.00015 0.0018888888888903 0.0099310344827529 0.0003
          0.0014444444444452 0.010344827586203 0 0.0014444444444452 0.010344827586203 0.00015
          0.0014444444444452 0.010344827586203 0.0003 0.0014444444444453 0.010758620689653 0
          0.0014444444444453 0.010758620689653 0.00015 0.0014444444444453 0.010758620689653 0.0003
          0.0014444444444453 0.0111724137931 0 0.0014444444444453 0.0111724137931 0.00015
          0.0014444444444453 0.0111724137931 0.0003 0.0014444444444454 0.01158620689655 0
          0.0014444444444454 0.01158620689655 0.00015 0.0014444444444454 0.01158620689655 0.0003
          0.0014444444444455 0.012 0 0.0014444444444455 0.012 0.00015
          0.0014444444444455 0.012 0.0003 0.0011659770658264 0.012184916069452 0
          0.0011978981211319 0.012291694091132 0 0.0011659770658264 0.012184916069452 0.00015
          0.0011978981211319 0.012291694091132 0.00015 0.0011659770658264 0.012184916069452 0.0003
          0.0011978981211319 0.012291694091132 0.0003 0.0014134281085546 0.012468353283698 0
          0.001412897365997 0.01265802692797 0 0.0011710921098332 0.012660749606473 0
          0.0011928404820732 0.012464476127519 0 0.0014134281085546 0.012468353283698 0.00015
          0.001412897365997 0.01265802692797 0.00015 0.0011710921098332 0.012660749606473 0.00015
          0.0011928404820732 0.012464476127519 0.00015 0.0014134281085546 0.012468353283698 0.0003
          0.001412897365997 0.01265802692797 0.0003 0.0011710921098332 0.012660749606473 0.0003
          0.0011928404820732 0.012464476127519 0.0003 0.0011801499871676 0.012824831216028 0
          0.0011801499871676 0.012824831216028 0.00015 0.0011801499871676 0.012824831216028 0.0003
          0.0014335559245349 0.012265987585326 0 0.0014335559245349 0.012265987585326 0.00015
          0.0014335559245349 0.012265987585326 0.0003 0.0014444444444455 0.013 0
          0.0014444444444455 0.013 0.00015 0.0014444444444455 0.013 0.0003
          0.0023333333333355 0.0099310344827529 0 0.0023333333333353 0.0095172413793029 0
          0.0023333333333355 0.0099310344827529 0.00015 0.0023333333333353 0.0095172413793029 0.00015
          0.0023333333333355 0.0099310344827529 0.0003 0.0023333333333353 0.0095172413793029 0.0003
          0.0018888888888904 0.010344827586203 0 0.0018888888888904 0.010344827586203 0.00015
          0.0018888888888904 0.010344827586203 0.0003 0.0023333333333357 0.010344827586203 0
          0.0023333333333357 0.010344827586203 0.00015 0.0023333333333357 0.010344827586203 0.0003
          0.0018888888888905 0.010758620689653 0 0.0018888888888905 0.010758620689653 0.00015
          0.0018888888888905 0.010758620689653 0.0003 0.0018888888888907 0.0111724137931 0
          0.0018888888888907 0.0111724137931 0.00015 0.0018888888888907 0.0111724137931 0.0003
          0.0018888888888908 0.01158620689655 0 0.0018888888888908 0.01158620689655 0.00015
          0.0018888888888908 0.01158620689655 0.0003 0.0018888888888909 0.012 0
          0.0018888888888909 0.012 0.00015 0.0018888888888909 0.012 0.0003
          0.0017386847932316 0.012348636106575 0 0.0017386847932316 0.012348636106575 0.00015
          0.0017386847932316 0.012348636106575 0.0003 0.0018888888888909 0.013 0
          0.001702980389272 0.012655949584096 0 0.0020604062010233 0.012679406151259 0
          0.0018888888888909 0.013 0.00015 0.001702980389272 0.012655949584096 0.00015
          0.0020604062010233 0.012679406151259 0.00015 0.0018888888888909 0.013 0.0003
          0.001702980389272 0.012655949584096 0.0003 0.0020604062010233 0.012679406151259 0.0003
          <InformationKey name="L2_NORM_RANGE" location="vtkDataArray" length="2">
            <Value index="0">
              0.008275862069
            </Value>
            <Value index="1">
              0.013139935359
            </Value>
          </InformationKey>
        </DataArray>
      </Points>
      <Cells>
        <DataArray type="Int64" Name="connectivity" format="ascii" RangeMin="0" RangeMax="755">
          1 0 6 7 3 2
          8 9 3 2 8 9
          5 4 10 11 7 6
          12 13 9 8 14 15
          9 8 14 15 11 10
          16 17 13 12 18 19
          15 14 20 21 15 14
          20 21 17 16 22 23
          19 18 24 25 21 20
          26 27 21 20 26 27
          23 22 28 29 25 24
          30 31 27 26 32 33
          27 26 32 33 29 28
          34 35 31 30 36 37
          33 32 38 39 33 32
          38 39 35 34 40 41
          37 36 42 43 39 38
          44 45 39 38 44 45
          41 40 46 47 43 42
          48 49 45 44 50 51
          45 44 50 51 47 46
          52 53 49 48 54 55
          51 50 56 57 51 50
          56 57 53 52 58 59
          0 60 63 6 2 61
          64 8 2 61 64 8
          4 62 65 10 6 63
          66 12 8 64 67 14
          8 64 67 14 10 65
          68 16 12 66 69 18
          14 67 70 20 14 67
          70 20 16 68 71 22
          18 69 72 24 20 70
          73 26 20 70 73 26
          22 71 74 28 24 72
          75 30 26 73 76 32
          26 73 76 32 28 74
          77 34 30 75 78 36
          32 76 79 38 32 76
          79 38 34 77 80 40
          36 78 81 42 38 79
          82 44 38 79 82 44
          40 80 83 46 42 81
          84 48 44 82 85 50
          44 82 85 50 46 83
          86 52 48 84 87 54
          50 85 88 56 50 85
          88 56 52 86 89 58
          60 90 93 63 61 91
          94 64 61 91 94 64
          62 92 95 65 63 93
          96 66 64 94 97 67
          64 94 97 67 65 95
          98 68 66 96 99 69
          67 97 100 70 67 97
          100 70 68 98 101 71
          69 99 102 72 70 100
          103 73 70 100 103 73
          71 101 104 74 72 102
          105 75 73 103 106 76
          73 103 106 76 74 104
          107 77 75 105 108 78
          76 106 109 79 76 106
          109 79 77 107 110 80
          78 108 111 81 79 109
          112 82 79 109 112 82
          80 110 113 83 81 111
          114 84 82 112 115 85
          82 112 115 85 83 113
          116 86 84 114 117 87
          85 115 118 88 85 115
          118 88 86 116 119 89
          90 120 123 93 91 121
          124 94 91 121 124 94
          92 122 125 95 93 123
          126 96 94 124 127 97
          94 124 127 97 95 125
          128 98 96 126 129 99
          97 127 130 100 97 127
          130 100 98 128 131 101
          99 129 132 102 100 130
          133 103 100 130 133 103
          101 131 134 104 102 132
          135 105 103 133 136 106
          103 133 136 106 104 134
          137 107 105 135 138 108
          106 136 139 109 106 136
          139 109 107 137 140 110
          108 138 141 111 109 139
          142 112 109 139 142 112
          110 140 143 113 111 141
          144 114 112 142 145 115
          112 142 145 115 113 143
          146 116 114 144 147 117
          115 145 148 118 115 145
          148 118 116 146 149 119
          120 150 153 123 121 151
          154 124 121 151 154 124
          122 152 155 125 123 153
          156 126 124 154 157 127
          124 154 157 127 125 155
          158 128 126 156 159 129
          127 157 160 130 127 157
          160 130 128 158 161 131
          129 159 162 132 130 160
          163 133 130 160 163 133
          131 161 164 134 132 162
          165 135 133 163 166 136
          133 163 166 136 134 164
          167 137 135 165 168 138
          136 166 169 139 136 166
          169 139 137 167 170 140
          138 168 171 141 139 169
          172 142 139 169 172 142
          140 170 173 143 141 171
          174 144 142 172 175 145
          142 172 175 145 143 173
          176 146 144 174 177 147
          145 175 178 148 145 175
          178 148 146 176 179 149
          150 180 183 153 151 181
          184 154 151 181 184 154
          152 182 185 155 153 183
          186 156 154 184 187 157
          154 184 187 157 155 185
          188 158 156 186 189 159
          157 187 190 160 157 187
          190 160 158 188 191 161
          159 189 192 162 160 190
          193 163 160 190 193 163
          161 191 194 164 162 192
          195 165 163 193 196 166
          163 193 196 166 164 194
          197 167 165 195 198 168
          166 196 199 169 166 196
          199 169 167 197 200 170
          168 198 201 171 169 199
          202 172 169 199 202 172
          170 200 203 173 171 201
          204 174 172 202 205 175
          172 202 205 175 173 203
          206 176 174 204 207 177
          175 205 208 178 175 205
          208 178 176 206 209 179
          180 210 213 183 181 211
          214 184 181 211 214 184
          182 212 215 185 183 213
          216 186 184 214 217 187
          184 214 217 187 185 215
          218 188 186 216 219 189
          187 217 220 190 187 217
          220 190 188 218 221 191
          189 219 222 192 190 220
          223 193 190 220 223 193
          191 221 224 194 192 222
          225 195 193 223 226 196
          193 223 226 196 194 224
          227 197 195 225 228 198
          196 226 229 199 196 226
          229 199 197 227 230 200
          198 228 231 201 199 229
          232 202 199 229 232 202
          200 230 233 203 201 231
          234 204 202 232 235 205
          202 232 235 205 203 233
          236 206 204 234 237 207
          205 235 238 208 205 235
          238 208 206 236 239 209
          210 240 243 213 211 241
          244 214 211 241 244 214
          212 242 245 215 213 243
          246 216 214 244 247 217
          214 244 247 217 215 245
          248 218 216 246 249 219
          217 247 250 220 217 247
          250 220 218 248 251 221
          219 249 252 222 220 250
          253 223 220 250 253 223
          221 251 254 224 222 252
          255 225 223 253 256 226
          223 253 256 226 224 254
          257 227 225 255 258 228
          226 256 259 229 226 256
          259 229 227 257 260 230
          228 258 261 231 229 259
          262 232 229 259 262 232
          230 260 263 233 231 261
          264 234 232 262 265 235
          232 262 265 235 233 263
          266 236 234 264 267 237
          235 265 268 238 235 265
          268 238 236 266 269 239
          246 270 273 249 247 271
          274 250 247 271 274 250
          248 272 275 251 249 273
          276 252 250 274 277 253
          250 274 277 253 251 275
          278 254 252 276 279 255
          253 277 280 256 253 277
          280 256 254 278 281 257
          255 279 282 258 256 280
          283 259 256 280 283 259
          257 281 284 260 258 282
          285 261 259 283 286 262
          259 283 286 262 260 284
          287 263 261 285 288 264
          262 286 289 265 262 286
          289 265 263 287 290 266
          264 288 291 267 265 289
          292 268 265 289 292 268
          266 290 293 269 294 295
          296 297 298 299 300 301
          298 299 300 301 302 303
          304 305 306 294 297 307
          308 298 301 309 308 298
          301 309 310 302 305 311
          312 306 313 314 315 308
          316 317 315 308 316 317
          318 310 319 320 321 322
          323 324 325 326 327 328
          325 326 327 328 329 330
          331 332 333 334 335 336
          337 338 339 340 337 338
          339 340 341 342 343 344
          345 346 347 348 349 350
          351 352 349 350 351 352
          353 354 355 356 357 358
          359 360 361 362 363 364
          361 362 363 364 365 366
          367 368 267 369 370 237
          268 371 372 238 268 371
          372 238 269 373 374 239
          375 347 376 322 377 351
          378 326 377 351 378 326
          379 355 380 330 381 382
          383 384 385 386 387 388
          385 386 387 388 389 390
          391 392 393 394 395 396
          397 398 399 400 397 398
          399 400 401 402 403 404
          323 322 405 406 327 326
          407 408 327 326 407 408
          331 330 409 410 411 412
          413 414 415 416 417 418
          415 416 417 418 419 420
          421 422 423 424 425 426
          427 428 429 430 427 428
          429 430 431 432 433 434
          435 436 437 438 439 440
          441 442 439 440 441 442
          443 444 445 446 447 358
          357 448 449 362 361 450
          449 362 361 450 451 366
          365 452 54 87 453 394
          56 88 454 398 56 88
          454 398 58 89 455 402
          456 457 295 294 458 459
          299 298 458 459 299 298
          460 461 303 302 457 462
          463 464 459 465 466 467
          459 465 466 467 461 468
          469 470 456 294 312 381
          458 298 315 385 458 298
          315 385 460 302 318 389
          471 472 473 474 475 476
          477 478 475 476 477 478
          479 480 481 482 483 395
          484 485 486 399 487 488
          486 399 487 488 489 403
          490 491 370 492 359 493
          372 494 363 495 372 494
          363 495 374 496 367 497
          237 370 493 207 238 372
          495 208 238 372 495 208
          239 374 497 209 336 335
          498 499 340 339 500 501
          340 339 500 501 344 343
          502 503 463 334 504 505
          466 338 506 507 466 338
          506 507 469 342 508 509
          510 511 512 513 514 515
          516 517 514 515 516 517
          518 519 520 521 522 523
          524 346 525 526 527 350
          525 526 527 350 528 529
          530 354 531 532 464 505
          533 534 467 507 533 534
          467 507 535 536 470 509
          537 147 177 538 539 148
          178 540 539 148 178 540
          541 149 179 542 523 543
          544 471 526 545 546 475
          526 545 546 475 529 547
          548 479 549 360 550 505
          551 364 552 507 551 364
          552 507 553 368 554 509
          555 313 556 557 558 316
          559 560 558 316 559 560
          561 319 562 563 564 565
          566 492 567 568 569 494
          567 568 569 494 570 571
          572 496 573 574 575 485
          576 577 578 488 576 577
          578 488 579 580 581 491
          582 574 511 510 583 577
          515 514 583 577 515 514
          584 580 519 518 87 117
          348 453 88 118 352 454
          88 118 352 454 89 119
          356 455 504 334 544 543
          506 338 546 545 506 338
          546 545 508 342 548 547
          585 586 587 588 589 590
          591 592 589 590 591 592
          593 594 595 596 574 597
          598 511 577 599 600 515
          577 599 600 515 580 601
          602 519 375 322 321 453
          377 326 325 454 377 326
          325 454 379 330 329 455
          557 556 603 604 560 559
          605 606 560 559 605 606
          563 562 607 608 425 609
          512 610 429 611 516 612
          429 611 516 612 433 613
          520 614 207 493 538 177
          208 495 540 178 208 495
          540 178 209 497 542 179
          615 473 616 426 617 477
          618 430 617 477 618 430
          619 481 620 434 297 414
          621 307 301 418 622 309
          301 418 622 309 305 422
          623 311 492 369 624 564
          494 371 625 567 494 371
          625 567 496 373 626 570
          627 333 336 628 629 337
          340 630 629 337 340 630
          631 341 344 632 360 633
          566 550 364 634 569 552
          364 634 569 552 368 635
          572 554 457 456 636 462
          459 458 637 465 459 458
          637 465 461 460 638 468
          357 360 549 543 361 364
          551 545 361 364 551 545
          365 368 553 547 295 464
          532 296 299 467 534 300
          299 467 534 300 303 470
          536 304 639 314 313 555
          640 317 316 558 640 317
          316 558 641 320 319 561
          471 474 524 523 475 478
          527 526 475 478 527 526
          479 482 530 529 426 610
          406 615 430 612 408 617
          430 612 408 617 434 614
          410 619 504 543 549 505
          506 545 551 507 506 545
          551 507 508 547 553 509
          566 565 642 550 569 568
          643 552 569 568 643 552
          572 571 644 554 610 512
          511 598 612 516 515 600
          612 516 515 600 614 520
          519 602 621 414 645 587
          622 418 646 591 622 418
          646 591 623 422 647 595
          405 474 615 406 407 478
          617 408 407 478 617 408
          409 482 619 410 381 384
          636 456 385 388 637 458
          385 388 637 458 389 392
          638 460 648 499 498 636
          649 501 500 637 649 501
          500 637 650 503 502 638
          616 651 423 426 618 652
          427 430 618 652 427 430
          620 653 431 434 324 597
          573 484 328 599 576 487
          328 599 576 487 332 601
          579 490 642 412 411 531
          643 416 415 533 643 416
          415 533 644 420 419 535
          538 358 447 537 540 362
          449 539 540 362 449 539
          542 366 451 541 524 376
          347 346 527 378 351 350
          527 378 351 350 530 380
          355 354 627 651 616 473
          629 652 618 477 629 652
          618 477 631 653 620 481
          405 322 376 474 407 326
          378 478 407 326 378 478
          409 330 380 482 306 307
          556 313 308 309 559 316
          308 309 559 316 310 311
          562 319 345 117 147 537
          349 118 148 539 349 118
          148 539 353 119 149 541
          414 297 296 411 418 301
          300 415 418 301 300 415
          422 305 304 419 621 586
          603 307 622 590 605 309
          622 590 605 309 623 594
          607 311 544 334 333 472
          546 338 337 476 546 338
          337 476 548 342 341 480
          348 347 375 453 352 351
          377 454 352 351 377 454
          356 355 379 455 531 505
          550 642 533 507 552 643
          533 507 552 643 535 509
          554 644 321 324 484 395
          325 328 487 399 325 328
          487 399 329 332 490 403
          598 597 323 406 600 599
          327 408 600 599 327 408
          602 601 331 410 447 448
          522 537 449 450 525 539
          449 450 525 539 451 452
          528 541 513 512 609 654
          517 516 611 655 517 516
          611 655 521 520 613 656
          604 603 586 585 606 605
          590 589 606 605 590 589
          608 607 594 593 463 462
          335 334 466 465 339 338
          466 465 339 338 469 468
          343 342 438 437 314 639
          442 441 317 640 442 441
          317 640 446 445 320 641
          436 383 382 437 440 387
          386 441 440 387 386 441
          444 391 390 445 393 657
          55 54 397 658 57 56
          397 658 57 56 401 659
          59 58 312 314 437 382
          315 317 441 386 315 317
          441 386 318 320 445 390
          346 345 537 522 350 349
          539 525 350 349 539 525
          354 353 541 528 498 335
          462 636 500 339 465 637
          500 339 465 637 502 343
          468 638 369 267 291 624
          371 268 292 625 371 268
          292 625 373 269 293 626
          358 538 493 359 362 540
          495 363 362 540 495 363
          366 542 497 367 394 453
          321 395 398 454 325 399
          398 454 325 399 402 455
          329 403 587 645 660 588
          591 646 661 592 591 646
          661 592 595 647 662 596
          448 543 523 522 450 545
          526 525 450 545 526 525
          452 547 529 528 472 333
          627 473 476 337 629 477
          476 337 629 477 480 341
          631 481 436 435 663 383
          440 439 664 387 440 439
          664 387 444 443 665 391
          411 296 532 531 415 300
          534 533 415 300 534 533
          419 304 536 535 609 425
          424 654 611 429 428 655
          611 429 428 655 613 433
          432 656 492 566 633 359
          494 569 634 363 494 569
          634 363 496 572 635 367
          393 394 54 397 398 56
          397 398 56 401 402 58
          413 414 645 417 418 646
          417 418 646 421 422 647
          628 627 651 630 629 652
          630 629 652 632 631 653
          117 348 345 118 352 349
          118 352 349 119 356 353
          565 642 412 568 643 416
          568 643 416 571 644 420
          457 295 464 459 299 467
          459 299 467 461 303 470
          463 464 505 466 467 507
          466 467 507 469 470 509
          499 336 628 501 340 630
          501 340 630 503 344 632
          384 636 648 388 637 649
          388 637 649 392 638 650
          492 369 370 494 371 372
          494 371 372 496 373 374
          473 474 615 477 478 617
          477 478 617 481 482 619
          381 382 312 385 386 315
          385 386 315 389 390 318
          471 472 544 475 476 546
          475 476 546 479 480 548
          582 574 575 583 577 578
          583 577 578 584 580 581
          312 306 294 315 308 298
          315 308 298 318 310 302
          524 376 474 527 378 478
          527 378 478 530 380 482
          396 393 657 400 397 658
          400 397 658 404 401 659
          483 395 396 486 399 400
          486 399 400 489 403 404
          357 448 543 361 450 545
          361 450 545 365 452 547
          485 573 484 488 576 487
          488 576 487 491 579 490
          621 586 587 622 590 591
          622 590 591 623 594 595
          324 597 323 328 599 327
          328 599 327 332 601 331
          603 307 556 605 309 559
          605 309 559 607 311 562
          610 425 426 612 429 430
          612 429 430 614 433 434
          360 633 359 364 634 363
          364 634 363 368 635 367
          598 610 406 600 612 408
          600 612 408 602 614 410
          574 597 573 577 599 576
          577 599 576 580 601 579
          672 276 273 666 673 277
          274 667 673 277 274 667
          674 278 275 668 675 672
          666 669 676 673 667 670
          676 673 667 670 677 674
          668 671 720 675 669 721
          722 676 670 723 722 676
          670 723 724 677 671 725
          678 279 276 672 679 280
          277 673 679 280 277 673
          680 281 278 674 726 678
          672 675 727 679 673 676
          727 679 673 676 728 680
          674 677 729 726 675 720
          730 727 676 722 730 727
          676 722 731 728 677 724
          681 282 279 678 682 283
          280 679 682 283 280 679
          683 284 281 680 732 681
          678 726 733 682 679 727
          733 682 679 727 734 683
          680 728 684 285 282 681
          685 286 283 682 685 286
          283 682 686 287 284 683
          735 684 681 732 736 685
          682 733 736 685 682 733
          737 686 683 734 687 288
          285 684 688 289 286 685
          688 289 286 685 689 290
          287 686 738 687 684 735
          739 688 685 736 739 688
          685 736 740 689 686 737
          690 291 288 687 691 292
          289 688 691 292 289 688
          692 293 290 689 741 690
          687 738 742 691 688 739
          742 691 688 739 743 692
          689 740 693 694 564 624
          695 696 567 625 695 696
          567 625 697 698 570 626
          699 700 701 702 703 704
          705 706 703 704 705 706
          707 708 709 710 702 701
          412 565 706 705 416 568
          706 705 416 568 710 709
          420 571 413 701 711 645
          417 705 712 646 417 705
          712 646 421 709 713 647
          690 741 744 714 691 742
          745 715 691 742 745 715
          692 743 746 716 714 699
          702 694 715 703 706 696
          715 703 706 696 716 707
          710 698 694 702 565 564
          696 706 568 567 696 706
          568 567 698 710 571 570
          747 717 748 749 750 718
          751 752 750 718 751 752
          753 719 754 755 699 744
          748 700 703 745 751 704
          703 745 751 704 707 746
          754 708 711 701 700 717
          712 705 704 718 712 705
          704 718 713 709 708 719
          714 694 693 690 715 696
          695 691 715 696 695 691
          716 698 697 692 291 690
          693 624 292 691 695 625
          292 691 695 625 293 692
          697 626 711 717 660 645
          712 718 661 646 712 718
          661 646 713 719 662 647
          714 699 744 715 703 745
          715 703 745 716 707 746
          748 700 717 751 704 718
          751 704 718 754 708 719
          413 701 412 417 705 416
          417 705 416 421 709 420
        </DataArray>
        <DataArray type="Int64" Name="offsets" format="ascii" RangeMin="8" RangeMax="3624">
          8 16 24 32 40 48
          56 64 72 80 88 96
          104 112 120 128 136 144
          152 160 168 176 184 192
          200 208 216 224 232 240
          248 256 264 272 280 288
          296 304 312 320 328 336
          344 352 360 368 376 384
          392 400 408 416 424 432
          440 448 456 464 472 480
          488 496 504 512 520 528
          536 544 552 560 568 576
          584 592 600 608 616 624
          632 640 648 656 664 672
          680 688 696 704 712 720
          728 736 744 752 760 768
          776 784 792 800 808 816
          824 832 840 848 856 864
          872 880 888 896 904 912
          920 928 936 944 952 960
          968 976 984 992 1000 1008
          1016 1024 1032 1040 1048 1056
          1064 1072 1080 1088 1096 1104
          1112 1120 1128 1136 1144 1152
          1160 1168 1176 1184 1192 1200
          1208 1216 1224 1232 1240 1248
          1256 1264 1272 1280 1288 1296
          1304 1312 1320 1328 1336 1344
          1352 1360 1368 1376 1384 1392
          1400 1408 1416 1424 1432 1440
          1448 1456 1464 1472 1480 1488
          1496 1504 1512 1520 1528 1536
          1544 1552 1560 1568 1576 1584
          1592 1600 1608 1616 1624 1632
          1640 1648 1656 1664 1672 1680
          1688 1696 1704 1712 1720 1728
          1736 1744 1752 1760 1768 1776
          1784 1792 1800 1808 1816 1824
          1832 1840 1848 1856 1864 1872
          1880 1888 1896 1904 1912 1920
          1928 1936 1944 1952 1960 1968
          1976 1984 1992 2000 2008 2016
          2024 2032 2040 2048 2056 2064
          2072 2080 2088 2096 2104 2112
          2120 2128 2136 2144 2152 2160
          2168 2176 2184 2192 2200 2208
          2216 2224 2232 2240 2248 2256
          2264 2272 2280 2288 2296 2304
          2312 2320 2328 2336 2344 2352
          2360 2368 2376 2384 2392 2400
          2408 2416 2424 2432 2440 2448
          2456 2464 2472 2480 2488 2496
          2504 2512 2520 2528 2536 2544
          2552 2560 2568 2576 2584 2592
          2600 2608 2616 2624 2632 2640
          2648 2656 2664 2672 2680 2688
          2696 2704 2712 2720 2728 2736
          2744 2752 2760 2768 2776 2784
          2792 2800 2808 2816 2824 2832
          2838 2844 2850 2856 2862 2868
          2874 2880 2886 2892 2898 2904
          2910 2916 2922 2928 2934 2940
          2946 2952 2958 2964 2970 2976
          2982 2988 2994 3000 3006 3012
          3018 3024 3030 3036 3042 3048
          3054 3060 3066 3072 3078 3084
          3090 3096 3102 3108 3114 3120
          3126 3132 3138 3144 3150 3156
          3164 3172 3180 3188 3196 3204
          3212 3220 3228 3236 3244 3252
          3260 3268 3276 3284 3292 3300
          3308 3316 3324 3332 3340 3348
          3356 3364 3372 3380 3388 3396
          3404 3412 3420 3428 3436 3444
          3452 3460 3468 3476 3484 3492
          3500 3508 3516 3524 3532 3540
          3548 3556 3564 3572 3580 3588
          3594 3600 3606 3612 3618 3624
        </DataArray>
        <DataArray type="UInt8" Name="types" format="ascii" RangeMin="12" RangeMax="13">
          12 12 12 12 12 12
          12 12 12 12 12 12
          12 12 12 12 12 12
          12 12 12 12 12 12
          12 12 12 12 12 12
          12 12 12 12 12 12
          12 12 12 12 12 12
          12 12 12 12 12 12
          12 12 12 12 12 12
          12 12 12 12 12 12
          12 12 12 12 12 12
          12 12 12 12 12 12
          12 12 12 12 12 12
          12 12 12 12 12 12
          12 12 12 12 12 12
          12 12 12 12 12 12
          12 12 12 12 12 12
          12 12 12 12 12 12
          12 12 12 12 12 12
          12 12 12 12 12 12
          12 12 12 12 12 12
          12 12 12 12 12 12
          12 12 12 12 12 12
          12 12 12 12 12 12
          12 12 12 12 12 12
          12 12 12 12 12 12
          12 12 12 12 12 12
          12 12 12 12 12 12
          12 12 12 12 12 12
          12 12 12 12 12 12
          12 12 12 12 12 12
          12 12 12 12 12 12
          12 12 12 12 12 12
          12 12 12 12 12 12
          12 12 12 12 12 12
          12 12 12 12 12 12
          12 12 12 12 12 12
          12 12 12 12 12 12
          12 12 12 12 12 12
          12 12 12 12 12 12
          12 12 12 12 12 12
          12 12 12 12 12 12
          12 12 12 12 12 12
          12 12 12 12 12 12
          12 12 12 12 12 12
          12 12 12 12 12 12
          12 12 12 12 12 12
          12 12 12 12 12 12
          12 12 12 12 12 12
          12 12 12 12 12 12
          12 12 12 12 12 12
          12 12 12 12 12 12
          12 12 12 12 12 12
          12 12 12 12 12 12
          12 12 12 12 12 12
          12 12 12 12 12 12
          12 12 12 12 12 12
          12 12 12 12 12 12
          12 12 12 12 12 12
          13 13 13 13 13 13
          13 13 13 13 13 13
          13 13 13 13 13 13
          13 13 13 13 13 13
          13 13 13 13 13 13
          13 13 13 13 13 13
          13 13 13 13 13 13
          13 13 13 13 13 13
          13 13 13 13 13 13
          12 12 12 12 12 12
          12 12 12 12 12 12
          12 12 12 12 12 12
          12 12 12 12 12 12
          12 12 12 12 12 12
          12 12 12 12 12 12
          12 12 12 12 12 12
          12 12 12 12 12 12
          12 12 12 12 12 12
          13 13 13 13 13 13
        </DataArray>
      </Cells>
    </Piece>
  </UnstructuredGrid>
</VTKFile>
