<?xml version="1.0"?>
<VTKFile type="UnstructuredGrid" version="0.1" byte_order="LittleEndian" header_type="UInt32" compressor="vtkZLibDataCompressor">
  <UnstructuredGrid>
    <Piece NumberOfPoints="819" NumberOfCells="454">
      <PointData>
        <DataArray type="Int32" Name="libmesh_node_id" format="ascii" RangeMin="2316" RangeMax="5735">
          2316 2317 2318 2319 2320 2321
          2322 2323 2324 2325 2326 2327
          2433 2434 2435 2436 2437 2438
          2439 2440 2441 2442 2443 2444
          2598 2599 2600 2601 2602 2603
          2643 2644 2645 2646 2647 2648
          2649 2650 2651 2709 2710 2711
          2712 2713 2714 2715 2716 2717
          2718 2719 2720 2766 2767 2768
          2769 2770 2771 2772 2773 2774
          2775 2776 2777 2808 2809 2810
          2811 2812 2813 2814 2815 2816
          2817 2818 2819 2852 2853 2856
          2857 2860 2861 2970 2971 2973
          2974 2976 2977 2991 2994 2995
          2998 2999 3002 3081 3082 3083
          3084 3085 3086 3087 3088 3089
          3090 3091 3092 3187 3190 3193
          3241 3243 3245 3270 3271 3272
          3312 3313 3314 3315 3316 3317
          3495 3496 3497 3498 3499 3500
          3501 3502 3503 3504 3505 3506
          3765 3766 3767 3768 3769 3770
          3852 3853 3854 4470 4471 4472
          4584 4585 4586 4587 4588 4589
          4635 4636 4637 4638 4639 4640
          4641 4642 4643 4644 4645 4646
          4659 4660 4661 4662 4663 4664
          4722 4723 4724 4782 4783 4784
          4791 4792 4793 4794 4795 4796
          4797 4798 4799 4812 4813 4814
          4815 4816 4817 4818 4819 4820
          4833 4834 4835 4836 4837 4838
          4848 4849 4850 4851 4852 4853
          4896 4897 4898 4899 4900 4901
          4911 4912 4913 4935 4936 4937
          4938 4939 4940 4944 4945 4946
          4947 4948 4949 4950 4951 4952
          4953 4954 4955 4956 4957 4958
          4992 4993 4994 5007 5008 5009
          5010 5011 5012 5013 5014 5015
          5016 5017 5018 5019 5020 5021
          5025 5026 5027 5028 5029 5030
          5040 5041 5042 5043 5044 5045
          5055 5056 5057 5073 5074 5075
          5079 5080 5081 5088 5089 5090
          5094 5095 5096 5103 5104 5105
          5151 5152 5153 5160 5161 5162
          5169 5170 5171 5178 5179 5180
          5187 5188 5189 5202 5203 5204
          5205 5206 5207 5208 5209 5210
          5211 5212 5213 5214 5215 5216
          5217 5218 5219 5220 5221 5222
          5223 5224 5225 5226 5227 5228
          5229 5230 5231 5232 5233 5234
          5235 5236 5237 5238 5239 5240
          5241 5242 5243 5244 5245 5246
          5247 5248 5249 5253 5254 5255
          5256 5257 5258 5259 5260 5261
          5262 5263 5264 5265 5266 5267
          5268 5269 5270 5271 5272 5273
          5274 5275 5276 5280 5281 5282
          5283 5284 5285 5286 5287 5288
          5289 5290 5291 5292 5293 5294
          5295 5296 5297 5298 5299 5300
          5301 5302 5303 5307 5308 5309
          5310 5311 5312 5313 5314 5315
          5316 5317 5318 5319 5320 5321
          5322 5323 5324 5325 5326 5327
          5328 5329 5330 5334 5335 5336
          5337 5338 5339 5340 5341 5342
          5343 5344 5345 5346 5347 5348
          5349 5350 5351 5352 5353 5354
          5355 5356 5357 5358 5359 5360
          5361 5362 5363 5364 5365 5366
          5367 5368 5369 5370 5371 5372
          5373 5374 5375 5376 5377 5378
          5379 5380 5381 5382 5383 5384
          5385 5386 5387 5388 5389 5390
          5391 5392 5393 5394 5395 5396
          5397 5398 5399 5400 5401 5402
          5403 5404 5405 5406 5407 5408
          5409 5410 5411 5412 5413 5414
          5415 5416 5417 5418 5419 5420
          5421 5422 5423 5424 5425 5426
          5427 5428 5429 5430 5431 5432
          5433 5434 5435 5436 5437 5438
          5439 5440 5441 5442 5443 5444
          5445 5446 5447 5448 5449 5450
          5451 5452 5453 5454 5455 5456
          5457 5458 5459 5460 5461 5462
          5463 5464 5465 5466 5467 5468
          5469 5470 5471 5472 5473 5474
          5475 5476 5477 5478 5479 5480
          5481 5482 5483 5484 5485 5486
          5487 5488 5489 5490 5491 5492
          5493 5494 5495 5496 5497 5498
          5499 5500 5501 5502 5503 5504
          5505 5506 5507 5508 5509 5510
          5511 5512 5513 5514 5515 5516
          5517 5518 5519 5520 5521 5522
          5523 5524 5525 5526 5527 5528
          5529 5530 5531 5532 5533 5534
          5535 5536 5537 5538 5539 5540
          5541 5542 5543 5544 5545 5546
          5547 5548 5549 5550 5551 5552
          5553 5554 5555 5556 5557 5558
          5559 5560 5561 5562 5563 5564
          5565 5566 5567 5568 5569 5570
          5571 5572 5573 5574 5575 5576
          5577 5578 5579 5580 5581 5582
          5583 5584 5585 5586 5587 5588
          5589 5590 5591 5592 5593 5594
          5595 5596 5597 5598 5599 5600
          5601 5602 5603 5604 5605 5606
          5607 5608 5609 5610 5611 5612
          5613 5614 5615 5616 5617 5618
          5619 5620 5621 5622 5623 5624
          5625 5626 5627 5628 5629 5630
          5631 5632 5633 5634 5635 5636
          5637 5638 5639 5640 5641 5642
          5643 5644 5645 5646 5647 5648
          5649 5650 5651 5652 5653 5654
          5655 5656 5657 5658 5659 5660
          5661 5662 5663 5664 5665 5666
          5667 5668 5669 5670 5671 5672
          5673 5674 5675 5676 5677 5678
          5679 5680 5681 5682 5683 5684
          5685 5686 5687 5688 5689 5690
          5691 5692 5693 5694 5695 5696
          5697 5698 5699 5700 5701 5702
          5703 5704 5705 5706 5707 5708
          5709 5710 5711 5712 5713 5714
          5715 5716 5717 5718 5719 5720
          5721 5722 5723 5724 5725 5726
          5727 5728 5729 5730 5731 5732
          5733 5734 5735
        </DataArray>
        <DataArray type="Float64" Name="resid_x" format="ascii" RangeMin="-2.118025496458852" RangeMax="68.49180154660857">
          0.0005121531412655145 -0.003696650841938265 0.002093035086210726 0.004445187303462106 0.00013961124289885163 -0.007535074216042048
          -0.00007892516599650179 0.004698869025787644 -0.029358881284508698 -0.04674003986070652 -0.026884444219624548 -0.030181539162486004
          0.00028424304325902483 0.0008804944704223772 0.002409207231293564 0.004703075124107503 -0.0020007058213717954 0.00010507022688344136
          -0.0030299064572343326 0.0004281297998094402 -0.019792953251384304 -0.021523082297080443 -0.03726311344065181 -0.0355950084831953
          -0.02822478722143451 -0.014572006359274692 0.0013025387872680483 0.009309675102378345 -0.028780682382040013 -0.027274301754084518
          -0.006701577824355098 -0.006747226556583996 -0.02868605371059374 -0.004868428694290827 -0.008214728345812716 -0.0031186040237898283
          -0.026849584132575544 -0.026200026391245856 -0.03023965351881941 -0.0031311022739361483 0.0018959337946578003 0.002430565692970621
          0.0033135406454540828 -0.007218833351196552 0.001094514505656008 -0.0006406244606500522 0.0011124793315868686 -0.018796731256203847
          -0.008138656448242187 -0.012226976622073948 -0.020931987005360142 -0.0012338826372557676 0.00004585604669493648 -0.005189556917001958
          -0.016116478712883797 -0.0011830846093241476 -0.006023931730135601 -0.00819617086684854 -0.012344841588445732 -0.006294717704537156
          -0.013395720112778342 -0.015177201800411488 -0.02095423278869557 -0.014811666361975284 -0.005460515375830255 -0.018045115113206833
          -0.005453978830370687 -0.00009108114223188579 -0.00279656248942306 -0.021230787109872473 -0.014397902303260324 -0.02517083223253813
          -0.02553486823320661 0.0022666074835839822 -0.0178790417524457 -0.036469476488647956 -0.024240682343283027 -0.03589565571481046
          -0.021772650737197807 -0.021067275613440017 -0.01149996382266849 -0.022829880731551455 -0.018756761636193886 0.003973386566300974
          -0.02884483273578553 -0.004223924139420632 -0.006484828751457172 0.004607004578963014 -0.004907106583621257 -0.0016602618512848721
          -0.007759705715866261 0.0017481449434626484 -0.0025866262527109996 -0.003482955921963793 0.001177305372469739 0.002937013971338054
          -0.0001535264409351922 0.0008342350022800815 0.0028184301446472215 0.004292814107654586 0.0040092239063138635 -0.006650905827095599
          -0.005435485486059322 -0.013118961037955401 -0.01676294656180699 -0.027881662241211025 -0.03287416521860642 -0.015687688331677663
          -0.006986851765322655 -0.01697395718803385 -0.011159515384800756 -0.03089774262708378 -0.04404781178698336 -0.012359179429990874
          -0.014736063918920905 -0.004268406430663951 0.00010934643619431306 -0.0015914857958900797 -0.022581965835405393 -0.0156260283616092
          -0.00207481110374097 0.003633754785053789 -0.000387345024870811 -0.009492591708532672 -0.009678957797422783 0.008295261209005034
          -0.0013421156365120979 -0.027869943889481164 -0.013330675191566499 -0.00526894321875826 -0.008129994444927569 -0.022100871972163816
          -0.01836473911499148 -0.021323578132192322 -0.004949943701493709 -0.007816952922682585 -0.021364998647543487 -0.023722542587168882
          0.001090191684451014 0.0015613059457724177 -0.0022240101364356946 -0.005812823595667815 -0.003572555478386974 -0.01034154021228062
          -0.005026240174153429 -0.004503964183714793 -0.006695322907503964 -0.009218571200488412 -0.0009611925559411816 -0.0021395216350050816
          -0.015878373663619882 -0.009155134154227085 -0.0023883652860647864 -0.0016897254145904483 -0.011781742529821004 -0.017451305869649048
          -0.010533469288118713 -0.011455382489168997 -0.0029138095812966114 -0.004657075034137925 -0.013037062208642425 -0.010544663588092362
          0.001547701311318761 0.0037731800518443492 -0.004416294762879858 -0.021412137052208458 -0.009228641057648979 -0.009298929580312532
          -0.0040462246950238034 0.0045779488491382025 0.0009722051171381363 -0.022611368769351436 -0.001852174974604548 -0.010574613924846599
          -0.005169945721719138 -0.0006305960630363927 -0.0025689393721819442 0.015899088151662077 -0.04326181959519282 0.025682415667771963
          -0.08476321425385436 0.0023325902934523413 0.006474139456223327 -0.01984712396323296 0.0012813652219350047 -0.016157682194876344
          -0.018125173923523974 -0.007913782155294147 -0.0001688835851894055 -0.00028191583145043 -0.01098254712072766 -0.010404596898443863
          -0.010690062870008177 -0.0037721074986514225 -0.0013816652661571283 0.0003733034796544743 -0.013974572192774204 -0.009660060839861373
          -0.019631439590687805 -0.01152725265480381 0.00037479021789188494 -0.003075713220511034 -0.02102649928027489 -0.0188909187415911
          -0.006895619159402955 0.0007106473453593054 -0.002522420019557714 -0.024510969340870048 -0.026440592320668088 0.04709801201480879
          -0.017554275328237168 -0.018324410654095402 -0.010811500653261419 0.00007190221567299204 0.005404212330719638 0.011633676224009015
          0.0047743522302425845 0.0012098343754853857 0.0012808688841241533 -0.00411791254693572 0.003362797003021889 -0.01685211537106479
          -0.0012876569328854615 0.015705180477052494 -0.0005891880467077115 0.0011643442887150357 -0.008920289834160933 -0.0024480826809023526
          0.0081097202999878 -0.0075092126700830875 0.00007967545924980612 -0.01150718112250626 -0.008402634960361866 -0.013902305425387063
          0.009071103524376234 0.022002247301425193 0.006937769493335466 -0.023993476560136173 -0.01585982347127679 -0.00023240874682528556
          -0.0027722460179901987 -0.009657243457345643 -0.014143796983788981 -0.013937430470484458 -0.009502606457029827 0.0013319701910852189
          -0.005151948233669046 -0.01545710229805941 -0.012461300648617168 0.008650025056800459 0.02457247036693655 0.010922965026977316
          -0.006086923234590813 0.008838708992643163 0.047818455247265135 -0.0190122540258022 -0.006691463896778771 -0.010445657233132621
          0.010946315734062573 0.01144933378820312 0.027055112030814676 0.02584216940033013 0.003906242419750683 0.00976857753160143
          0.00895190153168901 0.025047001395125612 0.009151367450600745 0.006459939809481341 0.02808318808822463 0.006810805152118071
          -0.025786834043145745 -0.0045946997103829545 -0.013423567694971439 0.0019306984425710993 0.026187566085513758 0.00933731442128316
          0.0062473416242800894 0.03021425449218995 0.007523664463673363 0.013731322801199042 0.05506300400682029 0.008754317717738047
          0.04186203372405828 0.11203214369179548 0.07664205008906144 -0.02973726849825198 -0.015602631885812457 0.004813355242120565
          -0.0334948720145789 -0.023402810013756437 -0.01789154895441669 -0.05768128730960953 -0.06487736871923033 -0.03820060040730766
          0.01389724258313585 0.06894644405375061 0.03278292660305837 -0.0017912450244566003 -0.0007624484435382328 -0.002142550062124826
          -0.004356331010050951 0.0010741144146031445 0.0005153368080570431 0.00013721894286078395 -0.00022533882173902953 0.0002784999106406616
          -0.0006758729113904849 0.0037146543929171827 0.0021663547454497944 0.0027979756539320277 0.0005829274996091982 -0.00034835408525957234
          0.00030810873549036444 0.003700974863905415 0.0019223326273660746 0.0026213086009931885 0.001282031929648042 0.00042631710094376274
          0.0005348457457969857 0.0024116262316056236 0.0017314960221028741 0.0020974517746541466 0.001357133032442448 0.0003379217310879312
          0.0001916971174686921 0.0023172282974535108 0.0018789148693656443 0.0016061664987159219 0.0018407385335130755 0.00042135922157804373
          0.0002572558040263573 0.00015570635001083133 0.001317838318623643 -0.0003500491719137244 0.0011207819409335684 0.0005119759762735043
          0.000582146800770289 -0.0005218082349323083 -0.00014941459572170857 -0.0007603003591292179 -0.000308519553847475 0.0003788789066767606
          0.0006110684778732889 0.000004532167487525385 0.0006256649260549807 0.00052079550440709 -0.0025627738506344144 0.0005410963370309219
          0.0007772224120170534 0.0003247454258801241 0.003808598749603931 0.0040966285864687535 -0.0014713001899568923 0.004204147579086381
          0.002712049984937792 0.0008169215901254745 0.001481626908372391 0.0008312087181217009 0.000020396748162454514 0.0013720143381661387
          -0.0002321412050214633 0.000060669839694327266 -0.000989402559756769 -0.0017548274031078392 0.000726029701098696 -0.0012961489985663377
          -0.0033044842851737144 0.0005511550336336768 0.0010713168538885043 -0.0007893783555701361 -0.0015957368212795586 0.0005855650650588018
          0.0010895959743209005 0.000704804670277781 0.0035789574053559647 0.0025432788781554194 0.00047003911307186286 0.0028014611394375777
          0.0032319999699428337 0.0006828613561609131 0.003331553671177545 0.00014480769412372752 0.0006604927164346464 0.0017106628570822124
          -0.00005465951237937361 0.0007191329313549488 0.0016934275227917794 -0.0010332832191561891 0.0008743502991954699 0.002206163655067428
          -0.0001858236944336511 0.0007014723331053574 0.0015925679901904743 0.0010193542895819974 0.0005516664699314333 0.0025444691833627076
          0.0011419279292397277 0.0008017982600367901 0.003417961905265443 0.002754652331910634 0.0012398257460741746 0.002838313911304624
          0.0037461034374945967 0.0010875802680700986 0.00484559910517568 0.001243556813964375 0.001038983677883465 0.0034653151514625335
          0.002436732999296254 0.0009746061233126824 0.004216092480291422 0.0019113153844312336 0.0010509400112379552 0.002620594679477506
          0.0013969513228069275 0.0006811377014663833 0.00109787661195071 -0.012342226636679499 -0.02878059286848611 -0.005516856728071673
          0.0006020296463642438 0.0002443006345362875 0.0033576342818513183 0.002432227822446009 0.00181054925304025 0.002607699761295379
          0.0032400138472077344 0.0015454137490742426 0.003705593595704215 0.0013538847683829403 0.0013968980132297304 0.0026388537701755865
          0.0019428403254764248 0.0011520083706741957 0.002889032397796143 0.0012129021604838641 0.0010448726807226194 0.0013446880791505578
          0.00031823467944036565 0.0006124711743566991 -0.0005377008321332255 -0.40960532948525774 -0.8256502177082652 -0.3916342305469662
          -0.2527958212814241 -0.5089839884463956 -0.23766283925812637 0.0008593860421459709 0.0008565774970854534 0.008030396287088237
          0.001799260560026994 0.001495637233782432 0.00230490660990057 0.0006504476036504059 0.0019382302755808212 0.0016992328724985128
          0.000057583107771819186 0.0016423198175186116 0.0017039655341530846 -0.0005016747421304757 0.0012210029195180994 0.002029822090333866
          -0.0003924531969854428 0.0008072842152397897 0.0012019965083407413 0.00005975661557044987 0.0005932465243887464 0.0005113583750997464
          0.44437588503242154 0.8755241591076128 0.42889615924657676 -0.6424629790003742 -1.2819475354943055 -0.5909467700991975
          -0.2590555993619734 -0.5182224630184411 -0.250507934334836 -0.00003189792896485244 0.0018870422818793031 0.005012240992693151
          -0.000951127972273369 0.0022388399711399387 0.0014050074515612465 -0.0002385692497348657 0.0020724973849226558 0.0026764479181693446
          -0.0006227227003812175 0.0014115675351700219 0.002727957530515468 0.00023683393684059695 0.0006859340900700062 0.0024519260682165367
          -0.00009378734972997904 0.00023418388249218935 0.002544149126448403 1.0107559501064038 2.0038079259180677 0.9725972485755179
          0.10861253636227453 0.2209392542693962 0.1578126385773988 -1.0622635666706781 -2.118025496458852 -1.0753284541493713
          -0.0015782511674391486 0.0015925579041553561 0.0103564053362728 -0.00023779215057295744 0.003101256415257936 0.004197964770533247
          0.0006268990475337688 0.0031276067160401766 0.00451666731207645 0.001368221617804366 0.002224522413417418 0.004485152517597513
          0.0014902375739858087 0.0006119249858613784 0.003280829729652268 -0.00010328270798076744 -0.0010082477516348831 0.0019442687012283244
          0.37136322797025656 0.7354398601952994 0.3483947950387911 0.30840012631277247 0.6173686345815597 0.3250509721779178
          -0.7275068143266612 -1.4460668537861014 -0.7229842340491413 -0.00811167287571024 -0.014159805792743896 0.0006027156571484227
          -0.009317121421933194 -0.018106089320522045 -0.006815390472535654 -0.007498990469024136 -0.01629797518251408 -0.0066297493421974
          -0.005169175902585366 -0.013014109701055432 -0.004640622176751208 -0.002699058409343813 -0.008427899171103093 -0.0031026977276971124
          -0.00193803389579994 -0.004813299659834236 -0.001904496950286827 0.00036414830968212186 -0.00007042186807737494 0.00010294897729679064
          0.0001883483087112836 0.0008260114034399635 0.0005643906836922952 -0.0003630069778637335 0.0006325981858523733 0.0012522510975259138
          0.0007023245322841376 0.0009024759276563543 0.0012520376579345793 0.0005722039695292835 0.0007497415428119325 0.0004967869640246647
          -0.00037042247538110473 0.0007003755889982699 -0.00016545166592152327 -0.00043051384920644864 0.000657977015009692 0.0007919915159710911
          0.0007232598538813306 0.00045466364401924864 0.0018949683453346466 0.000308594563563247 -0.0007895646602289474 0.00037848004247642564
          -0.001432223566772528 -0.0022956726193656962 -0.0015560815448809606 0.0007624337829277295 0.00015297726519847288 0.00019026105522712555
          0.0003840055858965741 -0.00017831946002999643 0.0008242991848987913 0.0003593279256577375 0.00047317675564428896 0.0013421586431014987
          0.0001999730261559307 0.0005333010255874626 0.00044085485723854845 -0.0007254037657489221 0.0005360324855985255 -0.0004020944782183733
          -0.001905015737010629 0.0005260902210224572 0.00023539627154001153 -0.0008976936442888217 0.00040470560388783383 0.0005816069846105165
          0.0009378924549654499 0.00012224087919321391 0.0006449400739754196 0.00020211462876673636 -0.0008922412296339388 -0.001026008295490044
          -0.0017056333777318855 -0.001714169416882072 -0.0017558683753780002 -0.0006005806301132566 -0.00003198221305567017 0.00015242851803165536
          0.0003612812289972567 -0.0017423693799223372 -0.0004908284984139755 0.0009254714622777271 0.0005407855448105181 0.0010739756273316914
          0.00016274786603531766 0.0004872245200893133 0.00027452253102921986 -0.0006334160784575715 0.0005129178419593927 -0.0001902572166443406
          -0.0008352980856898284 0.0005089433202698501 0.0008405807848976821 -0.00007046162829205116 0.0004069712000003278 0.00047943512673676025
          0.00041177527208624554 0.000028134600931650766 -0.0009030346840628312 -0.0005918968161306992 -0.0008617182672825408 -0.0021957423624385797
          -0.0016327701619722745 -0.0012701282709493 -0.0013501222058991402 -0.0011293230386151265 0.00017450983818534382 0.00014048404301192363
          0.0003219387233563964 -0.0022461514412484007 -0.0018006234212393224 0.0013470331019327375 0.0005600394511411366 0.0003506806334705459
          0.0003135299493663979 0.0004493919963337589 0.0001875871682948116 -0.0004791701404762705 0.0004871359210731896 0.00035390136765656166
          0.0004689416469734198 0.000496394185356408 0.001208686343268539 0.00043095941941651006 0.0003490522746769642 -0.00021246747641257002
          -0.0006207144231069606 -0.00006657855489144993 -0.0027552422874279614 -0.0016925998473542592 -0.0007845127084387116 -0.0035081328471484596
          -0.0013850647645821113 -0.0008669978270940959 -0.001286403896587629 -0.0015932824176196902 -0.0012740746685082627 0.00012115375542975926
          0.00026559825601424336 -0.001424509839598187 -0.0018036765321767234 0.0008358662995178179 0.0004883398605102229 -0.0004973796862799418
          0.00009261150388084616 0.000385414179476129 -0.00026706205056470367 0.00006121647737522551 0.00041668970093944324 0.0011715078997109885
          0.001083451814253067 0.0004321737974972706 0.0013603238865034228 0.00010146953908396483 0.0002676802912287002 -0.0011442276892132952
          -0.0022672946801467475 -0.00011382445525143225 -0.003973721550472931 -0.0031368675892355924 -0.0006118482659509539 -0.004180449746296944
          -0.0014576278497813178 -0.0005570893271720223 -0.001451157011903348 -0.0012566869742443032 -0.0014650551412564994 0.0000998971406609428
          0.00021131729620549322 -0.002033849103966645 -0.003117247427940839 -0.00013228693180877826 0.0003630333228734628 -0.0015595815394391366
          -0.00009553185987698498 0.00029341002016636253 -0.00046640760925953373 0.0007318009323569186 0.00036016352583523314 0.0011011714401423234
          0.0014182044985915354 0.0003490291096888143 0.0011804645400896874 -0.0007393765423788778 0.00020784846535448764 -0.0017232440919539016
          -0.003551389140364236 -0.00008469617354123216 -0.004313054977908237 -0.003957280398642737 -0.00043921490584075684 -0.004033811458191039
          -0.0018058081956109362 -0.0003439398959397266 -0.001444963039999081 -0.0010973932495126348 -0.0018047586347336164 0.00007997317457153486
          0.00009053739563924523 -0.0008030871831365971 -0.0013986306182367514 -0.001294525189049267 0.0002071472035858335 -0.0012256518969238073
          -0.0005459391511486444 0.00023066220432710338 -0.0004035327483613571 0.0009887210456156481 0.00023580480046270225 0.000656148310579141
          0.0011454072547021354 0.00028489439662671145 0.000719650547047479 -0.0014119717931855291 0.000164021487014665 -0.001371977055498519
          -0.004085008749246555 -0.00005393150672006186 -0.0033152264437177337 -0.00399452808056644 -0.00027024104159778517 -0.0029774228895611543
          -0.0019443153502098909 -0.00019124164112227504 -0.001025399891851464 -0.0005152869225177881 -0.000880990232865031 0.0009254200400476975
          0.0013026725697677932 0.0004642455286045788 0.00039558688793661645 -0.0013612441109351892 0.00026529053177526407 -0.000354919179017088
          -0.0006218192463975925 0.00014462056335773354 -0.000044309383259388824 0.0004966742524157297 0.0001508684430824303 0.00034298629765849853
          0.0008446346352943834 0.0001288328269772876 0.00024033726506900166 -0.0015133501268120853 0.00009276704299487903 -0.00035089386738462736
          -0.0035704724897218654 0.00001743315150370961 -0.0008619915315364324 -0.003129046773825195 -0.00014547961661115494 -0.0008792874981331522
          -0.0016495474925619646 -0.00010178484654943531 -0.00016054651657171348 17.223513748472577 34.245438288226964 34.44757682183183
          68.49180154660857 17.225575245918396 34.24942531230059 33.63609010623949 67.27309442843536 33.639978889068686
          32.61053088900183 65.22163580507343 32.61399490555664 31.171262478325794 62.342646082225876 31.17384258392553
          29.36026943555402 58.720364377126025 29.361463664566056 27.30458752797395 54.60965997593862 27.303959763756414
          25.272410366297322 50.54573313008862 25.268965009822253 23.703377828667346 47.40705198945726 23.69593831751574
          11.552693195552894 23.10534629907091 11.547604760653703
        </DataArray>
        <DataArray type="Float64" Name="resid_y" format="ascii" RangeMin="-7.1799383864214015" RangeMax="5.684480687444598">
          0.014340305214953053 0.00906993278635395 0.001795894562146223 0.0034443080861615294 0.028528266108415856 0.01602973040377752
          0.0022031201577042466 0.0010941934335907955 -0.0051825808639232585 -0.015774500134553254 -0.013783999404817521 -0.022562644203180132
          -0.0017811246171810236 -0.0014112403991824798 -0.0012281383650900035 0.0005394435733961506 -0.004552568829769274 -0.005340058691884558
          -0.002264518193903553 -0.0032838150114165576 -0.01122198659138671 -0.014930210356402476 -0.01643598642603672 -0.01815630218716538
          -0.017380718013063765 -0.017802434041668147 0.0027342726483966327 -0.0025465136632860097 -0.011638085168795935 -0.0195468511227163
          -0.011820372687851854 -0.002834303009076833 -0.010331561563432179 -0.008639840399794485 -0.004354602377083516 0.00318931176506132
          -0.01987748132068412 -0.01552331953289332 -0.015524564279387976 0.0003471170646139818 0.00009417284161111761 0.003296912530551723
          0.001609414430154086 0.000022930589937103507 0.00034647407200360386 0.004659090900510174 -0.0009615635012201335 -0.007090932498149495
          -0.0020000822702213664 -0.003806296656777154 -0.010776482285942225 -0.002022974224858729 -0.00011092986761370533 -0.006392768350395567
          -0.009166069706802345 -0.003761512288648107 0.0002287991066555453 -0.00829092740872988 -0.0044876033014808955 -0.004492302750294113
          -0.0010070051009458004 -0.007502758193842267 -0.010537125944782007 -0.0035522526560482354 -0.004641157932227913 -0.016561052230032625
          -0.005362115256540165 -0.005617244688137402 -0.010121366869639215 -0.012765422113845348 -0.016364660004407783 -0.020405180462578526
          -0.004242266167675646 0.017001704921296712 -0.009347010339660955 -0.03280397570842242 -0.02681612953909618 -0.0359250591464193
          -0.02803191070571709 -0.019411338859125105 -0.017693294263200765 -0.012302428824238432 -0.027299931250852727 -0.000732728115028336
          -0.038219486273128656 -0.016259742264510713 -0.027808598060812706 -0.0016597902667740833 0.0005745041723877985 0.006554555414222285
          0.0007315752160486078 0.00612471217423341 -0.0006477970088177021 -0.0022157530236987296 -0.0015057079790381095 -0.0013597741706964928
          -0.006438172891655127 -0.0011791666729830043 -0.003513553233964656 -0.002101320894189851 -0.003337476950908581 -0.004178301466921282
          -0.004994157189288154 -0.004285117462158233 -0.008674691693492633 -0.006433593086294431 -0.007015670640380389 -0.005474988803330666
          0.0046247916042410075 0.008477787541662146 0.005569205543248912 -0.0367224311292112 -0.04458092412969894 -0.025219729759589193
          -0.011498562584934507 -0.0033898321336455 -0.003439944399242334 -0.004606518727590395 -0.011253707399854283 -0.0101595726217001
          -0.0011890376570940775 0.001952827375458488 0.0009524019802277239 -0.00007952888969550709 -0.0029309459064589816 0.003300353964087843
          0.000856602909213966 0.002250818652494435 -0.007699331469727622 -0.004434067940956299 -0.0005844613433000356 -0.00021105022453246636
          -0.004055460386572278 -0.00013587036120353557 -0.005330632259085623 -0.0032515763458314667 -0.016444815769631374 -0.019307882538828473
          -0.007259089104517707 -0.01554663192491823 -0.008559695515849404 -0.003343960974935078 -0.002111954948766634 -0.004386616660950988
          0.003775217742205156 -0.00014621158224660535 0.005854355150045509 0.0008479790496416784 0.0023710271350998735 0.0016371467731560174
          -0.003044498257993928 -0.0016298700885982106 0.0051124620416973035 0.005094948193565936 0.00039495761245577493 -0.0015685350941672116
          -0.0018772009388022814 -0.0015145960174215989 -0.0012210778892853547 -0.0013787366535828183 -0.005470735907615251 -0.004456519614710691
          -0.004097742267179204 -0.009027469105084852 -0.005357400555304592 -0.009807789633953762 -0.01714844861510406 -0.015738567822703553
          -0.006191050636384029 -0.011286357550236365 -0.005817421440590956 0.00040520815450706404 0.0020580336653701903 -0.00654330432301356
          -0.0011553574690811828 -0.0010323923644863994 -0.0007815417700877715 0.02133460443657803 0.029222531961838452 0.03873220462882376
          0.06549624314335628 0.009251514228882401 0.01944721040615984 -0.00920318769653582 -0.006455182071814102 -0.01204722104984867
          -0.0064970076461824755 0.0010101830007361173 -0.0054863345071030425 0.00223923328424587 -0.009420984186624206 -0.005031258034986583
          -0.011418053658297816 -0.004296667768072637 -0.00467806467518346 0.0008744398098268213 -0.00462505525101245 -0.0001422876572905185
          -0.006878494525955514 -0.0036842117424495183 -0.005866917431652588 -0.0027394864347762005 -0.011656843918391571 -0.007560711852790648
          -0.001936906443075266 0.00011391544067326786 -0.0015907403186342164 0.0010108566744794212 0.010600376796755469 -0.009906434063758976
          0.0029081488796308397 0.008792188246191601 0.002969324971103915 -0.004731281941207418 0.0002661427044454989 -0.006427461185392001
          0.0032173833794843856 -0.0033171239297355645 0.005103005490252943 -0.02267913093985055 -0.0067242421446531 -0.05362379935280893
          -0.013868366303377316 -0.019461119410387993 -0.004859681646092941 -0.001580351693293354 -0.0004918656374496115 0.00041297731750514904
          -0.0038520801469028795 0.0004571799339123245 -0.004134418260990563 -0.0070301305982815 -0.0012057161781151814 -0.00015591542693381422
          -0.0018386759147904497 -0.002382396983999828 0.0023602505009617802 -0.002479297458574642 -0.00711361380602514 0.0010739565556274755
          -0.000944024470885152 -0.00572105245919817 -0.004668099991744182 -0.005990379059077067 -0.0066991537717427385 -0.0016183017575557637
          -0.003626446220644966 -0.009561477714142376 -0.009196304802211258 -0.00014045887235478866 0.0008280749139108826 -0.00018592234628049542
          -0.015315990999897021 -0.031127463675517393 -0.021505145337745238 -0.006076148166204141 -0.002515538489716137 -0.005396623653731145
          -0.0031810624686163576 -0.0037703800690690025 0.0005961887420721963 -0.0012502098222798505 -0.0008066768775376364 -0.0011352718248534201
          -0.0015349787265167732 0.00010029213865027364 -0.0014842598752172163 -0.006282619002346442 -0.002692684014338505 -0.0038284327211678265
          -0.012200132407316988 -0.00633988366199123 -0.008129831442028418 -0.0055391154227250276 0.001462435376420323 -0.0012865334673946918
          -0.007377920470811296 0.00010334004995605703 -0.002473024141729053 -0.013564501382304806 0.0030845718224142837 -0.010040106585888442
          0.036416353442359384 0.08109468328302549 0.02660750818376445 -0.0004702851521181106 0.009102059495328163 -0.0032248335062894373
          -0.007767157022222526 0.0048284312898063675 -0.01337584906266509 -0.01807858248803923 -0.007203563588971451 -0.022644523553083495
          -0.02219687214947008 -0.001130244224006427 -0.007753564628265652 -0.0005499367472969752 -3.590556922277858 -0.0007568633667462965
          -7.1799383864214015 -0.003400764341100926 -3.6031190156976756 0.000046239326426888994 -3.1847420577423446 0.00009273038358781349
          -6.370469404357854 -0.0005182521284183839 -3.1948653848632746 -0.00006330215723138188 -2.448799793520776 -0.00015677363778343612
          -4.897951788309446 0.0001423876225967735 -2.459042045002369 0.00016319260615949016 -1.5267773005395169 0.0002000581672401136
          -3.053862524413187 -0.0014377136641372523 -1.5342148167159517 0.0003312689435487348 -0.5377677733294446 0.00006250323848716599
          -1.0758569316916609 -0.002300973536671469 -0.5422083460358722 -0.000030783030749936824 0.42964549937698715 0.00006601665731181816
          0.8592973127557431 -0.0005846467029467783 0.42923506802332295 0.0002788632468980756 1.3154200353185308 0.0000647632357145822
          2.630963770516543 0.00019003007741313915 1.318873519896925 0.00041978875485559897 1.717803351012348 3.307631378790532e-7
          3.435565482714677 -0.000809764193099638 1.7229097720073965 0.004446179268722705 -0.0010473021419026285 -0.002016623818916319
          0.00019442630127719518 -0.0007331630852087656 -0.00007183528065812794 -0.0002723056813282998 0.000024705361165278106 -0.0015844372853377475
          -0.0008362248990778642 0.00002001382743632707 -0.0022099753205514494 -0.0013813804771307114 -0.000029940875809542078 -0.0022454422050270373
          -0.0008253139319307906 0.00014819079816363878 -0.0008852944919617994 0.0008310225514487901 0.00007199630276777391 -0.0014652292611079254
          -0.000247498069114227 -0.0000465852307431347 -0.002394065923033706 -0.002108262634717528 -0.001142414814948367 -0.0023432247051433652
          -0.0009504443349093172 0.00038071170138342936 -0.002298754450641649 -0.0007045376819845295 0.0003690113630352432 -0.0032134570641642046
          -0.0013188220217896784 0.0003511230181048042 -0.0030641988621469274 -0.0018246157936985252 0.00041715960945853947 -0.0025030573462384575
          -0.0008719473255570098 0.00035042019746531206 -0.0024772491936930208 -0.0006132691972453863 0.00023071432995988572 -0.0027008821536962935
          -0.0017068894136780532 0.00025629642510615475 -0.0035248101508923227 -0.0031718365184985053 -0.0005195038799938878 -0.0037469256659963257
          -0.0014363394338055002 0.0006772704794197892 -0.004649293108583752 -0.001280349101066669 0.000905654869771455 -0.005847100962301566
          -0.002834140439402333 0.0005747460225169476 -0.004271758735856723 -0.0024520257847308047 0.0006391116706360167 -0.0035906493678635742
          -0.0020588933837616397 0.0005368254182326337 -0.0031259719764398786 -0.002419211592319101 0.00038664294335785665 -0.0029174342820705024
          -0.002396553983461114 0.0003849064628043686 -0.002952326769077085 -0.013483809352883735 -0.013079390477630959 -0.011232852785863612
          -0.0034131086249460374 0.0005133967690067465 -0.0072779017033726134 -0.002823301958609914 0.000541331608687301 -0.007473606140516509
          -0.00430128044584932 0.0009109933821798144 -0.005398275304082656 -0.003405078553737395 0.0009378599085585471 -0.0038011319125641485
          -0.0031865900085644716 0.000912779258451013 -0.0027202957038860998 -0.0028771515677345483 0.0006612688267369493 -0.0022198157677238983
          -0.0020392926569017256 0.0005585840187094515 -0.0020483904228165706 -0.14642857506342888 -0.2855488843455949 -0.15224467654704954
          -0.1344072525058264 -0.2582591360612083 -0.13552210777337104 -0.005305075755388522 0.0005180023615358742 -0.006792534828295782
          -0.00547694958530931 0.0006796440331400255 -0.005955112180999755 -0.005051031616480461 0.0014304121081929466 -0.004811798670025347
          -0.0041910194234606735 0.0014577880404011978 -0.003080700677433379 -0.0031676930999235964 0.001504532846688278 -0.0019291280020132806
          -0.0022287141557419954 0.001207414675868712 -0.0018597072713114615 -0.0013043201358686751 0.0008384656779041322 -0.0021689134709774738
          -0.042233396236057485 -0.08151072508741741 -0.0383242443264149 -0.4696541422493654 -0.9248608834619034 -0.47121439427800693
          -0.19037272821561313 -0.36566987554377617 -0.19176902493858217 -0.006268563590618115 0.0007075540442507133 -0.004836427314726777
          -0.005156065038818269 0.0017640553497941802 -0.003469590068535755 -0.0037065395713935523 0.0021706001034127453 -0.0019424435103001514
          -0.002401288576700189 0.0023335523416549986 -0.0016365577503640871 -0.0014429078025257613 0.0019778708864583994 -0.0023773823384092285
          -0.0016092949758368391 0.0012541395085101659 -0.0031409776837352243 0.3071098140247921 0.6177258293778114 0.2953443000936129
          0.06933922623030819 0.1537822757337839 0.0675186242984891 -0.42636863911389744 -0.8315654976358652 -0.4147371927112029
          -0.00630299538593837 0.000060937997962362545 -0.0019031003732932206 -0.004416062289442024 0.0012882554520703415 -0.0025987028266718504
          -0.0026648403519615727 0.0029870268536353883 -0.0018887772501412492 -0.0013999527019050717 0.0037392082917038216 -0.0012600743118880153
          -0.001362338029250676 0.003660125103094991 -0.0021416621243268708 -0.0023529390226704194 0.0018513605209105055 -0.0036024906667053713
          0.2197782667900512 0.44234738283548847 0.21912394272547564 0.699596474309041 1.4023416009514293 0.6997553003538717
          0.17928716291827307 0.3703235585194662 0.1878377693810931 -0.006868941890616043 -0.004931807826090484 -0.0016943454178521833
          -0.007416620926042228 -0.006579545797121611 -0.003801312036173954 -0.006570797398902428 -0.005938208622979779 -0.0037362212444120857
          -0.005552464934046597 -0.004797467824062984 -0.003012943520990241 -0.004673614368290835 -0.00258884658844849 -0.002386660852353728
          -0.003388366637389506 -0.0008334369497153826 -0.0019524505841810313 1.7929050878777024 -0.0003078410335036752 3.586006847005504
          0.000009527194775205139 1.798242414613565 -0.0012449149207224286 -0.0015842364266349662 -0.000047064474306190984 -0.002701066519300299
          -0.0026255419065606272 0.00003782550843607624 -0.003235833222146267 -0.0027698637658944425 0.00017446092421019577 -0.002582697947591306
          -0.0018971327550262318 0.00031345582018871276 -0.0023501408131161305 -0.0019909072911983294 0.0003563722766326549 -0.002627054652694749
          -0.0025705208470869767 0.00040993461148008947 -0.0028689615805630453 -0.002911860189462212 0.000579813199869994 -0.0032895909148222824
          -0.0027339237927508364 -0.00027681168481907825 -0.0014244837082595385 2.067981126105629 -0.0005226554695073604 4.1362742251435005
          0.000027429758315045127 2.073808198574547 -0.0007481846761596689 -0.0016832404373565701 0.0002279857739300173 -0.0024923827571062818
          -0.002955392407453794 0.00010231159892953867 -0.0028840709925071484 -0.0026950034987158894 0.00023022297396185776 -0.002984931372084096
          -0.0023739701418635795 0.0003954078930300531 -0.003100165735597016 -0.0027764079269461117 0.0004809069010522915 -0.0030502904901830163
          -0.0028703156644933614 0.0004949919416210591 -0.0027679748577573715 -0.0025873246793279847 0.0005067767890130082 -0.0025710944954843162
          -0.0021949948251978046 0.00006554652957158069 -0.0008529644953132465 2.2961294099442098 -0.00025716363505301487 4.592528689474465
          0.0000445790150991332 2.30219930915354 -0.00024769859391748916 -0.0009164006477599962 0.000204954091847398 -0.001568179761576749
          -0.0021992747829135406 0.00017565748436859652 -0.0026944419519080443 -0.002708837486456079 0.00027799215131229377 -0.003231049874551986
          -0.0031801219894374566 0.00041631486153775876 -0.003769004524712849 -0.0031734992523214656 0.0005084841637535975 -0.00400584790518943
          -0.0030601798079654685 0.0005318241198062346 -0.003442084553233249 -0.0025362044424374064 0.0005022483169085934 -0.0022421966676003935
          -0.0016431590235247429 0.00016631387363419403 -0.0005882178377558667 2.479797162596731 -0.00036058468280097955 4.959896219885971
          0.000058921577515747003 2.486057636628069 -0.0002231995868182679 -0.0010406619589773403 0.0001150659785172925 -0.0008539362118554772
          -0.0015235977741816509 0.0002667302701248042 -0.0019798980023675306 -0.0026071403020357375 0.00033640581832042327 -0.003027577018236638
          -0.0033842370982574976 0.00046378265539556707 -0.004194869632399428 -0.00391002945029173 0.0005573913126719621 -0.004878109866959468
          -0.00383074434515418 0.0005800945739642405 -0.003951040098076342 -0.0030569182949276574 0.0004936019554083182 -0.0026011429876959813
          -0.0018316680668082341 0.00019823080684333583 -0.0007227923489233623 2.6224757077963528 -0.0006146094561925164 5.245385736146174
          0.00007208285099502554 2.628883791171522 -0.0003572167397165593 -0.0010231493450063578 0.00010336811079325603 -0.0006540235836320907
          -0.0009936079807636444 0.0003402265218560574 -0.0016607781838653413 -0.0021439522097556063 0.0004207374985598644 -0.002809680145915816
          -0.003341160324000343 0.0005063031837185053 -0.004137838089681337 -0.004161246525020479 0.0005718532852481695 -0.004406981979084845
          -0.004210099830735725 0.0006102167262574953 -0.0037284144896964078 -0.003543122191754511 0.0004613298049048198 -0.0031755113530297363
          -0.002555256727806099 0.00019507734295493018 -0.000945822673176 2.7279963898024255 -0.0005930058085088508 5.456443552509842
          0.00007922897826273534 2.7343185991380574 -0.0006153318826691567 -0.0008747716589152521 0.0001989225457708077 -0.0008571084777138083
          -0.0011637432089006694 0.0004154635489546088 -0.0016882793102276361 -0.002100029008314519 0.00047553262323973833 -0.0024236088004181977
          -0.0030003329400614953 0.0005306655910112812 -0.0030076208557938966 -0.0034433235958233888 0.0005796202282716545 -0.003201653225484047
          -0.003426757670493885 0.0005950534311024991 -0.0031974306893356452 -0.0036577208924893356 0.00042127995850180233 -0.003405100997567523
          -0.0030456769462919864 0.00018171095387908842 -0.0010403059178784035 2.8001427285283 -0.0005473303938692275 5.6006812412703
          0.00003229670916393701 2.806451969145904 -0.0005101594859733272 -0.0009552735212317032 0.0003509596922046665 -0.00126324765264485
          -0.001453498719135804 0.00043054456350732906 -0.0012933621419581876 -0.001996731499898985 0.0005068077259957615 -0.0016403429373941236
          -0.002287896350889773 0.0005491445342840073 -0.0017866828915219513 -0.00197458807407723 0.0005933040619814228 -0.0018835621347054327
          -0.0023624347651954314 0.0005626746914981495 -0.0025249370956921258 -0.0033538788854910323 0.0003812309575562389 -0.0031258888701237997
          -0.0030284875778808784 0.00015518352527738033 -0.0010070776305451945 2.8419806675416845 -0.0006407647059893939 5.684480687444598
          0.00007873431004701281 2.848476730620928 0.00003257924378896604 -0.0005035111052429375 0.00030858505470443554 -0.0005775472839770757
          -0.0013846576502274388 0.00042669607269951726 -0.0010955770058413972 -0.0014061600256825013 0.0005080732568932822 -0.001403255159204475
          -0.0014492016086504744 0.0005690927734237627 -0.0007505767803107632 -0.0008622385117721398 0.0006201508732809891 -0.0008819591180871389
          -0.0014788436658805942 0.0005412543748022497 -0.0017755560392476999 -0.0025727188950201672 0.0003544171418820106 -0.002681551670446723
          -0.002594963545856324 0.00011709531550550822 -0.0010251348029909485 1.4279592953210296 0.000019316312761308296 2.8559922336046197
          -0.000051830212262737874 1.4311239738175208 -0.000002000728463347201 -0.00023534350450260533 0.00007434246275894729 -0.00013702935890869128
          -0.000897245864061258 0.0002268563836556048 -0.00036132637244512544 -0.0011347558251033618 0.0002485887551457733 -0.0004220641216023946
          -0.0007984220768482153 0.00026716927824455006 -0.00010215203726360311 -0.0002758004613795384 0.000302034835930054 -0.0002093584289586392
          -0.0008482777627786264 0.00025080612656003254 -0.000578628495050415 -0.0015851409285044943 0.00017187523576142616 -0.0009563875203301986
          -0.0014887228052707143 0.000046721889198761066 -0.000303277420273064
        </DataArray>
        <DataArray type="Float64" Name="resid_z" format="ascii" RangeMin="0" RangeMax="0">
          0 0 0 0 0 0
          0 0 0 0 0 0
          0 0 0 0 0 0
          0 0 0 0 0 0
          0 0 0 0 0 0
          0 0 0 0 0 0
          0 0 0 0 0 0
          0 0 0 0 0 0
          0 0 0 0 0 0
          0 0 0 0 0 0
          0 0 0 0 0 0
          0 0 0 0 0 0
          0 0 0 0 0 0
          0 0 0 0 0 0
          0 0 0 0 0 0
          0 0 0 0 0 0
          0 0 0 0 0 0
          0 0 0 0 0 0
          0 0 0 0 0 0
          0 0 0 0 0 0
          0 0 0 0 0 0
          0 0 0 0 0 0
          0 0 0 0 0 0
          0 0 0 0 0 0
          0 0 0 0 0 0
          0 0 0 0 0 0
          0 0 0 0 0 0
          0 0 0 0 0 0
          0 0 0 0 0 0
          0 0 0 0 0 0
          0 0 0 0 0 0
          0 0 0 0 0 0
          0 0 0 0 0 0
          0 0 0 0 0 0
          0 0 0 0 0 0
          0 0 0 0 0 0
          0 0 0 0 0 0
          0 0 0 0 0 0
          0 0 0 0 0 0
          0 0 0 0 0 0
          0 0 0 0 0 0
          0 0 0 0 0 0
          0 0 0 0 0 0
          0 0 0 0 0 0
          0 0 0 0 0 0
          0 0 0 0 0 0
          0 0 0 0 0 0
          0 0 0 0 0 0
          0 0 0 0 0 0
          0 0 0 0 0 0
          0 0 0 0 0 0
          0 0 0 0 0 0
          0 0 0 0 0 0
          0 0 0 0 0 0
          0 0 0 0 0 0
          0 0 0 0 0 0
          0 0 0 0 0 0
          0 0 0 0 0 0
          0 0 0 0 0 0
          0 0 0 0 0 0
          0 0 0 0 0 0
          0 0 0 0 0 0
          0 0 0 0 0 0
          0 0 0 0 0 0
          0 0 0 0 0 0
          0 0 0 0 0 0
          0 0 0 0 0 0
          0 0 0 0 0 0
          0 0 0 0 0 0
          0 0 0 0 0 0
          0 0 0 0 0 0
          0 0 0 0 0 0
          0 0 0 0 0 0
          0 0 0 0 0 0
          0 0 0 0 0 0
          0 0 0 0 0 0
          0 0 0 0 0 0
          0 0 0 0 0 0
          0 0 0 0 0 0
          0 0 0 0 0 0
          0 0 0 0 0 0
          0 0 0 0 0 0
          0 0 0 0 0 0
          0 0 0 0 0 0
          0 0 0 0 0 0
          0 0 0 0 0 0
          0 0 0 0 0 0
          0 0 0 0 0 0
          0 0 0 0 0 0
          0 0 0 0 0 0
          0 0 0 0 0 0
          0 0 0 0 0 0
          0 0 0 0 0 0
          0 0 0 0 0 0
          0 0 0 0 0 0
          0 0 0 0 0 0
          0 0 0 0 0 0
          0 0 0 0 0 0
          0 0 0 0 0 0
          0 0 0 0 0 0
          0 0 0 0 0 0
          0 0 0 0 0 0
          0 0 0 0 0 0
          0 0 0 0 0 0
          0 0 0 0 0 0
          0 0 0 0 0 0
          0 0 0 0 0 0
          0 0 0 0 0 0
          0 0 0 0 0 0
          0 0 0 0 0 0
          0 0 0 0 0 0
          0 0 0 0 0 0
          0 0 0 0 0 0
          0 0 0 0 0 0
          0 0 0 0 0 0
          0 0 0 0 0 0
          0 0 0 0 0 0
          0 0 0 0 0 0
          0 0 0 0 0 0
          0 0 0 0 0 0
          0 0 0 0 0 0
          0 0 0 0 0 0
          0 0 0 0 0 0
          0 0 0 0 0 0
          0 0 0 0 0 0
          0 0 0 0 0 0
          0 0 0 0 0 0
          0 0 0 0 0 0
          0 0 0 0 0 0
          0 0 0 0 0 0
          0 0 0 0 0 0
          0 0 0 0 0 0
          0 0 0 0 0 0
          0 0 0 0 0 0
          0 0 0 0 0 0
          0 0 0 0 0 0
          0 0 0
        </DataArray>
        <DataArray type="Float64" Name="stress_zz" format="ascii" RangeMin="-7374443.419488301" RangeMax="4481109.180051092">
          2035256.158130901 1143218.841114708 1109819.169718249 1480382.4169212128 2047487.5119428062 1160253.2772435457
          1117497.0827433611 1466945.142196902 2059718.865754711 1177287.713372384 1125174.9957684733 1453507.8674725916
          485161.1732638819 1328224.5762724262 1620000.808410729 926048.7670312993 473971.99411818385 1312223.307004177
          1598018.2670507887 917980.5503541101 462782.814972486 1296222.0377359274 1576035.725690848 909912.3336769209
          1478847.9826296687 603609.9365086122 1462645.7279560417 592980.2948717972 1446443.473282415 582350.6532349822
          2130262.6933811856 2052103.1000676998 2608273.2942413334 2121852.460838375 2026288.5224024483 2580601.2696787044
          2113442.228295564 2000473.9447371971 2552929.2451160746 -425221.7817631449 -747362.2575742189 -411047.74610252626
          -268920.42239725956 -410079.36534033925 -733628.9897889538 -418903.0854334485 -268811.1563484513 -394936.9489175336
          -719895.7220036887 -426758.42476437066 -268701.8902996429 -117155.61992371932 92361.30967770409 -317572.06830876693
          -431011.8427914504 -80375.1951619189 61920.90902057773 -332732.26191017294 -417940.7216297117 -43594.77040011852
          31480.508363451372 -347892.455511579 -404869.60046797304 393420.2724839631 1618597.6808188956 2502224.975614476
          407530.91969372635 1659558.2609089618 2524134.038037133 421641.56690348964 1700518.8409990277 2546043.10045979
          2978009.7887195414 3005384.0398095874 3032758.2908996334 1424403.4189032586 1069421.7606474268 1422362.541484077
          1086753.5331990644 1420321.6640648951 1104085.305750702 3422578.715976686 2184205.7228144864 3466144.775096489
          2150103.285047595 3509710.834216292 2116000.8472807044 -801131.1053174715 -535063.6619621454 -800148.0569884724
          -493848.3053627517 -799165.0086594733 -452632.9487633583 -688381.4245653737 -329366.8051898618 -277879.7538551741
          -311857.4059634481 -717698.3605435421 -359010.13939485676 -312127.9583944624 -314387.4867289875 -747015.2965217105
          -388653.47359985154 -346376.16293375083 -316917.56749452685 901443.169083462 927640.3987217408 953837.6283600195
          -27985.52954776032 -18912.98955995473 -9840.44957214914 1692010.099255031 1701055.644479739 1710101.1897044461
          397305.2352681666 365166.2852213434 393530.62471108104 369036.65520398825 389756.0141539955 372907.0251866331
          -454187.37771235633 -2460845.246963686 -2293297.1406879635 -1861279.7417329955 -462226.58319801866 -2635924.696803427
          -2410819.7863299856 -1912124.182874152 -470265.788683681 -2811004.1466431674 -2528342.431972007 -1962968.624015308
          593593.6189702784 711559.7058728685 590760.2708596133 686371.750083139 587926.9227489481 661183.7942934094
          -151591.62344867724 -109980.39507668884 -68369.16670470044 -229507.07326353563 -228618.52391593467 -227729.97456833368
          2477626.601871262 2253949.275556952 2537772.2156222807 2351412.1555887703 2597917.829373299 2448875.0356205883
          -598352.6484957597 -396058.5798978096 -614714.5283707759 -393846.6412299808 -631076.408245792 -391634.70256215194
          -2156555.575680252 -3545956.5854490884 -2178609.2387390854 -3694404.1595115457 -2200662.901797918 -3842851.733574003
          -704007.7408344084 -664513.4825317924 -625019.2242291764 -393856.4776987599 -405627.20725749555 -417397.93681623106
          -764704.2709019885 -744857.3252862736 -725010.3796705591 -1517742.3186887775 -1440633.3900576346 -1363524.4614264916
          1204767.646720319 1242778.67193922 1280789.6971581213 -93577.3341284141 -338687.25514333363 -133803.55449943896
          -367260.3589325176 -174029.7748704638 -395833.4627217015 187853.88698371785 178870.38694768865 169886.88691165947
          294529.12788498023 12736.434685148357 304910.03659181425 40220.18897830909 315290.9452986482 67703.94327146985
          -1283067.2945591807 -929999.8039377505 -1275399.292946077 -905838.9457592653 -1267731.2913329732 -881678.0875807801
          217439.01604524956 75058.83407838608 179990.67690117809 56070.27346094211 142542.33775710664 37081.7128434982
          1124080.9734622028 1133431.3611602385 1142781.7488582742 -722732.1208964107 -741608.7342828958 -760485.3476693807
          -131265.0720990032 -122236.72579581448 -113208.37949262571 -885613.8093490219 -1274133.493912625 -862508.3187640077
          -1213840.2218138091 -839402.8281789932 -1153546.9497149936 -494821.8228990451 -536312.1338161288 -486627.9606669238
          -492735.54993175657 -478434.0984348025 -449158.96604738425 -835904.5098050631 -254748.1618100429 -478324.781323217
          -812549.2628162979 -258846.72498199894 -471769.06098304334 -789194.0158275327 -262945.2881539551 -465213.3406428696
          -192043.91659037943 -196519.46288609426 -200995.00918180915 -1360498.7423180284 -538165.3785610906 -1221700.9563952019
          -504971.92838802317 -1082903.1704723751 -471778.4782149558 448398.62359471485 643984.104141829 451260.2906078812
          631459.2860045993 454121.95762104745 618934.4678673695 -62381.329597995114 -68458.74094070829 -74536.15228342146
          -949516.7981723768 -939956.9632180574 -930397.128263738 160135.67223119343 203640.61905397766 247145.56587676192
          -101216.21066586915 231505.8527330524 -79347.65781542598 277207.2929885553 -57479.104964982806 322908.73324405815
          340755.40865816694 315675.5639985626 290595.7193389581 101524.73701247177 102958.66621588187 104392.59541929196
          -39907.14890982053 -32684.570008595838 -25461.991107371163 733223.2294032596 717473.133834929 701723.0382665982
          1140439.0735369278 1094614.155502187 1048789.2374674461 806482.0740434946 804288.6529716728 802095.2318998509
          3020935.6306237215 3006341.983276201 2991748.3359286804 2470485.374787679 2462680.551967199 2454875.729146719
          1994732.669178248 1988748.9035859522 1982765.1379936566 735930.9829077794 734842.3865894566 733753.7902711337
          -398199.58240621997 -393670.61574741616 -389141.6490886124 -153117.8631036164 -277839.69634473237 -152697.1992608916
          -276375.94555415335 -152276.5354181668 -274912.19476357446 -37124.17404307439 -14205.908042852485 -34978.418953742526
          -11822.776399240754 -32832.66386441065 -9439.644755629022 -1411.2756493170536 3729.0018514719322 -2557.263599112101
          2612.273918478004 -3703.2515489071448 1495.5459854840738 39074.25484472439 46998.730673986865 39627.76217546136
          47714.97685517836 40181.269506198325 48431.22303636985 60351.72150778989 68976.97698064051 60148.46734421392
          68779.75507946237 59945.213180637955 68582.53317828423 69440.53468778118 75516.82400591558 69503.2268300363
          75677.42381849486 69565.91897229143 75838.02363107416 56786.642288566334 63030.73422453317 56806.01829521109
          63070.99130609006 56825.39430185583 63111.248387646956 10774.302030933202 21021.09841168212 10691.881888100637
          21048.074669529524 10609.461745268072 21075.05092737692 124112.42497944139 119719.50644904411 115326.58791864681
          -105406.21021859234 -104315.0353879453 -103223.86055729828 15958.587373637782 16237.774737767297 16516.962101896806
          38985.0629153473 38706.796167076136 38428.529418804996 59296.99031647466 59387.977328347246 59478.96434021983
          69373.93574554849 69371.66167138456 69369.38759722063 47199.84563843664 47425.7914501597 47651.737261882736
          -18565.42646104404 -18638.8784875267 -18712.33051400936 -303623.5236152181 -312945.9600469652 -322268.39647871227
          9863.637426882555 5933.631183523143 2003.6249401637033 1402.9526396771298 3552.8229215899955 5702.693203502864
          67898.63980717461 67755.94481949374 67613.24983181286 63288.70555470539 63279.91641565033 63271.127276595274
          75997.2731298352 76029.16639206154 76061.05965428786 32452.2596636795 32436.648435686577 32421.037207693655
          -70448.08794876555 -71077.30643695159 -71706.52492513765 -1973638.8707778265 -1973671.7711238384 -1973704.6714698502
          114951.98784188768 102781.71861524318 90611.44938859867 70650.06808853352 69224.93570841251 67799.80332829151
          59924.67178393608 60857.04997508402 61789.428166231955 56463.07817100479 55739.284763878626 55015.49135675246
          72758.98861328246 73165.44629772553 73571.90398216859 -627.7142740164636 165.53375957386743 958.7817931641948
          -151843.31322575134 -151812.91434996075 -151782.51547417018 -3383719.3336633835 -3362285.7451024656 -3340852.156541547
          -1135281.8396016434 -1135107.0818080106 -1134932.3240143775 161654.19085789137 157573.09178921266 153491.99272053404
          65708.8846453081 66095.43109784934 66481.97755039058 36327.48535363208 36418.477327415574 36509.46930119907
          58320.37923356237 57937.997812505426 57555.61639144847 -70212.75082692211 -70805.80784893705 -71398.864870952
          -296849.0402735758 -299549.45665968786 -302249.87304579985 991485.28015417 975516.0262705497 959546.7723869295
          -2194352.190869534 -2190145.9323638747 -2185939.6738582156 -3035665.4114654763 -3029794.0358185777 -3023922.660171679
          -966750.5393780561 -971808.8086160142 -976867.0778539726 319086.2780790264 313004.7399099692 306923.20174091205
          -56630.4610838226 -57325.65618920036 -58020.85129457813 66755.20974830206 68153.56836305703 69551.92697781202
          -132420.0854812452 -130339.81983478859 -128259.554188332 -473627.7017063631 -473405.253267734 -473182.80482910486
          4481109.180051092 4451668.171973831 4422227.16389657 2774038.8431030363 2754375.6702289465 2734712.497354856
          -2447610.4737368803 -2436122.654651947 -2424634.8355670124 -2735467.1186822294 -2726686.811079993 -2717906.503477756
          315957.1653739396 306651.6623964296 297346.1594189196 45400.5881467596 40551.64258032065 35702.69701388172
          22431.384383530425 24792.694267403473 27154.00415127653 -642595.2916178385 -641248.5083752456 -639901.7251326524
          -1284880.4229851575 -1287715.732554711 -1290551.0421242644 3713795.6938928682 3692711.031877063 3671626.369861259
          3495980.0486770486 3476679.161974351 3457378.275271653 -2340853.646787869 -2325289.8941254495 -2309726.14146303
          -5382765.57758798 -5360924.00749891 -5339082.4374098405 -1421062.5474392 -1425424.4359801228 -1429786.3245210452
          628998.0835461024 618191.8242210131 607385.564895924 504309.6154797156 505741.77008521697 507173.92469071836
          -315720.04508505744 -315069.4033025715 -314418.76152008557 -1536422.906121998 -1544966.1852264411 -1553509.4643308837
          715951.7338817937 692899.7265866257 669847.7192914577 759206.8822318907 735892.4526799617 712578.0231280329
          -3527846.7693935214 -3524508.2213723473 -3521169.6733511733 -7374443.419488301 -7355691.617482407 -7336939.815476513
          -2936412.227990087 -2938258.3239792767 -2940104.4199684653 1034495.3577543851 1019969.6079923387 1005443.8582302923
          1049533.1803101944 1052016.1460492497 1054499.1117883048 507033.01680579793 513058.4944374068 519083.9720690158
          -1057091.0982655003 -1061297.160467296 -1065503.2226690915 -14289.196617286081 -22045.1554848252 -14276.47713732032
          -22054.92547627912 -14263.757657354558 -22064.695467733043 -44692.968054286655 -44529.12290395532 -44365.27775362399
          -81655.12588192387 -81604.82439250298 -81554.52290308208 -131346.96323218732 -130365.54718528503 -129384.13113838274
          -216392.46292121647 -216493.10757030666 -216593.75221939676 -283062.79568889656 -280190.22980283544 -277317.6639167743
          -774518.0046160761 -770463.006763819 -766408.0089115619 -396890.2336836766 -391443.85002069763 -385997.46635771863
          462946.379872703 473897.75144294836 484849.1230131937 -26856.764960259192 -31215.92937853099 -26808.314396079542
          -31177.089825339808 -26759.863831899893 -31138.250272148634 -42256.706464752744 -42149.33907433527 -42041.971683917785
          -57176.07142151331 -57097.84470434948 -57019.61798718567 -74841.19699269686 -74439.45638972808 -74037.71578675928
          -100454.83113997887 -100359.45910234108 -100264.08706470332 -112870.14153924157 -111730.9960902336 -110591.85064122565
          -328723.7908824497 -327141.3561315433 -325558.92138063675 514676.4185710232 513994.7087119891 513312.99885295506
          1577701.2278333507 1576093.0194464521 1574484.8110595536 -39082.18174382136 -43969.79497751775 -39067.27043908476
          -43973.557986601554 -39052.35913434816 -43977.32099568535 -56194.473563088104 -56241.2666886562 -56288.05981422428
          -73111.99471286226 -73278.44214171568 -73444.88957056912 -95823.31936635476 -96116.63530842944 -96409.9512505041
          -126404.6396258255 -127060.74740747089 -127716.85518911626 -180243.85455265077 -181241.21203450192 -182238.56951635308
          -244943.0967026239 -247179.26698539007 -249415.4372681562 349282.5567863258 344993.82237331243 340705.0879602991
          971818.688902302 966706.1752867214 961593.661671141 -51919.07087212935 -56509.67655472004 -51923.03385289434
          -56490.692092545425 -51926.99683365933 -56471.7076303708 -68081.92324634113 -68027.59088838757 -67973.25853043399
          -84302.66674367334 -84203.56942767811 -84104.47211168287 -104846.50284322364 -104663.26941488443 -104480.03598654523
          -132108.39583280013 -131786.4520204548 -131464.50820810947 -156753.04638356643 -156288.78748448993 -155824.5285854134
          -99955.55087642718 -98977.1743400975 -97998.79780376781 380888.0268389089 383424.2740707275 385960.52130254597
          796246.6178746674 799881.9944745883 803517.3710745093 -64635.05201449484 -68760.12933442337 -64656.02658075686
          -68771.39046225017 -64677.00114701886 -68782.65159007697 -79934.31596514504 -79955.98966547796 -79977.66336581088
          -96050.77567315914 -96092.73042183588 -96134.68517051262 -114761.24370335686 -114856.2622976261 -114951.28089189538
          -131252.84106220223 -131391.03270581568 -131529.2243494292 -118913.33942021162 -119326.95611642978 -119740.57281264797
          -3679.8536940259874 -4170.93401443352 -4662.014334841057 361555.56061620254 360622.8881809587 359690.2157457149
          630745.4705681046 629163.5088307634 627581.5470934222 -75401.12268680599 -79278.1661994926 -75429.59797223701
          -79293.80366138692 -75458.073257668 -79309.44112328123 -90224.03012942374 -90232.61491850442 -90241.1997075851
          -105834.54077876659 -105835.6929464802 -105836.8451141938 -120704.08935938058 -120706.7073713417 -120709.32538330284
          -122790.1267603741 -122758.2748847762 -122726.42300917828 -80507.35926107764 -80600.6015776641 -80693.84389425057
          57906.01943466695 58038.968399406076 58171.917364145185 340117.67594114307 340627.97771708405 341138.279493025
          521956.900303649 522444.11591338506 522931.3315231212 -84025.25572246242 -87773.04085789715 -84028.40647876766
          -87777.58409825194 -84031.55723507292 -87782.12733860675 -98548.40336939004 -98557.06028695921 -98565.71720452837
          -113063.78468703131 -113082.76104961304 -113101.73741219477 -123055.95113464276 -123098.74733106315 -123141.5435274835
          -112368.1285820398 -112393.89971080644 -112419.67083957307 -50882.393302416705 -51062.21326984804 -51242.03323727938
          94198.3825797415 94182.60808232603 94166.83358491055 322223.08121787803 322254.73290010594 322286.38458233385
          453460.5541948481 453188.2910983942 452916.0280019403 -90951.11734438848 -94194.66416449271 -90929.42187282063
          -94191.78286406689 -90907.7264012528 -94188.90156364108 -104297.61723849925 -104307.55413188659 -104317.49102527392
          -117586.70705009649 -117600.12401797296 -117613.54098584941 -123592.54756438255 -123629.9706820743 -123667.39379976605
          -104559.83454170878 -104570.61314101973 -104581.3917403307 -33228.28531470402 -33348.104128257604 -33467.92294181117
          112213.40141567684 112295.03484653363 112376.66827739042 309713.7992407757 309915.99275383994 310118.1862669041
          414495.18958323356 414466.2761034741 414437.3626237146 -94060.68661909892 -96886.59642872027 -93988.28072525791
          -96853.00040670426 -93915.87483141689 -96819.40438468824 -106404.02172688994 -106412.1808198063 -106420.33991272264
          -119109.25990094827 -119126.18176994071 -119143.10363893316 -123604.98793566134 -123646.32501892323 -123687.66210218513
          -101698.75039510627 -101715.07666056114 -101731.40292601603 -27403.051844660215 -27524.505648869388 -27645.95945307856
          117638.5702194108 117708.93565892702 117779.30109844325 305438.35821558785 305594.5237655754 305750.68931556283
          402103.9798083817 402005.3901872531 401906.8005661245
        </DataArray>
        <DataArray type="Float64" Name="peeq" format="ascii" RangeMin="0" RangeMax="0.005765519719945317">
          0.0036853236642607145 0.0037763160016172624 0.0038241064300427088 0.00386148460677136 0.0036852378027377613 0.003776289318621358
          0.0038238666356681613 0.0038609233660309022 0.0036851519412148086 0.003776262635625453 0.0038236268412936134 0.0038603621252904434
          0.004006717906843616 0.004095606218782832 0.003967979830350605 0.00395730360565625 0.004006938392257008 0.004095975485841734
          0.003967366119773158 0.0039566523758766785 0.004007158877670401 0.004096344752900636 0.0039667524091957125 0.003956001146097106
          0.0038614558565910305 0.003902819725182193 0.003860794616261487 0.0039021454508419073 0.003860133375931943 0.00390147117650162
          0.003981812291669372 0.00361904593483876 0.0037608505199605733 0.003981629655305198 0.00361873624669278 0.0037603111286866175
          0.003981447018941024 0.0036184265585468 0.0037597717374126603 0.003811794956169795 0.0037766353596738246 0.0037769000280206784
          0.003818996719606003 0.0038120668489531988 0.0037769831154274573 0.003777511286188532 0.0038196594719644883 0.0038123387417366037
          0.00377733087118109 0.0037781225443563856 0.0038203222243229735 0.0037342500724477233 0.003724206367819211 0.0037577469420154745
          0.0037951234355875613 0.0037345657248047982 0.003724267574105136 0.003757884269764987 0.003795210833785195 0.003734881377161873
          0.00372432878039106 0.003758021597514499 0.003795298231982829 0.004188187264215987 0.0044688227066820956 0.0042599856581541865
          0.004189777968402665 0.004470205405433135 0.004260735254928896 0.0041913686725893445 0.004471588104184174 0.004261484851703605
          0.003438731932941721 0.0034388126694461637 0.003438893405950607 0.004623421372242323 0.00494576110761329 0.004624065945713491
          0.004945905148712202 0.004624710519184659 0.004946049189811114 0.0031610372462351722 0.003437199490546444 0.003161272152459187
          0.003437216320907654 0.0031615070586832016 0.0034372331512688642 0.003983250795526927 0.0042112240746700665 0.003984634564564372
          0.004212687055619857 0.003986018333601816 0.004214150036569648 0.003862804131279594 0.004017570280329268 0.004078100248525079
          0.003881038348370236 0.003863466927634591 0.004018635063236327 0.004078850892961065 0.003881823317650238 0.0038641297239895883
          0.004019699846143386 0.00407960153739705 0.0038826082869302387 0.005765519719945317 0.005764933637308158 0.0057643475546710005
          0.0045204564553079285 0.00452175475729265 0.004523053059277371 0.004108218985862658 0.004108899668113057 0.004109580350363457
          0.003921972236067149 0.003939760680478115 0.003921673186382117 0.003940340539426886 0.003921374136697085 0.003940920398375656
          0.005524060879833762 0.005143566326751876 0.004877964082398439 0.005238322929521516 0.005523603286504322 0.005141964063685823
          0.0048771745380589236 0.005238501261431485 0.005523145693174881 0.005140361800619769 0.00487638499371941 0.005238679593341455
          0.0038707169713663404 0.0038620178455168156 0.003870503876657638 0.003861493033918367 0.003870290781948936 0.0038609682223199183
          0.004295821967589901 0.004298182011746522 0.004300542055903144 0.003735542858513117 0.0037360780896225692 0.0037366133207320205
          0.004623686543987493 0.004443314121968482 0.004625716616579959 0.004445938525070107 0.004627746689172426 0.004448562928171733
          0.0037917501837728025 0.003748801440142891 0.003791853639790496 0.003749095395164748 0.0037919570958081894 0.0037493893501866064
          0.0045634431486730334 0.004800250198605995 0.0045641052452567105 0.004799983022887841 0.004564767341840387 0.0047997158471696855
          0.004049053293799376 0.004050753709586236 0.004052454125373098 0.005273343277293123 0.005272384974494298 0.0052714266716954745
          0.0038809825795511703 0.003882105523826866 0.0038832284681025618 0.00466035516412738 0.004661536975619263 0.004662718787111147
          0.00423388979763277 0.00423609205776397 0.00423829431789517 0.00390521719758565 0.003915634064816185 0.0039066079138925045
          0.003917043341322834 0.00390799863019936 0.003918452617829482 0.0038653130291031236 0.0038656674395814955 0.0038660218500598674
          0.0038966344849294954 0.003999510315850784 0.0038975920637214787 0.004000798345319044 0.003898549642513461 0.004002086374787303
          0.004306138401360999 0.004561159785230345 0.004306974572149388 0.004561711040265201 0.004307810742937775 0.00456226229530006
          0.003824435124412875 0.0037810261675823163 0.003824055138986346 0.0037810497135009253 0.003823675153559818 0.0037810732594195347
          0.004336474056477485 0.004337914043960393 0.004339354031443301 0.003940972748707109 0.0039423933044499355 0.003943813860192762
          0.004914586660877069 0.004915737732305583 0.004916888803734097 0.0037844018423722533 0.003834913001436216 0.003785331404394682
          0.00383598090202372 0.003786260966417111 0.0038370488026112236 0.0038116215181995075 0.003806670314973132 0.0038125500922767002
          0.0038079575814118395 0.0038134786663538926 0.0038092448478505474 0.0037504125827981707 0.00371649831423852 0.003742551491249414
          0.003751111719831533 0.0037168854965051396 0.0037430008457261126 0.0037518108568648954 0.0037172726787717586 0.0037434502002028107
          0.0037412242492608095 0.0037414658947668637 0.003741707540272918 0.004324835165408752 0.004147384791167618 0.0043271605301973895
          0.004149021781363273 0.004329485894986026 0.004150658771558928 0.003809171686261473 0.003823690859110144 0.003809122921148886
          0.003823507771660515 0.0038090741560362984 0.003823324684210884 0.0037084861199942476 0.003708737342047768 0.003708988564101288
          0.0038246832223706078 0.003825391769301774 0.0038261003162329403 0.003975449554559086 0.0039768527326280315 0.003978255910696975
          0.003721295976364338 0.0037061162527648474 0.0037216006723013 0.003706512311492978 0.003721905368238262 0.003706908370221108
          0.0037038647259241574 0.00370399614125851 0.003704127556592862 0.003758768190126889 0.0037589784478515176 0.0037591887055761454
          0.004053888839760199 0.004055243038963752 0.004056597238167304 0.003803282448157422 0.00380327625139233 0.0038032700546272395
          0.0038312194184127865 0.0038308397802564783 0.00383046014210017 0.0038199831332215084 0.003819739389367071 0.003819495645512634
          0.002590524183999924 0.0025904425867555336 0.0025903609895111426 0.002990681405298727 0.0029905750186314693 0.0029904686319642115
          0.0033381330960929106 0.0033379977748981557 0.0033378624537034004 0.0036194525748979873 0.0036193090730298697 0.0036191655711617513
          0.003742200442679001 0.0037420751499137846 0.0037419498571485683 0 0 0
          0 0 0 0 0 0
          0 0 0 0 0 0
          0 0 0 0 0 0
          0 0 0 0 0 0
          0 0 0 0 0 0
          0 0 0 0 0 0
          0 0 0 0 0 0
          0 0 0 0 0 0
          0 0 0 0 0 0
          0 0 0 0 0 0
          0 0 0 0 0 0
          0 0 0 0 0 0
          0 0 0 0 0 0
          0 0 0 0 0 0
          0 0 0 0 0 0
          0 0 0 0.00002263328772943414 0.000022768586650625833 0.00002290388557181753
          0 0 0 0 0 0
          0 0 0 0 0 0
          0 0 0 0 0 0
          0 0 0 0.00013738897671682112 0.00013771558089131512 0.0001380421850658091
          0.000012237866890371934 0.000012313240437260883 0.000012388613984149832 0 0 0
          0 0 0 0 0 0
          0 0 0 0 0 0
          0 0 0 0.0010113541536961714 0.0010114028427539567 0.0010114515318117418
          0.00042191010754189006 0.00042224817261873735 0.00042258623769558465 0.000093615568871685 0.00009387703571985678 0.00009413850256802859
          0.0000017804807013039933 0.0000018283575706011708 0.0000018762344398983481 0 0 0
          0 0 0 0 0 0
          0 0 0 0 0 0
          0.0016086385012378604 0.0016082893793794065 0.0016079402575209527 0.000890682735350065 0.0008907699350210755 0.0008908571346920857
          0.000307171209721894 0.00030763815356633396 0.0003081050974107739 0.00003661294382870877 0.00003685297258541991 0.00003709300134213105
          0 0 0 0 0 0
          0 0 0 0 0 0
          0 0 0 0.002299612509275558 0.0022988076392556193 0.0022980027692356807
          0.0014975501230789301 0.0014971944385526398 0.0014968387540263495 0.0006749999988311867 0.0006754531865544568 0.0006759063742777271
          0.00014516333521322916 0.00014560406249509772 0.00014604478977696628 0 3.9846760810015426e-8 7.969352162003085e-8
          0 0 0 0 0 0
          0 0 0 0 0 0
          0.002664955307786142 0.0026639279893527065 0.002662900670919271 0.0018280436125667366 0.001827451363819225 0.0018268591150717133
          0.0008984129821812116 0.0008987576565414376 0.0008991023309016637 0.00022066174417164874 0.00022115889496055795 0.00022165604574946716
          0 7.969352162003085e-8 1.593870432400617e-7 0 0 0
          0 0 0 0 0 0
          0 0 0 0 0 0
          0 0 0 0 0 0
          0 0 0 0 0 0
          0 0 0 0 0 0
          0 0 0 0 0 0
          0 0 0 0 0 0
          0 0 0 0 0 0
          0 0 0 0 0 0
          0 0 0 0 0 0
          0 0 0 0 0 0
          0 0 0 0 0 0
          0 0 0 0 0 0
          0 0 0 0 0 0
          0 0 0 0 0 0
          0 0 0 0 0 0
          0 0 0 0 0 0
          0 0 0 0 0 0
          0 0 0 0 0 0
          0 0 0 0 0 0
          0 0 0 0 0 0
          0 0 0 0 0 0
          0 0 0 0 0 0
          0 0 0 0 0 0
          0 0 0 0 0 0
          0 0 0 0 0 0
          0 0 0 0 0 0
          0 0 0 0 0 0
          0 0 0 0 0 0
          0 0 0 0 0 0
          0 0 0 0 0 0
          0 0 0 0 0 0
          0 0 0 0 0 0
          0 0 0 0 0 0
          0 0 0 0 0 0
          0 0 0 0 0 0
          0 0 0 0 0 0
          0 0 0 0 0 0
          0 0 0 0 0 0
          0 0 0 0 0 0
          0 0 0 0 0 0
          0 0 0 0 0 0
          0 0 0 0 0 0
          0 0 0 0 0 0
          0 0 0 0 0 0
          0 0 0 0 0 0
          0 0 0
        </DataArray>
        <DataArray type="Float64" Name="pe11" format="ascii" RangeMin="0" RangeMax="0.005764274975877158">
          0.003684550195102221 0.0037760099727747833 0.003823727686866182 0.00386086924548555 0.003684462406377844 0.0037759796995267365
          0.003823480365688716 0.003860307311185856 0.0036843746176534672 0.0037759494262786914 0.003823233044511251 0.0038597453768861624
          0.004006220090718107 0.004094877153867415 0.003967110281528501 0.0039567028686373525 0.0040064341163603455 0.004095231481207481
          0.003966488174147328 0.00395604746962682 0.004006648142002584 0.004095585808547547 0.003965866066766155 0.003955392070616287
          0.0038607083032552382 0.0039022171321498444 0.003860046898892016 0.0039015447120357705 0.0038593854945287945 0.003900872291921697
          0.003980672085327359 0.003617878440930262 0.0037599640356207878 0.003980471745427973 0.0036175578055675124 0.0037594200194136377
          0.003980271405528587 0.0036172371702047623 0.0037588760032064867 0.0038115704210585416 0.003776445322706598 0.003776695085685703
          0.003818748610477958 0.003811842007305329 0.0037767923852268736 0.003777304145403511 0.003819408463634199 0.0038121135935521157
          0.0037771394477471494 0.003777913205121318 0.00382006831679044 0.0037340608187023715 0.0037240888743809058 0.003757610792478779
          0.003794899011468065 0.0037343744609378404 0.0037241514583508323 0.0037577488485730573 0.0037949917447257357 0.003734688103173309
          0.0037242140423207584 0.0037578869046673347 0.003795084477983407 0.004187706579760975 0.004467840537732424 0.004258931932964601
          0.004189280683643067 0.004469201963303439 0.0042596552677586046 0.004190854787525157 0.004470563388874453 0.004260378602552609
          0.00343756068862016 0.003437636182089362 0.0034377116755585635 0.004621556611338739 0.0049440642660824345 0.00462217836728491
          0.0049442028406418165 0.004622800123231081 0.004944341415201198 0.0031595126159266827 0.003435363349475564 0.0031597384629979477
          0.003435361161545896 0.0031599643100692133 0.0034353589736162288 0.003982893482459087 0.004210748853649544 0.003984271539347234
          0.004212206526558692 0.003985649596235381 0.00421366419946784 0.003862476545124676 0.0040171797462729975 0.004077732500711278
          0.003880752036595672 0.003863136712753272 0.004018242913652021 0.00407848007292154 0.003881533303867062 0.0038637968803818686
          0.004019306081031045 0.0040792276451318025 0.0038823145711384525 0.005764274975877158 0.005763691045246091 0.005763107114615022
          0.0045199950207873525 0.004521293684060354 0.004522592347333355 0.004106395755740936 0.004107047007383237 0.0041076982590255405
          0.003921570423052907 0.00393946160428648 0.003921269304116943 0.003940036998703029 0.003920968185180979 0.003940612393119578
          0.00552295004352276 0.005142633289607469 0.0048771053745088454 0.005237434374495514 0.00552249838865683 0.005141038466104745
          0.004876323610744135 0.00523761364288175 0.0055220467337909005 0.00513944364260202 0.0048755418469794256 0.0052377929112679845
          0.0038703600876843084 0.0038616114636061466 0.0038701475050811206 0.0038610901095459905 0.0038699349224779332 0.0038605687554858345
          0.004295382266664749 0.004297744243119017 0.004300106219573286 0.003735441336787232 0.003735975524587229 0.0037365097123872263
          0.004622852801712478 0.004442753655110383 0.004624885713093016 0.004445383902278284 0.004626918624473555 0.004448014149446186
          0.00379151852037286 0.0037486339471989013 0.0037916240922140107 0.0037489208709907563 0.0037917296640551617 0.0037492077947826113
          0.004562840745433262 0.004799441198410296 0.004563503114144675 0.004799176852618869 0.004564165482856087 0.004798912506827443
          0.00404860891275088 0.004050306940939656 0.004052004969128432 0.005272146606441946 0.0052711898939309205 0.005270233181419895
          0.0038806118468263165 0.0038817319833860187 0.003882852119945721 0.00465947426708037 0.004660646167955271 0.004661818068830172
          0.004233453120008 0.004235659513388912 0.0042378659067698245 0.003905068652828913 0.00391545236129432 0.00390644670633871
          0.003916848538873734 0.003907824759848506 0.003918244716453148 0.003865033013038609 0.003865384038532014 0.0038657350640254186
          0.0038964015425575847 0.003999270352745449 0.0038973539203132805 0.00400055189461478 0.0038983062980689773 0.004001833436484111
          0.004305703754956241 0.004560414454322616 0.004306537111338302 0.004560969769939947 0.004307370467720365 0.004561525085557279
          0.003824137494516099 0.003780864183065098 0.0038237520200942914 0.003780878993367035 0.003823366545672484 0.003780893803668973
          0.004335914762373677 0.004337360926599752 0.004338807090825827 0.003940739201359348 0.003942150328295501 0.003943561455231654
          0.004913632402658255 0.004914782769432144 0.0049159331362060325 0.003784185891728621 0.0038346678840193165 0.003785114109848056
          0.0038357355029136476 0.003786042327967492 0.003836803121807978 0.003811452402082415 0.003806515660621142 0.0038123669124678645
          0.003807778307095268 0.003813281422853314 0.003809040953569394 0.003750292391564882 0.0037164148864023035 0.0037424492587733644
          0.0037509911772833577 0.003716802557348245 0.003742891134190733 0.003751689963001832 0.0037171902282941874 0.0037433330096081022
          0.003741124478632948 0.0037413517079358145 0.0037415789372386814 0.0043244428870834765 0.004147127323552738 0.00432675411095282
          0.004148755817590092 0.004329065334822163 0.0041503843116274435 0.0038089084385161684 0.0038234311690228313 0.003808854448300604
          0.0038232451496648854 0.00380880045808504 0.003823059130306939 0.003708402373424987 0.0037086543111844125 0.003708906248943838
          0.0038244922097719807 0.0038251986720810437 0.0038259051343901064 0.003975239472116791 0.003976637376767479 0.003978035281418169
          0.0037211573865485693 0.0037059495217913645 0.003721451151768974 0.003706336435585186 0.0037217449169893784 0.003706723349379008
          0.003703745641986108 0.003703877492949817 0.0037040093439135264 0.003758633956274454 0.0037588415116795114 0.0037590490670845684
          0.004053588050721138 0.004054935458119857 0.0040562828655185765 0.003803054509657978 0.0038030474234304968 0.003803040337203016
          0.0038310027823178095 0.003830620027991815 0.00383023727366582 0.0038197970555647175 0.003819549785511714 0.0038193025154587106
          0.0025877193371568862 0.002587629896882445 0.0025875404566080033 0.002988603968500253 0.002988490850937321 0.0029883777333743885
          0.0033369251894796383 0.003336785372317772 0.0033366455551559057 0.0036188982306276005 0.003618751546427732 0.003618604862227864
          0.0037418370980778766 0.0037417090888261168 0.0037415810795743566 0 0 0
          0 0 0 0 0 0
          0 0 0 0 0 0
          0 0 0 0 0 0
          0 0 0 0 0 0
          0 0 0 0 0 0
          0 0 0 0 0 0
          0 0 0 0 0 0
          0 0 0 0 0 0
          0 0 0 0 0 0
          0 0 0 0 0 0
          0 0 0 0 0 0
          0 0 0 0 0 0
          0 0 0 0 0 0
          0 0 0 0 0 0
          0 0 0 0 0 0
          0 0 0 0.000022312851401160523 0.000022446525636303823 0.000022580199871447122
          0 0 0 0 0 0
          0 0 0 0 0 0
          0 0 0 0 0 0
          0 0 0 0.00013538857349072302 0.0001357115387713355 0.00013603450405194799
          0.000012028017460588604 0.00001210245287622398 0.000012176888291859355 0 0 0
          0 0 0 0 0 0
          0 0 0 0 0 0
          0 0 0 0.0010017441500558258 0.0010017932029146432 0.0010018422557734608
          0.00041520676620123245 0.0004155495404059679 0.0004158923146107033 0.00009156028317589637 0.00009182358077959551 0.00009208687838329465
          0.0000017349832277239033 0.0000017817790894205121 0.000001828574951117121 0 0 0
          0 0 0 0 0 0
          0 0 0 0 0 0
          0.0015949292320256473 0.0015945792211749148 0.001594229210324182 0.0008751680736066266 0.0008752739120897623 0.0008753797505728982
          0.00029848256931413753 0.00029895960707798956 0.00029943664484184164 0.000035068321940376834 0.000035304723125168746 0.00003554112430996066
          0 0 0 0 0 0
          0 0 0 0 0 0
          0 0 0 0.002280502487175093 0.0022796880203558192 0.002278873553536545
          0.001466392027316318 0.0014660727027761332 0.0014657533782359486 0.000648350551776879 0.0006488452644783132 0.0006493399771797474
          0.00013620454165624485 0.00013665048142091888 0.00013709642118559293 0 3.588484173126463e-8 7.176968346252926e-8
          0 0 0 0 0 0
          0 0 0 0 0 0
          0.002642417555073792 0.002641376172364852 0.002640334789655912 0.0017867099956427228 0.0017861666359146142 0.0017856232761865052
          0.0008588004963560983 0.0008592135706073901 0.0008596266448586821 0.00020574240588718383 0.0002062550747703413 0.0002067677436534988
          0 7.176968346252926e-8 1.4353936692505853e-7 0 0 0
          0 0 0 0 0 0
          0 0 0 0 0 0
          0 0 0 0 0 0
          0 0 0 0 0 0
          0 0 0 0 0 0
          0 0 0 0 0 0
          0 0 0 0 0 0
          0 0 0 0 0 0
          0 0 0 0 0 0
          0 0 0 0 0 0
          0 0 0 0 0 0
          0 0 0 0 0 0
          0 0 0 0 0 0
          0 0 0 0 0 0
          0 0 0 0 0 0
          0 0 0 0 0 0
          0 0 0 0 0 0
          0 0 0 0 0 0
          0 0 0 0 0 0
          0 0 0 0 0 0
          0 0 0 0 0 0
          0 0 0 0 0 0
          0 0 0 0 0 0
          0 0 0 0 0 0
          0 0 0 0 0 0
          0 0 0 0 0 0
          0 0 0 0 0 0
          0 0 0 0 0 0
          0 0 0 0 0 0
          0 0 0 0 0 0
          0 0 0 0 0 0
          0 0 0 0 0 0
          0 0 0 0 0 0
          0 0 0 0 0 0
          0 0 0 0 0 0
          0 0 0 0 0 0
          0 0 0 0 0 0
          0 0 0 0 0 0
          0 0 0 0 0 0
          0 0 0 0 0 0
          0 0 0 0 0 0
          0 0 0 0 0 0
          0 0 0 0 0 0
          0 0 0 0 0 0
          0 0 0 0 0 0
          0 0 0 0 0 0
          0 0 0
        </DataArray>
        <DataArray type="Float64" Name="pe22" format="ascii" RangeMin="-0.002866594179791211" RangeMax="0">
          -0.001835902393108046 -0.0018851131652240492 -0.001907937722744605 -0.0019241005263190812 -0.0018360832233415669 -0.0018851231542352978
          -0.0019079086330036229 -0.001924085414169955 -0.0018362640535750873 -0.0018851331432465466 -0.0019078795432626407 -0.0019240703020208284
          -0.0019893951433775864 -0.0020252620282595877 -0.00195616663985788 -0.001956222050000504 -0.001989071700698541 -0.0020250423001992616
          -0.0019560609767712888 -0.001956050026274972 -0.0019887482580194966 -0.0020248225721389364 -0.0019559553136846977 -0.00195587800254944
          -0.0019141948582120684 -0.0019392094140816558 -0.001914199975882887 -0.0019390712538316255 -0.001914205093553706 -0.001938933093581595
          -0.0019555248421740316 -0.0017853832717728566 -0.0018597737463420918 -0.001955409386088889 -0.0017854134811603616 -0.0018598103424138377
          -0.001955293930003747 -0.0017854436905478666 -0.001859846938485584 -0.0019039900844499513 -0.001890436191987967 -0.0018867905178404272
          -0.001906506044737981 -0.0019039565020157303 -0.0018903822432041004 -0.0018865260466682787 -0.0019063784178449752 -0.0019039229195815094
          -0.0018903282944202338 -0.0018862615754961297 -0.0019062507909519692 -0.001867819411954 -0.0018609693450106313 -0.0018789326365946943
          -0.0018959220577548508 -0.0018680132140525612 -0.0018610222396922805 -0.0018790021767264625 -0.0018960057811740765 -0.0018682070161511219
          -0.0018610751343739302 -0.0018790717168582307 -0.0018960895045933017 -0.0020748736756685798 -0.0021973552349153504 -0.0020949481628063206
          -0.0020744324784283015 -0.002196800811643811 -0.0020946694813222424 -0.0020739912811880232 -0.0021962463883722716 -0.0020943907998381647
          -0.0017093927037256523 -0.001709649039539085 -0.0017099053753525184 -0.002259302591128576 -0.0024165152657304725 -0.0022592612147702444
          -0.002416110990679291 -0.0022592198384119126 -0.00241570671562811 -0.001567500905360763 -0.0016900444490566598 -0.001567769809858548
          -0.0016900913284389981 -0.001568038714356333 -0.0016901382078213362 -0.001993798593901478 -0.0021122468136275953 -0.001993864971755177
          -0.0021123430436892823 -0.001993931349608876 -0.0021124392737509696 -0.0019285223150929745 -0.0020105108106597174 -0.002044303071194478
          -0.001939500201693308 -0.0019282787359695135 -0.0020102542060255477 -0.0020439239500309224 -0.0019393698876585754 -0.001928035156846052
          -0.002009997601391377 -0.0020435448288673675 -0.0019392395736238417 -0.002866594179791211 -0.002866377628639963 -0.0028661610774887145
          -0.0022745139718168676 -0.0022746039136232825 -0.002274693855429698 -0.002006162363712168 -0.0020062415593635682 -0.0020063207550149688
          -0.0019452201511563599 -0.001961367349601636 -0.0019449149916524557 -0.001960995156455174 -0.0019446098321485518 -0.001960622963308711
          -0.002760838562355018 -0.0025427168213473473 -0.0024172956710283864 -0.002619654679649426 -0.002760960944063331 -0.0025425780886229425
          -0.0024172652800993756 -0.0026199344929197102 -0.002761083325771644 -0.0025424393558985386 -0.002417234889170365 -0.0026202143061899935
          -0.0019264375800951109 -0.0019238490662964681 -0.0019262855563463841 -0.0019237372847796218 -0.0019261335325976574 -0.0019236255032627756
          -0.0021554048260383008 -0.002155477539785999 -0.002155550253533697 -0.0018659281972754974 -0.0018656256697976927 -0.001865323142319888
          -0.0023219108203579044 -0.0022324160617349185 -0.0023213555927882436 -0.0022320602889803736 -0.0023208003652185824 -0.002231704516225829
          -0.0018927978341213587 -0.0018746844686284069 -0.0018926257065714784 -0.0018745321972395434 -0.0018924535790215984 -0.0018743799258506798
          -0.0022608409477126988 -0.00236524851219771 -0.002260573573238108 -0.0023649909161094257 -0.0022603061987635184 -0.002364733320021142
          -0.002025257469494386 -0.0020251794390345797 -0.002025101408574773 -0.0025952361559124027 -0.002594622230117502 -0.0025940083043226015
          -0.0019369153244391036 -0.0019367248948980163 -0.0019365344653569292 -0.0022950403350372106 -0.0022945837975104967 -0.0022941272599837827
          -0.0021257359774317437 -0.002125514808165203 -0.0021252936388986626 -0.001954710075652061 -0.001960123102614847 -0.0019548506667422414
          -0.0019604400417900483 -0.001954991257832422 -0.0019607569809652493 -0.0019222564240119822 -0.001922050061604103 -0.0019218436991962234
          -0.001942529088733382 -0.002000253425835872 -0.0019423607926102936 -0.002000161847800559 -0.0019421924964872046 -0.002000070269765246
          -0.0021511351639639945 -0.002278997843423681 -0.0021505807020330363 -0.002278330982784994 -0.002150026240102078 -0.002277664122146306
          -0.0019062722705289839 -0.001889239508902363 -0.001906102948602018 -0.0018890299912777296 -0.0019059336266750522 -0.0018888204736530966
          -0.0021798747240599726 -0.002179206712335122 -0.0021785387006102706 -0.0019732444975412377 -0.0019735523554874727 -0.0019738602134337082
          -0.0024623206145745315 -0.002462061210718687 -0.0024618018068628435 -0.0018897077827611103 -0.001920669740754839 -0.0018893880802659327
          -0.0019204590597044736 -0.001889068377770755 -0.0019202483786541083 -0.0019090260053898124 -0.0019054290571249482 -0.0019088828418168551
          -0.0019050269874127694 -0.0019087396782438983 -0.001904624917700591 -0.0018755752513936114 -0.0018559068279198317 -0.001870530557012146
          -0.0018752387956050202 -0.00185578330318618 -0.0018702803014246506 -0.0018749023398164292 -0.0018556597784525279 -0.0018700300458371559
          -0.0018687159779740446 -0.001868390363213044 -0.0018680647484520434 -0.0021464410089878905 -0.0020719576769298153 -0.00214617102024453
          -0.0020717369403987916 -0.0021459010315011697 -0.002071516203867768 -0.0019043429142158248 -0.001912266760492546 -0.0019042264010368062
          -0.0019120846282032662 -0.0019041098878577873 -0.0019119024959139864 -0.001851430242382017 -0.0018514364917829327 -0.0018514427411838485
          -0.0019173837696602682 -0.0019172898823696298 -0.001917195995078991 -0.001985263975039645 -0.0019850602327431137 -0.001984856490446583
          -0.0018616025042777612 -0.0018532486286302313 -0.0018615184461217643 -0.0018535252300395447 -0.001861434387965767 -0.0018538018314488579
          -0.0018508041086328975 -0.0018508237681359719 -0.0018508434276390457 -0.0018803939498406364 -0.0018801991379913167 -0.0018800043261419967
          -0.0020207104298444046 -0.0020203970340571488 -0.002020083638269893 -0.0019024792613070176 -0.001902345154395963 -0.0019022110474849084
          -0.0019159418144654432 -0.0019156905590949757 -0.0019154393037245083 -0.0019075118777987059 -0.0019073843143641307 -0.0019072567509295557
          -0.0012666355117832303 -0.0012667404570634374 -0.0012668454023436445 -0.001471074320099759 -0.0014712150372686882 -0.0014713557544376178
          -0.0016514044905416333 -0.0016515202052418086 -0.001651635919941984 -0.0017968573645426526 -0.0017968966440491466 -0.0017969359235556408
          -0.0018593092715197116 -0.001859303957146603 -0.0018592986427734943 0 0 0
          0 0 0 0 0 0
          0 0 0 0 0 0
          0 0 0 0 0 0
          0 0 0 0 0 0
          0 0 0 0 0 0
          0 0 0 0 0 0
          0 0 0 0 0 0
          0 0 0 0 0 0
          0 0 0 0 0 0
          0 0 0 0 0 0
          0 0 0 0 0 0
          0 0 0 0 0 0
          0 0 0 0 0 0
          0 0 0 0 0 0
          0 0 0 0 0 0
          0 0 0 -0.0000087372779521655 -0.0000087801473829655 -0.000008823016813765502
          0 0 0 0 0 0
          0 0 0 0 0 0
          0 0 0 0 0 0
          0 0 0 -0.000054148770738977425 -0.00005422602229155223 -0.000054303273844127026
          -0.000004601310449228953 -0.000004624257929122053 -0.000004647205409015153 0 0 0
          0 0 0 0 0 0
          0 0 0 0 0 0
          0 0 0 -0.0004346042028454299 -0.00043455901723646605 -0.00043451383162750235
          -0.00017124063555330337 -0.00017128834188642137 -0.0001713360482195394 -0.00003660099000749872 -0.00003667726515291226 -0.000036753540298325806
          -6.812899328402177e-7 -6.987491346447305e-7 -7.162083364492433e-7 0 0 0
          0 0 0 0 0 0
          0 0 0 0 0 0
          -0.0007201565146295759 -0.0007199605335263386 -0.0007197645524231013 -0.00037955877167462134 -0.00037947185130912697 -0.00037938493094363265
          -0.00012599718718339206 -0.00012610965825169738 -0.0001262221293200027 -0.000014691483177538582 -0.00001477371957478798 -0.000014855955972037382
          0 0 0 0 0 0
          0 0 0 0 0 0
          0 0 0 -0.0010624793831125372 -0.0010619729381161757 -0.0010614664931198144
          -0.0006633074798042687 -0.0006629660288436583 -0.000662624577883048 -0.0002857544844562346 -0.0002858023098962943 -0.0002858501353363541
          -0.00005869965482951404 -0.00005883925822045453 -0.00005897886161139501 0 -1.4727837412288715e-8 -2.945567482457743e-8
          0 0 0 0 0 0
          0 0 0 0 0 0
          -0.0012423768984026733 -0.0012416991048180854 -0.0012410213112334974 -0.0008191557017922777 -0.000818673289024732 -0.0008181908762571863
          -0.00038351395366222475 -0.0003834913177367744 -0.000383468681811324 -0.00008937892316963135 -0.00008952857556062256 -0.00008967822795161374
          0 -2.945567482457743e-8 -5.891134964915486e-8 0 0 0
          0 0 0 0 0 0
          0 0 0 0 0 0
          0 0 0 0 0 0
          0 0 0 0 0 0
          0 0 0 0 0 0
          0 0 0 0 0 0
          0 0 0 0 0 0
          0 0 0 0 0 0
          0 0 0 0 0 0
          0 0 0 0 0 0
          0 0 0 0 0 0
          0 0 0 0 0 0
          0 0 0 0 0 0
          0 0 0 0 0 0
          0 0 0 0 0 0
          0 0 0 0 0 0
          0 0 0 0 0 0
          0 0 0 0 0 0
          0 0 0 0 0 0
          0 0 0 0 0 0
          0 0 0 0 0 0
          0 0 0 0 0 0
          0 0 0 0 0 0
          0 0 0 0 0 0
          0 0 0 0 0 0
          0 0 0 0 0 0
          0 0 0 0 0 0
          0 0 0 0 0 0
          0 0 0 0 0 0
          0 0 0 0 0 0
          0 0 0 0 0 0
          0 0 0 0 0 0
          0 0 0 0 0 0
          0 0 0 0 0 0
          0 0 0 0 0 0
          0 0 0 0 0 0
          0 0 0 0 0 0
          0 0 0 0 0 0
          0 0 0 0 0 0
          0 0 0 0 0 0
          0 0 0 0 0 0
          0 0 0 0 0 0
          0 0 0 0 0 0
          0 0 0 0 0 0
          0 0 0 0 0 0
          0 0 0 0 0 0
          0 0 0
        </DataArray>
        <DataArray type="Float64" Name="pe33" format="ascii" RangeMin="-0.0028976807960859464" RangeMax="0">
          -0.0018486478019941748 -0.0018908968075507342 -0.0019157899641215762 -0.0019367687191664687 -0.0018483791830362771 -0.0018908565452914392
          -0.0019155717326850927 -0.001936221897015901 -0.00184811056407838 -0.0018908162830321446 -0.0019153535012486095 -0.001935675074865333
          -0.0020168249473405207 -0.002069615125607826 -0.00201094364167062 -0.0020004808186368473 -0.002017362415661804 -0.002070189181008219
          -0.0020104271973760387 -0.0019999974433518473 -0.0020178998839830873 -0.0020707632364086116 -0.0020099107530814576 -0.0019995140680668473
          -0.0019465134450431692 -0.001963007718068188 -0.0019458469230091285 -0.0019624734582041445 -0.0019451804009750881 -0.0019619391983401006
          -0.0020251472431533275 -0.001832495169157405 -0.0019001902892786954 -0.0020250623593390834 -0.0018321443244071502 -0.001899609676999799
          -0.002024977475524839 -0.0018317934796568953 -0.0018990290647209022 -0.0019075803366085907 -0.0018860091307186307 -0.0018899045678452756
          -0.0019122425657399761 -0.0019078855052895981 -0.0018864101420227727 -0.0018907780987352314 -0.0019130300457892231 -0.0019081906739706056
          -0.001886811153326915 -0.0018916516296251871 -0.00191381752583847 -0.0018662414067483711 -0.001863119529370274 -0.0018786781558840844
          -0.001898976953713214 -0.0018663612468852791 -0.001863129218658551 -0.0018787466718465941 -0.0018989859635516596 -0.0018664810870221873
          -0.0018631389079468278 -0.0018788151878091036 -0.0018989949733901053 -0.002112832904092394 -0.0022704853028170735 -0.00216398377015828
          -0.002114848205214764 -0.002272401151659628 -0.0021649857864363617 -0.0021168635063371338 -0.0022743170005021817 -0.002165987802714444
          -0.0017281679848945074 -0.0017279871425502761 -0.001727806300206045 -0.002362254020210162 -0.002527549000351962 -0.002362917152514665
          -0.002528091849962525 -0.002363580284819167 -0.0025286346995730884 -0.001592011710565919 -0.0017453189004189038 -0.0015919686531393994
          -0.0017452698331068975 -0.0015919255957128793 -0.0017452207657948915 -0.0019890948885576093 -0.002098502040021948 -0.001990406567592057
          -0.002099863482869409 -0.0019917182466265048 -0.00210122492571687 -0.0019339542300317006 -0.0020066689356132783 -0.002033429429516799
          -0.0019412518349023623 -0.001934857976783758 -0.0020079887076264735 -0.002034556122890617 -0.0019421634162084865 -0.0019357617235358157
          -0.0020093084796396683 -0.0020356828162644345 -0.0019430749975146106 -0.0028976807960859464 -0.0028973134166061267 -0.0028969460371263073
          -0.0022454810489704845 -0.002246689770437071 -0.0022478984919036575 -0.002100233392028766 -0.0021008054480196685 -0.0021013775040105713
          -0.0019763502718965465 -0.001978094254684844 -0.0019763543124644866 -0.0019790418422478548 -0.0019763583530324268 -0.0019799894298108663
          -0.0027621114811677418 -0.002599916468260121 -0.0024598097034804595 -0.0026177796948460876 -0.002761537444593499 -0.0025984603774818014
          -0.0024590583306447603 -0.0026176791499620392 -0.002760963408019256 -0.0025970042867034804 -0.0024583069578090603 -0.002617578605077991
          -0.0019439225075891975 -0.0019377623973096789 -0.001943861948734736 -0.0019373528247663683 -0.0019438013898802748 -0.0019369432522230584
          -0.002139977440626448 -0.002142266703333019 -0.00214455596603959 -0.0018695131395117346 -0.001870349854789536 -0.0018711865700673375
          -0.002300941981354573 -0.002210337593375464 -0.0023035301203047725 -0.0022133236132979104 -0.002306118259254972 -0.0022163096332203573
          -0.0018987206862515014 -0.0018739494785704938 -0.0018989983856425323 -0.0018743886737512124 -0.001899276085033563 -0.0018748278689319313
          -0.0023019997977205627 -0.0024341926862125854 -0.0023029295409065656 -0.002434185936509443 -0.002303859284092568 -0.002434179186806301
          -0.002023351443256493 -0.002025127501905076 -0.0020269035605536587 -0.002676910450529544 -0.0026765676638134187 -0.0026762248770972937
          -0.0019436965223872129 -0.001945007088488002 -0.001946317654588791 -0.0023644339320431584 -0.002366062370444774 -0.00236769080884639
          -0.002107717142576255 -0.0021101447052237093 -0.0021125722678711632 -0.001950358577176852 -0.0019553292586794724 -0.0019515960395964675
          -0.001956408497083685 -0.0019528335020160832 -0.001957487735487898 -0.0019427765890266267 -0.001943333976927911 -0.001943891364829195
          -0.001953872453824202 -0.0019990169269095766 -0.0019549931277029874 -0.0020003900468142204 -0.0019561138015817725 -0.0020017631667188646
          -0.002154568590992246 -0.0022814166108989344 -0.0021559564093052656 -0.0022826387871549532 -0.0021573442276182856 -0.002283860963410972
          -0.0019178652239871148 -0.0018916246741627347 -0.0019176490714922735 -0.0018918490020893054 -0.001917432918997432 -0.001892073330015876
          -0.0021560400383137043 -0.00215815421426463 -0.002160268390215556 -0.0019674947038181108 -0.001968597972808028 -0.0019697012417979453
          -0.0024513117880837236 -0.0024527215587134563 -0.002454131329343189 -0.0018944781089675097 -0.0019139981432644774 -0.001895726029582123
          -0.0019152764432091732 -0.001896973950196736 -0.001916554743153869 -0.001902426396692603 -0.0019010866034961937 -0.001903484070651009
          -0.0019027513196824982 -0.001904541744609415 -0.0019044160358688026 -0.00187471714017127 -0.0018605080584824713 -0.0018719187017612183
          -0.0018757523816783357 -0.0018610192541620653 -0.001872610832766082 -0.0018767876231854017 -0.0018615304498416593 -0.0018733029637709462
          -0.001872408500658904 -0.001872961344722771 -0.001873514188786638 -0.002178001878095586 -0.0020751696466229223 -0.002180583090708289
          -0.0020770188771912987 -0.0021831643033209925 -0.0020788681077596747 -0.0019045655243003436 -0.001911164408530285 -0.0019046280472637981
          -0.001911160521461619 -0.0019046905702272527 -0.0019111566343929531 -0.00185697213104297 -0.0018572178194014794 -0.0018574635077599883
          -0.0019071084401117125 -0.0019079087897114135 -0.0019087091393111147 -0.0019899754970771452 -0.001991577144024365 -0.0019931787909715846
          -0.0018595548822708079 -0.0018527008931611328 -0.0018599327056472098 -0.0018528112055456413 -0.0018603105290236118 -0.00185292151793015
          -0.0018529415333532102 -0.0018530537248138447 -0.001853165916274479 -0.001878240006433818 -0.0018786423736881948 -0.0018790447409425715
          -0.002032877620876732 -0.0020345384240627084 -0.0020361992272486837 -0.0019005752483509603 -0.001900702269034534 -0.0019008292897181077
          -0.0019150609678523652 -0.0019149294688968388 -0.0019147979699413124 -0.0019122851777660114 -0.0019121654711475836 -0.0019120457645291555
          -0.001321083825373656 -0.0013208894398190072 -0.0013206950542643584 -0.0015175296484004938 -0.0015172758136686323 -0.0015170219789367705
          -0.001685520698938005 -0.0016852651670759631 -0.0016850096352139213 -0.0018220408660849477 -0.0018218549023785854 -0.0018216689386722229
          -0.0018825278265581645 -0.001882405131679513 -0.0018822824368008614 0 0 0
          0 0 0 0 0 0
          0 0 0 0 0 0
          0 0 0 0 0 0
          0 0 0 0 0 0
          0 0 0 0 0 0
          0 0 0 0 0 0
          0 0 0 0 0 0
          0 0 0 0 0 0
          0 0 0 0 0 0
          0 0 0 0 0 0
          0 0 0 0 0 0
          0 0 0 0 0 0
          0 0 0 0 0 0
          0 0 0 0 0 0
          0 0 0 0 0 0
          0 0 0 -0.000013575573448995023 -0.000013666378253338324 -0.000013757183057681622
          0 0 0 0 0 0
          0 0 0 0 0 0
          0 0 0 0 0 0
          0 0 0 -0.00008123980275174557 -0.00008148551647978325 -0.00008173123020782094
          -0.00000742670701135965 -0.000007478194947101925 -0.0000075296828828442 0 0 0
          0 0 0 0 0 0
          0 0 0 0 0 0
          0 0 0 -0.0005671399472103958 -0.000567234185678177 -0.0005673284241459583
          -0.00024396613064792908 -0.00024426119851954646 -0.00024455626639116384 -0.000054959293168397646 -0.00005514631562668324 -0.00005533333808496884
          -0.0000010536932948836857 -0.0000010830299547757815 -0.0000011123666146678774 0 0 0
          0 0 0 0 0 0
          0 0 0 0 0 0
          -0.0008747727173960715 -0.0008746186876485761 -0.0008744646579010807 -0.0004956093019320052 -0.0004958020607806353 -0.0004959948196292655
          -0.00017248538213074545 -0.00017284994882629215 -0.00017321451552183888 -0.00002037683876283824 -0.000020531003550380757 -0.00002068516833792327
          0 0 0 0 0 0
          0 0 0 0 0 0
          0 0 0 -0.0012180231040625558 -0.0012177150822396433 -0.0012174070604167309
          -0.0008030845475120492 -0.0008031066739324749 -0.0008031288003529006 -0.00036259606732064425 -0.0003630429545820187 -0.00036348984184339316
          -0.0000775048868267308 -0.00007781122320046435 -0.00007811755957419792 0 -2.1157004318975912e-8 -4.2314008637951824e-8
          0 0 0 0 0 0
          0 0 0 0 0 0
          -0.0014000406566711183 -0.0013996770675467666 -0.0013993134784224149 -0.0009675542938504451 -0.0009674933468898821 -0.000967432399929319
          -0.00047528654269387346 -0.00047572225287061565 -0.0004761579630473578 -0.0001163634827175525 -0.00011672649920971878 -0.00011708951570188503
          0 -4.2314008637951824e-8 -8.462801727590365e-8 0 0 0
          0 0 0 0 0 0
          0 0 0 0 0 0
          0 0 0 0 0 0
          0 0 0 0 0 0
          0 0 0 0 0 0
          0 0 0 0 0 0
          0 0 0 0 0 0
          0 0 0 0 0 0
          0 0 0 0 0 0
          0 0 0 0 0 0
          0 0 0 0 0 0
          0 0 0 0 0 0
          0 0 0 0 0 0
          0 0 0 0 0 0
          0 0 0 0 0 0
          0 0 0 0 0 0
          0 0 0 0 0 0
          0 0 0 0 0 0
          0 0 0 0 0 0
          0 0 0 0 0 0
          0 0 0 0 0 0
          0 0 0 0 0 0
          0 0 0 0 0 0
          0 0 0 0 0 0
          0 0 0 0 0 0
          0 0 0 0 0 0
          0 0 0 0 0 0
          0 0 0 0 0 0
          0 0 0 0 0 0
          0 0 0 0 0 0
          0 0 0 0 0 0
          0 0 0 0 0 0
          0 0 0 0 0 0
          0 0 0 0 0 0
          0 0 0 0 0 0
          0 0 0 0 0 0
          0 0 0 0 0 0
          0 0 0 0 0 0
          0 0 0 0 0 0
          0 0 0 0 0 0
          0 0 0 0 0 0
          0 0 0 0 0 0
          0 0 0 0 0 0
          0 0 0 0 0 0
          0 0 0 0 0 0
          0 0 0 0 0 0
          0 0 0
        </DataArray>
        <DataArray type="Float64" Name="disp_x" format="ascii" RangeMin="0.00010868095134304966" RangeMax="0.00020000000000000004">
          0.00014527307073658886 0.00014119061806019238 0.0001356855576900505 0.00013668642720832038 0.0001452719082023943 0.0001411903970573094
          0.00013568485377655156 0.0001366856216421339 0.00014526852587398194 0.00014118999683094928 0.00013568295209559212 0.00013668324185302333
          0.00013282323849960907 0.0001348216869333292 0.00013959941433830007 0.00013649668638914434 0.00013282333765543268 0.0001348211914958828
          0.00013959856479387877 0.00013649637520778333 0.00013282359778053968 0.00013481966774690833 0.0001395963440261011 0.00013649608526077926
          0.00014037087476949703 0.00013527970495833585 0.0001403699448887159 0.0001352797736206728 0.00014036661083237449 0.00013527984039368694
          0.00014200313383822466 0.00014764074022659724 0.00014440033516603754 0.00014200195161942646 0.00014763798293699644 0.00014439852546100032
          0.0001419989362978755 0.00014762958142330287 0.00014439248704904508 0.00012616623556938814 0.00012333772986828804 0.00012067399881826855
          0.0001247929797394973 0.00012616658019717417 0.00012333794542901085 0.00012067376375568108 0.00012479302317404436 0.0001261677071783498
          0.00012333848255661114 0.00012067338415952041 0.00012479334085227473 0.00012503099368083408 0.00012212976919795678 0.0001228772445931883
          0.00012678225933261436 0.0001250307662835279 0.0001221295360977225 0.00012287759241942883 0.00012678271358266836 0.00012503043949738135
          0.00012212927932722157 0.00012287818955098053 0.00012678389759982657 0.00013033245532493028 0.00013074522122431717 0.00013621022488932762
          0.00013033167536846807 0.00013074270018963188 0.00013620888051026623 0.0001303294506315984 0.00013073620164757104 0.0001362037996069397
          0.00014906271407811033 0.00014906116392416466 0.0001490563670152477 0.00013644567861831428 0.00013036491133443015 0.00013644216465042436
          0.0001303614162137921 0.0001364306119181152 0.00013035078009234963 0.00015256016845869335 0.00015063721834439363 0.00015255809355880947
          0.00015063414458834235 0.00015255159682324806 0.00015062456497807016 0.0001123227744098323 0.00011045507056543602 0.00011232074189661921
          0.00011045242038229216 0.00011231477838716994 0.00011044453435607381 0.00011903506143550249 0.00011697509402443625 0.00012085906099675791
          0.00012299082810409472 0.00011903442072663251 0.0001169741385983206 0.00012085776867694942 0.00012299025993401305 0.00011903227575831422
          0.00011697125226040182 0.00012085423309984419 0.00012298842290342732 0.00011806800929223707 0.00011806624901360871 0.00011806041027465238
          0.00010869691668498453 0.00010869297381271307 0.00010868095134304966 0.00014409968062472766 0.00014409669261650375 0.00014408808396918507
          0.00013281066921997888 0.0001303101828148853 0.00013281115512700793 0.0001303104456971697 0.00013281198597374195 0.00013031147059977367
          0.00011680611495918161 0.0001206967155352176 0.00011917782282426459 0.00011539293537485314 0.00011680424029863288 0.00012069353188664751
          0.0001191745216962896 0.00011539037634104716 0.0001167994003688373 0.00012068638966375222 0.00011916459975776048 0.00011538308239481412
          0.00013044026451838127 0.0001313862734264744 0.0001304408298625735 0.00013138669055089093 0.00013044224809049038 0.0001313876404329647
          0.00011193207465438898 0.00011192912609185024 0.00011191991685707413 0.00011972111651939856 0.00011972118379850865 0.00011972153489697878
          0.00011342467313481284 0.00011286283725907405 0.00011342147654536094 0.00011285993896282485 0.00011341156382406829 0.00011285016568484756
          0.0001287089585366848 0.00012767573494370206 0.00012870956334539677 0.0001276761641387744 0.00012871005460574962 0.00012767712730024522
          0.00012263995123045827 0.00012314890792699783 0.00012263616725785695 0.00012314541413334962 0.00012262387165077392 0.00012312953449126785
          0.00011373596519241432 0.00011373439801520132 0.00011372992799833643 0.00012401669917970343 0.0001240134727213679 0.00012400278004085822
          0.00011550255047974664 0.00011550172422743385 0.00011549887278617948 0.00012617955070571218 0.00012617584507644325 0.00012616283366296603
          0.00011464358670364066 0.00011464175114686345 0.00011463666752382263 0.00011117448033840683 0.00011131138775244478 0.00011117018891104744
          0.00011131032430160218 0.00011116582121998058 0.00011130642109591952 0.00012885123381747656 0.00012885190164342868 0.00012885323276821844
          0.00012697350680897291 0.00012571776801529024 0.0001269737567625828 0.0001257168862762597 0.00012697403412315802 0.00012571360745490133
          0.00012182237748228303 0.00011805804498297756 0.00012182040753968624 0.00011805555814210375 0.00012181471486650014 0.00011804793475171699
          0.00013142558499034835 0.0001305105585801181 0.00013142586718686733 0.00013051087930848705 0.00013142581072165846 0.00013051167023563656
          0.0001166656931412519 0.00011666399521647774 0.0001166584125850856 0.00011157779078393353 0.00011157739971776756 0.00011157308799053666
          0.00011429665289717661 0.00011429356868196946 0.00011428329395093287 0.00011663769583526098 0.00011440208927512337 0.00011663729024801993
          0.00011440104767590819 0.00011663562748386308 0.00011439764863195839 0.00011389502524182253 0.0001138038547781221 0.00011389388182738261
          0.00011380593748083767 0.00011389175050373878 0.00011380442262203085 0.00011683414573480108 0.0001193159926195196 0.00011656667496955957
          0.00011683385457675845 0.00011931634818421797 0.00011656609859073214 0.00011683226525623489 0.00011931663964229568 0.0001165642462417357
          0.00011640105832369781 0.0001164013635769589 0.00011640016286607568 0.00012627668944059233 0.00012574213005806987 0.0001262745883397567
          0.00012574076945194316 0.00012626784732285435 0.00012573580664865952 0.00013350752793291667 0.00013498322437135532 0.00013350781233622988
          0.000134983445656124 0.00013350810021021053 0.00013498372725406194 0.00011896831563166051 0.0001189679131738725 0.00011896661973638917
          0.00011417823637734314 0.00011417780576141869 0.00011417587053971141 0.0001284884359895613 0.00012848863764498223 0.00012848820798139855
          0.00012662188220568193 0.00012407254477906688 0.00012662256478739424 0.0001240728754854789 0.00012662363344277176 0.00012407298121493857
          0.00012152316706092353 0.00012152314498808616 0.0001215223650411392 0.00012918615661260298 0.00012918639111529856 0.00012918766151728863
          0.00012936671749775965 0.0001293665608208556 0.0001293647409734181 0.00013177773697488324 0.00013177925374110934 0.00013178141597537083
          0.00013440249870480918 0.00013440305886292095 0.00013440496728103584 0.00013705346577321074 0.00013705370389581288 0.0001370538163761601
          0.00015958705091029019 0.00015958538781594931 0.00015958044918491887 0.0001566814775722802 0.0001566802012427413 0.000156676270542627
          0.0001533177334645097 0.0001533168416505763 0.00015331400152702145 0.0001495847611881876 0.00014958432275307418 0.0001495827740375402
          0.00014565194957687677 0.00014565201631031922 0.00014565196798169537 0.00017507525023967988 0.00017502648962296088 0.00017507514918768623
          0.00017502638813037395 0.0001750748113823026 0.00017502609407636278 0.00017695195609433392 0.00017688637311924694 0.0001769518998496027
          0.00017688632178267252 0.00017695174597753382 0.00017688617257110388 0.00017882554547904125 0.00017874598732162697 0.00017882544996084638
          0.00017874589730023385 0.00017882516247231484 0.0001787456223951022 0.0001807014027507669 0.00018061246581916574 0.00018070130257947787
          0.0001806123700532138 0.00018070100837696415 0.00018061208777503184 0.00018258128325729595 0.00018248853400947598 0.00018258118165424744
          0.0001824884355373855 0.0001825808787033931 0.0001824881427085913 0.00018446324942624157 0.00018437359405629056 0.0001844631504639964
          0.00018437349737691894 0.00018446285578535906 0.0001843732146806433 0.00018634344063904687 0.00018626498422456744 0.0001863433528522468
          0.00018626489459136247 0.00018634308661991404 0.0001862646311505424 0.00018821729896135932 0.00018815923761943587 0.0001882172182186461
          0.00018815916221220092 0.00018821697769885515 0.00018815892976770327 0.00017517313021556734 0.00017517309671276297 0.0001751730011554754
          0.0001770833205285523 0.00017708322162010248 0.000177082920209396 0.00017898358540117804 0.00017898348226472085 0.00017898318876274775
          0.00018088111592290393 0.00018088100438126505 0.0001808806691587067 0.00018277561829692658 0.0001827755085991968 0.00018277518229779644
          0.00018466349652323372 0.0001846633910958674 0.00018466307346178644 0.00018653917117594584 0.00018653907849524445 0.00018653879924128482
          0.00018839643795364084 0.00018839635943708723 0.00018839611304293302 0.00017534062788113623 0.0001753406526624919 0.00017534075260382007
          0.00017729559423242276 0.0001772954457214004 0.00017729497649855857 0.00017923650189186543 0.00017923638996588897 0.00017923606955824368
          0.00018116787263577704 0.00018116773975841 0.000181167341508188 0.00018308728269507922 0.00018308716146417885 0.00018308679779815106
          0.00018498903882535313 0.0001849889213227714 0.00018498856629600767 0.00018686561347195404 0.00018686551719434305 0.00018686522476047898
          0.00018870917060520505 0.00018870908188277125 0.00018870881681402857 0.0001756021301187324 0.0001756020067550371 0.00017560169452682188
          0.0001776164774785869 0.00017761641213548897 0.0001776162160575198 0.0001796118252169622 0.00017961162945873176 0.00017961103159258693
          0.00018158852445454435 0.00018158838633130218 0.00018158798843238494 0.00018354157709269864 0.00018354143310508734 0.00018354099621375688
          0.00018546257847228107 0.00018546244399323734 0.00018546204625772704 0.00018734296689206103 0.000187342861560749 0.00018734254986923097
          0.00018917337832074707 0.0001891732836729669 0.00018917300401269737 0.00017599805527393356 0.00017599713567171765 0.00017599439451721632
          0.00017808626743731656 0.00017808614544407122 0.00017808583074100263 0.00018014872019976293 0.00018014856303965845 0.0001801480824508518
          0.00018218072226932445 0.0001821805232271998 0.0001821799280637459 0.0001841709472348225 0.00018417079429031532 0.00018417034142224418
          0.00018611265928206394 0.00018611250116906932 0.0001861120247711828 0.00018799537787503141 0.00018799526413659938 0.00018799492517490338
          0.00018980876462799625 0.00018980866186901134 0.00018980835079309886 0.00017328552778458827 0.00017328291047965976 0.00017327501619292444
          0.00017639577939372234 0.0001763938659643841 0.0001763880758932531 0.0001787731489428294 0.00017877234187838132 0.00017876991433577702
          0.00018089992370006556 0.0001808997586465966 0.00018089932323915925 0.00018298506598234576 0.00018298488054494698 0.00018298430137502785
          0.00018501366037908452 0.00018501346859230817 0.00018501289808279094 0.00018697109301989896 0.00018697091626737242 0.00018697037962104332
          0.0001888477162351442 0.00018884760746508262 0.00018884728827211862 0.00019063149967341777 0.00019063140194732273 0.00019063111670946208
          0.00017266726481899512 0.00017266456231714844 0.00017265647095683677 0.00017668710755205447 0.00017668426067479715 0.00017667572244073936
          0.00017963867386076336 0.0001796367738502404 0.00017963102494217832 0.00018191021712950573 0.00018190973779506125 0.00018190831407397028
          0.00018404946375195555 0.00018404939072768953 0.0001840491949600142 0.0001861110171507101 0.00018611077415668618 0.00018611002319628972
          0.0001880729951134333 0.00018807277192849542 0.00018807210051440963 0.00018992593467393742 0.0001899257771167367 0.0001899252950796263
          0.00019164817409399483 0.00019164803981658253 0.00019164763029800292 0.00017169262103163119 0.00017168977481877242 0.0001716812049057632
          0.00017684400808493537 0.00017684043773378533 0.00017682969587372058 0.00018056673816076955 0.00018056379831438336 0.00018055500777103284
          0.0001832157287844047 0.00018321450633868142 0.00018321085512585514 0.0001854184693509506 0.0001854182903654477 0.00018541782291152793
          0.00018750991364707072 0.000187509726378503 0.0001875091565381369 0.00018947218135906185 0.00018947186717129663 0.00018947091380818227
          0.0001912577532691694 0.00019125769116165768 0.00019125755480261294 0.00019283105936719212 0.000192830994989656 0.00019283080985279687
          0.0001703993242241576 0.00017039634450135774 0.00017038744579108827 0.00017686969088839908 0.00017686519684167478 0.00017685158376750691
          0.0001815633786997128 0.0001815590366992286 0.0001815458765962021 0.00018477180120351404 0.00018476954573459986 0.00018476256838502553
          0.00018713232991309967 0.00018713196131092972 0.0001871308716255475 0.00018932168678194717 0.0001893214456395965 0.00018932075524189198
          0.00019129272015206604 0.00019129210424811114 0.0001912901817154367 0.00019291645773485542 0.0001929161916516072 0.00019291539960336997
          0.0001940738365448168 0.0001940738043125386 0.00019407369296505687 0.00018948370123334028 0.00018953776987290302 0.00018948363051149637
          0.00018953769824419083 0.00018948342108810465 0.00018953748267766133 0.00018970378860949267 0.00018970371308171796 0.00018970348538187897
          0.0001899916200028776 0.00018999153777288452 0.00018999129084593106 0.0001904149935912007 0.0001904149035195548 0.00019041463043708185
          0.00019098758634651314 0.00019098748966262243 0.00019098719515420578 0.00019171721207963016 0.000191717104374144 0.00019171676481434467
          0.00019259250095891772 0.0001925924049569752 0.00019259211372463315 0.0001935638713081051 0.0001935637307762021 0.00019356325032654622
          0.0001943525828846789 0.0001943528881460316 0.0001943538209434672 0.00019080691426964514 0.00019085617496966177 0.00019080684916743539
          0.00019085611307280293 0.0001908066601030748 0.00019085592588116818 0.00019100682531402783 0.00019100676182764946 0.00019100657259398806
          0.0001912665028818429 0.00019126643891388226 0.00019126624840277062 0.00019164549441273224 0.0001916454323234972 0.0001916452473353034
          0.00019215261964659623 0.00019215256636205398 0.0001921524058035559 0.0001927880673767426 0.00019278802818199726 0.00019278791749319297
          0.00019352985198057665 0.00019352986411929005 0.00019352992252586935 0.00019429598513392993 0.00019429607786907693 0.00019429638796443797
          0.0001948018068328791 0.00019480234284060922 0.00019480403000466902 0.0001921279640735583 0.00019217171481423893 0.0001921279111705311
          0.0001921716612371618 0.00019212774766837285 0.00019217150011383897 0.00019230502129221423 0.00019230496650962488 0.00019230480370453887
          0.00019253368272571396 0.00019253362836891476 0.00019253346395766105 0.00019286517890354008 0.0001928651267282769 0.00019286496699380838
          0.00019330431617891177 0.00019330427109156593 0.00019330413032388874 0.00019384570565268307 0.0001938456782562066 0.00019384559052051513
          0.0001944583207444635 0.0001944583279503073 0.00019445834027632144 0.0001950470314335514 0.00019504711923356308 0.00019504736171526078
          0.00019538100113594478 0.0001953812389892851 0.00019538189867646786 0.00019344631961304822 0.00019348388383299623 0.00019344627646195872
          0.00019348383804026163 0.00019344613997527056 0.00019348370305080883 0.0001935980338270014 0.0001935979885696697 0.00019359785547032912
          0.0001937930487528559 0.00019379300522173937 0.00019379287559214125 0.0001940740989852895 0.00019407406010358956 0.00019407394160971735
          0.00019444292464288599 0.0001944428936664247 0.00019444280365963273 0.00019489019305720225 0.00019489018064888553 0.0001948901465385964
          0.0001953804453587029 0.00019538046928628148 0.0001953805456848949 0.00019582358294033275 0.0001958236702844268 0.00019582393673857988
          0.00019604693015300707 0.00019604712365945236 0.00019604773129171938 0.00019476174131469607 0.00019479251600587215 0.0001947617083892646
          0.00019479248159281944 0.00019476160187835244 0.00019479237502971768 0.00019488591033952257 0.00019488587433062684 0.00019488576896343728
          0.0001950449483776275 0.00019504491510077742 0.00019504481419291972 0.00019527298061367354 0.00019527295189812266 0.00019527286475627548
          0.0001955695993198475 0.0001955695782922284 0.00019556951683926131 0.00019592366430517633 0.00019592366015919662 0.00019592364758384858
          0.00019630086723333145 0.00019630089404332524 0.00019630096792016183 0.00019662566056490222 0.00019662573473075318 0.00019662594774522138
          0.00019677494068348243 0.0001967750720741439 0.00019677545383817472 0.0001960743032135533 0.00019609780879558612 0.00019607427756965543
          0.0001960977826384275 0.000196074195331055 0.0001960977016046183 0.00019616908649530885 0.00019616906028716084 0.0001961689817561221
          0.00019629018554301016 0.00019629016142005403 0.0001962900885190127 0.00019646306876413405 0.00019646304816136055 0.00019646298721410037
          0.0001966862049945824 0.00019668619087415178 0.0001966861525236784 0.00019694893247557672 0.00019694893291918235 0.00019694893309390885
          0.00019722246003525494 0.00019722248424428875 0.00019722255030396168 0.0001974495908931219 0.0001974496465939482 0.00019744980742225727
          0.00019754674942650574 0.00019754683884223615 0.00019754710698377444 0.0001973844031165448 0.00019740027435338346 0.00019738438684327708
          0.0001974002580109571 0.00019738433406216402 0.00019740020571732902 0.00019744837723245157 0.0001974483610354282 0.00019744830970516478
          0.00019752999670051438 0.0001975299816108056 0.00019752993446782964 0.00019764612853799996 0.0001976461147803513 0.00019764607603304919
          0.00019779509899013232 0.00019779509075109933 0.00019779506835728225 0.0001979686750448473 0.00019796867742727595 0.00019796868197719715
          0.00019814639512012253 0.00019814641392452043 0.0001981464617327028 0.00019829032229234708 0.0001982903600354772 0.000198290466254654
          0.00019834873982435327 0.0001983487977393657 0.00019834896426593925 0.00019869269300101398 0.0001987006873227071 0.00019869268622420004
          0.00019870067954893294 0.00019869266109947704 0.00019870065370604825 0.00019872490433827067 0.0001987248972490216 0.00019872487227649025
          0.00019876598486058593 0.00019876597768493046 0.00019876595478508842 0.0001988243094281041 0.00019882430305630624 0.00019882428449879774
          0.00019889883686788627 0.00019889883226813321 0.00019889882159553133 0.00019898510354120615 0.00019898510609678684 0.00019898511027447872
          0.00019907254814426352 0.00019907255994626964 0.0001990725866651096 0.00019914233650614285 0.00019914235606999925 0.00019914240959783885
          0.0001991697581594616 0.0001991697876324251 0.00019916986958096782 0.00020000000000000004 0.00020000000000000004 0.00020000000000000004
          0.00020000000000000004 0.00020000000000000004 0.00020000000000000004 0.00020000000000000004 0.00020000000000000004 0.00020000000000000004
          0.00020000000000000004 0.00020000000000000004 0.00020000000000000004 0.00020000000000000004 0.00020000000000000004 0.00020000000000000004
          0.00020000000000000004 0.00020000000000000004 0.00020000000000000004 0.00020000000000000004 0.00020000000000000004 0.00020000000000000004
          0.00020000000000000004 0.00020000000000000004 0.00020000000000000004 0.00020000000000000004 0.00020000000000000004 0.00020000000000000004
          0.00020000000000000004 0.00020000000000000004 0.00020000000000000004
        </DataArray>
        <DataArray type="Float64" Name="disp_y" format="ascii" RangeMin="-0.000038538094768185306" RangeMax="0">
          -0.00001771652870696689 -0.00002098312688858765 -0.000024198648902380642 -0.000023073100578949047 -0.000017715968756084082 -0.000020982843487357983
          -0.000024199005730230695 -0.000023073515590177493 -0.000017714240021691853 -0.000020981858302153103 -0.000024200079594326558 -0.00002307452692752383
          -0.000023283284835988573 -0.000021432265717110577 -0.000019038149724067484 -0.00002155666440876984 -0.00002328405651819809 -0.00002143296843582925
          -0.00001903824454995595 -0.000021557080105516686 -0.00002328646198345362 -0.000021434821259893982 -0.000019038454536596902 -0.00002155804943618295
          -0.000019827006389256747 -0.000023275732663618925 -0.000019826871258996663 -0.000023275917193987657 -0.000019826793778247166 -0.000023276929224692728
          -0.00001671121664482627 -0.000013943766509213342 -0.00001675056635144241 -0.000016711037310344335 -0.000013943163027538216 -0.000016750132233431782
          -0.00001671068748089626 -0.000013941100568736255 -0.00001674911252959445 -0.000029091096342080452 -0.000030841496182221 -0.000032107993534533056
          -0.000029432930615258806 -0.000029091482499977604 -0.00003084184889078395 -0.000032108481632699914 -0.000029433554558615135 -0.00002909262040715646
          -0.00003084274015230205 -0.000032109927209039643 -0.00002943504116356215 -0.00003072246603875718 -0.000032292753177298526 -0.00003144036008675715
          -0.000029261621363316374 -0.00003072314943164283 -0.00003229325630676149 -0.00003144069339699334 -0.000029262155263719113 -0.000030725170984345885
          -0.00003229467515752493 -0.000031441621119334404 -0.000029263907893265688 -0.000023722148302292333 -0.000022497167431768616 -0.000019697878201879603
          -0.00002372366841313596 -0.000022499602073284677 -0.000019699157592991732 -0.00002372818529200792 -0.000022507048347881247 -0.000019702980667209526
          -0.000014550652646052878 -0.000014549589301835819 -0.000014546453885362454 -0.00001831093556701179 -0.00002124495379185539 -0.000018313337901522012
          -0.00002124803991827283 -0.00001832110298678344 -0.00002125836039054974 -0.000011564754022098242 -0.000011212100200341135 -0.000011563485961247967
          -0.00001121123225027537 -0.000011559833275021697 -0.00001120887573997005 -0.00003656846468705676 -0.000037010917272766884 -0.00003656844676601728
          -0.00003701134848999654 -0.000036568375404546865 -0.00003701201697181642 -0.00003244989491565494 -0.00003301402112375903 -0.000030393033566613758
          -0.000029964188133494833 -0.000032450511328302964 -0.00003301501330698147 -0.000030394129795609313 -0.000029964715546094486 -0.00003245258072332205
          -0.00003301808169590954 -0.000030397349828002934 -0.000029966454400282278 -0.000024916750380896596 -0.00002491907261790274 -0.000024926542817430095
          -0.00003726478585407312 -0.000037265508634891167 -0.00003726804298842751 -0.000014210381185201713 -0.000014210567205028339 -0.000014211113129157684
          -0.00002419788088956483 -0.000025205697665323777 -0.000024198186333828044 -0.00002520635314800563 -0.00002419949856687456 -0.000025208133101640146
          -0.000027274873882401037 -0.000026753928759221975 -0.00002864582749201294 -0.000029531697393662905 -0.000027276975278961622 -0.000026756433346391166
          -0.000028649124652050234 -0.000029534172810649202 -0.00002728271136644241 -0.00002676300342291726 -0.00002866061094404231 -0.00002954181319629434
          -0.000026409977626549522 -0.000026371937196013573 -0.000026410347161648285 -0.000026372302426001892 -0.00002641145223245698 -0.000026373517934204337
          -0.000035410129427131266 -0.00003541102197155423 -0.000035413839182337154 -0.00003316298487487815 -0.0000331630407562506 -0.00003316375408196012
          -0.00003317146437624212 -0.000034118392796093605 -0.00003317371509332621 -0.00003411966354277981 -0.00003318074017644388 -0.000034124279291190124
          -0.00002840727507760043 -0.000029280059615463852 -0.000028407782729712606 -0.000029280892429008172 -0.000028409945024238404 -0.00002928357842384034
          -0.000027419716250319027 -0.00002632818715521561 -0.000027422384196872164 -0.000026330732354641927 -0.00002743120202309593 -0.000026338715772734514
          -0.000035061855397287964 -0.00003506261728207201 -0.00003506481432632664 -0.000024023144487318872 -0.000024026044485927315 -0.00002403412950626066
          -0.00003462499318416592 -0.00003462537796913454 -0.00003462696999981444 -0.000024773402722395476 -0.000024775746037533615 -0.000024783360945537744
          -0.00003367495146304661 -0.00003367606568816415 -0.00003367923725587439 -0.00003853712154907715 -0.00003807027959282181 -0.000038538094768185306
          -0.00003806989602360202 -0.00003853769966636572 -0.00003806869505070669 -0.000026838598193278064 -0.000026838903109949803 -0.00002684024823927285
          -0.00002743273392812239 -0.000027591841211131644 -0.000027433189831684548 -0.000027592719787028076 -0.00002743464764589449 -0.00002759541812214273
          -0.00002881351792894101 -0.000030381181528086775 -0.0000288152517471134 -0.00003038410268631751 -0.000028820512782671246 -0.00003039310383785472
          -0.000026772838147775414 -0.000027664509307585206 -0.000026773245184358316 -0.000027665172601492418 -0.00002677488023007159 -0.00002766724714956787
          -0.0000320392620607396 -0.00003204095088162182 -0.000032046038768848244 -0.000037511073335871935 -0.00003751026088097334 -0.00003750927616866816
          -0.00003154647048894493 -0.00003154938406476978 -0.00003155870321911117 -0.00003443393619192812 -0.000035742087070196496 -0.000034434199722610204
          -0.00003574238758838113 -0.0000344354115368059 -0.000035743093538389545 -0.000036712414599106765 -0.000037142896080201635 -0.00003671182144927034
          -0.00003714191529066803 -0.00003671151667772752 -0.000037139667591700784 -0.0000347341583065158 -0.000033811248767068914 -0.00003528306283809403
          -0.000034734135212391674 -0.00003381120519125766 -0.00003528322281462446 -0.000034734183931821905 -0.00003381156177347327 -0.00003528235916825714
          -0.00003576677292166083 -0.00003576715829969929 -0.0000357671510128401 -0.000025724841490562835 -0.0000268588353340309 -0.000025726613603170943
          -0.000026859859962906714 -0.000025731211794913704 -0.00002686286852888537 -0.00002591862020466166 -0.000025151319389541894 -0.000025918758052522553
          -0.000025151339483079482 -0.000025919495908015018 -0.000025151032891667322 -0.000034408276073717204 -0.00003440819903382815 -0.00003440886675119793
          -0.00003616728809251943 -0.000036167317013735495 -0.00003616709067197652 -0.000025929495327240594 -0.000025930034695312006 -0.00002593229936918117
          -0.000030223673471177906 -0.00003164358570896962 -0.000030224098552869103 -0.000031644305508936614 -0.000030226448661963 -0.00003164661868729631
          -0.000033035850745537946 -0.00003303630268334543 -0.00003303820730553914 -0.000028775630686248928 -0.00002877632912419894 -0.000028778778593003815
          -0.000024990789081291796 -0.000024991535735548492 -0.000024994827433942593 -0.000027293307054960655 -0.0000272932472811024 -0.000027294394003922953
          -0.00002580166648767365 -0.000025800890792348207 -0.00002579940699964988 -0.000024309497877864743 -0.000024308820050522915 -0.000024307203976062257
          -0.000007850892597116208 -0.000007849263186137826 -0.00000784437177893472 -0.000010393425025988827 -0.000010392084822399638 -0.000010388081769450934
          -0.000013226528705137423 -0.000013225358905697057 -0.000013221979845390085 -0.00001630886510408484 -0.000016307904242925466 -0.0000163050908476954
          -0.00001956591195947942 -0.000019565124516866314 -0.000019563158245119207 -3.210769635387201e-7 0 -3.2104242777445036e-7
          0 -3.20946484698492e-7 0 -3.505185489494329e-7 0 -3.5049661576983656e-7
          0 -3.5042785689407403e-7 0 -4.0543511167048985e-7 0 -4.054214577801666e-7
          0 -4.0538101739595426e-7 0 -4.780343203518854e-7 0 -4.780280851164074e-7
          0 -4.780089111790365e-7 0 -5.623447638682423e-7 0 -5.623458536266229e-7
          0 -5.623472718122692e-7 0 -6.53548434678474e-7 0 -6.535536736671369e-7
          0 -6.535692277714617e-7 0 -7.480688929375473e-7 0 -7.480784474948621e-7
          0 -7.481073565734146e-7 0 -8.433143364612703e-7 0 -8.433272988122985e-7
          0 -8.433644488167006e-7 0 -6.410003793660837e-7 -6.409130559207556e-7 -6.4061146492163e-7
          -7.026454104422275e-7 -7.026157008957852e-7 -7.025385911275253e-7 -8.143335753346858e-7 -8.143077798779388e-7 -8.142268068468998e-7
          -9.608833707284826e-7 -9.60875399697268e-7 -9.60853947444253e-7 -0.0000011294213983702845 -0.0000011294248370353093 -0.0000011294378251448067
          -0.000001310432528250001 -0.0000013104455275594026 -0.0000013104872224432939 -0.0000014968863243486205 -0.0000014969105352953653 -0.0000014969803691588963
          -0.0000016835959203980334 -0.0000016836226812820087 -0.00000168370330596456 -9.59944307002655e-7 -9.599416995184795e-7 -9.599479639088972e-7
          -0.000001055559903899133 -0.0000010554650290385582 -0.0000010551697131811162 -0.0000012277979026061287 -0.0000012277756265446973 -0.0000012277163304301077
          -0.0000014498607677181338 -0.0000014498503020665203 -0.0000014498188995827514 -0.0000017018793566323125 -0.0000017018882653792733 -0.0000017019190754080647
          -0.0000019699223375585763 -0.000001969947344492509 -0.000001970022413936022 -0.0000022438528461910064 -0.000002243890999046714 -0.000002244005466773117
          -0.0000025156859490023675 -0.0000025157287068242986 -0.000002515858883109973 -0.0000012688520420050156 -0.0000012687548105769758 -0.0000012685210652971507
          -0.0000014086097543157918 -0.000001408582561410086 -0.0000014084919736626887 -0.000001645730150309579 -0.0000016456818662634256 -0.0000016455350901082262
          -0.0000019444465955350158 -0.00000194444550702345 -0.0000019444483865404006 -0.0000022770241689521 -0.0000022770445780998987 -0.0000022771086278160098
          -0.0000026272226345481427 -0.0000026272633465868503 -0.00000262738880538285 -0.000002982222736519632 -0.0000029822814063330024 -0.0000029824635250340295
          -0.0000033305128989768807 -0.0000033305794831835187 -0.0000033307849627630965 -0.0000015810348804287044 -0.0000015802501709093574 -0.0000015779358216206371
          -0.0000017564778943582256 -0.000001756444309507902 -0.0000017564070259561818 -0.0000020675215986459248 -0.0000020675063609629823 -0.0000020674521638622413
          -0.000002439766146273472 -0.0000024397770199043806 -0.000002439822872622676 -0.000002846443323606309 -0.00000284648231689708 -0.0000028466046930318564
          -0.000003271410861656531 -0.000003271470924052382 -0.000003271655529380376 -0.000003699268576908431 -0.000003699351148521248 -0.000003699600287587391
          -0.000004113634925976873 -0.000004113722486766838 -0.000004113981289876182 -0.0000026048235978849122 -0.0000026025158032811488 -0.00000259555543562562
          -0.000002000528148391835 -0.000001998820416132244 -0.0000019936084692970074 -0.0000020962846815922704 -0.000002095770299809247 -0.0000020942357162931346
          -0.0000024869820563758685 -0.000002487082298715086 -0.0000024874219288629923 -0.0000029243171226126273 -0.000002924322087934842 -0.0000029243275375545736
          -0.000003394239404425005 -0.000003394298823430391 -0.000003394486858796853 -0.000003882502356051667 -0.000003882592802194765 -0.000003882870133372341
          -0.000004374231430041196 -0.000004374370957852949 -0.000004374802533368126 -0.000004843363489790237 -0.000004843524225097242 -0.000004844017968884485
          -0.0000037898667694653052 -0.000003787492901375764 -0.0000037803891159311508 -0.0000026841484637011446 -0.0000026821927669542937 -0.0000026763323193693103
          -0.0000024985893238534158 -0.0000024976853853891126 -0.000002494988797836137 -0.0000028865730259269843 -0.000002886519030411192 -0.0000028864095985433398
          -0.000003382884478420943 -0.0000033829979189698183 -0.000003383354821884938 -0.00000389260039180683 -0.000003892678136343032 -0.000003892916834622998
          -0.000004428942087041972 -0.000004429050919271361 -0.00000442938030479909 -0.000004976029928354343 -0.000004976174520702025 -0.000004976602044579214
          -0.000005487474617911916 -0.0000054876009170782875 -0.000005487963404303135 -0.000005509993753895137 -0.000005506924101770072 -0.00000549768659750277
          -0.000003781771217022669 -0.0000037792013816674776 -0.0000037715527176944475 -0.0000031094492606963744 -0.000003107804488672184 -0.0000031028661387953218
          -0.0000032815969643917367 -0.0000032810914954789903 -0.000003279628343399141 -0.0000037930072342201673 -0.000003793120601890239 -0.0000037934980629241787
          -0.000004303100480424603 -0.000004303150245928439 -0.000004303293817413718 -0.0000048589897046591495 -0.000004859163112326803 -0.000004859691625564395
          -0.000005442958121050301 -0.000005443307962412253 -0.000005444373852222042 -0.000005989254078266219 -0.000005989728328074361 -0.000005991146542440264
          -0.000007822429043185872 -0.000007817980886694442 -0.000007804593800178202 -0.000005394479561419257 -0.00000539079606416948 -0.000005379652902639411
          -0.0000040405379904996805 -0.000004038167063643639 -0.0000040308585034635 -0.0000037376114436440992 -0.000003736928131191189 -0.000003734777614530841
          -0.000004128577692110452 -0.000004128594898424965 -0.000004128643339545508 -0.000004575997594827284 -0.00000457599163986704 -0.000004575983374570903
          -0.0000050735134050323355 -0.000005073760897636362 -0.000005074506418627357 -0.000005628118339663504 -0.000005628754877307382 -0.0000056306754136938265
          -0.000006253832685533551 -0.000006254768142713309 -0.000006257630424287109 0 -8.750989109159516e-7 0
          -8.751134559601138e-7 0 -8.75157464151768e-7 -0.0000017453946767478132 -0.0000017454245182471249 -0.0000017455177081355265
          -0.0000026042310390672083 -0.0000026042789388379373 -0.0000026044270176630392 -0.0000034418415262039167 -0.0000034419142960029174 -0.000003442140828573455
          -0.000004244321202915911 -0.00000424441924947916 -0.000004244713214468697 -0.00000499197208151032 -0.000004992138605030185 -0.0000049926501185033326
          -0.000005658043330001549 -0.000005658213682622416 -0.0000056587243499277694 -0.000006200632184371975 -0.000006201068390100117 -0.000006202393231493953
          -0.000006539407716252242 -0.000006540189691389623 -0.000006542559652715708 0 -9.014687114517043e-7 0
          -9.014835055315865e-7 0 -9.015286135240755e-7 -0.0000017962236952030115 -0.0000017962544913256224 -0.0000017963504165653238
          -0.0000026759718806211076 -0.0000026760201893985906 -0.0000026761713610918155 -0.0000035298036425354328 -0.000003529875100625536 -0.0000035300938936779606
          -0.000004343272573127634 -0.000004343372203772017 -0.0000043436745680927235 -0.000005097073823174153 -0.000005097213429807377 -0.0000050976375847186965
          -0.000005765677423450951 -0.000005765853911862604 -0.000005766389465046939 -0.000006303503912965581 -0.000006303782942105994 -0.0000063046134814758934
          -0.000006673671607809032 -0.000006674026682667498 -0.0000066751012405855955 0 -9.226703401287973e-7 0
          -9.226856589429947e-7 0 -9.227318179390933e-7 -0.0000018366449013647064 -0.0000018366769799666759 -0.0000018367740140448941
          -0.0000027318699931448633 -0.0000027319192123534222 -0.000002732071162183371 -0.000003595924330706241 -0.0000035959943123442076 -0.0000035962090321423516
          -0.000004413157263791713 -0.000004413251008517276 -0.000004413538777821822 -0.000005163610603276371 -0.000005163734356767999 -0.000005164111311988216
          -0.000005820240547458853 -0.00000582039394515047 -0.000005820859857675803 -0.000006346956434163196 -0.0000063471422024446035 -0.000006347702857589823
          -0.000006740220897657428 -0.000006740420991552781 -0.000006741029627358956 0 -9.391726728169413e-7 0
          -9.391882293911358e-7 0 -9.392352571162399e-7 -0.0000018676822790322333 -0.0000018677135171126282 -0.0000018678095514523475
          -0.0000027736636433970604 -0.0000027737124879713692 -0.000002773861491125781 -0.0000036430571694826265 -0.000003643124026165513 -0.0000036433298356402525
          -0.000004458795204844967 -0.000004458882208077185 -0.000004459149370100607 -0.000005199972397555286 -0.0000052000798923863655 -0.000005200409756395038
          -0.00000584134415888482 -0.000005841469433007474 -0.000005841853405809304 -0.000006360267491151267 -0.000006360391399832018 -0.000006360766573099475
          -0.000006772447209272507 -0.000006772558529372862 -0.000006772898379606581 0 -9.515321182157248e-7 0
          -9.515474034470339e-7 0 -9.515945549740675e-7 -0.0000018905696823305011 -0.0000018906005605472528 -0.0000018906954249711384
          -0.0000028035265484089116 -0.0000028035745549608902 -0.000002803719625467236 -0.000003674758679382338 -0.0000036748226571127514 -0.000003675018427973262
          -0.0000044859278955664115 -0.000004486007690016586 -0.0000044862536195364795 -0.000005216069750844849 -0.0000052161629241959915 -0.000005216450215360891
          -0.000005843985000306383 -0.000005844085398541964 -0.000005844396161798471 -0.000006358770559472468 -0.0000063588557443914145 -0.000006359115361041346
          -0.000006786295483143453 -0.000006786357064749155 -0.000006786552898051021 0 -9.603409729759716e-7 0
          -9.6035621232819e-7 0 -9.604033425970392e-7 -0.0000019066226079975666 -0.0000019066533288502993 -0.0000019067467624592457
          -0.000002823757772899301 -0.0000028238040417606247 -0.0000028239450454354283 -0.000003694730825386868 -0.000003694791527039438 -0.000003694977582485194
          -0.000004500347727442365 -0.000004500421003353968 -0.000004500646725936051 -0.00000522040985825738 -0.000005220491683358473 -0.000005220743856671473
          -0.000005838124569002124 -0.00000583820726536444 -0.000005838462415524345 -0.000006351234086022948 -0.000006351294353588367 -0.000006351479478349685
          -0.0000067905823278233565 -0.000006790616138056762 -0.000006790730848683834 0 -9.661545057767868e-7 0
          -9.661698700307025e-7 0 -9.662163864083928e-7 -0.0000019170660933913457 -0.0000019170962336713312 -0.000001917189334765764
          -0.000002836466357502545 -0.000002836510906772162 -0.0000028366474160010064 -0.000003706324724150573 -0.000003706382377974459 -0.000003706559826753501
          -0.000004506997348324689 -0.000004507065817668613 -0.000004507276199253114 -0.000005219321046289206 -0.000005219395475224216 -0.000005219621748034342
          -0.000005830145503198688 -0.000005830216014938234 -0.000005830432826529179 -0.00000634284545360547 -0.000006342890287768944 -0.000006343029294481044
          -0.000006790547452932466 -0.000006790565454967618 -0.000006790633047337469 0 -9.694307861563856e-7 0
          -9.6944500282357e-7 0 -9.69490383275587e-7 -0.000001922881524111175 -0.0000019229119591737274 -0.0000019230031178776335
          -0.000002843354046237897 -0.0000028433977532598337 -0.0000028435321076307775 -0.0000037121710267357344 -0.000003712228329465498 -0.0000037124014816437366
          -0.00000450951846478065 -0.000004509584240649418 -0.0000045097846609941705 -0.000005217058706443339 -0.000005217128528903435 -0.000005217339005542793
          -0.000005823952407353535 -0.000005824016171130057 -0.000005824210607199494 -0.000006336698457152776 -0.000006336735847924405 -0.000006336849978463523
          -0.000006789369146119966 -0.000006789380453551029 -0.000006789424545298146 0 -9.704795360816463e-7 0
          -9.704955165460179e-7 0 -9.705415990916471e-7 -0.000001924743363954074 -0.000001924773220285495 -0.00000192486363559585
          -0.0000028455243983984328 -0.0000028455672943066967 -0.0000028457002294634714 -0.0000037139384931990463 -0.000003713993062042037 -0.0000037141629838871485
          -0.000004510117263592271 -0.000004510181581781897 -0.0000045103783625175965 -0.000005216042918557584 -0.000005216111380732162 -0.000005216316526231105
          -0.0000058216669087403605 -0.000005821727448728571 -0.000005821913797789612 -0.0000063344758556702905 -0.000006334509230088998 -0.0000063346142181597055
          -0.000006788795753282989 -0.000006788802648009749 -0.000006788837248238451
        </DataArray>
        <DataArray type="Float64" Name="disp_z" format="ascii" RangeMin="-9.852328868205028e-7" RangeMax="0">
          0 0 0 0 -3.3307415279404037e-7 -3.407665822791016e-7
          -3.4529940634036327e-7 -3.520158499417059e-7 -6.661262939425817e-7 -6.81583215314807e-7 -6.906663610670405e-7 -7.037156842291625e-7
          0 0 0 0 -3.593109277919567e-7 -3.685077832829988e-7
          -3.6166414269745875e-7 -3.597333688026919e-7 -7.186198762700223e-7 -7.371197066413051e-7 -7.229535929590489e-7 -7.191594508307008e-7
          0 0 -3.5505443481041384e-7 -3.551931976892838e-7 -7.098647020093283e-7 -7.100476271197001e-7
          0 0 0 -3.6135403199661584e-7 -3.4010001409856184e-7 -3.469630534756576e-7
          -7.223882142392286e-7 -6.801190204910479e-7 -6.937309524402911e-7 0 0 0
          0 -3.4283067365751956e-7 -3.401798373801888e-7 -3.3970259213247027e-7 -3.431687334931023e-7 -6.85820950814318e-7
          -6.803430758071544e-7 -6.797870494292439e-7 -6.865596969459508e-7 0 0 0
          0 -3.376143774734258e-7 -3.3713152101113844e-7 -3.396437438416512e-7 -3.4256928419707696e-7 -6.750231051464622e-7
          -6.741354726581238e-7 -6.792560848361612e-7 -6.850635866051241e-7 0 0 0
          -3.724597077296992e-7 -3.934836261287624e-7 -3.772262346156277e-7 -7.455637953860798e-7 -7.87879691872419e-7 -7.549691414168875e-7
          0 -3.1524046094974457e-7 -6.304157224303714e-7 0 0 -4.126199593510795e-7
          -4.351168944620288e-7 -8.2565631969103e-7 -8.704528544022393e-7 0 0 -2.931867785263202e-7
          -3.233169503983746e-7 -5.864338138898107e-7 -6.465528332654216e-7 0 0 -3.544404685772092e-7
          -3.685655571863391e-7 -7.0925479873579e-7 -7.378745174127512e-7 0 0 0
          0 -3.4639178089385816e-7 -3.5878832311668774e-7 -3.6077559397881606e-7 -3.4599590434437614e-7 -6.929337666127764e-7
          -7.178444702749023e-7 -7.216929369480601e-7 -6.923224172959385e-7 0 -4.926362188779927e-7 -9.852328868205028e-7
          0 -3.9151533866062813e-7 -7.83632832737938e-7 0 -3.66471335823768e-7 -7.331887799193239e-7
          0 0 -3.5486738608821117e-7 -3.5417057539110923e-7 -7.096483922073404e-7 -7.086611466134313e-7
          0 0 0 0 -4.6841648050950133e-7 -4.585207256180452e-7
          -4.310928123469064e-7 -4.555032182552261e-7 -9.364723101763717e-7 -9.158723404957301e-7 -8.614638506507466e-7 -9.106766346624871e-7
          0 0 -3.491824200728213e-7 -3.504824840878538e-7 -6.983404321911305e-7 -7.007744883893268e-7
          0 -3.7345203220772187e-7 -7.478031280898613e-7 0 -3.3698705344668415e-7 -6.742872592462307e-7
          0 0 -3.9912086734221943e-7 -3.8279518556795636e-7 -7.996498520137217e-7 -7.665749297603061e-7
          0 0 -3.4251133411423545e-7 -3.380116188287687e-7 -6.854265787465886e-7 -6.763690389619567e-7
          0 0 -4.018104359934467e-7 -4.3421699089498334e-7 -8.03973885040153e-7 -8.68443697573084e-7
          0 -3.571979820713213e-7 -7.151352157868411e-7 0 -4.6189306888900843e-7 -9.236514860313835e-7
          0 -3.4738093107404764e-7 -6.95216691874245e-7 0 -4.0352344811139274e-7 -8.077640742964914e-7
          0 -3.690126363354787e-7 -7.390303836093458e-7 0 0 -3.474694706803491e-7
          -3.49976453360751e-7 -6.952621887291075e-7 -7.002782503510491e-7 0 -3.485847661663864e-7 -6.973529035546587e-7
          0 0 -3.4772711374525417e-7 -3.540598610023793e-7 -6.959545393041189e-7 -7.084611986838643e-7
          0 0 -3.800663704148323e-7 -3.9358948195233385e-7 -7.607823364019729e-7 -7.878914355647753e-7
          0 0 -3.471854128623394e-7 -3.4179644525842967e-7 -6.93874801429641e-7 -6.835870992444604e-7
          0 -3.7474249610236285e-7 -7.502330651869351e-7 0 -3.4983641634655764e-7 -7.003342218577891e-7
          0 -4.216201348985794e-7 -8.43578490104973e-7 0 0 -3.395867178629082e-7
          -3.44500499365862e-7 -6.796395741304831e-7 -6.89539075762784e-7 0 0 -3.425325453424015e-7
          -3.425534306599315e-7 -6.850287908588071e-7 -6.86744897928985e-7 0 0 0
          -3.3636959856160456e-7 -3.3636048573038856e-7 -3.374081408175507e-7 -6.731190867979205e-7 -6.730871223204441e-7 -6.751379254001126e-7
          0 -3.3787578330601607e-7 -6.750473322251453e-7 0 0 -3.774025249560561e-7
          -3.681047722090142e-7 -7.560803136770224e-7 -7.366064235077225e-7 0 0 -3.4386643120144507e-7
          -3.4337611183356054e-7 -6.877491133874418e-7 -6.868345532028073e-7 0 -3.3497887206799354e-7 -6.700385347273555e-7
          0 -3.4374465673718917e-7 -6.876339784059721e-7 0 -3.527756785485961e-7 -7.062586077843323e-7
          0 0 -3.332302845916154e-7 -3.321132947008575e-7 -6.664450308147269e-7 -6.6441632678097e-7
          0 -3.32818391435813e-7 -6.657907305706225e-7 0 -3.366240443352833e-7 -6.733750543864081e-7
          0 -3.5992878773712424e-7 -7.205498116921927e-7 0 -3.407997925355382e-7 -6.816457181281848e-7
          0 -3.4734463367792e-7 -6.946272636282983e-7 0 -3.499798185688548e-7 -6.998403192421342e-7
          0 -2.610877595997374e-7 -5.220887177563109e-7 0 -2.9095637977690667e-7 -5.818670275167291e-7
          0 -3.1312480139858283e-7 -6.261794502176504e-7 0 -3.3434270900866006e-7 -6.685735161332171e-7
          0 -3.4850864781224827e-7 -6.970268445829745e-7 0 0 -6.142891072716371e-8
          -6.117010583846068e-8 -1.2283610722152815e-7 -1.2232698408773218e-7 0 0 -6.029938140159183e-8
          -6.010510195346358e-8 -1.206099390483431e-7 -1.2022177024345997e-7 0 0 -5.854271438268731e-8
          -5.840938288478141e-8 -1.1708062159934773e-7 -1.1681202294706607e-7 0 0 -5.6511765828199723e-8
          -5.646322860558984e-8 -1.1302561223262171e-7 -1.1292915796730347e-7 0 0 -5.438423487006171e-8
          -5.4401171027671054e-8 -1.0876790252345674e-7 -1.088010871270152e-7 0 0 -5.227864982636881e-8
          -5.235513816681136e-8 -1.045578642377551e-7 -1.0471037292767332e-7 0 0 -5.029332918715979e-8
          -5.042041352503235e-8 -1.0058646843643574e-7 -1.0084081229799159e-7 0 0 -4.853036184100891e-8
          -4.868459962402258e-8 -9.70605919335941e-8 -9.736949749165627e-8 0 -6.26427811156662e-8 -1.2527098445531171e-7
          0 -6.084865888202035e-8 -1.2170216262788265e-7 0 -5.886450965383243e-8 -1.1772855207222691e-7
          0 -5.661011360803128e-8 -1.132192961923828e-7 0 -5.4277956308990456e-8 -1.0855611612093915e-7
          0 -5.2008236759942675e-8 -1.0401657663269646e-7 0 -4.986691293507225e-8 -9.973342464230044e-8
          0 -4.803806289814806e-8 -9.607699638135843e-8 0 -6.434987116810564e-8 -1.2872033927899022e-7
          0 -6.169153845200936e-8 -1.2335395098860814e-7 0 -5.9430997493990006e-8 -1.1887681143306825e-7
          0 -5.6738171207931494e-8 -1.1347160378086823e-7 0 -5.4083305222472075e-8 -1.0816810455100749e-7
          0 -5.152697213715698e-8 -1.0305433028499224e-7 0 -4.9108998904768115e-8 -9.821673573385774e-8
          0 -4.7145660461882184e-8 -9.429113323843349e-8 0 -6.3592447151425e-8 -1.2726027819326575e-7
          0 -6.385374133257508e-8 -1.2770414891276342e-7 0 -5.9824265162229e-8 -1.1963221832517554e-7
          0 -5.684267995800364e-8 -1.1369459604206752e-7 0 -5.367957027181246e-8 -1.0735322706011502e-7
          0 -5.072156811640742e-8 -1.014473815432066e-7 0 -4.790069233986537e-8 -9.580048731959869e-8
          0 -4.5753206399523186e-8 -9.151119899082201e-8 0 -7.06858403709778e-8 -1.41590825201948e-7
          0 -6.3164259617009e-8 -1.2638268567100166e-7 0 -6.096739448586173e-8 -1.2192415577872967e-7
          0 -5.6543650142530976e-8 -1.1308841551247022e-7 0 -5.2958124452615526e-8 -1.0591871926134607e-7
          0 -4.947022595293114e-8 -9.894079842447282e-8 0 -4.608977544479055e-8 -9.217214786132687e-8
          0 -4.368751114444215e-8 -8.737111743232976e-8 0 -1.4458568687867979e-7 -2.8921134526577013e-7
          0 -9.500503187919924e-8 -1.9022426473336878e-7 0 -6.720223484322148e-8 -1.3451382032483287e-7
          0 -5.980278609186659e-8 -1.1962692817987946e-7 0 -5.623925334563736e-8 -1.1246217409971093e-7
          0 -5.1708646674008716e-8 -1.0341326702550828e-7 0 -4.766056635011029e-8 -9.533192341263756e-8
          0 -4.3466789563414126e-8 -8.69366587850117e-8 0 -4.080346561690517e-8 -8.162792898090687e-8
          0 -1.919648321834213e-7 -3.8389034291357395e-7 0 -1.3385737735762594e-7 -2.6790070840894585e-7
          0 -8.205473145719507e-8 -1.644150288043565e-7 0 -5.7763009682126384e-8 -1.1563609098549889e-7
          0 -5.5463188627322585e-8 -1.1095292544621593e-7 0 -5.004168567775286e-8 -1.0005544709957603e-7
          0 -4.5126953733197436e-8 -9.027181575325e-8 0 -3.945590453648939e-8 -7.88791031076563e-8
          0 -3.620401876534581e-8 -7.239840537914713e-8 0 -2.3900989735060797e-7 -4.779541661956741e-7
          0 -1.7239577672434542e-7 -3.4482233454653063e-7 0 -1.0415501385284432e-7 -2.0859164900949867e-7
          0 -6.240816417047143e-8 -1.2500451671655987e-7 0 -5.175765852886102e-8 -1.0355357161327267e-7
          0 -4.832684961494656e-8 -9.663315844826174e-8 0 -4.200937953752786e-8 -8.404435452876048e-8
          0 -3.4717021229186915e-8 -6.94217439003139e-8 0 -3.1338259035603434e-8 -6.270210777766825e-8
          0 -3.160931136136402e-7 -6.321156721893782e-7 0 -2.3659286332455474e-7 -4.7326895951918137e-7
          0 -1.46770628851672e-7 -2.939365139896632e-7 0 -7.503250451018534e-8 -1.5038227721774054e-7
          0 -5.050047932309935e-8 -1.0109067528487788e-7 0 -4.7918820494575275e-8 -9.583270765767347e-8
          0 -3.663852728041947e-8 -7.328758633094923e-8 0 -2.13339356641716e-8 -4.264657684637136e-8
          0 -1.0656452892335297e-8 -2.131944290091356e-8 0 0 -4.758972604392904e-8
          -4.740510931924828e-8 -9.517929701281962e-8 -9.481016670863996e-8 0 -4.6827647125635173e-8 -9.365479823850241e-8
          0 -4.5800009673658564e-8 -9.159796316163213e-8 0 -4.4223806975939726e-8 -8.844632678232441e-8
          0 -4.1923639762447026e-8 -8.383850025698467e-8 0 -3.8730592128217826e-8 -7.745965309238078e-8
          0 -3.368951841147381e-8 -6.735397155538228e-8 0 -2.760266204141668e-8 -5.5170107416458077e-8
          0 -1.0046445119741768e-8 -2.003318155678309e-8 0 0 -4.6602511724577126e-8
          -4.641070799380775e-8 -9.320485466521827e-8 -9.282148688972882e-8 0 -4.581207263345593e-8 -9.16246799252828e-8
          0 -4.47630093089756e-8 -8.952736381726588e-8 0 -4.3182557926404836e-8 -8.636803994949453e-8
          0 -4.095980603701909e-8 -8.192370868750156e-8 0 -3.787243567308271e-8 -7.575545175948841e-8
          0 -3.3680460504540034e-8 -6.737220365288632e-8 0 -2.8109714489595426e-8 -5.625550196669934e-8
          0 -1.9564952536770167e-8 -3.9167707682285886e-8 0 0 -4.574568374642885e-8
          -4.5548468419566146e-8 -9.149151236037244e-8 -9.109672466042325e-8 0 -4.4935682854796994e-8 -8.987101628369037e-8
          0 -4.387438355436779e-8 -8.774805509146025e-8 0 -4.231140358385645e-8 -8.462150732100444e-8
          0 -4.016150806278021e-8 -8.032022458240441e-8 0 -3.7323609108834034e-8 -7.464337618748238e-8
          0 -3.3683009542623736e-8 -6.735682715948947e-8 0 -2.9292646218450197e-8 -5.8570265593890404e-8
          0 -2.4176970687485255e-8 -4.829592893396793e-8 0 0 -4.502313552648579e-8
          -4.482139194543978e-8 -9.004645944272968e-8 -8.964283810026924e-8 0 -4.420602595514632e-8 -8.841212767884404e-8
          0 -4.3154419921801884e-8 -8.630910173624e-8 0 -4.163473029849832e-8 -8.327005773634062e-8
          0 -3.960774570375011e-8 -7.92165721892354e-8 0 -3.704866389290042e-8 -7.40985756560761e-8
          0 -3.3974730195478487e-8 -6.795354075634591e-8 0 -3.062373639038522e-8 -6.125155572728393e-8
          0 -2.7592878447290503e-8 -5.519912138097646e-8 0 0 -4.443523468863629e-8
          -4.4231414048283486e-8 -8.887051341085514e-8 -8.846286970375526e-8 0 -4.3619675292920995e-8 -8.723930971009357e-8
          0 -4.2587647289434064e-8 -8.517516936434775e-8 0 -4.1125990964426225e-8 -8.225180838664707e-8
          0 -3.923074757680845e-8 -7.846116171131703e-8 0 -3.693867295295192e-8 -7.387659369918799e-8
          0 -3.435371652820739e-8 -6.87068392862645e-8 0 -3.180943769813573e-8 -6.361602413420235e-8
          0 -2.994103577281341e-8 -5.987149970801491e-8 0 0 -4.3977534884114636e-8
          -4.3775678741397315e-8 -8.795501050054184e-8 -8.755131704304293e-8 0 -4.317073369835405e-8 -8.634152585735851e-8
          0 -4.216293598497468e-8 -8.432594159372387e-8 0 -4.075831663887886e-8 -8.151659042067314e-8
          0 -3.8984851771506656e-8 -7.796989385322468e-8 0 -3.691827558794971e-8 -7.383644953774658e-8
          0 -3.4718505261699894e-8 -6.943801583073669e-8 0 -3.274195755266163e-8 -6.548330685361658e-8
          0 -3.155300472969783e-8 -6.310643612387378e-8 0 0 -4.365452707760381e-8
          -4.3454522232552645e-8 -8.730925869842258e-8 -8.69092051479196e-8 0 -4.285575728624376e-8 -8.571157841856022e-8
          0 -4.1869120959007653e-8 -8.3738321492843e-8 0 -4.051213305439237e-8 -8.102422223438852e-8
          0 -3.8834366772229125e-8 -7.766871094696261e-8 0 -3.693747169779733e-8 -7.387470368057655e-8
          0 -3.5011856923324725e-8 -7.002433379623836e-8 0 -3.340648414684522e-8 -6.681195372784718e-8
          0 -3.261992614674453e-8 -6.523809490835378e-8 0 0 -4.346073337040974e-8
          -4.3261170902937156e-8 -8.692147804678037e-8 -8.652224111077353e-8 0 -4.266988175693788e-8 -8.533974587816612e-8
          0 -4.169730410625104e-8 -8.339459677162838e-8 0 -4.037083534774855e-8 -8.074167635639745e-8
          0 -3.8753850910002114e-8 -7.750780234802984e-8 0 -3.696182988483577e-8 -7.392336730530854e-8
          0 -3.5199949877476136e-8 -7.040049588256232e-8 0 -3.380242725374829e-8 -6.760394806227498e-8
          0 -3.322857368458313e-8 -6.64564500539228e-8 0 0 -4.33976033471374e-8
          -4.319765840405801e-8 -8.679480225573795e-8 -8.639526437052023e-8 0 -4.260787991679231e-8 -8.521576775513408e-8
          0 -4.16403617602947e-8 -8.328067692776619e-8 0 -4.032521937176085e-8 -8.06504245996912e-8
          0 -3.872851483839197e-8 -7.745712318881263e-8 0 -3.697204757669241e-8 -7.39436920152023e-8
          0 -3.526422888483491e-8 -7.052870326730256e-8 0 -3.3933540725739884e-8 -6.786606698682112e-8
          0 -3.342703889064276e-8 -6.685283010278352e-8
        </DataArray>
      </PointData>
      <CellData>
        <DataArray type="Int32" Name="libmesh_elem_id" format="ascii" RangeMin="1398" RangeMax="3643">
          1398 1399 1422 1423 1460 1461
          1470 1471 1482 1483 1494 1495
          1502 1503 1506 1507 1520 1521
          1528 1529 1580 1581 1584 1585
          1612 1613 1636 1637 1652 1653
          1722 1723 1798 1799 1850 1851
          2298 2299 2406 2407 2442 2443
          2450 2451 2472 2473 2558 2559
          2610 2611 2646 2647 2648 2649
          2662 2663 2672 2673 2680 2681
          2748 2749 2756 2757 2776 2777
          2808 2809 2814 2815 2822 2823
          2828 2829 2836 2837 2852 2853
          2876 2877 2898 2899 2910 2911
          2926 2927 2936 2937 2950 2951
          2952 2953 2954 2955 2966 2967
          2980 2981 2982 2983 2990 2991
          3006 3007 3014 3015 3026 3027
          3068 3069 3074 3075 3104 3105
          3110 3111 3124 3125 3126 3127
          3168 3169 3194 3195 3204 3205
          3208 3209 3210 3211 3212 3213
          3220 3221 3222 3223 3224 3225
          3226 3227 3234 3235 3236 3237
          3240 3241 3252 3253 3254 3255
          3264 3265 3296 3297 3302 3303
          3308 3309 3314 3315 3324 3325
          3326 3327 3328 3329 3330 3331
          3332 3333 3334 3335 3336 3337
          3342 3343 3344 3345 3346 3347
          3348 3349 3350 3351 3352 3353
          3354 3355 3360 3361 3362 3363
          3364 3365 3366 3367 3368 3369
          3370 3371 3372 3373 3378 3379
          3380 3381 3382 3383 3384 3385
          3386 3387 3388 3389 3390 3391
          3396 3397 3398 3399 3400 3401
          3402 3403 3404 3405 3406 3407
          3408 3409 3414 3415 3416 3417
          3418 3419 3420 3421 3422 3423
          3424 3425 3426 3427 3430 3431
          3432 3433 3434 3435 3436 3437
          3438 3439 3440 3441 3442 3443
          3444 3445 3448 3449 3450 3451
          3452 3453 3454 3455 3456 3457
          3458 3459 3460 3461 3462 3463
          3466 3467 3468 3469 3470 3471
          3472 3473 3474 3475 3476 3477
          3478 3479 3480 3481 3482 3483
          3484 3485 3486 3487 3488 3489
          3490 3491 3492 3493 3494 3495
          3496 3497 3498 3499 3500 3501
          3502 3503 3504 3505 3506 3507
          3508 3509 3510 3511 3512 3513
          3514 3515 3516 3517 3518 3519
          3520 3521 3522 3523 3524 3525
          3526 3527 3528 3529 3530 3531
          3532 3533 3534 3535 3536 3537
          3538 3539 3540 3541 3542 3543
          3544 3545 3546 3547 3548 3549
          3550 3551 3552 3553 3554 3555
          3556 3557 3558 3559 3560 3561
          3562 3563 3564 3565 3566 3567
          3568 3569 3570 3571 3572 3573
          3574 3575 3576 3577 3578 3579
          3580 3581 3582 3583 3584 3585
          3586 3587 3588 3589 3590 3591
          3592 3593 3594 3595 3596 3597
          3598 3599 3600 3601 3602 3603
          3604 3605 3606 3607 3608 3609
          3610 3611 3612 3613 3614 3615
          3616 3617 3618 3619 3620 3621
          3622 3623 3624 3625 3626 3627
          3628 3629 3630 3631 3632 3633
          3634 3635 3636 3637 3638 3639
          3640 3641 3642 3643
        </DataArray>
        <DataArray type="Int32" Name="subdomain_id" format="ascii" RangeMin="107" RangeMax="110">
          107 107 107 107 107 107
          107 107 107 107 107 107
          107 107 107 107 107 107
          107 107 107 107 107 107
          107 107 107 107 107 107
          107 107 107 107 107 107
          107 107 107 107 107 107
          107 107 107 107 107 107
          107 107 107 107 107 107
          107 107 107 107 107 107
          107 107 107 107 107 107
          107 107 107 107 107 107
          107 107 107 107 107 107
          107 107 107 107 107 107
          107 107 107 107 107 107
          107 107 107 107 107 107
          107 107 107 107 107 107
          107 107 107 107 107 107
          107 107 107 107 107 107
          107 107 107 107 107 107
          107 107 107 107 107 107
          107 107 107 107 107 107
          107 107 107 107 107 107
          107 107 107 107 107 107
          107 107 107 107 107 107
          107 107 108 108 108 108
          108 108 108 108 109 109
          109 109 109 109 109 109
          109 109 109 109 109 109
          109 109 109 109 109 109
          109 109 109 109 109 109
          109 109 109 109 109 109
          109 109 109 109 109 109
          109 109 109 109 109 109
          109 109 109 109 109 109
          109 109 109 109 109 109
          109 109 109 109 109 109
          109 109 109 109 109 109
          109 109 109 109 109 109
          109 109 109 109 109 109
          109 109 109 109 109 109
          109 109 109 109 109 109
          109 109 109 109 109 109
          109 109 109 109 109 109
          109 109 109 109 109 109
          109 109 109 109 109 109
          109 109 109 109 109 109
          109 109 109 109 109 109
          109 109 109 109 110 110
          110 110 110 110 110 110
          110 110 110 110 110 110
          110 110 110 110 110 110
          110 110 110 110 110 110
          110 110 110 110 110 110
          110 110 110 110 110 110
          110 110 110 110 110 110
          110 110 110 110 110 110
          110 110 110 110 110 110
          110 110 110 110 110 110
          110 110 110 110 110 110
          110 110 110 110 110 110
          110 110 110 110 110 110
          110 110 110 110 110 110
          110 110 110 110 110 110
          110 110 110 110 110 110
          110 110 110 110 110 110
          110 110 110 110 110 110
          110 110 110 110 110 110
          110 110 110 110 110 110
          110 110 110 110 110 110
          110 110 110 110 110 110
          110 110 110 110 110 110
          110 110 110 110 110 110
          110 110 110 110 110 110
          110 110 110 110 110 110
          110 110 110 110
        </DataArray>
        <DataArray type="Int32" Name="processor_id" format="ascii" RangeMin="0" RangeMax="0">
          0 0 0 0 0 0
          0 0 0 0 0 0
          0 0 0 0 0 0
          0 0 0 0 0 0
          0 0 0 0 0 0
          0 0 0 0 0 0
          0 0 0 0 0 0
          0 0 0 0 0 0
          0 0 0 0 0 0
          0 0 0 0 0 0
          0 0 0 0 0 0
          0 0 0 0 0 0
          0 0 0 0 0 0
          0 0 0 0 0 0
          0 0 0 0 0 0
          0 0 0 0 0 0
          0 0 0 0 0 0
          0 0 0 0 0 0
          0 0 0 0 0 0
          0 0 0 0 0 0
          0 0 0 0 0 0
          0 0 0 0 0 0
          0 0 0 0 0 0
          0 0 0 0 0 0
          0 0 0 0 0 0
          0 0 0 0 0 0
          0 0 0 0 0 0
          0 0 0 0 0 0
          0 0 0 0 0 0
          0 0 0 0 0 0
          0 0 0 0 0 0
          0 0 0 0 0 0
          0 0 0 0 0 0
          0 0 0 0 0 0
          0 0 0 0 0 0
          0 0 0 0 0 0
          0 0 0 0 0 0
          0 0 0 0 0 0
          0 0 0 0 0 0
          0 0 0 0 0 0
          0 0 0 0 0 0
          0 0 0 0 0 0
          0 0 0 0 0 0
          0 0 0 0 0 0
          0 0 0 0 0 0
          0 0 0 0 0 0
          0 0 0 0 0 0
          0 0 0 0 0 0
          0 0 0 0 0 0
          0 0 0 0 0 0
          0 0 0 0 0 0
          0 0 0 0 0 0
          0 0 0 0 0 0
          0 0 0 0 0 0
          0 0 0 0 0 0
          0 0 0 0 0 0
          0 0 0 0 0 0
          0 0 0 0 0 0
          0 0 0 0 0 0
          0 0 0 0 0 0
          0 0 0 0 0 0
          0 0 0 0 0 0
          0 0 0 0 0 0
          0 0 0 0 0 0
          0 0 0 0 0 0
          0 0 0 0 0 0
          0 0 0 0 0 0
          0 0 0 0 0 0
          0 0 0 0 0 0
          0 0 0 0 0 0
          0 0 0 0 0 0
          0 0 0 0 0 0
          0 0 0 0 0 0
          0 0 0 0 0 0
          0 0 0 0 0 0
          0 0 0 0
        </DataArray>
      </CellData>
      <Points>
        <DataArray type="Float64" Name="Points" NumberOfComponents="3" format="ascii" RangeMin="0.019949534490770096" RangeMax="0.057059767276955435">
          0.025 0.010111111111103 0 0.025 0.011555555555552 0
          0.023969654121399 0.011643457228511 0 0.023712354871128 0.010827306146479 0
          0.025 0.010111111111103 0.00015 0.025 0.011555555555552 0.00015
          0.023969654121399 0.011643457228511 0.00015 0.023712354871128 0.010827306146479 0.00015
          0.025 0.010111111111103 0.0003 0.025 0.011555555555552 0.0003
          0.023969654121399 0.011643457228511 0.0003 0.023712354871128 0.010827306146479 0.0003
          0.021832836898909 0.0086447924127183 0 0.021823224979211 0.0078559681587773 0
          0.022737846371709 0.0079006862580081 0 0.022634898807434 0.0088549234284915 0
          0.021832836898909 0.0086447924127183 0.00015 0.021823224979211 0.0078559681587773 0.00015
          0.022737846371709 0.0079006862580081 0.00015 0.022634898807434 0.0088549234284915 0.00015
          0.021832836898909 0.0086447924127183 0.0003 0.021823224979211 0.0078559681587773 0.0003
          0.022737846371709 0.0079006862580081 0.0003 0.022634898807434 0.0088549234284915 0.0003
          0.023595500831214 0.0092794942281182 0 0.023071107871262 0.010124307969263 0
          0.023595500831214 0.0092794942281182 0.00015 0.023071107871262 0.010124307969263 0.00015
          0.023595500831214 0.0092794942281182 0.0003 0.023071107871262 0.010124307969263 0.0003
          0.022679909737796 0.0068405181074087 0 0.023816654948859 0.0069324696013164 0
          0.023805320189621 0.0081867285281858 0 0.022679909737796 0.0068405181074087 0.00015
          0.023816654948859 0.0069324696013164 0.00015 0.023805320189621 0.0081867285281858 0.00015
          0.022679909737796 0.0068405181074087 0.0003 0.023816654948859 0.0069324696013164 0.0003
          0.023805320189621 0.0081867285281858 0.0003 0.021890570917318 0.011219591567605 0
          0.021490495874743 0.011513015985888 0 0.020878683694742 0.011349585571751 0
          0.021380466308845 0.010767094219468 0 0.021890570917318 0.011219591567605 0.00015
          0.021490495874743 0.011513015985888 0.00015 0.020878683694742 0.011349585571751 0.00015
          0.021380466308845 0.010767094219468 0.00015 0.021890570917318 0.011219591567605 0.0003
          0.021490495874743 0.011513015985888 0.0003 0.020878683694742 0.011349585571751 0.0003
          0.021380466308845 0.010767094219468 0.0003 0.022336312736143 0.012467557709352 0
          0.021763745105177 0.012476629724541 0 0.021622459990569 0.011931223094182 0
          0.02233098651665 0.011816769005978 0 0.022336312736143 0.012467557709352 0.00015
          0.021763745105177 0.012476629724541 0.00015 0.021622459990569 0.011931223094182 0.00015
          0.02233098651665 0.011816769005978 0.00015 0.022336312736143 0.012467557709352 0.0003
          0.021763745105177 0.012476629724541 0.0003 0.021622459990569 0.011931223094182 0.0003
          0.02233098651665 0.011816769005978 0.0003 0.021047379294988 0.0079667793778881 0
          0.020813290684512 0.007243328880283 0 0.021666975794544 0.0069715825078724 0
          0.021047379294988 0.0079667793778881 0.00015 0.020813290684512 0.007243328880283 0.00015
          0.021666975794544 0.0069715825078724 0.00015 0.021047379294988 0.0079667793778881 0.0003
          0.020813290684512 0.007243328880283 0.0003 0.021666975794544 0.0069715825078724 0.0003
          0.025 0.0086666666666559 0 0.025 0.0086666666666559 0.00015
          0.025 0.0086666666666559 0.0003 0.021356284292895 0.0061182113295331 0
          0.020489019208248 0.0065103794253073 0 0.021356284292895 0.0061182113295331 0.00015
          0.020489019208248 0.0065103794253073 0.00015 0.021356284292895 0.0061182113295331 0.0003
          0.020489019208248 0.0065103794253073 0.0003 0.025 0.0072222222222063 0
          0.023829479378086 0.0056593315311521 0 0.025 0.0072222222222063 0.00015
          0.023829479378086 0.0056593315311521 0.00015 0.025 0.0072222222222063 0.0003
          0.023829479378086 0.0056593315311521 0.0003 0.019357361519954 0.01157618305141 0
          0.01884046117173 0.011223113854601 0 0.019357361519954 0.01157618305141 0.00015
          0.01884046117173 0.011223113854601 0.00015 0.019357361519954 0.01157618305141 0.0003
          0.01884046117173 0.011223113854601 0.0003 0.020274347850796 0.01080512315655 0
          0.019692191057164 0.010418143528135 0 0.020104676199583 0.0097475599042502 0
          0.020792052735599 0.010316149813733 0 0.020274347850796 0.01080512315655 0.00015
          0.019692191057164 0.010418143528135 0.00015 0.020104676199583 0.0097475599042502 0.00015
          0.020792052735599 0.010316149813733 0.00015 0.020274347850796 0.01080512315655 0.0003
          0.019692191057164 0.010418143528135 0.0003 0.020104676199583 0.0097475599042502 0.0003
          0.020792052735599 0.010316149813733 0.0003 0.018734278863615 0.0068564365277259 0
          0.018734278863615 0.0068564365277259 0.00015 0.018734278863615 0.0068564365277259 0.0003
          0.018384253973557 0.010894663204421 0 0.018384253973557 0.010894663204421 0.00015
          0.018384253973557 0.010894663204421 0.0003 0.022477642087048 0.0055533155338694 0
          0.022477642087048 0.0055533155338694 0.00015 0.022477642087048 0.0055533155338694 0.0003
          0.022333445868241 0.0096250088550796 0 0.021678233976573 0.0092839168226163 0
          0.022333445868241 0.0096250088550796 0.00015 0.021678233976573 0.0092839168226163 0.00015
          0.022333445868241 0.0096250088550796 0.0003 0.021678233976573 0.0092839168226163 0.0003
          0.018696511924608 0.0075816988835645 0 0.019307778433714 0.0076950261479263 0
          0.019244919669154 0.0083241905034728 0 0.018643245907353 0.0082916041839039 0
          0.018696511924608 0.0075816988835645 0.00015 0.019307778433714 0.0076950261479263 0.00015
          0.019244919669154 0.0083241905034728 0.00015 0.018643245907353 0.0082916041839039 0.00015
          0.018696511924608 0.0075816988835645 0.0003 0.019307778433714 0.0076950261479263 0.0003
          0.019244919669154 0.0083241905034728 0.0003 0.018643245907353 0.0082916041839039 0.0003
          0.02247089481133 0.010746063389313 0 0.022956441030322 0.011313723369763 0
          0.02247089481133 0.010746063389313 0.00015 0.022956441030322 0.011313723369763 0.00015
          0.02247089481133 0.010746063389313 0.0003 0.022956441030322 0.011313723369763 0.0003
          0.018817000838468 0.010560792840001 0 0.018817000838468 0.010560792840001 0.00015
          0.018817000838468 0.010560792840001 0.0003 0.021028725472558 0.011993213484042 0
          0.021028725472558 0.011993213484042 0.00015 0.021028725472558 0.011993213484042 0.0003
          0.018719100515555 0.0096191331103102 0 0.018769006148643 0.010016813571171 0
          0.018719100515555 0.0096191331103102 0.00015 0.018769006148643 0.010016813571171 0.00015
          0.018719100515555 0.0096191331103102 0.0003 0.018769006148643 0.010016813571171 0.0003
          0.022845614094026 0.012068678060928 0 0.022870050818517 0.012481997757377 0
          0.022845614094026 0.012068678060928 0.00015 0.022870050818517 0.012481997757377 0.00015
          0.022845614094026 0.012068678060928 0.0003 0.022870050818517 0.012481997757377 0.0003
          0.01980903614198 0.0082923028866096 0 0.019733887771193 0.007830319872041 0
          0.01980903614198 0.0082923028866096 0.00015 0.019733887771193 0.007830319872041 0.00015
          0.01980903614198 0.0082923028866096 0.0003 0.019733887771193 0.007830319872041 0.0003
          0.019287865107188 0.010870204720027 0 0.019287865107188 0.010870204720027 0.00015
          0.019287865107188 0.010870204720027 0.0003 0.019611341590458 0.0069319215290848 0
          0.019611341590458 0.0069319215290848 0.00015 0.019611341590458 0.0069319215290848 0.0003
          0.019793192887703 0.011218191570876 0 0.019793192887703 0.011218191570876 0.00015
          0.019793192887703 0.011218191570876 0.0003 0.02014052068744 0.0075597001530957 0
          0.02014052068744 0.0075597001530957 0.00015 0.02014052068744 0.0075597001530957 0.0003
          0.019142781766586 0.010156284019367 0 0.019142781766586 0.010156284019367 0.00015
          0.019142781766586 0.010156284019367 0.0003 0.019871794871807 0.013 0
          0.019671681078705 0.012567114388191 0 0.019871794871807 0.013 0.00015
          0.019671681078705 0.012567114388191 0.00015 0.019871794871807 0.013 0.0003
          0.019671681078705 0.012567114388191 0.0003 0.02189605775595 0.01024368797285 0
          0.02189605775595 0.01024368797285 0.00015 0.02189605775595 0.01024368797285 0.0003
          0.021306208963658 0.0098107932917518 0 0.020830530356293 0.0093484326970494 0
          0.021306208963658 0.0098107932917518 0.00015 0.020830530356293 0.0093484326970494 0.00015
          0.021306208963658 0.0098107932917518 0.0003 0.020830530356293 0.0093484326970494 0.0003
          0.019927087042343 0.0089401115508047 0 0.019284140679376 0.0089915496868705 0
          0.019927087042343 0.0089401115508047 0.00015 0.019284140679376 0.0089915496868705 0.00015
          0.019927087042343 0.0089401115508047 0.0003 0.019284140679376 0.0089915496868705 0.0003
          0.023272296973232 0.01187913061167 0 0.023408043049707 0.012441583397961 0
          0.023272296973232 0.01187913061167 0.00015 0.023408043049707 0.012441583397961 0.00015
          0.023272296973232 0.01187913061167 0.0003 0.023408043049707 0.012441583397961 0.0003
          0.019291729405334 0.009640079412969 0 0.019291729405334 0.009640079412969 0.00015
          0.019291729405334 0.009640079412969 0.0003 0.019497075330812 0.012129782091497 0
          0.019497075330812 0.012129782091497 0.00015 0.019497075330812 0.012129782091497 0.0003
          0.018655444813331 0.0089912542068827 0 0.018655444813331 0.0089912542068827 0.00015
          0.018655444813331 0.0089912542068827 0.0003 0.020217772280624 0.01161574996656 0
          0.019866459267603 0.011787315550137 0 0.020217772280624 0.01161574996656 0.00015
          0.019866459267603 0.011787315550137 0.00015 0.020217772280624 0.01161574996656 0.0003
          0.019866459267603 0.011787315550137 0.0003 0.020169909004412 0.012559422291794 0
          0.020384615384626 0.013 0 0.020169909004412 0.012559422291794 0.00015
          0.020384615384626 0.013 0.00015 0.020169909004412 0.012559422291794 0.0003
          0.020384615384626 0.013 0.0003 0.02048968364866 0.012063778985416 0
          0.021216890903006 0.012503701361908 0 0.020684692364028 0.012535095885709 0
          0.02048968364866 0.012063778985416 0.00015 0.021216890903006 0.012503701361908 0.00015
          0.020684692364028 0.012535095885709 0.00015 0.02048968364866 0.012063778985416 0.0003
          0.021216890903006 0.012503701361908 0.0003 0.020684692364028 0.012535095885709 0.0003
          0.020897435897446 0.013 0 0.020897435897446 0.013 0.00015
          0.020897435897446 0.013 0.0003 0.020387511226442 0.0081443073342907 0
          0.02056343795537 0.0087688297792787 0 0.020387511226442 0.0081443073342907 0.00015
          0.02056343795537 0.0087688297792787 0.00015 0.020387511226442 0.0081443073342907 0.0003
          0.02056343795537 0.0087688297792787 0.0003 0.023967653117571 0.012391671962311 0
          0.024322147732379 0.012509260561901 0 0.023967653117571 0.012391671962311 0.00015
          0.024322147732379 0.012509260561901 0.00015 0.023967653117571 0.012391671962311 0.0003
          0.024322147732379 0.012509260561901 0.0003 0.021410256410266 0.013 0
          0.021410256410266 0.013 0.00015 0.021410256410266 0.013 0.0003
          0.019993073529409 0.012116879865089 0 0.019993073529409 0.012116879865089 0.00015
          0.019993073529409 0.012116879865089 0.0003 0.02122910202584 0.0090825003429501 0
          0.02122910202584 0.0090825003429501 0.00015 0.02122910202584 0.0090825003429501 0.0003
          0.022948717948721 0.013 0 0.022435897435903 0.013 0
          0.022948717948721 0.013 0.00015 0.022435897435903 0.013 0.00015
          0.022948717948721 0.013 0.0003 0.022435897435903 0.013 0.0003
          0.021923076923085 0.013 0 0.021923076923085 0.013 0.00015
          0.021923076923085 0.013 0.0003 0.023461538461539 0.013 0
          0.023461538461539 0.013 0.00015 0.023461538461539 0.013 0.0003
          0.021171209164951 0.0086229949315581 0 0.021171209164951 0.0086229949315581 0.00015
          0.021171209164951 0.0086229949315581 0.0003 0.023974358974358 0.013 0
          0.023974358974358 0.013 0.00015 0.023974358974358 0.013 0.0003
          0.024487179487177 0.013 0 0.024487179487177 0.013 0.00015
          0.024487179487177 0.013 0.0003 0.025 0.013 0
          0.025 0.013 0.00015 0.025 0.013 0.0003
          0.026666666666667 0.0072222222222063 0 0.026666666666667 0.0072222222222063 0.00015
          0.026666666666667 0.0072222222222063 0.0003 0.026666666666668 0.0086666666666559 0
          0.026666666666668 0.0086666666666559 0.00015 0.026666666666668 0.0086666666666559 0.0003
          0.026666666666669 0.010111111111103 0 0.026666666666669 0.010111111111103 0.00015
          0.026666666666669 0.010111111111103 0.0003 0.026666666666669 0.011555555555552 0
          0.026666666666669 0.011555555555552 0.00015 0.026666666666669 0.011555555555552 0.0003
          0.02666666666667 0.013 0 0.02666666666667 0.013 0.00015
          0.02666666666667 0.013 0.0003 0.033201501647561 0.0014698753983525 0
          0.033179797338052 0 0 0.033201501647561 0.0014698753983525 0.00015
          0.033179797338052 0 0.00015 0.033201501647561 0.0014698753983525 0.0003
          0.033179797338052 0 0.0003 0.034800103200053 0.0015015548376625 0
          0.034769696007096 0 0 0.034800103200053 0.0015015548376625 0.00015
          0.034769696007096 0 0.00015 0.034800103200053 0.0015015548376625 0.0003
          0.034769696007096 0 0.0003 0.03639613666046 0.0015457026119765 0
          0.036359594676111 0 0 0.03639613666046 0.0015457026119765 0.00015
          0.036359594676111 0 0.00015 0.03639613666046 0.0015457026119765 0.0003
          0.036359594676111 0 0.0003 0.037988764334349 0.001602116400018 0
          0.037949493345121 0 0 0.037988764334349 0.001602116400018 0.00015
          0.037949493345121 0 0.00015 0.037988764334349 0.001602116400018 0.0003
          0.037949493345121 0 0.0003 0.039577164134098 0.001670537667151 0
          0.039539392014149 0 0 0.039577164134098 0.001670537667151 0.00015
          0.039539392014149 0 0.00015 0.039577164134098 0.001670537667151 0.0003
          0.039539392014149 0 0.0003 0.041160533348121 0.0017506528505884 0
          0.041129290683195 0 0 0.041160533348121 0.0017506528505884 0.00015
          0.041129290683195 0 0.00015 0.041160533348121 0.0017506528505884 0.0003
          0.041129290683195 0 0.0003 0.042738092320879 0.0018420947973532 0
          0.042719189352233 0 0 0.042738092320879 0.0018420947973532 0.00015
          0.042719189352233 0 0.00015 0.042738092320879 0.0018420947973532 0.0003
          0.042719189352233 0 0.0003 0.044309088021254 0.0019444444444413 0
          0.044309088021254 0 0 0.044309088021254 0.0019444444444413 0.00015
          0.044309088021254 0 0.00015 0.044309088021254 0.0019444444444413 0.0003
          0.044309088021254 0 0.0003 0.033223205957069 0.0029397507967035 0
          0.033223205957069 0.0029397507967035 0.00015 0.033223205957069 0.0029397507967035 0.0003
          0.03483051039301 0.0030031096753234 0 0.03483051039301 0.0030031096753234 0.00015
          0.03483051039301 0.0030031096753234 0.0003 0.036432678644808 0.0030914052239513 0
          0.036432678644808 0.0030914052239513 0.00015 0.036432678644808 0.0030914052239513 0.0003
          0.038028035323577 0.0032042328000343 0 0.038028035323577 0.0032042328000343 0.00015
          0.038028035323577 0.0032042328000343 0.0003 0.039614936254047 0.0033410753343001 0
          0.039614936254047 0.0033410753343001 0.00015 0.039614936254047 0.0033410753343001 0.0003
          0.041191776013048 0.0035013057011749 0 0.041191776013048 0.0035013057011749 0.00015
          0.041191776013048 0.0035013057011749 0.0003 0.042756995289524 0.0036841895947044 0
          0.042756995289524 0.0036841895947044 0.00015 0.042756995289524 0.0036841895947044 0.0003
          0.044309088021254 0.0038888888888803 0 0.044309088021254 0.0038888888888803 0.00015
          0.044309088021254 0.0038888888888803 0.0003 0.033244910266578 0.0044096261950543 0
          0.033244910266578 0.0044096261950543 0.00015 0.033244910266578 0.0044096261950543 0.0003
          0.034860917585967 0.004504664512984 0 0.034860917585967 0.004504664512984 0.00015
          0.034860917585967 0.004504664512984 0.0003 0.036469220629156 0.0046371078359259 0
          0.036469220629156 0.0046371078359259 0.00015 0.036469220629156 0.0046371078359259 0.0003
          0.038067306312805 0.0048063492000502 0 0.038067306312805 0.0048063492000502 0.00015
          0.038067306312805 0.0048063492000502 0.0003 0.039652708373995 0.0050116130014489 0
          0.039652708373995 0.0050116130014489 0.00015 0.039652708373995 0.0050116130014489 0.0003
          0.041223018677975 0.005251958551761 0 0.041223018677975 0.005251958551761 0.00015
          0.041223018677975 0.005251958551761 0.0003 0.04277589825817 0.0055262843920551 0
          0.04277589825817 0.0055262843920551 0.00015 0.04277589825817 0.0055262843920551 0.0003
          0.044309088021254 0.0058333333333189 0 0.044309088021254 0.0058333333333189 0.00015
          0.044309088021254 0.0058333333333189 0.0003 0.033266614576087 0.0058795015934051 0
          0.033266614576087 0.0058795015934051 0.00015 0.033266614576087 0.0058795015934051 0.0003
          0.034891324778924 0.0060062193506447 0 0.034891324778924 0.0060062193506447 0.00015
          0.034891324778924 0.0060062193506447 0.0003 0.036505762613504 0.0061828104479004 0
          0.036505762613504 0.0061828104479004 0.00015 0.036505762613504 0.0061828104479004 0.0003
          0.038106577302032 0.0064084656000662 0 0.038106577302032 0.0064084656000662 0.00015
          0.038106577302032 0.0064084656000662 0.0003 0.039690480493944 0.0066821506685977 0
          0.039690480493944 0.0066821506685977 0.00015 0.039690480493944 0.0066821506685977 0.0003
          0.041254261342902 0.0070026114023471 0 0.041254261342902 0.0070026114023471 0.00015
          0.041254261342902 0.0070026114023471 0.0003 0.042794801226816 0.0073683791894058 0
          0.042794801226816 0.0073683791894058 0.00015 0.042794801226816 0.0073683791894058 0.0003
          0.044309088021254 0.0077777777777574 0 0.044309088021254 0.0077777777777574 0.00015
          0.044309088021254 0.0077777777777574 0.0003 0.033288318885596 0.0073493769917596 0
          0.033288318885596 0.0073493769917596 0.00015 0.033288318885596 0.0073493769917596 0.0003
          0.034921731971881 0.0075077741883091 0 0.034921731971881 0.0075077741883091 0.00015
          0.034921731971881 0.0075077741883091 0.0003 0.036542304597852 0.0077285130598789 0
          0.036542304597852 0.0077285130598789 0.00015 0.036542304597852 0.0077285130598789 0.0003
          0.03814584829126 0.0080105820000862 0 0.03814584829126 0.0080105820000862 0.00015
          0.03814584829126 0.0080105820000862 0.0003 0.039728252613893 0.0083526883357508 0
          0.039728252613893 0.0083526883357508 0.00015 0.039728252613893 0.0083526883357508 0.0003
          0.041285504007829 0.0087532642529377 0 0.041285504007829 0.0087532642529377 0.00015
          0.041285504007829 0.0087532642529377 0.0003 0.042813704195461 0.0092104739867613 0
          0.042813704195461 0.0092104739867613 0.00015 0.042813704195461 0.0092104739867613 0.0003
          0.044309088021254 0.0097222222222011 0 0.044309088021254 0.0097222222222011 0.00015
          0.044309088021254 0.0097222222222011 0.0003 0.031657595460571 0.0087048568522863 0
          0.031657595460571 0.0087048568522863 0.00015 0.031657595460571 0.0087048568522863 0.0003
          0.033310023195106 0.0088192523901195 0 0.033310023195106 0.0088192523901195 0.00015
          0.033310023195106 0.0088192523901195 0.0003 0.034952139164838 0.009009329025979 0
          0.034952139164838 0.009009329025979 0.00015 0.034952139164838 0.009009329025979 0.0003
          0.0365788465822 0.0092742156718627 0 0.0365788465822 0.0092742156718627 0.00015
          0.0365788465822 0.0092742156718627 0.0003 0.038185119280488 0.0096126984001116 0
          0.038185119280488 0.0096126984001116 0.00015 0.038185119280488 0.0096126984001116 0.0003
          0.039766024733842 0.010023226002909 0 0.039766024733842 0.010023226002909 0.00015
          0.039766024733842 0.010023226002909 0.0003 0.041316746672756 0.010503917103534 0
          0.041316746672756 0.010503917103534 0.00015 0.041316746672756 0.010503917103534 0.0003
          0.042832607164107 0.011052568784123 0 0.042832607164107 0.011052568784123 0.00015
          0.042832607164107 0.011052568784123 0.0003 0.044309088021254 0.011666666666651 0
          0.044309088021254 0.011666666666651 0.00015 0.044309088021254 0.011666666666651 0.0003
          0.031668878259163 0.010155666327672 0 0.031668878259163 0.010155666327672 0.00015
          0.031668878259163 0.010155666327672 0.0003 0.033331727504615 0.010289127788478 0
          0.033331727504615 0.010289127788478 0.00015 0.033331727504615 0.010289127788478 0.0003
          0.034982546357795 0.010510883863647 0 0.034982546357795 0.010510883863647 0.00015
          0.034982546357795 0.010510883863647 0.0003 0.036615388566549 0.010819918283845 0
          0.036615388566549 0.010819918283845 0.00015 0.036615388566549 0.010819918283845 0.0003
          0.038224390269716 0.011214814800136 0 0.038224390269716 0.011214814800136 0.00015
          0.038224390269716 0.011214814800136 0.0003 0.039803796853791 0.011693763670067 0
          0.039803796853791 0.011693763670067 0.00015 0.039803796853791 0.011693763670067 0.0003
          0.041347989337683 0.012254569954129 0 0.041347989337683 0.012254569954129 0.00015
          0.041347989337683 0.012254569954129 0.0003 0.042851510132752 0.012894663581483 0
          0.042851510132752 0.012894663581483 0.00015 0.042851510132752 0.012894663581483 0.0003
          0.044309088021254 0.0136111111111 0 0.044309088021254 0.0136111111111 0.00015
          0.044309088021254 0.0136111111111 0.0003 0.031680161057755 0.011606475803059 0
          0.031680161057755 0.011606475803059 0.00015 0.031680161057755 0.011606475803059 0.0003
          0.033353431814124 0.011759003186837 0 0.033353431814124 0.011759003186837 0.00015
          0.033353431814124 0.011759003186837 0.0003 0.035012953550752 0.012012438701317 0
          0.035012953550752 0.012012438701317 0.00015 0.035012953550752 0.012012438701317 0.0003
          0.036651930550897 0.012365620895829 0 0.036651930550897 0.012365620895829 0.00015
          0.036651930550897 0.012365620895829 0.0003 0.038263661258944 0.012816931200161 0
          0.038263661258944 0.012816931200161 0.00015 0.038263661258944 0.012816931200161 0.0003
          0.03984156897374 0.013364301337225 0 0.03984156897374 0.013364301337225 0.00015
          0.03984156897374 0.013364301337225 0.0003 0.04137923200261 0.014005222804725 0
          0.04137923200261 0.014005222804725 0.00015 0.04137923200261 0.014005222804725 0.0003
          0.042870413101398 0.014736758378844 0 0.042870413101398 0.014736758378844 0.00015
          0.042870413101398 0.014736758378844 0.0003 0.044309088021254 0.015555555555549 0
          0.044309088021254 0.015555555555549 0.00015 0.044309088021254 0.015555555555549 0.0003
          0.031691443856347 0.013057285278446 0 0.031691443856347 0.013057285278446 0.00015
          0.031691443856347 0.013057285278446 0.0003 0.033375136123633 0.013228878585196 0
          0.033375136123633 0.013228878585196 0.00015 0.033375136123633 0.013228878585196 0.0003
          0.035043360743709 0.013513993538986 0 0.035043360743709 0.013513993538986 0.00015
          0.035043360743709 0.013513993538986 0.0003 0.036688472535245 0.013911323507812 0
          0.036688472535245 0.013911323507812 0.00015 0.036688472535245 0.013911323507812 0.0003
          0.038302932248172 0.014419047600187 0 0.038302932248172 0.014419047600187 0.00015
          0.038302932248172 0.014419047600187 0.0003 0.039879341093689 0.015034839004384 0
          0.039879341093689 0.015034839004384 0.00015 0.039879341093689 0.015034839004384 0.0003
          0.041410474667538 0.015755875655322 0 0.041410474667538 0.015755875655322 0.00015
          0.041410474667538 0.015755875655322 0.0003 0.042889316070044 0.016578853176207 0
          0.042889316070044 0.016578853176207 0.00015 0.042889316070044 0.016578853176207 0.0003
          0.044309088021254 0.0175 0 0.044309088021254 0.0175 0.00015
          0.044309088021254 0.0175 0.0003 0.045420199132363 0 0
          0.045420199132363 0.0019444444444413 0 0.045420199132363 0 0.00015
          0.045420199132363 0.0019444444444413 0.00015 0.045420199132363 0 0.0003
          0.045420199132363 0.0019444444444413 0.0003 0.045420199132363 0.0038888888888803 0
          0.045420199132363 0.0038888888888803 0.00015 0.045420199132363 0.0038888888888803 0.0003
          0.045420199132363 0.0058333333333189 0 0.045420199132363 0.0058333333333189 0.00015
          0.045420199132363 0.0058333333333189 0.0003 0.045420199132363 0.0077777777777574 0
          0.045420199132363 0.0077777777777574 0.00015 0.045420199132363 0.0077777777777574 0.0003
          0.045420199132363 0.0097222222222011 0 0.045420199132363 0.0097222222222011 0.00015
          0.045420199132363 0.0097222222222011 0.0003 0.045420199132363 0.011666666666651 0
          0.045420199132363 0.011666666666651 0.00015 0.045420199132363 0.011666666666651 0.0003
          0.045420199132363 0.0136111111111 0 0.045420199132363 0.0136111111111 0.00015
          0.045420199132363 0.0136111111111 0.0003 0.045420199132363 0.015555555555549 0
          0.045420199132363 0.015555555555549 0.00015 0.045420199132363 0.015555555555549 0.0003
          0.045420199132363 0.0175 0 0.045420199132363 0.0175 0.00015
          0.045420199132363 0.0175 0.0003 0.046531310243475 0 0
          0.046531310243475 0.0019444444444413 0 0.046531310243475 0 0.00015
          0.046531310243475 0.0019444444444413 0.00015 0.046531310243475 0 0.0003
          0.046531310243475 0.0019444444444413 0.0003 0.046531310243475 0.0038888888888803 0
          0.046531310243475 0.0038888888888803 0.00015 0.046531310243475 0.0038888888888803 0.0003
          0.046531310243475 0.0058333333333189 0 0.046531310243475 0.0058333333333189 0.00015
          0.046531310243475 0.0058333333333189 0.0003 0.046531310243475 0.0077777777777574 0
          0.046531310243475 0.0077777777777574 0.00015 0.046531310243475 0.0077777777777574 0.0003
          0.046531310243475 0.0097222222222011 0 0.046531310243475 0.0097222222222011 0.00015
          0.046531310243475 0.0097222222222011 0.0003 0.046531310243475 0.011666666666651 0
          0.046531310243475 0.011666666666651 0.00015 0.046531310243475 0.011666666666651 0.0003
          0.046531310243475 0.0136111111111 0 0.046531310243475 0.0136111111111 0.00015
          0.046531310243475 0.0136111111111 0.0003 0.046531310243475 0.015555555555549 0
          0.046531310243475 0.015555555555549 0.00015 0.046531310243475 0.015555555555549 0.0003
          0.046531310243475 0.0175 0 0.046531310243475 0.0175 0.00015
          0.046531310243475 0.0175 0.0003 0.04764242135458 0 0
          0.04764242135458 0.0019444444444413 0 0.04764242135458 0 0.00015
          0.04764242135458 0.0019444444444413 0.00015 0.04764242135458 0 0.0003
          0.04764242135458 0.0019444444444413 0.0003 0.04764242135458 0.0038888888888803 0
          0.04764242135458 0.0038888888888803 0.00015 0.04764242135458 0.0038888888888803 0.0003
          0.04764242135458 0.0058333333333189 0 0.04764242135458 0.0058333333333189 0.00015
          0.04764242135458 0.0058333333333189 0.0003 0.04764242135458 0.0077777777777574 0
          0.04764242135458 0.0077777777777574 0.00015 0.04764242135458 0.0077777777777574 0.0003
          0.04764242135458 0.0097222222222011 0 0.04764242135458 0.0097222222222011 0.00015
          0.04764242135458 0.0097222222222011 0.0003 0.04764242135458 0.011666666666651 0
          0.04764242135458 0.011666666666651 0.00015 0.04764242135458 0.011666666666651 0.0003
          0.04764242135458 0.0136111111111 0 0.04764242135458 0.0136111111111 0.00015
          0.04764242135458 0.0136111111111 0.0003 0.04764242135458 0.015555555555549 0
          0.04764242135458 0.015555555555549 0.00015 0.04764242135458 0.015555555555549 0.0003
          0.04764242135458 0.0175 0 0.04764242135458 0.0175 0.00015
          0.04764242135458 0.0175 0.0003 0.048753532465692 0 0
          0.048753532465692 0.0019444444444413 0 0.048753532465692 0 0.00015
          0.048753532465692 0.0019444444444413 0.00015 0.048753532465692 0 0.0003
          0.048753532465692 0.0019444444444413 0.0003 0.048753532465692 0.0038888888888803 0
          0.048753532465692 0.0038888888888803 0.00015 0.048753532465692 0.0038888888888803 0.0003
          0.048753532465692 0.0058333333333189 0 0.048753532465692 0.0058333333333189 0.00015
          0.048753532465692 0.0058333333333189 0.0003 0.048753532465692 0.0077777777777574 0
          0.048753532465692 0.0077777777777574 0.00015 0.048753532465692 0.0077777777777574 0.0003
          0.048753532465692 0.0097222222222011 0 0.048753532465692 0.0097222222222011 0.00015
          0.048753532465692 0.0097222222222011 0.0003 0.048753532465692 0.011666666666651 0
          0.048753532465692 0.011666666666651 0.00015 0.048753532465692 0.011666666666651 0.0003
          0.048753532465692 0.0136111111111 0 0.048753532465692 0.0136111111111 0.00015
          0.048753532465692 0.0136111111111 0.0003 0.048753532465692 0.015555555555549 0
          0.048753532465692 0.015555555555549 0.00015 0.048753532465692 0.015555555555549 0.0003
          0.048753532465692 0.0175 0 0.048753532465692 0.0175 0.00015
          0.048753532465692 0.0175 0.0003 0.0498646435768 0 0
          0.0498646435768 0.0019444444444413 0 0.0498646435768 0 0.00015
          0.0498646435768 0.0019444444444413 0.00015 0.0498646435768 0 0.0003
          0.0498646435768 0.0019444444444413 0.0003 0.0498646435768 0.0038888888888803 0
          0.0498646435768 0.0038888888888803 0.00015 0.0498646435768 0.0038888888888803 0.0003
          0.0498646435768 0.0058333333333189 0 0.0498646435768 0.0058333333333189 0.00015
          0.0498646435768 0.0058333333333189 0.0003 0.0498646435768 0.0077777777777574 0
          0.0498646435768 0.0077777777777574 0.00015 0.0498646435768 0.0077777777777574 0.0003
          0.0498646435768 0.0097222222222011 0 0.0498646435768 0.0097222222222011 0.00015
          0.0498646435768 0.0097222222222011 0.0003 0.0498646435768 0.011666666666651 0
          0.0498646435768 0.011666666666651 0.00015 0.0498646435768 0.011666666666651 0.0003
          0.0498646435768 0.0136111111111 0 0.0498646435768 0.0136111111111 0.00015
          0.0498646435768 0.0136111111111 0.0003 0.0498646435768 0.015555555555549 0
          0.0498646435768 0.015555555555549 0.00015 0.0498646435768 0.015555555555549 0.0003
          0.0498646435768 0.0175 0 0.0498646435768 0.0175 0.00015
          0.0498646435768 0.0175 0.0003 0.050975754687912 0 0
          0.050975754687912 0.0019444444444413 0 0.050975754687912 0 0.00015
          0.050975754687912 0.0019444444444413 0.00015 0.050975754687912 0 0.0003
          0.050975754687912 0.0019444444444413 0.0003 0.050975754687912 0.0038888888888803 0
          0.050975754687912 0.0038888888888803 0.00015 0.050975754687912 0.0038888888888803 0.0003
          0.050975754687912 0.0058333333333189 0 0.050975754687912 0.0058333333333189 0.00015
          0.050975754687912 0.0058333333333189 0.0003 0.050975754687912 0.0077777777777574 0
          0.050975754687912 0.0077777777777574 0.00015 0.050975754687912 0.0077777777777574 0.0003
          0.050975754687912 0.0097222222222011 0 0.050975754687912 0.0097222222222011 0.00015
          0.050975754687912 0.0097222222222011 0.0003 0.050975754687912 0.011666666666651 0
          0.050975754687912 0.011666666666651 0.00015 0.050975754687912 0.011666666666651 0.0003
          0.050975754687912 0.0136111111111 0 0.050975754687912 0.0136111111111 0.00015
          0.050975754687912 0.0136111111111 0.0003 0.050975754687912 0.015555555555549 0
          0.050975754687912 0.015555555555549 0.00015 0.050975754687912 0.015555555555549 0.0003
          0.050975754687912 0.0175 0 0.050975754687912 0.0175 0.00015
          0.050975754687912 0.0175 0.0003 0.052086865799025 0 0
          0.052086865799025 0.0019444444444413 0 0.052086865799025 0 0.00015
          0.052086865799025 0.0019444444444413 0.00015 0.052086865799025 0 0.0003
          0.052086865799025 0.0019444444444413 0.0003 0.052086865799025 0.0038888888888803 0
          0.052086865799025 0.0038888888888803 0.00015 0.052086865799025 0.0038888888888803 0.0003
          0.052086865799025 0.0058333333333189 0 0.052086865799025 0.0058333333333189 0.00015
          0.052086865799025 0.0058333333333189 0.0003 0.052086865799025 0.0077777777777574 0
          0.052086865799025 0.0077777777777574 0.00015 0.052086865799025 0.0077777777777574 0.0003
          0.052086865799025 0.0097222222222011 0 0.052086865799025 0.0097222222222011 0.00015
          0.052086865799025 0.0097222222222011 0.0003 0.052086865799025 0.011666666666651 0
          0.052086865799025 0.011666666666651 0.00015 0.052086865799025 0.011666666666651 0.0003
          0.052086865799025 0.0136111111111 0 0.052086865799025 0.0136111111111 0.00015
          0.052086865799025 0.0136111111111 0.0003 0.052086865799025 0.015555555555549 0
          0.052086865799025 0.015555555555549 0.00015 0.052086865799025 0.015555555555549 0.0003
          0.052086865799025 0.0175 0 0.052086865799025 0.0175 0.00015
          0.052086865799025 0.0175 0.0003 0.05319797691014 0 0
          0.05319797691014 0.0019444444444413 0 0.05319797691014 0 0.00015
          0.05319797691014 0.0019444444444413 0.00015 0.05319797691014 0 0.0003
          0.05319797691014 0.0019444444444413 0.0003 0.05319797691014 0.0038888888888803 0
          0.05319797691014 0.0038888888888803 0.00015 0.05319797691014 0.0038888888888803 0.0003
          0.05319797691014 0.0058333333333189 0 0.05319797691014 0.0058333333333189 0.00015
          0.05319797691014 0.0058333333333189 0.0003 0.05319797691014 0.0077777777777574 0
          0.05319797691014 0.0077777777777574 0.00015 0.05319797691014 0.0077777777777574 0.0003
          0.05319797691014 0.0097222222222011 0 0.05319797691014 0.0097222222222011 0.00015
          0.05319797691014 0.0097222222222011 0.0003 0.05319797691014 0.011666666666651 0
          0.05319797691014 0.011666666666651 0.00015 0.05319797691014 0.011666666666651 0.0003
          0.05319797691014 0.0136111111111 0 0.05319797691014 0.0136111111111 0.00015
          0.05319797691014 0.0136111111111 0.0003 0.05319797691014 0.015555555555549 0
          0.05319797691014 0.015555555555549 0.00015 0.05319797691014 0.015555555555549 0.0003
          0.05319797691014 0.0175 0 0.05319797691014 0.0175 0.00015
          0.05319797691014 0.0175 0.0003 0.054309088021254 0 0
          0.054309088021254 0.0019444444444413 0 0.054309088021254 0 0.00015
          0.054309088021254 0.0019444444444413 0.00015 0.054309088021254 0 0.0003
          0.054309088021254 0.0019444444444413 0.0003 0.054309088021254 0.0038888888888803 0
          0.054309088021254 0.0038888888888803 0.00015 0.054309088021254 0.0038888888888803 0.0003
          0.054309088021254 0.0058333333333189 0 0.054309088021254 0.0058333333333189 0.00015
          0.054309088021254 0.0058333333333189 0.0003 0.054309088021254 0.0077777777777574 0
          0.054309088021254 0.0077777777777574 0.00015 0.054309088021254 0.0077777777777574 0.0003
          0.054309088021254 0.0097222222222011 0 0.054309088021254 0.0097222222222011 0.00015
          0.054309088021254 0.0097222222222011 0.0003 0.054309088021254 0.011666666666651 0
          0.054309088021254 0.011666666666651 0.00015 0.054309088021254 0.011666666666651 0.0003
          0.054309088021254 0.0136111111111 0 0.054309088021254 0.0136111111111 0.00015
          0.054309088021254 0.0136111111111 0.0003 0.054309088021254 0.015555555555549 0
          0.054309088021254 0.015555555555549 0.00015 0.054309088021254 0.015555555555549 0.0003
          0.054309088021254 0.0175 0 0.054309088021254 0.0175 0.00015
          0.054309088021254 0.0175 0.0003
          <InformationKey name="L2_NORM_RANGE" location="vtkDataArray" length="2">
            <Value index="0">
              0.019949534491
            </Value>
            <Value index="1">
              0.057059767277
            </Value>
          </InformationKey>
        </DataArray>
      </Points>
      <Cells>
        <DataArray type="Int64" Name="connectivity" format="ascii" RangeMin="0" RangeMax="818">
          0 1 2 3 4 5
          6 7 4 5 6 7
          8 9 10 11 12 13
          14 15 16 17 18 19
          16 17 18 19 20 21
          22 23 24 0 3 25
          26 4 7 27 26 4
          7 27 28 8 11 29
          30 31 32 14 33 34
          35 18 33 34 35 18
          36 37 38 22 39 40
          41 42 43 44 45 46
          43 44 45 46 47 48
          49 50 51 52 53 54
          55 56 57 58 55 56
          57 58 59 60 61 62
          13 63 64 65 17 66
          67 68 17 66 67 68
          21 69 70 71 0 24
          32 72 4 26 35 73
          4 26 35 73 8 28
          38 74 24 15 14 32
          26 19 18 35 26 19
          18 35 28 23 22 38
          13 65 30 14 17 68
          33 18 17 68 33 18
          21 71 36 22 93 94
          95 96 97 98 99 100
          97 98 99 100 101 102
          103 104 72 32 31 81
          73 35 34 83 73 35
          34 83 74 38 37 85
          53 40 39 54 57 44
          43 58 57 44 43 58
          61 48 47 62 31 30
          111 82 34 33 112 84
          34 33 112 84 37 36
          113 86 12 15 114 115
          16 19 116 117 16 19
          116 117 20 23 118 119
          120 121 122 123 124 125
          126 127 124 125 126 127
          128 129 130 131 64 76
          75 65 67 78 77 68
          67 78 77 68 70 80
          79 71 132 133 54 39
          134 135 58 43 134 135
          58 43 136 137 62 47
          53 141 41 40 57 142
          45 44 57 142 45 44
          61 143 49 48 111 30
          65 75 112 33 68 77
          112 33 68 77 113 36
          71 79 54 150 151 51
          58 152 153 55 58 152
          153 55 62 154 155 59
          156 122 121 157 158 126
          125 159 158 126 125 159
          160 130 129 161 162 88
          108 138 163 90 109 139
          163 90 109 139 164 92
          110 140 168 87 88 162
          169 89 90 163 169 89
          90 163 170 91 92 164
          121 165 171 157 125 166
          172 159 125 166 172 159
          129 167 173 161 132 39
          42 183 134 43 46 184
          134 43 46 184 136 47
          50 185 186 96 95 187
          188 100 99 189 188 100
          99 189 190 104 103 191
          192 193 122 156 194 195
          126 158 194 195 126 158
          196 197 130 160 183 42
          96 186 184 46 100 188
          184 46 100 188 185 50
          104 190 151 150 198 199
          153 152 200 201 153 152
          200 201 155 154 202 203
          174 145 144 204 175 147
          146 205 175 147 146 205
          176 149 148 206 193 192
          95 204 195 194 99 205
          195 194 99 205 197 196
          103 206 123 122 193 210
          127 126 195 211 127 126
          195 211 131 130 197 212
          93 96 42 41 97 100
          46 45 97 100 46 45
          101 104 50 49 213 214
          87 168 215 216 89 169
          215 216 89 169 217 218
          91 170 178 219 220 177
          180 221 222 179 180 221
          222 179 182 223 224 181
          225 141 226 227 228 142
          229 230 228 142 229 230
          231 143 232 233 120 105
          165 121 124 106 166 125
          124 106 166 125 128 107
          167 129 210 193 204 144
          211 195 205 146 211 195
          205 146 212 197 206 148
          219 227 234 220 221 230
          235 222 221 230 235 222
          223 233 236 224 94 174
          204 95 98 175 205 99
          98 175 205 99 102 176
          206 103 192 156 237 238
          194 158 239 240 194 158
          239 240 196 160 241 242
          243 2 1 244 245 6
          5 246 245 6 5 246
          247 10 9 248 227 226
          249 234 230 229 250 235
          230 229 250 235 233 232
          251 236 238 187 95 192
          240 189 99 194 240 189
          99 194 242 191 103 196
          252 207 87 214 253 208
          89 216 253 208 89 216
          254 209 91 218 187 255
          115 186 189 256 117 188
          189 256 117 188 191 257
          119 190 94 162 138 174
          98 163 139 175 98 163
          139 175 102 164 140 176
          64 63 237 171 67 66
          239 172 67 66 239 172
          70 69 241 173 41 213
          168 93 45 215 169 97
          45 215 169 97 49 217
          170 101 2 198 133 3
          6 200 135 7 6 200
          135 7 10 202 137 11
          25 114 15 24 27 116
          19 26 27 116 19 26
          29 118 23 28 114 183
          186 115 116 184 188 117
          116 184 188 117 118 185
          190 119 51 151 258 259
          55 153 260 261 55 153
          260 261 59 155 262 263
          226 52 264 249 229 56
          265 250 229 56 265 250
          232 60 266 251 198 150
          54 133 200 152 58 135
          200 152 58 135 202 154
          62 137 64 171 165 76
          67 172 166 78 67 172
          166 78 70 173 167 80
          52 51 259 264 56 55
          261 265 56 55 261 265
          60 59 263 266 171 237
          156 157 172 239 158 159
          172 239 158 159 173 241
          160 161 252 214 213 225
          253 216 215 228 253 216
          215 228 254 218 217 231
          151 199 267 258 153 201
          268 260 153 201 268 260
          155 203 269 262 63 13
          12 270 66 17 16 271
          66 17 16 271 69 21
          20 272 270 255 187 238
          271 256 189 240 271 256
          189 240 272 257 191 242
          199 198 2 243 201 200
          6 245 201 200 6 245
          203 202 10 247 225 213
          41 141 228 215 45 142
          228 215 45 142 231 217
          49 143 52 226 141 53
          56 229 142 57 56 229
          142 57 60 232 143 61
          25 132 183 114 27 134
          184 116 27 134 184 116
          29 136 185 118 252 225
          227 219 253 228 230 221
          253 228 230 221 254 231
          233 223 219 178 207 252
          221 180 208 253 221 180
          208 253 223 182 209 254
          25 3 133 132 27 7
          135 134 27 7 135 134
          29 11 137 136 93 168
          162 94 97 169 163 98
          97 169 163 98 101 170
          164 102 270 12 115 255
          271 16 117 256 271 16
          117 256 272 20 119 257
          199 243 273 267 201 245
          274 268 201 245 274 268
          203 247 275 269 63 270
          238 237 66 271 240 239
          66 271 240 239 69 272
          242 241 243 244 276 273
          245 246 277 274 245 246
          277 274 247 248 278 275
          276 244 1 279 277 246
          5 280 277 246 5 280
          278 248 9 281 285 72
          81 282 286 73 83 283
          286 73 83 283 287 74
          85 284 288 0 72 285
          289 4 73 286 289 4
          73 286 290 8 74 287
          291 1 0 288 292 5
          4 289 292 5 4 289
          293 9 8 290 294 279
          1 291 295 280 5 292
          295 280 5 292 296 281
          9 293 303 297 298 304
          305 299 300 306 305 299
          300 306 307 301 302 308
          309 303 304 310 311 305
          306 312 311 305 306 312
          313 307 308 314 315 309
          310 316 317 311 312 318
          317 311 312 318 319 313
          314 320 321 315 316 322
          323 317 318 324 323 317
          318 324 325 319 320 326
          327 321 322 328 329 323
          324 330 329 323 324 330
          331 325 326 332 333 327
          328 334 335 329 330 336
          335 329 330 336 337 331
          332 338 339 333 334 340
          341 335 336 342 341 335
          336 342 343 337 338 344
          348 345 297 303 349 346
          299 305 349 346 299 305
          350 347 301 307 351 348
          303 309 352 349 305 311
          352 349 305 311 353 350
          307 313 354 351 309 315
          355 352 311 317 355 352
          311 317 356 353 313 319
          357 354 315 321 358 355
          317 323 358 355 317 323
          359 356 319 325 360 357
          321 327 361 358 323 329
          361 358 323 329 362 359
          325 331 363 360 327 333
          364 361 329 335 364 361
          329 335 365 362 331 337
          366 363 333 339 367 364
          335 341 367 364 335 341
          368 365 337 343 372 369
          345 348 373 370 346 349
          373 370 346 349 374 371
          347 350 375 372 348 351
          376 373 349 352 376 373
          349 352 377 374 350 353
          378 375 351 354 379 376
          352 355 379 376 352 355
          380 377 353 356 381 378
          354 357 382 379 355 358
          382 379 355 358 383 380
          356 359 384 381 357 360
          385 382 358 361 385 382
          358 361 386 383 359 362
          387 384 360 363 388 385
          361 364 388 385 361 364
          389 386 362 365 390 387
          363 366 391 388 364 367
          391 388 364 367 392 389
          365 368 396 393 369 372
          397 394 370 373 397 394
          370 373 398 395 371 374
          399 396 372 375 400 397
          373 376 400 397 373 376
          401 398 374 377 402 399
          375 378 403 400 376 379
          403 400 376 379 404 401
          377 380 405 402 378 381
          406 403 379 382 406 403
          379 382 407 404 380 383
          408 405 381 384 409 406
          382 385 409 406 382 385
          410 407 383 386 411 408
          384 387 412 409 385 388
          412 409 385 388 413 410
          386 389 414 411 387 390
          415 412 388 391 415 412
          388 391 416 413 389 392
          420 417 393 396 421 418
          394 397 421 418 394 397
          422 419 395 398 423 420
          396 399 424 421 397 400
          424 421 397 400 425 422
          398 401 426 423 399 402
          427 424 400 403 427 424
          400 403 428 425 401 404
          429 426 402 405 430 427
          403 406 430 427 403 406
          431 428 404 407 432 429
          405 408 433 430 406 409
          433 430 406 409 434 431
          407 410 435 432 408 411
          436 433 409 412 436 433
          409 412 437 434 410 413
          438 435 411 414 439 436
          412 415 439 436 412 415
          440 437 413 416 447 444
          417 420 448 445 418 421
          448 445 418 421 449 446
          419 422 450 447 420 423
          451 448 421 424 451 448
          421 424 452 449 422 425
          453 450 423 426 454 451
          424 427 454 451 424 427
          455 452 425 428 456 453
          426 429 457 454 427 430
          457 454 427 430 458 455
          428 431 459 456 429 432
          460 457 430 433 460 457
          430 433 461 458 431 434
          462 459 432 435 463 460
          433 436 463 460 433 436
          464 461 434 437 465 462
          435 438 466 463 436 439
          466 463 436 439 467 464
          437 440 471 468 441 444
          472 469 442 445 472 469
          442 445 473 470 443 446
          474 471 444 447 475 472
          445 448 475 472 445 448
          476 473 446 449 477 474
          447 450 478 475 448 451
          478 475 448 451 479 476
          449 452 480 477 450 453
          481 478 451 454 481 478
          451 454 482 479 452 455
          483 480 453 456 484 481
          454 457 484 481 454 457
          485 482 455 458 486 483
          456 459 487 484 457 460
          487 484 457 460 488 485
          458 461 489 486 459 462
          490 487 460 463 490 487
          460 463 491 488 461 464
          492 489 462 465 493 490
          463 466 493 490 463 466
          494 491 464 467 498 495
          468 471 499 496 469 472
          499 496 469 472 500 497
          470 473 501 498 471 474
          502 499 472 475 502 499
          472 475 503 500 473 476
          504 501 474 477 505 502
          475 478 505 502 475 478
          506 503 476 479 507 504
          477 480 508 505 478 481
          508 505 478 481 509 506
          479 482 510 507 480 483
          511 508 481 484 511 508
          481 484 512 509 482 485
          513 510 483 486 514 511
          484 487 514 511 484 487
          515 512 485 488 516 513
          486 489 517 514 487 490
          517 514 487 490 518 515
          488 491 519 516 489 492
          520 517 490 493 520 517
          490 493 521 518 491 494
          525 522 495 498 526 523
          496 499 526 523 496 499
          527 524 497 500 528 525
          498 501 529 526 499 502
          529 526 499 502 530 527
          500 503 531 528 501 504
          532 529 502 505 532 529
          502 505 533 530 503 506
          534 531 504 507 535 532
          505 508 535 532 505 508
          536 533 506 509 537 534
          507 510 538 535 508 511
          538 535 508 511 539 536
          509 512 540 537 510 513
          541 538 511 514 541 538
          511 514 542 539 512 515
          543 540 513 516 544 541
          514 517 544 541 514 517
          545 542 515 518 546 543
          516 519 547 544 517 520
          547 544 517 520 548 545
          518 521 340 549 550 339
          342 551 552 341 342 551
          552 341 344 553 554 343
          339 550 555 366 341 552
          556 367 341 552 556 367
          343 554 557 368 366 555
          558 390 367 556 559 391
          367 556 559 391 368 557
          560 392 390 558 561 414
          391 559 562 415 391 559
          562 415 392 560 563 416
          414 561 564 438 415 562
          565 439 415 562 565 439
          416 563 566 440 438 564
          567 465 439 565 568 466
          439 565 568 466 440 566
          569 467 465 567 570 492
          466 568 571 493 466 568
          571 493 467 569 572 494
          492 570 573 519 493 571
          574 520 493 571 574 520
          494 572 575 521 519 573
          576 546 520 574 577 547
          520 574 577 547 521 575
          578 548 549 579 580 550
          551 581 582 552 551 581
          582 552 553 583 584 554
          550 580 585 555 552 582
          586 556 552 582 586 556
          554 584 587 557 555 585
          588 558 556 586 589 559
          556 586 589 559 557 587
          590 560 558 588 591 561
          559 589 592 562 559 589
          592 562 560 590 593 563
          561 591 594 564 562 592
          595 565 562 592 595 565
          563 593 596 566 564 594
          597 567 565 595 598 568
          565 595 598 568 566 596
          599 569 567 597 600 570
          568 598 601 571 568 598
          601 571 569 599 602 572
          570 600 603 573 571 601
          604 574 571 601 604 574
          572 602 605 575 573 603
          606 576 574 604 607 577
          574 604 607 577 575 605
          608 578 579 609 610 580
          581 611 612 582 581 611
          612 582 583 613 614 584
          580 610 615 585 582 612
          616 586 582 612 616 586
          584 614 617 587 585 615
          618 588 586 616 619 589
          586 616 619 589 587 617
          620 590 588 618 621 591
          589 619 622 592 589 619
          622 592 590 620 623 593
          591 621 624 594 592 622
          625 595 592 622 625 595
          593 623 626 596 594 624
          627 597 595 625 628 598
          595 625 628 598 596 626
          629 599 597 627 630 600
          598 628 631 601 598 628
          631 601 599 629 632 602
          600 630 633 603 601 631
          634 604 601 631 634 604
          602 632 635 605 603 633
          636 606 604 634 637 607
          604 634 637 607 605 635
          638 608 609 639 640 610
          611 641 642 612 611 641
          642 612 613 643 644 614
          610 640 645 615 612 642
          646 616 612 642 646 616
          614 644 647 617 615 645
          648 618 616 646 649 619
          616 646 649 619 617 647
          650 620 618 648 651 621
          619 649 652 622 619 649
          652 622 620 650 653 623
          621 651 654 624 622 652
          655 625 622 652 655 625
          623 653 656 626 624 654
          657 627 625 655 658 628
          625 655 658 628 626 656
          659 629 627 657 660 630
          628 658 661 631 628 658
          661 631 629 659 662 632
          630 660 663 633 631 661
          664 634 631 661 664 634
          632 662 665 635 633 663
          666 636 634 664 667 637
          634 664 667 637 635 665
          668 638 639 669 670 640
          641 671 672 642 641 671
          672 642 643 673 674 644
          640 670 675 645 642 672
          676 646 642 672 676 646
          644 674 677 647 645 675
          678 648 646 676 679 649
          646 676 679 649 647 677
          680 650 648 678 681 651
          649 679 682 652 649 679
          682 652 650 680 683 653
          651 681 684 654 652 682
          685 655 652 682 685 655
          653 683 686 656 654 684
          687 657 655 685 688 658
          655 685 688 658 656 686
          689 659 657 687 690 660
          658 688 691 661 658 688
          691 661 659 689 692 662
          660 690 693 663 661 691
          694 664 661 691 694 664
          662 692 695 665 663 693
          696 666 664 694 697 667
          664 694 697 667 665 695
          698 668 669 699 700 670
          671 701 702 672 671 701
          702 672 673 703 704 674
          670 700 705 675 672 702
          706 676 672 702 706 676
          674 704 707 677 675 705
          708 678 676 706 709 679
          676 706 709 679 677 707
          710 680 678 708 711 681
          679 709 712 682 679 709
          712 682 680 710 713 683
          681 711 714 684 682 712
          715 685 682 712 715 685
          683 713 716 686 684 714
          717 687 685 715 718 688
          685 715 718 688 686 716
          719 689 687 717 720 690
          688 718 721 691 688 718
          721 691 689 719 722 692
          690 720 723 693 691 721
          724 694 691 721 724 694
          692 722 725 695 693 723
          726 696 694 724 727 697
          694 724 727 697 695 725
          728 698 699 729 730 700
          701 731 732 702 701 731
          732 702 703 733 734 704
          700 730 735 705 702 732
          736 706 702 732 736 706
          704 734 737 707 705 735
          738 708 706 736 739 709
          706 736 739 709 707 737
          740 710 708 738 741 711
          709 739 742 712 709 739
          742 712 710 740 743 713
          711 741 744 714 712 742
          745 715 712 742 745 715
          713 743 746 716 714 744
          747 717 715 745 748 718
          715 745 748 718 716 746
          749 719 717 747 750 720
          718 748 751 721 718 748
          751 721 719 749 752 722
          720 750 753 723 721 751
          754 724 721 751 754 724
          722 752 755 725 723 753
          756 726 724 754 757 727
          724 754 757 727 725 755
          758 728 729 759 760 730
          731 761 762 732 731 761
          762 732 733 763 764 734
          730 760 765 735 732 762
          766 736 732 762 766 736
          734 764 767 737 735 765
          768 738 736 766 769 739
          736 766 769 739 737 767
          770 740 738 768 771 741
          739 769 772 742 739 769
          772 742 740 770 773 743
          741 771 774 744 742 772
          775 745 742 772 775 745
          743 773 776 746 744 774
          777 747 745 775 778 748
          745 775 778 748 746 776
          779 749 747 777 780 750
          748 778 781 751 748 778
          781 751 749 779 782 752
          750 780 783 753 751 781
          784 754 751 781 784 754
          752 782 785 755 753 783
          786 756 754 784 787 757
          754 784 787 757 755 785
          788 758 759 789 790 760
          761 791 792 762 761 791
          792 762 763 793 794 764
          760 790 795 765 762 792
          796 766 762 792 796 766
          764 794 797 767 765 795
          798 768 766 796 799 769
          766 796 799 769 767 797
          800 770 768 798 801 771
          769 799 802 772 769 799
          802 772 770 800 803 773
          771 801 804 774 772 802
          805 775 772 802 805 775
          773 803 806 776 774 804
          807 777 775 805 808 778
          775 805 808 778 776 806
          809 779 777 807 810 780
          778 808 811 781 778 808
          811 781 779 809 812 782
          780 810 813 783 781 811
          814 784 781 811 814 784
          782 812 815 785 783 813
          816 786 784 814 817 787
          784 814 817 787 785 815
          818 788
        </DataArray>
        <DataArray type="Int64" Name="offsets" format="ascii" RangeMin="8" RangeMax="3632">
          8 16 24 32 40 48
          56 64 72 80 88 96
          104 112 120 128 136 144
          152 160 168 176 184 192
          200 208 216 224 232 240
          248 256 264 272 280 288
          296 304 312 320 328 336
          344 352 360 368 376 384
          392 400 408 416 424 432
          440 448 456 464 472 480
          488 496 504 512 520 528
          536 544 552 560 568 576
          584 592 600 608 616 624
          632 640 648 656 664 672
          680 688 696 704 712 720
          728 736 744 752 760 768
          776 784 792 800 808 816
          824 832 840 848 856 864
          872 880 888 896 904 912
          920 928 936 944 952 960
          968 976 984 992 1000 1008
          1016 1024 1032 1040 1048 1056
          1064 1072 1080 1088 1096 1104
          1112 1120 1128 1136 1144 1152
          1160 1168 1176 1184 1192 1200
          1208 1216 1224 1232 1240 1248
          1256 1264 1272 1280 1288 1296
          1304 1312 1320 1328 1336 1344
          1352 1360 1368 1376 1384 1392
          1400 1408 1416 1424 1432 1440
          1448 1456 1464 1472 1480 1488
          1496 1504 1512 1520 1528 1536
          1544 1552 1560 1568 1576 1584
          1592 1600 1608 1616 1624 1632
          1640 1648 1656 1664 1672 1680
          1688 1696 1704 1712 1720 1728
          1736 1744 1752 1760 1768 1776
          1784 1792 1800 1808 1816 1824
          1832 1840 1848 1856 1864 1872
          1880 1888 1896 1904 1912 1920
          1928 1936 1944 1952 1960 1968
          1976 1984 1992 2000 2008 2016
          2024 2032 2040 2048 2056 2064
          2072 2080 2088 2096 2104 2112
          2120 2128 2136 2144 2152 2160
          2168 2176 2184 2192 2200 2208
          2216 2224 2232 2240 2248 2256
          2264 2272 2280 2288 2296 2304
          2312 2320 2328 2336 2344 2352
          2360 2368 2376 2384 2392 2400
          2408 2416 2424 2432 2440 2448
          2456 2464 2472 2480 2488 2496
          2504 2512 2520 2528 2536 2544
          2552 2560 2568 2576 2584 2592
          2600 2608 2616 2624 2632 2640
          2648 2656 2664 2672 2680 2688
          2696 2704 2712 2720 2728 2736
          2744 2752 2760 2768 2776 2784
          2792 2800 2808 2816 2824 2832
          2840 2848 2856 2864 2872 2880
          2888 2896 2904 2912 2920 2928
          2936 2944 2952 2960 2968 2976
          2984 2992 3000 3008 3016 3024
          3032 3040 3048 3056 3064 3072
          3080 3088 3096 3104 3112 3120
          3128 3136 3144 3152 3160 3168
          3176 3184 3192 3200 3208 3216
          3224 3232 3240 3248 3256 3264
          3272 3280 3288 3296 3304 3312
          3320 3328 3336 3344 3352 3360
          3368 3376 3384 3392 3400 3408
          3416 3424 3432 3440 3448 3456
          3464 3472 3480 3488 3496 3504
          3512 3520 3528 3536 3544 3552
          3560 3568 3576 3584 3592 3600
          3608 3616 3624 3632
        </DataArray>
        <DataArray type="UInt8" Name="types" format="ascii" RangeMin="12" RangeMax="12">
          12 12 12 12 12 12
          12 12 12 12 12 12
          12 12 12 12 12 12
          12 12 12 12 12 12
          12 12 12 12 12 12
          12 12 12 12 12 12
          12 12 12 12 12 12
          12 12 12 12 12 12
          12 12 12 12 12 12
          12 12 12 12 12 12
          12 12 12 12 12 12
          12 12 12 12 12 12
          12 12 12 12 12 12
          12 12 12 12 12 12
          12 12 12 12 12 12
          12 12 12 12 12 12
          12 12 12 12 12 12
          12 12 12 12 12 12
          12 12 12 12 12 12
          12 12 12 12 12 12
          12 12 12 12 12 12
          12 12 12 12 12 12
          12 12 12 12 12 12
          12 12 12 12 12 12
          12 12 12 12 12 12
          12 12 12 12 12 12
          12 12 12 12 12 12
          12 12 12 12 12 12
          12 12 12 12 12 12
          12 12 12 12 12 12
          12 12 12 12 12 12
          12 12 12 12 12 12
          12 12 12 12 12 12
          12 12 12 12 12 12
          12 12 12 12 12 12
          12 12 12 12 12 12
          12 12 12 12 12 12
          12 12 12 12 12 12
          12 12 12 12 12 12
          12 12 12 12 12 12
          12 12 12 12 12 12
          12 12 12 12 12 12
          12 12 12 12 12 12
          12 12 12 12 12 12
          12 12 12 12 12 12
          12 12 12 12 12 12
          12 12 12 12 12 12
          12 12 12 12 12 12
          12 12 12 12 12 12
          12 12 12 12 12 12
          12 12 12 12 12 12
          12 12 12 12 12 12
          12 12 12 12 12 12
          12 12 12 12 12 12
          12 12 12 12 12 12
          12 12 12 12 12 12
          12 12 12 12 12 12
          12 12 12 12 12 12
          12 12 12 12 12 12
          12 12 12 12 12 12
          12 12 12 12 12 12
          12 12 12 12 12 12
          12 12 12 12 12 12
          12 12 12 12 12 12
          12 12 12 12 12 12
          12 12 12 12 12 12
          12 12 12 12 12 12
          12 12 12 12 12 12
          12 12 12 12 12 12
          12 12 12 12 12 12
          12 12 12 12 12 12
          12 12 12 12 12 12
          12 12 12 12 12 12
          12 12 12 12 12 12
          12 12 12 12 12 12
          12 12 12 12
        </DataArray>
      </Cells>
    </Piece>
  </UnstructuredGrid>
</VTKFile>
