<?xml version="1.0"?>
<VTKFile type="UnstructuredGrid" version="0.1" byte_order="LittleEndian" header_type="UInt32" compressor="vtkZLibDataCompressor">
  <UnstructuredGrid>
    <Piece NumberOfPoints="756" NumberOfCells="468">
      <PointData>
        <DataArray type="Int32" Name="libmesh_node_id" format="ascii" RangeMin="120" RangeMax="2168">
          120 121 122 123 124 125
          126 127 128 129 130 131
          132 133 134 135 136 137
          138 139 140 141 142 143
          144 145 146 147 148 149
          150 151 152 153 154 155
          156 157 158 159 160 161
          162 163 164 165 166 167
          168 169 170 171 172 173
          174 175 176 177 178 179
          240 241 242 243 244 245
          246 247 248 249 250 251
          252 253 254 255 256 257
          258 259 260 261 262 263
          264 265 266 267 268 269
          330 331 332 333 334 335
          336 337 338 339 340 341
          342 343 344 345 346 347
          348 349 350 351 352 353
          354 355 356 357 358 359
          420 421 422 423 424 425
          426 427 428 429 430 431
          432 433 434 435 436 437
          438 439 440 441 442 443
          444 445 446 447 448 449
          510 511 512 513 514 515
          516 517 518 519 520 521
          522 523 524 525 526 527
          528 529 530 531 532 533
          534 535 536 537 538 539
          600 601 602 603 604 605
          606 607 608 609 610 611
          612 613 614 615 616 617
          618 619 620 621 622 623
          624 625 626 627 628 629
          690 691 692 693 694 695
          696 697 698 699 700 701
          702 703 704 705 706 707
          708 709 710 711 712 713
          714 715 716 717 718 719
          780 781 782 783 784 785
          786 787 788 789 790 791
          792 793 794 795 796 797
          798 799 800 801 802 803
          804 805 806 807 808 809
          876 877 878 879 880 881
          882 883 884 885 886 887
          888 889 890 891 892 893
          894 895 896 897 898 899
          900 901 902 903 904 905
          906 907 908 909 910 911
          912 913 914 915 916 917
          918 919 920 921 922 923
          924 925 926 927 928 929
          930 931 932 933 934 935
          936 937 938 939 940 941
          942 943 944 945 946 947
          948 949 950 951 952 953
          954 955 956 957 958 959
          960 961 962 963 964 965
          966 967 968 969 970 971
          972 973 974 975 976 977
          978 979 980 981 982 983
          984 985 986 987 988 989
          990 991 992 993 994 995
          996 997 998 999 1000 1001
          1002 1003 1004 1005 1006 1007
          1008 1009 1010 1011 1012 1013
          1014 1015 1016 1017 1018 1019
          1020 1021 1022 1023 1024 1025
          1026 1027 1028 1029 1030 1031
          1032 1033 1034 1035 1036 1037
          1038 1039 1040 1041 1042 1043
          1044 1045 1046 1047 1048 1049
          1050 1051 1052 1053 1054 1055
          1056 1057 1058 1059 1060 1061
          1062 1063 1064 1065 1066 1067
          1068 1069 1070 1071 1072 1073
          1074 1075 1076 1077 1078 1079
          1080 1081 1082 1083 1084 1085
          1086 1087 1088 1089 1090 1091
          1092 1093 1094 1095 1096 1097
          1098 1099 1100 1101 1102 1103
          1104 1105 1106 1107 1108 1109
          1110 1111 1112 1113 1114 1115
          1116 1117 1118 1119 1120 1121
          1122 1123 1124 1125 1126 1127
          1128 1129 1130 1131 1132 1133
          1134 1135 1136 1137 1138 1139
          1140 1141 1142 1143 1144 1145
          1146 1147 1148 1149 1150 1151
          1152 1153 1154 1155 1156 1157
          1158 1159 1160 1161 1162 1163
          1164 1165 1166 1167 1168 1169
          1170 1171 1172 1173 1174 1175
          1176 1177 1178 1179 1180 1181
          1182 1183 1184 1185 1186 1187
          1188 1189 1190 1191 1192 1193
          1194 1195 1196 1197 1198 1199
          1200 1201 1202 1203 1204 1205
          1206 1207 1208 1209 1210 1211
          1212 1213 1214 1215 1216 1217
          1218 1219 1220 1221 1222 1223
          1224 1225 1226 1227 1228 1229
          1230 1231 1232 1233 1234 1235
          1236 1237 1238 1239 1240 1241
          1242 1243 1244 1245 1246 1247
          1248 1249 1250 1251 1252 1253
          1254 1255 1256 1257 1258 1259
          1260 1261 1262 1263 1264 1265
          1266 1267 1268 1269 1270 1271
          1893 1894 1895 1896 1897 1898
          1920 1921 1922 1923 1924 1925
          1947 1948 1949 1974 1975 1976
          2001 2002 2003 2028 2029 2030
          2055 2056 2057 2112 2113 2114
          2115 2116 2117 2124 2125 2126
          2127 2128 2129 2130 2131 2132
          2133 2134 2135 2148 2149 2150
          2151 2152 2153 2164 2166 2168
          1926 1899 1927 1900 1928 1901
          1950 1951 1952 1953 1954 1955
          1977 1978 1979 2004 2005 2006
          2031 2032 2033 2058 2059 2060
          2142 2144 2146 2163 2143 2096
          2165 2145 2100 2167 2147 2104
        </DataArray>
        <DataArray type="Float64" Name="resid_x" format="ascii" RangeMin="-19.79654571005182" RangeMax="0.09823896017803335">
          0.00002009177842499099 -8.283152857223325 0.0000431029631382529 -16.602535960610645 0.000014372559758335512 -8.311188145381852
          -0.00007702303218959372 -8.246788296249395 -0.0004637022350193476 -16.618860797243364 -0.0003149567423994526 -8.37762356508685
          0.005712623971157349 -8.314188914398969 0.017710667169368755 -16.941482614429926 0.036358655971366005 -8.700886243221792
          -0.013086761444534467 -8.568217835784287 0.03396285126313536 -17.50287304658658 0.036967671340831565 -9.266024873603204
          -0.009770516261997209 -8.762185995811404 -0.0029869015285841627 -17.760545190180174 -0.0024703852210876676 -9.578737686687592
          0.0005301633625673929 -8.990052206844606 0.000870515665641669 -18.110189076270412 -0.0021185244147901017 -9.730935692360138
          0.00013507833425308036 -9.206651563006268 0.0005168736802172447 -18.447337824001515 -0.0009817338374222828 -9.688444390552561
          0.00022160524051084707 -9.461816903793931 0.00039494229029291006 -18.853640448519304 0.0013163661855930542 -9.440219833158714
          0.0013419520119883899 -9.974036973335526 0.0019748622743867017 -19.79654571005182 0.007937490462937902 -8.945425599792046
          0.004736526729568813 -6.216221081570005 0.008065647471685256 -12.266732198795035 0.014291991697921141 -4.863552097111331
          -0.0008125719703491185 -0.0016574368063961842 -0.0003148308154425905 -0.0003817664199505799 0.003944908018479687 0.005774510658464571
          0.034624517919747966 0.09823896017803335 0.001981841790978933 0.037897993403558594 0.052708473523628285 -0.004322528282317606
          -0.000013552140285533198 -0.0002666852365722505 -0.004499425362928022 0.0005249633446986479 0.0009750458730657385 -0.0038517402395736866
          0.00010023180297480394 0.0005210004016253933 -0.001969282359076452 0.00010280536462037304 0.0004405874463131454 0.0027387852077938035
          0.0009597937247942667 0.0016273613146102761 0.013980819110965825 0.004607901463121511 0.008164233460886239 0.02382078159470158
          -0.00007977819352511517 0.0033564743970266875 0.012327881721824419 0.006981335200851646 0.02806821139850868 0.034159495091550696
          0.01690660479249484 0.01373097738022544 0.03158924013379494 -0.04602065140930378 -0.08906078292511665 -0.05381121412686962
          -0.00010540281146642627 -0.00024632973204585795 -0.005766381859872993 0.0003072695447476903 0.0006367227825334609 -0.0052677805707723735
          0.00035395344746014246 0.0006727882894717041 -0.0025786490554340347 0.00028566117789807777 0.0005951021890160391 0.0038761266447142617
          0.001583268220695544 0.0029644065391307706 0.01879190795217056 0.005221802846045787 0.009511889640687665 0.032160614689229004
          0.0010394295533702191 0.0245504268430361 0.02408210994672899 -0.005159118761865589 0.011231550130940349 0.030376735064232108
          -0.06057626121734039 -0.13643821064540695 -0.07529162670750811 -0.009600663194900605 -0.02525725003929047 -0.01929691986561899
          -0.0005779030868815482 -0.0006654967233847842 -0.007022582981765169 0.000045437379264434696 0.00023365762152138814 -0.006156637774291873
          0.0002738386559606454 0.0006361656511657543 -0.0023530775098112855 0.000040093021516085514 0.00023340295668550226 0.005257194697949608
          0.0011190323404193236 0.0021036572466375247 0.02114665304426433 0.0035773237559351134 0.006574826945512591 0.031401414145886264
          0.00463539884902886 0.003913067311532181 0.01775011196787446 -0.0010328409325963683 -0.03931670532858611 -0.06640380176784788
          0.00008363310558223702 -0.002313518870600717 -0.015913570484054063 -0.0001992368160017577 0.0008044071376769324 -0.006120440355529944
          -0.0008513468680773073 -0.0009877283534107661 -0.008073139586009859 -0.0001617253108960881 -0.00007979158049664647 -0.006255927859640131
          0.000058767776058843424 0.00047059663305226707 -0.0014974970438625945 -0.000007990981848671197 0.0002272145318276131 0.006995011113476224
          0.0007522826513275405 0.0014340376745600736 0.022173982003121928 0.00114585090787922 0.002536527283398149 0.02770157002195761
          0.0017191017631814631 -0.013840034833060066 -0.02637058705339168 -0.0013728434535749123 -0.0031786570598937303 -0.01580387266119132
          -0.00034447590073849454 -0.000022404453833502203 -0.006099450763497494 -0.00031195134874995034 -0.0005285119198372712 -0.008584975106018966
          -0.0004946653100246223 -0.0008684185808709444 -0.008801323136077066 -0.0001964165864771772 -0.00019730318102162414 -0.005864261604020982
          -0.000060956480136376 0.0003222850892479201 -0.00023637745093196827 0.00014451266670434393 0.0005753657154112801 0.008826709292423018
          0.0006495776325605718 0.0015000555362920664 0.022765930734298223 0.0008820332967551803 0.001797825330000169 0.02375037254838719
          -0.00564063683186955 -0.01746857662025647 -0.03691515873743434 -0.002309364824470528 0.0018876184625078452 -0.005069472288961485
          -0.001602638766033948 -0.0013974239982541548 -0.007113346636685947 -0.0003259263688057956 -0.0014396944895009867 -0.010149685363431082
          0.00014664734188496453 -0.00012429117832724046 -0.008950693076007266 -0.00003745771397056785 0.00015766683812046267 -0.005207019198769647
          -0.000033222181598624445 0.0005216923208086754 0.001403698283273691 0.0003902618814253245 0.001355182752778461 0.010682971376714256
          0.0007050230680496483 0.002148247963075889 0.02251107630893845 0.0005906349892863538 0.0018929321074075967 0.020068009537603015
          -0.0016281872275580866 0.0027185366232025387 0.0007239562885565931 -0.006172299241104184 0.005560164162552894 0.0034669565739502417
          -0.0037207244312051913 -0.0035759928729515167 -0.0074237537911336915 -0.000024350333037936878 -0.0006832309782707213 -0.010523735187752958
          0.0006140611369813698 0.0009562993827669786 -0.008283020159758792 0.00009347395242276235 0.00034177933886159195 -0.003845685906492591
          0.00007066378605102841 0.0005796398120789803 0.003433492940636995 0.0008245624382059447 0.0025595303283019177 0.0134180250758682
          0.0004691049918132961 0.002791677462284703 0.023355928442140517 -0.0018280534071961618 -0.0023906589551943025 0.01589301027166168
          -0.0028039210672190507 0.0011579189630275266 -0.014448185707021555 0.0007015311271283409 -0.0006362237164072582 -0.007523793823725811
          0.0005932902189087486 0.0010376000953105091 -0.0021780295571312003 0.00018825013914458566 0.00048546007122141077 0.002159389753631835
          -0.00028804776225310746 -0.00022928988862869204 0.007191524901227986 -0.001222995366669366 -0.0021833734469600685 0.014754548928451072
          -0.0014005845605051803 -0.0030488917967890217 0.024829259789608926 -0.0019518611542319597 -0.005275835596792344 0.016038725097818674
          -0.001906319257202839 -0.0006848705072008965 -0.0029451354702187647 -0.0030642047951623397 -0.0037185767845172996 -0.0030608334105292068
          -0.006119138448844055 -0.006103307889210763 -0.0009653659146044088 -0.0010661575820191949 -0.0030728227929814056 -0.0025872349471804668
          -0.0015729577257811989 -0.0025904123016290467 -0.0035059730156442037 -0.00529246803810299 -0.002621024377232453 -0.0027933534737030544
          -0.0033032192459635096 -0.0014197142940829723 -0.002404970864237743 -0.006170838920876304 -0.00287975979256809 -0.0052801574074858824
          -0.001540603598535084 -0.0010832605387688342 -0.003174346170496889 -0.00007591175397969607 0.00369062303335288 -0.005822962518821195
          0.0005499763710257455 0.00034918701718766876 0.004793619781444214 -0.007646552044452304 0.0012824717524519413 0.008215542253891428
          0.015437970144619784 0.005771350379288442 0.005002188028286919 -0.0037506261230580984 -0.002197750872308557 -0.0016030209559713127
          -0.0031898436333631097 -0.0017177241535273335 -0.004352726076999325 -0.0030901969306286192 -0.007722571784250926 0.03804759144422132
          0.01680474071599536 0.008029708730173946 -0.01297952588817819 0.0008024246286966186 0.002796706091692691 -0.0011319555654086821
          -0.0010520677477243723 -0.00007931881146316933 0.0044940480648874015 -0.0005866557705880293 -0.001859923131489527 0.012108274721972512
          0.013752375040327003 0.009933549528859276 0.009708849711520973 -0.0010222848297863907 0.00043141809630053984 -0.0015521585721945952
          -0.0009599734979267027 -0.0051140534346776345 -0.00046471558312732864 -0.0027034063764175276 -0.003264022144943479 0.005550963372130457
          0.008883485544750713 0.008949612121014083 0.007604219623963737 -0.0015995518824700738 -0.0015179252859982562 -0.0036118605498405287
          -0.0028455042223687332 0.003399585584001441 0.005643635021451043 0.001943235611729377 -0.0011752126378826722 0.002210355808620945
          -0.0013292741963022436 0.006300671563390203 0.011224317791091787 -0.0028779800392450643 -0.0006064398847380088 0.0006738110440048239
          -0.0010169257240966179 -0.005797086283937651 -0.0017343244452524727 0.0001720497250137388 -0.00299940926837719 -0.0038718012654440914
          -0.0012955283044321503 -0.0009506086251657581 -0.002328706723362689 0.00016434837690848525 0.0022948437673988575 0.0009100440506197849
          -1.6995404926760245 0.0003723356111272613 0.00340671952885363 0.0021552621218307033 -3.2629897082444432 0.0013396760330864899
          0.0059206447410894425 0.005021657565570048 -1.2136214037895579 0.0024282781972219114 -0.0047205913769600705 0.0014208324078506251
          -0.005360822523913594 0.009272806332930483 0.01568032750165542 0.0008435485776661089 0.00007942033376262536 -0.0038183216342430604
          -0.004003260817771914 -0.0021952356316436994 0.0014335900286848169 -0.00451319086219909 -0.008463214942787456 -0.0005025881438276425
          0.003068576114114041 -0.003932948961293481 -0.003519184245312945 0.006278775381966972 -0.008070151505633949 0.01608357856523418
          0.02258156584380544 0.004242002402431 -0.020056956789386793 0.0247733257462337 0.036758224805189754 0.0008259401736701033
          -0.00881764663373319 0.01544680605733989 0.028294887696000137 0.0002990214079159918 -0.0000583042020171759 -0.0022613958922065858
          -0.0006869371573802879 0.0003739892764066943 0.0003022246905370826 -0.004929601098886689 -0.0015225402214064238 -0.0004572527843050289
          0.0015605496815224024 -0.0024695079143111642 -0.0008115164515413407 -0.001090720285851221 -0.0008919502359128195 -0.002069222146168226
          -0.001827827449218944 0.0049836745445412944 0.008988956176561702 0.0016867149972470408 0.00243117277051752 0.013640512014158612
          -0.0058847175312154165 -0.002985285954498984 -0.01148217657649131 -0.005116318141844378 -0.0060341839891754345 -0.00463460616726416
          -0.001984331550907825 -0.0016983492523008348 -0.001650532692875628 -0.0071566777206855114 -0.007377929591437904 -0.005870425790756251
          -0.0018993106852878139 -0.002561229578435631 -0.0031218475082134267 -0.00001799616836528628 -0.0019854350854194847 0.002253790887883911
          -0.0019377038933357238 0.00022372069368803427 -0.002450552791022593 0.00018093801543495047 -0.0038576585661997675 0.01566325180054512
          0.017910637372632154 0.02755152788616355 0.025525281632559155 -1.2707635632652212 0.0009344806356145208 -1.5342500438263578
          -2.561168012704612 0.00205557654189209 -2.9401261458439554 -1.011716303622265 0.003273333584656868 -1.1445084458472994
          -0.0012300118021456308 -0.0014189902471825055 -0.002790203763803966 -0.0026250902988546043 0.006518769574188468 0.008633482751733368
          -0.0023338600893720862 -0.005959830499851992 -0.0015206233043941753 -0.011373992369269836 0.001922728579195454 -0.00309817107141519
          0.00013681404212917414 -0.0005167045448599 0.00024966573341490134 -0.001868291262833277 0.00658982680380138 0.008073054480424766
          -1.3425359974610482 0.001193164721419282 0.00303507071129986 -1.5872167470929943 -2.6193706636261926 0.0014423045890489261
          0.0048053843377611274 -3.0705377790566604 -1.2270574697791874 0.0021519706099404345 0.003969223400861865 -1.3474500775485003
          -0.0009367619368785274 0.0003309764970693685 -0.000731633329021375 -0.0020664718197880294 0.0013401686328438078 -0.0026551575280781003
          0.011041011421017655 0.015567518230540145 0.010824453559645342 -0.00021341913865158268 -0.003473063746176397 -0.0017605289845126215
          -0.006201502023353456 0.000669218738558186 -0.0021097890570325184 -0.0011145458520711582 -0.0009763190166451885 -0.002014976159397941
          -0.0018262122803360814 0.016717107993462266 0.012143657202279945 -0.0011810060121261907 -0.0068116212652621355 -0.0019302804900287636
          -0.012278155041913763 0.018903279296625553 0.010050716647011182 -0.0036273767535911494 0.0011529693666317842 -0.006802751230590709
          0.0014343938460908978 0.004226618519999281 0.005591303762974231 0.00006767252164585624 -0.0030544341253339567 -0.0004039735701219724
          -0.00016205937894116923 -0.005869058396290357 -0.0008766673856930307 -0.00009560807135377408 -0.002663459586930797 -0.00037702512731505045
          0.00007949153808040066 -0.0007981433218557377 -0.002539170033477145 -0.0009747918595679472 -0.0026429753144590062 -0.006600903014397419
          0.004258266484728157 0.0016107609371298626 0.00006764258057256889 -0.0010515682830710138 -0.0005459830811613831 -1.3612790283252278
          -0.0019239665619544266 -0.0005467322526778173 -2.6550004462993004 0.0007258017209975098 0.001244513704599326 -1.081609567581705
          -1.272950069986753 -2.526226171894039 -1.1588175923596888 -0.000017693547153679184 -0.00043483200434545066 -0.0038466154071206127
          -0.0016274003140287774 -0.00021182098230392368 -0.0010800923098637089 -0.0077603131363451205 -0.003268926830543032 -0.00012120962937010177
          -0.0004808676334298531 -0.003924795994862035 -0.0016132720309268225 0.00027733158539455793 0.0041003708609294864 -0.001061844640440679
          0.0063093332269719 0.0033020607836966587 0.008179534168681044 -0.002188438679869488 -0.0019937223615266453 -0.004283142401069154
          -0.0039679378554663275 -0.001962300737004735 -0.001843484047915317 0.0021793783078297713 0.0020139028340461496 0.004629694646742011
          0.0022658760527389937 0.006347187794334519 0.01202403903701331 0.021313967815444368 -0.022432829448339353 0.03559613668192929
          -0.029023316299165103 0.03169569189657384 0.014568343342799661 -0.002434283544807285 -0.004610831016337608 -0.0021689067136652918
          -0.0023757284364063214 -0.004553281991221181 0.0027643006418502925 -0.019615323185851796 0.007337039644159327 -0.033268302452312715
          0.002943132518822611 0.01919247175273242 -0.0022218225203787245 -0.003096913138820656 -0.006623335184008483 -0.0005460888222332816
          -0.006415666668218828 -0.012463037697721002 -0.00007907639008576661 -0.0015162797389459276 -0.003017604660667285 -0.0012242671228096802
          -0.0024739922510630397 -0.006786813738957953 -0.00270168442492813 -0.0026497483024572333 -0.005359107832510035 -0.002675523025735038
          -0.0013278228885866064 -0.003372510393349848 -0.004063368781000165 0.013310203240475271 0.025379923008001848 0.023191918202328132
          -1.1847601899067095 -2.2642163249787353 -0.9967494161412315 -1.593732350577284 -3.097059534457673 -1.1386535183504018
          -0.004362129941952009 -0.00840795176477363 -0.004027294928837036 -0.001923365239766368 -0.003860912583773357 -0.0018506557257413694
          0.0014382325423718534 0.0012780922546387075 0.00017875927634936062 -0.001842507149524053 -0.00246957697171446 0.00041533966600049155
          0.0006962384302244828 0.0010824755847611556 0.004075387658514451 -0.002389823502361388 -0.00376737432204699 0.003329860615634672
          -0.0007660953778687585 -0.000112431673149338 0.00781553565314752 -0.0016735033602293115 -0.0012143661982664256 0.012020466915681816
          -0.0026322889918981573 -0.001863240108402664 0.01573722477185413 -0.003934466535996606 -0.0022693961506030647 0.01974643956825517
          -0.0054181196758325 -0.007923200242235584 0.010253678933217714 -0.0012346840459755981 -0.0014097453851282526 -0.0006443043125976544
          -0.0020096818298120933 0.002758783166803447 0.003196587928630812 -0.003938240725967768 -0.025607347595480334 0.015698639291936267
          0.0033130084320445174 -0.010154064911827854 -0.06370645192784608 0.04442966354895228 0.023302335968500065 -0.004606540529113551
          -0.06034114225223375 0.027237267907494367 0.020392146745246587 -0.004221230943996457 -0.006579690160939955 -0.003609110120059933
          -0.00410273098767977 -0.0065275782337317345 -0.0007770152573887135 -0.014054752083455246 -0.027901132037874643 -0.01417619371268758
          -0.00029514305655453654 -0.002238084785040506 -0.0024979502654716157 -0.005046736730546897 0.004263052619066343 0.0006194880724548213
          -0.002133786507697799 -0.002203464365795327 0.008063470685998553 0.0003832187080892169 0.0008514739702967233 0.008495425275961033
          -0.0009365250599984165 -0.0017118696342848239 0.010772226515095795 -0.001251723525344417 -0.0018196375540249221 0.012875897801293945
          -0.0023804327106748957 -0.004192902883586314 0.011416687784223889 -0.004538814636187993 -0.008317184772824504 0.0024543541729862284
          -0.007135698038216454 -0.011238931494792936 -0.004352260951247189 -0.010105887244638012 -0.015338198187687446 0.0030237780018933513
          -0.018957630287186333 -0.036771647484088454 0.049578370147600026 -0.010826682595265424 -0.010418993877905347 0.04931173579087167
        </DataArray>
        <DataArray type="Float64" Name="resid_y" format="ascii" RangeMin="-0.045440452737476766" RangeMax="0.03777868489414271">
          -0.000051323421883769926 0.00023378375814239738 0.00014698545798896845 0.00025211109192939396 0.00016757173210234233 -0.000006284944703338624
          -0.000023857398307116848 0.000008458457262799923 -0.000041744595059553524 0.00006344685188594545 0.000004016520688418512 0.00010687175108019253
          -0.001668852756669498 0.00016006651449182452 -0.006996659614406153 -0.0013370167404521405 -0.009123426205881607 -0.0023139070063472322
          -0.0019182858353872095 -0.0018402098297153335 0.004039135070386668 0.0015800015661613653 0.0023980900986385056 0.0003750613721387186
          0.0027114210887503876 0.0016854407836532082 0.0005178836479331483 -0.0005538321623803077 -0.0009244822673259434 -0.0007960960725971744
          0.0004951748899751918 0.00016890530556057382 0.0009891863822313884 0.0003876573400231065 -0.0021184673376400953 -0.0010857977117105233
          0.00030978144272736374 0.00017232133312750086 0.0008539010673851988 0.00043087189085372346 -0.003923270934390488 -0.002012464466724484
          0.00007483125330176588 0.000019861740398419148 0.0008197610838317493 0.0003442546299735061 -0.006059299982645816 -0.0032212265996858225
          -0.0012688894938308604 -0.0008996799279708534 -0.0011767892695493387 -0.000859935567923853 -0.010299214733863304 -0.005513319233145131
          -0.0010300605916466754 -0.0012515197330529304 -0.0011594729394941439 -0.0017366743557707398 -0.009878350769132904 -0.0048563883887030035
          0.000276354327952269 0.0006828130056652504 0.00003355266423611669 0.0003516475965988086 -0.0001588969681208252 -0.0005449003123854795
          -0.009370457808029059 -0.022942403969658035 -0.013253841688641188 0.0026894534379652973 0.013631982783484597 0.007623801697664412
          0.0014811999063402415 0.0031423030732472546 0.0008281163979235173 0.0009689879001060775 0.0019563423546678227 -0.0014041741084602766
          0.0006191977126598358 0.0013715133358662146 -0.003208109137640913 0.0005043147189169317 0.0014719011950053429 -0.004897963572630726
          -0.0007885959197490022 -0.0005487760579924728 -0.00792935038746334 0.00014809817511265977 0.000864200850968444 -0.007516523653422563
          0.00011576409695587819 -0.00038197505637566076 -0.0016669868733554527 -0.0025681294565074175 -0.005589468197548562 -0.003298410232763768
          -0.009464486265306604 -0.01480858073192422 -0.005750873507942178 0.017980530356506944 0.03386235701642679 0.01632593653884734
          0.0018448092681163375 0.004005121035470502 0.0015010184477516064 0.0011503941565949027 0.0022669269349685217 -0.0007303686639211215
          0.0007929990519379149 0.001617300983386083 -0.0022172365921089288 0.000525778381952613 0.0013943599960024589 -0.003688618444385172
          0.00111101854356227 0.0027246297629865412 -0.004687068100023117 0.002567618634985336 0.0054796644996435995 -0.00369603576223948
          -0.00011023743986184054 -0.003231964349092259 -0.003266276535499546 -0.0010370171548419738 -0.0009544566298413 -0.0018651577977080308
          0.006108050853662422 0.009617490102839 0.01031622113829575 0.002608838021034506 0.01078415372727559 0.007285354940274796
          0.0016180431134681095 0.0034221858521016058 0.0013717398508920897 0.001197770620315064 0.002354742385113545 -0.00006366151019795985
          0.0009856416816949598 0.0019107235227122654 -0.0012085655868380174 0.0007186053292335681 0.0016019286663770393 -0.0023399677493976256
          0.0019255149807580474 0.003925401925931965 -0.0024126108129621793 0.005575967091095646 0.0106223084995678 0.001144870331285075
          0.0021700952477357455 0.001712045390701522 -0.0021324871778506393 0.0013813578165893514 0.004758871119091929 0.0047758981623235025
          -0.0022226831027584437 -0.004127119138758101 0.002991657464000916 -0.0007558665138823403 -0.00040336337052976345 0.0013003174492874775
          0.0009231893934595614 0.0019012193601226149 0.0008953037068503214 0.0010496204743999926 0.0019343976536105312 0.0002820929708618469
          0.0010864195338446403 0.0020192299142363646 -0.00039429782356781296 0.0010800349083416316 0.0020398102721363165 -0.001116930904856095
          0.002308099422089066 0.0044231147963479656 -0.0005008407232300338 0.0032590381914225364 0.006158421472587605 0.001534212353469011
          0.002924205463727847 0.008585233488467625 0.004535808219521709 0.0006084804773091035 -0.00003536894508796018 0.002900124131709106
          -0.003779837841082462 -0.006835018093958423 -0.0007357792493055577 -0.0015731646509818016 -0.0024091908150342192 0.00016804756739743215
          0.00020186494184303017 0.00028873792367077253 0.00043227018389722927 0.0006502559614168235 0.0011250911954165943 0.00043887073573186525
          0.0011959448726372446 0.0020762361433268595 0.0001787805489003036 0.0015069570314296399 0.002594197899749212 -0.0001963053238509399
          0.0028422840727146126 0.0052571768401850905 0.0011358481353015426 0.0030502084544344887 0.005957184113886571 0.0030758595206401562
          -0.0004857568200703488 0.002883489760917568 0.004097127034875969 -0.0029943732029087122 -0.0036584285184102366 -0.0000746360313061134
          -0.0026566068055511177 -0.005766607641239145 -0.0013079056296092864 -0.0015497742106495432 -0.0027291818157209463 -0.0002624257504235533
          -0.0004700322854833336 -0.0010304175304382632 0.00008247471567819631 0.0005876277056904439 0.0007368864283577095 0.0005187085519232637
          0.0014445219370698148 0.0023277718229621075 0.00045203447295090113 0.0021331302553770914 0.003525870610911197 0.00038477037842196693
          0.0035195177133354183 0.006138279072899294 0.0017756375606150232 0.00326147602771093 0.005952052652927781 0.003326483874940056
          -0.0019610584036726664 -0.000595685856285888 0.0005230582493616076 -0.0019101555579942309 -0.006077845018043426 -0.0023183468030748555
          -0.0006768419467000353 -0.0036716892836283765 -0.0017433360434288003 -0.00028250299328897235 -0.0007872159711469744 0.0004230532541968507
          0.00015774912069561192 -0.000020191124658446025 0.0010717009481120282 0.0005999672976012005 0.0005927884065968711 0.0006307204754022883
          0.0014477021310424984 0.0023852439456563436 0.0003143486497886594 0.0028755598164159207 0.00497949528301099 0.0005686372801296802
          0.003971939460862439 0.007291938553264599 0.0016363388235778042 0.0017802205233533042 0.0031346490275879213 0.001140274516032519
          0.00292015898789888 0.006397974325642708 -0.005836761959014614 0.0014331229549846558 0.003006357767414869 0.0009911911223849934
          -0.00009791322455654505 -0.001401763732159278 -0.001871625525269538 -0.00041345997315261895 -0.0015372010702753847 -0.0016067789809333377
          0.0003847934555599279 -0.000008265513488051046 0.000045613509815078945 0.0018768287921996918 0.0025542325092187124 0.0028963941521661374
          0.00419540259386314 0.007434384885505851 0.008402589647947045 0.003992352319200698 0.006986896667648179 0.00779443019165027
          -0.0004903940346219562 0.0004413706597566694 0.000350551147172834 -0.000472919250477738 0.00006485483581563159 0.0008030400567873852
          0.0007733801913623051 -0.0006229076781857495 -0.00017015049018430373 -0.0038974855763209415 0.0005695238283082299 0.0004021111347991546
          0.0010223328046172903 0.00033330887614491274 0.0016175294160761522 0.000662604109631152 0.00008649385276562893 0.000323576382754015
          0.000966006494310797 0.00022049038177496694 0.00021890814460328104 0.0021049526583969344 0.0003309850599580097 0.00013908801701364992
          0.0025253760080232533 -0.000012328390773863607 -0.00023047953584753866 -0.0003137118441656206 -0.0008355130523434728 0.010025702743969689
          -0.001845209720073071 0.00025916660025060434 -0.0000457294910100603 0.016754561427470227 -0.0028039563026101555 -0.0014712912411531942
          -0.001470964301272304 0.004966373658879614 -0.002404501288181815 0.0001756750278318897 -0.0012067320023756989 0.0010743650101215363
          0.0017815953265749446 -0.00024428666748188554 -0.004853276936689799 0.006936632048506058 0.004728809481005597 -0.011046222773594572
          -0.004530977147833015 0.010180827664663383 0.002024586165953912 0.0012027461787508242 0.0026173742068023587 0.00169306231638644
          0.0015217765178955622 0.0023962793518007564 0.005571451885970524 0.003476409586468332 0.00272891619790816 0.0009037851002362818
          0.0031047315212493487 0.0011302980748119085 0.00004153047199478843 0.00008155817991339909 0.0028408691299163236 0.002786368924271726
          0.0017512005260846286 -0.0014878268345202006 0.005375602567041726 0.006065277126606372 0.00431241817001321 -0.00018620068650676558
          0.003548508770805092 0.005324149342996604 0.005282403716791145 0.0006351469768164364 0.001645146220745325 0.0010369930035603325
          0.002723802980612894 0.0009257991518850789 0.0015715695976190047 -0.000014995133561929164 0.0021830215531863373 0.0006706111925237485
          0.0037818710256629084 0.00023606351329477637 0.0011790841986320244 -0.001730953554274283 0.00021993755879059357 0.001884408147410796
          0.0015262868955318587 -0.002757217218746902 0.0005060831512882363 0.0020156786802253412 -0.0017192902500958729 -0.0009829288985364615
          0.00011888964265657775 -0.0005863432257301737 -0.004350132995080469 -0.0009654149245522919 -0.002331066912026225 -0.002536726985572007
          -0.0018284503119535556 -0.0018053350362252987 -0.0033667159316783657 -0.004302497096595509 -0.0029604435220889624 -0.002514731004781414
          -0.002794738446552425 -0.003670984939435344 -0.002271327875762688 -0.00236519973244953 -0.005069401481235414 -0.0024915792806774473
          -0.006823680366197404 -0.0002629593667267116 -0.001246916177052082 -0.00015117791152857718 0.00019384265490610814 -0.0016231216249397162
          0.0024332690312842548 0.0009142547260606593 0.0014321833231545483 -0.0011024399963056042 0.0030803079158522595 0.001230023404430236
          0.0009974769162880426 0.00038491128455941936 0.0021509874987435673 -0.024995042769260234 -0.01309562670323472 -0.008030892928224731
          0.005761996618344447 -0.045440452737476766 -0.024619476436491095 -0.013430496649881135 0.01310550530463461 -0.016428200580712593
          -0.010969815268094485 -0.001789679921849252 0.009292651335250646 0.00012378705221970793 0.00008646862197624582 0.0010463930866290855
          0.00017295380674166305 0.00008103456394624453 0.00035900794406513135 0.0026808618983434652 -0.00011574422409568047 -0.00014999704956022986
          0.0008949339234161913 0.0023587807996822037 -0.0008835629308758114 0.0016288128468508467 0.0045609217953882265 0.003208078922523755
          0.008437471016621179 0.001677001957785973 0.0044854787960066644 0.00022123587604017114 0.0013998747786038712 -0.0017407095504932968
          0.000001084097000586537 -0.00020366294722079514 0.000802802362725008 -0.0017571915237630242 0.0004118715305743148 0.0008680092028346964
          -0.0005529799969639093 -0.0011823360604289457 0.0003305835847421945 -0.0034710934164048843 -0.0055435017710112056 0.001229831254883032
          0.0035455051853170785 -0.001182422920941617 0.0023078496607860655 0.0020577538283998095 0.0073055972943336656 0.009389246919928818
          0.003614356172105593 0.005916271165883613 0.015854182384806514 0.022847497981770104 0.01015885356574342 0.004483482125515775
          0.014606297769041154 0.020494223359294184 0.009368206730138301 -0.00037975371933621216 -0.002097145465723871 -0.002212995876173532
          -0.00018628405932941128 -0.0035695686926120462 -0.00365364280007259 -0.0001645394076190826 -0.0029855666200532816 -0.00206522074264431
          -0.0003099652129194795 0.002815248875851717 -0.0013729747046872225 0.006042124398012494 0.0004832164540408135 0.004474061845607613
          -0.0005725821496792849 0.000014707625549170711 -0.002022636239305986 -0.0034706734992991234 0.0022576856800096134 -0.0006586881735546335
          0.0035081469337303606 -0.0015455848287033724 0.005897139238350224 -0.0008850306544292419 0.0042569867258683836 0.006159570196217979
          -0.0044685542112917614 -0.0012308460500769225 -0.0014941775764459875 -0.004023327513258908 -0.006074532134226263 -0.0010158237306976403
          -0.0023151978400132167 -0.005817883547948946 -0.0016473015368598798 -0.0009155442938116876 -0.0024285915657836776 -0.002118254180205153
          0.001464152148127451 0.0046580705237028175 0.0012106391335015981 0.003003348059597913 0.008615060482703829 0.0023366162148419356
          0.002381574688730473 0.004643832685449323 0.001159766560211814 0.0006444684849549742 0.0006883954778882928 0.002802737420698337
          0.002168341228400039 0.004718139901969967 0.0026316166241443506 0.0031479084548676206 0.0026166110385304475 0.00563377264383369
          0.004612138300853441 0.0030527626639978434 0.0028836138331188588 0.006014711697876651 -0.000015639536026929024 0.010535639731400925
          0.002289821206053533 0.007576849824756343 0.004256049070112955 0.0021192121958433785 -0.0027628367099086226 0.005180600209550135
          -0.008256747370378403 0.006278384874768728 -0.003660312490971984 -0.00018669836483470922 0.0011683942335505015 -0.0002258026215700426
          -0.00040690413782962275 0.002222370901467763 -0.00046051459538272096 -0.00018179847495466191 0.0009344865132299984 -0.00016892828859337537
          0.002487221891479874 0.0019508387602178434 -0.000177158159037627 0.005606539483083817 0.004489690003672164 -0.001155356543851238
          0.0046355488215447105 0.004439546148972795 0.0008650684321447333 0.00004653416491617879 0.002303287497479045 -0.002191500115695225
          0.00033572797395509113 0.0039841804519178126 -0.0035319728358112756 -0.00043075564778215225 0.00006827827980614154 -0.0014668983969160772
          -0.0024932239177454796 -0.0037064888670388166 -0.0012561477301128044 0.0000248455609025474 -0.00008648212618538043 0.0011579623145950187
          -0.00021238411036511443 0.00014753499766128123 -0.00007676028683107489 0.002168798532296158 -0.000473618409127673 0.000027624664523641373
          0.000041136644084630025 0.0009616500303579745 -0.00023266643720261035 -0.0025199159677823657 0.001629317921741369 -0.0038518540709882865
          0.0028386830805468555 -0.0017556856574579421 -0.0013188319258511938 0.0002692752302973951 0.0017899566981002292 0.0005279982171464831
          0.003515629151664694 0.00023946252823658226 0.0017201195945268626 -0.00015799725295817524 -0.008004582034783936 -0.0012833661379653694
          -0.013303644596563302 -0.0031303553641329196 -0.005202666060519778 -0.013711027505595996 0.018691937012415005 -0.024187151893391656
          0.029029264521377662 -0.008171964912128127 0.013354114954497565 0.0012947901650369638 0.0022388674187267046 0.0009355439792232377
          0.004870333310202257 0.00928640131596592 0.006738780149975421 -0.011849170557973299 -0.0022631160816733997 -0.009733562883067925
          -0.002954677132213479 0.010057362937521797 0.00945152455288617 0.0019131904054080218 0.003457132311580846 0.0024536019821461696
          -0.0026019785919309257 -0.005512690059166402 -0.0006385776300495138 0.0006647285962734636 0.001172257529466673 0.0004687250144760763
          0.001708699288978377 0.003184787104531628 0.0031647714744190147 -0.0006456099627957096 -0.001421990134506064 -0.0007964287721805019
          0.0006138336580681081 -0.0016478003706096034 -0.0028288983095407505 0.003491543756173443 -0.004947700813093536 -0.0005042239811440807
          -0.009974825145219152 -0.017800646211109494 -0.008051743738976293 -0.0006101438205684817 -0.0010841379883166358 -0.0012216238469881444
          -0.00048718656758005296 -0.0012996517356380216 -0.0006020674713770463 0.00130995841858776 0.0023565981911869514 0.0005426786912511548
          0.0016454658507467634 0.0031150953184373442 0.0007675164615356667 0.00012453546942590987 -0.00008242781530536092 0.0005123254367775387
          0.0010545166224698796 0.0009466234403601101 -0.0003698924958058236 0.0014817615373267645 0.0025493985261340613 0.0014723475233634487
          0.001443331209447396 0.0008608504127545213 0.0002869773690548083 0.0028974058714089646 0.00417117929665789 0.0031650901611630644
          0.004210449801270055 0.006771976999609297 0.005902275835298565 0.005285081583280116 0.00978902657026115 0.009041632754341222
          0.001138215067481907 0.0012272684625050934 0.0025373733548825217 0.001773641798040071 -0.0006758270939144495 0.003514395695836392
          -0.002152966522544819 0.0034934340853043228 -0.0010925356859782243 -0.017198108899448283 0.010770302175582294 0.007227993922255871
          -0.004177593548457786 -0.037714970260588954 0.01601962726576517 0.03777868489414271 -0.020818165806099354 -0.021099848868582294
          0.006427505652142618 0.031103019839204105 -0.016062126402327515 0.00198756734320113 0.002617564894561386 0.001421659289907895
          0.002255721720827261 0.0019166751634580176 0.0008531106850212522 0.005517278780325485 0.015341726284450824 0.002179409912278746
          -0.0012254169215018193 0.0008380420930285681 -0.002317955134181919 0.003125926398641621 0.00015223708399458163 0.0025689944640113205
          0.0031373464120109107 0.005432497100751776 0.0038465667916797175 0.00213410731856567 0.0017215729331808705 0.002907490597227891
          0.0030431429848063185 0.0049228640271063995 0.0037322716218674834 0.005503763546300666 0.007746168771887607 0.005529793215464096
          0.0044174189433248134 0.00445152533179316 0.0034121679961971463 0.0006953320673557251 -0.002803752241796076 -0.001123073058288293
          0.002029112767973018 0.001317783082364521 0.0021573466715327783 0.0016634687496652756 -0.000007395212745082286 0.004603198291081689
          -0.0007035738954851434 -0.0023826880552638464 0.03391793159566481 -0.0002081330268055015 0.0012148643033314394 0.023787165680678957
        </DataArray>
        <DataArray type="Float64" Name="resid_z" format="ascii" RangeMin="0" RangeMax="0">
          0 0 0 0 0 0
          0 0 0 0 0 0
          0 0 0 0 0 0
          0 0 0 0 0 0
          0 0 0 0 0 0
          0 0 0 0 0 0
          0 0 0 0 0 0
          0 0 0 0 0 0
          0 0 0 0 0 0
          0 0 0 0 0 0
          0 0 0 0 0 0
          0 0 0 0 0 0
          0 0 0 0 0 0
          0 0 0 0 0 0
          0 0 0 0 0 0
          0 0 0 0 0 0
          0 0 0 0 0 0
          0 0 0 0 0 0
          0 0 0 0 0 0
          0 0 0 0 0 0
          0 0 0 0 0 0
          0 0 0 0 0 0
          0 0 0 0 0 0
          0 0 0 0 0 0
          0 0 0 0 0 0
          0 0 0 0 0 0
          0 0 0 0 0 0
          0 0 0 0 0 0
          0 0 0 0 0 0
          0 0 0 0 0 0
          0 0 0 0 0 0
          0 0 0 0 0 0
          0 0 0 0 0 0
          0 0 0 0 0 0
          0 0 0 0 0 0
          0 0 0 0 0 0
          0 0 0 0 0 0
          0 0 0 0 0 0
          0 0 0 0 0 0
          0 0 0 0 0 0
          0 0 0 0 0 0
          0 0 0 0 0 0
          0 0 0 0 0 0
          0 0 0 0 0 0
          0 0 0 0 0 0
          0 0 0 0 0 0
          0 0 0 0 0 0
          0 0 0 0 0 0
          0 0 0 0 0 0
          0 0 0 0 0 0
          0 0 0 0 0 0
          0 0 0 0 0 0
          0 0 0 0 0 0
          0 0 0 0 0 0
          0 0 0 0 0 0
          0 0 0 0 0 0
          0 0 0 0 0 0
          0 0 0 0 0 0
          0 0 0 0 0 0
          0 0 0 0 0 0
          0 0 0 0 0 0
          0 0 0 0 0 0
          0 0 0 0 0 0
          0 0 0 0 0 0
          0 0 0 0 0 0
          0 0 0 0 0 0
          0 0 0 0 0 0
          0 0 0 0 0 0
          0 0 0 0 0 0
          0 0 0 0 0 0
          0 0 0 0 0 0
          0 0 0 0 0 0
          0 0 0 0 0 0
          0 0 0 0 0 0
          0 0 0 0 0 0
          0 0 0 0 0 0
          0 0 0 0 0 0
          0 0 0 0 0 0
          0 0 0 0 0 0
          0 0 0 0 0 0
          0 0 0 0 0 0
          0 0 0 0 0 0
          0 0 0 0 0 0
          0 0 0 0 0 0
          0 0 0 0 0 0
          0 0 0 0 0 0
          0 0 0 0 0 0
          0 0 0 0 0 0
          0 0 0 0 0 0
          0 0 0 0 0 0
          0 0 0 0 0 0
          0 0 0 0 0 0
          0 0 0 0 0 0
          0 0 0 0 0 0
          0 0 0 0 0 0
          0 0 0 0 0 0
          0 0 0 0 0 0
          0 0 0 0 0 0
          0 0 0 0 0 0
          0 0 0 0 0 0
          0 0 0 0 0 0
          0 0 0 0 0 0
          0 0 0 0 0 0
          0 0 0 0 0 0
          0 0 0 0 0 0
          0 0 0 0 0 0
          0 0 0 0 0 0
          0 0 0 0 0 0
          0 0 0 0 0 0
          0 0 0 0 0 0
          0 0 0 0 0 0
          0 0 0 0 0 0
          0 0 0 0 0 0
          0 0 0 0 0 0
          0 0 0 0 0 0
          0 0 0 0 0 0
          0 0 0 0 0 0
          0 0 0 0 0 0
          0 0 0 0 0 0
          0 0 0 0 0 0
          0 0 0 0 0 0
          0 0 0 0 0 0
          0 0 0 0 0 0
          0 0 0 0 0 0
          0 0 0 0 0 0
          0 0 0 0 0 0
        </DataArray>
        <DataArray type="Float64" Name="stress_zz" format="ascii" RangeMin="-114280591.76915663" RangeMax="157637634.5937552">
          1820981.682625946 1580234.7115197047 1147461.5840729936 972503.4962813302 473941.48552004126 364772.2810429558
          3517460.21670309 3795608.8785800813 2307436.634427765 2530688.7951674745 1097413.0521524397 1265768.7117548678
          3038466.1788924346 4885398.273896191 1903203.1805811538 3329701.5531840925 767940.1822698733 1774004.8324719938
          -1375680.0787910665 210113.5871751958 -1170999.0636458294 58961.37667723728 -966318.0485005924 -92190.83382072113
          -4030564.4037774894 -4251475.92854445 -2953083.1285178536 -3120714.9309064317 -1875601.8532582186 -1989953.9332684143
          -2904834.0737494784 -3461315.4395624 -2067479.0155369786 -2521647.328749017 -1230123.9573244792 -1581979.2179356343
          -948370.1282440835 -1389000.403186726 -504690.54140862206 -930423.909536805 -61010.95457316053 -471847.415886884
          1690338.4746998935 573483.3834812162 1728369.6183053954 405074.32328791224 1766400.7619108977 236665.2630946084
          4956614.566929625 4581307.2677510185 3292709.521819641 2818001.2524967715 1628804.4767096562 1054695.237242524
          29225556.85326419 11003272.292169798 22964985.944717802 6488110.239598334 16704415.036171416 1972948.1870268688
          2231525.398259338 1416850.3962631444 602175.3942669514 2064209.7255125013 1076667.7754032966 89125.82529409186
          -1284569.1504368787 -1233847.2862573022 -1183125.4220777252 -4061799.0406034365 -2979557.468438224 -1897315.896273011
          -3212415.36610709 -2299577.427046961 -1386739.4879868329 -1558742.6951638586 -951667.2899632764 -344591.8847626939
          531881.1944534803 933427.183008599 1334973.1715637175 3397402.1518606944 3844334.028304549 4291265.9047484035
          5070039.362937683 3825881.5057227784 2581723.6485078735 -1152593.9350648874 -4228524.264260293 -7304454.593455698
          1718762.1210040862 797567.3668352554 -123627.38733357517 -1621258.9595706533 -1666216.1644510287 -1711173.369331404
          -5110578.9723253 -3735827.6066637374 -2361076.2410021755 -4110593.2565870015 -2774429.7285477137 -1438266.2005084264
          -1705485.2403198218 -1086125.6981303913 -466766.15594096074 75247.38346660964 442124.3642497249 809001.3450328402
          2710255.273806542 3032591.5180322817 3354927.7622580207 4390752.925576756 5200143.816217866 6009534.706858978
          1157700.713287979 687182.2709982871 216663.8287085949 -3067442.1216608672 -4333742.993377481 -5600043.865094094
          -1434296.4865200978 -1529260.315866875 -1624224.145213652 -5677672.671902907 -4244216.255359346 -2810759.8388157864
          -5497073.72284737 -3732307.3313033036 -1967540.9397592368 -2241852.4175720285 -1366341.2354547917 -490830.0533375548
          -352396.9696688215 18665.98522145229 389728.940111726 1740140.9134822222 1888080.5082568456 2036020.1030314686
          4789062.441057054 4969038.405932265 5149014.370807475 4839670.65228519 5833933.244266987 6828195.836248783
          -2332078.062197706 -2449391.7941778046 -2566705.5261579035 -7368136.41553762 -9075530.890175605 -10782925.36481359
          -6664471.668428779 -4711805.368657312 -2759139.0688858465 -7891452.136138055 -5320261.329542627 -2749070.522947199
          -4698500.307599603 -2950662.56523837 -1202824.8228771365 -1632134.5381569266 -816271.4911268927 -408.4440968587587
          369059.50478925183 692377.2272325115 1015694.9496757712 3174571.229824839 3125705.315668382 3076839.401511925
          6247625.380317236 6194038.893955545 6140452.407593851 5313988.9609047435 5995140.025698207 6676291.090491671
          -2450664.9073195606 -2973609.6465718187 -3496554.385824077 -17760274.383803856 -20066438.730956066 -22372603.07810828
          -11330672.663489759 -7452019.626827154 -3573366.5901645506 -9550699.433450252 -6100886.724516938 -2651074.0155836255
          -5671588.970113303 -3384599.5736528602 -1097610.177192418 -2254394.253388113 -1053106.273215692 148181.70695672845
          773627.8380799114 1167400.5440273474 1561173.249974783 4095417.6656462536 3864786.7804828663 3634155.8953194795
          7125130.399280587 6674599.777951785 6224069.1566229835 6133419.21867482 5886136.381535578 5638853.544396335
          -1622830.08752081 -3072442.5958467545 -4522055.104172699 -6731649.231138783 -10618332.677188247 -14505016.123237712
          -13939218.444660926 -9400500.96476334 -4861783.484865753 -10830110.627903288 -7155591.895721205 -3481073.163539122
          -6680285.173704172 -4218571.878536512 -1756858.5833688537 -2763980.001398052 -1465825.8227075893 -167671.64401712726
          1027047.2000882083 1335695.0300526842 1644342.86001716 4604241.987528138 4117403.8999086968 3630565.8122892547
          7508688.436473442 6528628.848594392 5548569.26071534 7595473.17392223 6162899.999923321 4730326.825924413
          2731087.917756335 223344.5641947965 -2284398.7893667426 -773813.2396351332 -3749787.694806291 -6725762.149977448
          -10987564.704582471 -10846013.435990367 -10704462.16739826 -7148136.90934111 -8132374.8615773115 -9116612.813813511
          -3460968.547784774 -5179792.090634931 -6898615.633485088 -246526.53502018237 -2255603.221668589 -4264679.908316996
          2911960.72579401 956176.1495978124 -999608.4265983844 5667153.714804195 4138185.877450028 2609218.040095862
          6986070.714217848 6383512.921644396 5780955.129070945 7313264.28558869 7772563.684409905 8231863.083231121
          6160515.126698645 7820701.693397917 9480888.260097189 -533436.9262354316 3397317.153588648 7328071.233412728
          -216355.63822572766 -4312381.967049952 -8408408.295874177 1801380.6558580035 -1812950.9499329424 -5427282.555723889
          3826202.5174324075 1049366.646488957 -1727469.2244544937 5429235.101368396 3900488.6821865533 2371742.263004712
          5523757.576504001 5808854.876039555 6093952.17557511 4829637.170194077 6893195.528427299 8956753.88666052
          8921725.575264934 13309466.5438646 17697207.512464266 7260390.24259131 12515819.243799526 17771248.24500774
          6568377.007150227 -24390753.546641365 -13688907.479658738 4211805.499918023 1003930.3271832978 -24271429.60688618
          -12679541.36598151 870402.5927300313 -4560516.352783633 -24152105.667130988 -11670175.252304282 -2471000.3144579614
          25218169.49124656 18290950.52834886 15316340.661738671 12861807.3693248 5414511.83223078 7432664.2103007315
          27945555.053846143 39882669.43146815 51112896.28962279 18606889.605872344 26083077.854673967 39718196.18078884
          9268224.157898545 12283486.277879786 28323496.071954876 25244778.275809284 12515100.029629393 69992760.58868322
          28512871.695320185 20812596.731660895 10109029.22762753 61365709.61161667 23386041.244494513 16380415.187512504
          7702958.425625667 52738658.634550124 18259210.793668836 -19694802.23938497 -42116745.233384 -58937069.03956028
          -59397080.43067153 -6807788.546467673 -28727004.21713228 -38587637.47384518 -37576085.053357065 6079225.146449624
          -15337263.200880572 -18238205.908130072 -15755089.676042588 5455188.228692247 718298.5492659938 32984276.29623074
          8011871.283383362 6523120.912100815 275105.11637302465 30526819.57749962 7351799.073688321 7591053.595509384
          -168088.31651994772 28069362.858768504 6691726.86399328 -19320947.396288246 19607038.23492979 -8125207.126632953
          -18647068.56374497 -14326896.155869612 25603427.488047205 -4788289.030260837 -14257924.4501329 -9332844.915450983
          31599816.74116463 -1451370.9338887199 -9868780.336520825 3604956.0416558497 1417611.8901738087 8828436.299311366
          -148434.61793294956 14051916.55696688 -1714481.126039708 27621713.890761096 4453682.495908183 26279721.67719489
          261521.1439980585 24937729.463628676 -3930640.207912066 -4714104.047393285 23108174.542135786 28247685.116120696
          -61273861.91454467 -972556.470706081 14255156.832336172 3257259.7439688207 -45455090.34006401 2768991.105981122
          5402139.122536559 -21733165.628183056 -29636318.765583355 34790367.01638517 46484141.69610979 25623888.821413856
          11580992.330737442 25378208.086652033 39414527.461602695 20593839.4726435 5898362.666266796 15966049.156918902
          32344913.227095596 15563790.123873135 215733.00179614872 -63861201.58215087 -33891663.62312449 -60329487.78504342
          -34635595.01525058 -56797773.98793598 -35379526.40737667 -13352136.570899844 -7201059.3563951645 -186938.96799120447
          22825.279332223163 -13461005.656233028 -5854206.121166455 -242051.83736705454 -1666545.0600667794 -13569874.741566211
          -4507352.885937746 -297164.7067429046 -3355915.3994657816 86604187.11095883 157637634.5937552 35213482.69254135
          35868989.66545169 65101830.20280954 136349288.6006214 32678107.477816623 27863022.026012897 43599473.294660255
          115060942.6074876 30142732.263091885 19857054.386574097 68419073.23529454 58237759.6148896 57011809.68494277
          74744379.42519076 32711330.570335913 23369031.046732564 36392975.95953657 48778101.56312682 -2996412.0946226986
          -11499697.521424467 15774142.234130379 22811823.701062873 19149710.56364661 -11129879.048032619 27389267.547211032
          -5076590.651036966 35628824.53077545 976697.7459586859 6180020.598536783 4737445.305950948 3294870.013365113
          -25291641.254201405 -42669971.274421394 -15579335.257245287 -37044728.942436874 -5867029.260289173 -31419486.610452347
          -55005750.166216135 -62618101.62157324 -46504845.64424182 -39249733.368590474 -47916427.71928118 -41898807.64850046
          -23493716.570964806 -33214753.816989124 -37292769.65275909 -10833825.788306504 -3666761.754883455 43080630.589090124
          28243838.54501145 -29722890.390487187 -26337997.07129861 39598992.59774564 21473572.59041837 -48611954.992667876
          -49009232.38771377 36117354.606401145 14703306.635825286 24843491.592401363 11661710.308009006 22445528.68671016
          19798614.142072827 6012527.103592907 15525161.777478078 14753736.691744294 363343.89917680476 8604794.868246002
          7513532.625505415 -9761015.001585959 12280666.388291074 -12902788.755711466 17047800.151076734 -16044562.509836974
          -86094428.30088599 -60915990.40764668 -57155468.53749398 -48660740.998809375 -28216508.774101976 -36405491.58997207
          -43739719.27865541 -40570975.53399348 -22111512.15555249 -31594572.5956171 -483305.0324495739 -22618169.657240715
          59774196.57894506 72079867.53952722 59709507.609476574 45243759.67199411 57695885.17608684 67536478.82775912
          54056491.204051115 41583992.711963914 55617573.773228616 62993090.11599101 48403474.79862565 37924225.751933716
          -8192480.764443409 14984543.508907761 7848874.392212161 -5898057.483897718 10116833.289527494 3248651.6649530306
          -3603634.2033520276 5249123.070147225 -1351571.0623060986 -23079175.586750492 -21668565.196071684 -20273603.780427836
          -16668364.057813836 -17468031.974105183 -11668162.919555984 -1843146.3801247538 692471.5603844197 253361.85073229112
          1584410.353948473 2349870.081589337 2476349.1475125235 -25395778.863098547 -30056787.0664917 -21374169.41182798
          -42266761.212104954 -17352559.960557427 -54476735.3577182 -21276323.78410491 -16620077.195097623 -18257002.392741513
          -8755494.24592074 -15237681.001378119 -890911.2967438595 47346437.4456882 29786960.437951308 34918545.76037923
          29844955.341187757 19207792.87926802 22387029.557659887 12343473.23668731 8628625.320584733 9855513.354940537
          -5519569.99279925 -6414443.062234148 7964165.5813235175 -3838974.993223858 -2321942.016890213 19075973.788086414
          -2158379.9936484657 1770559.0284537233 30187781.994849317 4277833.743544591 4194304.181587791 -23050330.65559905
          3394433.5737816356 8160830.80585774 -20197901.27627157 2511033.4040186796 12127357.430127693 -17345471.896944087
          9381803.706048403 13657090.581851417 17932377.457654435 16599287.202513475 14599325.743290896 8773333.377322815
          7435246.912802928 9639374.862372138 8875152.570767157 4468655.559779195 2112123.441224592 2679462.5222307993
          3150979.398243417 163977.7422355747 -3211000.030353745 42183602.794976234 -7749131.045440808 40254349.52129786
          -9645495.404653229 38325096.247619465 -11541859.763865635 22211700.926797185 25593471.745744295 14298888.724488195
          15718035.405141197 6386076.522179205 5842599.064538098 51307686.65473163 -35894626.724136196 44502995.221848615
          -31338551.90039289 37698303.78896559 -26782477.076649576 89300283.2028405 -62289330.5944256 81067455.59220846
          -58015288.267683245 72834627.98157644 -53741245.94094088 11855029.298648374 8032511.506727559 4209993.714806743
          -3461181.134424205 -1153413.724571782 1154353.685280642 37355972.30414503 63879190.98649609 47538310.87300965
          67718467.72852919 57720649.44187429 71557744.4705623 -6315383.978483568 4702190.864504193 15719765.70749195
          -76879611.73419866 -51165315.797283754 -25451019.860368855 63248163.8513798 44063028.577971034 24877893.304562278
          -21366411.88778323 -15946545.6403898 -10526679.392996367 5976958.400006664 3246485.2956674965 516012.1913283298
          -114280591.76915663 -90661791.44447309 -67042991.11978954 61363665.348544806 56990657.357937954 52617649.36733109
          98355590.9245425 85621423.74333903 72887256.56213558 -6647916.401666996 -13500448.45245593 -20352980.503244866
          6057420.6177311335 2104819.213010887 -1847782.1917093594 58568367.31801527 22034009.406732 -14500348.504551273
          2076746.9297865978 2122264.0025514243 2167781.075316251 4536562.944706398 5505103.445982223 6473643.947258048
          3151338.0327307377 3294557.210783951 3437776.388837164 4016329.138322963 4809492.730581124 5602656.322839286
          3727977.471247592 3932912.9390822696 4137848.4069169466 3156412.0602518846 3450437.3665497783 3744462.672847672
          2245729.3167709787 1844745.1516683341 1443760.986565689 4073893.558093561 3612529.068153764 3151164.5782139674
          5830528.620223341 5380826.780456858 4931124.940690376 -1171095.6514616662 -6020216.620148493 -4149004.3848211323
          -8410211.655959599 -7126913.118180598 -10800206.69177071 -1569521.597190676 -1180819.9349168122 3136923.0014490336
          -3115796.098149908 -1830368.4209316291 -1469631.9635644653 3565976.53562359 -3247860.8514541555 -2091215.2446725825
          -1758443.9922121183 3995030.0697981482 -3379925.6047584023 4776001.122144199 3535723.596334455 2295446.070524711
          3578548.0732375924 3314960.840635717 3051373.6080338415 2364586.2396147056 1606197.4972271295 847808.7548395536
          3569235.03948447 5340559.279043916 3367638.675598768 5114630.032899249 3166042.3117130664 4888700.786754583
          2604298.937460747 3062062.532274307 3519826.127087867 700405.2043110766 526669.1373426147 352933.070374153
          -39258.55158521468 -81814.61549388664 -124370.6794025586 -3485121.582324923 -4598219.35346121 -5711317.124597495
          -5628034.243076282 -7190067.392589819 -8752100.542103356 2861115.3128990196 2692309.469669614 2523503.6264402065
          7014345.187080753 7172971.22145316 7331597.255825567 1516199.2056857536 1807153.8163373717 2302214.9290314857
          1436390.617692274 1305015.247984091 2095521.0626519104 1356582.029698795 802876.6796308095 1888827.1962723345
        </DataArray>
        <DataArray type="Float64" Name="peeq" format="ascii" RangeMin="0" RangeMax="0.07858630238695775">
          0 0 0 0 0 0
          0 0 8.726440460731934e-7 0.0000017452880921463868 0.0000017452880921463868 0.0000034905761842927736
          0.000003999227454453643 0 0.000016685541732343287 0.0000100207960709406 0.00002937185601023293 0.0000200415921418812
          0.00018781945882867448 0.0001443825471619153 0.0002412609625256922 0.00019335422953331704 0.00029470246622270995 0.00024232591190471878
          0.0009643501126480426 0.0008671330233871431 0.0010628676303038635 0.0009669534595887115 0.001161385147959684 0.0010667738957902799
          0.002718216106126976 0.0026015611305326334 0.002824298337505987 0.0027131762144439187 0.002930380568884998 0.002824791298355204
          0.0057662379865916855 0.005662138725060838 0.005821480195648356 0.005722664138528365 0.005876722404705029 0.005783189551995891
          0.010573436233915925 0.010527867216236202 0.01048850089318639 0.01044174975895254 0.01040356555245686 0.010355632301668876
          0.018565311473507776 0.018814927405702696 0.018199683862304576 0.018423413421770642 0.017834056251101377 0.018031899437838582
          0.029242108922401717 0.028593039544892073 0.028454630871087905 0.027843702451380833 0.027667152819774093 0.027094365357869594
          0 0 0 0 0.000002382217739703913 0.000004764435479407826
          0.000036719138924816155 0.00006291686500118471 0.00008911459107755326 0.0003435633444264845 0.0004107590872612536 0.0004779548300960227
          0.0012561923765722343 0.0013502545908235534 0.0014443168050748728 0.0030589360222722933 0.003149459866622904 0.0032399837109735145
          0.0060693646391518485 0.0061092918242530115 0.006149219009354174 0.010692916922980602 0.010611854029314156 0.010530791135647715
          0.017855600250337625 0.017558256866940448 0.017260913483543274 0.025953915499239037 0.02539085916965437 0.024827802840069704
          0 0.0000026129263162813125 0.000005225852632562625 0.0000106249437797354 0.000030153459086198165 0.00004968197439266093
          0.00015253839730162462 0.00020655085772427768 0.00026056331814693073 0.0006620834329547623 0.0007423178392997096 0.0008225522456446572
          0.0017387813585864687 0.0018230829405695087 0.0019073845225525486 0.003599090147719885 0.0036659756044647427 0.0037328610612096004
          0.006536639651691724 0.00655357537468596 0.006570511097680195 0.010842374168397076 0.01076702522282257 0.010691676277248065
          0.016780030215682713 0.016578939408788088 0.016377848601893463 0.02297831376139244 0.022703275470200773 0.022428237179009117
          0.0000056262270867150955 0.000027337816523985066 0.000049049405961255034 0.00008714907321474034 0.00014056340582244294 0.00019397773843014555
          0.00042178046264951095 0.0005009103468022651 0.0005800402309550193 0.0011602020565599875 0.0012419521768441213 0.001323702297128255
          0.002395366227132089 0.0024619957096440074 0.0025286251921559258 0.004300603615258351 0.004337340139260886 0.004374076663263422
          0.007104663698004252 0.0070952788715921335 0.007085894045180015 0.01094972402759401 0.010881274759538062 0.010812825491482115
          0.015507250207392603 0.015408358302947602 0.0153094663985026 0.01859970553734054 0.018571975642995335 0.01854424574865013
          0.00006699634642641168 0.00012214812115126584 0.00017729989587612 0.00030980527870656934 0.00038982125494359753 0.0004698372311806257
          0.0008746376045528077 0.0009587868057638655 0.001042936006974923 0.0018236890578129114 0.001891293809588753 0.0019588985613645947
          0.0031995600705171444 0.003237523826412926 0.003275487582308708 0.005109597164990674 0.005111411356644339 0.0051132255482980015
          0.007689417137873691 0.00765568440500466 0.007621951672135628 0.010934816410116942 0.010878186810097784 0.010821557210078625
          0.014148790638241066 0.014140087067752292 0.01413138349726352 0.01559011458054901 0.015738204427315602 0.015886294274082193
          0.0002728333025105294 0.00034009450385575566 0.0004073557052009819 0.0007258287094997422 0.0007983975157786085 0.0008709663220574746
          0.0015109623685863028 0.0015689211693702208 0.0016268799701541388 0.002643250052661297 0.002671776490463647 0.002700302928265996
          0.004116458169418959 0.004110619951414816 0.004104781733410673 0.005957861191142631 0.005922603876751894 0.005887346562361156
          0.008200270782067115 0.008151394298407014 0.008102517814746912 0.0107274711824855 0.010696761878317907 0.010666052574150313
          0.012694432693837823 0.012771948591343904 0.012849464488849986 0.012990752737388284 0.013270895069444207 0.013551037401500127
          0.0006766474946027116 0.0007073686848059319 0.0007380898750091523 0.0013506003900852438 0.001365823784244661 0.0013810471784040778
          0.0023341629754467467 0.002322393538580414 0.002310624101714081 0.0036000606145735396 0.003558122659997977 0.0035161847054224152
          0.005094960567528567 0.005030082791970995 0.00496520501641342 0.006769240857252898 0.006699883575455435 0.006630526293657971
          0.00855606637065379 0.00851086892323195 0.008465671475810113 0.010271012306991874 0.010292837553448803 0.010314662799905732
          0.011149661490181824 0.011321970462492045 0.01149427943480227 0.010612543556915075 0.010981687473031576 0.01135083138914807
          0.001259687656889455 0.0012395836974419326 0.0012194797379944107 0.0021486626156544415 0.0021006895577872983 0.002052716499920155
          0.003294373571512922 0.003217670807889824 0.003140968044266727 0.004627897541643095 0.004530141463998534 0.00443238538635397
          0.006053907698391274 0.005951493762519854 0.005849079826648435 0.0074605044125794825 0.0073795542100130364 0.0072986040074465896
          0.008703269875766204 0.00867768409467122 0.008652098313576238 0.009566292501172786 0.009638955483254571 0.009711618465336358
          0.009547755333160098 0.009768583149150085 0.009989410965140067 0.008530364473201543 0.008881961470499532 0.009233558467797519
          0.004246564656770702 0.0041741674136762785 0.004101770170581855 0.00553481127483052 0.00545193257615679 0.00536905387748306
          0.006789405002658963 0.006709832984780702 0.006630260966902439 0.007863301846666948 0.007806456247569059 0.0077496106484711705
          0.00857527895308855 0.008564798066408173 0.008554317179727792 0.008698184962626844 0.008761515080896468 0.008824845199166093
          0.007952390395195122 0.008105477870436549 0.00825856534567798 0.0067438934422970696 0.006966796276790795 0.007189699111284522
          0 0.000030305804255930095 0.00008592538382002591 0 0.00046672779452531165 0.0013297313291465245
          0.00018566548705514752 0 0.0009334555890506233 0.002629156854037119 0.0002854055902902691 0
          0 0 0.00012114051787522787 0 0.00024228103575045574 0
          0 0 0 0.00027887086778069124 0.00003733473050451098 0.00012099967038415829
          0.0005577417355613825 0.00007466946100902196 0.00024199934076831657 0.03936099071468449 0.03612634107732828 0.0458798273488672
          0.04603365191592988 0.03822652576942397 0.03539387746386814 0.044559911965814096 0.04449035540588754 0.03709206082416346
          0.03466141385040801 0.04323999658276099 0.04294705889584519 0.012919015738454907 0.007977349465560522 0.00642902905774752
          0.008508932193624395 0.01579762748282409 0.01005917583741341 0.008848669248490905 0.011216749030239555 0.01867623922719328
          0.0121410022092663 0.01126830943923429 0.013924565866854718 0.023121480328040525 0.02314517588238693 0.02786079295031192
          0.026944615781545618 0.023043054629459533 0.02323292051208287 0.027591859171674178 0.02659883736609633 0.022964628930878545
          0.0233206651417788 0.027322925393036438 0.02625305895064704 0.01126758508802417 0.012293471533107631 0.008716911892470619
          0.007236450900577987 0.01197693761296348 0.012854351280408021 0.009290174417122229 0.007913486293789605 0.012686290137902788
          0.013415231027708412 0.009863436941773843 0.008590521687001227 0.00718573410343547 0.009093729714646713 0.0075760129558562345
          0.00957129751584378 0.007966291808277001 0.010048865317040849 0.031825159663843215 0.029194524697302677 0.031229345274455478
          0.02896067341925889 0.030633530885067744 0.028726822141215105 0.000007264178620147327 0 0
          0.00035593084216720513 0.0006475767613764891 0.00047844781729246906 0.0005565711305669099 0.0019922312588382205 0.001287889344132831
          0.0009568956345849381 0.0011131422611338198 0.003628531675509236 0.03590107630457566 0.0353525103488099 0.042275481079833845
          0.04005514393114384 0.03483496070687113 0.034274427780185635 0.04078246977449772 0.03873023590304977 0.0337688451091666
          0.03319634521156137 0.03928945846916159 0.03740532787495571 0.03756730300161227 0.049887555085402144 0.03680283568278624
          0.048408915494857034 0.03603836836396022 0.04693027590431194 0.00021822149156784133 0.0004704625638632196 0.00006196092956721794
          0.000008895517757429567 0.0002876292716798356 0.0005359916281175329 0.00006842769931910897 0.000011394966462174121 0.0003570370517918298
          0.0006015206923718462 0.000074894469071 0.000013894415166918674 0.06822795342184641 0.07858630238695775 0.07377180110477546
          0.061141856491893534 0.06646108646577067 0.07591417588561569 0.07110824705521888 0.05954663032079196 0.06469421950969495
          0.07324204938427363 0.0684446930056623 0.05795140414969039 0 0 0
          0 0.0007713887970630779 0.0007973612367663793 0.0005517357550557048 0.000511488572265624 0.0015427775941261558
          0.0015947224735327586 0.0011034715101114097 0.001022977144531248 0.01480619310922055 0.014960946909989179 0.015312118925591705
          0.015591244899976932 0.015818044741962856 0.016221542889964684 0.03217322475878763 0.03140476181067265 0.03063629886255768
          0.00012384726100833613 0.0003361310952254822 0.002223104920385231 0.003842771888073242 0.004322362579762126 0.0073494126809210015
          0.00314556088953905 0.002982291549858615 0.0005861444905555106 0.006677178927426608 0.005448612465269243 0.00242011171684241
          0.010208796965314165 0.00791493338067987 0.0042540789431293104 0.020075419136047025 0.0184666637477698 0.03304497581330173
          0.02950357014284474 0.02104610817537526 0.020266351334660072 0.03413776156297381 0.029498404051568783 0.0220167972147035
          0.022066038921550346 0.03523054731264589 0.029493237960292823 0.04551141268339473 0.04811640279505551 0.05147762293927898
          0.04375703448131883 0.04627254637301476 0.04931052310200735 0.04200265627924295 0.04442868995097401 0.047143423264735716
          0.006353155311580844 0.011410404250503811 0.006774140856327636 0.011874086261833101 0.0071951264010744285 0.01233776827316239
          0.005484911362738129 0.006576214330194651 0.006867779903661522 0.008347493647564973 0.008250648444584917 0.010118772964935291
          0.006801735339989928 0.0033664649791975334 0.00786290913008266 0.004135409339834663 0.00892408292017539 0.004904353700471793
          0.06565588154237684 0.06342913921502843 0.06964434426355376 0.07108882275094688 0.06241085662749231 0.06050024441465202
          0.06662185646547067 0.06780445085882629 0.059165831712607767 0.05757134961427561 0.06359936866738757 0.0645200789667057
          0.01868766392519636 0.019145510808448788 0.023970634610046164 0.01907755570911117 0.019806715359163046 0.024249163776905194
          0.01946744749302598 0.020467919909877303 0.024527692943764223 0.0009062568875346788 0.0004436411340837362 0.0012225842185586333
          0.000752425890069137 0.0015389115495825878 0.0010612106460545377 0.01812771178326266 0.014312791691567194 0.018347039617801496
          0.01467332228300515 0.018566367452340332 0.015033852874443103 0.01187933631210817 0.014199558725986376 0.012785637312344998
          0.015490189929300869 0.013691938312581822 0.016780821132615358 0.006849598339025276 0.0037574682895966977 0.007681143141776849
          0.004277558118949482 0.00851268794452842 0.004797647948302266 0 0 0
          0.000005681076951731729 0 0 0.000011362153903463459 0 0
          0.003905458055296322 0.002084469537755981 0.004465886714672418 0.004154608515163679 0.0022765925780970707 0.004876309003267847
          0.004403758975031037 0.002468715618438161 0.005286731291863274 0.05326742193167136 0.05844350264814545 0.05848605718822701
          0.05103438909777092 0.05580696120813243 0.055760206828553135 0.0488013562638705 0.05317041976811939 0.053034356468879246
          0.06127266052969926 0.05833901182293874 0.05540536311617822 0 0 0
          0 0 0 0 0 0
          0 0 0 0.053002133205272375 0.058810631603818095 0.05097479372118122
          0.05645937954544995 0.048947454237090085 0.05410812748708181 0 0 0
          0 0 0 0.0759132321384479 0.06390488186217112 0.07303345519997208
          0.061493109468456396 0.07015367826149625 0.05908133707474167 0.043583127853383634 0.05046581548595478 0.04284973946066086
          0.05056703208845381 0.04211635106793809 0.05066824869095283 0 0 0
          0.005453235525739734 0.005710114695770794 0.005966993865801854 0.025907865837149935 0.0161762560207272 0.028883955911372328
          0.01936099321122594 0.03186004598559472 0.022545730401724678 0.0061675405631468035 0.006720789384216594 0.007274038205286384
          0.002299807771318237 0.004651443455694565 0.007003079140070892 0 0.000005681076951731729 0.000011362153903463459
          0.001480974697412333 0.0017479237736385312 0.00201487284986473 0 0 0
          0.002748437949755835 0.0047075658848082435 0.006666693819860653 0.04496343421852802 0.04626339589304557 0.04756335756756311
          0.07821945870337177 0.07521977312544015 0.07222008754750854 0.03529795701491864 0.03431222087222926 0.033326484729539876
          0 0 0 0 0.0005198004495949076 0.0010396008991898152
          0.0061878973360017485 0.006155490018327329 0.006123082700652907 0.006582937457459163 0.00657809448809382 0.006573251518728479
          0.007149893015848404 0.007119780638069565 0.007089668260290726 0.007144063674030095 0.0071402796112846716 0.007136495548539248
          0.007837024249486586 0.007816297323456761 0.007795570397426937 0.008061825781245952 0.008058990877403643 0.008056155973561333
          0.007609479402997749 0.007634735059424161 0.0076599907158505735 0.006275488807111013 0.0063302638812429805 0.006385038955374948
          0.004153112913551774 0.004230834431751303 0.004308555949950834 0.003981706738033303 0.002524582771347576 0.004134157218180059
          0.0026376384910163932 0.004286607698326815 0.0027506942106852103 0.0008427558064771435 0.0002356943488962833 0.0002871532197522292
          0.0011810074143126744 0.0008533873657925521 0.00023680456600141622 0.0002980743685405601 0.001232005895460943 0.0008640189251079606
          0.00023791478310654916 0.0003089955173288909 0.0012830043766092116 0 0 0
          0.0017964712354559985 0.001826593740665205 0.0018567162458744118 0.000015226639474150742 0.000014349459983444507 0.00001347228049273827
          0.006737362887010965 0.006626034621189271 0.006735413373763367 0.006621998740408483 0.006733463860515767 0.006617962859627695
          0.00736619030032804 0.007364551816142996 0.007362913331957949 0.006472238838609365 0.0064731545710084 0.0064740703034074365
          0.0070839133562158926 0.007086464686589643 0.007089016016963394 0.0061381969697757895 0.0061482855836021135 0.006158374197428438
          0.004478400803172531 0.004493593044639893 0.004508785286107257 0.0025526468722703215 0.0025623187826651662 0.002571990693060011
          0.0010569055335054105 0.0010605130324083552 0.0010641205313112999 0 0.00022543509426390784 0.00017740496402945626
          0 0.0002254713296046496 0.0001780777813777102 0 0.00022550756494539137 0.00017875059872596413
        </DataArray>
        <DataArray type="Float64" Name="pe11" format="ascii" RangeMin="-0.0011306322729972428" RangeMax="0.07677085302332746">
          0 0 0 0 0 0
          0 0 8.670331062173645e-7 0.000001734066212434729 0.000001734066212434729 0.000003468132424869458
          0.000003954224905223461 0 0.000016447920781494393 0.000009885296149210616 0.00002894161665776533 0.000019770592298421232
          0.00018473624758045458 0.00014206026125319104 0.00023602127051414838 0.00018900385289741066 0.0002873062934478422 0.00023594744454163026
          0.0009420277310056288 0.0008467353821491 0.001031906733886518 0.0009377972018581636 0.0011217857367674068 0.0010288590215672274
          0.0026320371032215358 0.00251687419079961 0.0027203471276691527 0.0026100506044960925 0.0028086571521167693 0.002703227018192575
          0.005531802405380217 0.005424003205482881 0.005564359963583525 0.005460889437732067 0.005596917521786834 0.005497775669981253
          0.010054595129548583 0.009988233607909389 0.009951724640981752 0.009882952970295289 0.009848854152414918 0.009777672332681191
          0.017438082072662824 0.017602943909692838 0.017063895118340906 0.017202708006147403 0.016689708164018987 0.016802472102601967
          0.02734709916693607 0.026559473275461244 0.026546945564940295 0.02578484647442267 0.025746791962944528 0.025010219673384095
          0 0 0 0 0.0000023680985026788682 0.0000047361970053577364
          0.0000361858964100144 0.00006199944680550377 0.00008781299720099313 0.00033759136773727465 0.00040230216702677614 0.00046701296631627753
          0.0012278513099723476 0.0013136745860697012 0.001399497862167055 0.0029683660226239206 0.0030429561574389606 0.0031175462922540015
          0.005845796945600908 0.005865658608322361 0.005885520271043816 0.010230799451795041 0.010134548757902184 0.010038298064009325
          0.016932919006092603 0.01663093290147991 0.016328946796867215 0.024460023345210725 0.023918802077122235 0.023377580809033745
          0 0.0000026064361167455722 0.0000052128722334911445 0.000010531237026398227 0.000029930163587348525 0.00004932909014829882
          0.00015018280699472919 0.00020347190369041174 0.0002567610003860943 0.0006498004220651863 0.0007272238520262147 0.0008046472819872433
          0.001699929387974788 0.0017767363552043892 0.0018535433224339908 0.00350163931511573 0.0035551747545515314 0.0036087101939873334
          0.006330152122206014 0.0063305605690107 0.006330969015815388 0.010460087214143595 0.010372727407730984 0.01028536760131837
          0.01609649122202586 0.015897608870750708 0.015698726519475556 0.021863936114131267 0.02163020313594679 0.021396470157762318
          0.000005601767026703273 0.00002723354851748939 0.00004886533000827551 0.00008622843093586944 0.00013923915069909503 0.00019224987046232063
          0.00041489488068676696 0.0004928775498754061 0.0005708602190640454 0.0011371977149071185 0.0012159909799433813 0.0012947842449796436
          0.002341819268297282 0.0024020092867310106 0.0024621993051647385 0.0041950789269727205 0.004221247522091377 0.004247416117210034
          0.006919897850384232 0.00689756311057061 0.0068752283707569865 0.010655823232241065 0.010578710495334976 0.010501597758428887
          0.015050457880216164 0.01495866589368029 0.014866873907144418 0.017908070880171996 0.017919672390011607 0.017931273899851215
          0.00006658729968994389 0.00012143800401506405 0.00017628870834018423 0.0003059981894829114 0.0003852333983006728 0.00046446860711843425
          0.000858912957873263 0.0009416195781913471 0.0010243261985094312 0.0017850989426619695 0.0018499940367129473 0.0019148891307639252
          0.003128390324125491 0.0031612819603067674 0.0031941735964880432 0.004997021429618667 0.0049908511078006245 0.004984680785982583
          0.007530053206262119 0.007486503977702852 0.007442954749143585 0.010725681510530976 0.010663379512347746 0.010601077514164517
          0.013872091406665284 0.013872816288209763 0.01387354116975424 0.01514713795253495 0.015325162321348926 0.015503186690162901
          0.00027036673279928357 0.00033714535177255494 0.00040392397074582627 0.0007146793646012063 0.0007865254053426669 0.0008583714460841278
          0.0014801627650677608 0.0015372574941754974 0.0015943522232832338 0.002584118312764056 0.002611177122480984 0.002638235932197912
          0.004026738041776333 0.004017773579721051 0.004008809117665771 0.0058418267204968614 0.005800921128066343 0.005760015535635823
          0.008069694051707696 0.008013433280901042 0.007957172510094387 0.010592100365882881 0.010557614580697287 0.010523128795511693
          0.012532965056529077 0.012619373674815996 0.012705782293102923 0.012679128007769016 0.012979889445502083 0.013280650883235151
          0.000667170092044138 0.0006981201076622363 0.0007290701232803346 0.001323800588020529 0.0013399638358681438 0.001356127083715759
          0.0022799523797463962 0.0022697383900325144 0.0022595244003186326 0.0035159975025855876 0.003475320508971385 0.0034346435153571825
          0.004988369696187852 0.004923010412108169 0.004857651128028486 0.006655868854177651 0.006582971229991363 0.006510073605805074
          0.00845693027341829 0.008405736411803408 0.008354542550188526 0.010193542254773284 0.010211839057341581 0.010230135859909877
          0.011048499837062535 0.011226904108451629 0.011405308379840723 0.01035864534193625 0.010739396529080479 0.011120147716224708
          0.0012359428053392062 0.0012154299797400624 0.0011949171541409183 0.0020980341805398486 0.0020500668312430997 0.0020020994819463503
          0.003211600963838188 0.003135428477661022 0.0030592559914838554 0.00451937414811247 0.004422299831418323 0.004325225514724177
          0.005936731596383316 0.005834101107822532 0.0057314706192617484 0.0073581867171425615 0.007274625802711893 0.007191064888281223
          0.00863632615408086 0.008605249500752907 0.008574172847424955 0.00952729508855955 0.009594258996563363 0.009661222904567179
          0.009448925548129296 0.009670273523245685 0.009891621498362074 0.008227151577660498 0.008582532176449506 0.008937912775238515
          0.004162641385041981 0.004089024179028996 0.004015406973016011 0.005439939957204023 0.005356174873083091 0.005272409788962157
          0.006702247631327177 0.00662189778776171 0.0065415479441962455 0.007802064926645576 0.007743877183895174 0.0076856894411447725
          0.008543679465424513 0.00853086194480552 0.008518044424186525 0.008663759242883037 0.008724449945916413 0.008785140648949794
          0.007815589741285482 0.007968289025373465 0.008120988309461452 0.006380827852745741 0.006603181085079839 0.006825534317413937
          0 0.00002882712264002633 0.00008019138079287989 0 0.000007719014904518861 -0.00021914713249039696
          0.00014118413308782457 0 0.000015438029809037722 -0.0004671213876208203 0.00020217688538276925 0
          0 0 -0.000022032039981965857 0 -0.00004406407996393171 0
          0 0 0 0.00009256528734157772 -0.000009340494891911872 0.000013025417948964988
          0.00018513057468315546 -0.000018680989783823743 0.000026050835897929975 0.0375798756831887 0.03400654963256236 0.04389904794486678
          0.04436156918587992 0.03639434931902473 0.03336394377588066 0.042560674978285154 0.042742842527412825 0.03520882295486076
          0.03272133791919894 0.04122230201170352 0.04112411586894573 0.008602572457525272 0.004883048027337069 0.0008948979990265702
          0.004035989081343089 0.009984583015486541 0.005354588481011535 0.0018950168833182725 0.005699130106910775 0.011366593573447811
          0.005826128934685999 0.002895135767609975 0.007362271132478461 0.02204523404426104 0.02191393559931487 0.026210271267942575
          0.02548042796004227 0.022039145874637837 0.022101275432492986 0.026074212729367073 0.025218811752170153 0.02203305770501464
          0.022288615265671097 0.02593815419079158 0.024957195544298035 0.01032073838584059 0.011617776289023673 0.008001692526295187
          0.0063387341113823005 0.011019265742839582 0.012186280110889819 0.008555513357771183 0.006968756139446396 0.011717793099838574
          0.012754783932755965 0.009109334189247174 0.00759877816751049 0.0067078625741362205 0.008677051101953959 0.007090984991220227
          0.009159950635370147 0.007474107408304232 0.009642850168786334 0.0299728016542119 0.02718294903063933 0.02950786017421061
          0.02716826535677664 0.02904291869420932 0.027153581682913947 0.000002104599607295447 0 0
          0.000011357585189650589 0.00005695831901260708 0.00022497914247538527 0.00012116367456896277 -0.0005101193558961526 0.00011181203841791873
          0.00044995828495077053 0.00024232734913792555 -0.0010315962969819556 0.033846549806855204 0.03342824926910212 0.04078425060674075
          0.038399819827397104 0.03270958552424537 0.03231947615681868 0.03917862895201217 0.03695679033899836 0.03157262124163554
          0.031210703044535226 0.03757300729728361 0.03551376085059962 0.03458861667024115 0.04718113423176768 0.034055139120035875
          0.04588983925578664 0.0335216615698306 0.0445985442798056 0.00020155924592892287 0.0004467069176014676 0.00005818700743473938
          0.00000841634605206048 0.00025009675325093585 0.0004974609071454444 0.00006335487723341974 0.00001045689132905102 0.00029863426057294884
          0.0005482148966894211 0.00006852274703210008 0.000012497436606041557 0.0582415116953243 0.07461675056607464 0.07086763666006264
          0.054842978262941953 0.057231937705507906 0.07204975194388161 0.06820621542816664 0.05378988551981075 0.05622236371569152
          0.06948275332168857 0.06554479419627064 0.05273679277667957 0 0 0
          0 -0.00021283611359543036 -0.00001821789922217161 0.00003163089292994374 -0.00016697930458403918 -0.00042567222719086073
          -0.00003643579844434322 0.00006326178585988748 -0.00033395860916807837 0.014141497117624547 0.014038748951647815 0.014686796352593246
          0.014699464306468336 0.01523209558756195 0.015360179661288857 0.03039185017345748 0.02966909785534989 0.02894634553724231
          0.000019386859744202046 0.00011849351510521612 -0.000022172114212206194 -0.0005060693789460133 -0.00006373108816861442 -0.0011306322729972428
          -0.000058246929825498414 0.001310300210477991 0.0004453195941649139 -0.00020584870744431335 0.0010810917680205774 0.0001786875893269944
          -0.0003534504850631283 0.0008518833255631633 -0.00008794441551092502 0.017939564790606023 0.015021689776337853 0.026160387251546003
          0.026225375506602495 0.018963575851431658 0.016209363965361875 0.027172868751623346 0.026596624318054235 0.01998758691225729
          0.0173970381543859 0.028185350251700703 0.026967873129505982 0.0443390309481316 0.046848739712658016 0.05050399490048979
          0.042431271723185095 0.04484218016456792 0.04814371632265888 0.040523512498238594 0.042835620616477825 0.04578343774482799
          0.005832325416734451 0.010916319818271755 0.00622881639419568 0.011395075466091819 0.006625307371656912 0.011873831113911881
          -0.0006027310377958605 0.0015430424168907135 0.0012226920040371394 0.0032174237614213115 0.0030481150458701394 0.0048918051059519095
          0.005437647014716939 0.00277053473245902 0.006269310233003276 0.0033684584019307733 0.00710097345128961 0.00396638207140253
          0.06476749769439287 0.06242673770797716 0.06845149311599535 0.06997909652903475 0.06134360606277217 0.05936315536178084
          0.06520679877465317 0.06649385580207048 0.05791971443115146 0.05629957301558451 0.06196210443331098 0.06300861507510622
          0.017671702706023272 0.017657139584164712 0.022357234837661426 0.018155305043196537 0.01843154231440172 0.022800660605696077
          0.018638907380369798 0.01920594504463872 0.023244086373730728 0.0008011637588719481 0.000399612306893808 0.0010304128224853046
          0.0006040866129233476 0.0012596618860986606 0.0008085609189528873 0.01736294314434478 0.01373984490164643 0.01764911669750594
          0.014132533672822193 0.0179352902506671 0.014525222443997954 0.01048529347772962 0.011960089333426408 0.011327091148986113
          0.012947598383841906 0.0121688888202426 0.013935107434257401 0.005756878773503014 0.0032334157778978554 0.006487747714073653
          0.003665964996548298 0.00721861665464429 0.00409851421519874 0 0 0
          0.0000024720807884983067 0 0 0.0000049441615769966134 0 0
          0.003473601647043089 0.0018412284242856347 0.003959650374354949 0.003692911573398594 0.0019944695982425857 0.004312848394711607
          0.0039122214997541 0.0021477107721995367 0.004666046415068265 0.05232259912476207 0.057714232385246936 0.057883732184702955
          0.04990653231341887 0.0548857357530025 0.054926011929211024 0.047490465502075675 0.05205723912075806 0.05196829167371909
          0.06053862518166302 0.0573787063161965 0.054218787450729986 0 0 0
          0 0 0 0 0 0
          0 0 0 0.051674226766459816 0.057235537836234675 0.04957860925084094
          0.054902974804685555 0.04748299173522206 0.052570411773136434 0 0 0
          0 0 0 0.07454259552647449 0.06183168803432966 0.07134481164163706
          0.059477565445177204 0.06814702775679961 0.057123442856024775 0.03862841571311854 0.03944325605341951 0.038479938538716056
          0.039924496332543566 0.03833146136431358 0.040405736611667624 0 0 0
          0.004944490590681327 0.005189108644655402 0.005433726698629475 0.016059588305131003 0.00820115240998563 0.017956227598767353
          0.01017034117372768 0.019852866892403703 0.012139529937469732 0.005489780305249423 0.005994621319172403 0.006499462333095385
          -0.0005047546829835606 -0.00022307228763178704 0.00005861010771998662 0 0.0000024720807884983067 0.0000049441615769966134
          0.0012854680677374735 0.0014875174342406333 0.0016895668007437929 0 0 0
          -0.0006493369102216371 -0.0006568485892774305 -0.0006643602683332237 0.030528547911496662 0.03171075561273756 0.03289296331397846
          0.07677085302332746 0.07350815465605567 0.0702454562887839 0.03314114546018495 0.03207321417485255 0.03100528288952016
          0 0 0 0 -0.00009171361802278233 -0.00018342723604556466
          0.006145732081856527 0.006113181795396921 0.006080631508937315 0.006574799801851409 0.006569805753469972 0.006564811705088536
          0.007120153456935496 0.007089937622773132 0.007059721788610768 0.007137726423522192 0.007133931582694953 0.007130136741867713
          0.007820143832072558 0.007799418234074733 0.007778692636076911 0.008040895551167767 0.008038437374809257 0.008035979198450748
          0.007543839863957436 0.007570061079179227 0.007596282294401017 0.0061132975617823075 0.006168125379451944 0.006222953197121579
          0.0039265461652686195 0.0040006508919503215 0.004074755618632024 0.0036549221975680363 0.002333982373765412 0.003797881832235133
          0.0024341586638747014 0.00394084146690223 0.002534334953983991 0.0008105739017884247 0.00023003861174720154 0.0002757620643192008
          0.0011088812543876005 0.0008184819034819784 0.00023056229416911254 0.00028435761537434746 0.0011507093336363794 0.000826389905175532
          0.00023108597659102356 0.0002929531664294941 0.0011925374128851577 0 0 0
          0.0017135633894742807 0.0017388470254302338 0.0017641306613861876 0.000014922489036785861 0.000014052686516883364 0.000013182883996980865
          0.0067215508829058 0.0066203465227343905 0.0067196950885517566 0.006616256671605623 0.006717839294197713 0.006612166820476855
          0.007350507660351731 0.0073489649141903505 0.007347422168028971 0.006436387518397089 0.006437449462741757 0.006438511407086424
          0.007039759230545182 0.007042308073553032 0.007044856916560881 0.006047380156482573 0.006056744123537102 0.00606610809059163
          0.004351267707427043 0.004364026609331994 0.0043767855112369445 0.0024616255498904668 0.002468653605919208 0.0024756816619479487
          0.0010263820179843433 0.0010285496674125685 0.0010307173168407936 0 0.00022234909754552704 0.00017550835382031647
          0 0.00022211857083271892 0.00017601185585962355 0 0.0002218880441199108 0.00017651535789893063
        </DataArray>
        <DataArray type="Float64" Name="pe22" format="ascii" RangeMin="-0.033838004983337486" RangeMax="0.0006986747840996158">
          0 0 0 0 0 0
          0 0 -3.517540795931368e-7 -7.035081591862736e-7 -7.035081591862736e-7 -0.0000014070163183725473
          -0.0000015692502245497352 0 -0.000006029149811300906 -0.0000036050267162882916 -0.000010489049398052074 -0.000007210053432576583
          -0.00006571462011861386 -0.00004954383156153815 -0.0000778593717316062 -0.00006081148666998619 -0.00009000412334459853 -0.00007207914177843422
          -0.00030338869139296136 -0.0002680134125800873 -0.0003071711175775973 -0.00027283911992680415 -0.0003109535437622333 -0.00027766482727352096
          -0.0007511018957356446 -0.0007060244993788236 -0.0007256916459641433 -0.0006811552080692521 -0.0007002813961926419 -0.0006562859167596805
          -0.001391077545303908 -0.0013336366982941385 -0.0013339660492171085 -0.001275421590474015 -0.0012768545531303091 -0.0012172064826538919
          -0.0022403310640937476 -0.0021507523177416994 -0.0021550827501709054 -0.002060106455605433 -0.0020698344362480633 -0.001969460593469167
          -0.003286153283639596 -0.00312071335196454 -0.0031660465163550907 -0.0029876983320290015 -0.003045939749070586 -0.0028546833120934624
          -0.004946918600996006 -0.004231011021823853 -0.004693542829504 -0.0039884184211443335 -0.004440167058011994 -0.0037458258204648128
          0 0 0 0 -9.914772306636109e-7 -0.0000019829544613272217
          -0.000014507380534600885 -0.000023519844123841907 -0.000032532307713082926 -0.00012459088821286686 -0.00013935015167500768 -0.0001541094151371485
          -0.00041050717456483053 -0.00041129879954028277 -0.000412090424515735 -0.0008842991497421974 -0.0008578293556203218 -0.0008313595614984461
          -0.001561732247728425 -0.001508122280862908 -0.0014545123139973913 -0.002491037899555322 -0.0024197600466940626 -0.002348482193832803
          -0.0036723684225329345 -0.003588430610282003 -0.0035044927980310715 -0.005105912494601456 -0.004978015435240659 -0.0048501183758798624
          0 -0.0000011651356577383092 -0.0000023302713154766184 -0.000004605679624242744 -0.000012520234417994255 -0.000020434789211745765
          -0.00006131362638459251 -0.00007911779777593125 -0.00009692196916726997 -0.00024679026685312455 -0.0002618476456813652 -0.00027690502450960575
          -0.0005892126987448669 -0.0005855819124518476 -0.0005819511261588285 -0.0011001284155127595 -0.0010732617912393326 -0.0010463951669659058
          -0.0018339072670503311 -0.0017863722390470925 -0.0017388372110438539 -0.002854394938662083 -0.002802088769768707 -0.0027497826008753314
          -0.0040907078625667705 -0.004058248651084121 -0.004025789439601472 -0.0055679297763910115 -0.005598174608428831 -0.005628419440466649
          -0.000002581400008873622 -0.000011959683236422818 -0.000021337966463972012 -0.00003747184093865251 -0.00005781452748499518 -0.00007815721403133785
          -0.0001699248946165808 -0.00019274899422177952 -0.00021557309382697827 -0.0004360051031576858 -0.000446578845319972 -0.0004571525874822582
          -0.000833153024434144 -0.0008251241397238246 -0.0008170952550135052 -0.0013896107301846216 -0.0013638754557898783 -0.0013381401813951353
          -0.0021804997364592905 -0.0021415609350219646 -0.0021026221335846383 -0.0032600654170664182 -0.0032293585337719016 -0.0031986516504773845
          -0.004474197715623629 -0.004489531837492133 -0.004504865959360636 -0.0054677304351149186 -0.0055684357530429145 -0.0056691410709709105
          -0.00002967779589339501 -0.00005199903902010632 -0.00007432028214681763 -0.00012963742274522307 -0.00015656041155336678 -0.0001834834003615105
          -0.0003446568496412886 -0.00036364940587304515 -0.0003826419621048015 -0.0006790817294244043 -0.0006829378716623255 -0.0006867940139002466
          -0.0011323348983667092 -0.0011212015841041076 -0.001110068269841506 -0.0017377030476399902 -0.0017149621215228885 -0.0016922211954057864
          -0.0025650559305915267 -0.0025369395967784624 -0.0025088232629653976 -0.0036399086331245795 -0.003630034115695406 -0.0036201595982662312
          -0.004764014270081043 -0.004809493052007923 -0.004854971833934803 -0.005504163048305544 -0.005625427135498534 -0.005746691222691522
          -0.00011410939997595134 -0.00013865827714555382 -0.00016320715431515629 -0.00028722105111439277 -0.00030768514758237664 -0.0003281492440503605
          -0.0005696595700749736 -0.0005787599741228965 -0.0005878603781708196 -0.0009642657867522625 -0.0009610432369043386 -0.0009578206870564147
          -0.001474131721842856 -0.0014616691014191078 -0.0014492064809953596 -0.0021222550759685517 -0.0021044759058639092 -0.0020866967357592667
          -0.0029503215547607643 -0.0029342551842572095 -0.002918188813753655 -0.003945239238492224 -0.003952348136617217 -0.003959457034742212
          -0.004874714851796048 -0.004935823090766723 -0.004996931329737397 -0.005372253829436674 -0.0054944553269569525 -0.005616656824477231
          -0.0002605336353813639 -0.0002711657349287912 -0.00028179783447621835 -0.0004946249905426237 -0.0004986498295950552 -0.0005026746686474866
          -0.0008319137490992825 -0.000828122508216835 -0.0008243312673343872 -0.001279879991914853 -0.0012705443291827771 -0.0012612086664507013
          -0.001840535478077543 -0.0018288052460619893 -0.001817075014046436 -0.0025166819686702224 -0.0025057627114239865 -0.002494843454177751
          -0.0033042722475379767 -0.00330059324914806 -0.0032969142507581423 -0.004145881451910696 -0.004166072263900312 -0.004186263075889927
          -0.004819939802597355 -0.004886279133194981 -0.004952618463792607 -0.005019623602872496 -0.005136237204354619 -0.005252850805836743
          -0.00044746430877182154 -0.0004395349770042485 -0.00043160564523667545 -0.000734295258842916 -0.0007202352348208924 -0.0007061752107988689
          -0.0011204179070918806 -0.0011035275753123533 -0.0010866372435328257 -0.0016141713086391927 -0.0015985679270360707 -0.0015829645454329489
          -0.0022116877517737144 -0.0022004974682818777 -0.0021893071847900415 -0.0028929833981550302 -0.0028890595119828257 -0.0028851356258106212
          -0.003604412189157552 -0.003613649099593769 -0.0036228860100299856 -0.004235964659909584 -0.004269760465527001 -0.004303556271144417
          -0.004609304908629975 -0.004678420231494516 -0.004747535554359058 -0.004516465660444044 -0.004620146141621131 -0.00472382662279822
          -0.0015345527163773416 -0.0015177914629029958 -0.0015010302094286498 -0.002072780888541019 -0.002060598560964257 -0.002048416233387495
          -0.002682877873496053 -0.0026779389942974308 -0.0026730001150988094 -0.003316468803728093 -0.003320986250937225 -0.0033255036981463568
          -0.003877686498544961 -0.0038964069240680155 -0.0039151273495910705 -0.004210864770475993 -0.004249055049338999 -0.004287245328202004
          -0.0041702986203388335 -0.004226008810304779 -0.004281719000270724 -0.003841202952645641 -0.003906637611759101 -0.0039720722708725615
          0 -0.000016350871515464733 -0.00004409669836926163 0 -0.00011922904956449641 -0.00007242299448612036
          -0.00004970976401515524 0 -0.00023845809912899281 -0.00012849511745677598 -0.00005532282966104884 0
          0 0 0.000013329961234165288 0 0.000026659922468330577 0
          0 0 0 -0.00009160712034563577 0.000009714979241516351 -0.00001446004121024445
          -0.00018321424069127153 0.000019429958483032702 -0.0000289200824204889 -0.0101232878301611 -0.009194631359291307 -0.013931031229749553
          -0.013736829373409597 -0.009476957572746542 -0.008943135059680425 -0.01299805186917315 -0.012640816880248726 -0.008830627315331983
          -0.00869163876006954 -0.012065072508596748 -0.01154480438708785 -0.0018049702261242642 -0.0017424219777366142 -0.00043354382439524276
          -0.0008915445873381041 -0.0023804314183770003 -0.0015050527473074037 -0.0004911049079033438 -0.001277507363951905 -0.002955892610629736
          -0.001267683516878193 -0.0005486659914114448 -0.001663470140565706 -0.006451072043266356 -0.006643254863341604 -0.006747033963516203
          -0.006391006701177472 -0.006620532858485989 -0.006898856179950075 -0.0068882552895171275 -0.0064596061325168175 -0.006789993673705623
          -0.0071544574965585455 -0.007029476615518051 -0.006528205563856164 -0.0052527071685686075 -0.005445814097053399 -0.004328440039968335
          -0.003512830157081087 -0.00549695437446321 -0.005689566180116615 -0.004470278480504297 -0.003645589820885724 -0.0057412015803578135
          -0.005933318263179833 -0.00461211692104026 -0.003778349484690361 -0.003990410611912592 -0.004706902831392195 -0.004094473043213528
          -0.0048366121704240496 -0.004198535474514465 -0.004966321509455904 -0.007454283158461381 -0.00732575263104445 -0.007412677545306772
          -0.0075322630231986825 -0.007371071932152164 -0.007738773415352914 -8.017278609783968e-7 0 0
          0.000039516709167447746 -0.00012750408787749786 -0.00023246260596491465 -0.00010586452986304194 -0.000021686250317467894 -0.0002542064478940173
          -0.0004649252119298293 -0.00021172905972608383 -0.00008288920980238353 -0.006827637665344724 -0.007264468711714605 -0.011471171791149653
          -0.00965698540332144 -0.006329378706520859 -0.0067999567218296674 -0.010503292923168794 -0.008853915524748797 -0.005831119747696994
          -0.006335444731944728 -0.009535414055187935 -0.008050845646176155 -0.01009408979728993 -0.017528242153390446 -0.009858940958534698
          -0.016492969077451108 -0.009623792119779465 -0.015457696001511775 -0.00011191088362426494 -0.00025165529917456787 -0.00003231029771094053
          -0.0000046507614574953955 -0.00011680216969299015 -0.00025532246329102213 -0.0000330336569264161 -0.000005265342025848538 -0.00012169345576171537
          -0.0002589896274074764 -0.00003375701614189166 -0.00000587992259420168 -0.02525213356394701 -0.033838004983337486 -0.031918341271500214
          -0.023392249145647692 -0.024221454639228375 -0.03140776277765836 -0.02950511646149597 -0.022497565773132826 -0.02319077571450974
          -0.028977520571979234 -0.02709189165149172 -0.02160288240061796 0 0 0
          0 0.0003026827869681849 0.00003913295874903536 -0.000044339011763853736 0.00020365536622044602 0.0006053655739363699
          0.00007826591749807072 -0.00008867802352770747 0.00040731073244089204 -0.005950423629547559 -0.006319257070687319 -0.0062588366246136805
          -0.006646944402580131 -0.006567249619679804 -0.006974631734472943 -0.007093194684560544 -0.0068728696430482555 -0.006652544601535968
          -0.00002545269622951629 -0.00008039432642887264 -0.0005965043411174802 -0.00032459088125367483 -0.001167555986005444 -0.000568787436078477
          -0.00007391518895643587 -0.0005936855589256913 -0.00020804011842662657 -0.0002655488933303137 -0.00007981535434580086 -0.000016407579339605894
          -0.00045718259770419147 0.00043405485023408953 0.00017522495974741482 -0.005844257438264324 -0.004239010746265571 -0.007830115765126825
          -0.0069964741928072545 -0.006305183723950294 -0.004734299844323912 -0.008718624467082358 -0.007413635311116005 -0.006766110009636262
          -0.005229588942382253 -0.00960713316903789 -0.007830796429424757 -0.013592840997564082 -0.015123639728473089 -0.017695749357655766
          -0.012359014826165478 -0.013689434975382964 -0.01590035474718413 -0.01112518865476687 -0.012255230222292843 -0.014104960136712488
          -0.0034412757486943627 -0.005225710222081717 -0.0035274527476582447 -0.005378048442845512 -0.0036136297466221267 -0.005530386663609306
          0.0003089127554216828 -0.0003543904973471185 -0.0009629744429612589 -0.0010772767277841707 -0.0022348616413442003 -0.0018001629582212232
          -0.0022886068400300784 -0.0013801547826593353 -0.0025938277247043525 -0.0015061942255395757 -0.002899048609378627 -0.0016322336684198163
          -0.026650819435554897 -0.025246485113846313 -0.028361034183804805 -0.02811242141757193 -0.02371718640461804 -0.02265071438422779
          -0.025446569907691566 -0.02493580737089245 -0.020783553373681186 -0.02005494365460927 -0.02253210563157832 -0.021759193324212972
          -0.006500046615399298 -0.006298150801725638 -0.006478396736012132 -0.006818087474610003 -0.006773442674970623 -0.0069061913813061315
          -0.007136128333820709 -0.007248734548215608 -0.00733398602660013 -0.0004289844645849935 -0.0002024521341448402 -0.0004658447671367219
          -0.00023223604267522767 -0.0005027050696884503 -0.00026201995120561514 -0.006091443579770765 -0.005576822731204395 -0.006323919475646772
          -0.005774343557877165 -0.006556395371522779 -0.005971864384549936 -0.004687252381768545 -0.004520018308170882 -0.005020888422051562
          -0.004802124612838212 -0.005354524462334582 -0.005084230917505543 -0.0029113590711046995 -0.0019444559202784133 -0.003053779008118597
          -0.0020169046428357537 -0.003196198945132494 -0.002089353365393094 0 0 0
          -0.0000021526728883402096 0 0 -0.000004305345776680419 0 0
          -0.0021877553940431956 -0.0011358627553176906 -0.00241239027136434 -0.002224497747721825 -0.0011561740878498511 -0.0024781203679477173
          -0.0022612401014004543 -0.0011764854203820114 -0.0025438504645310944 -0.0190327559902728 -0.022851246017936092 -0.023410857834202332
          -0.017176639469397337 -0.0205409054143433 -0.02092094780894319 -0.015320522948521874 -0.018230564810750506 -0.018431037783684046
          -0.024798327951345622 -0.02210458809588843 -0.019410848240431232 0 0 0
          0 0 0 0 0 0
          0 0 0 -0.01860952428857672 -0.02273175672273571 -0.017024330537176356
          -0.020732762733749625 -0.015439136785775995 -0.01873376874476354 0 0 0
          0 0 0 -0.032134439653364176 -0.02664651373617439 -0.02915641999391148
          -0.024584375821860436 -0.026178400334458785 -0.02252223790754649 -0.013195331833006939 -0.01544403788594569 -0.01328506679622433
          -0.01592949519159291 -0.013374801759441717 -0.01641495249724013 0 0 0
          -0.0031532053085821755 -0.00320867663202221 -0.0032641479554622447 -0.0035065725341355968 -0.0003763428417169602 -0.005013894251873556
          -0.0015773804428997529 -0.006521215969611515 -0.0027784180440825457 -0.0032617200276810845 -0.00336589851063432 -0.003470076993587555
          0.00033802839385118353 -0.0006444631216621169 -0.001626954637175417 0 -0.0000021526728883402096 -0.000004305345776680419
          -0.0007515497224385596 -0.0007807740762435404 -0.000809998430048521 0 0 0
          0.0006986747840996158 -0.00013976381277576433 -0.0009782024096511445 -0.010387021246348382 -0.011445145504439994 -0.012503269762531606
          -0.03271807263985818 -0.029625566749751055 -0.026533060859643926 -0.006250819491209673 -0.005774314383438934 -0.005297809275668195
          0 0 0 0 0.00019805484149547776 0.0003961096829909555
          -0.0026995822784701626 -0.0027016077395057335 -0.0027036332005413045 -0.003217158564238823 -0.0032255345251141626 -0.0032339104859895025
          -0.0032536013881634615 -0.00326076279302708 -0.0032679241978906984 -0.003604114737154612 -0.0036154227353513324 -0.003626730733548052
          -0.0037336265860524295 -0.0037463834375868516 -0.0037591402891212736 -0.004016797791902888 -0.004036906723679243 -0.004057015655455598
          -0.0039460447184687325 -0.003972486683315438 -0.003998928648162143 -0.0034053589147052497 -0.0034282830631564556 -0.0034512072116076606
          -0.0023796417010817136 -0.0023876707957767693 -0.002395699890471825 -0.0023488426208822465 -0.001442291024244501 -0.002364104745769773
          -0.0014472815744526692 -0.0023793668706572997 -0.0014522721246608375 -0.0004583896359642523 -0.0001242966101004267 -0.00015667837950426042
          -0.0006620390075158397 -0.0004516548876706698 -0.00012130900566569247 -0.00015426855366288165 -0.0006602110473672779 -0.00044492013937708725
          -0.00011832140123095827 -0.00015185872782150293 -0.0006583830872187163 0 0 0
          -0.0010004265384956326 -0.0009897945603326817 -0.0009791625821697304 -0.000008562199482348106 -0.000008003484236169188 -0.000007444768989990269
          -0.0035564014480824165 -0.0034110037285406463 -0.0035653376161255534 -0.00341820820081672 -0.00357427378416869 -0.0034254126730927947
          -0.003826546042196552 -0.0038402999923968584 -0.0038540539425971645 -0.003490679311099998 -0.003500462778420284 -0.00351024624574057
          -0.0037678288349283114 -0.003783244484386679 -0.0037986601338450463 -0.0033148412472852502 -0.003328174952131106 -0.0033415086569769615
          -0.002443741453858112 -0.0024466558883897587 -0.0024495703229214056 -0.001402212795936018 -0.0013938216023646746 -0.0013854304087933312
          -0.0005713031256767076 -0.0005634141363339345 -0.0005555251469911614 0 -0.00011304892244159446 -0.00008740853307027374
          0 -0.00011109390473746975 -0.00008682232913289716 0 -0.00010913888703334502 -0.00008623612519552057
        </DataArray>
        <DataArray type="Float64" Name="pe33" format="ascii" RangeMin="-0.04405278038346913" RangeMax="0.0016994197090800481">
          0 0 0 0 0 0
          0 0 -5.152790266242276e-7 -0.0000010305580532484552 -0.0000010305580532484552 -0.0000020611161064969104
          -0.0000023849746806737254 0 -0.000010418770970193488 -0.0000062802694329223205 -0.00001845256725971325 -0.000012560538865844641
          -0.0001190216274618407 -0.00009251642969165284 -0.00015816189878254216 -0.0001281923662274244 -0.0001973021701032436 -0.00016386830276319595
          -0.0006386390396126671 -0.0005787219695690122 -0.0007247356163089201 -0.0006649580819313594 -0.0008108321930051733 -0.0007511941942937063
          -0.0018809352074858905 -0.0018108496914207854 -0.001994655481705009 -0.0019288953964268398 -0.002108375755924127 -0.0020469411014328942
          -0.004140724860076309 -0.004090366507188741 -0.004230393914366417 -0.004185467847258051 -0.004320062968656524 -0.004280569187327362
          -0.007814264065454834 -0.007837481290167689 -0.0077966418908108435 -0.007822846514689856 -0.007779019716166855 -0.007808211739212024
          -0.014151928789023223 -0.014482230557728293 -0.013897848601985813 -0.014215009674118397 -0.013643768414948399 -0.013947788790508505
          -0.022400180565940044 -0.022328462253637382 -0.021853402735436272 -0.021796428053278333 -0.021306624904932507 -0.02126439385291929
          0 0 0 0 -0.0000013766212720152571 -0.0000027532425440305143
          -0.00002167851587541351 -0.000038479602681661855 -0.00005528068948791019 -0.00021300047952440773 -0.00026295201535176836 -0.00031290355117912893
          -0.0008173441354075167 -0.0009023757865294181 -0.0009874074376513193 -0.0020840668728817225 -0.0021851268018186383 -0.0022861867307555537
          -0.004284064697872482 -0.004357536327459452 -0.004431007957046423 -0.007739761552239719 -0.007714788711208118 -0.007689815870176518
          -0.013260550583559662 -0.013042502291197898 -0.012824453998836131 -0.019354110850609188 -0.018940786641881473 -0.018527462433153757
          0 -0.0000014413004590072628 -0.0000028826009180145256 -0.00000592555740215548 -0.000017409929169354263 -0.000028894300936553046
          -0.00008886918061013667 -0.0001243541059144805 -0.00015983903121882432 -0.00040301015521206166 -0.00046537620634484956 -0.0005277422574776374
          -0.0011107166892299208 -0.0011911544427525413 -0.001271592196275162 -0.00240151089960297 -0.002481912963312198 -0.0025623150270214262
          -0.0044962448551556814 -0.004544188329963608 -0.0045921318047715326 -0.00760569227548151 -0.007570638637962273 -0.007535585000443038
          -0.012005783359459073 -0.011839360219666565 -0.011672937079874057 -0.01629600633774008 -0.01603202852751772 -0.015768050717295368
          -0.000003020367017829652 -0.000015273865281066573 -0.000027527363544303493 -0.00004875658999721693 -0.00008142462321409985 -0.00011409265643098276
          -0.00024496998607018605 -0.0003001285556536265 -0.00035528712523706706 -0.0007011926117494328 -0.000769412134623409 -0.0008376316574973855
          -0.001508666243863138 -0.0015768851470071854 -0.0016451040501512329 -0.002805468196788098 -0.002857372066301498 -0.002909275935814897
          -0.0047393981139249395 -0.004756002175548644 -0.004772606237172348 -0.007395757815174644 -0.007349351961563072 -0.007302946107951498
          -0.010576260164592507 -0.01046913405618812 -0.010362007947783736 -0.012440340445056923 -0.012351236636968492 -0.012262132828880059
          -0.00003690950379654887 -0.00006943896499495772 -0.00010196842619336657 -0.0001763607667376883 -0.000228672986747306 -0.00028098520675692374
          -0.0005142561082319742 -0.0005779701723183019 -0.0006416842364046296 -0.0011060172132375645 -0.0011670561650506215 -0.0012280951168636783
          -0.001996055425758781 -0.002040080376202659 -0.0020841053266465372 -0.003259318381978676 -0.003275888986277735 -0.0032924595905767942
          -0.004964997275670589 -0.0049495643809243876 -0.004934131486178186 -0.007085772877406388 -0.0070333453966523315 -0.006980917915898277
          -0.009108077136584203 -0.009063323236201798 -0.00901856933581939 -0.009642974904229305 -0.00969973518585026 -0.009756495467471218
          -0.00015625733282333224 -0.0001984870746270011 -0.00024071681643067 -0.0004274583134868134 -0.00047884025776029034 -0.0005302222020337672
          -0.0009105031949927871 -0.0009584975200526004 -0.001006491845112414 -0.0016198525260117933 -0.001650133885576645 -0.0016804152451414967
          -0.002552606319933477 -0.002556104478301943 -0.00255960263667041 -0.003719571644528309 -0.0036964452222024323 -0.0036733187998765557
          -0.005119372496946929 -0.0050791780966438285 -0.0050389836963407285 -0.006646861127390647 -0.006605266444080059 -0.00656367176076947
          -0.007658250204732996 -0.007683550584049241 -0.007708850963365487 -0.00730687417833229 -0.0074854341185450635 -0.007663994058757837
          -0.000406636456662774 -0.000426954372733445 -0.00044727228880411617 -0.0008291755974779052 -0.0008413140062730887 -0.0008534524150682723
          -0.0014480386306471135 -0.0014416158818156793 -0.0014351931329842451 -0.0022361175106707346 -0.002204776179788608 -0.0021734348489064813
          -0.0031478342181103084 -0.0030942051660461786 -0.003040576113982049 -0.004139186885507428 -0.0040772085185673745 -0.004015230151627322
          -0.00515265802588031 -0.005105143162655344 -0.005057628299430378 -0.006047660802862575 -0.006045766793441256 -0.006043872784019936
          -0.006228560034465156 -0.006340624975256621 -0.0064526899160480865 -0.005339021739063726 -0.005603159324725824 -0.005867296910387923
          -0.0007884784965673844 -0.0007758950027358137 -0.0007633115089042429 -0.001363738921696932 -0.0013298315964222068 -0.0012959242711474816
          -0.002091183056746307 -0.0020319009023486677 -0.001972618747951029 -0.0029052028394732764 -0.002823731904382252 -0.0027422609692912283
          -0.003725043844609601 -0.0036336036395406535 -0.003542163434471706 -0.00446520331898753 -0.004385566290729065 -0.004305929262470601
          -0.005031913964923303 -0.004991600401159134 -0.004951286837394964 -0.005291330428649953 -0.00532449853103635 -0.005357666633422748
          -0.004839620639499304 -0.004991853291751151 -0.005144085944002999 -0.003710685917216441 -0.003962386034828358 -0.004214086152440275
          -0.0026280886686646386 -0.0025712327161259998 -0.0025143767635873596 -0.003367159068663003 -0.0032955763121188327 -0.003223993555574662
          -0.004019369757831123 -0.003943958793464279 -0.0038685478290974348 -0.004485596122917481 -0.0044228909329579475 -0.004360185742998414
          -0.004665992966879549 -0.0046344550207375 -0.004602917074595451 -0.004452894472407036 -0.004475394896577409 -0.0044978953207477825
          -0.0036452911209466404 -0.0037422802150686796 -0.0038392693091907175 -0.002539624900100094 -0.002696543473320731 -0.002853462046541368
          0 -0.000012476251124561588 -0.00003609468242361825 0 0.00011151003465874046 0.00029157012696725605
          -0.00009147436907266933 0 0.00022302006931748086 0.0005956165050590735 -0.0001468540557217204 0
          0 0 0.000008702078747800572 0 0.000017404157495601143 0
          0 0 0 -9.581669959434679e-7 -3.744843496044728e-7 0.0000014346232612793421
          -0.0000019163339918869345 -7.489686992089456e-7 0.0000028692465225586847 -0.027456587853027445 -0.02481191827327061 -0.029968016715117028
          -0.030624739812470284 -0.026917391746277972 -0.024420808716199262 -0.029562623109111556 -0.03010202564716407 -0.02637819563952851
          -0.02402969915912791 -0.029157229503106084 -0.02957931148185786 -0.006797602231398102 -0.0031406260496000442 -0.00046135417462946543
          -0.003144444494003722 -0.00760415159709731 -0.003849535733691787 -0.0014039119753939777 -0.004421622742949219 -0.008410700962796518
          -0.0045584454177835295 -0.00234646977615849 -0.005698800991894715 -0.015594162000994349 -0.015270680735972673 -0.019463237304425757
          -0.019089421258864432 -0.015418613016151363 -0.015202419252541998 -0.019185957439849008 -0.01875920561965282 -0.01524306403130838
          -0.015134157769111317 -0.018908677575272252 -0.018428989980441207 -0.005068031217271887 -0.006171962191970184 -0.00367325248632683
          -0.002825903954301199 -0.005522311368376213 -0.006496713930773064 -0.004085234877266851 -0.0033231663185606503 -0.005976591519480538
          -0.0068214656695759456 -0.004497217268206874 -0.0038204286828201007 -0.002717451962223619 -0.003970148270561743 -0.0029965119480066856
          -0.004323338464946068 -0.0032755719337897514 -0.004676528659330394 -0.02251851849575007 -0.01985719639959385 -0.02209518262890312
          -0.01963600233357633 -0.021671846762056173 -0.019414808267558807 -0.0000013028717463170451 0 0
          -0.00005087429435709725 0.00007054576886501489 0.000007483463489527504 -0.00001529914470592092 0.000531805606214006 0.00014239440947634682
          0.000014966926979055006 -0.00003059828941184183 0.001114485506785109 -0.027018912141510462 -0.026163780557387474 -0.029313078815591052
          -0.02874283442407566 -0.02638020681772451 -0.025519519434988962 -0.02867533602884339 -0.02810287481424957 -0.025741501493938557
          -0.024875258312590454 -0.028037593242095715 -0.027462915204423483 -0.024494526872950218 -0.029652892078376757 -0.0241961981614985
          -0.02939687017833421 -0.023897869450046783 -0.029140848278291658 -0.00008964836230465792 -0.00019505161842689966 -0.00002587670972379885
          -0.0000037655845945650843 -0.0001332945835579457 -0.00024213844385442216 -0.000030321220307003634 -0.000005191549303202482 -0.00017694080481123347
          -0.0002892252692819448 -0.00003476573089020842 -0.00000661751401183988 -0.03298937813137709 -0.040778745582736926 -0.03894929538856225
          -0.031450729117294116 -0.03301048306628072 -0.0406419891662503 -0.038701098966685 -0.03129231974667768 -0.03303158800118434
          -0.04050523274976367 -0.038452902544807745 -0.031133910376061235 0 0 0
          0 -0.00008984667337275619 -0.000020915059526864695 0.000012708118833909456 -0.000036676061636407864 -0.00017969334674551238
          -0.00004183011905372939 0.000025416237667818913 -0.00007335212327281573 -0.008191073488076852 -0.007719491880960323 -0.008427959727979346
          -0.008052519903887905 -0.00866484596788184 -0.008385547926815484 -0.023298655488896675 -0.022796228212301286 -0.022293800935705897
          0.000006065836485313503 -0.000038099188676344245 0.0006186764553258898 0.000830660260201852 0.0012312870741664661 0.0016994197090800481
          0.00013216211878274936 -0.000716614651552904 -0.00023727947573828727 0.00047139760079774735 -0.0010012764136534188 -0.0001622800099825194
          0.0008106330828127453 -0.0012859381757539335 -0.0000872805442267515 -0.012095307352340583 -0.01078267903006986 -0.018330271486417
          -0.019228901313793925 -0.012658392127479098 -0.011475064121032127 -0.01845424428452597 -0.019182989006935026 -0.013221476902617608
          -0.012167449211994396 -0.01857821708263494 -0.01913707670007614 -0.0307461899505675 -0.03172509998418491 -0.03280824554283401
          -0.030072256897019645 -0.031152745189184983 -0.032243361575474805 -0.02939832384347179 -0.030580390394185065 -0.031678477608115596
          -0.0023910496680400804 -0.00569060959618999 -0.0027013636465374256 -0.006017027023246243 -0.00301167762503477 -0.006343444450302496
          0.0002938182823761747 -0.0011886519195434908 -0.00025971756106813083 -0.0021401470336349353 -0.0008132534045124364 -0.00309164214772638
          -0.003149040174686838 -0.0013903799497996807 -0.0036754825082988677 -0.0018622641763911916 -0.004201924841910897 -0.0023341484029827026
          -0.03811667825883798 -0.037180252594130846 -0.04009045893219057 -0.04186667511146287 -0.03762641965815745 -0.03671244097755515
          -0.039760228866970525 -0.04155804843119344 -0.03713616105747693 -0.036244629360979455 -0.03942999880175047 -0.04124942175092401
          -0.011171656090623653 -0.011358988782438531 -0.01587883810164817 -0.011337217568586005 -0.011658099639430115 -0.015894469224388242
          -0.01150277904654836 -0.0119572104964217 -0.015910100347128323 -0.00037217929428695455 -0.00019716017274896773 -0.0005645680553485823
          -0.0003718505702481198 -0.0007569568164102101 -0.000546540967747272 -0.01127149956457379 -0.008163022170441913 -0.011325197221858848
          -0.008358190114944859 -0.011378894879143907 -0.008553358059447808 -0.005798041095960906 -0.007440071025255128 -0.006306202726934229
          -0.008145473771002694 -0.006814364357907553 -0.00885087651675026 -0.0028455197023983018 -0.00128895985761944 -0.0034339687059550335
          -0.0016490603537125403 -0.004022417709511765 -0.0020091608498056406 0 0 0
          -3.1940790015809645e-7 0 0 -6.388158003161929e-7 0 0
          -0.0012858462529998925 -0.0007053656689679441 -0.0015472601029906067 -0.001468413825676768 -0.0008382955103927343 -0.001834728026763886
          -0.001650981398353644 -0.000971225351817525 -0.002122195950537165 -0.033289843134489266 -0.03486298636731083 -0.03447287435050063
          -0.03272989284402158 -0.03434483033865937 -0.0340050641202679 -0.0321699425535539 -0.033826674310007895 -0.033537253890035174
          -0.03574029723031739 -0.0352741182203083 -0.03480793921029921 0 0 0
          0 0 0 0 0 0
          0 0 0 -0.03306470247788308 -0.03450378111349897 -0.032554278713664696
          -0.034170212070936554 -0.03204385494944632 -0.03383664302837414 0 0 0
          0 0 0 -0.04240815587311022 -0.03518517429815522 -0.04218839164774596
          -0.03489318962331769 -0.041968627422381694 -0.034601204948480166 -0.025433083880111063 -0.023999218167473108 -0.025194871742488578
          -0.023995001140927674 -0.0249566596048661 -0.02399078411438224 0 0 0
          -0.0017912852820991495 -0.0019804320126331886 -0.0021695787431672275 -0.012553015770993148 -0.007824809568268374 -0.012942333346873199
          -0.008592960730821666 -0.013331650922753251 -0.009361111893374957 -0.0022280602775683316 -0.002628722808538073 -0.0030293853395078145
          0.00016672628913357685 0.0008675354092955766 0.0015683445294575765 0 -3.1940790015809645e-7 -6.388158003161929e-7
          -0.0005339183452989138 -0.0007067433579970928 -0.0008795683706952716 0 0 0
          -0.00004933787387781949 0.0007966124020535955 0.0016425626779850106 -0.020141526665147565 -0.020265610108269803 -0.020389693551392033
          -0.04405278038346913 -0.04388258790633354 -0.04371239542919793 -0.026890325968975264 -0.026298899791413623 -0.025707473613851978
          0 0 0 0 -0.00010634122347269665 -0.0002126824469453933
          -0.0034461498033863634 -0.003411574055891186 -0.0033769983083960084 -0.003357641237612584 -0.0033442712283558076 -0.003330901219099032
          -0.0038665520687720333 -0.0038291748297460504 -0.003791797590720068 -0.0035336116863675785 -0.0035185088473436185 -0.0035034060083196598
          -0.004086517246020126 -0.0040530347964878805 -0.004019552346955634 -0.004024097759264879 -0.0040015306511300116 -0.003978963542995146
          -0.0035977951454887 -0.0035975743958637854 -0.003597353646238871 -0.0027079386470770564 -0.0027398423162954873 -0.002771745985513918
          -0.001546904464186906 -0.0016129800961735517 -0.0016790557281601975 -0.0013060795766857893 -0.0008916913495209111 -0.0014337770864653598
          -0.000986877089422032 -0.0015614745962449304 -0.0010820628293231529 -0.0003521842658241725 -0.00010574200164677479 -0.00011908368481494038
          -0.00044684224687176053 -0.00036682701581130866 -0.00010925328850342004 -0.00013008906171146575 -0.0004904982862691011 -0.0003814697657984448
          -0.00011276457536006528 -0.00014109443860799113 -0.0005341543256664415 0 0 0
          -0.0007131368509786479 -0.0007490524650975525 -0.0007849680792164572 -0.000006360289554437755 -0.000006049202280714174 -0.000005738115006990595
          -0.0031651494348233834 -0.003209342794193742 -0.003154357472426202 -0.003198048470788901 -0.003143565510029021 -0.00318675414738406
          -0.003523961618155178 -0.0035086649217934912 -0.0034933682254318045 -0.002945708207297091 -0.002936986684321472 -0.0029282651613458536
          -0.0032719303956168697 -0.003259063589166352 -0.0032461967827158347 -0.002732538909197321 -0.0027285691714059946 -0.0027245994336146683
          -0.0019075262535689303 -0.0019173707209422344 -0.0019272151883155389 -0.0010594127539544492 -0.0010748320035545331 -0.001090251253154617
          -0.0004550788923076356 -0.00046513553107863385 -0.00047519216984963223 0 -0.00010930017510393252 -0.00008809982075004273
          0 -0.00011102466609524913 -0.00008918952672672637 0 -0.00011274915708656576 -0.00009027923270341003
        </DataArray>
        <DataArray type="Float64" Name="disp_x" format="ascii" RangeMin="0" RangeMax="0.00002656334918530877">
          1.3885879111120388e-7 0 1.393989210520046e-7 0 1.396814031053484e-7 0
          1.3637776273419812e-7 0 1.3789884796642207e-7 0 1.3964260074856048e-7 0
          1.3435539897555471e-7 0 1.3765618678629548e-7 0 1.4387242928419864e-7 0
          1.3902899587985272e-7 0 1.443929085946389e-7 0 1.6404659260108916e-7 0
          2.064901672731974e-7 0 2.1787151153078407e-7 0 2.5334873827740615e-7 0
          3.8680981575558343e-7 0 3.982177797566136e-7 0 4.3420380806896813e-7 0
          7.039649968817468e-7 0 7.100159382278181e-7 0 7.298851863758831e-7 0
          0.000001202915878360754 0 0.000001193239634473822 0 0.0000011696011436149726 0
          0.0000019683663775793997 0 0.000001931669049223654 0 0.0000018177674472562736 0
          0.0000034431782464058215 0 0.000003350832865911445 0 0.0000030422313577305862 0
          2.7732880496285767e-7 2.7881158370110766e-7 2.8017071583546385e-7 2.7253116094673655e-7 2.7594844130955035e-7 2.8162726700072813e-7
          2.687550686624786e-7 2.7440152528832435e-7 2.8810853727296324e-7 2.86386094385519e-7 2.98935635622692e-7 3.435195501559961e-7
          4.3775606193227064e-7 4.5947445840866777e-7 5.283574747305079e-7 8.006204719649353e-7 8.224541040896092e-7 8.910345840936914e-7
          0.0000014348748622931364 0.0000014453818325012154 0.0000014808139952875045 0.0000024237124780602612 0.0000024052512351380692 0.0000023577096279362435
          0.000003934288648301956 0.0000038624857955618235 0.0000036481567455125525 0.000006713517505255172 0.000006540932450965672 0.000005977454982442123
          4.1514554276031253e-7 4.1818772234246517e-7 4.2306508826033125e-7 4.086952715517217e-7 4.1413130381945194e-7 4.261820831931164e-7
          4.0408538080668176e-7 4.1314195472545466e-7 4.4914947070370455e-7 4.5915749713029703e-7 4.814996566716718e-7 5.556439319628688e-7
          7.149178660825171e-7 7.461192461561539e-7 8.451167218312211e-7 0.0000012671268761620444 0.000001297174777644697 0.0000013915079917178098
          0.0000022165724497276733 0.000002229016820603762 0.0000022724407892632575 0.0000036798140531706042 0.0000036527511284021786 0.0000035802190399419254
          0.000005875539314469393 0.0000057747508165815996 0.000005482768022724344 0.00000966463431555133 0.00000943730358402901 0.000008708271291966665
          5.52589335546931e-7 5.577527262096587e-7 5.694836514344984e-7 5.442217781937336e-7 5.529154914111009e-7 5.843350937162129e-7
          5.536254887769398e-7 5.730838329846614e-7 6.398136484470438e-7 6.803139433808898e-7 7.129057825750947e-7 8.172388759670021e-7
          0.0000010571132094026788 0.0000010967915758572326 0.000001221163251492398 0.000001808610026021803 0.0000018436306428478724 0.0000019538970434366214
          0.000003067823554906571 0.000003079142654080814 0.000003120830953999577 0.000004977004133817895 0.000004940900306347635 0.0000048423438676823725
          0.000007768571250308913 0.0000076482562796456 0.000007303258789863046 0.000012184214441721927 0.000011934872476681843 0.00001115190364745777
          6.89065519294367e-7 6.98418662878372e-7 7.301100960684043e-7 6.877014015740576e-7 7.06755589761559e-7 7.67701612840135e-7
          7.450775646322946e-7 7.768177937579621e-7 8.774224390157024e-7 9.65864431899015e-7 0.000001008442283683757 0.0000011402189409266212
          0.0000014838885900994133 0.0000015295078892064197 0.0000016715240689699638 0.0000024421950919967314 0.0000024782983182099474 0.0000025925766300493393
          0.000003998068279461441 0.0000040048385918120565 0.000004034583222997966 0.000006308385870393867 0.0000062640641569873066 0.000006139299912619371
          0.00000957721355318178 0.000009445283880532258 0.000009072291059899612 0.000014314026118053182 0.000014072304957924798 0.000013320559470072286
          8.323630904678579e-7 8.523239678829858e-7 9.121372470572009e-7 8.64810831982537e-7 8.961124930248096e-7 9.924135695395035e-7
          9.97113091393404e-7 0.0000010395889166616625 0.000001170615818858357 0.0000013354974296522593 0.0000013843846481317736 0.000001535887328713231
          0.0000020117296853171793 0.0000020587514848132828 0.000002206501082465219 0.0000031783394950363834 0.0000032109785244283156 0.000003316230461348236
          0.000005005782361434101 0.000005005584729444036 0.0000050148472122579575 0.000007652505233838492 0.000007601636930819493 0.000007453352844436516
          0.000011268665952618545 0.000011135920039342743 0.000010757682390066271 0.000016071371052439522 0.00001585848967820839 0.0000151965994659386
          0.0000010092930001373653 0.0000010368416377363824 0.0000011241717796755365 0.0000011015174092495388 0.0000011396598765300512 0.0000012626177438183663
          0.000001333806929941524 0.000001378976589166624 0.0000015267183688950068 0.0000018086962872687558 0.0000018557311190990548 0.000002010335190516442
          0.0000026529738222171576 0.0000026942163187414724 0.0000028307573950357196 0.000004019123706715729 0.000004043661299529047 0.0000041268826486941545
          0.000006077544314352688 0.0000060702361236241385 0.0000060548394041861535 0.000008978068448114773 0.000008925375612929013 0.000008762398683243784
          0.000012803597915734864 0.000012684630863894387 0.000012327003976519617 0.000017490703480495845 0.00001732614586433639 0.00001679244923871109
          0.0000012467498434149906 0.000001270629469567327 0.0000013682231200666955 0.0000014260497378089267 0.000001456866381329415 0.0000015796376047876188
          0.0000017785407340846484 0.0000018126249679266969 0.000001947784417049697 0.000002401466546565639 0.0000024349502230863884 0.0000025647246703496947
          0.000003412740155753888 0.000003439992811042707 0.0000035435191256006292 0.00000495661768897335 0.000004969773666627831 0.000005019769890604789
          0.00000719103688428299 0.000007179624088629891 0.000007142747226663033 0.000010245022317823563 0.000010200597888004302 0.0000100429584998084
          0.000014147045441716247 0.000014058640341037632 0.000013758060565068835 0.000018626683918971932 0.000018521969376428186 0.000018142279700173196
          0.0000023342828313240696 0.000002362461595797139 0.0000024519013424529485 0.000003109947328590669 0.0000031354350793351777 0.000003215140036352928
          0.000004278697775920766 0.0000042972380672809086 0.0000043533578282767405 0.0000059695287888222666 0.00000597545677389724 0.00000599026999309328
          0.000008319906352011378 0.000008305991780967556 0.000008258614053044924 0.000011429086967491787 0.000011389466893856566 0.00001126012774874017
          0.000015286134946038284 0.00001521629355096591 0.000015000656093051677 0.00001952762527664317 0.000019452340837211894 0.0000192168062041589
          0.000025012548960467443 0.00002450142883354594 0.000024498791868342543 0.000025011862063241255 0.000025013365530611522 0.000024482834775066438
          0.000024501308900076814 0.000025011365090353648 0.000024982196697757765 0.000024582591255126184 0.000024510390496938876 0.00002501618852808628
          0.000025493745455306836 0.00002552488663830222 0.00002548686134226603 0.000025524157249296593 0.000025516819239636298 0.000025535062499665046
          0.000025462646281758417 0.00002583185537508137 0.00002584495615652581 0.00002544432513595267 0.000025826220667362 0.000025830232453052326
          0.000025481246648007786 0.00002584505841686803 0.000025870955151612847 0.000006685715671673737 0.000010128863709322826 0.000008124574092032566
          0.000005813105506014228 0.000006416615254948279 0.000009765348150534305 0.000007783559232396598 0.0000055490610415750545 0.0000056173133548269095
          0.00000862382895754106 0.0000067437937236417654 0.0000047988782366683346 0.000022131009687188276 0.00002259383476511787 0.000023566987906319098
          0.000023244675491824608 0.000021943088807733218 0.000022450935386065513 0.000023707965310558398 0.00002323904216189859 0.000021188193971616636
          0.00002173137021470486 0.000024035400953245024 0.000023160494192480136 0.000012716504748135525 0.0000140580709743531 0.000011765473369793554
          0.00001044104881461434 0.000012421904744869705 0.000013705830720125044 0.00001141364518030372 0.00001016605792805577 0.000011476581279395352
          0.00001261257238354724 0.000010331744201219424 0.000009278043147036906 0.00001980882758856165 0.00001847893865582483 0.000020021175236205992
          0.000021253661835453708 0.000019599188928641093 0.00001824435556298723 0.000019866637047724914 0.00002112631545045687 0.000018883936430087727
          0.000017516493939050397 0.000019359938394498756 0.000020624434083460252 0.0000199524420397477 0.000019004869766445077 0.000019854591789186563
          0.000018863666261545896 0.000019521850223518727 0.000018385425733319127 0.000009949866937636614 0.00001285862840866017 0.000009620964581498867
          0.000012471836027626413 0.000008600687195983825 0.000011252201235860603 0.0000252171212020267 0.00002559875421348024 0.00002568578290890372
          0.000025186256659600856 0.0000252116883617788 0.000025585495322193692 0.000025666103358255044 0.00002517867047653709 0.000025130019939070148
          0.000025530224174332798 0.0000255898769376114 0.00002508619563384018 0.0000019211289320220093 0.0000042440377150571485 0.0000032144579097464393
          0 0.0000018732988435191686 0.000004117129346244419 0.0000030812508963996414 0 0.0000016695480866792785
          0.000003670643206953861 0.0000026852120268971857 0 0.00001199124591774583 0.000010577850730033973 0.000011570647078557841
          0.000010172628124548595 0.000010205128454354798 0.00000879953195378545 0.00002438921847384355 0.00002414544679797383 0.00002484128557389646
          0.000025040125805115024 0.000024392716289850837 0.000024143797311384672 0.000024840861068867297 0.00002504009042724544 0.00002438048381283277
          0.00002412913459817786 0.00002483954580448114 0.00002504215749769438 0.000015238179803074368 0.00000818158443234699 0.00000792743802675047
          0.000013353025139135418 0.000015032220763714138 0.000008044307244969814 0.000007751002009403768 0.000013012301969639696 0.000013403409499081593
          0.000006938732466122659 0.0000065403443045446545 0.000011114189793519741 0.000026199715073909286 0.000025952217606225165 0.00002589384703756745
          0.000026175817947475646 0.00002615597933977515 0.00002591755112852298 0.000025866573204380085 0.000026158848142221517 0.000026280287881012352
          0.0000259523712253552 0.000025943280680545076 0.000026110264583460744 0.000017491494483011706 0.000018170508911729266 0.000017223000884362073
          0.000017896243898357625 0.000016360637045538675 0.000016982126131682922 0.000007642585220611492 0.0000073979017950902105 0.000006625756608874112
          0.000024765607969504013 0.00002428504425740518 0.000024756925170644076 0.000024288496418938283 0.000024642200834291836 0.00002468765471250539
          0.00002389607370142024 0.000023478566017258255 0.00002395750413931589 0.000024003310473200433 0.000023368202997888854 0.00002393815949115871
          0.000024633533424023007 0.000023022227786845092 0.00002382602872864697 0.000018422603381670583 0.000020033908683653516 0.000018355833182968517
          0.00001532528439199244 0.00001799861281139072 0.000019634536927594662 0.000017852735233118638 0.000014826747521488006 0.000016714405393030115
          0.000018426100956884433 0.000016267897872749192 0.000013286966509796936 0 0.0000031286067795991607 0
          0 0.000002982161616489221 0 0 0.0000025812065153568317 0
          0.00002098829829672124 0.00001804610454780329 0.000020894484060802794 0.000017839161891771327 0.000020572374719612126 0.000017214409666219985
          0.000024094071860503266 0.000024307973888831504 0.00002416363788903512 0.000024155889665905834 0.000024153698055175818 0.000023629425706914243
          0.00002211362516236556 0.00002305037071265547 0.000021965302636291787 0.00002297078770803262 0.000021303147410079117 0.000022652094202439387
          0 0.0000032368677842493596 0.000003962719193413336 0 0 0.000003092743140554333
          0.000003829301360810419 0 0 0.000002565982453652187 0.0000031168325382758304 0
          0.00001638845382433767 0.000017595702332322024 0.000015266211860316677 0.000016061712157491633 0.00001725569726062644 0.000014877938770275165
          0.000015023156451265815 0.00001612099072233922 0.000013661955153185574 0.000023822903139493035 0.0000240705262033148 0.000023818684228481644
          0.000024070890640149757 0.000023751717877518952 0.000024025855944893676 0.00001520211849557247 0.000016633905145698517 0.000014910433904676357
          0.000016383913697645104 0.000013993371413899807 0.00001561241354569721 0.000020483377208632436 0.000020724730788633716 0.000020253562938052727
          0.000020414946981474175 0.000019393605668917674 0.00001938227061398276 0.000021689497045802783 0.0000226632952211568 0.000021543285506087424
          0.000022600162517760792 0.00002096977359772934 0.000022350413178385753 0.000026134832451183707 0.000025857365695743164 0.000026117148729570368
          0.00002612183004778739 0.00002585337113970078 0.000026109444738352035 0.000026124987974529033 0.00002587078005333353 0.000026119019845392817
          0.00002230070505723168 0.00002339121859893571 0.000022140233778117448 0.000022253640809107812 0.000023374115855740258 0.000022068593675469275
          0.000022103615582915136 0.00002331369560371117 0.000021812222357723062 0.0000028402522817494113 0.000002303144257045151 0
          0.0000027134655443632894 0.000002200647819972917 0 0.0000022837647476892305 0.0000018339531278265035 0
          0 0 0 0.00002609596792007952 0.000025837764533236205 0.00002574555785098473
          0.000026089846712745656 0.00002609368802454942 0.00002583735437105829 0.000025745876087331666 0.000026088723670431957 0.000026103809259941808
          0.000025849346149795638 0.000025756771482684088 0.000026098588112304705 0.000005344153536207202 0.000006229525541298044 0.000005108038295496616
          0.000005969774153828061 0.000004331216263986235 0.0000050768224035155215 0.00002585973829032809 0.000026104025015151384 0.000025858241841161377
          0.000026099714988015884 0.000025871533769032687 0.000026110803859089664 0.000004293017154616491 0.000008461937403457928 0.000004196875483112351
          0.000008175648902656998 0.0000035038542845864447 0.00000676190994456149 0.00001472187887055418 0.00001738492446954856 0.000014226786609519202
          0.000017042560386034997 0.000012456405253969424 0.000015295742352829858 0.00002552218851523089 0.00002552255864782922 0.00002553306286303889
          0.000020980481780014482 0.000020901263377660158 0.00002068540295420355 0.000021675584138648247 0.000023035196618066523 0.00002142933359290255
          0.000022995943500467793 0.00002014410585362218 0.00002246093740355766 0.000021402982009452243 0.000021311910182097483 0.000020933690889659652
          0.000024419876818763515 0.00002444042103811489 0.00002456362366914351 0.00002615575496095782 0.000026138494498501753 0.00002612129134787671
          0.000023515694258486283 0.000023500540743386644 0.000023411821733180517 0.000025494122396797287 0.00002549584371686122 0.000025503484815770208
          0.000024502970074173056 0.00002470260284428217 0.000024877085261053947 0.000021185682795627158 0.00002099091721358552 0.000019322235596134922
          0 0 0 0 0 0
          0.00002608684388284342 0.000026086861717643866 0.000026096201983725266 0.000026210669099990472 0.000026146514223492014 0.00002632384606183474
          0.000006319124827243598 0.000006321466489780378 0.000006310864504516578 0.000009788122610858154 0.000009780486502111042 0.000009768742124749112
          0.000008023103008592593 0.000008018990868494302 0.000007991371785280181 0.000011861458963387312 0.000011848418331072998 0.000011819132582073026
          0.000010147182583520656 0.000010135607147621874 0.000010091548109015862 0.000012731433135995936 0.00001271168344032398 0.000012652906468026112
          0.000015759094879560703 0.000015731189225995332 0.000015661239810579663 0.00001905797799568006 0.00001902651776733005 0.000018957204977334393
          0.000022251616621201728 0.000022238304504457134 0.00002220090588771417 0.000022226941086475455 0.00002311563774564502 0.000022194799823209224
          0.000023109652740957424 0.000022106963070275646 0.00002306145087942922 0.000024455285882352373 0.000025142614045474804 0.00002481525270312296
          0.000024002134980652433 0.000024452804484870995 0.000025143222287240033 0.000024815172344655954 0.000023997998311533366 0.000024445569421861602
          0.000025144703134074018 0.000024815629129630786 0.000023984063577728703 0.000025479674821349876 0.000025481034447273707 0.000025487922675654276
          0.000023651191901568012 0.000023647836291419964 0.00002362557944825259 0.000026244146705733775 0.000026245477384035555 0.000026251323044560154
          0.000015612353928526927 0.000013379196445807555 0.000015602049711801428 0.000013374255598225019 0.000015570292490134694 0.000013358076015678715
          0.000014215319504015262 0.000014197914166544718 0.0000141524398550916 0.00001795528889625361 0.000017940246774764287 0.000017894117483987675
          0.000016797155658150976 0.00001677753404284722 0.000016719187737804232 0.00001948085184830102 0.000019461166406796073 0.0000193966822675122
          0.000022028679966938275 0.000022016313441036883 0.00002195922656140909 0.000023967423627283954 0.00002396184101812577 0.000023938411904285694
          0.000024706822746003884 0.000024703067956473975 0.000024695955860129966 0.000026559159235868094 0.000025513056463475213 0.000026065999775609508
          0.000026560137473258014 0.00002551277795330725 0.00002606667011291847 0.00002656334918530877 0.00002551304207101938 0.00002606742892994157
        </DataArray>
        <DataArray type="Float64" Name="disp_y" format="ascii" RangeMin="-0.000018906889655426665" RangeMax="-0.00000275655205646832">
          -0.000002757759284574013 -0.0000027570680061187316 -0.000002757447342279565 -0.0000027568312605764838 -0.0000027569862933253362 -0.00000275655205646832
          -0.0000028867181222900115 -0.000002884776570820971 -0.0000028856626425824757 -0.000002883982506879235 -0.000002884206939960315 -0.0000028826390842040554
          -0.0000030025066154272667 -0.0000029983879920238343 -0.0000029983549211984596 -0.000002994985533517345 -0.00000299133183715571 -0.0000029895483631240888
          -0.000003103878561474481 -0.0000030954688035468405 -0.0000030924341727636024 -0.0000030840359057034377 -0.0000030636455646418908 -0.000003057434731817547
          -0.000003232978767803728 -0.0000032110361800534654 -0.000003210993310110287 -0.000003188989939357499 -0.000003141460400899 -0.0000031198270242996133
          -0.0000034736357159770213 -0.0000034330812201895065 -0.0000034340070353075224 -0.0000033931580313198747 -0.000003303926614686194 -0.000003262198890180422
          -0.000003907603963935921 -0.0000038449195629621225 -0.000003844643822006431 -0.000003781391570347733 -0.000003637121754016211 -0.0000035710895855177957
          -0.000004621756476878311 -0.0000045292761410817215 -0.00000452861904526013 -0.000004434901306520461 -0.000004224691097246568 -0.000004125904165480124
          -0.000005711832240768498 -0.00000556865826693949 -0.000005587347033772338 -0.000005437623594856682 -0.000005147171252697081 -0.000004979374516477099
          -0.000007231433301441291 -0.0000069835911101664476 -0.000007064560690699053 -0.000006808026157367377 -0.0000064291389296809155 -0.00000611611878677381
          -0.0000027598813264309503 -0.000002759229357920656 -0.000002758423806588705 -0.0000028925462832674033 -0.0000028905809421552637 -0.0000028874849079596806
          -0.000003014358142593279 -0.0000030085442940462514 -0.000002996370570057377 -0.0000031317090181083583 -0.0000031201650633776088 -0.000003087237806299137
          -0.0000033019815743172047 -0.000003280203785993789 -0.0000032093575907995485 -0.000003596762460242869 -0.0000035579697048537002 -0.0000034304488148908403
          -0.0000040961993222581635 -0.000004035243726816993 -0.000003835899657060289 -0.000004900041735064325 -0.000004810688770091923 -0.0000045228292223879975
          -0.000006129950860431413 -0.000006019157432344428 -0.000005625680665683378 -0.000007933518600657653 -0.000007788378354286195 -0.000007271596714374305
          -0.000002763679448837815 -0.0000027622761604395636 -0.0000027600764892512467 -0.000002902192515472819 -0.0000028982698145138676 -0.000002890711466112798
          -0.00000303446882276972 -0.0000030271625133736515 -0.000003008547453003729 -0.000003187898779783467 -0.0000031764411029786814 -0.000003138030997689222
          -0.000003425926459548463 -0.0000034040639045006457 -0.000003331320860884407 -0.0000038063295992086337 -0.0000037691945468893212 -0.000003646289114095793
          -0.0000044120135005790645 -0.000004354343595159635 -0.00000416871400737858 -0.000005361422176611394 -0.000005279345469087035 -0.000005018116624079875
          -0.000006788110503898821 -0.000006695084781518219 -0.000006364878714822758 -0.000008737843170816842 -0.000008640718569280518 -0.000008306558860215744
          -0.0000027695494949998132 -0.000002766461506813549 -0.0000027607016600456866 -0.0000029150711609451522 -0.000002909300442885742 -0.00000289621185415685
          -0.000003070693576317974 -0.0000030632346383087505 -0.0000030375815835951124 -0.000003285078823850955 -0.0000032727228447810024 -0.0000032277853026204394
          -0.0000036123019128584805 -0.000003590626277207257 -0.000003516302353678637 -0.000004107919823162839 -0.000004073071705562051 -0.000003957426958557126
          -0.0000048560239832439955 -0.0000048034604232239055 -0.000004636777173783588 -0.000005983971809014007 -0.000005911362749638017 -0.000005685992303767066
          -0.000007615223645969533 -0.0000075441001968481466 -0.000007290423876535094 -0.00000973221784801355 -0.000009684736099569993 -0.000009529780970548049
          -0.0000027769503520365145 -0.000002772166168086896 -0.000002761594516342471 -0.000002937376205613844 -0.000002931221663910226 -0.000002911489516669352
          -0.0000031378295496411275 -0.000003129449870250711 -0.0000030962297123541406 -0.0000034304353227042433 -0.000003417222220852863 -0.000003366690090830976
          -0.000003868112673098944 -0.0000038468514527417205 -0.000003772742759725573 -0.000004505416854714702 -0.0000044733594868541624 -0.0000043679165398100906
          -0.000005422737427705106 -0.000005376477195997802 -0.000005233137240977853 -0.000006737304102738617 -0.000006677512923383064 -0.000006496202321316526
          -0.000008540918155726862 -0.000008493161616058664 -0.000008321494440146871 -0.000010802722642819845 -0.000010780092590014078 -0.000010741159904255018
          -0.0000027904420669129473 -0.0000027849189835714674 -0.000002768040453259325 -0.0000029821002303115383 -0.000002975044268940359 -0.000002947653970918685
          -0.0000032444879280274395 -0.000003234663438087056 -0.000003194350809965463 -0.0000036323584117339775 -0.000003618011460530046 -0.000003563089536517876
          -0.0000041989092190906234 -0.000004178120133079571 -0.000004106431985178622 -0.000004997712918813236 -0.0000049686965441820584 -0.000004876184016205803
          -0.000006097394394383222 -0.000006058455565083321 -0.0000059422191052848 -0.000007586736207223463 -0.000007541845416238005 -0.0000074087864676740615
          -0.000009516692742727128 -0.000009486964137512986 -0.000009388412684096459 -0.000011778116221487808 -0.000011785436314813004 -0.000011836550332004363
          -0.00000282078142293293 -0.0000028139094857706317 -0.000002789374548203709 -0.0000030590730561253704 -0.0000030500283611729843 -0.0000030145727588849004
          -0.0000033993714469613985 -0.0000033872357463796175 -0.0000033399606879261378 -0.000003897238629537404 -0.0000038811053876453385 -0.000003823404346594742
          -0.000004605667058753165 -0.000004585052133507609 -0.000004517731435210598 -0.000005575804871789819 -0.000005550007191848848 -0.000005472524071030484
          -0.0000068576674688593595 -0.000006826965449268699 -0.000006740165323527891 -0.000008494754865035089 -0.000008464962375512994 -0.000008379772385587252
          -0.000010487848309053594 -0.000010475999880111147 -0.000010441869872429744 -0.000012692054293600452 -0.000012713468885469988 -0.000012812218460637821
          -0.000002877621455772933 -0.000002868075968730138 -0.0000028348689233731127 -0.000003177699855987305 -0.0000031650500881187762 -0.0000031204350161750607
          -0.0000036096217929808133 -0.0000035936122120849164 -0.0000035393105818057425 -0.000004227605471266104 -0.000004208940582159763 -0.0000041489896207097175
          -0.000005083103208742498 -0.000005062831070328328 -0.000005000840114235772 -0.0000062208231300306275 -0.00000619990114197153 -0.000006138985477646171
          -0.000007671108717934362 -0.000007651604075809851 -0.000007595739762084772 -0.00000942541839226112 -0.000009413674660605419 -0.000009375418060589803
          -0.000011420378036481063 -0.0000114244101236435 -0.00001144165902997783 -0.000013553530436693701 -0.00001357669622436395 -0.00001369876254217302
          -0.000003877419432641712 -0.000003858583756783044 -0.0000037985672760123826 -0.000004619718075656841 -0.000004599413409475278 -0.000004539528541455136
          -0.000005618408778234594 -0.0000055984751888533874 -0.000005545186387438252 -0.000006909021565227896 -0.000006891241983088228 -0.000006851068509135333
          -0.000008501435628107445 -0.000008488328441686118 -0.000008467830727452933 -0.000010350649842334086 -0.000010348904112558715 -0.000010361079906275088
          -0.000012322131629722953 -0.000012333488094712219 -0.000012400077328460013 -0.000014229167164390154 -0.000014264785851049383 -0.000014371978030764744
          -0.000014336555124361636 -0.000014341494147913816 -0.000014749830330202292 -0.000014864775710958162 -0.000014392307872364759 -0.00001440160016743771
          -0.00001479477705206746 -0.000014904863081042714 -0.000014510414004687136 -0.000014553861967613696 -0.000014929533584953295 -0.000014987314173195786
          -0.000014515755782434045 -0.000014925870274872974 -0.000014564605991029471 -0.00001495826083495016 -0.00001463667560169888 -0.000015033018622262654
          -0.000014072452599299862 -0.00001452979476494056 -0.000014180209692030002 -0.000014126169250254826 -0.000014575457446571574 -0.00001423638689648512
          -0.000014327366833010694 -0.000014652169098493102 -0.000014378062392794551 -0.000008754528541011296 -0.00000954635080826423 -0.000009670796248964066
          -0.000009320880788709399 -0.000008533617257387499 -0.000009379559131632478 -0.000009427791570908106 -0.000009035674507971042 -0.000007678412983004341
          -0.000008660194372424282 -0.000008403838915712704 -0.000007939604239219179 -0.000012420899917874518 -0.000013043643465521628 -0.000013004611032991162
          -0.000012453872371880787 -0.00001248626935545224 -0.000013293815285279916 -0.00001318732287005858 -0.000012516918045822342 -0.000012695390576621802
          -0.000013703301986505447 -0.000013180368855682356 -0.00001290143457826395 -0.000009818132435722152 -0.000010356445308830673 -0.00000957035826756574
          -0.000009143825142888189 -0.000009764277364558999 -0.00001032793824982702 -0.000009496017262005329 -0.000009044350130234657 -0.000009567639527600205
          -0.000010162089845907324 -0.000009158189290525177 -0.000008662396700021658 -0.000013075937283613957 -0.000012649548446482758 -0.000013595424832137918
          -0.000013849453302386247 -0.000013130171963389508 -0.000012676743801238805 -0.000013628841780427927 -0.000013901717778708674 -0.000013347539247044342
          -0.00001283500056787402 -0.00001381445860063053 -0.000014133069107041084 -0.000014174198830998314 -0.00001338396737963106 -0.000014208954812272807
          -0.000013409701489625804 -0.000014372036287101974 -0.000013555921789910208 -0.000009167718475760335 -0.000009906719217709 -0.000009029949047160987
          -0.000009850703384846179 -0.000008479426984014524 -0.000009557528418292292 -0.000013634457783447728 -0.000013664179650755857 -0.00001321094819789196
          -0.000013009886812547716 -0.000013724868985272753 -0.000013729861336099913 -0.000013294049310699956 -0.000013097306743898926 -0.000013865442124448924
          -0.000013944417283833825 -0.000013573879341008244 -0.000013602676551049661 -0.000007412398182041454 -0.000007779550145198778 -0.000008207951231784694
          -0.00000768655880867535 -0.000007228866192205031 -0.000007589609703380322 -0.000007982491776163107 -0.0000074716657886664844 -0.00000648860738886037
          -0.000006853353824321414 -0.000007069014152413578 -0.000006607630407394296 -0.000010287513551990245 -0.00001058190075021974 -0.000010138953756819273
          -0.000010322717167674668 -0.000009453760829985096 -0.000009228159385905457 -0.000015182864047420823 -0.00001575737704782779 -0.00001583784838243811
          -0.000015395704230861493 -0.000015220800904434644 -0.000015786390850222146 -0.00001586304080264579 -0.000015423784534431344 -0.000015329869172235607
          -0.000015869194917194927 -0.00001592291718305238 -0.00001549262125494942 -0.000015385110366358026 -0.00001663345793642409 -0.000014873108479890269
          -0.000013170044128626345 -0.00001485751071789197 -0.000015943906452192826 -0.000014246707330666188 -0.000012784850145798731 -0.000013126982648529708
          -0.000012830447435313447 -0.000011688403106284345 -0.000011538253498728057 -0.000013617321239794167 -0.000013577671222839743 -0.000013828468384956694
          -0.000013956303506450388 -0.000013684010344700196 -0.000013644521670485826 -0.000013879219508870286 -0.000014012420595685344 -0.000013884060890554981
          -0.000013945436301814059 -0.000014151847612537755 -0.000014225458072482068 -0.000011920441752400062 -0.000012110832635389861 -0.000011940493676772418
          -0.000012150825647654394 -0.00001204586519450826 -0.000012309622310570519 -0.000008408775625075285 -0.000008236454320818571 -0.000007620556931555347
          -0.000013782426121315443 -0.000013919192009941189 -0.000013886350889137726 -0.000013984403892574274 -0.000014048685302891872 -0.00001395292631583501
          -0.000013556840412645581 -0.000013679692628651413 -0.000014198943288535942 -0.000013452950066140162 -0.000013733356445919683 -0.000014233777007042069
          -0.000013419527150920956 -0.000014150138405594314 -0.00001452727589411461 -0.000011669881627641171 -0.000012005709148078062 -0.00001104508341237801
          -0.00001060487121919993 -0.000011774623425291601 -0.000012083369951584921 -0.00001109505452302974 -0.00001059605684953729 -0.00001192669474982045
          -0.000012267588294830535 -0.000011355246809276933 -0.000010453704126634992 -0.000008434880666671005 -0.000009117278105287311 -0.000009244737934496567
          -0.000008160489617599902 -0.000008805598152168929 -0.000008898189952301545 -0.000007105064574234453 -0.000007641003202234891 -0.000007620980948812463
          -0.000014440312731620223 -0.000012708157871909794 -0.000014480711655890153 -0.000012733342336775386 -0.000014670434854131896 -0.000012864244294844419
          -0.000012903670815231117 -0.000012326117200466194 -0.000013073125799130539 -0.000012314232418061541 -0.000013309548307453354 -0.000013090009145799615
          -0.00001339043512780308 -0.000014142648965601556 -0.00001347196328239083 -0.000014177875039576044 -0.000013817524355437866 -0.000014472737515011418
          -0.000013563216873648995 -0.000012271912441126195 -0.00001379443842778874 -0.00001514829162043943 -0.000012863711761191383 -0.000011698604883875727
          -0.000013146137099381409 -0.000014347648527889452 -0.000010135535540185922 -0.000009597763572902391 -0.000010545440750584494 -0.000011005858906981839
          -0.000011372536195257024 -0.000011608549542248605 -0.000010735134957555053 -0.000011386008520569749 -0.000011665400208469615 -0.000010720796521513776
          -0.000011398123841277297 -0.000011745496448200872 -0.000010565788763447606 -0.000014805380265289739 -0.00001459677729535948 -0.000014854322163616766
          -0.000014644616457528178 -0.000015028785374607432 -0.000014832465604456907 -0.000010927771659935427 -0.000011812386795394457 -0.000010909748597840223
          -0.000011808626099354307 -0.000010879074122704904 -0.000011875239852077765 -0.000012978722913635981 -0.000012575996900423454 -0.000013057393998123609
          -0.00001270418157927063 -0.000013331380965865628 -0.000013002743897363283 -0.000013687182134491613 -0.000014580932489474857 -0.00001373991405097995
          -0.00001462702511468084 -0.000014012092468417233 -0.000014834350227435598 -0.000014590137647366454 -0.00001482911795874473 -0.000014883854787283817
          -0.000014631733834238577 -0.000014863568026927469 -0.000014915681381736982 -0.000014703720733557548 -0.00001492891497154601 -0.000014978680015046969
          -0.000015277327889045457 -0.000015619861360478302 -0.000014730327287668172 -0.000015313013325404247 -0.000015654471244460263 -0.000014775011049235416
          -0.00001544351729937044 -0.000015774435894206165 -0.000014969776847658326 -0.000009848111239059738 -0.000010987497452091441 -0.000010620847211975001
          -0.000009455696379695911 -0.00001050386453102177 -0.000010154724478377695 -0.000008061439126813213 -0.000008754599987050648 -0.000008442903565157948
          -0.000012046283846513732 -0.000011461692617293909 -0.000009276255040313532 -0.000015426412001528425 -0.000015327384439969087 -0.000015571079559761032
          -0.000015681304992053647 -0.000015448960746042067 -0.00001535227383503789 -0.000015593206807337986 -0.00001570074764062594 -0.00001550261250976945
          -0.00001540955077875321 -0.00001564624225600644 -0.000015748358480081742 -0.000010329556007633483 -0.000011458535611736727 -0.000009934939881062129
          -0.000010999601937500054 -0.000008544014390038526 -0.000009389132310762208 -0.000015095287594354576 -0.000015161117422438415 -0.000015123366058683576
          -0.00001518741386181263 -0.000015186000582989728 -0.000015245722729288126 -0.00001487864936115174 -0.000012790276085905995 -0.000014178122811537683
          -0.000012275044401222787 -0.000011238798632567276 -0.000010414612081180796 -0.000011222941204540895 -0.000012280850528184634 -0.0000110536444780755
          -0.00001209400026257289 -0.000010344039236773848 -0.000011889272128880945 -0.000015306431622214768 -0.000015333396071355872 -0.000015393226428902463
          -0.000014806317682820114 -0.000014849962708082059 -0.000014965629208534194 -0.000011447684057965416 -0.000011441685748715163 -0.000011605005271481192
          -0.000011619924372735094 -0.00001237168130361181 -0.000013076363649677502 -0.00001417276216741553 -0.000014209776778350029 -0.000014407054771607437
          -0.000013205048460372728 -0.000013283532845494783 -0.000013782410166915152 -0.000014280530297392174 -0.000014332297826128369 -0.000014445294264513703
          -0.0000151031926013814 -0.000015149210834101888 -0.00001530493442443295 -0.000015898342279538665 -0.000015918349086370673 -0.000015964727599596314
          -0.000012590980901794322 -0.000012859647599171207 -0.00001349104538783628 -0.0000132045686221641 -0.000013005533592292814 -0.000013279414777815326
          -0.000016699010458976476 -0.000015820488277937916 -0.000011839501072626267 -0.000007247283790406954 -0.00000705798397841558 -0.000006307539842925656
          -0.000015925007886432593 -0.000015941841086403733 -0.000015983923776090442 -0.000013280134543969897 -0.000013357324993387188 -0.000013572539363575248
          -0.0000064460437093670785 -0.000006433338350497824 -0.000006395068343300988 -0.00000855869124888607 -0.000008552258998212166 -0.000008532825497076973
          -0.000007856042241717572 -0.000007847692560870004 -0.00000782153370743759 -0.000010184547573304475 -0.00001018219419669883 -0.000010175249366500044
          -0.000009517609193704874 -0.000009515467984915625 -0.000009507108009945249 -0.000011373071144596322 -0.000011378924927218388 -0.000011394195300393372
          -0.000013295058143075916 -0.000013313976864104838 -0.000013362173411938704 -0.000015092342877715384 -0.000015118736498579534 -0.000015212185110776757
          -0.000016565553580968807 -0.000016593152906015105 -0.00001669605978204298 -0.000015797622473772164 -0.00001620719304474301 -0.000015829455632146267
          -0.00001623209032672828 -0.000015940018006699315 -0.00001633461084721242 -0.000017168261902460723 -0.000017298633801698613 -0.000016510449819481264
          -0.000016417856233637966 -0.000017186007093828493 -0.000017311802747337347 -0.00001652911023599139 -0.000016442570944504188 -0.000017235808062163464
          -0.000017348495286406927 -0.00001658015437028438 -0.000016520308144297192 -0.00001657513046487542 -0.000016590563715611207 -0.00001662902573367792
          -0.000016995996916455995 -0.000017020066969141285 -0.000017085916501612538 -0.000017565074265854678 -0.000017575014052116767 -0.00001759928338002951
          -0.000012409361980173364 -0.000010739334993802465 -0.000012413013300560743 -0.000010738590505091056 -0.000012423655026766237 -0.000010736458734364299
          -0.00001196203474832539 -0.000011965297487445327 -0.000011975425292949247 -0.000014111351964622506 -0.000014120201701633889 -0.000014146245490537037
          -0.000013793935087360953 -0.000013804137030366473 -0.000013836023378106377 -0.00001552703428899996 -0.000015546123857461654 -0.00001560321111836267
          -0.000016965805708923083 -0.000016989495391907803 -0.000017069048174899927 -0.00001791065884166064 -0.000017930547037583305 -0.000017994015563851044
          -0.00001801133078454071 -0.000018026689931624716 -0.00001806868812244496 -0.00001863635010948597 -0.000018092386716911988 -0.000018875016841589617
          -0.000018644636341923815 -0.00001810267918080272 -0.000018882789777467647 -0.000018668610618675663 -0.000018134249375411366 -0.000018906889655426665
        </DataArray>
        <DataArray type="Float64" Name="disp_z" format="ascii" RangeMin="-0.000014538676452155094" RangeMax="6.671239164966958e-7">
          0 0 -5.8773420397426404e-8 -5.906774130387005e-8 -1.184587639853109e-7 -1.1890475767646665e-7
          0 0 -5.831836479650028e-8 -5.891101215528294e-8 -1.1958885462654778e-7 -1.1971975008966078e-7
          0 0 -5.883887922454614e-8 -5.805041772678946e-8 -1.228416774135819e-7 -1.2435614540621347e-7
          0 0 -6.958752474132286e-8 -6.590801523883321e-8 -1.5451194543019645e-7 -1.4536633700393768e-7
          0 0 -1.413097378208993e-7 -1.3146416210868393e-7 -3.1519994023577973e-7 -2.9605930209946933e-7
          0 0 -3.204797269890181e-7 -3.094269564651991e-7 -6.826711498191603e-7 -6.620431206883783e-7
          0 0 -6.515916751280739e-7 -6.423352367513713e-7 -0.0000013376443112278421 -0.0000013213544279116191
          0 0 -0.0000011804105426918204 -0.000001181071755028792 -0.0000023652099770093266 -0.0000023674736818962595
          0 0 -0.0000020105644335588337 -0.00000203284705509189 -0.000003961392650717357 -0.000004007238460764238
          0 0 -0.0000036601516085124837 -0.0000038318709350059545 -0.000007141814593148774 -0.000007462120790107439
          0 -5.777507400636527e-8 -1.1749030013710468e-7 0 -5.7592112438891445e-8 -1.188072602214835e-7
          0 -5.976141215659006e-8 -1.2592763367550553e-7 0 -8.336891143207381e-8 -1.8643830919166992e-7
          0 -1.69773390035177e-7 -3.710971086113678e-7 0 -3.530927717184361e-7 -7.432357266281727e-7
          0 -6.771872154782736e-7 -0.000001382313318262701 0 -0.0000011803960297419325 -0.0000023628179292631496
          0 -0.0000019325273323172653 -0.0000038047962049301326 0 -0.000003244297179212837 -0.00000635287772961461
          0 -5.6740653429407035e-8 -1.1651115088433238e-7 0 -5.742656227527388e-8 -1.2046715801039922e-7
          0 -6.631507547371e-8 -1.470280740575236e-7 0 -1.1230901518904202e-7 -2.491810204104022e-7
          0 -2.1561247819020135e-7 -4.607910975238658e-7 0 -4.045977205403206e-7 -8.383483810606967e-7
          0 -7.1571620008198e-7 -0.0000014501522740877956 0 -0.000001174097239746712 -0.000002343424218059631
          0 -0.0000018216979348320883 -0.000003593594677159532 0 -0.000002707093792511687 -0.000005326306509820377
          0 -5.626320924642803e-8 -1.1891431448979892e-7 0 -6.157668324544312e-8 -1.3615529009435162e-7
          0 -8.841607297561861e-8 -1.996300661469348e-7 0 -1.5837301640292718e-7 -3.4335081573086005e-7
          0 -2.7815928333860025e-7 -5.812189810783919e-7 0 -4.705589708907558e-7 -9.59769757043994e-7
          0 -7.604340361289479e-7 -0.0000015279366207196886 0 -0.000001159762144333985 -0.000002309229855980734
          0 -0.0000016737423346200355 -0.000003302633526946011 0 -0.000002140308839567046 -0.000004253290213818825
          0 -6.045026177009891e-8 -1.347844514133686e-7 0 -7.944029931988675e-8 -1.802563252425119e-7
          0 -1.3009364008377703e-7 -2.8667074882647564e-7 0 -2.2155766455803153e-7 -4.665994997262425e-7
          0 -3.554652941581218e-7 -7.273334770570063e-7 0 -5.451171110101678e-7 -0.0000010963296751595348
          0 -8.032014621591829e-7 -0.000001601648540255412 0 -0.0000011308969769798762 -0.000002246408450446201
          0 -0.000001495456877099065 -0.000002957745310179126 0 -0.0000016304276503148136 -0.000003292293787091284
          0 -7.970896213467895e-8 -1.7643428444551003e-7 0 -1.1890058799209926e-7 -2.6053674077424254e-7
          0 -1.9328973286479238e-7 -4.067085462953311e-7 0 -3.026185878565986e-7 -6.181003161319996e-7
          0 -4.4429432191170663e-7 -8.910611904435115e-7 0 -6.213682953572358e-7 -0.0000012350302802607938
          0 -8.355447758176792e-7 -0.0000016571058394459185 0 -0.000001077440122060021 -0.000002138788759662334
          0 -0.000001299873196550377 -0.0000025888363647667138 0 -0.0000011966731904766607 -0.0000024573191153975373
          0 -1.2147093624822927e-7 -2.519631774445964e-7 0 -1.8515572658070719e-7 -3.7715971310905776e-7
          0 -2.799436563221448e-7 -5.60050009510042e-7 0 -4.0096867725754946e-7 -7.928803979756574e-7
          0 -5.40096592460561e-7 -0.0000010626938001850631 0 -6.917967064616909e-7 -0.0000013622089606495571
          0 -8.484977181630293e-7 -0.000001679871215214663 0 -9.944766344906355e-7 -0.0000019829244605922885
          0 -0.0000010809524970075268 -0.0000021829614444050118 0 -8.411451346793133e-7 -0.0000017871329681623639
          0 -1.8682945925020025e-7 -3.6128766361264005e-7 0 -2.7519202340915206e-7 -5.286658937795665e-7
          0 -3.867207132080217e-7 -7.42059208585559e-7 0 -5.11096434144113e-7 -9.839036198711146e-7
          0 -6.35903516990254e-7 -0.0000012324340541949966 0 -7.487033058620225e-7 -0.0000014656969621781295
          0 -8.353061146109449e-7 -0.0000016581458727703835 0 -8.784432862487453e-7 -0.0000017740585001951086
          0 -8.391278034962267e-7 -0.0000017444733246699488 0 -5.485720087156041e-7 -0.000001218454449381794
          0 -4.889242838176521e-7 -9.677942900550503e-7 0 -6.100060533829216e-7 -0.0000012037497631755283
          0 -7.130660383365271e-7 -0.000001406684182032198 0 -7.80471477221516e-7 -0.0000015429477880516366
          0 -7.949086080582287e-7 -0.0000015781933867729255 0 -7.447172873442011e-7 -0.000001486700872033799
          0 -6.087657450951672e-7 -0.0000012353270165831373 0 -3.4680824779984116e-7 -7.236939082070248e-7
          0 0 0 0 -1.0011234897868595e-8 -4.6677756027767816e-8
          -5.2457320633631725e-8 -2.0896808212755284e-8 -5.1200164496054874e-8 -9.601790258795731e-8 -1.1824706462697063e-7 -5.39323742899798e-8
          0 0 7.300295160317095e-9 9.143207845830684e-10 8.712147870105648e-9 -8.865150842356354e-9
          0 0 0 1.4715180054733599e-8 2.5751166692989183e-8 3.8493004888081217e-8
          2.4765505491423988e-8 3.814637456520366e-8 3.989003828947163e-8 0 0 0
          0 -0.000004181201491660853 -0.0000037387333585974305 -0.000004568711170017588 -0.000004670871347433162 -0.000008198921878540819
          -0.000007375245807275852 -0.000009073684741366197 -0.000009224500587776716 0 0 0
          0 -9.072596202198122e-7 -5.670096517360822e-7 3.387048016080011e-7 -6.379814828288058e-7 -0.0000019762557553546025
          -0.0000011060622225932452 -1.624323678962774e-7 -0.0000016430824192444273 0 0 0
          0 -0.000002366417175840911 -0.00000231545428133669 -0.000002985949912222915 -0.0000029746405845848984 -0.000004662021436030922
          -0.000004609351925049856 -0.000005902127982001722 -0.000005862406590192139 0 0 0
          0 -7.586316393897013e-7 -9.275657950750461e-7 -5.72626420292511e-7 -4.3839414083609027e-7 -0.0000016040028358685067
          -0.0000019243876936072357 -0.0000013205359116539156 -0.0000010902955362247122 0 0 -4.2304583644620494e-7
          -6.401772651751312e-7 -8.978958041436216e-7 -0.0000014184946765636018 0 0 -0.000003359463605353446
          -0.0000031021395062549686 -0.000006546187665672404 -0.000006171172050725958 0 0 0
          0 -1.5097166999074852e-9 2.6728908410897385e-8 1.8555165258788986e-8 1.1264591296837736e-8 -9.02425243020326e-8
          6.851889200371988e-8 4.4464029515858013e-8 -9.122855481340051e-8 0 0 0
          0 -0.000004111710668120786 -0.000003960069940776732 -0.00000446151168638874 -0.000004432460950398392 -0.000008050032950995198
          -0.000007696006567613766 -0.000008740520566621206 -0.000008713850505408638 0 0 -0.000003686077654595588
          -0.000004526942698439366 -0.000007215505633462425 -0.000009116501881556644 0 0 0
          0 -6.036360586470618e-8 -7.340146014583625e-8 -4.439422061616184e-8 -2.858064345778914e-8 -1.3406650469137908e-7
          -1.52619866988825e-7 -9.609104800346267e-8 -6.342986902987511e-8 0 0 0
          0 -0.000005357959118317471 -0.00000644599245120068 -0.0000057263851949287625 -0.000004759543371819394 -0.000010969870831335061
          -0.000012972405748761179 -0.000011191852032817848 -0.000009526193125836419 0 0 0
          0 6.870217300776181e-8 3.3029995171858545e-8 4.8575658349451107e-8 7.22053303892196e-8 -7.081505586017985e-8
          1.904392418528775e-8 9.042981770912671e-8 1.4101234905127335e-7 0 0 -0.0000012741903366958265
          -0.0000012401865074320936 -0.0000026085485611983518 -0.00000261889156193215 0 -0.0000035513970998623847 -0.0000069801217775881085
          0 0 -1.9473423573865967e-8 -5.0513063867706845e-8 -1.0804927368818747e-7 6.671239164966958e-7
          0 0 0 9.04703462397977e-9 -1.936060546589989e-7 -7.773065939809612e-8
          3.339733290385025e-7 -6.695868402535279e-7 -2.664807115468561e-7 0 0 0
          0 -0.000001908391023859382 -0.0000016282126870156994 -0.0000027629186742309618 -0.0000028927806401438407 -0.000003997377103066286
          -0.000003799858915707561 -0.000005547655760255074 -0.000005748320674878211 0 0 0
          -0.000004626683386916513 -0.000004832317164573709 -0.000004951202146471515 -0.000008997595233992772 -0.000009566237530512398 -0.000009744442002912476
          0 0 -3.448474381011764e-7 -9.000356030205926e-7 -7.959481801182881e-7 -0.000001913533149529946
          0 0 4.1303278796227764e-8 -1.4666690364609197e-7 -2.939396068452506e-7 -7.982298277105607e-7
          0 0 -4.727390940472503e-7 -2.154971025038912e-7 -0.0000010351625129031544 -5.847849434866709e-7
          0 0 0 0 -0.000005654252602524732 -0.000005497216076003376
          -0.0000060582756775063655 -0.000006356611775948979 -0.00001114993382658754 -0.000010866990634320466 -0.000012059235263000237 -0.000012631163963202836
          0 0 0 -0.000001743255052156651 -0.000001751043185341775 -0.0000023755422062177916
          -0.0000035391028864162466 -0.000003580218989218641 -0.000004782866683092393 0 0 -9.012837456002652e-8
          -7.737931844267518e-8 -2.4150978623575295e-7 -2.110289885473041e-7 0 0 -0.0000017374924006826785
          -0.0000012561154507901797 -0.0000034937206215656946 -0.000002564840546745836 0 0 -8.495518783037523e-7
          -0.0000011188137990557273 -0.0000018641615537998963 -0.0000025437618768644453 0 0 -4.444504483622957e-7
          -2.057253257193227e-7 -0.0000011761078001974002 -5.045262338592968e-7 0 0 0
          4.7550527997148565e-8 1.9708732718935683e-8 3.4535258880191985e-8 6.249249177220421e-8 2.5907461436421255e-8 4.7677898545083435e-8
          0 0 0 -2.0934556006330636e-7 -1.1989426109027626e-7 -2.2247820035651715e-7
          -4.922258605679194e-7 -2.7646137764498313e-7 -5.108684874922996e-7 0 0 0
          -0.000004999878089407619 -0.000005236140686718361 -0.000005151904816486375 -0.000009829101061074101 -0.00001034054486191656 -0.000010209290556758417
          0 -0.000005307685749915429 -0.000010471912912773197 0 0 0
          0 1.7400416099393626e-8 5.992184642186677e-9 -3.685589051280508e-9 1.0089950534302699e-8 2.4002274654109507e-8
          4.8534138828729e-9 -1.3155425051755927e-8 1.3697684179919133e-8 0 0 -0.0000049386370678362895
          -0.000005258111197801139 -0.000009638485890733147 -0.000010460448183930853 0 0 1.3161808183384753e-8
          2.5176808298637413e-8 1.5588936544232748e-8 3.504910560188059e-8 0 0 -0.000006323319734604418
          -0.000005349968687719114 -0.000012811910742319784 -0.000010611559067595734 0 0 -0.0000037866735068546244
          -0.00000387070837119485 -0.000007466105989995617 -0.000007781249884209676 0 -7.51538118690485e-9 -2.0785732560874843e-8
          0 -2.9852556740228763e-7 -6.517416630689069e-7 0 0 -0.0000017767168158749996
          -0.0000010337088356882396 -0.0000035512538725431973 -0.00000232997839995817 0 -3.5409449639514756e-7 -7.594759717318299e-7
          0 -9.583399757434488e-8 4.541782490498948e-7 0 6.51421968856859e-8 9.644340771458372e-8
          0 -1.1432721943163766e-7 -2.989024390188795e-7 0 -2.019049313435908e-8 -4.7824316052959266e-8
          0 -1.0398267706376711e-7 3.543212070133055e-7 0 -0.0000030987980683133536 -0.0000063305977441683
          0 -0.000007285024717133541 -0.000014538676452155094 0 -0.000004132353222686041 -0.000008134569298117012
          0 3.604967063580777e-9 2.500424155133336e-10 0 5.934819867160638e-8 -7.546599062094296e-9
          0 -5.80535751056676e-7 -0.0000011465323763298671 0 -5.65204202725357e-7 -0.0000011301178504676045
          0 -6.424933045653646e-7 -0.0000012706533373762287 0 -5.915885819931456e-7 -0.0000011816639404345435
          0 -6.758668397647227e-7 -0.0000013398396792608661 0 -6.691145964686864e-7 -0.0000013313660674400454
          0 -6.104042868944694e-7 -0.000001219585534800855 0 -4.805149403491643e-7 -9.786017443231261e-7
          0 -2.2914833697992443e-7 -4.790178110686117e-7 0 0 -2.3175572405639054e-7
          -1.6831615935861806e-7 -5.457569701925103e-7 -3.671655415180527e-7 0 0 0
          0 -9.706321651173013e-8 -6.053328852629559e-8 -5.6897647302654045e-8 -9.992378777411364e-8 -2.0549737015604128e-7
          -1.1811514575040285e-7 -1.229773119827506e-7 -2.1142659093839268e-7 0 -3.158806549956897e-8 -5.9522851044061164e-8
          0 -1.3101047298227134e-7 -2.601921567869681e-7 0 -2.172518693562302e-8 -4.803541561183164e-8
          0 0 -5.371150437062846e-7 -5.451837135236469e-7 -0.000001069929985640291 -0.000001085934432779759
          0 -5.90997094197955e-7 -0.0000011789529658829374 0 -5.018666861937749e-7 -0.0000010000486310239199
          0 -5.541304031089467e-7 -0.0000011037704821356926 0 -4.714786197188254e-7 -9.37230178219598e-7
          0 -3.3740037776474934e-7 -6.753772405666155e-7 0 -1.7346391912799356e-7 -3.481578437575063e-7
          0 -1.1365274769710648e-7 -2.3615878988956395e-7 0 0 0
          -2.9845972561271664e-8 -6.593270742469e-8 -6.457866801615562e-8 -5.923074871788864e-8 -1.318818374192243e-7 -1.294295529759855e-7
        </DataArray>
      </PointData>
      <CellData>
        <DataArray type="Int32" Name="libmesh_elem_id" format="ascii" RangeMin="40" RangeMax="1373">
          40 41 42 43 44 45
          46 47 48 49 50 51
          52 53 54 55 56 57
          98 99 100 101 102 103
          104 105 106 107 108 109
          110 111 112 113 114 115
          156 157 158 159 160 161
          162 163 164 165 166 167
          168 169 170 171 172 173
          214 215 216 217 218 219
          220 221 222 223 224 225
          226 227 228 229 230 231
          272 273 274 275 276 277
          278 279 280 281 282 283
          284 285 286 287 288 289
          330 331 332 333 334 335
          336 337 338 339 340 341
          342 343 344 345 346 347
          388 389 390 391 392 393
          394 395 396 397 398 399
          400 401 402 403 404 405
          446 447 448 449 450 451
          452 453 454 455 456 457
          458 459 460 461 462 463
          508 509 510 511 512 513
          514 515 516 517 518 519
          520 521 522 523 524 525
          526 527 528 529 530 531
          532 533 534 535 536 537
          538 539 540 541 542 543
          544 545 546 547 548 549
          550 551 552 553 554 555
          556 557 558 559 560 561
          562 563 564 565 566 567
          568 569 570 571 572 573
          574 575 576 577 578 579
          580 581 582 583 584 585
          586 587 588 589 590 591
          592 593 594 595 596 597
          598 599 600 601 602 603
          604 605 606 607 608 609
          610 611 612 613 614 615
          616 617 618 619 620 621
          622 623 624 625 626 627
          628 629 630 631 632 633
          634 635 636 637 638 639
          640 641 642 643 644 645
          646 647 648 649 650 651
          652 653 654 655 656 657
          658 659 660 661 662 663
          664 665 666 667 668 669
          670 671 672 673 674 675
          676 677 678 679 680 681
          682 683 684 685 686 687
          688 689 690 691 692 693
          694 695 696 697 698 699
          700 701 702 703 704 705
          706 707 708 709 710 711
          712 713 714 715 716 717
          718 719 720 721 722 723
          724 725 726 727 728 729
          730 731 732 733 734 735
          736 737 738 739 740 741
          742 743 744 745 746 747
          748 749 750 751 752 753
          754 755 756 757 758 759
          760 761 762 763 764 765
          766 767 768 769 770 771
          1186 1187 1188 1189 1190 1191
          1204 1205 1206 1207 1208 1209
          1222 1223 1224 1225 1240 1241
          1242 1243 1258 1259 1260 1261
          1276 1277 1278 1279 1300 1301
          1304 1305 1306 1307 1314 1315
          1316 1317 1326 1327 1328 1329
          1330 1331 1338 1339 1344 1345
          1348 1349 1356 1357 1358 1359
          1360 1361 1366 1367 1372 1373
        </DataArray>
        <DataArray type="Int32" Name="subdomain_id" format="ascii" RangeMin="103" RangeMax="143">
          103 103 103 103 103 103
          103 103 103 103 103 103
          103 103 103 103 103 103
          103 103 103 103 103 103
          103 103 103 103 103 103
          103 103 103 103 103 103
          103 103 103 103 103 103
          103 103 103 103 103 103
          103 103 103 103 103 103
          103 103 103 103 103 103
          103 103 103 103 103 103
          103 103 103 103 103 103
          103 103 103 103 103 103
          103 103 103 103 103 103
          103 103 103 103 103 103
          103 103 103 103 103 103
          103 103 103 103 103 103
          103 103 103 103 103 103
          103 103 103 103 103 103
          103 103 103 103 103 103
          103 103 103 103 103 103
          103 103 103 103 103 103
          103 103 103 103 103 103
          103 103 103 103 103 103
          103 103 103 103 103 103
          103 103 103 103 103 103
          103 103 104 104 104 104
          104 104 104 104 104 104
          104 104 104 104 104 104
          104 104 104 104 104 104
          104 104 104 104 104 104
          104 104 104 104 104 104
          104 104 104 104 104 104
          104 104 104 104 104 104
          104 104 104 104 104 104
          104 104 104 104 104 104
          104 104 104 104 104 104
          104 104 104 104 104 104
          104 104 104 104 104 104
          104 104 104 104 104 104
          104 104 104 104 104 104
          104 104 104 104 104 104
          104 104 104 104 104 104
          104 104 104 104 104 104
          104 104 104 104 104 104
          104 104 104 104 104 104
          104 104 104 104 104 104
          104 104 104 104 104 104
          104 104 104 104 104 104
          104 104 104 104 104 104
          104 104 104 104 104 104
          104 104 104 104 104 104
          104 104 104 104 104 104
          104 104 104 104 104 104
          104 104 104 104 104 104
          104 104 104 104 104 104
          104 104 104 104 104 104
          104 104 104 104 104 104
          104 104 104 104 104 104
          141 141 141 141 141 141
          141 141 141 141 141 141
          141 141 141 141 141 141
          141 141 141 141 141 141
          141 141 141 141 141 141
          141 141 141 141 141 141
          141 141 141 141 141 141
          141 141 141 141 141 141
          141 141 141 141 141 141
          105 105 105 105 105 105
          105 105 105 105 105 105
          105 105 105 105 105 105
          105 105 105 105 105 105
          105 105 105 105 106 106
          106 106 106 106 106 106
          106 106 106 106 106 106
          106 106 106 106 106 106
          106 106 106 106 106 106
          143 143 143 143 143 143
        </DataArray>
        <DataArray type="Int32" Name="processor_id" format="ascii" RangeMin="5" RangeMax="5">
          5 5 5 5 5 5
          5 5 5 5 5 5
          5 5 5 5 5 5
          5 5 5 5 5 5
          5 5 5 5 5 5
          5 5 5 5 5 5
          5 5 5 5 5 5
          5 5 5 5 5 5
          5 5 5 5 5 5
          5 5 5 5 5 5
          5 5 5 5 5 5
          5 5 5 5 5 5
          5 5 5 5 5 5
          5 5 5 5 5 5
          5 5 5 5 5 5
          5 5 5 5 5 5
          5 5 5 5 5 5
          5 5 5 5 5 5
          5 5 5 5 5 5
          5 5 5 5 5 5
          5 5 5 5 5 5
          5 5 5 5 5 5
          5 5 5 5 5 5
          5 5 5 5 5 5
          5 5 5 5 5 5
          5 5 5 5 5 5
          5 5 5 5 5 5
          5 5 5 5 5 5
          5 5 5 5 5 5
          5 5 5 5 5 5
          5 5 5 5 5 5
          5 5 5 5 5 5
          5 5 5 5 5 5
          5 5 5 5 5 5
          5 5 5 5 5 5
          5 5 5 5 5 5
          5 5 5 5 5 5
          5 5 5 5 5 5
          5 5 5 5 5 5
          5 5 5 5 5 5
          5 5 5 5 5 5
          5 5 5 5 5 5
          5 5 5 5 5 5
          5 5 5 5 5 5
          5 5 5 5 5 5
          5 5 5 5 5 5
          5 5 5 5 5 5
          5 5 5 5 5 5
          5 5 5 5 5 5
          5 5 5 5 5 5
          5 5 5 5 5 5
          5 5 5 5 5 5
          5 5 5 5 5 5
          5 5 5 5 5 5
          5 5 5 5 5 5
          5 5 5 5 5 5
          5 5 5 5 5 5
          5 5 5 5 5 5
          5 5 5 5 5 5
          5 5 5 5 5 5
          5 5 5 5 5 5
          5 5 5 5 5 5
          5 5 5 5 5 5
          5 5 5 5 5 5
          5 5 5 5 5 5
          5 5 5 5 5 5
          5 5 5 5 5 5
          5 5 5 5 5 5
          5 5 5 5 5 5
          5 5 5 5 5 5
          5 5 5 5 5 5
          5 5 5 5 5 5
          5 5 5 5 5 5
          5 5 5 5 5 5
          5 5 5 5 5 5
          5 5 5 5 5 5
          5 5 5 5 5 5
          5 5 5 5 5 5
        </DataArray>
      </CellData>
      <Points>
        <DataArray type="Float64" Name="Points" NumberOfComponents="3" format="ascii" RangeMin="0.0082758620689774" RangeMax="0.013139935358843113">
          0.00011111111111123 0.0082758620689751 0 0 0.0082758620689774 0
          0.00011111111111123 0.0082758620689751 0.00015 0 0.0082758620689774 0.00015
          0.00011111111111123 0.0082758620689751 0.0003 0 0.0082758620689774 0.0003
          0.00011111111111125 0.0086896551724226 0 0 0.0086896551724246 0
          0.00011111111111125 0.0086896551724226 0.00015 0 0.0086896551724246 0.00015
          0.00011111111111125 0.0086896551724226 0.0003 0 0.0086896551724246 0.0003
          0.00011111111111126 0.0091034482758696 0 0 0.0091034482758716 0
          0.00011111111111126 0.0091034482758696 0.00015 0 0.0091034482758716 0.00015
          0.00011111111111126 0.0091034482758696 0.0003 0 0.0091034482758716 0.0003
          0.00011111111111128 0.0095172413793168 0 0 0.0095172413793185 0
          0.00011111111111128 0.0095172413793168 0.00015 0 0.0095172413793185 0.00015
          0.00011111111111128 0.0095172413793168 0.0003 0 0.0095172413793185 0.0003
          0.00011111111111129 0.0099310344827632 0 0 0.0099310344827645 0
          0.00011111111111129 0.0099310344827632 0.00015 0 0.0099310344827645 0.00015
          0.00011111111111129 0.0099310344827632 0.0003 0 0.0099310344827645 0.0003
          0.00011111111111131 0.01034482758621 0 0 0.01034482758621 0
          0.00011111111111131 0.01034482758621 0.00015 0 0.01034482758621 0.00015
          0.00011111111111131 0.01034482758621 0.0003 0 0.01034482758621 0.0003
          0.00011111111111132 0.010758620689657 0 0 0.010758620689657 0
          0.00011111111111132 0.010758620689657 0.00015 0 0.010758620689657 0.00015
          0.00011111111111132 0.010758620689657 0.0003 0 0.010758620689657 0.0003
          0.00011111111111134 0.011172413793104 0 0 0.011172413793104 0
          0.00011111111111134 0.011172413793104 0.00015 0 0.011172413793104 0.00015
          0.00011111111111134 0.011172413793104 0.0003 0 0.011172413793104 0.0003
          0.00011111111111135 0.011586206896551 0 0 0.011586206896551 0
          0.00011111111111135 0.011586206896551 0.00015 0 0.011586206896551 0.00015
          0.00011111111111135 0.011586206896551 0.0003 0 0.011586206896551 0.0003
          0.00011111111111137 0.012 0 0 0.012 0
          0.00011111111111137 0.012 0.00015 0 0.012 0.00015
          0.00011111111111137 0.012 0.0003 0 0.012 0.0003
          0.00022222222222243 0.0082758620689727 0 0.00022222222222243 0.0082758620689727 0.00015
          0.00022222222222243 0.0082758620689727 0.0003 0.00022222222222246 0.0086896551724206 0
          0.00022222222222246 0.0086896551724206 0.00015 0.00022222222222246 0.0086896551724206 0.0003
          0.00022222222222249 0.0091034482758676 0 0.00022222222222249 0.0091034482758676 0.00015
          0.00022222222222249 0.0091034482758676 0.0003 0.00022222222222253 0.0095172413793151 0
          0.00022222222222253 0.0095172413793151 0.00015 0.00022222222222253 0.0095172413793151 0.0003
          0.00022222222222256 0.0099310344827619 0 0.00022222222222256 0.0099310344827619 0.00015
          0.00022222222222256 0.0099310344827619 0.0003 0.0002222222222226 0.010344827586209 0
          0.0002222222222226 0.010344827586209 0.00015 0.0002222222222226 0.010344827586209 0.0003
          0.00022222222222263 0.010758620689656 0 0.00022222222222263 0.010758620689656 0.00015
          0.00022222222222263 0.010758620689656 0.0003 0.00022222222222266 0.011172413793103 0
          0.00022222222222266 0.011172413793103 0.00015 0.00022222222222266 0.011172413793103 0.0003
          0.0002222222222227 0.011586206896551 0 0.0002222222222227 0.011586206896551 0.00015
          0.0002222222222227 0.011586206896551 0.0003 0.00022222222222273 0.012 0
          0.00022222222222273 0.012 0.00015 0.00022222222222273 0.012 0.0003
          0.00033333333333363 0.0082758620689704 0 0.00033333333333363 0.0082758620689704 0.00015
          0.00033333333333363 0.0082758620689704 0.0003 0.00033333333333368 0.0086896551724185 0
          0.00033333333333368 0.0086896551724185 0.00015 0.00033333333333368 0.0086896551724185 0.0003
          0.00033333333333373 0.0091034482758657 0 0.00033333333333373 0.0091034482758657 0.00015
          0.00033333333333373 0.0091034482758657 0.0003 0.00033333333333379 0.0095172413793133 0
          0.00033333333333379 0.0095172413793133 0.00015 0.00033333333333379 0.0095172413793133 0.0003
          0.00033333333333384 0.0099310344827607 0 0.00033333333333384 0.0099310344827607 0.00015
          0.00033333333333384 0.0099310344827607 0.0003 0.00033333333333389 0.010344827586208 0
          0.00033333333333389 0.010344827586208 0.00015 0.00033333333333389 0.010344827586208 0.0003
          0.00033333333333394 0.010758620689656 0 0.00033333333333394 0.010758620689656 0.00015
          0.00033333333333394 0.010758620689656 0.0003 0.000333333333334 0.011172413793103 0
          0.000333333333334 0.011172413793103 0.00015 0.000333333333334 0.011172413793103 0.0003
          0.00033333333333405 0.011586206896551 0 0.00033333333333405 0.011586206896551 0.00015
          0.00033333333333405 0.011586206896551 0.0003 0.0003333333333341 0.012 0
          0.0003333333333341 0.012 0.00015 0.0003333333333341 0.012 0.0003
          0.00044444444444486 0.0082758620689681 0 0.00044444444444486 0.0082758620689681 0.00015
          0.00044444444444486 0.0082758620689681 0.0003 0.00044444444444493 0.0086896551724165 0
          0.00044444444444493 0.0086896551724165 0.00015 0.00044444444444493 0.0086896551724165 0.0003
          0.00044444444444501 0.0091034482758637 0 0.00044444444444501 0.0091034482758637 0.00015
          0.00044444444444501 0.0091034482758637 0.0003 0.00044444444444508 0.0095172413793116 0
          0.00044444444444508 0.0095172413793116 0.00015 0.00044444444444508 0.0095172413793116 0.0003
          0.00044444444444516 0.0099310344827594 0 0.00044444444444516 0.0099310344827594 0.00015
          0.00044444444444516 0.0099310344827594 0.0003 0.00044444444444523 0.010344827586207 0
          0.00044444444444523 0.010344827586207 0.00015 0.00044444444444523 0.010344827586207 0.0003
          0.00044444444444531 0.010758620689655 0 0.00044444444444531 0.010758620689655 0.00015
          0.00044444444444531 0.010758620689655 0.0003 0.00044444444444538 0.011172413793103 0
          0.00044444444444538 0.011172413793103 0.00015 0.00044444444444538 0.011172413793103 0.0003
          0.00044444444444546 0.011586206896551 0 0.00044444444444546 0.011586206896551 0.00015
          0.00044444444444546 0.011586206896551 0.0003 0.00044444444444553 0.012 0
          0.00044444444444553 0.012 0.00015 0.00044444444444553 0.012 0.0003
          0.00055555555555597 0.0082758620689657 0 0.00055555555555597 0.0082758620689657 0.00015
          0.00055555555555597 0.0082758620689657 0.0003 0.00055555555555605 0.0086896551724145 0
          0.00055555555555605 0.0086896551724145 0.00015 0.00055555555555605 0.0086896551724145 0.0003
          0.00055555555555613 0.0091034482758618 0 0.00055555555555613 0.0091034482758618 0.00015
          0.00055555555555613 0.0091034482758618 0.0003 0.00055555555555621 0.0095172413793099 0
          0.00055555555555621 0.0095172413793099 0.00015 0.00055555555555621 0.0095172413793099 0.0003
          0.00055555555555629 0.0099310344827581 0 0.00055555555555629 0.0099310344827581 0.00015
          0.00055555555555629 0.0099310344827581 0.0003 0.00055555555555636 0.010344827586206 0
          0.00055555555555636 0.010344827586206 0.00015 0.00055555555555636 0.010344827586206 0.0003
          0.00055555555555644 0.010758620689655 0 0.00055555555555644 0.010758620689655 0.00015
          0.00055555555555644 0.010758620689655 0.0003 0.00055555555555652 0.011172413793102 0
          0.00055555555555652 0.011172413793102 0.00015 0.00055555555555652 0.011172413793102 0.0003
          0.0005555555555566 0.011586206896551 0 0.0005555555555566 0.011586206896551 0.00015
          0.0005555555555566 0.011586206896551 0.0003 0.00055555555555667 0.012 0
          0.00055555555555667 0.012 0.00015 0.00055555555555667 0.012 0.0003
          0.00066666666666675 0.0082758620689634 0 0.00066666666666675 0.0082758620689634 0.00015
          0.00066666666666675 0.0082758620689634 0.0003 0.00066666666666679 0.0086896551724125 0
          0.00066666666666679 0.0086896551724125 0.00015 0.00066666666666679 0.0086896551724125 0.0003
          0.00066666666666684 0.0091034482758598 0 0.00066666666666684 0.0091034482758598 0.00015
          0.00066666666666684 0.0091034482758598 0.0003 0.00066666666666688 0.0095172413793081 0
          0.00066666666666688 0.0095172413793081 0.00015 0.00066666666666688 0.0095172413793081 0.0003
          0.00066666666666693 0.0099310344827568 0 0.00066666666666693 0.0099310344827568 0.00015
          0.00066666666666693 0.0099310344827568 0.0003 0.00066666666666697 0.010344827586205 0
          0.00066666666666697 0.010344827586205 0.00015 0.00066666666666697 0.010344827586205 0.0003
          0.00066666666666701 0.010758620689654 0 0.00066666666666701 0.010758620689654 0.00015
          0.00066666666666701 0.010758620689654 0.0003 0.00066666666666706 0.011172413793102 0
          0.00066666666666706 0.011172413793102 0.00015 0.00066666666666706 0.011172413793102 0.0003
          0.0006666666666671 0.01158620689655 0 0.0006666666666671 0.01158620689655 0.00015
          0.0006666666666671 0.01158620689655 0.0003 0.00066666666666715 0.012 0
          0.00066666666666715 0.012 0.00015 0.00066666666666715 0.012 0.0003
          0.00077777777777787 0.0082758620689611 0 0.00077777777777787 0.0082758620689611 0.00015
          0.00077777777777787 0.0082758620689611 0.0003 0.00077777777777791 0.0086896551724104 0
          0.00077777777777791 0.0086896551724104 0.00015 0.00077777777777791 0.0086896551724104 0.0003
          0.00077777777777794 0.0091034482758578 0 0.00077777777777794 0.0091034482758578 0.00015
          0.00077777777777794 0.0091034482758578 0.0003 0.00077777777777797 0.0095172413793064 0
          0.00077777777777797 0.0095172413793064 0.00015 0.00077777777777797 0.0095172413793064 0.0003
          0.000777777777778 0.0099310344827555 0 0.000777777777778 0.0099310344827555 0.00015
          0.000777777777778 0.0099310344827555 0.0003 0.00077777777777803 0.010344827586205 0
          0.00077777777777803 0.010344827586205 0.00015 0.00077777777777803 0.010344827586205 0.0003
          0.00077777777777806 0.010758620689654 0 0.00077777777777806 0.010758620689654 0.00015
          0.00077777777777806 0.010758620689654 0.0003 0.00077777777777809 0.011172413793101 0
          0.00077777777777809 0.011172413793101 0.00015 0.00077777777777809 0.011172413793101 0.0003
          0.00077777777777813 0.01158620689655 0 0.00077777777777813 0.01158620689655 0.00015
          0.00077777777777813 0.01158620689655 0.0003 0.00077777777777816 0.012 0
          0.00077777777777816 0.012 0.00015 0.00077777777777816 0.012 0.0003
          0.0008888888888888 0.0082758620689588 0 0.0008888888888888 0.0082758620689588 0.00015
          0.0008888888888888 0.0082758620689588 0.0003 0.00088888888888881 0.0086896551724084 0
          0.00088888888888881 0.0086896551724084 0.00015 0.00088888888888881 0.0086896551724084 0.0003
          0.00088888888888882 0.0091034482758559 0 0.00088888888888882 0.0091034482758559 0.00015
          0.00088888888888882 0.0091034482758559 0.0003 0.00088888888888883 0.0095172413793047 0
          0.00088888888888883 0.0095172413793047 0.00015 0.00088888888888883 0.0095172413793047 0.0003
          0.00088888888888884 0.0099310344827542 0 0.00088888888888884 0.0099310344827542 0.00015
          0.00088888888888884 0.0099310344827542 0.0003 0.00088888888888885 0.010344827586204 0
          0.00088888888888885 0.010344827586204 0.00015 0.00088888888888885 0.010344827586204 0.0003
          0.00088888888888885 0.010758620689653 0 0.00088888888888885 0.010758620689653 0.00015
          0.00088888888888885 0.010758620689653 0.0003 0.00088888888888886 0.011172413793101 0
          0.00088888888888886 0.011172413793101 0.00015 0.00088888888888886 0.011172413793101 0.0003
          0.00088888888888887 0.01158620689655 0 0.00088888888888887 0.01158620689655 0.00015
          0.00088888888888887 0.01158620689655 0.0003 0.00088888888888888 0.012 0
          0.00088888888888888 0.012 0.00015 0.00088888888888888 0.012 0.0003
          0.001 0.0091034482758539 0 0.001 0.0091034482758539 0.00015
          0.001 0.0091034482758539 0.0003 0.001 0.0095172413793029 0
          0.001 0.0095172413793029 0.00015 0.001 0.0095172413793029 0.0003
          0.001 0.0099310344827529 0 0.001 0.0099310344827529 0.00015
          0.001 0.0099310344827529 0.0003 0.001 0.010344827586203 0
          0.001 0.010344827586203 0.00015 0.001 0.010344827586203 0.0003
          0.001 0.010758620689653 0 0.001 0.010758620689653 0.00015
          0.001 0.010758620689653 0.0003 0.001 0.0111724137931 0
          0.001 0.0111724137931 0.00015 0.001 0.0111724137931 0.0003
          0.001 0.01158620689655 0 0.001 0.01158620689655 0.00015
          0.001 0.01158620689655 0.0003 0.001 0.012 0
          0.001 0.012 0.00015 0.001 0.012 0.0003
          0.00067947077571632 0.012798245728111 0 0.00068678568032061 0.012710429785181 0
          0.00076344362314339 0.012698069087358 0 0.00078000626700894 0.012788238676479 0
          0.00067947077571632 0.012798245728111 0.00015 0.00068678568032061 0.012710429785181 0.00015
          0.00076344362314339 0.012698069087358 0.00015 0.00078000626700894 0.012788238676479 0.00015
          0.00067947077571632 0.012798245728111 0.0003 0.00068678568032061 0.012710429785181 0.0003
          0.00076344362314339 0.012698069087358 0.0003 0.00078000626700894 0.012788238676479 0.0003
          0.0007101811699723 0.012881232243155 0 0.00078737528777453 0.012884598822829 0
          0.0007101811699723 0.012881232243155 0.00015 0.00078737528777453 0.012884598822829 0.00015
          0.0007101811699723 0.012881232243155 0.0003 0.00078737528777453 0.012884598822829 0.0003
          0.00063149088332091 0.012876508075697 0 0.00071156048039536 0.012943694476106 0
          0.00064992343237843 0.012944046337553 0 0.00063149088332091 0.012876508075697 0.00015
          0.00071156048039536 0.012943694476106 0.00015 0.00064992343237843 0.012944046337553 0.00015
          0.00063149088332091 0.012876508075697 0.0003 0.00071156048039536 0.012943694476106 0.0003
          0.00064992343237843 0.012944046337553 0.0003 0.00014271480927744 0.012184528409521 0
          0.00021074182908597 0.012239195039162 0 0.00014617236906556 0.012274772666576 0
          0.00010836971036758 0.0122326927564 0 0.00014271480927744 0.012184528409521 0.00015
          0.00021074182908597 0.012239195039162 0.00015 0.00014617236906556 0.012274772666576 0.00015
          0.00010836971036758 0.0122326927564 0.00015 0.00014271480927744 0.012184528409521 0.0003
          0.00021074182908597 0.012239195039162 0.0003 0.00014617236906556 0.012274772666576 0.0003
          0.00010836971036758 0.0122326927564 0.0003 0.00040316247653445 0.012523054457121 0
          0.00050524235438491 0.012516470580574 0 0.00047556583290331 0.012611926172403 0
          0.00040677839563254 0.01259579728731 0 0.00040316247653445 0.012523054457121 0.00015
          0.00050524235438491 0.012516470580574 0.00015 0.00047556583290331 0.012611926172403 0.00015
          0.00040677839563254 0.01259579728731 0.00015 0.00040316247653445 0.012523054457121 0.0003
          0.00050524235438491 0.012516470580574 0.0003 0.00047556583290331 0.012611926172403 0.0003
          0.00040677839563254 0.01259579728731 0.0003 0.00038389728538556 0.012111104172094 0
          0.00037958632650406 0.012195366170904 0 0.00029855370140418 0.012181148574691 0
          0.00029802321336891 0.012105931916082 0 0.00038389728538556 0.012111104172094 0.00015
          0.00037958632650406 0.012195366170904 0.00015 0.00029855370140418 0.012181148574691 0.00015
          0.00029802321336891 0.012105931916082 0.00015 0.00038389728538556 0.012111104172094 0.0003
          0.00037958632650406 0.012195366170904 0.0003 0.00029855370140418 0.012181148574691 0.0003
          0.00029802321336891 0.012105931916082 0.0003 0.00062435778703091 0.012280526392523 0
          0.00063694887874418 0.012191685157308 0 0.00075163746499696 0.012211869018538 0
          0.0007101306235237 0.012330652999586 0 0.00062435778703091 0.012280526392523 0.00015
          0.00063694887874418 0.012191685157308 0.00015 0.00075163746499696 0.012211869018538 0.00015
          0.0007101306235237 0.012330652999586 0.00015 0.00062435778703091 0.012280526392523 0.0003
          0.00063694887874418 0.012191685157308 0.0003 0.00075163746499696 0.012211869018538 0.0003
          0.0007101306235237 0.012330652999586 0.0003 0.00090036231429234 0.012108977226849 0
          0.00080269198720626 0.012096984730608 0 0.00090036231429234 0.012108977226849 0.00015
          0.00080269198720626 0.012096984730608 0.00015 0.00090036231429234 0.012108977226849 0.0003
          0.00080269198720626 0.012096984730608 0.0003 0.00023865656240352 0.012177237347116 0
          0.00029061852669854 0.01224857812735 0 0.00023865656240352 0.012177237347116 0.00015
          0.00029061852669854 0.01224857812735 0.00015 0.00023865656240352 0.012177237347116 0.0003
          0.00029061852669854 0.01224857812735 0.0003 0.00056164385173704 0.012835416164401 0
          0.00056508360468666 0.012898794448667 0 0.00049240387645224 0.012913175910861 0
          0.00046984631090009 0.012828989929731 0 0.00056164385173704 0.012835416164401 0.00015
          0.00056508360468666 0.012898794448667 0.00015 0.00049240387645224 0.012913175910861 0.00015
          0.00046984631090009 0.012828989929731 0.00015 0.00056164385173704 0.012835416164401 0.0003
          0.00056508360468666 0.012898794448667 0.0003 0.00049240387645224 0.012913175910861 0.0003
          0.00046984631090009 0.012828989929731 0.0003 0.000050495613361417 0.012066083920595 0
          0.00011131843390441 0.012086989142678 0 0.000069577205110887 0.012153607960951 0
          0 0.012111111111109 0 0.000050495613361417 0.012066083920595 0.00015
          0.00011131843390441 0.012086989142678 0.00015 0.000069577205110887 0.012153607960951 0.00015
          0 0.012111111111109 0.00015 0.000050495613361417 0.012066083920595 0.0003
          0.00011131843390441 0.012086989142678 0.0003 0.000069577205110887 0.012153607960951 0.0003
          0 0.012111111111109 0.0003 0.00022470825547396 0.012306913365418 0
          0.00017103954025546 0.012340304715306 0 0.00022470825547396 0.012306913365418 0.00015
          0.00017103954025546 0.012340304715306 0.00015 0.00022470825547396 0.012306913365418 0.0003
          0.00017103954025546 0.012340304715306 0.0003 0.00085640575367095 0.012657655614724 0
          0.001 0.012571428571438 0 0.001 0.012714285714292 0
          0.00089085524488654 0.012778191533234 0 0.00085640575367095 0.012657655614724 0.00015
          0.001 0.012571428571438 0.00015 0.001 0.012714285714292 0.00015
          0.00089085524488654 0.012778191533234 0.00015 0.00085640575367095 0.012657655614724 0.0003
          0.001 0.012571428571438 0.0003 0.001 0.012714285714292 0.0003
          0.00089085524488654 0.012778191533234 0.0003 0.00017101007138246 0.012530153689505 0
          0.000086824088695593 0.01250759612347 0 0.00010015626416536 0.012463076177022 0
          0.00018026894988108 0.012457509098897 0 0.00017101007138246 0.012530153689505 0.00015
          0.000086824088695593 0.01250759612347 0.00015 0.00010015626416536 0.012463076177022 0.00015
          0.00018026894988108 0.012457509098897 0.00015 0.00017101007138246 0.012530153689505 0.0003
          0.000086824088695593 0.01250759612347 0.0003 0.00010015626416536 0.012463076177022 0.0003
          0.00018026894988108 0.012457509098897 0.0003 0.00055555555555552 0.013 0
          0.00054972466987376 0.012958523613261 0 0.00059017772624368 0.012950117696029 0
          0.00061111111111072 0.013 0 0.00055555555555552 0.013 0.00015
          0.00054972466987376 0.012958523613261 0.00015 0.00059017772624368 0.012950117696029 0.00015
          0.00061111111111072 0.013 0.00015 0.00055555555555552 0.013 0.0003
          0.00054972466987376 0.012958523613261 0.0003 0.00059017772624368 0.012950117696029 0.0003
          0.00061111111111072 0.013 0.0003 0.00056012017374448 0.012193168747791 0
          0.00054338833040714 0.012250054231166 0 0.00056012017374448 0.012193168747791 0.00015
          0.00054338833040714 0.012250054231166 0.00015 0.00056012017374448 0.012193168747791 0.0003
          0.00054338833040714 0.012250054231166 0.0003 0.00020164702899907 0.012111009853496 0
          0.00020164702899907 0.012111009853496 0.00015 0.00020164702899907 0.012111009853496 0.0003
          0.00058698867508036 0.01276393301723 0 0.00061242021253103 0.012689969395149 0
          0.00058698867508036 0.01276393301723 0.00015 0.00061242021253103 0.012689969395149 0.00015
          0.00058698867508036 0.01276393301723 0.0003 0.00061242021253103 0.012689969395149 0.0003
          0.00054704952286259 0.01264760123259 0 0.00058547756026548 0.012574831423214 0
          0.00066845126455385 0.012625352450745 0 0.00054704952286259 0.01264760123259 0.00015
          0.00058547756026548 0.012574831423214 0.00015 0.00066845126455385 0.012625352450745 0.00015
          0.00054704952286259 0.01264760123259 0.0003 0.00058547756026548 0.012574831423214 0.0003
          0.00066845126455385 0.012625352450745 0.0003 0.00040316497174951 0.012375710115571 0
          0.00038996592658543 0.012448925709731 0 0.00030251984068288 0.012451026681152 0
          0.00030273327950676 0.012339921797294 0 0.00040316497174951 0.012375710115571 0.00015
          0.00038996592658543 0.012448925709731 0.00015 0.00030251984068288 0.012451026681152 0.00015
          0.00030273327950676 0.012339921797294 0.00015 0.00040316497174951 0.012375710115571 0.0003
          0.00038996592658543 0.012448925709731 0.0003 0.00030251984068288 0.012451026681152 0.0003
          0.00030273327950676 0.012339921797294 0.0003 0 0.012166666666663 0
          0.000060257043043922 0.012213388328671 0 0 0.012222222222217 0
          0 0.012166666666663 0.00015 0.000060257043043922 0.012213388328671 0.00015
          0 0.012222222222217 0.00015 0 0.012166666666663 0.0003
          0.000060257043043922 0.012213388328671 0.0003 0 0.012222222222217 0.0003
          0.00086766031505541 0.012218873949421 0 0.00070802748250363 0.01210226547145 0
          0.00086766031505541 0.012218873949421 0.00015 0.00070802748250363 0.01210226547145 0.00015
          0.00086766031505541 0.012218873949421 0.0003 0.00070802748250363 0.01210226547145 0.0003
          0.00045681564832724 0.012667985356076 0 0.00038302222240927 0.012678606196169 0
          0.00045681564832724 0.012667985356076 0.00015 0.00038302222240927 0.012678606196169 0.00015
          0.00045681564832724 0.012667985356076 0.0003 0.00038302222240927 0.012678606196169 0.0003
          0.00057343997443155 0.012462111372123 0 0.00067467937701806 0.012497336760124 0
          0.00057343997443155 0.012462111372123 0.00015 0.00067467937701806 0.012497336760124 0.00015
          0.00057343997443155 0.012462111372123 0.0003 0.00067467937701806 0.012497336760124 0.0003
          0 0.012388888888886 0 0.00004805763346656 0.012364070531781 0
          0.000052775834931525 0.012418323433379 0 0 0.012444444444443 0
          0 0.012388888888886 0.00015 0.00004805763346656 0.012364070531781 0.00015
          0.000052775834931525 0.012418323433379 0.00015 0 0.012444444444443 0.00015
          0 0.012388888888886 0.0003 0.00004805763346656 0.012364070531781 0.0003
          0.000052775834931525 0.012418323433379 0.0003 0 0.012444444444443 0.0003
          0.0004655657017567 0.012222981448331 0 0.0004403524252846 0.012306679111378 0
          0.00036518397892919 0.012268658791136 0 0.0004655657017567 0.012222981448331 0.00015
          0.0004403524252846 0.012306679111378 0.00015 0.00036518397892919 0.012268658791136 0.00015
          0.0004655657017567 0.012222981448331 0.0003 0.0004403524252846 0.012306679111378 0.0003
          0.00036518397892919 0.012268658791136 0.0003 0.00079059026611164 0.012574208252283 0
          0.00074033738884001 0.012629472897336 0 0.00079059026611164 0.012574208252283 0.00015
          0.00074033738884001 0.012629472897336 0.00015 0.00079059026611164 0.012574208252283 0.0003
          0.00074033738884001 0.012629472897336 0.0003 0.00049134001885305 0.012124425854677 0
          0.00060162315338905 0.012101782274206 0 0.00049134001885305 0.012124425854677 0.00015
          0.00060162315338905 0.012101782274206 0.00015 0.00049134001885305 0.012124425854677 0.0003
          0.00060162315338905 0.012101782274206 0.0003 0.00055165526617401 0.012365152711649 0
          0.00046621557592763 0.012427373679685 0 0.00055165526617401 0.012365152711649 0.00015
          0.00046621557592763 0.012427373679685 0.00015 0.00055165526617401 0.012365152711649 0.0003
          0.00046621557592763 0.012427373679685 0.0003 0.00065175768920993 0.012395993188634 0
          0.00078658012555766 0.01242031863996 0 0.00065175768920993 0.012395993188634 0.00015
          0.00078658012555766 0.01242031863996 0.00015 0.00065175768920993 0.012395993188634 0.0003
          0.00078658012555766 0.01242031863996 0.0003 0.00072222222222142 0.013 0
          0.00076767785213736 0.012949407633443 0 0.00077777777777722 0.013 0
          0.00072222222222142 0.013 0.00015 0.00076767785213736 0.012949407633443 0.00015
          0.00077777777777722 0.013 0.00015 0.00072222222222142 0.013 0.0003
          0.00076767785213736 0.012949407633443 0.0003 0.00077777777777722 0.013 0.0003
          0.001 0.01228571428572 0 0.001 0.012428571428581 0
          0.00085243404696798 0.012340254950119 0 0.001 0.01228571428572 0.00015
          0.001 0.012428571428581 0.00015 0.00085243404696798 0.012340254950119 0.00015
          0.001 0.01228571428572 0.0003 0.001 0.012428571428581 0.0003
          0.00085243404696798 0.012340254950119 0.0003 0.000047305708530005 0.012255757186949 0
          0.000035989657241992 0.012305788523607 0 0 0.012277777777773 0
          0.000047305708530005 0.012255757186949 0.00015 0.000035989657241992 0.012305788523607 0.00015
          0 0.012277777777773 0.00015 0.000047305708530005 0.012255757186949 0.0003
          0.000035989657241992 0.012305788523607 0.0003 0 0.012277777777773 0.0003
          0 0.01233333333333 0 0 0.01233333333333 0.00015
          0 0.01233333333333 0.0003 0.00088888888888861 0.013 0
          0.00086852226729803 0.012945143609779 0 0.00092105077811413 0.012923509600428 0
          0.0009444444444442 0.013 0 0.00088888888888861 0.013 0.00015
          0.00086852226729803 0.012945143609779 0.00015 0.00092105077811413 0.012923509600428 0.00015
          0.0009444444444442 0.013 0.00015 0.00088888888888861 0.013 0.0003
          0.00086852226729803 0.012945143609779 0.0003 0.00092105077811413 0.012923509600428 0.0003
          0.0009444444444442 0.013 0.0003 0.000088322519872331 0.012287262323421 0
          0.000098057359918883 0.01234321954228 0 0.000088322519872331 0.012287262323421 0.00015
          0.000098057359918883 0.01234321954228 0.00015 0.000088322519872331 0.012287262323421 0.0003
          0.000098057359918883 0.01234321954228 0.0003 0.00082037799021753 0.012949927278989 0
          0.00083333333333302 0.013 0 0.00082037799021753 0.012949927278989 0.00015
          0.00083333333333302 0.013 0.00015 0.00082037799021753 0.012949927278989 0.0003
          0.00083333333333302 0.013 0.0003 0.000055423585756317 0.01245648439217 0
          0.00011750487062481 0.01240389197138 0 0.000055423585756317 0.01245648439217 0.00015
          0.00011750487062481 0.01240389197138 0.00015 0.000055423585756317 0.01245648439217 0.0003
          0.00011750487062481 0.01240389197138 0.0003 0.00022703795328819 0.012397087263253 0
          0.00024412512388832 0.012487409031957 0 0.00022703795328819 0.012397087263253 0.00015
          0.00024412512388832 0.012487409031957 0.00015 0.00022703795328819 0.012397087263253 0.0003
          0.00024412512388832 0.012487409031957 0.0003 0.00086622784349606 0.012879340816766 0
          0.00086622784349606 0.012879340816766 0.00015 0.00086622784349606 0.012879340816766 0.0003
          0.001 0.01214285714286 0 0.001 0.01214285714286 0.00015
          0.001 0.01214285714286 0.0003 0.00032807036377433 0.012530514194312 0
          0.00032139380548758 0.012616977778981 0 0.00032807036377433 0.012530514194312 0.00015
          0.00032139380548758 0.012616977778981 0.00015 0.00032807036377433 0.012530514194312 0.0003
          0.00032139380548758 0.012616977778981 0.0003 0.00078653837511981 0.012300730611142 0
          0.00078653837511981 0.012300730611142 0.00015 0.00078653837511981 0.012300730611142 0.0003
          0.00050187285486533 0.012723776617989 0 0.00050187285486533 0.012723776617989 0.00015
          0.00050187285486533 0.012723776617989 0.0003 0.00066666666666612 0.013 0
          0.00066666666666612 0.013 0.00015 0.00066666666666612 0.013 0.0003
          0.00086640285866826 0.012499721374928 0 0.00086640285866826 0.012499721374928 0.00015
          0.00086640285866826 0.012499721374928 0.0003 0.001 0.012857142857146 0
          0.001 0.012857142857146 0.00015 0.001 0.012857142857146 0.0003
          0.00043301270230906 0.012750000000722 0 0.00043301270230906 0.012750000000722 0.00015
          0.00043301270230906 0.012750000000722 0.0003 0.00025000000019401 0.01256698729822 0
          0.00025000000019401 0.01256698729822 0.00015 0.00025000000019401 0.01256698729822 0.0003
          0 0.0125 0 0 0.0125 0.00015
          0 0.0125 0.0003 0 0.012055555555554 0
          0 0.012055555555554 0.00015 0 0.012055555555554 0.0003
          0.001 0.013 0 0.001 0.013 0.00015
          0.001 0.013 0.0003 0.0005 0.013 0
          0.0005 0.013 0.00015 0.0005 0.013 0.0003
          0.0014444444444451 0.0095172413793029 0 0.0014444444444451 0.0095172413793029 0.00015
          0.0014444444444451 0.0095172413793029 0.0003 0.0018888888888902 0.0095172413793029 0
          0.0018888888888902 0.0095172413793029 0.00015 0.0018888888888902 0.0095172413793029 0.0003
          0.0014444444444452 0.0099310344827529 0 0.0014444444444452 0.0099310344827529 0.00015
          0.0014444444444452 0.0099310344827529 0.0003 0.0018888888888903 0.0099310344827529 0
          0.0018888888888903 0.0099310344827529 0.00015 0.0018888888888903 0.0099310344827529 0.0003
          0.0014444444444452 0.010344827586203 0 0.0014444444444452 0.010344827586203 0.00015
          0.0014444444444452 0.010344827586203 0.0003 0.0014444444444453 0.010758620689653 0
          0.0014444444444453 0.010758620689653 0.00015 0.0014444444444453 0.010758620689653 0.0003
          0.0014444444444453 0.0111724137931 0 0.0014444444444453 0.0111724137931 0.00015
          0.0014444444444453 0.0111724137931 0.0003 0.0014444444444454 0.01158620689655 0
          0.0014444444444454 0.01158620689655 0.00015 0.0014444444444454 0.01158620689655 0.0003
          0.0014444444444455 0.012 0 0.0014444444444455 0.012 0.00015
          0.0014444444444455 0.012 0.0003 0.0011659770658264 0.012184916069452 0
          0.0011978981211319 0.012291694091132 0 0.0011659770658264 0.012184916069452 0.00015
          0.0011978981211319 0.012291694091132 0.00015 0.0011659770658264 0.012184916069452 0.0003
          0.0011978981211319 0.012291694091132 0.0003 0.0014134281085546 0.012468353283698 0
          0.001412897365997 0.01265802692797 0 0.0011710921098332 0.012660749606473 0
          0.0011928404820732 0.012464476127519 0 0.0014134281085546 0.012468353283698 0.00015
          0.001412897365997 0.01265802692797 0.00015 0.0011710921098332 0.012660749606473 0.00015
          0.0011928404820732 0.012464476127519 0.00015 0.0014134281085546 0.012468353283698 0.0003
          0.001412897365997 0.01265802692797 0.0003 0.0011710921098332 0.012660749606473 0.0003
          0.0011928404820732 0.012464476127519 0.0003 0.0011801499871676 0.012824831216028 0
          0.0011801499871676 0.012824831216028 0.00015 0.0011801499871676 0.012824831216028 0.0003
          0.0014335559245349 0.012265987585326 0 0.0014335559245349 0.012265987585326 0.00015
          0.0014335559245349 0.012265987585326 0.0003 0.0014444444444455 0.013 0
          0.0014444444444455 0.013 0.00015 0.0014444444444455 0.013 0.0003
          0.0023333333333355 0.0099310344827529 0 0.0023333333333353 0.0095172413793029 0
          0.0023333333333355 0.0099310344827529 0.00015 0.0023333333333353 0.0095172413793029 0.00015
          0.0023333333333355 0.0099310344827529 0.0003 0.0023333333333353 0.0095172413793029 0.0003
          0.0018888888888904 0.010344827586203 0 0.0018888888888904 0.010344827586203 0.00015
          0.0018888888888904 0.010344827586203 0.0003 0.0023333333333357 0.010344827586203 0
          0.0023333333333357 0.010344827586203 0.00015 0.0023333333333357 0.010344827586203 0.0003
          0.0018888888888905 0.010758620689653 0 0.0018888888888905 0.010758620689653 0.00015
          0.0018888888888905 0.010758620689653 0.0003 0.0018888888888907 0.0111724137931 0
          0.0018888888888907 0.0111724137931 0.00015 0.0018888888888907 0.0111724137931 0.0003
          0.0018888888888908 0.01158620689655 0 0.0018888888888908 0.01158620689655 0.00015
          0.0018888888888908 0.01158620689655 0.0003 0.0018888888888909 0.012 0
          0.0018888888888909 0.012 0.00015 0.0018888888888909 0.012 0.0003
          0.0017386847932316 0.012348636106575 0 0.0017386847932316 0.012348636106575 0.00015
          0.0017386847932316 0.012348636106575 0.0003 0.0018888888888909 0.013 0
          0.001702980389272 0.012655949584096 0 0.0020604062010233 0.012679406151259 0
          0.0018888888888909 0.013 0.00015 0.001702980389272 0.012655949584096 0.00015
          0.0020604062010233 0.012679406151259 0.00015 0.0018888888888909 0.013 0.0003
          0.001702980389272 0.012655949584096 0.0003 0.0020604062010233 0.012679406151259 0.0003
          <InformationKey name="L2_NORM_RANGE" location="vtkDataArray" length="2">
            <Value index="0">
              0.008275862069
            </Value>
            <Value index="1">
              0.013139935359
            </Value>
          </InformationKey>
        </DataArray>
      </Points>
      <Cells>
        <DataArray type="Int64" Name="connectivity" format="ascii" RangeMin="0" RangeMax="755">
          1 0 6 7 3 2
          8 9 3 2 8 9
          5 4 10 11 7 6
          12 13 9 8 14 15
          9 8 14 15 11 10
          16 17 13 12 18 19
          15 14 20 21 15 14
          20 21 17 16 22 23
          19 18 24 25 21 20
          26 27 21 20 26 27
          23 22 28 29 25 24
          30 31 27 26 32 33
          27 26 32 33 29 28
          34 35 31 30 36 37
          33 32 38 39 33 32
          38 39 35 34 40 41
          37 36 42 43 39 38
          44 45 39 38 44 45
          41 40 46 47 43 42
          48 49 45 44 50 51
          45 44 50 51 47 46
          52 53 49 48 54 55
          51 50 56 57 51 50
          56 57 53 52 58 59
          0 60 63 6 2 61
          64 8 2 61 64 8
          4 62 65 10 6 63
          66 12 8 64 67 14
          8 64 67 14 10 65
          68 16 12 66 69 18
          14 67 70 20 14 67
          70 20 16 68 71 22
          18 69 72 24 20 70
          73 26 20 70 73 26
          22 71 74 28 24 72
          75 30 26 73 76 32
          26 73 76 32 28 74
          77 34 30 75 78 36
          32 76 79 38 32 76
          79 38 34 77 80 40
          36 78 81 42 38 79
          82 44 38 79 82 44
          40 80 83 46 42 81
          84 48 44 82 85 50
          44 82 85 50 46 83
          86 52 48 84 87 54
          50 85 88 56 50 85
          88 56 52 86 89 58
          60 90 93 63 61 91
          94 64 61 91 94 64
          62 92 95 65 63 93
          96 66 64 94 97 67
          64 94 97 67 65 95
          98 68 66 96 99 69
          67 97 100 70 67 97
          100 70 68 98 101 71
          69 99 102 72 70 100
          103 73 70 100 103 73
          71 101 104 74 72 102
          105 75 73 103 106 76
          73 103 106 76 74 104
          107 77 75 105 108 78
          76 106 109 79 76 106
          109 79 77 107 110 80
          78 108 111 81 79 109
          112 82 79 109 112 82
          80 110 113 83 81 111
          114 84 82 112 115 85
          82 112 115 85 83 113
          116 86 84 114 117 87
          85 115 118 88 85 115
          118 88 86 116 119 89
          90 120 123 93 91 121
          124 94 91 121 124 94
          92 122 125 95 93 123
          126 96 94 124 127 97
          94 124 127 97 95 125
          128 98 96 126 129 99
          97 127 130 100 97 127
          130 100 98 128 131 101
          99 129 132 102 100 130
          133 103 100 130 133 103
          101 131 134 104 102 132
          135 105 103 133 136 106
          103 133 136 106 104 134
          137 107 105 135 138 108
          106 136 139 109 106 136
          139 109 107 137 140 110
          108 138 141 111 109 139
          142 112 109 139 142 112
          110 140 143 113 111 141
          144 114 112 142 145 115
          112 142 145 115 113 143
          146 116 114 144 147 117
          115 145 148 118 115 145
          148 118 116 146 149 119
          120 150 153 123 121 151
          154 124 121 151 154 124
          122 152 155 125 123 153
          156 126 124 154 157 127
          124 154 157 127 125 155
          158 128 126 156 159 129
          127 157 160 130 127 157
          160 130 128 158 161 131
          129 159 162 132 130 160
          163 133 130 160 163 133
          131 161 164 134 132 162
          165 135 133 163 166 136
          133 163 166 136 134 164
          167 137 135 165 168 138
          136 166 169 139 136 166
          169 139 137 167 170 140
          138 168 171 141 139 169
          172 142 139 169 172 142
          140 170 173 143 141 171
          174 144 142 172 175 145
          142 172 175 145 143 173
          176 146 144 174 177 147
          145 175 178 148 145 175
          178 148 146 176 179 149
          150 180 183 153 151 181
          184 154 151 181 184 154
          152 182 185 155 153 183
          186 156 154 184 187 157
          154 184 187 157 155 185
          188 158 156 186 189 159
          157 187 190 160 157 187
          190 160 158 188 191 161
          159 189 192 162 160 190
          193 163 160 190 193 163
          161 191 194 164 162 192
          195 165 163 193 196 166
          163 193 196 166 164 194
          197 167 165 195 198 168
          166 196 199 169 166 196
          199 169 167 197 200 170
          168 198 201 171 169 199
          202 172 169 199 202 172
          170 200 203 173 171 201
          204 174 172 202 205 175
          172 202 205 175 173 203
          206 176 174 204 207 177
          175 205 208 178 175 205
          208 178 176 206 209 179
          180 210 213 183 181 211
          214 184 181 211 214 184
          182 212 215 185 183 213
          216 186 184 214 217 187
          184 214 217 187 185 215
          218 188 186 216 219 189
          187 217 220 190 187 217
          220 190 188 218 221 191
          189 219 222 192 190 220
          223 193 190 220 223 193
          191 221 224 194 192 222
          225 195 193 223 226 196
          193 223 226 196 194 224
          227 197 195 225 228 198
          196 226 229 199 196 226
          229 199 197 227 230 200
          198 228 231 201 199 229
          232 202 199 229 232 202
          200 230 233 203 201 231
          234 204 202 232 235 205
          202 232 235 205 203 233
          236 206 204 234 237 207
          205 235 238 208 205 235
          238 208 206 236 239 209
          210 240 243 213 211 241
          244 214 211 241 244 214
          212 242 245 215 213 243
          246 216 214 244 247 217
          214 244 247 217 215 245
          248 218 216 246 249 219
          217 247 250 220 217 247
          250 220 218 248 251 221
          219 249 252 222 220 250
          253 223 220 250 253 223
          221 251 254 224 222 252
          255 225 223 253 256 226
          223 253 256 226 224 254
          257 227 225 255 258 228
          226 256 259 229 226 256
          259 229 227 257 260 230
          228 258 261 231 229 259
          262 232 229 259 262 232
          230 260 263 233 231 261
          264 234 232 262 265 235
          232 262 265 235 233 263
          266 236 234 264 267 237
          235 265 268 238 235 265
          268 238 236 266 269 239
          246 270 273 249 247 271
          274 250 247 271 274 250
          248 272 275 251 249 273
          276 252 250 274 277 253
          250 274 277 253 251 275
          278 254 252 276 279 255
          253 277 280 256 253 277
          280 256 254 278 281 257
          255 279 282 258 256 280
          283 259 256 280 283 259
          257 281 284 260 258 282
          285 261 259 283 286 262
          259 283 286 262 260 284
          287 263 261 285 288 264
          262 286 289 265 262 286
          289 265 263 287 290 266
          264 288 291 267 265 289
          292 268 265 289 292 268
          266 290 293 269 294 295
          296 297 298 299 300 301
          298 299 300 301 302 303
          304 305 306 294 297 307
          308 298 301 309 308 298
          301 309 310 302 305 311
          312 306 313 314 315 308
          316 317 315 308 316 317
          318 310 319 320 321 322
          323 324 325 326 327 328
          325 326 327 328 329 330
          331 332 333 334 335 336
          337 338 339 340 337 338
          339 340 341 342 343 344
          345 346 347 348 349 350
          351 352 349 350 351 352
          353 354 355 356 357 358
          359 360 361 362 363 364
          361 362 363 364 365 366
          367 368 267 369 370 237
          268 371 372 238 268 371
          372 238 269 373 374 239
          375 347 376 322 377 351
          378 326 377 351 378 326
          379 355 380 330 381 382
          383 384 385 386 387 388
          385 386 387 388 389 390
          391 392 393 394 395 396
          397 398 399 400 397 398
          399 400 401 402 403 404
          323 322 405 406 327 326
          407 408 327 326 407 408
          331 330 409 410 411 412
          413 414 415 416 417 418
          415 416 417 418 419 420
          421 422 423 424 425 426
          427 428 429 430 427 428
          429 430 431 432 433 434
          435 436 437 438 439 440
          441 442 439 440 441 442
          443 444 445 446 447 358
          357 448 449 362 361 450
          449 362 361 450 451 366
          365 452 54 87 453 394
          56 88 454 398 56 88
          454 398 58 89 455 402
          456 457 295 294 458 459
          299 298 458 459 299 298
          460 461 303 302 457 462
          463 464 459 465 466 467
          459 465 466 467 461 468
          469 470 456 294 312 381
          458 298 315 385 458 298
          315 385 460 302 318 389
          471 472 473 474 475 476
          477 478 475 476 477 478
          479 480 481 482 483 395
          484 485 486 399 487 488
          486 399 487 488 489 403
          490 491 370 492 359 493
          372 494 363 495 372 494
          363 495 374 496 367 497
          237 370 493 207 238 372
          495 208 238 372 495 208
          239 374 497 209 336 335
          498 499 340 339 500 501
          340 339 500 501 344 343
          502 503 463 334 504 505
          466 338 506 507 466 338
          506 507 469 342 508 509
          510 511 512 513 514 515
          516 517 514 515 516 517
          518 519 520 521 522 523
          524 346 525 526 527 350
          525 526 527 350 528 529
          530 354 531 532 464 505
          533 534 467 507 533 534
          467 507 535 536 470 509
          537 147 177 538 539 148
          178 540 539 148 178 540
          541 149 179 542 523 543
          544 471 526 545 546 475
          526 545 546 475 529 547
          548 479 549 360 550 505
          551 364 552 507 551 364
          552 507 553 368 554 509
          555 313 556 557 558 316
          559 560 558 316 559 560
          561 319 562 563 564 565
          566 492 567 568 569 494
          567 568 569 494 570 571
          572 496 573 574 575 485
          576 577 578 488 576 577
          578 488 579 580 581 491
          582 574 511 510 583 577
          515 514 583 577 515 514
          584 580 519 518 87 117
          348 453 88 118 352 454
          88 118 352 454 89 119
          356 455 504 334 544 543
          506 338 546 545 506 338
          546 545 508 342 548 547
          585 586 587 588 589 590
          591 592 589 590 591 592
          593 594 595 596 574 597
          598 511 577 599 600 515
          577 599 600 515 580 601
          602 519 375 322 321 453
          377 326 325 454 377 326
          325 454 379 330 329 455
          557 556 603 604 560 559
          605 606 560 559 605 606
          563 562 607 608 425 609
          512 610 429 611 516 612
          429 611 516 612 433 613
          520 614 207 493 538 177
          208 495 540 178 208 495
          540 178 209 497 542 179
          615 473 616 426 617 477
          618 430 617 477 618 430
          619 481 620 434 297 414
          621 307 301 418 622 309
          301 418 622 309 305 422
          623 311 492 369 624 564
          494 371 625 567 494 371
          625 567 496 373 626 570
          627 333 336 628 629 337
          340 630 629 337 340 630
          631 341 344 632 360 633
          566 550 364 634 569 552
          364 634 569 552 368 635
          572 554 457 456 636 462
          459 458 637 465 459 458
          637 465 461 460 638 468
          357 360 549 543 361 364
          551 545 361 364 551 545
          365 368 553 547 295 464
          532 296 299 467 534 300
          299 467 534 300 303 470
          536 304 639 314 313 555
          640 317 316 558 640 317
          316 558 641 320 319 561
          471 474 524 523 475 478
          527 526 475 478 527 526
          479 482 530 529 426 610
          406 615 430 612 408 617
          430 612 408 617 434 614
          410 619 504 543 549 505
          506 545 551 507 506 545
          551 507 508 547 553 509
          566 565 642 550 569 568
          643 552 569 568 643 552
          572 571 644 554 610 512
          511 598 612 516 515 600
          612 516 515 600 614 520
          519 602 621 414 645 587
          622 418 646 591 622 418
          646 591 623 422 647 595
          405 474 615 406 407 478
          617 408 407 478 617 408
          409 482 619 410 381 384
          636 456 385 388 637 458
          385 388 637 458 389 392
          638 460 648 499 498 636
          649 501 500 637 649 501
          500 637 650 503 502 638
          616 651 423 426 618 652
          427 430 618 652 427 430
          620 653 431 434 324 597
          573 484 328 599 576 487
          328 599 576 487 332 601
          579 490 642 412 411 531
          643 416 415 533 643 416
          415 533 644 420 419 535
          538 358 447 537 540 362
          449 539 540 362 449 539
          542 366 451 541 524 376
          347 346 527 378 351 350
          527 378 351 350 530 380
          355 354 627 651 616 473
          629 652 618 477 629 652
          618 477 631 653 620 481
          405 322 376 474 407 326
          378 478 407 326 378 478
          409 330 380 482 306 307
          556 313 308 309 559 316
          308 309 559 316 310 311
          562 319 345 117 147 537
          349 118 148 539 349 118
          148 539 353 119 149 541
          414 297 296 411 418 301
          300 415 418 301 300 415
          422 305 304 419 621 586
          603 307 622 590 605 309
          622 590 605 309 623 594
          607 311 544 334 333 472
          546 338 337 476 546 338
          337 476 548 342 341 480
          348 347 375 453 352 351
          377 454 352 351 377 454
          356 355 379 455 531 505
          550 642 533 507 552 643
          533 507 552 643 535 509
          554 644 321 324 484 395
          325 328 487 399 325 328
          487 399 329 332 490 403
          598 597 323 406 600 599
          327 408 600 599 327 408
          602 601 331 410 447 448
          522 537 449 450 525 539
          449 450 525 539 451 452
          528 541 513 512 609 654
          517 516 611 655 517 516
          611 655 521 520 613 656
          604 603 586 585 606 605
          590 589 606 605 590 589
          608 607 594 593 463 462
          335 334 466 465 339 338
          466 465 339 338 469 468
          343 342 438 437 314 639
          442 441 317 640 442 441
          317 640 446 445 320 641
          436 383 382 437 440 387
          386 441 440 387 386 441
          444 391 390 445 393 657
          55 54 397 658 57 56
          397 658 57 56 401 659
          59 58 312 314 437 382
          315 317 441 386 315 317
          441 386 318 320 445 390
          346 345 537 522 350 349
          539 525 350 349 539 525
          354 353 541 528 498 335
          462 636 500 339 465 637
          500 339 465 637 502 343
          468 638 369 267 291 624
          371 268 292 625 371 268
          292 625 373 269 293 626
          358 538 493 359 362 540
          495 363 362 540 495 363
          366 542 497 367 394 453
          321 395 398 454 325 399
          398 454 325 399 402 455
          329 403 587 645 660 588
          591 646 661 592 591 646
          661 592 595 647 662 596
          448 543 523 522 450 545
          526 525 450 545 526 525
          452 547 529 528 472 333
          627 473 476 337 629 477
          476 337 629 477 480 341
          631 481 436 435 663 383
          440 439 664 387 440 439
          664 387 444 443 665 391
          411 296 532 531 415 300
          534 533 415 300 534 533
          419 304 536 535 609 425
          424 654 611 429 428 655
          611 429 428 655 613 433
          432 656 492 566 633 359
          494 569 634 363 494 569
          634 363 496 572 635 367
          393 394 54 397 398 56
          397 398 56 401 402 58
          413 414 645 417 418 646
          417 418 646 421 422 647
          628 627 651 630 629 652
          630 629 652 632 631 653
          117 348 345 118 352 349
          118 352 349 119 356 353
          565 642 412 568 643 416
          568 643 416 571 644 420
          457 295 464 459 299 467
          459 299 467 461 303 470
          463 464 505 466 467 507
          466 467 507 469 470 509
          499 336 628 501 340 630
          501 340 630 503 344 632
          384 636 648 388 637 649
          388 637 649 392 638 650
          492 369 370 494 371 372
          494 371 372 496 373 374
          473 474 615 477 478 617
          477 478 617 481 482 619
          381 382 312 385 386 315
          385 386 315 389 390 318
          471 472 544 475 476 546
          475 476 546 479 480 548
          582 574 575 583 577 578
          583 577 578 584 580 581
          312 306 294 315 308 298
          315 308 298 318 310 302
          524 376 474 527 378 478
          527 378 478 530 380 482
          396 393 657 400 397 658
          400 397 658 404 401 659
          483 395 396 486 399 400
          486 399 400 489 403 404
          357 448 543 361 450 545
          361 450 545 365 452 547
          485 573 484 488 576 487
          488 576 487 491 579 490
          621 586 587 622 590 591
          622 590 591 623 594 595
          324 597 323 328 599 327
          328 599 327 332 601 331
          603 307 556 605 309 559
          605 309 559 607 311 562
          610 425 426 612 429 430
          612 429 430 614 433 434
          360 633 359 364 634 363
          364 634 363 368 635 367
          598 610 406 600 612 408
          600 612 408 602 614 410
          574 597 573 577 599 576
          577 599 576 580 601 579
          672 276 273 666 673 277
          274 667 673 277 274 667
          674 278 275 668 675 672
          666 669 676 673 667 670
          676 673 667 670 677 674
          668 671 720 675 669 721
          722 676 670 723 722 676
          670 723 724 677 671 725
          678 279 276 672 679 280
          277 673 679 280 277 673
          680 281 278 674 726 678
          672 675 727 679 673 676
          727 679 673 676 728 680
          674 677 729 726 675 720
          730 727 676 722 730 727
          676 722 731 728 677 724
          681 282 279 678 682 283
          280 679 682 283 280 679
          683 284 281 680 732 681
          678 726 733 682 679 727
          733 682 679 727 734 683
          680 728 684 285 282 681
          685 286 283 682 685 286
          283 682 686 287 284 683
          735 684 681 732 736 685
          682 733 736 685 682 733
          737 686 683 734 687 288
          285 684 688 289 286 685
          688 289 286 685 689 290
          287 686 738 687 684 735
          739 688 685 736 739 688
          685 736 740 689 686 737
          690 291 288 687 691 292
          289 688 691 292 289 688
          692 293 290 689 741 690
          687 738 742 691 688 739
          742 691 688 739 743 692
          689 740 693 694 564 624
          695 696 567 625 695 696
          567 625 697 698 570 626
          699 700 701 702 703 704
          705 706 703 704 705 706
          707 708 709 710 702 701
          412 565 706 705 416 568
          706 705 416 568 710 709
          420 571 413 701 711 645
          417 705 712 646 417 705
          712 646 421 709 713 647
          690 741 744 714 691 742
          745 715 691 742 745 715
          692 743 746 716 714 699
          702 694 715 703 706 696
          715 703 706 696 716 707
          710 698 694 702 565 564
          696 706 568 567 696 706
          568 567 698 710 571 570
          747 717 748 749 750 718
          751 752 750 718 751 752
          753 719 754 755 699 744
          748 700 703 745 751 704
          703 745 751 704 707 746
          754 708 711 701 700 717
          712 705 704 718 712 705
          704 718 713 709 708 719
          714 694 693 690 715 696
          695 691 715 696 695 691
          716 698 697 692 291 690
          693 624 292 691 695 625
          292 691 695 625 293 692
          697 626 711 717 660 645
          712 718 661 646 712 718
          661 646 713 719 662 647
          714 699 744 715 703 745
          715 703 745 716 707 746
          748 700 717 751 704 718
          751 704 718 754 708 719
          413 701 412 417 705 416
          417 705 416 421 709 420
        </DataArray>
        <DataArray type="Int64" Name="offsets" format="ascii" RangeMin="8" RangeMax="3624">
          8 16 24 32 40 48
          56 64 72 80 88 96
          104 112 120 128 136 144
          152 160 168 176 184 192
          200 208 216 224 232 240
          248 256 264 272 280 288
          296 304 312 320 328 336
          344 352 360 368 376 384
          392 400 408 416 424 432
          440 448 456 464 472 480
          488 496 504 512 520 528
          536 544 552 560 568 576
          584 592 600 608 616 624
          632 640 648 656 664 672
          680 688 696 704 712 720
          728 736 744 752 760 768
          776 784 792 800 808 816
          824 832 840 848 856 864
          872 880 888 896 904 912
          920 928 936 944 952 960
          968 976 984 992 1000 1008
          1016 1024 1032 1040 1048 1056
          1064 1072 1080 1088 1096 1104
          1112 1120 1128 1136 1144 1152
          1160 1168 1176 1184 1192 1200
          1208 1216 1224 1232 1240 1248
          1256 1264 1272 1280 1288 1296
          1304 1312 1320 1328 1336 1344
          1352 1360 1368 1376 1384 1392
          1400 1408 1416 1424 1432 1440
          1448 1456 1464 1472 1480 1488
          1496 1504 1512 1520 1528 1536
          1544 1552 1560 1568 1576 1584
          1592 1600 1608 1616 1624 1632
          1640 1648 1656 1664 1672 1680
          1688 1696 1704 1712 1720 1728
          1736 1744 1752 1760 1768 1776
          1784 1792 1800 1808 1816 1824
          1832 1840 1848 1856 1864 1872
          1880 1888 1896 1904 1912 1920
          1928 1936 1944 1952 1960 1968
          1976 1984 1992 2000 2008 2016
          2024 2032 2040 2048 2056 2064
          2072 2080 2088 2096 2104 2112
          2120 2128 2136 2144 2152 2160
          2168 2176 2184 2192 2200 2208
          2216 2224 2232 2240 2248 2256
          2264 2272 2280 2288 2296 2304
          2312 2320 2328 2336 2344 2352
          2360 2368 2376 2384 2392 2400
          2408 2416 2424 2432 2440 2448
          2456 2464 2472 2480 2488 2496
          2504 2512 2520 2528 2536 2544
          2552 2560 2568 2576 2584 2592
          2600 2608 2616 2624 2632 2640
          2648 2656 2664 2672 2680 2688
          2696 2704 2712 2720 2728 2736
          2744 2752 2760 2768 2776 2784
          2792 2800 2808 2816 2824 2832
          2838 2844 2850 2856 2862 2868
          2874 2880 2886 2892 2898 2904
          2910 2916 2922 2928 2934 2940
          2946 2952 2958 2964 2970 2976
          2982 2988 2994 3000 3006 3012
          3018 3024 3030 3036 3042 3048
          3054 3060 3066 3072 3078 3084
          3090 3096 3102 3108 3114 3120
          3126 3132 3138 3144 3150 3156
          3164 3172 3180 3188 3196 3204
          3212 3220 3228 3236 3244 3252
          3260 3268 3276 3284 3292 3300
          3308 3316 3324 3332 3340 3348
          3356 3364 3372 3380 3388 3396
          3404 3412 3420 3428 3436 3444
          3452 3460 3468 3476 3484 3492
          3500 3508 3516 3524 3532 3540
          3548 3556 3564 3572 3580 3588
          3594 3600 3606 3612 3618 3624
        </DataArray>
        <DataArray type="UInt8" Name="types" format="ascii" RangeMin="12" RangeMax="13">
          12 12 12 12 12 12
          12 12 12 12 12 12
          12 12 12 12 12 12
          12 12 12 12 12 12
          12 12 12 12 12 12
          12 12 12 12 12 12
          12 12 12 12 12 12
          12 12 12 12 12 12
          12 12 12 12 12 12
          12 12 12 12 12 12
          12 12 12 12 12 12
          12 12 12 12 12 12
          12 12 12 12 12 12
          12 12 12 12 12 12
          12 12 12 12 12 12
          12 12 12 12 12 12
          12 12 12 12 12 12
          12 12 12 12 12 12
          12 12 12 12 12 12
          12 12 12 12 12 12
          12 12 12 12 12 12
          12 12 12 12 12 12
          12 12 12 12 12 12
          12 12 12 12 12 12
          12 12 12 12 12 12
          12 12 12 12 12 12
          12 12 12 12 12 12
          12 12 12 12 12 12
          12 12 12 12 12 12
          12 12 12 12 12 12
          12 12 12 12 12 12
          12 12 12 12 12 12
          12 12 12 12 12 12
          12 12 12 12 12 12
          12 12 12 12 12 12
          12 12 12 12 12 12
          12 12 12 12 12 12
          12 12 12 12 12 12
          12 12 12 12 12 12
          12 12 12 12 12 12
          12 12 12 12 12 12
          12 12 12 12 12 12
          12 12 12 12 12 12
          12 12 12 12 12 12
          12 12 12 12 12 12
          12 12 12 12 12 12
          12 12 12 12 12 12
          12 12 12 12 12 12
          12 12 12 12 12 12
          12 12 12 12 12 12
          12 12 12 12 12 12
          12 12 12 12 12 12
          12 12 12 12 12 12
          12 12 12 12 12 12
          12 12 12 12 12 12
          12 12 12 12 12 12
          12 12 12 12 12 12
          12 12 12 12 12 12
          12 12 12 12 12 12
          13 13 13 13 13 13
          13 13 13 13 13 13
          13 13 13 13 13 13
          13 13 13 13 13 13
          13 13 13 13 13 13
          13 13 13 13 13 13
          13 13 13 13 13 13
          13 13 13 13 13 13
          13 13 13 13 13 13
          12 12 12 12 12 12
          12 12 12 12 12 12
          12 12 12 12 12 12
          12 12 12 12 12 12
          12 12 12 12 12 12
          12 12 12 12 12 12
          12 12 12 12 12 12
          12 12 12 12 12 12
          12 12 12 12 12 12
          13 13 13 13 13 13
        </DataArray>
      </Cells>
    </Piece>
  </UnstructuredGrid>
</VTKFile>
