<?xml version="1.0"?>
<VTKFile type="UnstructuredGrid" version="0.1" byte_order="LittleEndian" header_type="UInt32" compressor="vtkZLibDataCompressor">
  <UnstructuredGrid>
    <Piece NumberOfPoints="756" NumberOfCells="468">
      <PointData>
        <DataArray type="Int32" Name="libmesh_node_id" format="ascii" RangeMin="120" RangeMax="2168">
          120 121 122 123 124 125
          126 127 128 129 130 131
          132 133 134 135 136 137
          138 139 140 141 142 143
          144 145 146 147 148 149
          150 151 152 153 154 155
          156 157 158 159 160 161
          162 163 164 165 166 167
          168 169 170 171 172 173
          174 175 176 177 178 179
          240 241 242 243 244 245
          246 247 248 249 250 251
          252 253 254 255 256 257
          258 259 260 261 262 263
          264 265 266 267 268 269
          330 331 332 333 334 335
          336 337 338 339 340 341
          342 343 344 345 346 347
          348 349 350 351 352 353
          354 355 356 357 358 359
          420 421 422 423 424 425
          426 427 428 429 430 431
          432 433 434 435 436 437
          438 439 440 441 442 443
          444 445 446 447 448 449
          510 511 512 513 514 515
          516 517 518 519 520 521
          522 523 524 525 526 527
          528 529 530 531 532 533
          534 535 536 537 538 539
          600 601 602 603 604 605
          606 607 608 609 610 611
          612 613 614 615 616 617
          618 619 620 621 622 623
          624 625 626 627 628 629
          690 691 692 693 694 695
          696 697 698 699 700 701
          702 703 704 705 706 707
          708 709 710 711 712 713
          714 715 716 717 718 719
          780 781 782 783 784 785
          786 787 788 789 790 791
          792 793 794 795 796 797
          798 799 800 801 802 803
          804 805 806 807 808 809
          876 877 878 879 880 881
          882 883 884 885 886 887
          888 889 890 891 892 893
          894 895 896 897 898 899
          900 901 902 903 904 905
          906 907 908 909 910 911
          912 913 914 915 916 917
          918 919 920 921 922 923
          924 925 926 927 928 929
          930 931 932 933 934 935
          936 937 938 939 940 941
          942 943 944 945 946 947
          948 949 950 951 952 953
          954 955 956 957 958 959
          960 961 962 963 964 965
          966 967 968 969 970 971
          972 973 974 975 976 977
          978 979 980 981 982 983
          984 985 986 987 988 989
          990 991 992 993 994 995
          996 997 998 999 1000 1001
          1002 1003 1004 1005 1006 1007
          1008 1009 1010 1011 1012 1013
          1014 1015 1016 1017 1018 1019
          1020 1021 1022 1023 1024 1025
          1026 1027 1028 1029 1030 1031
          1032 1033 1034 1035 1036 1037
          1038 1039 1040 1041 1042 1043
          1044 1045 1046 1047 1048 1049
          1050 1051 1052 1053 1054 1055
          1056 1057 1058 1059 1060 1061
          1062 1063 1064 1065 1066 1067
          1068 1069 1070 1071 1072 1073
          1074 1075 1076 1077 1078 1079
          1080 1081 1082 1083 1084 1085
          1086 1087 1088 1089 1090 1091
          1092 1093 1094 1095 1096 1097
          1098 1099 1100 1101 1102 1103
          1104 1105 1106 1107 1108 1109
          1110 1111 1112 1113 1114 1115
          1116 1117 1118 1119 1120 1121
          1122 1123 1124 1125 1126 1127
          1128 1129 1130 1131 1132 1133
          1134 1135 1136 1137 1138 1139
          1140 1141 1142 1143 1144 1145
          1146 1147 1148 1149 1150 1151
          1152 1153 1154 1155 1156 1157
          1158 1159 1160 1161 1162 1163
          1164 1165 1166 1167 1168 1169
          1170 1171 1172 1173 1174 1175
          1176 1177 1178 1179 1180 1181
          1182 1183 1184 1185 1186 1187
          1188 1189 1190 1191 1192 1193
          1194 1195 1196 1197 1198 1199
          1200 1201 1202 1203 1204 1205
          1206 1207 1208 1209 1210 1211
          1212 1213 1214 1215 1216 1217
          1218 1219 1220 1221 1222 1223
          1224 1225 1226 1227 1228 1229
          1230 1231 1232 1233 1234 1235
          1236 1237 1238 1239 1240 1241
          1242 1243 1244 1245 1246 1247
          1248 1249 1250 1251 1252 1253
          1254 1255 1256 1257 1258 1259
          1260 1261 1262 1263 1264 1265
          1266 1267 1268 1269 1270 1271
          1893 1894 1895 1896 1897 1898
          1920 1921 1922 1923 1924 1925
          1947 1948 1949 1974 1975 1976
          2001 2002 2003 2028 2029 2030
          2055 2056 2057 2112 2113 2114
          2115 2116 2117 2124 2125 2126
          2127 2128 2129 2130 2131 2132
          2133 2134 2135 2148 2149 2150
          2151 2152 2153 2164 2166 2168
          1926 1899 1927 1900 1928 1901
          1950 1951 1952 1953 1954 1955
          1977 1978 1979 2004 2005 2006
          2031 2032 2033 2058 2059 2060
          2142 2144 2146 2163 2143 2096
          2165 2145 2100 2167 2147 2104
        </DataArray>
        <DataArray type="Float64" Name="resid_x" format="ascii" RangeMin="-19.45815354445734" RangeMax="0.02377560493246836">
          0.000007289835369128639 -8.413414301766718 -0.000021270357747127377 -16.839875280167764 -0.000014427511442427488 -8.419709908095212
          0.000015493870547445 -8.38971814096864 -0.0000026693644867847865 -16.836630748703595 -0.000011246966092670618 -8.444757353948964
          0.000017309254261022033 -8.395812267834028 0.0006143068950565933 -16.970838866450684 0.00004292888150558838 -8.624328597084503
          0.00016718060079146113 -8.557738340586702 0.0023945205167725803 -17.401723613562503 -0.00011108125188030726 -9.04753281540912
          0.00010369768628759601 -8.755685642351295 0.00011015187971796792 -17.7332521460265 -0.0014985224469832303 -9.399317150851784
          0.0000624012509309324 -8.904576981163531 0.0001254152441534373 -17.981292284589976 -0.0018238301671642532 -9.607368188245164
          0.00007857696259883085 -9.097706722906153 0.00012910829983781014 -18.277458108733576 -0.0014651473912739021 -9.6605345334353
          0.00006211497603825222 -9.32940722017188 0.00010064821427135939 -18.619025523800524 0.0002473748019076183 -9.511424507102284
          0.0009135236194754981 -9.795900207771133 0.001326264974023772 -19.45815354445734 0.005647572449907212 -9.046330365069487
          0.002976314981219308 -6.108988877301377 0.005071135565695051 -12.048932137075388 0.010644592532203678 -4.9188189534138855
          0.00009548116854762867 -0.000059734997577720605 9.497733444163714e-7 0.000018620473630548418 0.00011532139867220792 0.00019253089863369155
          0.000009179677385340312 -0.0006778541906093949 0.000237514372616765 -0.00005673015920759639 -0.002271362277300071 -0.0025226595339695734
          -0.00010830551829332791 0.00005929015222516654 -0.0028535935351481356 -0.00014331120032107236 0.000006122382399276205 -0.003413596890581516
          -0.00024027289349515257 -0.00013233210740004608 -0.0026421683192596745 -0.00029316329288953114 -0.00019170793387690566 0.0006744438736774327
          0.0002848488819449102 0.0005647368129695352 0.009725083034381576 0.0025112521293702006 0.004640102435535809 0.017790705368481485
          0.00010440283969881392 0.0007323903544387278 0.0020859514589028905 0.0000022624601863086014 0.0021883446968384845 0.007614580430732154
          -0.0000013669274965266709 0.00011630987452360131 -0.002137830667747309 0.00005375683108521656 0.00002994797925559567 -0.0028043849332144433
          -0.000014534314740188847 0.0001581328474431487 -0.004284589495077817 0.000044990206339079464 0.0003528837012218844 -0.004704358568302425
          0.000004429085310952985 0.0002985852961829849 -0.0033588583251376036 0.0000057415604581834145 0.00024230647277878603 0.0012455891995069024
          0.0007537525328320527 0.0014136339190926606 0.012834565512054308 0.003046503441235811 0.0055814839292075355 0.02377560493246836
          0.000021837904276011955 0.0004334779737940053 -0.002228575846634051 0.00005044683353272461 -0.0018326063320159847 -0.009085985318730394
          0.000005619584537264188 -0.000006200443746884332 -0.00245480456716507 -0.00012563386116237751 0.00001735233770983058 -0.004060105647101686
          -0.0000017154545846054248 0.00013319241156573014 -0.00549876803856808 0.00008021452025364084 0.00044123539953933033 -0.0055034825512221275
          -0.000012262080573144374 0.00033548789611881347 -0.003407356625560354 -0.0001511688631099517 0.00003969104543788404 0.0021276058378694174
          0.0002964767404973756 0.0006500310112755869 0.014378017101434715 0.00168811789240908 0.0030904582178274964 0.02260763225175877
          0.00020735753041112304 -0.00040454476944873363 -0.0012540458399268317 0.0000903145763793134 -0.00005517276718514097 -0.002242635792383929
          0.00002502190295228246 0.00040320524151304937 -0.003624952054192221 0.00017753178100665679 0.00043136943125254845 -0.005270741047239902
          0.00006621410019036489 0.00035765379397822983 -0.006268244254494348 -0.000005255645148416477 0.0003877632608819681 -0.005726985029496312
          -0.00003659944545209015 0.00028660156859405816 -0.00287756360280067 -0.00021691484454322563 0.0000063009268975733335 0.0034679994965474137
          0.000033425415186805196 0.0003362797373940296 0.015284598898249513 0.00015070409496353854 0.000583051029479531 0.019834529988465688
          -0.000162126134448215 -0.00039854321290633266 -0.0018617835756318257 -0.00008980766027644194 0.00004755490323837819 -0.003600905157139067
          -0.000050537571453901364 0.00008118079978025605 -0.0055224632601547086 -0.00006477805930149572 0.00003600454798569075 -0.006588869716850354
          -0.000010135642013686663 0.0003055223639556459 -0.006703740214351939 -0.00008174458957554975 0.00016929513416652497 -0.005541051522609308
          -0.00011054379889863242 0.00024849389829562085 -0.001718523556922591 -0.00006293377798183286 0.0002897999847348842 0.005081873657093006
          0.00006027391513541147 0.0006297889254813782 0.01589896793164236 0.0000793318081068195 0.0003778481893401686 0.016919111474098192
          0.00007662551770781789 0.00024415051817694433 -0.0031165003367776833 -0.00016604255539842683 0.000097297822680531 -0.0047424677347098765
          -0.00044482168224391216 0.00019992908415478183 -0.0061009389125636915 -0.00033185875551833277 0.00011910751093324734 -0.0068089800487198815
          -0.00032506203351978513 -0.00008912566469554406 -0.006678243915589022 -0.00015228016322765825 0.00006870102606981732 -0.0046526207952117815
          -0.00006798632626647816 0.00028283373894311126 -0.00022988189947703574 0.00029198200573876676 0.0008894495432327787 0.006777301516566858
          0.0002903434330177035 0.0012003182769513288 0.01592194982038375 -0.0002789862739340787 -0.00008429362184592115 0.01398241136663314
          -0.0007098948908215164 -0.0010369399249672284 -0.004824337389273126 -0.0010792448267640253 -0.0015654304642040984 -0.006662073106202371
          -0.0007134875569168031 -0.0006990569704914407 -0.007058682979486974 -0.0005270350501271892 -0.000639073807451318 -0.0072729096208119515
          -0.0005834597647851325 -0.0006816293665057316 -0.006331132715760468 -0.0003881897818684976 -0.0003868582083503824 -0.003619759832947267
          0.00007421421268105632 0.000486179821130861 0.001463763979271171 0.0006815711211629605 0.0019123541954062517 0.008840304842348878
          0.0003151458660504147 0.001925077759905136 0.01634678305178916 -0.001225921958568632 -0.0016165749498096016 0.011277877022900062
          0.00001052695566983175 -0.0005643604396965429 -0.006774360269088842 0.000009583920160594062 -0.000514699795298057 -0.005558008581608043
          0.0000071174754099345705 0.00007260466789471565 -0.0030152893006141213 -0.00039294089243746555 -0.00031105103446993354 0.0002014187449099758
          -0.0006887005537548063 -0.0005667214517730557 0.0049956097132124455 -0.0011208042328672008 -0.0012620035491499593 0.011035725558548037
          -0.0014249615687589312 -0.0019253152460239065 0.017537200322710333 -0.001343082157174269 -0.0025086413063721835 0.011389605711638495
          -0.0012151741590967022 -0.0004521124309868618 -0.0029561342722495276 -0.0026587608468368606 -0.0026328557183484536 -0.003744730864444823
          -0.006037179020129707 -0.005354569770969514 -0.0006016867053675462 -0.0010522151148982528 -0.0029374946781985656 -0.002351573440283472
          -0.001341526567391893 -0.00231342964560822 -0.0030516670099428322 -0.004721051009889554 -0.0021891691742924463 -0.0024332602573302123
          -0.00318378142804826 -0.0012451699892826271 -0.002356892732729543 -0.005995493497942761 -0.0026243526476593393 -0.005092620508426689
          -0.0017600412084222417 -0.0010709159811434638 -0.002926033313881013 0.00013916983148698492 0.0025982235735136916 -0.0035318701488916693
          0.00007701943663093735 0.0005251103997138129 0.0033449791427213604 -0.004659837033023195 0.0002973804850135986 0.0063821112977677785
          0.011685479229987306 0.004900937150408402 0.0034202539947902344 -0.002571967174720746 -0.0016975280116137137 -0.0022314049337606168
          -0.0036637488451769784 -0.0035945069852421074 -0.006194753140695397 -0.003319944559142418 -0.0023059138666514656 0.012699845491800588
          0.008253990485877827 0.007785259526311594 0.005533089166614796 0.0006933815322811565 0.0019940468198718087 -0.0011279374413775134
          -0.000945707711567545 0.00004321330391321432 0.0027764944990380513 -0.001732034256440862 -0.0018454915224519475 0.009107800759625029
          0.01007752356043956 0.0066943853966796585 0.007160511707337447 -0.0006732322206344232 0.00044234458161951373 -0.001835531153538017
          -0.0008581069641545036 -0.0030546821708239413 -0.00010109699911675651 -0.003413703676679758 -0.0018926425532698743 0.0045035228853271825
          0.0066143526980988465 0.005963081764210398 0.005614317968893667 -0.001178647965356383 -0.002305775473527394 -0.0025605426474406556
          -0.004477999741759886 0.002486829086412845 0.003108017947876185 0.0007334330426338465 -0.0008187268225158251 0.0003330001804161542
          -0.0010585411234178554 0.004398584126183991 0.008575517730814108 -0.0024713233082293007 -0.0005532105550498899 0.00028732083244187995
          -0.0006411502276425507 -0.004972116612672359 -0.0014863592868364283 -0.00031350049539981186 -0.0015610696553837733 -0.0031528251452033473
          -0.0010355984202063823 -0.0008733781611232755 -0.0016060768708279216 -0.00009079398423317286 0.0012863175751136602 0.0007448751139307319
          -1.6258872187249638 -0.00024604545504025577 0.0018057865495841874 0.0014964446833664047 -3.1391626375457276 0.0007703180745027294
          0.00435496235162125 0.0036543236127288825 -1.1831574873643436 0.0012234119130849486 -0.002311690154385232 0.0003878837724513584
          -0.0026270207498184164 0.006955597335113972 0.012639258052888925 -0.0015646328213094751 -0.0004951495443030751 -0.0017114722974232444
          -0.0038497011948197546 -0.003691045447054009 -0.0011159284992600105 -0.00401238804885623 -0.008243768527184892 -0.0014526590479750912
          0.00023417029208006035 -0.002052502961136793 -0.004245858341715536 0.005577729321652014 -0.0050110417505876415 0.011510199409037802
          0.014234445020033015 0.00567294518226702 -0.01288440636709931 0.01787535497132675 0.023448252739211473 0.0027322451011912996
          -0.0052331437756704124 0.01147679461023654 0.021875257204304388 0.00025355389012377775 -0.00006829742553805113 -0.0022262721534414692
          -0.0007996708998355279 0.00028073861180731574 0.0001516650414653286 -0.004911561322242158 -0.0017823416764739114 -0.0003608270055721341
          0.0011653660510411723 -0.002650119972775991 -0.000985050277777684 -0.0012986160001846603 -0.0014786116766866142 -0.002432226516940972
          -0.002598054004029793 0.0035097252281108826 0.006426099166049637 0.0008182331817072619 0.001245380177792077 0.010367707504191803
          -0.005300217316144551 -0.0036351034912124325 -0.010937503025624129 -0.006135344290449485 -0.006374629834324297 -0.005531983842153726
          -0.0014793994083951434 -0.0021116422913289856 -0.0018786167805485698 -0.004140414168246842 -0.005736946840075752 -0.005066404405326241
          -0.0022352311169395733 -0.0018812236624341505 -0.0031211673701112552 -0.00047159214963898854 -0.0018476615381582406 0.00012873521287604106
          -0.001436916512838532 -0.0001918926592204273 -0.00244060340396636 -0.0012868588208330145 -0.0019350834664561833 0.01188068008234272
          0.013132394241999412 0.01954928929577715 0.019818671474245014 -1.309681554152092 0.0005908587407056354 -1.519975042605866
          -2.622275616937813 0.0012687542198184798 -2.9265256026799062 -1.0307282633255546 0.0022816442166679884 -1.135023612074825
          -0.0010064504334380275 -0.0017545414141990623 -0.0021902895930035783 -0.003345003083607634 0.004815319476298763 0.0056273894094940324
          -0.003476837826151047 -0.003681714040546624 -0.002194815832860686 -0.007168674954668053 0.0016724226827820043 -0.001651810817131727
          -0.000859137938427984 -0.0014970860953870957 -0.0023901413367278523 -0.0032253370619475183 0.003104374758116313 0.004901977489963377
          -1.3308864911753338 0.0008892631627447356 0.002037494515838248 -1.5479661773204991 -2.602026566772664 0.0009322756323427717
          0.0029858282072446687 -2.9884752571640787 -1.1906892936209528 0.0015875055777347935 0.0031956400340896196 -1.30171327474046
          -0.0009672183043722971 -0.0008322091373109686 -0.0012698812544941207 -0.001985372727360102 -0.0016854521833442604 -0.0033963813643019813
          0.008650276984924266 0.010571758796229291 0.0073730788941389624 -0.0011093724044687267 -0.0038258955272010287 -0.0022497585788484736
          -0.007249180000023836 0.00038079850769989765 -0.0030926472310388586 -0.0016820814901441494 -0.0010882729109538136 -0.0035121751406610446
          -0.0023242853488336657 0.011558571530265072 0.008016163296953982 -0.00248865148384032 -0.005914668125663547 -0.005619011981076422
          -0.011595872529938545 0.011530446965953664 0.006118633203794466 -0.003424505962103974 -0.0003799916601168185 -0.006642274595520581
          -0.0012222375836564714 0.0014199556952887438 0.003063975944214481 -0.00006671627683225989 -0.0033357379148833376 -0.0005894748092346788
          -0.00041867319294131705 -0.006303349309279748 -0.0011802636082557244 -0.00024608472213557414 -0.002847620521019961 -0.0005061243239724983
          -0.0002688534301678036 -0.00017471792801582176 -0.002767122793630228 -0.0010382026528246158 -0.0006838357180620758 -0.006316781893591972
          0.0024984766771041222 0.0018862628529389136 -0.0004644406197670259 -0.0007612909776069099 -0.00014576555153861248 -1.3877827916527448
          -0.0013033929795591148 -0.00008002876185353447 -2.7082763359615036 0.0006965418837355519 0.0011111089453840206 -1.085854656253645
          -1.2790410980227787 -2.5329806645022375 -1.130688618445908 -0.000027043209462951356 -0.0002931579643806123 -0.0038072039842879796
          -0.0016928996971500273 -0.00024448197712064433 -0.0008097051575215244 -0.007734042838948574 -0.0034395297318794123 -0.00014532109855493192
          -0.000333495907755936 -0.003909688279852774 -0.0017250754419461216 -0.00039616724671831527 0.0017722429606259922 -0.001694349857715105
          0.002388093262333274 0.0023101512541719993 0.0055454181769164085 -0.0021520069982502443 -0.0022480840806578875 -0.004182117131338002
          -0.004440759153271391 -0.0018743628743450869 -0.0020723745081675828 0.0015904109537585587 0.0024076987266238026 0.0029259776600985
          0.002898434213422091 0.004624009745040403 0.009815587601358366 0.012051066414379807 -0.01481152099901717 0.019333144118773404
          -0.020189523540052434 0.02213900178404904 0.01111322580158225 -0.0022533521065068937 -0.004244485388746416 -0.0019655543571717726
          -0.0024934509771527003 -0.004382516336503772 0.0013413115222404848 -0.01185125397754122 0.002785860472653723 -0.019732243026076124
          0.0001619378838289276 0.004625462720170392 0.002849438257878756 -0.003974305605609296 -0.007770624557024375 -0.001786139475267401
          -0.004389512093057546 -0.008387427593287256 -0.00033665312363716227 -0.0018133724693640413 -0.0036267958797792377 -0.001600964322791238
          -0.0031707069141964084 -0.0061703884059873815 -0.0017234672335553203 -0.0015902692477159919 -0.0032243819735381374 -0.0016083411565189776
          -0.0007218087754134739 -0.002017763941754236 -0.0025474001185273876 0.010911552969875338 0.01531984622691862 0.014118267305513132
          -1.103774581364311 -2.122698296057852 -0.9354823312723534 -1.527348122345078 -2.98564919637036 -1.1235317484455738
          -0.003139359762153515 -0.005985216545768557 -0.002854380168967996 -0.0025094187079359783 -0.004758983310105769 -0.0021271198670900424
          -0.0004771821063638271 -0.0006214775123218885 -0.0015512850448793358 -0.002894909986868477 -0.004094553512134169 -0.0010760889373990778
          -0.0003677380986175649 -0.00014720115098398878 0.0017265080799990784 -0.0030349004871643714 -0.004176794103313952 0.0018924991343132191
          -0.002367482357771067 -0.0027697810769797826 0.004295255144421084 -0.00346966583094499 -0.004357463973825304 0.007080010147292093
          -0.004258938085766495 -0.004565575631371388 0.010028064155153338 -0.005502397880519538 -0.0060440881396361945 0.011138637431026943
          -0.00621376528437545 -0.009547763600969539 0.00438815214702859 -0.00195496842600118 -0.0015683973409721108 -0.002392386024601567
          -0.002368035785701772 0.0006878022425991226 0.0011021162825626263 -0.0036947145964153494 -0.007005203891608414 -0.004425300095461271
          -0.0024546385410084692 -0.007528797830291201 -0.014007718812586667 -0.008406617294814955 -0.004072624242195566 -0.003588616669676692
          -0.007160877905322938 -0.004014960033089876 -0.001407510890483188 -0.0033820112417634607 -0.004752176215198856 -0.002708820252708577
          -0.004560545485115197 -0.007193385249263606 -0.0021068942019055736 -0.009326811571036264 -0.01796132384958088 -0.009658606523027746
          -0.0006404924148455393 -0.0020568368855045094 -0.0030816362604539904 -0.005188305554160166 0.002679985901233195 -0.0004807890320908115
          -0.003557416728283691 -0.004380844305879705 0.005070137388743845 -0.00019253559306520174 -0.000689311837628992 0.0055331977758994455
          -0.002277657201599226 -0.004612851545978458 0.007055216630289962 -0.0028560104339465653 -0.005797166475879578 0.007600439191319808
          -0.004435128514456821 -0.009103739073019312 0.005200805444003365 -0.00580055508822408 -0.011366951488565036 -0.001578535621598931
          -0.00797163302991688 -0.012018353454475772 -0.005544029440700093 -0.006829930490135361 -0.009953837135362242 -0.0019159989903130281
          -0.012269967097883416 -0.015806057398330076 -0.005836108906606796 -0.007644291988518681 -0.008425740385916924 -0.005926235582816908
        </DataArray>
        <DataArray type="Float64" Name="resid_y" format="ascii" RangeMin="-0.02917375526000221" RangeMax="0.01981348544285519">
          -0.000018840915640055966 0.00005782816255070489 -0.0000733045942180599 0.00018993821154222879 -0.000042582100623717034 0.00007356876724752548
          0.000046283686963799475 0.000009408714999326051 0.00007442146423389251 -0.000022094393113875066 0.000023554481245718906 -0.00006322364833480365
          0.00006731501071405299 -0.00001915780923386623 -0.00010729818373703126 -0.0001229812195480684 -0.00004966930466025754 -0.00010326272308733286
          0.00008552974692997706 -0.000009111689748708685 0.00044367711252954467 -0.00012564963636965687 -0.00008752321152344367 -0.00022166127563266746
          0.00014876836489643996 -0.0000453452970450019 0.0005852044514554067 -0.000054500576576188564 -0.00041747508054940097 -0.00036892623546963543
          0.00020619288886858378 0.00014355113322134239 0.0007371466982020736 0.0003966233925736251 -0.0011672431191359633 -0.0005766550562491535
          0.00028022157737972453 0.00020516464158354397 0.0009549590175561562 0.0006252062518186663 -0.0023337760090884063 -0.0011359752552375646
          0.00026126821147004486 0.0001992736456293831 0.001103371508801354 0.0007493477383624381 -0.004044141772947651 -0.0019965577418922797
          -0.0005528158821440088 -0.00026224827882026513 -0.00017840853528894307 0.00015058464990441722 -0.00719601467542097 -0.003621434954550584
          -0.0006396044320417515 -0.0006660234585911251 -0.0007187274950412603 -0.000964977792054067 -0.007113427013941603 -0.003484309344724601
          -0.000036901472848877015 -0.00014272479475574418 -0.000038387712390119955 0.000035246004660231464 0.000031609646718611106 -0.00012032081471036182
          0.00004596716394832806 0.00006692503245241122 -0.000014548795163937811 0.00014728009616064158 0.0003398409348429332 -0.00020237643747719747
          0.00028457924030475534 0.0005846708582001314 -0.00034246857193948044 0.00036616565738614715 0.0008525058999705182 -0.0008855034208795076
          0.0005100823309805991 0.0012344332155798665 -0.0018012860027628586 0.0006566012086486883 0.0016022332815581741 -0.003074500363884569
          0.0002379517586983959 0.0008986914287686387 -0.005230198332409175 0.00029941270462291447 0.0008279389121367275 -0.0053879572577570575
          0.00004074789821248426 -0.00019579641718986407 -0.0009895446385739248 0.00005995419491305887 0.0003537639662246489 0.0007781625730468866
          0.000043656981345563395 0.00010402885307065485 -0.00001614879624198262 0.00011858020973021591 0.0002310118251549198 -0.00011560203102786715
          0.00017607634530414362 0.000464052765472997 -0.0002269846586868407 0.000318689239242248 0.0007577280545918996 -0.0005751886567127995
          0.00046448533018705884 0.0010631208397195446 -0.0012923937656797446 0.0005232624719064827 0.0011549409077922235 -0.0022928348224189876
          0.0010582982339504832 0.0022689661154273177 -0.0031196324152113486 0.002035535761289342 0.004169666190308341 -0.0023759507573820338
          0.000007612832159858973 -0.0001303158480218669 -0.0003121843679265712 0.000040631164271762166 0.0002789198612035762 0.0003167033417842552
          0.00006778023719150594 0.00030548199972756096 0.00005579799322472101 0.00012874167291627991 0.0003578849820445387 0.00006509239068480666
          0.0001649510010358346 0.0004879080440418973 0.00000926144318511013 0.00032548185017042264 0.0007553171357149724 -0.00023711105927864962
          0.0005222398211757184 0.0010340094683897183 -0.0007039167846966399 0.0005523444754422235 0.0010710520837061421 -0.0013940447691627444
          0.001417691523240061 0.002702907296128293 -0.001532298707412616 0.0037830532870209987 0.007090155478872706 0.0009091974219194165
          0.0000055830199763712285 0.0000011057518527479715 -0.00005662916773596649 0.00007065148707557922 0.00017990065380062321 0.0000448145260903976
          0.0000752812950756826 0.0002827220180329493 0.00008422275476345498 0.00006746806127866725 0.0002548834893354619 0.00018010998295024672
          0.00012029884000396007 0.00040246312331994674 0.00017898446065629792 0.00031848547621818324 0.0006152613507306726 0.000036341404099290986
          0.0005588511055149847 0.0009707897475031424 -0.00022721523436375346 0.0006715517596513898 0.0011000798919361954 -0.0006882009257725419
          0.0016073736357074542 0.0028726241656748808 -0.00019447547710071955 0.0025134940631217073 0.004735869515133384 0.0016669003182640807
          0.0000740670533145582 0.00015734877027323568 0.000002520209488210412 0.00007115532262089164 0.0002274283237354755 0.00010285990220545993
          0.000027332548193273465 0.00023404372083490887 0.0001953207063114179 0.00003047070778435662 0.00019626219756777724 0.0003282161016776898
          0.00008181067179557217 0.00024203658418922927 0.00032188033360780466 0.0002955781292403037 0.000472480160334951 0.00025649947826029973
          0.0006032492222777519 0.0009049493628439376 0.00004720059728927084 0.0008542902346763137 0.001242742205848163 -0.00020720069639154626
          0.0018977664413901418 0.0032574451064237286 0.0008567315366380113 0.0022580488607375215 0.004006132572232091 0.002260903958510585
          0.00006247480128732108 0.00020024374098648323 0.00010531052761447723 0.000020587498945758703 0.00021601897582254484 0.0001792392362706119
          -0.000022419703959127187 0.00007807376450903042 0.0002527521426268116 -0.00006874603369528762 -0.00007434884988376592 0.00037805133891573306
          0.000013125156305957009 0.00001363862496007312 0.00042229071697083564 0.00024257061775667665 0.00025358720531958034 0.0003033157218264859
          0.0006833687800320704 0.0009147319363718709 0.00015397550322601965 0.001199266215686945 0.0016593207460048748 0.00004622735756005386
          0.002396931412477682 0.003912020021558715 0.0013471725953088654 0.0026231982255257302 0.0047282231612267855 0.0028069809392795575
          0.00005066789782032233 0.00020098072015933832 0.00012708207669837046 0.00009465504468758601 0.0002822190471316599 0.00035625067893813034
          -0.00004721444246502671 -0.00006161765140455522 0.00048276977754102557 -0.0001544390460987699 -0.00036939890536378736 0.0005457064007738932
          -0.00006108158365419891 -0.0003058551725040326 0.0004922330782285989 0.00021509298682862582 -0.000007785069907728648 0.00023075778521761126
          0.0007543278119232569 0.0009146166296894707 0.000007511276177374349 0.0016969388909996441 0.002551686429663587 0.00009228600298403014
          0.0026866994860008098 0.004691048718613228 0.0012486152348147317 0.001074608382376968 0.0019284012500482839 0.000972729415054871
          0.000291983187962197 0.0006519566299844071 -0.00028076680943633914 0.0005498219990476283 0.0006159355053614313 -0.0004999801457277187
          0.00019571968080878133 -0.00034066386502984436 -0.0008643405188153985 0.00012993479923129048 -0.0005708221312948347 -0.0007892604412960691
          0.00021803804079318506 -0.0005744608830521997 -0.0002820200669616385 0.0008337901730460784 0.000460842830165592 0.0013668402235734178
          0.0026339184730728715 0.00423974850663944 0.005285039242710565 0.0027117138189144407 0.004489139181198976 0.004727115640766999
          -0.0002629558248560533 0.0007654220607044709 0.0006698047015806785 -0.0003272605036273857 0.0003293224415255244 0.0015074463331373744
          0.0015713554923059148 -0.00036828778159070374 -0.00033667254435661154 -0.003288172184713417 0.0008930264279148406 0.0003148619651712481
          0.0012046635559837884 0.00044746761835981735 0.0019818099467667633 0.0008734362927729049 0.0003125640301517435 0.0003904059671100829
          0.001304562303193688 0.0002499761963291238 0.0002523831229553457 0.0026420129140699994 0.00048635398488406506 0.00027091305393613097
          0.0023195903369845096 0.00012438002030831785 -0.00015044444131165347 -0.0002511691406634764 -0.0007244568360619263 0.006252051953524712
          -0.0008140674618647425 0.000057625970154240314 -0.00010284949462632809 0.010532676086157738 -0.0011567591526124854 -0.0011984109555674416
          -0.0008073155961366707 0.003231484617311639 -0.0012637377861349497 0.000018307891327951076 -0.00007232827271355657 0.0011852403237048864
          0.0018071260907793138 -0.0006869696901483646 -0.0005807394978052383 0.007659341709796499 0.0028720883235747174 0.002077253225924336
          0.0041970867855231075 0.013712003464370626 0.0027764747026948096 0.0014356097164869297 0.0019782105802976235 0.0011810367343174644
          0.0013437533972090604 0.0029478135080595047 0.004001140980413764 0.002349462011221104 0.0024924545962407285 0.001210032724016069
          0.0021735541010149684 0.0006973931652327625 0.00040441660780674016 0.000285662767702366 0.0024872059015419445 0.0022633052249493857
          0.0009965123304908619 -0.0004163164082738313 0.0046528540401173935 0.004701516916002901 0.00204334097071468 0.0005280873208412529
          0.003133509048056704 0.003825867534030858 0.0028635027056938267 0.0006835666592005241 0.0018583772230817142 0.0012270881372969389
          0.0032597874892659195 0.0011443115943986643 0.002160157765423276 0.000341127675924105 0.0018942084176438168 0.001164903656019095
          0.0034673754509627064 0.00042033703165276354 0.0013092996465647322 -0.0010932452289676075 0.0006575669892818631 0.0015075000125313182
          0.000947042023177691 -0.001724231355407821 0.0014250549380479677 0.001802284935838283 -0.0017855134497755387 -0.0008303936453307736
          0.0006208821595623526 -0.000118496292637979 -0.0033695478354341113 -0.0004755416759145365 -0.0009268933891430353 -0.0015495466665957879
          -0.0010581315107214828 -0.0008574714511995884 -0.0010441532435193634 -0.002681165726907461 -0.0017848009209575633 -0.0015895744017358875
          -0.0014558261188211685 -0.002494121226879374 -0.0015316145059600245 -0.0014055753426260864 -0.00421926388562488 -0.0010783237579881089
          -0.005755577484937047 0.0003788885315277879 -0.000898176924446048 0.0005903827390089655 0.0005799726319959536 -0.00018302046104870517
          0.0011316698308778544 0.0015731057192046594 0.0016516368625483294 0.0002510430993885038 0.0026904046980394947 0.0012201209207656216
          0.0012650339606837258 0.0004990484973011466 0.0016100256938913482 -0.01665227226083643 -0.00824372045145394 -0.00513794017739444
          0.002036168469444922 -0.02917375526000221 -0.015423475016463462 -0.008706968319925845 0.00498775822679335 -0.009446716896888807
          -0.006648716200099547 -0.0013600209476773983 0.00462303510178981 0.00009798214019927226 0.00012214962233776487 0.001059007425386449
          0.0001159222391606974 0.000032140913620623546 0.00036727411186851695 0.002718577062697007 -0.00014138353552288485 -0.00020321216002730513
          0.0007580280144748874 0.002233386002065501 -0.0006931236297543809 0.0010704600231464523 0.0032283309499523266 0.002170325299787043
          0.006402824387221881 0.0013988584465532972 0.003793620727039676 0.0008068377096503154 0.0021544340922372007 -0.0006873848110225955
          0.0006561479752913435 -0.00011076245886762481 0.0010493695402008507 -0.0017074237953186022 0.0004606429000927892 0.00024468975417846206
          -0.0008081606561961552 -0.00021165714951426606 -0.0004506802421485878 -0.002247061669762445 -0.0022823160697872935 0.0012116726785876275
          0.002405672784399883 -0.000025767365584794533 0.001691262412558736 0.0015943906783752113 0.00518896361760024 0.0077867019649786595
          0.003731831279006337 0.004520415064589889 0.010934435291450939 0.014977892837227502 0.008974820941755154 0.0037165634536049097
          0.010279890399155986 0.011905727257278231 0.006998474150232775 -0.0000940091568253365 -0.001323038349869493 -0.0015231726325300593
          0.00008196811340954735 -0.0022135585017574178 -0.0025901231808833636 -0.000043854586273220364 -0.0018696366269682074 -0.0014777873462116856
          0.00021775210533803158 0.0025992239075355306 -0.0000014207008268915522 0.004937548528520297 0.0010375060228003108 0.003485941309506302
          -0.0012095563075883164 -0.0005036970483521808 -0.0021842332153710897 -0.004400116913081231 0.0026187124012697627 -0.002187691589682239
          0.0026155914694471205 -0.0008684079311737092 0.003762961888032712 -0.0017230449545829474 0.0029054761361343995 0.002682260535747747
          -0.0033773622925029334 -0.0007531271768949077 -0.0008569914152102287 -0.002927025645007013 -0.004740317466778429 -0.0006955516422481114
          -0.0014890934634842479 -0.004232693622539814 -0.0013434123076855459 -0.0007443726723016797 -0.0016997676628796587 -0.0014717537149956071
          0.0013005669964909448 0.003954297589601197 0.001654061644681043 0.002555151431879045 0.006812768228636468 0.0029586911729900384
          0.002022379891934517 0.003964261498343835 0.001644432037902696 -0.0007293306196603788 0.001830257000813379 -0.0013907331006410284
          0.003624878085984551 0.0005503466115044306 0.002817243892025756 0.00306789340840391 0.002472147467340119 0.0054493624509839855
          0.004616055614051123 0.003026399001727631 0.0031000010946827805 0.004590054743440708 0.0007306055372537923 0.007505818155125632
          0.0026097085600541026 0.006033261494955325 0.004601344411772845 0.0017769826322058813 0.0007929426066066725 0.0034150507077304604
          0.0010788064472588288 0.0037902962263086093 0.0018425973474073265 -0.00024041839569155076 0.001416963321326032 -0.0002662318325293723
          -0.00047062333426693215 0.0027167887469948387 -0.0005052027185521151 -0.00019478354998078012 0.0012141388466450093 -0.00017281712531023834
          0.00010150235592698564 0.001775444055861941 0.0006593273922809728 0.00082387545007373 0.0036964588062142756 0.001093074342305933
          0.0016633023874944308 0.002842029543211444 0.0017684072594736922 -0.00027464111636585353 0.0017900143039766836 -0.0016174885784286247
          -0.000272568221932723 0.002928073818119381 -0.0027116982180857147 -0.0004727737678917321 0.00005320870305443315 -0.0011267245884741001
          -0.0016997301713525296 -0.002540101729754232 -0.0008122581258567757 0.000008060694320504574 -0.00006376007863128502 0.0014287583054733745
          -0.00033434352321925435 0.00015579709853413143 -9.029080926675759e-7 0.00273083959643311 -0.0006995165669965633 0.000050842228954706484
          0.0000943026556233656 0.0012311267240137785 -0.00032629585859871024 -0.0014012850541934019 0.0015077358544290376 -0.002214845523380804
          0.0025670068477401387 -0.0011367994620921848 -0.0006429413389986149 0.00029768233081945913 0.0020044106499737084 0.0006050022440980823
          0.003919138510363213 0.0002915882916122853 0.0019306146164276491 -0.00023438802582742557 -0.005800884351778612 -0.0007875633540277982
          -0.00984322145807881 -0.001814343807841512 -0.003564004900499129 -0.007858840733314165 0.011481579738155279 -0.013898948366290242
          0.01981348544285519 -0.004827210066940563 0.009300169018469084 0.0016717436798583396 0.0029191496518172068 0.0012203395223114987
          0.003914620346963327 0.007322497439195219 0.004789135433868497 -0.004076750541701868 -0.0007162922742666722 -0.005259794337302892
          -0.001155551063276583 0.0013161587187848212 -0.0005971343839690779 0.00242169439673251 0.004647109899327595 0.0029408898994859323
          -0.0017739625538129994 -0.0019262574353286419 -0.0009838150936505863 0.0006828563847993646 0.00127091716007074 0.0005673744041928483
          0.0013070924783569193 0.002268547421930861 0.0022242736751341696 -0.00028496306699606067 -0.0007169598621141055 -0.00048602173689554773
          -0.0002339891552307627 -0.0013717986231522455 -0.0018835651388632302 -0.0030532386473124395 -0.006240910551683021 -0.00034530378569852527
          -0.006570513101429341 -0.011357597535599086 -0.00495060248251428 0.00017136397728761965 0.00018379920085082047 -0.0005238274842551335
          -0.00009795693147334611 -0.0005168821800063672 -0.0001565306652834622 0.0014007228338825811 0.0025170757250225807 0.0007235127186389287
          0.0010007837497001404 0.0019493834497918971 0.0005814711238394388 0.000972707072626422 0.0018059208388002124 0.001477601752986682
          0.0003267085392298086 -0.00026943573045364044 -0.0005232214927508999 0.0017825779821483423 0.0033296520260139295 0.0019518714109668656
          0.0008155081735249647 -0.00007154628274161356 0.00008094083759890847 0.0020395238790408277 0.002374658664495044 0.0020892291152279086
          0.002928920706663396 0.00413457156880126 0.004059614513194032 0.003915411185504869 0.006819168464255454 0.006367299657797254
          0.0006217405729519454 0.00010131443622996006 0.0012264710100355902 0.001838851935273167 -0.00003801304242312398 0.0035200555816510826
          -0.000623324266211478 0.0025403590486293287 0.000007254575090431814 -0.00020115877393117598 0.0010807718100030589 0.00016414436952622014
          0.0009101777359793173 0.000512382020106561 0.0027310679170071683 0.0008435641735722865 0.0018241857586930033 0.0008682270885348453
          0.001757658840100429 0.0008955853684726733 0.0014592399544038903 0.0017592241436622524 0.002128106304670696 0.0011679903647487666
          0.0025376300659511603 0.00269015616099931 0.0013545089900133533 0.002771142725024628 0.005044252114158709 0.0022705607623980106
          -0.0002982192038918502 0.0021393044951500406 -0.00039692525473120077 0.005695212243112313 0.0009336726342725615 0.0039029104234365453
          0.0028603790333165957 0.0049153778162571715 0.0035526360966365855 0.0027674910238753014 0.002907472933023292 0.003271716441914485
          0.0026099807461150704 0.00381609776622005 0.0029543234138718066 0.004451707830105733 0.005708231667815422 0.004420476509526816
          0.0037560217852787847 0.003375046433724993 0.0031157269966413104 0.0011372473390407478 -0.002012136112491625 -0.00022975608220154875
          0.0023550906959465268 0.002231169513954523 0.002375814982965796 0.002235404371412675 0.0011459841850964825 0.00009888990306949896
          0.0001387304544695489 0.001595517078442646 0.0003746376583109168 0.00008818027443502352 0.0011792524924323887 0.0014455945776065127
        </DataArray>
        <DataArray type="Float64" Name="resid_z" format="ascii" RangeMin="0" RangeMax="0">
          0 0 0 0 0 0
          0 0 0 0 0 0
          0 0 0 0 0 0
          0 0 0 0 0 0
          0 0 0 0 0 0
          0 0 0 0 0 0
          0 0 0 0 0 0
          0 0 0 0 0 0
          0 0 0 0 0 0
          0 0 0 0 0 0
          0 0 0 0 0 0
          0 0 0 0 0 0
          0 0 0 0 0 0
          0 0 0 0 0 0
          0 0 0 0 0 0
          0 0 0 0 0 0
          0 0 0 0 0 0
          0 0 0 0 0 0
          0 0 0 0 0 0
          0 0 0 0 0 0
          0 0 0 0 0 0
          0 0 0 0 0 0
          0 0 0 0 0 0
          0 0 0 0 0 0
          0 0 0 0 0 0
          0 0 0 0 0 0
          0 0 0 0 0 0
          0 0 0 0 0 0
          0 0 0 0 0 0
          0 0 0 0 0 0
          0 0 0 0 0 0
          0 0 0 0 0 0
          0 0 0 0 0 0
          0 0 0 0 0 0
          0 0 0 0 0 0
          0 0 0 0 0 0
          0 0 0 0 0 0
          0 0 0 0 0 0
          0 0 0 0 0 0
          0 0 0 0 0 0
          0 0 0 0 0 0
          0 0 0 0 0 0
          0 0 0 0 0 0
          0 0 0 0 0 0
          0 0 0 0 0 0
          0 0 0 0 0 0
          0 0 0 0 0 0
          0 0 0 0 0 0
          0 0 0 0 0 0
          0 0 0 0 0 0
          0 0 0 0 0 0
          0 0 0 0 0 0
          0 0 0 0 0 0
          0 0 0 0 0 0
          0 0 0 0 0 0
          0 0 0 0 0 0
          0 0 0 0 0 0
          0 0 0 0 0 0
          0 0 0 0 0 0
          0 0 0 0 0 0
          0 0 0 0 0 0
          0 0 0 0 0 0
          0 0 0 0 0 0
          0 0 0 0 0 0
          0 0 0 0 0 0
          0 0 0 0 0 0
          0 0 0 0 0 0
          0 0 0 0 0 0
          0 0 0 0 0 0
          0 0 0 0 0 0
          0 0 0 0 0 0
          0 0 0 0 0 0
          0 0 0 0 0 0
          0 0 0 0 0 0
          0 0 0 0 0 0
          0 0 0 0 0 0
          0 0 0 0 0 0
          0 0 0 0 0 0
          0 0 0 0 0 0
          0 0 0 0 0 0
          0 0 0 0 0 0
          0 0 0 0 0 0
          0 0 0 0 0 0
          0 0 0 0 0 0
          0 0 0 0 0 0
          0 0 0 0 0 0
          0 0 0 0 0 0
          0 0 0 0 0 0
          0 0 0 0 0 0
          0 0 0 0 0 0
          0 0 0 0 0 0
          0 0 0 0 0 0
          0 0 0 0 0 0
          0 0 0 0 0 0
          0 0 0 0 0 0
          0 0 0 0 0 0
          0 0 0 0 0 0
          0 0 0 0 0 0
          0 0 0 0 0 0
          0 0 0 0 0 0
          0 0 0 0 0 0
          0 0 0 0 0 0
          0 0 0 0 0 0
          0 0 0 0 0 0
          0 0 0 0 0 0
          0 0 0 0 0 0
          0 0 0 0 0 0
          0 0 0 0 0 0
          0 0 0 0 0 0
          0 0 0 0 0 0
          0 0 0 0 0 0
          0 0 0 0 0 0
          0 0 0 0 0 0
          0 0 0 0 0 0
          0 0 0 0 0 0
          0 0 0 0 0 0
          0 0 0 0 0 0
          0 0 0 0 0 0
          0 0 0 0 0 0
          0 0 0 0 0 0
          0 0 0 0 0 0
          0 0 0 0 0 0
          0 0 0 0 0 0
          0 0 0 0 0 0
          0 0 0 0 0 0
          0 0 0 0 0 0
        </DataArray>
        <DataArray type="Float64" Name="stress_zz" format="ascii" RangeMin="-104724727.68817353" RangeMax="133489757.2081106">
          1010347.5774715648 813594.2449058285 633062.80266801 504034.25232140324 255778.02786445527 194474.25973697798
          2079457.1829303796 2018616.2792871606 1345908.372745407 1272406.7908678004 612359.562560434 526197.3024484403
          2710134.806167413 3584641.8893968537 1615224.4088945282 2307615.182996361 520314.01162164315 1030588.4765958681
          -253020.14409602736 870019.4831009568 -568296.9141171853 337522.2665894533 -883573.6841383431 -194974.94992205023
          -3574160.237776955 -3541339.4392710095 -2776688.656919917 -2792072.157973561 -1979217.0760628786 -2042804.876676112
          -3446208.917907627 -3981641.9092488214 -2525652.218514534 -2965809.20694988 -1605095.519121442 -1949976.5046509379
          -2115853.157315594 -2671168.963411043 -1465853.2065619098 -1958974.7418431086 -815853.2558082254 -1246780.5202751737
          -46137.47887422331 -1114787.6368753398 602518.5269307882 -561648.3071025641 1251174.5327357997 -8508.97732978873
          3176231.954253548 2946450.5975506627 1972657.4542645318 1583632.2803624347 769082.9542755155 220813.96317420696
          22739896.012772135 9813443.232788196 16809459.775207195 5069013.495368152 10879023.53764226 324583.7579481078
          1450231.229086704 953827.9579910208 457424.6868953373 1865560.257568444 1119069.8366076131 372579.4156467825
          265874.6226611142 -294678.487394294 -855231.5974497022 -2503374.552975267 -2208460.324749914 -1913546.0965245608
          -3147603.676164432 -2367715.7022500117 -1587827.7283355913 -2079198.9557524554 -1414451.8065632933 -749704.6573741315
          -410425.924413397 85364.44118206488 581154.8067775267 1890160.1126441585 2710651.074464905 3531142.0362856523
          3209270.2718230207 2448380.9581398484 1687491.6444566767 -620587.5838209226 -3900907.26188188 -7181226.939942837
          1638420.2069351613 959752.7476600915 281085.28838502144 261484.82325296575 -297685.1195200963 -856855.0622931584
          -2758547.639335175 -2458157.2710620193 -2157766.9027888635 -3530634.9903482185 -2746150.055302014 -1961665.1202558097
          -1986804.182579642 -1417976.2654380263 -849148.3482964106 -364731.33669477317 11212.497892432759 387156.3324796388
          1987490.678152023 2279629.0743311606 2571767.470510298 3515051.161018054 4429954.934349539 5344858.707681023
          310956.16779938014 222372.94564518647 133789.7234909928 -3285087.7532582274 -4418199.483139973 -5551311.213021718
          421347.9820585676 -177452.08871301444 -776252.1594845965 -2835798.3615260213 -2504464.232532804 -2173130.103539585
          -4707532.635539646 -3551298.3978212033 -2395064.1601027595 -3022797.382953357 -2167295.6262852415 -1311793.8696171262
          -834563.1640669724 -434141.6340350186 -33720.10400306483 1326286.4241342724 1466435.3471309775 1606584.270127683
          4241947.865158011 4296024.238540248 4350100.611922484 4562123.408999867 5410531.128588143 6258938.848176418
          -2155401.554957885 -1989538.2104772793 -1823674.8659966732 -8198585.3646712685 -9423847.006081844 -10649108.647492418
          -3337209.4327777987 -2686753.3441471756 -2036297.255516552 -6172507.819507059 -4433391.497290476 -2694275.1750738947
          -5437279.459711149 -3712722.9400464348 -1988166.42038172 -2676979.6857611574 -1660609.7900617705 -644239.8943623829
          -136877.88266795353 296732.1156204304 730342.1139088141 2735392.527420167 2687921.4047588175 2640450.2820974686
          5801320.31742535 5582881.369175611 5364442.420925871 5275733.247467442 5661724.674821143 6047716.102174843
          -1851168.7453868247 -2194807.1211614297 -2538445.4969360353 -14939905.939972602 -16667605.162526503 -18395304.385080405
          -8260922.110130299 -5614690.889440188 -2968459.668750079 -8801686.37033258 -5834592.290229449 -2867498.210126317
          -6352055.758559393 -3997122.987327681 -1642190.2160959688 -3059838.5499041686 -1599656.874048002 -139475.19819183537
          232910.3451578482 788623.9098535865 1344337.4745493245 3662333.9998587696 3451852.6842070147 3241371.3685552594
          6683877.673717326 6084046.192018633 5484214.71031994 6072408.932443212 5502473.290878727 4932537.6493142415
          -468391.2913132992 -1848430.7678260726 -3228470.244338846 -5023714.913770398 -8187233.842708856 -11350752.771647315
          -11627593.093969576 -7948237.252946422 -4268881.41192327 -10344420.59242769 -6958051.364558933 -3571682.136690175
          -7162350.646789811 -4573317.612643906 -1984284.5784980003 -3337678.24936843 -1808823.6606721862 -279969.0719759428
          551641.0529319172 1007220.9138144401 1462800.7746969631 4240671.535906074 3769550.105447711 3298428.674989349
          7093980.143387801 5997990.792774372 4902001.442160944 7271697.471367594 5576162.661406505 3880627.851445416
          3752637.6555156177 1194692.2001410387 -1363253.2552335407 1169949.1195028615 -1686926.2943441328 -4543801.7081911275
          -10294187.636574756 -9770920.731739035 -9247653.826903312 -7646138.691583922 -8006447.721862331 -8366756.752140738
          -4138370.8559586727 -5291972.49093294 -6445574.125907205 -710384.380161502 -2352220.2698412985 -3994056.159521095
          2543099.5798801724 755846.9243910525 -1031405.7310980675 5406927.10615575 3836035.5279383613 2265143.9497209727
          6853745.6218012795 5992253.265714144 5130760.909627009 6955564.517213908 6868251.63212303 6780938.7470321525
          6612905.726904437 7507836.01231604 8402766.297727643 2449940.30849348 5181948.978361225 7913957.648228968
          -703284.6447224566 -4100980.400470004 -7498676.156217553 1539379.3307241302 -1659802.0569499081 -4858983.444623946
          3575209.542979731 1006873.2470397117 -1561463.0489003079 5194249.916908866 3661048.177761808 2127846.438614752
          5427896.055992071 5460941.888995007 5493987.721997943 4650193.82632138 6144341.249238629 7638488.672155877
          7889392.336183853 11304849.654473446 14720306.972763037 7792120.144787629 12069713.586828277 16347307.028868923
          13119376.821791138 -8561147.631916886 -4017940.720091026 9329071.016194243 7534541.672304502 -10872627.651095413
          -6339128.06590911 5629838.134414433 1949706.5228178683 -13184107.67027394 -8660315.411727196 1930605.2526346198
          23714707.221498944 16127794.36339401 14182156.999088418 11265954.076997861 4649606.776677894 6404113.790601714
          27494226.116014026 32066707.447325747 41935424.01762545 18568562.327022042 20798939.06412574 33585319.45797494
          9642898.538030062 9531170.680925732 25235214.89832443 24514486.362443276 12166898.403518045 60110660.18298043
          29540458.963598035 19804984.42661892 9743370.451842966 52042785.68347783 23790679.902743585 15095482.49079455
          7319842.500167882 43974911.18397522 18040900.841889143 -22482390.724950045 -44029041.377650246 -60420016.452317454
          -66892799.54607326 -4576388.116572861 -29092549.226097755 -40029442.58255577 -44782758.068672 13329614.491804319
          -14156057.074545264 -19638868.712794088 -22672716.59127076 2673021.8664763076 -914560.2987049408 23516456.895825982
          5701256.751752737 3910168.2453811564 -650647.3084961299 21794906.609958835 5065073.239326165 5147314.624286004
          -386734.31828731997 20073356.32409169 4428889.726899594 -15379600.71823933 14735319.59904054 -7282973.946838772
          -17329253.828393932 -10501069.139677748 20249494.166619293 -4417428.620653226 -13149886.220900202 -5622537.561116166
          25763668.73419805 -1551883.2944676802 -8970518.613406472 5869984.039675989 4017817.5423287004 9612527.619429028
          2412322.085035185 13355071.199182067 806826.6277416665 21611805.66857036 3844988.2574968254 20204295.129661247
          665057.9435255611 18796784.59075214 -2514872.370445703 165552.9649483394 20067324.064754654 20783394.362859845
          -52721693.10065862 3007062.3294602637 11799920.325803079 -2215269.7660908774 -38000363.10850749 5848571.693972189
          3532516.5868515037 -25213933.8950416 -23279033.116356377 28926759.194105905 37331882.96552634 26721291.607294284
          15141929.701743372 20733870.966228 30703352.76978417 21115780.991910852 9458487.772213088 12540982.738350097
          24074822.574042004 15510270.376527423 3775045.842682805 -43679504.77629157 -18757903.98595246 -42350874.51058543
          -21440923.860745113 -41022244.24487928 -24123943.735537775 -6608967.193086995 -4818276.233791035 1748116.2905557402
          4078156.6197356046 -8285301.309497232 -4552383.307467667 1051074.9027955183 2052050.8511750672 -9961635.425907467
          -4286490.381144301 354033.5150352963 25945.082614529692 76397037.57924023 133489757.2081106 31044850.12965731
          34641272.41621787 56942050.111531064 115517423.46664657 28664411.144621976 26363566.785663657 37487062.643821895
          97545089.72518252 26283972.159586646 18085861.155109446 51117452.44533315 43582686.94693377 45277899.05091712
          58925895.12197764 20731751.067571998 13055536.059106937 28380341.59436989 38137210.70581189 -9653950.310189163
          -17471614.82871989 11482784.137822669 17348526.289646138 12304490.196684644 -8717901.42467318 19498185.585907694
          -3482457.6962406132 26691880.97513074 1752986.0321919518 6586680.967894941 4488220.614723831 2389760.261552722
          -13986883.05040828 -25774355.34368685 -7063415.346988662 -23919763.553044435 -139947.64356904663 -22065171.76240202
          -46258373.724411786 -56600133.91842392 -33971414.69906441 -36667994.945026785 -42798016.452965155 -31975932.463037718
          -27077616.165641777 -28995898.987506393 -29980450.227011025 -9147987.264343176 -7358320.524226977 34774957.45237904
          23388714.8077919 -23733031.736931697 -22713145.817758936 31830323.628075104 17095995.663092133 -38318076.20952022
          -38067971.111290894 28885689.80377118 10803276.518392375 28756576.73739653 17362410.726911064 26340883.135701135
          22674233.691083103 10749492.889363049 18411546.62723042 16591890.644769674 4136575.051815031 10482210.118759707
          6586212.955854038 -7367444.418826509 10153226.665859919 -9873286.573830575 13720240.375865802 -12379128.72883464
          -86085024.06475493 -78418475.4404995 -59383379.69053385 -68075303.59188919 -32681735.31631278 -57732131.7432789
          -43787094.1320639 -38616260.57899452 -22360543.3248383 -29036341.036765903 -933992.5176126963 -19456421.494537283
          55719139.10343768 64928537.36314179 52277073.321491264 39117911.30405774 52714587.62671703 59507404.24086654
          46084252.736995205 35048076.24629749 49710036.149996385 54086271.11859129 39891432.152499154 30978241.188537255
          -7773477.352318813 9629634.07944122 4582500.315627518 -5501231.462514863 6411510.002820026 1241188.6265002557
          -3228985.5727109117 3193385.9261988318 -2100123.0626270073 -20396133.340329573 -14511049.69216503 -18955765.68979576
          -13920568.167343663 -17515398.039261945 -13330086.642522298 -4165315.439708189 -907496.7573426971 -2023217.646582873
          101830.03701270139 118880.14654244241 1111156.8313680962 -23063885.972883668 -29308538.228472874 -18186700.635693908
          -36434832.43785981 -13309515.298504144 -43561126.64724675 -21316957.205607157 -16174300.857321344 -17193117.667973343
          -9137331.164317429 -13069278.130339533 -2100361.471313515 36698775.21357143 22692468.598127127 25658045.633353177
          22772924.93753643 14428102.702095842 16208742.885501478 8847074.66150143 6163736.806064555 6759440.137649782
          -4147357.968465209 -5669064.284837468 4342161.123529458 -3147841.703928017 -2759182.992856443 13009553.854852289
          -2148325.439390825 150698.29912458063 21676946.58617512 12509694.17658855 12606950.069702148 -7480796.050706852
          9621057.249186978 13925292.084915051 -7667078.946986956 6732420.321785409 15243634.10012795 -7853361.843267061
          17090904.66953028 19042805.28833387 20994705.907137465 10469449.4200101 9872728.106417071 5739375.44990679
          3416923.160145481 5665955.890886234 5765844.78787773 2546890.642467427 -207974.85239390214 862462.3617623677
          1658961.4693383884 -645594.1649719363 -3832872.8649332854 40765115.444183186 -92462.92034630477 37561399.00960834
          -3510693.18902214 34357682.57503351 -6928923.457697964 16093837.147420628 17737527.76445538 10209053.165253758
          10513415.196373228 4324269.1830868935 3289302.6282910774 45703778.469973974 -24153810.12211573 39498992.91322792
          -21792856.65603789 33294207.35648187 -19431903.18996004 78521312.27116615 -39978126.77927332 69108926.65061016
          -39579704.45031037 59696541.0300542 -39181282.121347435 10098394.976719674 6649753.637231862 3201112.297744052
          -1142079.3418151108 555335.0814902578 2252749.504795626 27795437.541912697 33132856.32882735 38144995.6745615
          33840113.30445304 48494553.80721031 34547370.28007872 -7421984.22896457 1176577.6652214092 9775139.559407385
          -67931212.33131342 -47657081.7311657 -27382951.131017976 50466905.70815165 35534747.18845605 20602588.668760445
          -18586982.047819212 -14305339.935810806 -10023697.8238024 4983190.600396863 2643373.0423376686 303555.4842784738
          -104724727.68817353 -83905199.59200186 -63085671.49583015 51044131.0867466 44082152.57449632 37120174.06224605
          82664516.36616552 72326512.65889508 61988508.951624624 -1145267.9930112083 -7546820.677329326 -13948373.361647444
          3161360.7571075554 375420.96925772645 -2410518.8185921023 41488398.952153705 9892790.594271323 -21702817.76361106
          2120362.185156381 2139241.6432741787 2158121.101391976 4322386.39682035 5085327.251892718 5848268.106965084
          3070606.344802836 3208308.8096752916 3346011.274547747 3834748.3602341413 4485301.496543504 5135854.632852867
          3552990.1806214023 3758740.309857307 3964490.439093212 3005524.097051727 3290133.9385547815 3574743.7800578363
          1933955.2823879907 1622336.259453219 1310717.2365184461 3249597.3381353416 2931435.7624139707 2613274.186692599
          4683021.453117756 4421923.013437798 4160824.5737578394 120702.49955597737 -4025565.4054439575 -2324538.0896733887
          -5974617.479749427 -4769778.6789027555 -7923669.554054896 -2200106.5142943934 -1454566.0466887797 1739355.7246608841
          -2824183.8697299957 -2245928.3410349013 -1649547.276743668 1652127.3527893021 -2982818.499582498 -2291750.1677754084
          -1844528.5067985563 1564898.98091772 -3141453.1294349995 4691189.389104259 3645583.1525461464 2599976.915988033
          2146690.075074126 2019706.2142358297 1892722.3533975338 2207094.1007019375 1661100.767592527 1115107.4344831172
          3151533.252141386 4710930.067361115 2935629.013883701 4481344.415232869 2719724.7756260172 4251758.763104622
          2505574.7608022643 2891573.32682441 3277571.892846556 614936.7325623045 428459.388241343 241982.0439203817
          113387.84587667149 96117.68493301759 78847.52398936369 -2924094.8506740713 -3724541.920569294 -4524988.990464516
          -4477914.920185914 -5560533.596836919 -6643152.273487924 1915244.937813744 1863444.882724924 1811644.827636105
          4114303.5955500766 4288325.83780424 4462348.080058402 2347082.3267650995 228656.77362274542 1630371.5632034957
          2214534.9443745567 -75356.28886558674 1383728.195598053 2081987.5619840138 -379369.35135391925 1137084.8279926104
        </DataArray>
        <DataArray type="Float64" Name="peeq" format="ascii" RangeMin="0" RangeMax="0.05963647047625592">
          0 0 0 0 0 0
          0 0 0 0 0 0
          0 0 0.000001911318255681036 0 0.000003822636511362072 0
          0.000056695823522154304 0.00003442477138677407 0.00008431182088770135 0.00005788529015477658 0.00011192781825324839 0.00008134580892277909
          0.0004425805724958562 0.00037646506180387 0.0005115412894718118 0.0004444174126541869 0.0005805020064477671 0.0005123697635045038
          0.001509759462882654 0.001413139400971318 0.0015999357770396022 0.0015076242154620652 0.0016901120911965504 0.0016021090299528121
          0.0035557060759815844 0.0034526960587457876 0.0036262632496682342 0.0035293263106280326 0.003696820423354884 0.0036059565625102775
          0.0070114572641899985 0.0069399371269519275 0.006982782653058108 0.006913070521381752 0.006954108041926219 0.006886203915811578
          0.013028710411921766 0.013183664001095058 0.012761300534814767 0.012894722725516007 0.012493890657707767 0.01260578144993696
          0.021165989757402776 0.020638586193722705 0.02052356953435788 0.02001742476229047 0.01988114931131298 0.01939626333085823
          0 0 0 0 1.2728356991591397e-7 2.5456713983182795e-7
          0.000007907023683279287 0.000018764952903679786 0.000029622882124080282 0.0001398006526073223 0.00018054640598234186 0.0002212921593573614
          0.0006472327521437314 0.0007166191478766556 0.0007860055436095799 0.0017930152613215395 0.0018706583134761405 0.0019483013656307411
          0.003854915079594663 0.003908037948845346 0.0039611608180960284 0.007207181249818433 0.007173771413896191 0.007140361577973951
          0.01258855645110345 0.012376592700340151 0.012164628949576855 0.018739883436006053 0.01830006518982461 0.017860246943643174
          0 1.0733962227006744e-7 2.1467924454013488e-7 3.402970616005791e-7 0.000007266080595504512 0.000014191864129408445
          0.00005364559322964438 0.00008444882657636694 0.00011525205992308951 0.0003250301301209297 0.0003813777153378473 0.0004377253005547648
          0.00099604294989758 0.0010613465764754213 0.0011266502030532624 0.00224405769828299 0.002302193527078023 0.0023603293558730563
          0.004315798295191279 0.00434280706996763 0.004369815844743983 0.007476689598387711 0.007436095609750234 0.007395501621112757
          0.011922386616602415 0.011784823642717783 0.01164726066883315 0.016582075705023198 0.016386879184730065 0.016191682664436928
          0 0.0000067067392690062805 0.000013413478538012561 0.000023727991607419753 0.0000523264266129177 0.00008092486161841565
          0.00018800056158158821 0.00024302501781685293 0.0002980494740521177 0.0006427926906246403 0.0007065406761775403 0.00077028866173044
          0.0014826254789536896 0.001537401443000338 0.0015921774070469866 0.002832296609607012 0.0028651134350088847 0.0028979302604107576
          0.004877510252125568 0.004874237047782347 0.004870963843439124 0.007740193638645551 0.0076913517184874535 0.0076425097983293545
          0.01113280647062477 0.011069438867721017 0.011006071264817266 0.013414317141095939 0.013422821546019233 0.013431325950942527
          0.000016265885715578118 0.000044105428488041536 0.00007194497126050497 0.00012564679260635133 0.00018017000465340898 0.0002346932167004667
          0.0004564089488918665 0.0005228331832894754 0.0005892574176870842 0.0010976553405462974 0.001155357353959507 0.0012130593673727167
          0.002092599872726723 0.002127606863005246 0.0021626138532837686 0.0035139628531602237 0.003516518862766699 0.003519074872373175
          0.005460062920893501 0.0054279618719032295 0.005395860822912957 0.007909069458882666 0.007856302258137878 0.007803535057393092
          0.010272192934817598 0.010269575219388413 0.010266957503959229 0.011261575905752013 0.011401422167091613 0.011541268428431213
          0.00010762676890808724 0.00015263295155167834 0.00019763913419526942 0.00036589037993222523 0.00042266485225648923 0.0004794393245807533
          0.0008787638601035262 0.000929478431198819 0.0009801930022941118 0.0016880671366626776 0.0017186959179131254 0.0017493246991635734
          0.002803068633831806 0.0028038613379845075 0.0028046540421372093 0.004232550606133078 0.004201539761147198 0.00417052891616132
          0.005977811841585631 0.00592563653939358 0.00587346123720153 0.007905940692450545 0.007863661084170144 0.007821381475889743
          0.009313129659850455 0.00936654964654047 0.009419969633230486 0.009404193700635579 0.009632516437474724 0.009860839174313869
          0.00033696592510370376 0.00036398596716015507 0.0003910060092166064 0.0007713608877217166 0.0007892223523782095 0.0008070838170347024
          0.0014572458978801036 0.0014563213870275944 0.0014553968761750853 0.0024026610211344687 0.0023771399999249782 0.002351618978715488
          0.0035761345667641143 0.003526324282515503 0.0034765139982668924 0.0049230135664832 0.004859464225142714 0.004795914883802227
          0.006355032704850439 0.006300760595431512 0.006246488486012587 0.007673810111743808 0.007669048412628637 0.007664286713513468
          0.008248472386991269 0.008368194814931628 0.008487917242871987 0.0076981089289301875 0.007979647530737356 0.008261186132544524
          0.0007037950000415438 0.0006962233825322541 0.0006886517650229642 0.0013147172947396498 0.0012861931642447874 0.001257669033749925
          0.0021538315152355714 0.002101459762998475 0.0020490880107613793 0.0031875203758146755 0.0031141553171165 0.003040790258418324
          0.004342925005269633 0.004258719925791532 0.004174514846313433 0.005511925977631115 0.005436438090696145 0.0053609502037611735
          0.006541911612964914 0.0065039085904943705 0.006465905568023829 0.00721204555192829 0.0072502697054939065 0.007288493859059522
          0.007100739711636314 0.007258006183664173 0.007415272655692031 0.006171858656628305 0.006433480149025935 0.006695101641423565
          0.002886088901604853 0.002834801312286305 0.0027835137229677578 0.003909772339637969 0.0038462804549770106 0.003782788570316052
          0.00494609076801116 0.004880428693451698 0.004814766618892236 0.005858181663978702 0.005805913228716623 0.005753644793454546
          0.006469273086128491 0.006450454424260027 0.006431635762391561 0.006562465595695155 0.006600909384628921 0.006639353173562689
          0.005896334180917661 0.00600488567497595 0.0061134371690342365 0.0048248659924245785 0.0049858415336157666 0.0051468170748069555
          0 0 0 0 0.00043547937295251903 0.001148145984144217
          0.00003264686374107321 0 0.0008709587459050381 0.002296291968288434 0.00006529372748214642 0
          0 0 0.00012114051787522787 0 0.00024228103575045574 0
          0 0 0 0.00027757157604378104 0.00003733473050451098 0.00012099967038415829
          0.0005551431520875621 0.00007466946100902196 0.00024199934076831657 0.02895805844609949 0.02649869547103096 0.033895101255430896
          0.03399866447979913 0.028027833844420695 0.02591611032845468 0.032830397330536915 0.03273517904396665 0.0270976092427419
          0.02533352518587839 0.03176569340564294 0.03147169360813418 0.008780165652811988 0.0053500762343149 0.004933350104576093
          0.006297787004132702 0.011217934464855263 0.007171671874013921 0.007316535432705222 0.008795144071551467 0.013655703276898534
          0.008993267513712946 0.009699720760834352 0.011292501138970231 0.016719385786472703 0.01669026293183067 0.020262951845485183
          0.01957106085305287 0.01668666503466342 0.016794674356087606 0.02006452201569991 0.019307111660710106 0.016653944282854136
          0.016899085780344537 0.019866092185914647 0.01904316246836734 0.0078090517193353925 0.008667554053698174 0.006003138049296068
          0.0047651076476750275 0.008377008104042558 0.009128533912833551 0.006444963795958954 0.0052795728538754215 0.008944964488749721
          0.00958951377196893 0.006886789542621839 0.0057940380600758155 0.005036774663182018 0.006452582475529919 0.005326643161647542
          0.006817297030828037 0.0056165116601130695 0.007182011586126157 0.023307706672321585 0.021163823333352955 0.022829468824335803
          0.021011770941454053 0.02235123097635003 0.020859718549555147 0.000007264178620147327 0 0
          0.00035593084216720513 0.00060821203189858 0.00047844781729246906 0.0005565711305669099 0.001856185900886774 0.0012091598851770129
          0.0009568956345849381 0.0011131422611338198 0.0033564409596063428 0.026152775137633495 0.025815164914012406 0.031024335523625185
          0.02923770214358877 0.025255459386144992 0.024931472001814812 0.02980923458425392 0.028135866764835104 0.024358143634656486
          0.024047779089617225 0.02859413364488266 0.02703403138608143 0.027424248330757656 0.03676640923547249 0.0268655291959414
          0.035643308623688315 0.026306810061125143 0.034520208011904134 0.00004663579579011011 0.0001768560454897385 0
          0 0.00006776325377707586 0.00020476543125575236 0 0 0.00008889071176404161
          0.0002326748170217662 0 0 0.050328213879389086 0.059308172292135086 0.05578700687708436
          0.04505234464373718 0.04888865561091073 0.05706652400254425 0.05356710375142586 0.04381969736024808 0.04744909734243237
          0.05482487571295342 0.05134720062576735 0.04258705007675899 0 0 0
          0 0.0007713887970630779 0.0007973612367663793 0.0005517357550557048 0.000511488572265624 0.0015427775941261558
          0.0015947224735327586 0.0011034715101114097 0.001022977144531248 0.010523609734115764 0.010550362852500213 0.010957412120873066
          0.011083073924828341 0.011391214507630365 0.011615784997156466 0.023517636227692963 0.02289585361272653 0.022274070997760093
          0.00011971590879007096 0.00018455230906623999 0.0020163502540729936 0.0033688000883605853 0.003912984599355917 0.006553047867654931
          0.0024073891045615775 0.0018563315801390856 0.00017069231216590726 0.005663567995290465 0.004094193064525426 0.0017777100181950156
          0.008919746886019353 0.006332054548911766 0.0033847277242241244 0.01387153541358016 0.012404552615451571 0.023155010919834212
          0.021112073926806186 0.014680692537317448 0.013842549691805962 0.024184096847116133 0.02118262974096625 0.015489849661054735
          0.01528054676816035 0.025213182774398053 0.021253185555126314 0.033431556319425966 0.035559142230760385 0.03826807578691222
          0.03201079730454367 0.03405722351622601 0.036494267030638496 0.03059003828966137 0.03255530480169164 0.034720458274364784
          0.0043268900293017415 0.008120531176315152 0.004637401683538385 0.00849243775848264 0.0049479133377750275 0.008864344340650128
          0.004445253184784852 0.005155761550432139 0.005826949506658428 0.006844918851917225 0.007208645828532004 0.008534076153402312
          0.004290800158424306 0.0019167991709831134 0.005081462383202514 0.0025014534342410965 0.005872124607980724 0.003086107697499079
          0.05000912950059483 0.048176369121773546 0.05312885999680517 0.05437078903147548 0.04729323865286371 0.04572923597070701
          0.05059213306754225 0.051601466158403775 0.04457734780513259 0.04328210281964046 0.04805540613827931 0.048832143285332065
          0.013325060665163582 0.013474151929570813 0.01714602296806541 0.013679189974638503 0.014043876013231135 0.017407499394203725
          0.014033319284113423 0.014613600096891458 0.01766897582034204 0.000351154621812635 0.00010991750168645845 0.000557067137379909
          0.00028420986879239746 0.0007629796529471829 0.0004585022358983364 0.013028060241177048 0.010246559209922602 0.013239484045061973
          0.010557732681547699 0.0134509078489469 0.010868906153172793 0.008102996968968395 0.009476608196553299 0.008812275267070206
          0.010447986567938104 0.009521553565172015 0.01141936493932291 0.0043851851551337875 0.0022388615466608025 0.005012273389273623
          0.0026204352455595796 0.005639361623413459 0.003002008944458358 0 0 0
          0.000005681076951731729 0 0 0.000011362153903463459 0 0
          0.002530498446720341 0.0012175559003947697 0.0028309958172862823 0.0027013907002542657 0.0013408912985410503 0.0031266132985002526
          0.0028722829537881907 0.0014642266966873308 0.0034222307797142234 0.03971262107368905 0.04399590322410536 0.043945656206883635
          0.037875128721482125 0.04180712283332873 0.04169094761403397 0.0360376363692752 0.039618342442552086 0.03943623902118431
          0.04630692497798044 0.04386264414882755 0.04141836331967466 0 0 0
          0 0 0 0 0 0
          0 0 0 0.03948923975575731 0.04414078297970671 0.037831941542793804
          0.04222966981743048 0.036174643329830294 0.04031855665515427 0 0 0
          0 0 0 0.05783877319510941 0.04803191978793715 0.055415705104572395
          0.046086318075947486 0.05299263701403539 0.04414071636395782 0.03149268728094255 0.036006656328019665 0.031049609161820445
          0.036257932982213505 0.030606531042698337 0.03650920963640735 0 0 0
          0.00373233090476956 0.0039149451181173895 0.004097559331465218 0.01801969693241738 0.011582462579221372 0.020515613023069694
          0.014220856196218585 0.023011529113722007 0.016859249813215797 0.004040734966280009 0.004452504073028537 0.004864273179777065
          0.001962938508156193 0.004093397726718941 0.006223856945281688 0 0.000005681076951731729 0.000011362153903463459
          0.000755027676922829 0.0009288731811166634 0.001102718685310498 0 0 0
          0.0024075904261780297 0.004188322735622099 0.005969055045066169 0.03199959663702823 0.033142495403020764 0.03428539416901331
          0.05963647047625592 0.0571046970018407 0.05457292352742549 0.02567041988590068 0.024824502228337285 0.02397858457077389
          0 0 0 0 0.0005198004495949076 0.0010396008991898152
          0.004473074154386948 0.004448335863383996 0.004423597572381043 0.004823416700293183 0.004818426520932071 0.004813436341570957
          0.005261606261180075 0.005237191548645228 0.00521277683611038 0.005261065540799017 0.005257143173069416 0.005253220805339815
          0.005837573437683701 0.005819210308868749 0.005800847180053795 0.006031637337856147 0.006026266808683067 0.006020896279509988
          0.005654487486861978 0.005670438281206414 0.005686389075550852 0.00455250459043593 0.004590216804174537 0.004627929017913144
          0.0028516590184667467 0.0029033750793755826 0.002955091140284418 0.0026491167373012187 0.0015793808453482662 0.0027501870557983896
          0.0016506445598885285 0.0028512573742955605 0.0017219082744287899 0.0004274522761025501 0.00007385735167488966 0.000102512688372371
          0.0006423410969646433 0.0004330137172470171 0.00007523567814245416 0.00010634381502363432 0.0006710763939552984 0.0004385751583914841
          0.00007661400461001866 0.00011017494167489762 0.0006998116909459538 0 0 0
          0.0010934514007586856 0.001110547967451877 0.0011276445341450686 0 0 0
          0.004903408746464161 0.004851826566303253 0.004900907951458021 0.004847183577258517 0.0048984071564518806 0.004842540588213781
          0.005424772747848089 0.005422917503490478 0.005421062259132869 0.004650548416477817 0.004651032365926345 0.004651516315374872
          0.005180005809827521 0.0051818533241905365 0.005183700838553553 0.004408982708598295 0.004416839953510502 0.00442469719842271
          0.0031094627515669063 0.0031207663235957687 0.0031320698956246317 0.0016679775419498556 0.001674331669195359 0.0016806857964408633
          0.0005910660174723593 0.0005929130692535255 0.0005947601210346916 0 0.00007259459091814608 0.00005571437633436104
          0 0.00007322452387814147 0.000055952158673100154 0 0.00007385445683813686 0.000056189941011839265
        </DataArray>
        <DataArray type="Float64" Name="pe11" format="ascii" RangeMin="-0.0016060188062615554" RangeMax="0.0585659378630351">
          0 0 0 0 0 0
          0 0 0 0 0 0
          0 0 0.0000018904556631940715 0 0.000003780911326388143 0
          0.000055882174356737806 0.00003395635271576864 0.00008274811356449861 0.000056767996129415235 0.00010961405277225942 0.00007957963954306184
          0.000433645280545612 0.0003688166803549719 0.0004983576771618164 0.00043255051877295756 0.0005630700737780205 0.0004962843571909432
          0.001467765909371613 0.00137291058357577 0.0015465875754613239 0.0014556288080075286 0.0016254092415510346 0.0015383470324392874
          0.00342572680408892 0.003321953766174301 0.0034776483493488136 0.0033790300811298063 0.003529569894608707 0.0034361063960853117
          0.006691599928418008 0.006607443585148937 0.006644397744157557 0.006560800937402411 0.00659719555989711 0.006514158289655885
          0.012268716819664103 0.012361830863271153 0.011994104318546589 0.012065768827867189 0.011719491817429074 0.011769706792463228
          0.019827648200364985 0.019195533686413233 0.019192984485463655 0.018570596798283094 0.018558320770562322 0.01794565991015296
          0 0 0 0 1.2662553291406518e-7 2.5325106582813037e-7
          0.000007818395207818306 0.000018550508485358247 0.000029282621762898192 0.00013764982766156596 0.00017736539691965046 0.00021708096617773501
          0.0006342496620061184 0.0006994123213859988 0.0007645749807658794 0.001745928818251348 0.0018134033392140448 0.001880877860176741
          0.003727412058287203 0.0037644274671388873 0.0038014428759905717 0.006921667102818813 0.0068727646683007775 0.006823862233782743
          0.011978342251743842 0.011761527283187379 0.011544712314630919 0.01772468519677052 0.017308232178001225 0.01689177915923193
          0 1.0702197157311375e-7 2.140439431462275e-7 3.384446950432038e-7 0.0000072212080699983375 0.000014103971444953471
          0.00005298252349932137 0.00008344335210405444 0.00011390418070878755 0.0003197100198479563 0.0003747067304216474 0.00042970344099533853
          0.0009759076991625365 0.0010372310606862317 0.001098554422209927 0.002189187372679091 0.002238909735775673 0.0022886320988722546
          0.004192911188812232 0.004207255138472958 0.004221599088133685 0.007239410295143243 0.007187171546889883 0.007134932798636526
          0.011485026698921874 0.011347316856044464 0.011209607013167052 0.01586654044163796 0.015705757280947898 0.015544974120257838
          0 0.0000066825241330279455 0.000013365048266055891 0.000023540413506822467 0.000051947248908788724 0.000080354084310755
          0.0001855377912600166 0.0002399155242386098 0.00029429325721720304 0.0006316057189227479 0.0006937825763545871 0.0007559594337864265
          0.0014522494504516383 0.0015035303711820247 0.001554811291912411 0.0027682670644017314 0.002794631456895646 0.00282099584938956
          0.004762036884271414 0.004749584282951218 0.004737131681631024 0.007556235967866659 0.0074998165547434945 0.007443397141620333
          0.010851373905807843 0.010791910616601555 0.010732447327395263 0.012984833941433103 0.013023368348875264 0.013061902756317424
          0.000016190116776728982 0.00004389633589870336 0.00007160255502067773 0.00012450021977624984 0.00017858185015787986 0.00023266348053950988
          0.0004498103729955069 0.0005153367468640805 0.0005808631207326542 0.0010772368438744433 0.0011334025599498572 0.0011895682760252708
          0.0020495240365024283 0.0020817805044281382 0.0021140369723538486 0.0034413940157998375 0.0034393427981783318 0.003437291580556826
          0.005355742867824212 0.005317411734292593 0.005279080600760978 0.007776484335701259 0.007719676743913022 0.007662869152124785
          0.010106500465376958 0.010110395230134135 0.01011428999489131 0.010983964840678486 0.011146376947039956 0.011308789053401425
          0.00010690099389259623 0.00015163193185319232 0.00019636286981378843 0.00036164389659732224 0.0004179274320518978 0.00047421096750647335
          0.0008640776272765254 0.0009142017481561898 0.0009643258690358542 0.001654508591371508 0.001684366367081816 0.0017142241427921235
          0.0027460525749189585 0.002745344911025732 0.0027446372471325057 0.004154323617522156 0.004120374514590717 0.004086425411659277
          0.005888976624441012 0.005832686970478595 0.005776397316516179 0.007818796860186229 0.0077747303592710865 0.007730663858355945
          0.009216045731880465 0.009276395646069614 0.00933674556025876 0.009197986323202005 0.009441567654711523 0.009685148986221038
          0.00033343923779230347 0.0003604486307569436 0.00038745802372158375 0.0007593599006038396 0.0007776303616251247 0.0007959008226464098
          0.0014285969548350334 0.001428696543998306 0.0014287961331615785 0.002351978550829175 0.002327680091713518 0.0023033816325978597
          0.0035057142479161486 0.0034563442156520137 0.0034069741833878783 0.004844125332380438 0.004779156721325979 0.0047141881102715204
          0.0062856022216182614 0.006228274512976525 0.006170946804334786 0.007623016353533899 0.007616958741909931 0.007610901130285962
          0.008182980639750533 0.008308152124439909 0.008433323609129283 0.0075178498616774395 0.007808217402642556 0.00809858494360767
          0.0006937186219105134 0.0006859109497047581 0.0006781032774990028 0.0012896358622273942 0.0012611461985331046 0.001232656534838815
          0.002106961099983627 0.0020551020862309977 0.002003243072478369 0.0031192530388148747 0.003046713753294461 0.0029741744677740482
          0.004263447110806636 0.0041797030705272055 0.0040959590302477745 0.005439313726048372 0.0053628179438737515 0.005286322161699129
          0.006494076219624939 0.006453142540354675 0.006412208861084411 0.0071856620870070385 0.00722096289565606 0.007256263704305082
          0.007031842506021557 0.007190365138693018 0.007348887771364479 0.0059617098525152805 0.006225423801036855 0.006489137749558428
          0.0028357366331887447 0.0027837729445475473 0.00273180925590635 0.00384812940227665 0.0037841310184361307 0.0037201326345956114
          0.004885983414943156 0.004819958347986333 0.00475393328102951 0.005814264811226366 0.005761381062084495 0.0057084973129426266
          0.0064462906108587225 0.006426261514233747 0.00640623241760877 0.0065376450137364026 0.006574721721421523 0.006611798429106642
          0.005801631425633858 0.005909792292502227 0.006017953159370598 0.0045870326040267535 0.004745861021672456 0.004904689439318157
          0 0 0 0 -0.000005569647992373927 -0.0003365034805152238
          0.00002002831492666897 0 -0.000011139295984747855 -0.0006730069610304476 0.00004005662985333794 0
          0 0 -0.000022294441266943463 0 -0.00004458888253388693 0
          0 0 0 0.00009159986109236708 -0.000009401200982855657 0.000012869601717122697
          0.00018319972218473415 -0.000018802401965711314 0.000025739203434245393 0.027655039377915764 0.02497916223125301 0.03243312021152142
          0.03273315476294342 0.02671169383099783 0.024483796983140575 0.03138332284726838 0.031446989203035056 0.025768348284079902
          0.023988431735028144 0.03033352548301535 0.030160823643126687 0.005539466429806634 0.0028817482590963927 -0.00025425642572922207
          0.002459188541998149 0.006699991219331691 0.0031872531166079257 0.0008186432643279468 0.004188608946407158 0.007860516008856747
          0.00349275797411946 0.0018915429543851156 0.005918029350816169 0.01602934500885992 0.015882565739604764 0.019150796977636476
          0.018606972816514335 0.016056221134247987 0.016063437560580488 0.019061214995044366 0.018415432525321834 0.01608309725963605
          0.01624430938155621 0.018971633012452256 0.018223892234129336 0.0071664033997470115 0.008209875316289124 0.005522116015834676
          0.004200068748442947 0.007723177373623867 0.008675478465807943 0.0059482070478093525 0.004677879006469925 0.008279951347500723
          0.00914108161532676 0.006374298079784027 0.005155689264496903 0.004721585511250367 0.006156514162276234 0.005004356172366
          0.0065240863845730575 0.0052871268334816314 0.006891658606869881 0.022024340604101075 0.019770371362292583 0.021657759718945846
          0.019785045046328477 0.021291178833790624 0.019799718730364374 0.00000211091687401707 0 0
          0.000010887624294641506 0.00004656546674243013 0.00022462936661598947 0.00012059830463321576 -0.0005509232378341639 0.00009102001661084319
          0.000449258733231979 0.00024119660926643152 -0.0011127340999629693 0.02464597789039474 0.02441788714773038 0.029891074323064697
          0.027982940178022473 0.02372542190404826 0.023538301563038832 0.02861886741490704 0.026825084195041166 0.022804865917701776
          0.02265871597834728 0.027346660506749377 0.025667228212059856 0.025266837267188046 0.034734628832771584 0.024896224618946524
          0.03377934115252953 0.024525611970705002 0.03282405347228748 0.000043731254742145616 0.00017067991949758278 0
          0 0.00006039554504007027 0.0001938287017262436 0 0 0.00007705983533799492
          0.00021697748395490442 0 0 0.04304050926031683 0.05631887865311759 0.05356206484162795
          0.04037158288904987 0.042243619108906096 0.05419171157239147 0.05137721252202361 0.03959834738961031 0.04144672895749536
          0.05206454449166536 0.049192360202419266 0.03882511189017076 0 0 0
          0 -0.0002130628104421034 -0.000018608373903846977 0.000031359862953896406 -0.00016697212907849682 -0.0004261256208842068
          -0.00003721674780769395 0.00006271972590779281 -0.00033394425815699364 0.010071888949097543 0.009917726119852775 0.010535413306019871
          0.010471353559527384 0.010998937662942203 0.011024980999201996 0.02227621526874604 0.021705065653797657 0.021133916038849274
          0.00001663678237134257 -0.000008292838193479124 -0.00009750295711506444 -0.0008071558222275172 -0.00021164269660147147 -0.0016060188062615554
          -0.000670042258780332 0.0003921674657640721 0.00008514278797051098 -0.0009302161996473767 0.000012562367051589243 -0.0003246480907956632
          -0.0011903901405144217 -0.0003670427316608936 -0.0007344389695618376 0.01245869798250829 0.01013191352589968 0.01828039151061496
          0.018807823135856987 0.013276669744574964 0.011041931646644444 0.019174666053822655 0.019128565185166424 0.014094641506641636
          0.011951949767389208 0.020068940597030346 0.01944930723447586 0.032512388682205205 0.03457120511110119 0.03751332448436413
          0.031004542171687875 0.03297870029007813 0.03561831011146493 0.02949669566117054 0.03138619546905508 0.03372329573856572
          0.003998529572262371 0.007776573824274926 0.004290324995022859 0.008158651245382323 0.004582120417783348 0.00854072866648972
          -0.0013957405697560515 0.0005765689935604048 0.0005956127502954345 0.00243379287951345 0.00258696607034692 0.004291016765466495
          0.0034760599748867873 0.0015941212574722794 0.004127568057762688 0.0020743442218977997 0.004779076140638588 0.00255456718632332
          0.049369349566042414 0.04741133543860243 0.052222892999797085 0.05358578329682566 0.046531500660226224 0.04488246094399944
          0.04953590403666698 0.050675537706434196 0.04369365175441004 0.04235358644939645 0.04684891507353686 0.04776529211604274
          0.012650029477066869 0.012493438819748397 0.016069616875336507 0.013068756954989096 0.013133187410554937 0.01644550120480162
          0.01348748443291133 0.01377293600136147 0.016821385534266736 0.00031781901416579186 0.00010111917130100755 0.00047919563414785177
          0.0002275592560917444 0.0006405722541299116 0.0003539993408824812 0.012530279015751832 0.00986668993749511 0.012791746389601214
          0.010201783006379195 0.013053213763450594 0.010536876075263279 0.007205401709054771 0.008075325139171455 0.007873183211297166
          0.008816713909871626 0.00854096471353956 0.009558102680571801 0.0037225907100545148 0.0019689867273908275 0.004281187655390251
          0.0022927790658926295 0.004839784600725989 0.0026165714043944314 0 0 0
          0.0000024634669880127634 0 0 0.000004926933976025527 0 0
          0.002288204169453105 0.0010997875166972885 0.002553049055117253 0.00243818201555694 0.0012001686194644979 0.002810014255881225
          0.0025881598616607753 0.0013005497222317072 0.003066979456645197 0.03897745163680006 0.04343860483719839 0.04349184308605726
          0.03703254125872359 0.041128061629140546 0.04108565627625809 0.03508763088064713 0.0388175184210827 0.038679469466458935
          0.045756444582161285 0.043167255339241206 0.04057806609632113 0 0 0
          0 0 0 0 0 0
          0 0 0 0.03847586513534769 0.042928490648832626 0.03679449742458138
          0.041054384464817004 0.03511312971381507 0.03918027828080139 0 0 0
          0 0 0 0.056798472575884155 0.04639369486144731 0.0541490558495785
          0.044526133396866244 0.05149963912327286 0.042658571932285165 0.027846139198306648 0.028082368489703635 0.027837442418213558
          0.028628935055132764 0.027828745638120475 0.02917550162056189 0 0 0
          0.0034180488121188916 0.0035895764948610295 0.003761104177603168 0.010872435759326778 0.005574818275160566 0.012532930351725802
          0.007397729748937514 0.014193424944124823 0.009220641222714461 0.0036143646636140965 0.003991511216061431 0.004368657768508764
          -0.0007756292439135088 -0.0005211431561675914 -0.000266657068421674 0 0.0000024634669880127634 0.000004926933976025527
          0.00067268829231764 0.0008106862457407417 0.0009486841991638435 0 0 0
          -0.0009171907083889829 -0.0009390606092365545 -0.0009609305100841259 0.02159575252914998 0.02267736578558778 0.023758979042025577
          0.0585659378630351 0.055846073449151074 0.05312620903526703 0.024092293942032147 0.023211416583693915 0.022330539225355682
          0 0 0 0 -0.00009218136272721318 -0.00018436272545442636
          0.004444671450565015 0.004419823351625319 0.004394975252685623 0.004817790900530151 0.004812706818428549 0.004807622736326947
          0.0052407476036437604 0.005216280706530646 0.005191813809417531 0.005256528303304794 0.0052526397891681734 0.0052487512750315525
          0.005825202123148186 0.005806913567796057 0.005788625012443928 0.006016090855801224 0.0060110745057572 0.006006058155713177
          0.005607813640082454 0.005624383282163565 0.005640952924244676 0.004445436595453335 0.004482682536909245 0.004519928478365158
          0.002715607262763409 0.0027643091686140545 0.0028130110744646985 0.002460764003192367 0.0014829654113071304 0.0025545610983729477
          0.0015463342794188569 0.0026483581935535278 0.0016097031475305829 0.0004139591771368773 0.0000722558238167364 0.00009956187842796506
          0.0006113043122428313 0.00041830000408349735 0.0000734254331220721 0.00010275756032761515 0.0006354675198960962 0.00042264083103011745
          0.00007459504242740778 0.00010595324222726523 0.0006596307275493613 0 0 0
          0.001055168070748987 0.0010696378151273476 0.0010841075595057084 0 0 0
          0.004892215993433625 0.004847884646473249 0.004889844347657504 0.004843242077872628 0.004887472701881385 0.004838599509272006
          0.005413274732500641 0.005411563710580729 0.0054098526886608165 0.00462553972008295 0.00462620576524593 0.0046268718104089095
          0.0051485634571242596 0.00515047418616622 0.00515238491520818 0.004347865729014777 0.0043551557223703175 0.004362445715725858
          0.0030310108325701515 0.0030405113225606376 0.0030500118125511236 0.001617155113335082 0.0016217285329315516 0.0016263019525280208
          0.0005769432221261633 0.0005780369451567387 0.000579130668187314 0 0.00007171299807266791 0.00005509034732627232
          0 0.00007224814884442129 0.00005526926970721094 0 0.00007278329961617468 0.00005544819208814956
        </DataArray>
        <DataArray type="Float64" Name="pe22" format="ascii" RangeMin="-0.026070419990128713" RangeMax="0.0008540256565473346">
          0 0 0 0 0 0
          0 0 0 0 0 0
          0 0 -7.145300825229028e-7 0 -0.0000014290601650458057 0
          -0.00002044050253995881 -0.000012221357397823969 -0.00002829642239345303 -0.000018948948102074665 -0.00003615234224694725 -0.00002567653880632536
          -0.0001447763845605218 -0.0001211699333503991 -0.00015437961237003045 -0.00013105424566570503 -0.0001639828401795391 -0.00014093855798101096
          -0.00044023222939090615 -0.00040517222065767136 -0.0004316455366988474 -0.000397520719700626 -0.0004230588440067888 -0.0003898692187435806
          -0.0009106877612651909 -0.0008638490586448244 -0.0008721009189168316 -0.0008248771416881934 -0.0008335140765684723 -0.0007859052247315625
          -0.0015673588597035094 -0.00149373019709364 -0.0014989918868419082 -0.001421343142607647 -0.001430624913980307 -0.0013489560881216544
          -0.0024041526497195027 -0.002270974494536194 -0.0023126026018272247 -0.0021692507925418487 -0.002221052553934947 -0.002067527090547503
          -0.0036666435747091256 -0.0031264570820729995 -0.0035022146984127088 -0.00296194432544177 -0.0033377858221162937 -0.00279743156881054
          0 0 0 0 -5.2767899193599575e-8 -1.0553579838719915e-7
          -0.0000031688481373248923 -0.0000071550578411625644 -0.000011141267545000237 -0.00005180388468460475 -0.00006317764397150962 -0.00007455140325841452
          -0.0002190739918347148 -0.00022710245081297793 -0.00023513090979124105 -0.0005447203087241069 -0.0005337482653902498 -0.0005227762220563928
          -0.0010497932342615113 -0.0010126651446122667 -0.000975537054963022 -0.00177443284208434 -0.0017168361267078803 -0.00165923941133142
          -0.0027233103918009255 -0.0026599719029532583 -0.0025966334141055915 -0.003851133464615121 -0.0037744786031192502 -0.0036978237416233784
          0 -4.6865115911394637e-8 -9.373023182278927e-8 -1.4729708186835907e-7 -0.0000029910286752028527 -0.000005834760268537347
          -0.000021717428336865057 -0.00003276896525769383 -0.00004382050217852261 -0.00012320080010065333 -0.0001377304896326636 -0.00015226017916467388
          -0.00034798769270505067 -0.0003524900247766232 -0.0003569923568481958 -0.0007158192815208296 -0.0007021446248751242 -0.0006884699682294191
          -0.001272260056154074 -0.0012382314397981632 -0.0012042028234422529 -0.0020763616952431127 -0.0020338789293113143 -0.001991396163379516
          -0.0030815434245343182 -0.00305781206594942 -0.0030340807073645218 -0.004271542772884352 -0.004309580227034269 -0.004347617681184188
          0 -0.0000028914436629327363 -0.000005782887325865473 -0.000010177098680230873 -0.00002157529946968584 -0.000032973500259140805
          -0.00007642558991835834 -0.00009482795915610364 -0.00011323032839384892 -0.00024596264524195585 -0.0002594252197215072 -0.00027288779420105847
          -0.0005297227020362494 -0.0005295828277818809 -0.0005294429535275124 -0.0009470126393693247 -0.0009314782518063257 -0.0009159438642433267
          -0.0015574886201934512 -0.001528611061252393 -0.0014997335023113345 -0.002414929311862282 -0.0023898852721342097 -0.0023648412324061368
          -0.003405102789294739 -0.00341820558103979 -0.0034313083727848413 -0.004215082511218518 -0.004300196159235896 -0.004385309807253275
          -0.000007135605753579342 -0.000018720198007578243 -0.000030304790261577145 -0.00005291010610596789 -0.00007321682337613088 -0.00009352354064629388
          -0.0001827777691917344 -0.00020196391088168276 -0.00022115005257163106 -0.0004172716036275361 -0.00042566823288517526 -0.00043406486214281434
          -0.0007579170448277808 -0.0007532596157696296 -0.0007486021867114782 -0.0012261677137072483 -0.0012103186689192765 -0.0011944696241313042
          -0.0018759231564812746 -0.0018542885338052695 -0.0018326539111292641 -0.0027326423476901427 -0.00272456470915452 -0.002716487070618897
          -0.0036352444165406107 -0.003671837902363641 -0.003708431388186672 -0.004210738020271124 -0.004308378400090383 -0.004406018779909643
          -0.000045278693867704676 -0.00006295506435166338 -0.00008063143483562208 -0.00014747505346050113 -0.00016642861141139565 -0.00018538216936229016
          -0.00033879788397770863 -0.000350490383141668 -0.0003621828823056275 -0.0006286094101275797 -0.0006297877535818595 -0.0006309660970361393
          -0.0010223461205518878 -0.0010140694383459798 -0.0010057927561400717 -0.0015349674484661272 -0.0015208066318230628 -0.0015066458151799982
          -0.0021951112230013036 -0.0021821999259333514 -0.002169288628865399 -0.0029875191577850226 -0.002993415091662565 -0.0029993110255401075
          -0.0037138050177042865 -0.0037624552326661347 -0.0038111054476279837 -0.004061967656290686 -0.004158252230003944 -0.004254536803717201
          -0.0001330581294425439 -0.0001432980799419085 -0.00015353803044127306 -0.00029103294228314733 -0.00029673070311641816 -0.00030242846394968904
          -0.00053250642400504 -0.000531524527939264 -0.000530542631873488 -0.0008695927682061603 -0.0008626272781155554 -0.0008556617880249504
          -0.0013086668193153614 -0.0012981954922719925 -0.0012877241652286234 -0.00185098522326271 -0.0018407358142873264 -0.001830486405311943
          -0.002486117444649795 -0.00248280479991735 -0.0024794921551849047 -0.003153123150412281 -0.0031700342574435456 -0.0031869453644748115
          -0.003653574510791126 -0.0037066313395903326 -0.003759688168389539 -0.0037418503069291268 -0.0038319343327516352 -0.0039220183585741445
          -0.0002605346777701566 -0.00025683608754536124 -0.00025313749732056587 -0.000466217975045391 -0.00045633306595340665 -0.00044644815686142235
          -0.00075171386713007 -0.0007375072604412979 -0.0007233006537525259 -0.0011290017240469243 -0.0011139167524575572 -0.0010988317808681898
          -0.0016007463122255446 -0.0015885494613691923 -0.00157635261051284 -0.002150941124482706 -0.002145400963822277 -0.0021398608031618486
          -0.0027280144923576798 -0.002734936791135345 -0.002741859089913011 -0.0032235864458502097 -0.0032517567441364527 -0.003279927042422696
          -0.003465460422029547 -0.003521271669469998 -0.0035770829169104483 -0.0033021002830181546 -0.003381604816751189 -0.0034611093504842228
          -0.0010636972680630934 -0.0010487835546103127 -0.0010338698411575323 -0.0014801322322992123 -0.001467442117023299 -0.0014547520017473856
          -0.0019646291981865517 -0.001957734426173015 -0.0019508396541594772 -0.0024771744418261707 -0.002478965744145108 -0.0024807570464640463
          -0.0029315458617145767 -0.0029460854481264463 -0.0029606250345383172 -0.003184697271217245 -0.0032155798566816936 -0.0032464624421461425
          -0.0030931868268262745 -0.0031371635297031708 -0.003181140232580068 -0.0027444020369302158 -0.0027936489068560947 -0.0028428957767819736
          0 0 0 0 -0.00012402019143708536 -0.00005298167953888629
          -0.000003569183326604875 0 -0.0002480403828741707 -0.00010596335907777255 -0.00000713836665320975 0
          0 0 0.000013588433430164178 0 0.000027176866860328357 0
          0 0 0 -0.00009140254586690643 0.00000977110831158642 -0.000014320602291215862
          -0.00018280509173381287 0.00001954221662317284 -0.000028641204582431724 -0.00745793608740523 -0.006862963904897884 -0.010318536785443144
          -0.010061536155034693 -0.007023151259731888 -0.006725391707089359 -0.009673579954827599 -0.009293039522438084 -0.006588366432058547
          -0.006587819509280833 -0.009028623124212053 -0.008524542889841473 -0.001049257743804901 -0.0010717595019298395 -0.00016039146080187015
          -0.000781512149535077 -0.0013840944334256346 -0.0007226532258635067 -0.00023375391188442638 -0.0010702252687734984 -0.0017189311230463682
          -0.00037354694979717395 -0.0003071163629669826 -0.0013589383880119195 -0.00495260657216637 -0.005078226658453507 -0.005157424065551942
          -0.004903139206414662 -0.005097798098960681 -0.005284641994534837 -0.005295473027589614 -0.004980099374722529 -0.005242989625754995
          -0.005491057330616169 -0.0054335219896272866 -0.005057059543030398 -0.0037722792474051813 -0.00398618953493389 -0.0030458146139799016
          -0.0023584665803087065 -0.003947335878687187 -0.004166652224147692 -0.003152960692554427 -0.0024619463286229067 -0.004122392509969193
          -0.004347114913361494 -0.0032601067711289524 -0.002565426076937107 -0.002820810635833334 -0.003408703549480535 -0.0028988950718817556
          -0.003507344384324077 -0.0029769795079301778 -0.0036059852191676176 -0.005652456106260057 -0.005519906246671359 -0.0056594718533378085
          -0.00571434534775507 -0.005666487600415558 -0.005908784448838782 -8.072608329739665e-7 0 0
          0.000040016793829197964 -0.00014101229491974467 -0.0002321605717126962 -0.00010541193946302832 -0.00006680131673457723 -0.0002812173290065154
          -0.0004643211434253924 -0.00021082387892605668 -0.00017361942729835246 -0.004943976818109212 -0.005306050344032098 -0.008284020026356847
          -0.006905994942038626 -0.00461751757265269 -0.005008998274666478 -0.007619364499518495 -0.006365553814629877 -0.004291058327196166
          -0.0047119462053008595 -0.006954708972680142 -0.005825112687221128 -0.007467033304325098 -0.012943556911400367 -0.0073594353062531
          -0.012242921970592117 -0.007251837308181105 -0.011542287029783866 -0.000024148909493989642 -0.00009407998355083133 0
          0 -0.000028261454904364367 -0.00009801936111169004 0 0 -0.00003237400031473909
          -0.00010195873867254873 0 0 -0.019073022634404763 -0.026070419990128713 -0.024637796685053358
          -0.01743188051660486 -0.018289619171829186 -0.024128714926662985 -0.022719347721113788 -0.016802478508090683 -0.017506215709253606
          -0.022187009863197257 -0.020800898757174214 -0.016173076499576514 0 0 0
          0 0.00030273172432139256 0.000039342213232806 -0.00004418101636312021 0.00020353979295154772 0.0006054634486427851
          0.000078684426465612 -0.00008836203272624042 0.00040707958590309543 -0.004430403488113431 -0.004655386264013206 -0.004657351762171918
          -0.004890908865707622 -0.004884300036230405 -0.005126431467402039 -0.005326883023184939 -0.005200649202003341 -0.005074415380821744
          -0.000023913832077651907 -0.000010289259088464388 -0.0006536892950617367 -0.0002953510444691069 -0.0012834647580458212 -0.0005804128298497494
          0.00019894871066247196 -0.00018848052676794595 -0.00003573031357893069 -0.00008184959975704273 0.00033277256488969443 0.0001466520060965839
          -0.00036264791017655745 0.0008540256565473346 0.00032903432577209845 -0.0042607525875373135 -0.002857207948600233 -0.005373914696219531
          -0.005159613816420111 -0.004576687613790189 -0.003162747264241209 -0.006080388532579771 -0.005483273419892451 -0.0048926226400430655
          -0.003468286579882185 -0.006786862368940011 -0.00580693302336479 -0.009775155774860843 -0.011021159322672223 -0.013065899060119146
          -0.0089158572426601 -0.009996370139262491 -0.01173798022768404 -0.008056558710459356 -0.008971580955852758 -0.010410061395248936
          -0.002365579359604168 -0.0038528543954051237 -0.0024327114791882886 -0.003971056174459755 -0.0024998435987724087 -0.004089257953514389
          0.0004944848697202608 -0.0003486612349691294 -0.0009235793172502685 -0.00114147281710506 -0.0023416435042207975 -0.00193428439924099
          -0.0014797740107035712 -0.0007931779729482992 -0.0017096945597582921 -0.0009228332559171251 -0.0019396151088130129 -0.0010524885388859507
          -0.020629589209038363 -0.019460747247271745 -0.022164128343878105 -0.022131712560153134 -0.018311618707770816 -0.017421257046835417
          -0.01983454413844897 -0.019570288446729117 -0.015993648206503265 -0.015381766846399091 -0.01750495993301984 -0.017008864333305097
          -0.004896168052962514 -0.004700615078991187 -0.004899235557455291 -0.005130768114354528 -0.0050432704284068324 -0.005225620417315467
          -0.005365368175746541 -0.005385925777822479 -0.005552005277175644 -0.0001679174231549185 -0.0000486063175512919 -0.00021556155389828376
          -0.0000843830869903965 -0.00026320568464164895 -0.00012015985642950111 -0.004640219131354253 -0.004201384501610221 -0.004820884414952229
          -0.004353736866370651 -0.005001549698550205 -0.004506089231131081 -0.0033629908532024507 -0.003182931710798389 -0.0036011285573515576
          -0.0033437271937778305 -0.003839266261500664 -0.0035045226767572717 -0.0019109200110400827 -0.0011716486330948803 -0.0020239630391759894
          -0.0012462134444572572 -0.002137006067311896 -0.0013207782558196336 0 0 0
          -0.000002143476173838949 0 0 -0.000004286952347677898 0 0
          -0.0014169231595802644 -0.0006636504860652152 -0.001535712583891513 -0.00144729547648732 -0.0006842113813764711 -0.001592485564447192
          -0.0014776677933943756 -0.000704772276687727 -0.0016492585450028708 -0.014119211653775651 -0.017254354757027017 -0.0176116027798301
          -0.012737127282676529 -0.015483494924917884 -0.015708731291488826 -0.01135504291157741 -0.013712635092808751 -0.013805859803147552
          -0.018823251467477757 -0.016749530902502162 -0.014675810337526565 0 0 0
          0 0 0 0 0 0
          0 0 0 -0.013838602130055297 -0.01722452435543759 -0.012671295571560822
          -0.015710085329004527 -0.011503989013066351 -0.014195646302571464 0 0 0
          0 0 0 -0.025072083775080772 -0.020273645632748007 -0.022684382496643934
          -0.018703636085385993 -0.02029668121820709 -0.01713362653802397 -0.009466975715914771 -0.010961673197367792 -0.009627095018893124
          -0.011451012061051568 -0.009787214321871475 -0.011940350924735341 0 0 0
          -0.002159258510539304 -0.0022011002769349694 -0.0022429420433306355 -0.0020516001096333543 -0.00019371767943816178 -0.0032450530481713414
          -0.0011410266010358566 -0.004438505986709328 -0.002088335522633551 -0.002151572324394623 -0.0022327247093091077 -0.0023138770942235922
          0.00044821834608104496 -0.0006727341133841923 -0.001793686572849429 0 -0.000002143476173838949 -0.000004286952347677898
          -0.00038684875459217425 -0.0004219373811960158 -0.00045702600779985736 0 0 0
          0.0007920962227987625 -0.00016260003611789014 -0.0011172962950345426 -0.007245854610541495 -0.008138157565477677 -0.009030460520413857
          -0.025590833280063317 -0.023097788428964823 -0.02060474357786633 -0.0045263839140458305 -0.004209295150880523 -0.003892206387715217
          0 0 0 0 0.00019838386273968972 0.00039676772547937944
          -0.0019547414149808052 -0.0019548882483024378 -0.0019550350816240703 -0.0023450022568291618 -0.0023510454772609655 -0.0023570886976927684
          -0.0023928851381643445 -0.0023974999809512065 -0.0024021148237380694 -0.0026400405004087446 -0.002648616120980875 -0.0026571917415530062
          -0.0027768608837210568 -0.0027865270201442817 -0.0027961931565675057 -0.0030006796017075276 -0.0030163121668086317 -0.0030319447319097363
          -0.002928044500684627 -0.0029482074701151556 -0.0029683704395456843 -0.0024602703091070807 -0.0024772625258152633 -0.0024942547425234464
          -0.0016226391892561413 -0.0016290386641731164 -0.0016354381390900918 -0.0015556029361103202 -0.0008963861781734402 -0.0015679959605191059
          -0.0009021234744690632 -0.0015803889849278913 -0.0009078607707646863 -0.00023026914496928247 -0.00003790363895015402 -0.00005514303540245346
          -0.0003567953821052424 -0.0002275333225976807 -0.00003751394696286245 -0.00005460960964169401 -0.00035791375485579594 -0.0002247975002260789
          -0.00003712425497557088 -0.00005407618388093456 -0.0003590321276063495 0 0 0
          -0.0006019390024524418 -0.0005959144969808725 -0.0005898899915093032 0 0 0
          -0.0025694525695645854 -0.00247981177927849 -0.002575966643165715 -0.0024850612923549586 -0.0025824807167668445 -0.0024903108054314276
          -0.0028040033391483615 -0.002814528060760767 -0.002825052782373173 -0.002489752140462111 -0.0024966863902461684 -0.002503620640030225
          -0.0027430478165499767 -0.0027544250330677686 -0.0027658022495855614 -0.002371444636614876 -0.0023807242011513042 -0.002390003765687732
          -0.0016870118447016452 -0.0016890050590235542 -0.0016909982733454634 -0.00090724459904151 -0.0009020012422470461 -0.0008967578854525823
          -0.0003169174186036895 -0.0003126794444531676 -0.00030844147030264574 0 -0.00003535371223425238 -0.000026961203518059598
          0 -0.00003505587599868506 -0.000026776801057137644 0 -0.000034758039763117734 -0.000026592398596215695
        </DataArray>
        <DataArray type="Float64" Name="pe33" format="ascii" RangeMin="-0.03297510458297165" RangeMax="0.0021864316361156332">
          0 0 0 0 0 0
          0 0 0 0 0 0
          0 0 -0.0000011759255806711687 0 -0.0000023518511613423373 0
          -0.00003544167181677898 -0.000021734995317944663 -0.000054451691171045565 -0.00003781904802734055 -0.00007346171052531214 -0.000053903100736736446
          -0.0002888688959850902 -0.00024764674700457286 -0.0003439780647917857 -0.00030149627310725247 -0.00039908723359848117 -0.00035534579920993214
          -0.0010275336799807067 -0.0009677383629180985 -0.0011149420387624761 -0.0010581080883069025 -0.0012023503975442454 -0.0011484778136957065
          -0.0025150390428237282 -0.002458104707529476 -0.0026055474304319814 -0.0025541529394416122 -0.0026960558180402347 -0.002650201171353749
          -0.0051242410687144975 -0.005113713388055296 -0.0051454058573156495 -0.005139457794794763 -0.0051665706459168015 -0.005165202201534229
          -0.0098645641699446 -0.01009085636873496 -0.009681501716719363 -0.009896518035325342 -0.009498439263494127 -0.009702179701915723
          -0.01616100462565585 -0.016069076604340236 -0.01569076978705093 -0.01560865247284133 -0.015220534948446014 -0.015148228341342425
          0 0 0 0 -7.38576337204656e-8 -1.477152674409312e-7
          -0.000004649547070493411 -0.000011395450644195683 -0.000018141354217897955 -0.0000858459429769612 -0.00011418775294814082 -0.00014252956291932044
          -0.00041517567017140345 -0.00047230987057302076 -0.0005294440709746381 -0.0012012085095272408 -0.0012796550738237945 -0.0013581016381203478
          -0.002677618824025691 -0.00275176232252662 -0.0028259058210275485 -0.005147234260734471 -0.005155928541592896 -0.005164622822451321
          -0.009255031859942912 -0.009101555380234114 -0.008948078900525317 -0.013873551732155324 -0.013533753574881876 -0.01319395541760843
          0 -6.015685566171908e-8 -1.2031371132343817e-7 -1.911476131748448e-7 -0.000004230179394795481 -0.00000826921117641612
          -0.00003126509516245632 -0.00005067438684636061 -0.0000700836785302649 -0.00019650921974730297 -0.0002369762407889838 -0.0002774432618306646
          -0.0006279200064574858 -0.0006847410359096084 -0.0007415620653617309 -0.0014733680911582614 -0.0015367651109005481 -0.0016001621306428351
          -0.0029206511326581577 -0.002969023698674794 -0.003017396264691431 -0.005163048599900128 -0.0051532926175785684 -0.005143536635257007
          -0.00840348327438754 -0.008289504790095022 -0.008175526305802504 -0.01159499766875344 -0.011396177053913398 -0.011197356439073356
          0 -0.0000037910804700952096 -0.000007582160940190419 -0.000013363314826591592 -0.00003037194943910288 -0.00004738058405161417
          -0.00010911220134165824 -0.00014508756508250614 -0.00018106292882335404 -0.00038564307368079185 -0.00043435735663307985 -0.0004830716395853678
          -0.0009225267484153888 -0.0009739475434001435 -0.0010253683383848983 -0.0018212544250324062 -0.0018631532050893194 -0.0019050519851462329
          -0.0032045482640779624 -0.0032209732216988253 -0.0032373981793196883 -0.005141306656004372 -0.005109931282609282 -0.005078555909214192
          -0.007446271116513075 -0.007373705035561728 -0.007301138954610382 -0.008769751430214436 -0.008723172189639177 -0.008676592949063916
          -0.000009054511023149635 -0.000025176137891125114 -0.0000412977647591006 -0.00007159011367028195 -0.00010536502678174896 -0.00013913993989321597
          -0.00026703260380377244 -0.0003133728359823977 -0.00035971306816102294 -0.0006599652402469071 -0.0007077343270646818 -0.0007555034138824564
          -0.0012916069916746472 -0.001328520888658509 -0.0013654347856423704 -0.0022152263020925886 -0.002229024129259055 -0.002242821956425521
          -0.0034798197113429345 -0.003463123200487323 -0.003446426689631712 -0.005043841988011108 -0.004995112034758494 -0.00494638208150588
          -0.006471256048836313 -0.006438557327770455 -0.0064058586067045975 -0.006773226820407265 -0.00683799854694945 -0.006902770273491633
          -0.00006162230002489153 -0.00008867686750152893 -0.00011573143497816635 -0.00021416884313682103 -0.00025149882064050207 -0.00028882879814418305
          -0.0005252797432988167 -0.0005637113650145217 -0.0006021429867302267 -0.001025899181243928 -0.0010545786134999562 -0.0010832580457559842
          -0.0017237064543670698 -0.0017312754726797517 -0.001738844490992434 -0.0026193561690560285 -0.002599567882767654 -0.0025797795964792782
          -0.0036938654014397054 -0.0036504870445452403 -0.0036071086876507757 -0.004831277702401195 -0.00478131526760851 -0.004731352832815825
          -0.005502240714176149 -0.005513940413403445 -0.0055256401126307425 -0.0051360186669112675 -0.005283315424707513 -0.005430612182503762
          -0.0002003811083497595 -0.0002171505508150351 -0.00023391999328031072 -0.0004683269583206922 -0.00048089965850870635 -0.0004934723586967206
          -0.0008960905308299935 -0.0008971720160590418 -0.0008982535012880901 -0.0014823857826230151 -0.0014650528135979621 -0.001447719844572909
          -0.0021970474286007865 -0.0021581487233800203 -0.0021192500181592545 -0.002993140109117727 -0.002938420907038652 -0.0028837017049595766
          -0.0037994847769684628 -0.0037454697130591703 -0.0036914546491498773 -0.004469893203121607 -0.004446924484466372 -0.004423955765811137
          -0.004529406128959386 -0.004601520784849552 -0.004673635440739718 -0.0037759995547482867 -0.003976283069890887 -0.00417656658503349
          -0.0004331839441403567 -0.0004290748621593968 -0.0004249657801784369 -0.0008234178871820029 -0.0008048131325796978 -0.0007862083779773926
          -0.0013552472328535563 -0.0013175948257896995 -0.0012799424187258427 -0.00199025131476795 -0.001932797000836904 -0.0018753426869058578
          -0.002662700798581091 -0.0025911536091580128 -0.002519606419734934 -0.0032883726015656644 -0.003217416980051472 -0.0031464613585372794
          -0.003766061727267255 -0.0037182057492193255 -0.0036703497711713957 -0.0039620756411568175 -0.003969206151519595 -0.003976336661882372
          -0.0035663820839919955 -0.0036690934692230038 -0.003771804854454012 -0.0026596095694971142 -0.002843818984285651 -0.003028028399074188
          -0.0017720393651256508 -0.0017349893899372341 -0.0016979394147488174 -0.0023679971699774377 -0.0023166889014128314 -0.002265380632848225
          -0.0029213542167566033 -0.0028622239218133176 -0.0028030936268700316 -0.0033370903694001927 -0.003282415317939386 -0.0032277402664785786
          -0.003514744749144142 -0.003480176066107295 -0.0034456073830704493 -0.0033529477425191506 -0.0033591418647398214 -0.003365335986960492
          -0.002708444598807576 -0.002772628762799048 -0.0028368129267905204 -0.0018426305670965336 -0.0019522121148163553 -0.002061793662536177
          0 0 0 0 0.0001295898394282222 0.0003894851600448487
          -0.00001645913160006409 0 0.0002591796788564445 0.0007789703200896974 -0.00003291826320012818 0
          0 0 0.000008706007836779285 0 0.00001741201567355857 0
          0 0 0 -1.9731522546218635e-7 -3.6990732873075465e-7 0.0000014510005740930473
          -3.946304509243717e-7 -7.398146574615093e-7 0.0000029020011481860947 -0.020197103290510388 -0.01811619832635469 -0.022114583426078076
          -0.022671618607908693 -0.019688542571265732 -0.017758405276050264 -0.021709742892440344 -0.022153949680596943 -0.01917998185202108
          -0.017400612225745835 -0.021304902358802606 -0.02163628075328519 -0.00449020868599901 -0.0018099887571661518 0.000414647886532954
          -0.0016776763924618138 -0.00531589678589424 -0.0024645998907321075 -0.0005848893524225721 -0.0031183836776240317 -0.006141584885789471
          -0.0031192110242980633 -0.0015844265913780983 -0.00455909096278625 -0.011076738436693233 -0.010804339081150686 -0.013993372912083935
          -0.013703833610099317 -0.010958423035286838 -0.010778795566044767 -0.013765741967453834 -0.013435333150598808 -0.010840107633880443
          -0.010753252050938848 -0.013538111022823728 -0.013166832691098296 -0.003394124152341744 -0.004223685781355152 -0.0024763014018547554
          -0.0018416021681342282 -0.0037758414949365356 -0.004508826241660122 -0.0027952463552548953 -0.0022159326778469985 -0.004157558837531327
          -0.004793966701965094 -0.0031141913086550352 -0.002590263187559768 -0.001900774875417025 -0.002747810612795678 -0.0021054611004842324
          -0.0030167420002489534 -0.0023101473255514393 -0.0032856733877022273 -0.016371884497840567 -0.014250465115620215 -0.015998287865607336
          -0.014070699698571817 -0.015624691233374103 -0.01389093428152342 -0.0000013036560410430985 0 0
          -0.00005090441812383839 0.0000944468281774386 0.000007531205096704815 -0.000015186365170187493 0.0006177245545691267 0.0001901973123959203
          0.000015062410193409635 -0.000030372730340374982 0.001286353527262092 -0.01970200107228552 -0.019111836803698243 -0.021607054296707822
          -0.021076945235983843 -0.01910790433139557 -0.018529303288372316 -0.020999502915388542 -0.020459530380411293 -0.018513807590505624
          -0.017946769773046378 -0.02039195153406927 -0.019842115524838746 -0.017799803962861977 -0.02179107192137075 -0.0175367893126908
          -0.02153641918193611 -0.017273774662519625 -0.021281766442501467 -0.000019582345248155968 -0.00007659993594675145 0
          0 -0.00003213409013570591 -0.00009580934061455355 0 0 -0.00004468583502325584
          -0.00011501874528235565 0 0 -0.02396748662591188 -0.030248458662988687 -0.028924268156574423
          -0.02293970237244487 -0.02395399993707705 -0.030062996645753442 -0.028657864800923038 -0.02279586888151893 -0.023940513248242222
          -0.0298775346285182 -0.028391461445271656 -0.022652035390592993 0 0 0
          0 -0.00008966891387929091 -0.000020733839328960046 0.000012821153409223213 -0.00003656766387305202 -0.00017933782775858182
          -0.00004146767865792009 0.00002564230681844642 -0.00007313532774610404 -0.005641485460983986 -0.005262339855839411 -0.005878061543847749
          -0.005580444693819487 -0.006114637626711514 -0.005898549531799561 -0.01694933224556085 -0.01650441645179397 -0.016059500658027092
          0.000007277049706308603 0.00001858209728194274 0.0007511922521730047 0.0011025068666987879 0.001495107454639701 0.0021864316361156332
          0.0004710935481186754 -0.0002036869389967302 -0.00004941247439158029 0.00101206579942754 -0.00034533493191992636 0.00017799608470394834
          0.0015530380507364045 -0.0004869829248431226 0.00040540464379947694 -0.008197945394969937 -0.007274705577297258 -0.012906476814393445
          -0.013648209319435603 -0.00869998213078265 -0.007879184382397897 -0.013094277521229014 -0.01364529176527087 -0.009202018866595368
          -0.008483663187498536 -0.013282078228064587 -0.013642374211106137 -0.022737232907344355 -0.023550045788428953 -0.024447425424244978
          -0.022088684929027803 -0.02298233015081568 -0.023880329883780933 -0.021440136950711244 -0.02241461451320241 -0.023313234343316894
          -0.0016329502126581949 -0.003923719428869757 -0.0018576135158345605 -0.004187595070922506 -0.0020822768190109256 -0.004451470712975254
          0.0009012557000377873 -0.00022790775859117172 0.0003279665669625824 -0.0012923200624061868 -0.0002453225661126224 -0.0023567323662212025
          -0.0019962859641831977 -0.0008009432845239771 -0.002417873498004351 -0.0011515109659806686 -0.002839461031825504 -0.001502078647437361
          -0.028739760357004054 -0.02795058819133069 -0.030058764655919 -0.031454070736672564 -0.02821988195245849 -0.02746120389716598
          -0.02970135989822638 -0.03110524925971955 -0.027700003547912924 -0.026971819603001275 -0.029343955140533753 -0.030756427782766535
          -0.007753861424104051 -0.007792823740756703 -0.011170381317880127 -0.007937988840634074 -0.008089916982147189 -0.011219880787484515
          -0.008122116257164098 -0.008387010223537671 -0.011269380257088901 -0.00014990159101087327 -0.000052512853749715626 -0.00026363408024956795
          -0.0001431761691013478 -0.0003773665694882626 -0.00023383948445298 -0.007890059884397364 -0.005665305435884773 -0.00797086197464868
          -0.005848046140008385 -0.008051664064899997 -0.006030786844131998 -0.003842410855852169 -0.004892393428372714 -0.004272054653945323
          -0.005472986716092902 -0.004701698452038477 -0.00605358000381309 -0.0018116706990144206 -0.0007973380942959454 -0.0022572246162142423
          -0.0010465656214353693 -0.002702778533414064 -0.0012957931485747935 0 0 0
          -3.199908141738141e-7 0 0 -6.399816283476282e-7 0 0
          -0.0008712810098728401 -0.00043613703063207323 -0.0010173364712257379 -0.0009908865390696193 -0.0005159572380880266 -0.0012175286914340294
          -0.0011104920682663986 -0.0005957774455439798 -0.001417720911642321 -0.0248582399830244 -0.02618425008017137 -0.025880240306227147
          -0.02429541397604711 -0.025644566704222826 -0.025376924984769324 -0.02373258796906983 -0.02510488332827428 -0.0248736096633115
          -0.02693319311468352 -0.026417724436739263 -0.02590225575879501 0 0 0
          0 0 0 0 0 0
          0 0 0 -0.02463726300529239 -0.025703966293395032 -0.024123201853020672
          -0.02534429913581307 -0.02360914070074896 -0.02498463197823111 0 0 0
          0 0 0 -0.03172638880080329 -0.02612004922869925 -0.03146467335295376
          -0.025822497311481084 -0.031202957905104235 -0.025524945394262928 -0.01837916348239134 -0.01712069529233517 -0.018210347399317314
          -0.017177922994059586 -0.01804153131624329 -0.017235150695784 0 0 0
          -0.0012587903015795856 -0.0013884762179260579 -0.00151816213427253 -0.008820835649691374 -0.005381100595722113 -0.009287877303535547
          -0.006256703147895815 -0.009754918957379722 -0.007132305700069515 -0.0014627923392194684 -0.0017587865067523138 -0.002054780674285159
          0.0003274108978336637 0.0011938772695534565 0.002060343641273249 0 -3.199908141738141e-7 -6.399816283476282e-7
          -0.0002858395377254657 -0.0003887488645447258 -0.0004916581913639859 0 0 0
          0.00012509448559037958 0.0011016606453548453 0.002078226805119311 -0.014349897918607817 -0.014539208220084117 -0.014728518521560414
          -0.03297510458297165 -0.032748285020213465 -0.032521465457455274 -0.019565910027986317 -0.019002121432813397 -0.018438332837640476
          0 0 0 0 -0.00010620250001247778 -0.00021240500002495555
          -0.002489930035584209 -0.0024649351033228808 -0.0024399401710615523 -0.0024727886437009884 -0.002461661341167583 -0.0024505340386341773
          -0.0028478624654794155 -0.002818780725579438 -0.00278969898567946 -0.0026164878028960485 -0.002604023668187297 -0.002591559533478546
          -0.003048341239427127 -0.003020386547651774 -0.0029924318558764203 -0.0030154112540936935 -0.0029947623389485656 -0.002974113423803438
          -0.002679769139397825 -0.002676175812048407 -0.0026725824846989894 -0.001985166286346252 -0.0020054200110939807 -0.002025673735841709
          -0.001092968073507267 -0.0011352705044409366 -0.0011775729353746063 -0.0009051610670820458 -0.00058657923313369 -0.0009865651378538406
          -0.0006442108049497931 -0.0010679692086256352 -0.0007018423767658961 -0.00018369003216759487 -0.00003435218486658238 -0.00004441884302551159
          -0.000254508930137589 -0.00019076668148581668 -0.00003591148615920963 -0.00004814795068592113 -0.0002775537650403003 -0.00019784333080403852
          -0.00003747078745183688 -0.000051877058346330674 -0.0003005985999430116 0 0 0
          -0.0004532290682965452 -0.0004737233181464752 -0.0004942175679964051 0 0 0
          -0.002322763423869038 -0.0023680728671947584 -0.0023138777044917885 -0.002358180785517668 -0.002304991985114539 -0.002348288703840578
          -0.0026092713933522776 -0.00259703564981996 -0.002584799906287642 -0.0021357875796208384 -0.002129519374999761 -0.002123251170378684
          -0.0024055156405742807 -0.0023960491530984496 -0.0023865826656226186 -0.0019764210923999 -0.001974431521219013 -0.001972441950038126
          -0.001343998987868506 -0.001351506263537083 -0.0013590135392056598 -0.0007099105142935719 -0.0007197272906845052 -0.0007295440670754384
          -0.0002600258035224738 -0.0002653575007035711 -0.00027068919788466835 0 -0.00003635928583841552 -0.000028129143808212708
          0 -0.00003719227284573623 -0.000028492468650073285 0 -0.000038025259853056935 -0.00002885579349193386
        </DataArray>
        <DataArray type="Float64" Name="disp_x" format="ascii" RangeMin="0" RangeMax="0.00001954624305538698">
          1.4027822361826845e-7 0 1.4052363448812795e-7 0 1.4052482349787306e-7 0
          1.3884126359915772e-7 0 1.3957213288069605e-7 0 1.402592190405609e-7 0
          1.3722649940164187e-7 0 1.3898610859019942e-7 0 1.4162874804215918e-7 0
          1.3656133723654963e-7 0 1.3917478113148572e-7 0 1.4883449331520702e-7 0
          1.6315868220372706e-7 0 1.7089382124584094e-7 0 1.9633508722990294e-7 0
          2.6792115314852107e-7 0 2.7796929984764587e-7 0 3.0954686897818624e-7 0
          4.769778181508237e-7 0 4.849747823821592e-7 0 5.107508129612678e-7 0
          8.308339475590093e-7 0 8.281137048128769e-7 0 8.24522316892163e-7 0
          0.0000014077027837495942 0 0.0000013818066351625061 0 0.0000013036092125567762 0
          0.0000025429305070477117 0 0.0000024673254474832646 0 0.0000022161535326910244 0
          2.803527676124334e-7 2.810644434437064e-7 2.81497809728317e-7 2.773383431968338e-7 2.7922492239847537e-7 2.8168169309727323e-7
          2.745080305637664e-7 2.776024390243856e-7 2.844597413511252e-7 2.7588135455824643e-7 2.8223735667667435e-7 3.071686739712889e-7
          3.4255608784893047e-7 3.5830485455239635e-7 4.0851927888621223e-7 5.582776007971605e-7 5.773645601852932e-7 6.377295022235306e-7
          9.79489809382935e-7 9.938960170455121e-7 0.000001040869229802057 0.0000016838066791845537 0.0000016782828582747965 0.0000016685220316576137
          0.0000028230495272425793 0.000002772434696167394 0.0000026251206508715374 0.0000049564169518972026 0.000004817162162180245 0.000004364370450045835
          4.1994967637703045e-7 4.2158543672302994e-7 4.2368140085587765e-7 4.1567135584359675e-7 4.1892664942444776e-7 4.2488566756773516e-7
          4.115907138652229e-7 4.163529059727519e-7 4.333716272397198e-7 4.265892164855364e-7 4.404114839265574e-7 4.86911256128738e-7
          5.545547442779722e-7 5.77610220631103e-7 6.511737707186441e-7 8.91930867407822e-7 9.18425117013271e-7 0.0000010020498343480385
          0.000001530237926671876 0.0000015483136665185126 0.0000016081767637761314 0.000002579614818314003 0.000002570107970996336 0.0000025490559321766683
          0.000004236718865715943 0.0000041657463566787925 0.000003965146274869619 0.000007134706640130089 0.0000069539901618247086 0.000006377858936427651
          5.590211582771544e-7 5.622264614922509e-7 5.677751421607172e-7 5.537084574931134e-7 5.582781651973115e-7 5.726033620519454e-7
          5.519265946928443e-7 5.631063703606261e-7 6.018874760209716e-7 6.056777682277548e-7 6.277966441311272e-7 6.976840734078167e-7
          8.137152659821594e-7 8.436997592929358e-7 9.384968533352134e-7 0.0000012874077827539072 0.0000013187444084379092 0.0000014175190627990266
          0.000002147097820527407 0.0000021654421201568904 0.000002227348345754363 0.0000035277242455648294 0.000003512209142194286 0.0000034738436456572653
          0.00000563459899730324 0.000005549705021329704 0.000005312056783897438 0.0000089988411241341 0.000008803939489960923 0.000008197808244332573
          6.978970275174364e-7 7.027339557580355e-7 7.173623395281918e-7 6.918141066696791e-7 7.024197254429512e-7 7.377164001031737e-7
          7.123411241874642e-7 7.33375321911439e-7 7.982753368917284e-7 8.275334070757201e-7 8.57636476888363e-7 9.510529284261747e-7
          0.0000011352983888656268 0.0000011709471227502306 0.0000012821568654731813 0.000001759325566868466 0.0000017922177658949868 0.0000018960472928448802
          0.0000028397077723144728 0.000002854480275866778 0.00000290683663177958 0.000004524278386875882 0.000004501541695539539 0.000004440520633999876
          0.000006989282873669186 0.000006895671327983887 0.000006636759674252623 0.00001057816053594734 0.000010393354013670434 0.00000982490459150934
          8.364269033837913e-7 8.474347493341959e-7 8.813315136118226e-7 8.449209965053181e-7 8.654882497810527e-7 9.26782892838692e-7
          9.113737646281689e-7 9.411004530460948e-7 0.0000010317809719721672 0.0000011077169409820306 0.000001144120547111024 0.000001256799883689923
          0.000001533675037258952 0.0000015716063804671912 0.0000016905838012670042 0.000002317036162111555 0.00000234743171997693 0.0000024447616726166
          0.0000036073683545639306 0.0000036154716359944917 0.0000036482227667222835 0.000005550988936138265 0.0000055208456505054745 0.00000543519389606512
          0.000008272659833510396 0.000008177537080103073 0.000007911069096714034 0.000011885311114819627 0.000011726935362481062 0.000011238336693575243
          9.906181429203075e-7 0.0000010083361798136675 0.0000010627688362831507 0.0000010353762188483245 0.000001061560785099488 0.000001144628489842862
          0.0000011682415848260663 0.0000012013119522068787 0.000001308756787328573 0.0000014640309148874286 0.0000015004465871172685 0.0000016200831906306232
          0.0000020205792847937986 0.0000020546654752793547 0.0000021675329993609114 0.0000029631126598735285 0.0000029864706880667133 0.000003065129668107854
          0.0000044381514931542034 0.000004438536549338379 0.000004445863255128172 0.000006579289472089234 0.00000654480027114001 0.000006439171170217146
          0.000009449952693281312 0.000009363965465702394 0.000009107344922797783 0.00001294834727632765 0.000012829132973535673 0.000012443015198911078
          0.0000011822660128028515 0.000001198103612148878 0.000001262362202800276 0.0000012847679727611648 0.0000013060417514911114 0.0000013930000076636695
          0.0000015034966872308102 0.0000015286648926609917 0.00000163061402333976 0.000001911869294690625 0.0000019379494914325926 0.000002041388613404647
          0.0000026022993521498014 0.0000026248359490800566 0.000002712111742386447 0.0000036912857979222687 0.0000037041130466229194 0.000003752907770259075
          0.000005311441617471488 0.000005306254387290466 0.000005289400947468161 0.000007572910442240676 0.000007542520840389815 0.000007432673583237823
          0.00001048906914160256 0.000010425912682460664 0.000010207281453640471 0.000013805223156530007 0.000013732685399758794 0.000013462826732536785
          0.0000019203599984857685 0.0000019418446358052437 0.000002010177399301187 0.0000024490080326975724 0.0000024694205546453496 0.0000025331539517977484
          0.000003269115851777785 0.0000032847895086375472 0.000003331936312446628 0.000004482859477465887 0.000004489211613282291 0.000004505321779048183
          0.000006202378743037925 0.000006193822541581273 0.000006162595610440063 0.000008508533904816576 0.000008480292887033155 0.000008387233599938675
          0.00001137860807661321 0.000011328505366598667 0.000011172870317418369 0.000014490820849800402 0.000014439359830496432 0.00001427809456840142
          0.00001831549860882976 0.000017935988186893628 0.00001793800799856655 0.000018319361625753355 0.00001831349828922929 0.00001791320028755457
          0.000017936872335331387 0.000018317880658666824 0.000018283748479851253 0.000018014652138400668 0.000017947892601608528 0.00001832522796253469
          0.000018674557256916943 0.000018699129941637123 0.000018667622078406656 0.000018698475772152157 0.00001869840925472601 0.00001871003690195607
          0.00001865244562910415 0.000018924804306119127 0.00001893590826876182 0.000018633742916222558 0.000018919991603379855 0.000018922127554413313
          0.00001867112357713162 0.00001893891705638065 0.00001896262860306686 0.000004943795641960264 0.000007536788289975804 0.000006075448852849272
          0.00000432410895476393 0.000004734190401949298 0.000007247274418487773 0.000005801599632670878 0.000004116003685088825 0.000004106132861278315
          0.000006346047194110579 0.0000049761369546228975 0.0000035244449665122177 0.000016305259216531067 0.000016607890571686978 0.00001729374252872724
          0.000017118817900742906 0.000016159243928405465 0.000016496961640444696 0.000017484141596228104 0.000017137198953638332 0.000015643080363168007
          0.000015930656700324194 0.000017930967855637797 0.000017137957145605584 0.000009404537585120339 0.000010430391257899636 0.000008726365829983154
          0.000007718634485051548 0.000009172451081550342 0.000010155595416239803 0.000008449697153337434 0.000007499836720150927 0.000008433754068272519
          0.000009305415256626468 0.000007602134882033375 0.000006798158570478743 0.000014645222459639312 0.000013676356842976166 0.000014801559391210246
          0.00001568325703620638 0.00001449296479829542 0.000013504036447937289 0.000014693293219318075 0.00001559362591053524 0.000013970591087564035
          0.000012968429969221777 0.000014334288755852605 0.000015240303560518878 0.000014771712986164613 0.00001406877562972883 0.000014705161108357531
          0.000013969088227416761 0.00001447463226788699 0.000013629189925531427 0.000007376085073536995 0.000009563508582873628 0.000007115966369710226
          0.000009255500417713917 0.000006314097712250758 0.00000829646033316868 0.0000184698664573218 0.000018755089192952444 0.000018819711523385984
          0.000018447902326397504 0.000018464812191880748 0.000018742084262048014 0.00001880050468387124 0.000018443189141564877 0.00001837972170808997
          0.000018684503514109102 0.00001872148019805301 0.00001833112992823721 0.0000014106495534991129 0.0000031221542142883005 0.000002364937600687813
          0 0.000001369746125811652 0.0000030198274439126598 0.0000022611677724825725 0 0.0000012042919569070538
          0.0000026636791548644996 0.0000019514687115493877 0 0.000008965188971718512 0.000007948864864261183 0.000008630978920120504
          0.000007620635048226712 0.000007560746683461317 0.000006538262705472156 0.00001786627855160834 0.000017718171444140303 0.000018216234243663623
          0.00001834888653350578 0.000017867205181706813 0.000017716803824278567 0.000018215640569060984 0.000018348766646317398 0.00001786086070238565
          0.00001770940289954509 0.000018215579181810928 0.000018352681665041992 0.000011415808566588131 0.000006189449589807102 0.000006033421405705818
          0.000010119356446600112 0.000011236013674563513 0.000006076187426859803 0.0000058851886053375435 0.000009836682295765753 0.000009914656667441625
          0.000005174577588506028 0.00000490358443210012 0.000008316413743730038 0.000019203730040302274 0.000019018736300901522 0.000018974304686522392
          0.000019182993264499316 0.00001916278257157202 0.00001898572644450964 0.00001894823184322156 0.000019168531915963854 0.000019289063959549504
          0.00001902034171436233 0.000019024698457927233 0.00001912155486742905 0.000012949980851283414 0.000013455741179779263 0.000012747450945496242
          0.000013248769179151706 0.000012099197183608126 0.000012559272544866117 0.000005638038035068134 0.000005444937039198675 0.000004835447517290671
          0.00001813048594004331 0.000017765151279830317 0.000018118121643355086 0.00001776610496157659 0.000017999831302168824 0.00001822720732298526
          0.000017457967663511717 0.000017203414700919276 0.000017526702868878528 0.00001760500036359489 0.00001712587078412702 0.000017521416724446373
          0.00001836324328617831 0.000016864494015094454 0.00001745741262654941 0.000013667728595164972 0.00001484130936383196 0.000013681744758750239
          0.000011429671384504044 0.000013343460755424194 0.00001453892258953476 0.00001327921995855187 0.00001104038596962317 0.00001236297868962972
          0.000013644320779955684 0.00001209833356877089 0.000009858880234096225 0 0.000002324657337225834 0
          0 0.000002209827611414207 0 0 0.0000018936600469394714 0
          0.00001550794599545454 0.000013357287362903254 0.000015444966996416927 0.000013206176642394165 0.00001522668470827675 0.00001275238852963869
          0.00001767776887215579 0.000017933857685729743 0.000017785668747910642 0.00001779213913261944 0.000017840523431048737 0.000017288556333844872
          0.00001627236172133315 0.000016910532926895338 0.00001616820957383401 0.000016857480953728346 0.000015669413958046903 0.00001663432425478827
          0 0.0000024623323676408976 0.0000030366636469474615 0 0 0.000002344878245054971
          0.000002925901554831085 0 0 0.000001915566125708917 0.0000023422027950139183 0
          0.00001215270149808621 0.00001304804982567576 0.000011340003012782296 0.000011900685782646873 0.000012785511047829386 0.00001103441008072806
          0.000011103736342166144 0.000011916440678296802 0.000010089613569819414 0.000017447750690644095 0.00001762058473753744 0.000017450878351141658
          0.000017623625141656073 0.00001742314821974571 0.000017610684374492467 0.000011251253916770993 0.0000123130512998264 0.000011025894166139862
          0.000012124408844065568 0.000010325333949131605 0.000011549248379905665 0.000015138017707516556 0.000015301971866093327 0.000014973398785872545
          0.000015077727474778635 0.000014342097389867778 0.0000143062903077767 0.000015983071545395235 0.00001665495678831146 0.000015880166635207254
          0.000016614492030770796 0.000015467940987350827 0.000016450040566433595 0.000019148876376581134 0.00001894348027279558 0.000019134360429671586
          0.000019137869310211685 0.000018940352575482202 0.00001912842358621574 0.000019142278303180452 0.00001895779225433847 0.00001913906665363098
          0.00001644990279524881 0.00001719033409352894 0.00001630824018210136 0.00001642007020146837 0.000017181011030063097 0.000016261031657703927
          0.000016325131255258853 0.000017147164148262535 0.00001609311655737049 0.000002133920405019267 0.0000017364822354110793 0
          0.00000203054213062358 0.0000016541334557995914 0 0.0000016866172771411815 0.0000013597097895584026 0
          0 0 0 0.000019118223843732262 0.000018930571788743686 0.000018865386974022487
          0.000019114405230095858 0.000019117220453188992 0.00001893082450120419 0.000018866178444649416 0.000019114219865530462 0.0000191275487608754
          0.00001894239194970228 0.000018876632907981866 0.000019123764769987298 0.000004018520731913455 0.000004715327992678718 0.000003826873904678385
          0.000004502141694129187 0.0000032053593589794856 0.0000037803713514946285 0.00001894574980475716 0.000019124013413815003 0.000018945056193593912
          0.000019121233644625354 0.00001895809886998492 0.000019133009294702887 0.0000032806687725128395 0.0000064586111188934616 0.000003198892061660796
          0.000006222099165698406 0.0000026307065471114486 0.000005073581107687497 0.000011025009312948897 0.000013019481773274822 0.000010626860555495034
          0.000012731067624763691 0.000009277969430997916 0.00001136303563686902 0.00001870048591665807 0.00001870106715875334 0.000018711883992612943
          0.00001553035463402414 0.000015477874701239077 0.000015334173147566752 0.000016025905671766095 0.000016951669160665976 0.000015820581369519784
          0.00001694555787944667 0.000014883425318388505 0.000016420940153837606 0.000015786773069205396 0.00001572511430452863 0.0000154663514013262
          0.00001785682966054291 0.000017886501242488916 0.000018049667257833804 0.000019166362442431352 0.000019151331265171578 0.000019135551501718
          0.000017247044536917746 0.000017240994923839035 0.000017192271130397675 0.000018690220418191947 0.000018692087322805213 0.000018699510370040167
          0.000017894498019093983 0.000018123439699232542 0.000018307412381114655 0.000015704767751536842 0.000015526966334280793 0.000014202111660343817
          0 0 0 0 0 0
          0.000019113584924478466 0.000019114145568572672 0.000019122813215615836 0.000019212390579303256 0.000019151744624994812 0.000019330791055756828
          0.000004907065882048228 0.000004909661441312209 0.000004904700140795892 0.000007597312963383087 0.000007592227285857337 0.000007585479612755787
          0.000006170640110251523 0.0000061676918917725726 0.000006147306748071223 0.000009158220241393171 0.000009148201499691908 0.00000912598377420366
          0.000007754294379597995 0.000007744936205158147 0.000007709606496851237 0.000009679789934329062 0.000009663769371131845 0.000009615682210802927
          0.000011919453785315184 0.0000118973629824731 0.000011840969450682278 0.000014319531392374303 0.00001429622639627571 0.000014242673695492862
          0.000016561180372310837 0.000016552112387128365 0.00001652588433275999 0.00001644453448466972 0.0000170582311283115 0.00001642478056080018
          0.000017055365377535338 0.000016367620879598305 0.000017025177321081166 0.000018027137617726587 0.000018500836261592315 0.0000182218345631666
          0.000017660081918650964 0.00001802511254723257 0.000018501368213864623 0.000018221091550280124 0.00001765736991495228 0.000018019896720843208
          0.000018502803252657646 0.00001822113569092253 0.000017648369245116404 0.000018698295420063706 0.000018699582925791582 0.000018705646384712412
          0.000017492494474370285 0.000017489807940811047 0.000017474285041550326 0.00001925980418813774 0.00001926102929938149 0.00001926582652861336
          0.000012068170390013729 0.000010392138173056753 0.00001205971181288487 0.00001038819177409746 0.000012033126900986896 0.000010374830636897429
          0.00001092856442367315 0.000010914443539346756 0.000010877577627581204 0.000013813960646501865 0.000013801505116499746 0.00001376282927399406
          0.000012850216385059385 0.00001283380385392134 0.000012785313346426548 0.000014804446033529656 0.000014788092334513202 0.000014734583386801917
          0.000016589072646719112 0.000016578785872919836 0.000016533139172201106 0.00001787591278167605 0.000017871114130548222 0.000017852848442027837
          0.000018294699386033253 0.000018292022730966856 0.000018286873538000632 0.000019541952196679044 0.000018812826428185504 0.000019275602216586332
          0.000019543018786976294 0.000018812948124334003 0.000019275637629670605 0.00001954624305538698 0.000018814076316216462 0.000019276117221857942
        </DataArray>
        <DataArray type="Float64" Name="disp_y" format="ascii" RangeMin="-0.00001453520432475641" RangeMax="-0.000002654235041377202">
          -0.0000026549050867398996 -0.0000026544941237512692 -0.000002654752538150323 -0.0000026543742190344252 -0.0000026545610061204872 -0.000002654235041377202
          -0.0000027751397744644735 -0.0000027740640998124326 -0.000002774637593001506 -0.0000027737014511324244 -0.0000027738311976970425 -0.0000027729860589463404
          -0.0000028863767261928525 -0.000002883959438475746 -0.0000028844099914625895 -0.0000028823955463219922 -0.0000028814239195260025 -0.0000028804459712905547
          -0.0000029858736468079004 -0.0000029810839390446852 -0.0000029791505410052667 -0.000002974737491531519 -0.000002964445613629615 -0.000002961611756786335
          -0.0000030880957579589932 -0.0000030754765123310035 -0.000003074243109438391 -0.000003061560203096101 -0.0000030335900966372247 -0.000003021760424755549
          -0.0000032504412438059625 -0.000003224200152910322 -0.000003224366516564919 -0.0000031979835034800247 -0.000003140257502495153 -0.0000031138189429399504
          -0.0000035411293419925124 -0.000003497203430010452 -0.0000034973637504606 -0.0000034530934384725844 -0.0000033529013626618683 -0.0000033070707974150643
          -0.0000040360301971857104 -0.0000039675717369992 -0.000003966466182125104 -0.000003897075942024478 -0.000003740225078213616 -0.00000366692587127631
          -0.0000048168024464855235 -0.00000470504946420541 -0.000004722687264504661 -0.000004606515596585834 -0.000004379110413402049 -0.0000042489595519483404
          -0.000005939157918992483 -0.000005743408905854423 -0.000005815030001492542 -0.00000561334221586589 -0.000005335482700349337 -0.000005091677754371505
          -0.0000026561365498669973 -0.0000026558385955184443 -0.000002655465900694412 -0.0000027784733607991947 -0.0000027774709112944135 -0.0000027760871346500835
          -0.000002893519383004122 -0.000002890248124774448 -0.000002883946382958201 -0.0000030011890326592417 -0.0000029938323978270825 -0.0000029751883661946192
          -0.00000312867186037641 -0.0000031148842132682014 -0.0000030717568773681274 -0.000003330943832185692 -0.000003305214360906625 -0.0000032212981539136893
          -0.000003673710294971648 -0.0000036311941104197816 -0.000003491370105194307 -0.000004242739307638705 -0.000004176025940898656 -0.000003961821925290734
          -0.000005140750562281929 -0.000005056473417491867 -0.000004750827335327925 -0.000006492654393089826 -0.0000063862993919719154 -0.00000600112993262694
          -0.000002658278551469644 -0.0000026575680148317254 -0.0000026567775043895507 -0.000002784270812485587 -0.0000027821412405410572 -0.0000027782707155184264
          -0.0000029052978447944425 -0.0000029003877267741483 -0.0000028892588323705076 -0.0000030316347396532134 -0.000003024061183466282 -0.0000030004338613046477
          -0.000003203614739176681 -0.0000031895190214218415 -0.0000031427975804139284 -0.0000034701468496465115 -0.0000034451448036057775 -0.000003362108604296457
          -0.000003897646438264367 -0.0000038572096556840325 -0.0000037253977446107813 -0.000004585794404754115 -0.000004524487203462936 -0.000004330390047811492
          -0.0000056528068557490044 -0.00000558205191715061 -0.000005328855947277228 -0.0000071502561302200675 -0.000007078329493005685 -0.000006833202313198416
          -0.000002661599184929448 -0.0000026599764992188385 -0.000002657129622476643 -0.0000027923856908977094 -0.000002788445506560259 -0.000002780465330947328
          -0.000002924614347779513 -0.0000029190919335039105 -0.000002902975164462182 -0.00000308613710267511 -0.0000030779405229304263 -0.0000030484243999178144
          -0.0000033201557304775454 -0.0000033057650387995625 -0.000003255401532367346 -0.0000036740763496546893 -0.0000036502040163878225 -0.0000035695048528104938
          -0.000004215793327743149 -0.000004178613947145638 -0.000004058448657538869 -0.000005052043798313775 -0.0000049980574799394985 -0.000004831309103151485
          -0.000006293887621980536 -0.000006239674108272226 -0.000006048889061080724 -0.000007941173987854584 -0.000007906899271275379 -0.00000779984746217122
          -0.000002666209373169262 -0.000002662897692921493 -0.000002656399816462529 -0.000002803905361934623 -0.0000027991802296003613 -0.0000027867712129551956
          -0.000002960331657771369 -0.000002954395234371228 -0.000002932487296094897 -0.0000031725350740605007 -0.0000031634347495336043 -0.0000031281729885249006
          -0.0000034855581849414416 -0.000003470984072083047 -0.0000034181658261311966 -0.000003947825531287456 -0.000003925401115152154 -0.000003849263801608764
          -0.000004626375220065294 -0.000004593288715084862 -0.000004488359321820895 -0.000005619542031041349 -0.000005575360485138906 -0.000005442102713318853
          -0.000007008386283954004 -0.000006972412919946092 -0.000006847900429452578 -0.000008765907853905392 -0.000008751351044991754 -0.000008734270705229291
          -0.000002672512444237642 -0.0000026683337135167313 -0.000002657714699994648 -0.0000028263064565238052 -0.0000028212069745518185 -0.0000028032929930306963
          -0.0000030210641425399385 -0.0000030140302232648387 -0.000002985912305777725 -0.000003298413125457005 -0.00000328819029340916 -0.000003247978369805848
          -0.000003705827874278609 -0.0000036910812451025665 -0.0000036376022016841053 -0.000004293024356095108 -0.000004272205185684966 -0.000004203116240479788
          -0.000005120016530892352 -0.000005091745022517236 -0.000005005463428552202 -0.0000062604998461811915 -0.000006227800898799732 -0.000006131372870711063
          -0.000007756129299135114 -0.000007734600826804923 -0.000007668592340323155 -0.00000951211000451506 -0.000009519051887050795 -0.00000956875342871651
          -0.0000026866886137876256 -0.0000026819569691533858 -0.000002666084283794208 -0.0000028682440533964656 -0.000002861819672826252 -0.000002837425528588613
          -0.000003114267179500223 -0.000003105446315002238 -0.0000030710705592613966 -0.0000034698331795653187 -0.0000034580182193489787 -0.0000034140715075737066
          -0.000003983743238438897 -0.000003968500732860121 -0.000003916228107333329 -0.000004705026779684375 -0.0000046858391019051135 -0.000004626021958162253
          -0.000005680231178578348 -0.000005657500962520718 -0.0000055923299250420245 -0.0000069453133395485746 -0.000006924096527030181 -0.000006864083842410915
          -0.000008493704451069543 -0.00000848611381506132 -0.000008470278851269134 -0.00001019744463068586 -0.000010215461803581533 -0.000010299666075745058
          -0.000002716780961534752 -0.000002710350508354839 -0.0000026880888520523114 -0.000002937323931133983 -0.0000029283396510647357 -0.0000028966615146197245
          -0.00000324650575453215 -0.000003234725945148289 -0.0000031940502813813143 -0.000003690461560076369 -0.000003676222005307432 -0.0000036290890457388123
          -0.000004317271196492567 -0.000004301393040088295 -0.000004251416631672918 -0.000005170964255518829 -0.000005154564658384137 -0.000005105803823493218
          -0.000006282155364838027 -0.000006267255159050614 -0.000006224784112454349 -0.000007644800856503265 -0.00000763705471933934 -0.00000761228945859191
          -0.000009195737731631088 -0.00000920047393607623 -0.00000922314964184747 -0.000010825255132365418 -0.000010844791376339551 -0.000010944456073206802
          -0.0000034209847375946493 -0.0000034070179322073062 -0.000003360557102101886 -0.000003958944213698709 -0.000003943068631447751 -0.0000038943698811709506
          -0.000004697697606393843 -0.00000468152737019328 -0.000004636667782243038 -0.000005673021023774834 -0.00000565860366381239 -0.000005624628777293491
          -0.000006897925572690874 -0.000006887742232437626 -0.000006871817614530477 -0.000008335104599338425 -0.000008335066455530297 -0.000008347914744346655
          -0.000009866277784182497 -0.000009877376924339023 -0.000009935877192831809 -0.000011317268742153099 -0.000011345366988643048 -0.000011432471747889267
          -0.000011395183895890683 -0.000011396142992775973 -0.000011693922901442295 -0.000011783166773931312 -0.000011440454774540767 -0.00001144564800613334
          -0.00001172938921820861 -0.00001181383986385929 -0.000011523049566932457 -0.000011555864998085009 -0.000011827464748886458 -0.00001187089138031436
          -0.00001152851856460246 -0.00001183080950167234 -0.00001156681944055124 -0.000011854428735851343 -0.000011613110405235822 -0.000011909059796609205
          -0.000011199623984574216 -0.000011538965047508968 -0.000011278796648100741 -0.000011240796561876287 -0.000011574450518905923 -0.000011323089897501501
          -0.000011409004691595074 -0.000011627654136053649 -0.000011437133964453057 -0.000007066516230458589 -0.000007708752462009927 -0.000007748295119561367
          -0.000007460878470627856 -0.000006912144502725286 -0.000007592757785378718 -0.000007581474709642847 -0.000007261176138890988 -0.000006295884323147116
          -0.000007082835895235111 -0.0000068490281540015436 -0.000006469800543659851 -0.000009945069288534942 -0.000010455656071235966 -0.000010416507583512476
          -0.000009985086599947191 -0.000010021483672130548 -0.000010668936491016775 -0.000010581162021426599 -0.0000100344222510042 -0.000010093910506013904
          -0.000010935468754573951 -0.000010368231527396679 -0.000010258980346946027 -0.000008003627043152691 -0.000008417043580714428 -0.000007779777745941203
          -0.000007449654725722324 -0.000007965861476882815 -0.0000084001867550748 -0.000007730814264503672 -0.000007377928665135752 -0.000007834879861142818
          -0.000008296216936985582 -0.000007494354517259592 -0.000007103083435062431 -0.000010494023539537701 -0.000010176926920127107 -0.000010884466184208847
          -0.000011065661874900582 -0.000010536131484158568 -0.000010198835632643012 -0.000010909932383107421 -0.000011103971281550394 -0.000010709169646435924
          -0.000010330330754424022 -0.000011056315858778893 -0.000011277600470046782 -0.000011285957201570542 -0.000010718399924055503 -0.000011313440577261312
          -0.000010739159358979295 -0.000011440780032006222 -0.00001085650373535126 -0.000007440822851722897 -0.000008032105356763944 -0.000007344885097544248
          -0.000008002505566762387 -0.000006953183826061708 -0.000007807259026726471 -0.00001086852220353678 -0.000010892282029005184 -0.000010551616029128353
          -0.000010391405521872012 -0.00001094392529235928 -0.000010942598306065153 -0.000010617451851533547 -0.000010464976637324667 -0.000011038507258796021
          -0.000011120972347381953 -0.000010856530405796369 -0.000010911758003893729 -0.000006062524227980402 -0.000006340751254525662 -0.000006633252781948565
          -0.000006252183198637614 -0.000005927872196934494 -0.000006203065243091685 -0.00000647279123892296 -0.000006097066276729109 -0.000005376856846465309
          -0.000005660810285418589 -0.000005807057415263662 -0.000005460166922123663 -0.000008265587842389915 -0.000008451264711065865 -0.000008169104832435505
          -0.000008275501166026117 -0.000007697319917103794 -0.000007500648274748399 -0.00001200918930796491 -0.000012421609049617673 -0.000012481020458802427
          -0.000012170061069128072 -0.000012038320737460661 -0.00001244389516798022 -0.000012499907517169396 -0.000012191089932740226 -0.000012115697568413973
          -0.000012504018846383493 -0.000012543272060336194 -0.000012240996087368717 -0.0000120509523572562 -0.000013080130108088296 -0.000011701868288431354
          -0.000010335395761823133 -0.000011662157526691921 -0.000012561056743458621 -0.000011235626257567368 -0.000010062064978079869 -0.000010460313638838208
          -0.000010178453404186129 -0.000009322092855101646 -0.000009245917416422844 -0.000010856344767786234 -0.000010827353649878569 -0.000011016445104351228
          -0.000011111165121438037 -0.000010908683439432104 -0.000010878980240124558 -0.000011053301886608311 -0.000011154767680085588 -0.000011076284017718949
          -0.00001114611794727495 -0.000011294577130743732 -0.000011339148769544589 -0.000009632968768687089 -0.000009778414530068774 -0.000009650048451911336
          -0.000009809323754826673 -0.000009743364814531858 -0.000009940138844811926 -0.000006844303063744896 -0.000006721041708395761 -0.0000062743913962562556
          -0.000010978854761372971 -0.000011079483226938681 -0.000011073623720269111 -0.000011139655005501187 -0.000011179376560609147 -0.000011023276494123498
          -0.00001083754503489804 -0.000010915728683553084 -0.000011288444289409266 -0.000010697972761829663 -0.000010951864780878333 -0.00001131698181947411
          -0.000010524273589883656 -0.000011261368458956589 -0.000011552179449612195 -0.00000942354095499603 -0.000009654639002617231 -0.000008884609174820901
          -0.000008565348399305277 -0.000009508073615430359 -0.00000972936754402265 -0.000008944442746294833 -0.000008576908181446723 -0.00000962468163217592
          -0.000009839645739771379 -0.000009159761803412516 -0.0000085002668025592 -0.000006787867758296887 -0.000007296977271226404 -0.000007368454474511009
          -0.000006592381502890776 -0.000007074658067368244 -0.000007121539524626204 -0.000005823265771700707 -0.000006228137162057887 -0.00000619596200684221
          -0.000011486759047703865 -0.000010222278187741892 -0.00001151793947533621 -0.000010242053641672717 -0.000011661845590798166 -0.000010351587776777687
          -0.000010325468733342385 -0.000009916520653740154 -0.000010495608684721074 -0.000009864435507398012 -0.000010555890139135918 -0.000010483533626248354
          -0.000010723660161517568 -0.000011255234592357909 -0.0000107807734049522 -0.000011285000929907758 -0.000011029326079494234 -0.000011501069600656997
          -0.00001065788405043128 -0.000009677358357932574 -0.000010872221583757507 -0.000011912004623571044 -0.000010142241411985118 -0.000009252782824366032
          -0.0000103860516844879 -0.000011316412182191991 -0.00000808260865416208 -0.000007688343365363201 -0.000008415931079620946 -0.000008751041536130776
          -0.000009207110486740594 -0.0000093894856224492 -0.000008703337785140441 -0.000009220680305430074 -0.000009436610773209965 -0.000008701015451529384
          -0.000009248848271081734 -0.000009510323855999464 -0.000008607578703886533 -0.000011732264629680367 -0.000011577112146044519 -0.000011773301077938834
          -0.000011619434975012884 -0.000011901593871859043 -0.00001175828126570094 -0.000008872735551653053 -0.000009543299300500684 -0.000008861089547114934
          -0.00000954273186177509 -0.000008854833786752559 -0.000009607349037601716 -0.000010425553746041941 -0.000010118423049898248 -0.00001048559474992587
          -0.000010226211978840551 -0.000010693473936448586 -0.000010453957338270745 -0.000010940423994462615 -0.000011580691783631153 -0.0000109801211483141
          -0.000011615676652375873 -0.00001118043645013436 -0.000011765390029280069 -0.000011583182323364713 -0.000011759814216055161 -0.000011799750730248325
          -0.000011615382871514723 -0.000011785479642734501 -0.000011823433448085118 -0.000011665391317623363 -0.000011830722571487455 -0.000011867342645020078
          -0.000012083266932133948 -0.000012323355746586744 -0.000011691316433939197 -0.000012110416252422985 -0.000012350389644806656 -0.000011725634711684226
          -0.000012208209227657649 -0.000012439007950871688 -0.000011869012660227023 -0.000007832268557600343 -0.00000869182885325468 -0.000008408627185652215
          -0.000007550084693016644 -0.000008337324103707304 -0.000008068840048217387 -0.000006535409972764522 -0.000007049065205392698 -0.000006809882919302587
          -0.000009489119771540213 -0.000009059679506773502 -0.000007433089042522066 -0.000012194904943510505 -0.000012123269453830908 -0.000012299454535533522
          -0.000012378687632933284 -0.000012211325513539413 -0.000012141331758098398 -0.000012315544611648633 -0.000012392849449157452 -0.000012250575186406953
          -0.000012183108637265442 -0.000012354556766644464 -0.00001242802977335652 -0.000008190441552215414 -0.00000904140232585091 -0.000007910521684961228
          -0.000008711258739556571 -0.000006906367009532951 -0.000007548739352548621 -0.000011954619552266292 -0.000012002335708745861 -0.00001197501652603297
          -0.00001202155071079201 -0.000012020208445489454 -0.000012063371209284988 -0.000011721312882953673 -0.000010071273122893128 -0.000011194982844580512
          -0.000009696893969947055 -0.00000895188222435112 -0.000008350968004022222 -0.000008957015286101534 -0.000009712508416642877 -0.000008851366434445262
          -0.000009589737031932209 -0.000008381346120512771 -0.000009550103884590309 -0.000012107426970449476 -0.00001212707013321448 -0.000012170417092585964
          -0.000011745171714897376 -0.000011778416617950607 -0.000011868221082255388 -0.000009147162856613654 -0.000009080969970088666 -0.000009294847592846225
          -0.000009263198332613619 -0.000009872290065286504 -0.000010396037975331157 -0.000011299575187417648 -0.000011327483900008422 -0.000011475952735324799
          -0.00001053539993634704 -0.000010596528615254613 -0.000011001298152946212 -0.000011353237935154252 -0.000011394181376543203 -0.00001148194406630191
          -0.000011950505459797455 -0.000011986752552534402 -0.000012100310066008672 -0.000012531338645720159 -0.000012545860304446767 -0.00001258012229633516
          -0.000010040464628526248 -0.00001031370602342935 -0.000010805235051502178 -0.000010371154967833021 -0.000010233644421161568 -0.000010621855008630125
          -0.000013162392253888362 -0.000012501065198984936 -0.000009399168894773375 -0.0000059387333279136435 -0.000005799889805076337 -0.000005240664355880687
          -0.000012553529944594367 -0.000012565716708289736 -0.000012597167443045631 -0.000010604452189622845 -0.000010665193970646454 -0.000010844897114733142
          -0.000005267425829955233 -0.000005256761550004407 -0.00000522478127279154 -0.000006828662264647785 -0.000006823461920887936 -0.000006807711081601293
          -0.000006327899406558263 -0.000006320611341811506 -0.000006297991597544217 -0.000008056925144285165 -0.00000805506216076827 -0.000008049492654122536
          -0.000007592913256989843 -0.000007590847387997657 -0.000007583027228392039 -0.000009017947102336158 -0.000009022658665624073 -0.00000903508105420946
          -0.000010497463777641038 -0.000010512792522360096 -0.000010552332542094654 -0.000011868109013175776 -0.000011889335312720751 -0.000011964092605934146
          -0.000012959362421891372 -0.000012980901793047027 -0.00001305938707841017 -0.000012440096412770804 -0.000012730273877252225 -0.000012464858681754193
          -0.000012749860215370285 -0.000012548066282391957 -0.00001282557892519952 -0.000013397218381311609 -0.000013495066978553653 -0.000012954382295685309
          -0.000012883183674141955 -0.000013410212776099918 -0.00001350467212036938 -0.000012968635042004065 -0.000012901699700860557 -0.000013446718468612196
          -0.000013531399997188041 -0.000013005938574442037 -0.000012957173904174723 -0.000013005409150786063 -0.000013016717068209895 -0.000013045095212338124
          -0.000013267657732028071 -0.000013285535038634266 -0.00001333457256582367 -0.00001370013877694823 -0.000013707413088504415 -0.000013724646454776717
          -0.000009710592438520127 -0.000008453677860777528 -0.00000971385419502886 -0.000008453325621132089 -0.000009723585119306737 -0.000008452439972969193
          -0.000009402665985846631 -0.000009405433097594496 -0.000009413895805464518 -0.000010981904368307644 -0.000010989315388153207 -0.000011011447675833692
          -0.000010787813197337085 -0.000010796267948949439 -0.000010822511672299891 -0.000012089602020928847 -0.00001210454162055979 -0.000012150218127779648
          -0.000013154786673997289 -0.000013172877820298622 -0.000013232964799309583 -0.00001383962583167392 -0.000013854364354033294 -0.00001390114095756813
          -0.000013947438406621157 -0.000013958684307141008 -0.00001398939504135793 -0.000014393628023347137 -0.00001401927451174127 -0.000014512851375859666
          -0.000014399350417077325 -0.0000140267900929692 -0.00001451846325405175 -0.000014416936426264678 -0.000014049414678349854 -0.00001453520432475641
        </DataArray>
        <DataArray type="Float64" Name="disp_z" format="ascii" RangeMin="-0.000010961741331583234" RangeMax="7.959709181788499e-7">
          0 0 -6.152558794830948e-8 -6.171467668235657e-8 -1.2351614239700732e-7 -1.2376110928325983e-7
          0 0 -6.137762922693455e-8 -6.175162174119766e-8 -1.241265927472568e-7 -1.244180059743965e-7
          0 0 -6.149952947382203e-8 -6.163162667535436e-8 -1.2620317978715033e-7 -1.2656739403318879e-7
          0 0 -6.429896222934429e-8 -6.290255523956024e-8 -1.3637751762121245e-7 -1.3253551909541074e-7
          0 0 -9.667788786800517e-8 -9.014010495951293e-8 -2.1479399298054726e-7 -2.0125300288094957e-7
          0 0 -2.0123104201872025e-7 -1.9190433789760905e-7 -4.3463549403059456e-7 -4.170802290087652e-7
          0 0 -4.1630192684866496e-7 -4.0653124703074677e-7 -8.668315847996081e-7 -8.493843538807313e-7
          0 0 -7.88652877510178e-7 -7.844376459854347e-7 -0.0000015948842682857602 -0.0000015883304710707603
          0 0 -0.0000014123518041929834 -0.0000014252570858767772 -0.0000027848577077367715 -0.000002811505905666102
          0 0 -0.000002680436188855561 -0.0000028093656981896435 -0.000005208671261137908 -0.000005445658384576964
          0 -6.092347292258761e-8 -1.2282526463212372e-7 0 -6.052613778348891e-8 -1.2343097122460732e-7
          0 -6.154122582905848e-8 -1.2625517733526305e-7 0 -7.023489373471995e-8 -1.5303381849885158e-7
          0 -1.1646059721413137e-7 -2.544844244547588e-7 0 -2.2855835918795196e-7 -4.861638106076719e-7
          0 -4.438525435512694e-7 -9.155726865150723e-7 0 -8.015435230168411e-7 -0.0000016158202277147953
          0 -0.0000013667556772342313 -0.000002692299951109487 0 -0.000002362437441043885 -0.000004613001616885611
          0 -6.001471088279287e-8 -1.2200829820397624e-7 0 -6.008572445028427e-8 -1.227488286704308e-7
          0 -6.30081322036495e-8 -1.3432397258906227e-7 0 -8.593365471207717e-8 -1.8926333471602642e-7
          0 -1.4916187550239935e-7 -3.195742508636097e-7 0 -2.718290651044608e-7 -5.672133735689762e-7
          0 -4.855239701577406e-7 -9.897649849878497e-7 0 -8.169237461337381e-7 -0.0000016366365850680809
          0 -0.0000012986017684728077 -0.0000025620362842474904 0 -0.0000019556431305444896 -0.000003845673007449536
          0 -5.945561190754483e-8 -1.2186462794376452e-7 0 -6.045703569904298e-8 -1.2819092389248113e-7
          0 -7.239225818139581e-8 -1.6093511008688677e-7 0 -1.1455599943665543e-7 -2.484117491412519e-7
          0 -1.946738010343391e-7 -4.089578184691765e-7 0 -3.277353277920327e-7 -6.711750082596091e-7
          0 -5.34965347206717e-7 -0.0000010768876591353178 0 -8.290097438893924e-7 -0.0000016512249708500165
          0 -0.000001206340146640728 -0.0000023788563255646085 0 -0.0000015348135896674107 -0.000003055981680254995
          0 -6.006446839921099e-8 -1.276440670200433e-7 0 -6.75745402443787e-8 -1.5036807649476777e-7
          0 -9.650270087460768e-8 -2.12242190785892e-7 0 -1.5677707100326877e-7 -3.3257101116106324e-7
          0 -2.5266292832020584e-7 -5.198263334062369e-7 0 -3.9166535094833087e-7 -7.890744083549342e-7
          0 -5.840515261642784e-7 -0.0000011628789784283453 0 -8.291531934837993e-7 -0.0000016425788705427029
          0 -0.00000109210523949982 -0.00000215649601700349 0 -0.0000011626294539460027 -0.0000023587138409497634
          0 -6.815881556807219e-8 -1.4870745375089385e-7 0 -9.047009494046363e-8 -1.970467923681484e-7
          0 -1.3760290893823373e-7 -2.914616161301837e-7 0 -2.1448877446466828e-7 -4.4149363431625015e-7
          0 -3.213792417975602e-7 -6.47040424602445e-7 0 -4.58089923382941e-7 -9.100480695210635e-7
          0 -6.240990925307723e-7 -0.000001233087111050272 0 -8.072621905968637e-7 -0.0000015947779052482816
          0 -9.610304654181144e-7 -0.0000019092717249714464 0 -8.524515934234057e-7 -0.0000017603466675026726
          0 -9.232277552667219e-8 -1.917380266242136e-7 0 -1.3289447315899655e-7 -2.7167585357412666e-7
          0 -1.9808564295090464e-7 -3.983834376346881e-7 0 -2.880063220876204e-7 -5.716750960666089e-7
          0 -3.977604526443168e-7 -7.831584175169614e-7 0 -5.204882802948497e-7 -0.0000010221673576847006
          0 -6.465316684976905e-7 -0.0000012736767675500533 0 -7.57516818895129e-7 -0.0000015022368101843875
          0 -8.084465826856517e-7 -0.0000016283840779509121 0 -6.018177083202472e-7 -0.000001284681547049865
          0 -1.3320702353030024e-7 -2.5923612672818794e-7 0 -1.9362597358598967e-7 -3.7326713845651084e-7
          0 -2.75424801083225e-7 -5.291106840453679e-7 0 -3.72728367649249e-7 -7.168765271328151e-7
          0 -4.757080054974112e-7 -9.194532019769947e-7 0 -5.716699670925941e-7 -0.000001114445385547439
          0 -6.451205396794324e-7 -0.0000012743575798130646 0 -6.77200189191127e-7 -0.0000013612824075512368
          0 -6.350354803004347e-7 -0.000001318593924107546 0 -3.9886545866568617e-7 -8.891123118675866e-7
          0 -3.493507078842997e-7 -6.941724142247308e-7 0 -4.484172819751671e-7 -8.865746212927986e-7
          0 -5.378265604178128e-7 -0.0000010611066759463927 0 -6.004337894472807e-7 -0.0000011853605677633892
          0 -6.187503485030882e-7 -0.0000012253947173935236 0 -5.802949132561681e-7 -0.0000011541771862839222
          0 -4.701986117989312e-7 -9.505924953892837e-7 0 -2.615924138635916e-7 -5.41597495515411e-7
          0 0 0 0 -2.3926281381487754e-9 -3.060643598459745e-8
          -3.6650445613559995e-8 -1.4376759826698713e-8 -3.667695707987321e-8 -5.826225812140047e-8 -8.213326611080501e-8 -4.092888466069774e-8
          0 0 6.671875047665554e-9 3.3306069731138337e-10 9.529900218027695e-9 -8.010538540524686e-9
          0 0 0 1.4623520072488611e-8 2.0200675434628744e-8 3.1781842744157145e-8
          2.701149140653087e-8 3.0452553656970415e-8 3.054816114064995e-8 0 0 0
          0 -0.000003111449512098785 -0.000002767849882245863 -0.0000033943733636097347 -0.0000034833785619021257 -0.000006067587856120641
          -0.000005433715969702531 -0.000006707059230401413 -0.000006841862187935879 0 0 0
          0 -6.273285919694923e-7 -4.1179619138023496e-7 4.971682440202481e-7 -4.2534860694086335e-7 -0.0000013812048760393713
          -7.82429563494749e-7 5.489799578054135e-8 -0.0000013141906229456421 0 0 0
          0 -0.0000017096357503086355 -0.0000016672787181059304 -0.0000021717196603379264 -0.000002159045851201709 -0.00000336744338028104
          -0.000003322589459108494 -0.000004283792600302124 -0.00000424410222868345 0 0 0
          0 -5.251896436159152e-7 -6.5139721792186e-7 -3.9577083177767085e-7 -2.9356694913554915e-7 -0.000001128756083588393
          -0.0000013698795912983356 -9.258064426081254e-7 -7.498877445448024e-7 0 0 -3.08230708473208e-7
          -4.5376375431002403e-7 -6.574799671360755e-7 -0.0000010158504978106916 0 0 -0.0000024801293559379023
          -0.000002248552598846921 -0.000004814864216808639 -0.000004467186254612346 0 0 0
          0 2.8474515026135352e-9 2.3351431409308012e-8 1.1620092560956138e-8 1.6449181510287173e-8 -7.963454824868166e-8
          6.496197967873842e-8 3.413483670758752e-8 -8.809146520632448e-8 0 0 0
          0 -0.000003029655224015097 -0.000002932249533405334 -0.0000033221580219974925 -0.000003276612671140801 -0.000005890568740740513
          -0.0000056667608972803624 -0.000006465730353432348 -0.000006399079082079799 0 0 -0.0000027170683084849992
          -0.0000033350855834793744 -0.000005298351303292906 -0.0000067034611727151605 0 0 0
          0 -4.521910403882227e-8 -5.7850088449560275e-8 -3.577952306988092e-8 -2.300607680391843e-8 -9.856738522951359e-8
          -1.1737430538043405e-7 -7.721846456965233e-8 -5.239185677503412e-8 0 0 0
          0 -0.0000038749196856644695 -0.000004836958984313633 -0.000004310059159983197 -0.0000034991769090047005 -0.000007915334738344095
          -0.000009696469047777554 -0.000008402485994841737 -0.00000699125735720169 0 0 0
          0 5.1905006830688946e-8 2.2346457050429583e-8 3.992342737329187e-8 5.7496013577219385e-8 -9.451110908582771e-8
          3.986678478100038e-9 7.835529544711418e-8 1.1984351165555847e-7 0 0 -8.957655629532997e-7
          -8.613314492342018e-7 -0.0000018555878517289137 -0.0000018524945338567806 0 -0.00000261544149998176 -0.000005111823519360052
          0 0 -5.4363029143507925e-9 -4.1515105106406544e-8 -6.981652234692854e-8 7.959709181788499e-7
          0 0 0 4.958770654191346e-8 -1.2226753849397697e-7 -4.720544530903829e-8
          5.23263570143989e-7 -4.6881125216887006e-7 -1.7528251680601388e-7 0 0 0
          0 -0.0000013001275218339343 -0.0000010782411844351642 -0.000001929832221783727 -0.000002075696751284403 -0.0000027696177523599337
          -0.0000026032103816528233 -0.000003922135227375661 -0.000004123423154590178 0 0 0
          -0.0000034607324957071734 -0.0000036111589109854043 -0.0000037247944748800867 -0.000006687330068163658 -0.000007107854317282443 -0.000007291278367347867
          0 0 -2.461625698312956e-7 -6.343791848282747e-7 -5.682008194013721e-7 -0.0000013617433046964836
          0 0 1.3253139289274263e-7 -2.9281313146144884e-8 -1.3080785963021904e-7 -6.167548998425494e-7
          0 0 -3.1522143286572505e-7 -1.4382596326379873e-7 -7.28244997474755e-7 -3.9786329617176836e-7
          0 0 0 0 -0.000004312303228835785 -0.0000041784193721753604
          -0.000004582884200570927 -0.000004817245527213963 -0.000008448908550819156 -0.000008217097548959388 -0.000009097865596763547 -0.000009531089895784568
          0 0 0 -0.0000012300633863308325 -0.00000121355999454446 -0.0000016926967503528512
          -0.0000025147935990471893 -0.000002523074168825753 -0.0000034163257992578443 0 0 -6.493617767520375e-8
          -5.4477427572847614e-8 -1.635955251071102e-7 -1.4070342234799704e-7 0 0 -0.0000012392212926651679
          -8.914181811394287e-7 -0.0000025032017618899207 -0.000001834013002299343 0 0 -5.737478576964259e-7
          -7.425869828556226e-7 -0.0000012889317512123693 -0.0000017109384032646127 0 0 -2.9492624143734553e-7
          -1.4395349233625123e-7 -7.955037167150153e-7 -3.53825019397482e-7 0 0 0
          3.668218162223149e-8 1.460869944821948e-8 2.5216136003102694e-8 4.6559744372524494e-8 1.8841575433874804e-8 3.407065063576096e-8
          0 0 0 -1.5419239286606755e-7 -9.210712908481232e-8 -1.6175241885751727e-7
          -3.574132945594521e-7 -2.0640015036751217e-7 -3.682893329506613e-7 0 0 0
          -0.0000037671285314625682 -0.000003965144941965007 -0.000003896579753755378 -0.0000073666815562632194 -0.000007788403035999439 -0.00000768442882694911
          0 -0.0000040403418354877 -0.000007920921711723462 0 0 0
          0 1.0872306437032705e-8 2.7819046428515435e-9 -5.057172732244981e-9 4.92346912743127e-9 1.4664797324976822e-8
          7.010164843439833e-10 -1.3957435622594545e-8 6.237681981431379e-9 0 0 -0.0000037265498211657288
          -0.000003950692080171584 -0.000007233035087500201 -0.000007828469915304972 0 0 8.801773080386853e-9
          1.730840149332279e-8 9.652942647128629e-9 2.367819844014402e-8 0 0 -0.000004764816998422177
          -0.000004015665515141398 -0.000009609949144524285 -0.00000793781891228975 0 0 -0.000002771152308363477
          -0.000002766115879201376 -0.000005462766391816517 -0.000005557199112398863 0 -7.233500791159037e-9 -1.8770158366330605e-8
          0 -2.2053231769113089e-7 -4.815089447372965e-7 0 0 -0.0000013215974969918536
          -7.465576593345036e-7 -0.0000026706577209423526 -0.0000017300329836695417 0 -2.4707411277401467e-7 -5.390090803126749e-7
          0 -8.28371327434355e-8 5.844120199112406e-7 0 5.246810806563173e-8 7.794255174685253e-8
          0 -8.48513764973285e-8 -2.0930198308671057e-7 0 -1.8093963086326975e-8 -4.1837898337101584e-8
          0 -8.35627880087538e-8 4.422009957191926e-7 0 -0.0000021813366357683844 -0.000004486925074558101
          0 -0.000005506254849471575 -0.000010961741331583234 0 -0.000003037096917616461 -0.000005929303456968031
          0 -2.7196990428624977e-10 -4.787223746600389e-9 0 4.228179619575758e-8 -3.2180974661543294e-8
          0 -4.3985932568757286e-7 -8.683055787648658e-7 0 -4.345129273777856e-7 -8.684644094708289e-7
          0 -4.924914467828936e-7 -9.732226321069506e-7 0 -4.5562102670001615e-7 -9.098610252968059e-7
          0 -5.224087967310072e-7 -0.0000010345642102492363 0 -5.187131282158347e-7 -0.000001030981752477633
          0 -4.7080553957029085e-7 -9.396997372216005e-7 0 -3.6432323314737727e-7 -7.421622979721386e-7
          0 -1.7409130141346773e-7 -3.620078748287457e-7 0 0 -1.7065647523311966e-7
          -1.261202080668108e-7 -3.9720739208428334e-7 -2.706622848325705e-7 0 0 0
          0 -7.468708477712625e-8 -4.835289749903223e-8 -4.568245585368749e-8 -7.759782595567542e-8 -1.5669992291405883e-7
          -9.512082892394425e-8 -9.852075337004067e-8 -1.61154958734961e-7 0 -2.716561529997809e-8 -5.1404382221864654e-8
          0 -1.021054596074759e-7 -2.028832190878958e-7 0 -2.0997347194496805e-8 -4.549745112102294e-8
          0 0 -4.110201866818745e-7 -4.1958624032822276e-7 -8.182303804753307e-7 -8.350629694295522e-7
          0 -4.544954127882286e-7 -9.065698074769004e-7 0 -3.80028265272804e-7 -7.571242531717132e-7
          0 -4.2346573632367994e-7 -8.436286962699483e-7 0 -3.553831138193283e-7 -7.073156946996152e-7
          0 -2.4972256259078856e-7 -5.001432155025435e-7 0 -1.3210580172863918e-7 -2.648523087945009e-7
          0 -8.70336470648039e-8 -1.8025560705328833e-7 0 0 0
          -2.7956939855329894e-8 -5.262978460164919e-8 -5.385234204050889e-8 -5.496127214877388e-8 -1.0477867365659198e-7 -1.0867761608527758e-7
        </DataArray>
      </PointData>
      <CellData>
        <DataArray type="Int32" Name="libmesh_elem_id" format="ascii" RangeMin="40" RangeMax="1373">
          40 41 42 43 44 45
          46 47 48 49 50 51
          52 53 54 55 56 57
          98 99 100 101 102 103
          104 105 106 107 108 109
          110 111 112 113 114 115
          156 157 158 159 160 161
          162 163 164 165 166 167
          168 169 170 171 172 173
          214 215 216 217 218 219
          220 221 222 223 224 225
          226 227 228 229 230 231
          272 273 274 275 276 277
          278 279 280 281 282 283
          284 285 286 287 288 289
          330 331 332 333 334 335
          336 337 338 339 340 341
          342 343 344 345 346 347
          388 389 390 391 392 393
          394 395 396 397 398 399
          400 401 402 403 404 405
          446 447 448 449 450 451
          452 453 454 455 456 457
          458 459 460 461 462 463
          508 509 510 511 512 513
          514 515 516 517 518 519
          520 521 522 523 524 525
          526 527 528 529 530 531
          532 533 534 535 536 537
          538 539 540 541 542 543
          544 545 546 547 548 549
          550 551 552 553 554 555
          556 557 558 559 560 561
          562 563 564 565 566 567
          568 569 570 571 572 573
          574 575 576 577 578 579
          580 581 582 583 584 585
          586 587 588 589 590 591
          592 593 594 595 596 597
          598 599 600 601 602 603
          604 605 606 607 608 609
          610 611 612 613 614 615
          616 617 618 619 620 621
          622 623 624 625 626 627
          628 629 630 631 632 633
          634 635 636 637 638 639
          640 641 642 643 644 645
          646 647 648 649 650 651
          652 653 654 655 656 657
          658 659 660 661 662 663
          664 665 666 667 668 669
          670 671 672 673 674 675
          676 677 678 679 680 681
          682 683 684 685 686 687
          688 689 690 691 692 693
          694 695 696 697 698 699
          700 701 702 703 704 705
          706 707 708 709 710 711
          712 713 714 715 716 717
          718 719 720 721 722 723
          724 725 726 727 728 729
          730 731 732 733 734 735
          736 737 738 739 740 741
          742 743 744 745 746 747
          748 749 750 751 752 753
          754 755 756 757 758 759
          760 761 762 763 764 765
          766 767 768 769 770 771
          1186 1187 1188 1189 1190 1191
          1204 1205 1206 1207 1208 1209
          1222 1223 1224 1225 1240 1241
          1242 1243 1258 1259 1260 1261
          1276 1277 1278 1279 1300 1301
          1304 1305 1306 1307 1314 1315
          1316 1317 1326 1327 1328 1329
          1330 1331 1338 1339 1344 1345
          1348 1349 1356 1357 1358 1359
          1360 1361 1366 1367 1372 1373
        </DataArray>
        <DataArray type="Int32" Name="subdomain_id" format="ascii" RangeMin="103" RangeMax="143">
          103 103 103 103 103 103
          103 103 103 103 103 103
          103 103 103 103 103 103
          103 103 103 103 103 103
          103 103 103 103 103 103
          103 103 103 103 103 103
          103 103 103 103 103 103
          103 103 103 103 103 103
          103 103 103 103 103 103
          103 103 103 103 103 103
          103 103 103 103 103 103
          103 103 103 103 103 103
          103 103 103 103 103 103
          103 103 103 103 103 103
          103 103 103 103 103 103
          103 103 103 103 103 103
          103 103 103 103 103 103
          103 103 103 103 103 103
          103 103 103 103 103 103
          103 103 103 103 103 103
          103 103 103 103 103 103
          103 103 103 103 103 103
          103 103 103 103 103 103
          103 103 103 103 103 103
          103 103 103 103 103 103
          103 103 103 103 103 103
          103 103 104 104 104 104
          104 104 104 104 104 104
          104 104 104 104 104 104
          104 104 104 104 104 104
          104 104 104 104 104 104
          104 104 104 104 104 104
          104 104 104 104 104 104
          104 104 104 104 104 104
          104 104 104 104 104 104
          104 104 104 104 104 104
          104 104 104 104 104 104
          104 104 104 104 104 104
          104 104 104 104 104 104
          104 104 104 104 104 104
          104 104 104 104 104 104
          104 104 104 104 104 104
          104 104 104 104 104 104
          104 104 104 104 104 104
          104 104 104 104 104 104
          104 104 104 104 104 104
          104 104 104 104 104 104
          104 104 104 104 104 104
          104 104 104 104 104 104
          104 104 104 104 104 104
          104 104 104 104 104 104
          104 104 104 104 104 104
          104 104 104 104 104 104
          104 104 104 104 104 104
          104 104 104 104 104 104
          104 104 104 104 104 104
          104 104 104 104 104 104
          104 104 104 104 104 104
          104 104 104 104 104 104
          141 141 141 141 141 141
          141 141 141 141 141 141
          141 141 141 141 141 141
          141 141 141 141 141 141
          141 141 141 141 141 141
          141 141 141 141 141 141
          141 141 141 141 141 141
          141 141 141 141 141 141
          141 141 141 141 141 141
          105 105 105 105 105 105
          105 105 105 105 105 105
          105 105 105 105 105 105
          105 105 105 105 105 105
          105 105 105 105 106 106
          106 106 106 106 106 106
          106 106 106 106 106 106
          106 106 106 106 106 106
          106 106 106 106 106 106
          143 143 143 143 143 143
        </DataArray>
        <DataArray type="Int32" Name="processor_id" format="ascii" RangeMin="5" RangeMax="5">
          5 5 5 5 5 5
          5 5 5 5 5 5
          5 5 5 5 5 5
          5 5 5 5 5 5
          5 5 5 5 5 5
          5 5 5 5 5 5
          5 5 5 5 5 5
          5 5 5 5 5 5
          5 5 5 5 5 5
          5 5 5 5 5 5
          5 5 5 5 5 5
          5 5 5 5 5 5
          5 5 5 5 5 5
          5 5 5 5 5 5
          5 5 5 5 5 5
          5 5 5 5 5 5
          5 5 5 5 5 5
          5 5 5 5 5 5
          5 5 5 5 5 5
          5 5 5 5 5 5
          5 5 5 5 5 5
          5 5 5 5 5 5
          5 5 5 5 5 5
          5 5 5 5 5 5
          5 5 5 5 5 5
          5 5 5 5 5 5
          5 5 5 5 5 5
          5 5 5 5 5 5
          5 5 5 5 5 5
          5 5 5 5 5 5
          5 5 5 5 5 5
          5 5 5 5 5 5
          5 5 5 5 5 5
          5 5 5 5 5 5
          5 5 5 5 5 5
          5 5 5 5 5 5
          5 5 5 5 5 5
          5 5 5 5 5 5
          5 5 5 5 5 5
          5 5 5 5 5 5
          5 5 5 5 5 5
          5 5 5 5 5 5
          5 5 5 5 5 5
          5 5 5 5 5 5
          5 5 5 5 5 5
          5 5 5 5 5 5
          5 5 5 5 5 5
          5 5 5 5 5 5
          5 5 5 5 5 5
          5 5 5 5 5 5
          5 5 5 5 5 5
          5 5 5 5 5 5
          5 5 5 5 5 5
          5 5 5 5 5 5
          5 5 5 5 5 5
          5 5 5 5 5 5
          5 5 5 5 5 5
          5 5 5 5 5 5
          5 5 5 5 5 5
          5 5 5 5 5 5
          5 5 5 5 5 5
          5 5 5 5 5 5
          5 5 5 5 5 5
          5 5 5 5 5 5
          5 5 5 5 5 5
          5 5 5 5 5 5
          5 5 5 5 5 5
          5 5 5 5 5 5
          5 5 5 5 5 5
          5 5 5 5 5 5
          5 5 5 5 5 5
          5 5 5 5 5 5
          5 5 5 5 5 5
          5 5 5 5 5 5
          5 5 5 5 5 5
          5 5 5 5 5 5
          5 5 5 5 5 5
          5 5 5 5 5 5
        </DataArray>
      </CellData>
      <Points>
        <DataArray type="Float64" Name="Points" NumberOfComponents="3" format="ascii" RangeMin="0.0082758620689774" RangeMax="0.013139935358843113">
          0.00011111111111123 0.0082758620689751 0 0 0.0082758620689774 0
          0.00011111111111123 0.0082758620689751 0.00015 0 0.0082758620689774 0.00015
          0.00011111111111123 0.0082758620689751 0.0003 0 0.0082758620689774 0.0003
          0.00011111111111125 0.0086896551724226 0 0 0.0086896551724246 0
          0.00011111111111125 0.0086896551724226 0.00015 0 0.0086896551724246 0.00015
          0.00011111111111125 0.0086896551724226 0.0003 0 0.0086896551724246 0.0003
          0.00011111111111126 0.0091034482758696 0 0 0.0091034482758716 0
          0.00011111111111126 0.0091034482758696 0.00015 0 0.0091034482758716 0.00015
          0.00011111111111126 0.0091034482758696 0.0003 0 0.0091034482758716 0.0003
          0.00011111111111128 0.0095172413793168 0 0 0.0095172413793185 0
          0.00011111111111128 0.0095172413793168 0.00015 0 0.0095172413793185 0.00015
          0.00011111111111128 0.0095172413793168 0.0003 0 0.0095172413793185 0.0003
          0.00011111111111129 0.0099310344827632 0 0 0.0099310344827645 0
          0.00011111111111129 0.0099310344827632 0.00015 0 0.0099310344827645 0.00015
          0.00011111111111129 0.0099310344827632 0.0003 0 0.0099310344827645 0.0003
          0.00011111111111131 0.01034482758621 0 0 0.01034482758621 0
          0.00011111111111131 0.01034482758621 0.00015 0 0.01034482758621 0.00015
          0.00011111111111131 0.01034482758621 0.0003 0 0.01034482758621 0.0003
          0.00011111111111132 0.010758620689657 0 0 0.010758620689657 0
          0.00011111111111132 0.010758620689657 0.00015 0 0.010758620689657 0.00015
          0.00011111111111132 0.010758620689657 0.0003 0 0.010758620689657 0.0003
          0.00011111111111134 0.011172413793104 0 0 0.011172413793104 0
          0.00011111111111134 0.011172413793104 0.00015 0 0.011172413793104 0.00015
          0.00011111111111134 0.011172413793104 0.0003 0 0.011172413793104 0.0003
          0.00011111111111135 0.011586206896551 0 0 0.011586206896551 0
          0.00011111111111135 0.011586206896551 0.00015 0 0.011586206896551 0.00015
          0.00011111111111135 0.011586206896551 0.0003 0 0.011586206896551 0.0003
          0.00011111111111137 0.012 0 0 0.012 0
          0.00011111111111137 0.012 0.00015 0 0.012 0.00015
          0.00011111111111137 0.012 0.0003 0 0.012 0.0003
          0.00022222222222243 0.0082758620689727 0 0.00022222222222243 0.0082758620689727 0.00015
          0.00022222222222243 0.0082758620689727 0.0003 0.00022222222222246 0.0086896551724206 0
          0.00022222222222246 0.0086896551724206 0.00015 0.00022222222222246 0.0086896551724206 0.0003
          0.00022222222222249 0.0091034482758676 0 0.00022222222222249 0.0091034482758676 0.00015
          0.00022222222222249 0.0091034482758676 0.0003 0.00022222222222253 0.0095172413793151 0
          0.00022222222222253 0.0095172413793151 0.00015 0.00022222222222253 0.0095172413793151 0.0003
          0.00022222222222256 0.0099310344827619 0 0.00022222222222256 0.0099310344827619 0.00015
          0.00022222222222256 0.0099310344827619 0.0003 0.0002222222222226 0.010344827586209 0
          0.0002222222222226 0.010344827586209 0.00015 0.0002222222222226 0.010344827586209 0.0003
          0.00022222222222263 0.010758620689656 0 0.00022222222222263 0.010758620689656 0.00015
          0.00022222222222263 0.010758620689656 0.0003 0.00022222222222266 0.011172413793103 0
          0.00022222222222266 0.011172413793103 0.00015 0.00022222222222266 0.011172413793103 0.0003
          0.0002222222222227 0.011586206896551 0 0.0002222222222227 0.011586206896551 0.00015
          0.0002222222222227 0.011586206896551 0.0003 0.00022222222222273 0.012 0
          0.00022222222222273 0.012 0.00015 0.00022222222222273 0.012 0.0003
          0.00033333333333363 0.0082758620689704 0 0.00033333333333363 0.0082758620689704 0.00015
          0.00033333333333363 0.0082758620689704 0.0003 0.00033333333333368 0.0086896551724185 0
          0.00033333333333368 0.0086896551724185 0.00015 0.00033333333333368 0.0086896551724185 0.0003
          0.00033333333333373 0.0091034482758657 0 0.00033333333333373 0.0091034482758657 0.00015
          0.00033333333333373 0.0091034482758657 0.0003 0.00033333333333379 0.0095172413793133 0
          0.00033333333333379 0.0095172413793133 0.00015 0.00033333333333379 0.0095172413793133 0.0003
          0.00033333333333384 0.0099310344827607 0 0.00033333333333384 0.0099310344827607 0.00015
          0.00033333333333384 0.0099310344827607 0.0003 0.00033333333333389 0.010344827586208 0
          0.00033333333333389 0.010344827586208 0.00015 0.00033333333333389 0.010344827586208 0.0003
          0.00033333333333394 0.010758620689656 0 0.00033333333333394 0.010758620689656 0.00015
          0.00033333333333394 0.010758620689656 0.0003 0.000333333333334 0.011172413793103 0
          0.000333333333334 0.011172413793103 0.00015 0.000333333333334 0.011172413793103 0.0003
          0.00033333333333405 0.011586206896551 0 0.00033333333333405 0.011586206896551 0.00015
          0.00033333333333405 0.011586206896551 0.0003 0.0003333333333341 0.012 0
          0.0003333333333341 0.012 0.00015 0.0003333333333341 0.012 0.0003
          0.00044444444444486 0.0082758620689681 0 0.00044444444444486 0.0082758620689681 0.00015
          0.00044444444444486 0.0082758620689681 0.0003 0.00044444444444493 0.0086896551724165 0
          0.00044444444444493 0.0086896551724165 0.00015 0.00044444444444493 0.0086896551724165 0.0003
          0.00044444444444501 0.0091034482758637 0 0.00044444444444501 0.0091034482758637 0.00015
          0.00044444444444501 0.0091034482758637 0.0003 0.00044444444444508 0.0095172413793116 0
          0.00044444444444508 0.0095172413793116 0.00015 0.00044444444444508 0.0095172413793116 0.0003
          0.00044444444444516 0.0099310344827594 0 0.00044444444444516 0.0099310344827594 0.00015
          0.00044444444444516 0.0099310344827594 0.0003 0.00044444444444523 0.010344827586207 0
          0.00044444444444523 0.010344827586207 0.00015 0.00044444444444523 0.010344827586207 0.0003
          0.00044444444444531 0.010758620689655 0 0.00044444444444531 0.010758620689655 0.00015
          0.00044444444444531 0.010758620689655 0.0003 0.00044444444444538 0.011172413793103 0
          0.00044444444444538 0.011172413793103 0.00015 0.00044444444444538 0.011172413793103 0.0003
          0.00044444444444546 0.011586206896551 0 0.00044444444444546 0.011586206896551 0.00015
          0.00044444444444546 0.011586206896551 0.0003 0.00044444444444553 0.012 0
          0.00044444444444553 0.012 0.00015 0.00044444444444553 0.012 0.0003
          0.00055555555555597 0.0082758620689657 0 0.00055555555555597 0.0082758620689657 0.00015
          0.00055555555555597 0.0082758620689657 0.0003 0.00055555555555605 0.0086896551724145 0
          0.00055555555555605 0.0086896551724145 0.00015 0.00055555555555605 0.0086896551724145 0.0003
          0.00055555555555613 0.0091034482758618 0 0.00055555555555613 0.0091034482758618 0.00015
          0.00055555555555613 0.0091034482758618 0.0003 0.00055555555555621 0.0095172413793099 0
          0.00055555555555621 0.0095172413793099 0.00015 0.00055555555555621 0.0095172413793099 0.0003
          0.00055555555555629 0.0099310344827581 0 0.00055555555555629 0.0099310344827581 0.00015
          0.00055555555555629 0.0099310344827581 0.0003 0.00055555555555636 0.010344827586206 0
          0.00055555555555636 0.010344827586206 0.00015 0.00055555555555636 0.010344827586206 0.0003
          0.00055555555555644 0.010758620689655 0 0.00055555555555644 0.010758620689655 0.00015
          0.00055555555555644 0.010758620689655 0.0003 0.00055555555555652 0.011172413793102 0
          0.00055555555555652 0.011172413793102 0.00015 0.00055555555555652 0.011172413793102 0.0003
          0.0005555555555566 0.011586206896551 0 0.0005555555555566 0.011586206896551 0.00015
          0.0005555555555566 0.011586206896551 0.0003 0.00055555555555667 0.012 0
          0.00055555555555667 0.012 0.00015 0.00055555555555667 0.012 0.0003
          0.00066666666666675 0.0082758620689634 0 0.00066666666666675 0.0082758620689634 0.00015
          0.00066666666666675 0.0082758620689634 0.0003 0.00066666666666679 0.0086896551724125 0
          0.00066666666666679 0.0086896551724125 0.00015 0.00066666666666679 0.0086896551724125 0.0003
          0.00066666666666684 0.0091034482758598 0 0.00066666666666684 0.0091034482758598 0.00015
          0.00066666666666684 0.0091034482758598 0.0003 0.00066666666666688 0.0095172413793081 0
          0.00066666666666688 0.0095172413793081 0.00015 0.00066666666666688 0.0095172413793081 0.0003
          0.00066666666666693 0.0099310344827568 0 0.00066666666666693 0.0099310344827568 0.00015
          0.00066666666666693 0.0099310344827568 0.0003 0.00066666666666697 0.010344827586205 0
          0.00066666666666697 0.010344827586205 0.00015 0.00066666666666697 0.010344827586205 0.0003
          0.00066666666666701 0.010758620689654 0 0.00066666666666701 0.010758620689654 0.00015
          0.00066666666666701 0.010758620689654 0.0003 0.00066666666666706 0.011172413793102 0
          0.00066666666666706 0.011172413793102 0.00015 0.00066666666666706 0.011172413793102 0.0003
          0.0006666666666671 0.01158620689655 0 0.0006666666666671 0.01158620689655 0.00015
          0.0006666666666671 0.01158620689655 0.0003 0.00066666666666715 0.012 0
          0.00066666666666715 0.012 0.00015 0.00066666666666715 0.012 0.0003
          0.00077777777777787 0.0082758620689611 0 0.00077777777777787 0.0082758620689611 0.00015
          0.00077777777777787 0.0082758620689611 0.0003 0.00077777777777791 0.0086896551724104 0
          0.00077777777777791 0.0086896551724104 0.00015 0.00077777777777791 0.0086896551724104 0.0003
          0.00077777777777794 0.0091034482758578 0 0.00077777777777794 0.0091034482758578 0.00015
          0.00077777777777794 0.0091034482758578 0.0003 0.00077777777777797 0.0095172413793064 0
          0.00077777777777797 0.0095172413793064 0.00015 0.00077777777777797 0.0095172413793064 0.0003
          0.000777777777778 0.0099310344827555 0 0.000777777777778 0.0099310344827555 0.00015
          0.000777777777778 0.0099310344827555 0.0003 0.00077777777777803 0.010344827586205 0
          0.00077777777777803 0.010344827586205 0.00015 0.00077777777777803 0.010344827586205 0.0003
          0.00077777777777806 0.010758620689654 0 0.00077777777777806 0.010758620689654 0.00015
          0.00077777777777806 0.010758620689654 0.0003 0.00077777777777809 0.011172413793101 0
          0.00077777777777809 0.011172413793101 0.00015 0.00077777777777809 0.011172413793101 0.0003
          0.00077777777777813 0.01158620689655 0 0.00077777777777813 0.01158620689655 0.00015
          0.00077777777777813 0.01158620689655 0.0003 0.00077777777777816 0.012 0
          0.00077777777777816 0.012 0.00015 0.00077777777777816 0.012 0.0003
          0.0008888888888888 0.0082758620689588 0 0.0008888888888888 0.0082758620689588 0.00015
          0.0008888888888888 0.0082758620689588 0.0003 0.00088888888888881 0.0086896551724084 0
          0.00088888888888881 0.0086896551724084 0.00015 0.00088888888888881 0.0086896551724084 0.0003
          0.00088888888888882 0.0091034482758559 0 0.00088888888888882 0.0091034482758559 0.00015
          0.00088888888888882 0.0091034482758559 0.0003 0.00088888888888883 0.0095172413793047 0
          0.00088888888888883 0.0095172413793047 0.00015 0.00088888888888883 0.0095172413793047 0.0003
          0.00088888888888884 0.0099310344827542 0 0.00088888888888884 0.0099310344827542 0.00015
          0.00088888888888884 0.0099310344827542 0.0003 0.00088888888888885 0.010344827586204 0
          0.00088888888888885 0.010344827586204 0.00015 0.00088888888888885 0.010344827586204 0.0003
          0.00088888888888885 0.010758620689653 0 0.00088888888888885 0.010758620689653 0.00015
          0.00088888888888885 0.010758620689653 0.0003 0.00088888888888886 0.011172413793101 0
          0.00088888888888886 0.011172413793101 0.00015 0.00088888888888886 0.011172413793101 0.0003
          0.00088888888888887 0.01158620689655 0 0.00088888888888887 0.01158620689655 0.00015
          0.00088888888888887 0.01158620689655 0.0003 0.00088888888888888 0.012 0
          0.00088888888888888 0.012 0.00015 0.00088888888888888 0.012 0.0003
          0.001 0.0091034482758539 0 0.001 0.0091034482758539 0.00015
          0.001 0.0091034482758539 0.0003 0.001 0.0095172413793029 0
          0.001 0.0095172413793029 0.00015 0.001 0.0095172413793029 0.0003
          0.001 0.0099310344827529 0 0.001 0.0099310344827529 0.00015
          0.001 0.0099310344827529 0.0003 0.001 0.010344827586203 0
          0.001 0.010344827586203 0.00015 0.001 0.010344827586203 0.0003
          0.001 0.010758620689653 0 0.001 0.010758620689653 0.00015
          0.001 0.010758620689653 0.0003 0.001 0.0111724137931 0
          0.001 0.0111724137931 0.00015 0.001 0.0111724137931 0.0003
          0.001 0.01158620689655 0 0.001 0.01158620689655 0.00015
          0.001 0.01158620689655 0.0003 0.001 0.012 0
          0.001 0.012 0.00015 0.001 0.012 0.0003
          0.00067947077571632 0.012798245728111 0 0.00068678568032061 0.012710429785181 0
          0.00076344362314339 0.012698069087358 0 0.00078000626700894 0.012788238676479 0
          0.00067947077571632 0.012798245728111 0.00015 0.00068678568032061 0.012710429785181 0.00015
          0.00076344362314339 0.012698069087358 0.00015 0.00078000626700894 0.012788238676479 0.00015
          0.00067947077571632 0.012798245728111 0.0003 0.00068678568032061 0.012710429785181 0.0003
          0.00076344362314339 0.012698069087358 0.0003 0.00078000626700894 0.012788238676479 0.0003
          0.0007101811699723 0.012881232243155 0 0.00078737528777453 0.012884598822829 0
          0.0007101811699723 0.012881232243155 0.00015 0.00078737528777453 0.012884598822829 0.00015
          0.0007101811699723 0.012881232243155 0.0003 0.00078737528777453 0.012884598822829 0.0003
          0.00063149088332091 0.012876508075697 0 0.00071156048039536 0.012943694476106 0
          0.00064992343237843 0.012944046337553 0 0.00063149088332091 0.012876508075697 0.00015
          0.00071156048039536 0.012943694476106 0.00015 0.00064992343237843 0.012944046337553 0.00015
          0.00063149088332091 0.012876508075697 0.0003 0.00071156048039536 0.012943694476106 0.0003
          0.00064992343237843 0.012944046337553 0.0003 0.00014271480927744 0.012184528409521 0
          0.00021074182908597 0.012239195039162 0 0.00014617236906556 0.012274772666576 0
          0.00010836971036758 0.0122326927564 0 0.00014271480927744 0.012184528409521 0.00015
          0.00021074182908597 0.012239195039162 0.00015 0.00014617236906556 0.012274772666576 0.00015
          0.00010836971036758 0.0122326927564 0.00015 0.00014271480927744 0.012184528409521 0.0003
          0.00021074182908597 0.012239195039162 0.0003 0.00014617236906556 0.012274772666576 0.0003
          0.00010836971036758 0.0122326927564 0.0003 0.00040316247653445 0.012523054457121 0
          0.00050524235438491 0.012516470580574 0 0.00047556583290331 0.012611926172403 0
          0.00040677839563254 0.01259579728731 0 0.00040316247653445 0.012523054457121 0.00015
          0.00050524235438491 0.012516470580574 0.00015 0.00047556583290331 0.012611926172403 0.00015
          0.00040677839563254 0.01259579728731 0.00015 0.00040316247653445 0.012523054457121 0.0003
          0.00050524235438491 0.012516470580574 0.0003 0.00047556583290331 0.012611926172403 0.0003
          0.00040677839563254 0.01259579728731 0.0003 0.00038389728538556 0.012111104172094 0
          0.00037958632650406 0.012195366170904 0 0.00029855370140418 0.012181148574691 0
          0.00029802321336891 0.012105931916082 0 0.00038389728538556 0.012111104172094 0.00015
          0.00037958632650406 0.012195366170904 0.00015 0.00029855370140418 0.012181148574691 0.00015
          0.00029802321336891 0.012105931916082 0.00015 0.00038389728538556 0.012111104172094 0.0003
          0.00037958632650406 0.012195366170904 0.0003 0.00029855370140418 0.012181148574691 0.0003
          0.00029802321336891 0.012105931916082 0.0003 0.00062435778703091 0.012280526392523 0
          0.00063694887874418 0.012191685157308 0 0.00075163746499696 0.012211869018538 0
          0.0007101306235237 0.012330652999586 0 0.00062435778703091 0.012280526392523 0.00015
          0.00063694887874418 0.012191685157308 0.00015 0.00075163746499696 0.012211869018538 0.00015
          0.0007101306235237 0.012330652999586 0.00015 0.00062435778703091 0.012280526392523 0.0003
          0.00063694887874418 0.012191685157308 0.0003 0.00075163746499696 0.012211869018538 0.0003
          0.0007101306235237 0.012330652999586 0.0003 0.00090036231429234 0.012108977226849 0
          0.00080269198720626 0.012096984730608 0 0.00090036231429234 0.012108977226849 0.00015
          0.00080269198720626 0.012096984730608 0.00015 0.00090036231429234 0.012108977226849 0.0003
          0.00080269198720626 0.012096984730608 0.0003 0.00023865656240352 0.012177237347116 0
          0.00029061852669854 0.01224857812735 0 0.00023865656240352 0.012177237347116 0.00015
          0.00029061852669854 0.01224857812735 0.00015 0.00023865656240352 0.012177237347116 0.0003
          0.00029061852669854 0.01224857812735 0.0003 0.00056164385173704 0.012835416164401 0
          0.00056508360468666 0.012898794448667 0 0.00049240387645224 0.012913175910861 0
          0.00046984631090009 0.012828989929731 0 0.00056164385173704 0.012835416164401 0.00015
          0.00056508360468666 0.012898794448667 0.00015 0.00049240387645224 0.012913175910861 0.00015
          0.00046984631090009 0.012828989929731 0.00015 0.00056164385173704 0.012835416164401 0.0003
          0.00056508360468666 0.012898794448667 0.0003 0.00049240387645224 0.012913175910861 0.0003
          0.00046984631090009 0.012828989929731 0.0003 0.000050495613361417 0.012066083920595 0
          0.00011131843390441 0.012086989142678 0 0.000069577205110887 0.012153607960951 0
          0 0.012111111111109 0 0.000050495613361417 0.012066083920595 0.00015
          0.00011131843390441 0.012086989142678 0.00015 0.000069577205110887 0.012153607960951 0.00015
          0 0.012111111111109 0.00015 0.000050495613361417 0.012066083920595 0.0003
          0.00011131843390441 0.012086989142678 0.0003 0.000069577205110887 0.012153607960951 0.0003
          0 0.012111111111109 0.0003 0.00022470825547396 0.012306913365418 0
          0.00017103954025546 0.012340304715306 0 0.00022470825547396 0.012306913365418 0.00015
          0.00017103954025546 0.012340304715306 0.00015 0.00022470825547396 0.012306913365418 0.0003
          0.00017103954025546 0.012340304715306 0.0003 0.00085640575367095 0.012657655614724 0
          0.001 0.012571428571438 0 0.001 0.012714285714292 0
          0.00089085524488654 0.012778191533234 0 0.00085640575367095 0.012657655614724 0.00015
          0.001 0.012571428571438 0.00015 0.001 0.012714285714292 0.00015
          0.00089085524488654 0.012778191533234 0.00015 0.00085640575367095 0.012657655614724 0.0003
          0.001 0.012571428571438 0.0003 0.001 0.012714285714292 0.0003
          0.00089085524488654 0.012778191533234 0.0003 0.00017101007138246 0.012530153689505 0
          0.000086824088695593 0.01250759612347 0 0.00010015626416536 0.012463076177022 0
          0.00018026894988108 0.012457509098897 0 0.00017101007138246 0.012530153689505 0.00015
          0.000086824088695593 0.01250759612347 0.00015 0.00010015626416536 0.012463076177022 0.00015
          0.00018026894988108 0.012457509098897 0.00015 0.00017101007138246 0.012530153689505 0.0003
          0.000086824088695593 0.01250759612347 0.0003 0.00010015626416536 0.012463076177022 0.0003
          0.00018026894988108 0.012457509098897 0.0003 0.00055555555555552 0.013 0
          0.00054972466987376 0.012958523613261 0 0.00059017772624368 0.012950117696029 0
          0.00061111111111072 0.013 0 0.00055555555555552 0.013 0.00015
          0.00054972466987376 0.012958523613261 0.00015 0.00059017772624368 0.012950117696029 0.00015
          0.00061111111111072 0.013 0.00015 0.00055555555555552 0.013 0.0003
          0.00054972466987376 0.012958523613261 0.0003 0.00059017772624368 0.012950117696029 0.0003
          0.00061111111111072 0.013 0.0003 0.00056012017374448 0.012193168747791 0
          0.00054338833040714 0.012250054231166 0 0.00056012017374448 0.012193168747791 0.00015
          0.00054338833040714 0.012250054231166 0.00015 0.00056012017374448 0.012193168747791 0.0003
          0.00054338833040714 0.012250054231166 0.0003 0.00020164702899907 0.012111009853496 0
          0.00020164702899907 0.012111009853496 0.00015 0.00020164702899907 0.012111009853496 0.0003
          0.00058698867508036 0.01276393301723 0 0.00061242021253103 0.012689969395149 0
          0.00058698867508036 0.01276393301723 0.00015 0.00061242021253103 0.012689969395149 0.00015
          0.00058698867508036 0.01276393301723 0.0003 0.00061242021253103 0.012689969395149 0.0003
          0.00054704952286259 0.01264760123259 0 0.00058547756026548 0.012574831423214 0
          0.00066845126455385 0.012625352450745 0 0.00054704952286259 0.01264760123259 0.00015
          0.00058547756026548 0.012574831423214 0.00015 0.00066845126455385 0.012625352450745 0.00015
          0.00054704952286259 0.01264760123259 0.0003 0.00058547756026548 0.012574831423214 0.0003
          0.00066845126455385 0.012625352450745 0.0003 0.00040316497174951 0.012375710115571 0
          0.00038996592658543 0.012448925709731 0 0.00030251984068288 0.012451026681152 0
          0.00030273327950676 0.012339921797294 0 0.00040316497174951 0.012375710115571 0.00015
          0.00038996592658543 0.012448925709731 0.00015 0.00030251984068288 0.012451026681152 0.00015
          0.00030273327950676 0.012339921797294 0.00015 0.00040316497174951 0.012375710115571 0.0003
          0.00038996592658543 0.012448925709731 0.0003 0.00030251984068288 0.012451026681152 0.0003
          0.00030273327950676 0.012339921797294 0.0003 0 0.012166666666663 0
          0.000060257043043922 0.012213388328671 0 0 0.012222222222217 0
          0 0.012166666666663 0.00015 0.000060257043043922 0.012213388328671 0.00015
          0 0.012222222222217 0.00015 0 0.012166666666663 0.0003
          0.000060257043043922 0.012213388328671 0.0003 0 0.012222222222217 0.0003
          0.00086766031505541 0.012218873949421 0 0.00070802748250363 0.01210226547145 0
          0.00086766031505541 0.012218873949421 0.00015 0.00070802748250363 0.01210226547145 0.00015
          0.00086766031505541 0.012218873949421 0.0003 0.00070802748250363 0.01210226547145 0.0003
          0.00045681564832724 0.012667985356076 0 0.00038302222240927 0.012678606196169 0
          0.00045681564832724 0.012667985356076 0.00015 0.00038302222240927 0.012678606196169 0.00015
          0.00045681564832724 0.012667985356076 0.0003 0.00038302222240927 0.012678606196169 0.0003
          0.00057343997443155 0.012462111372123 0 0.00067467937701806 0.012497336760124 0
          0.00057343997443155 0.012462111372123 0.00015 0.00067467937701806 0.012497336760124 0.00015
          0.00057343997443155 0.012462111372123 0.0003 0.00067467937701806 0.012497336760124 0.0003
          0 0.012388888888886 0 0.00004805763346656 0.012364070531781 0
          0.000052775834931525 0.012418323433379 0 0 0.012444444444443 0
          0 0.012388888888886 0.00015 0.00004805763346656 0.012364070531781 0.00015
          0.000052775834931525 0.012418323433379 0.00015 0 0.012444444444443 0.00015
          0 0.012388888888886 0.0003 0.00004805763346656 0.012364070531781 0.0003
          0.000052775834931525 0.012418323433379 0.0003 0 0.012444444444443 0.0003
          0.0004655657017567 0.012222981448331 0 0.0004403524252846 0.012306679111378 0
          0.00036518397892919 0.012268658791136 0 0.0004655657017567 0.012222981448331 0.00015
          0.0004403524252846 0.012306679111378 0.00015 0.00036518397892919 0.012268658791136 0.00015
          0.0004655657017567 0.012222981448331 0.0003 0.0004403524252846 0.012306679111378 0.0003
          0.00036518397892919 0.012268658791136 0.0003 0.00079059026611164 0.012574208252283 0
          0.00074033738884001 0.012629472897336 0 0.00079059026611164 0.012574208252283 0.00015
          0.00074033738884001 0.012629472897336 0.00015 0.00079059026611164 0.012574208252283 0.0003
          0.00074033738884001 0.012629472897336 0.0003 0.00049134001885305 0.012124425854677 0
          0.00060162315338905 0.012101782274206 0 0.00049134001885305 0.012124425854677 0.00015
          0.00060162315338905 0.012101782274206 0.00015 0.00049134001885305 0.012124425854677 0.0003
          0.00060162315338905 0.012101782274206 0.0003 0.00055165526617401 0.012365152711649 0
          0.00046621557592763 0.012427373679685 0 0.00055165526617401 0.012365152711649 0.00015
          0.00046621557592763 0.012427373679685 0.00015 0.00055165526617401 0.012365152711649 0.0003
          0.00046621557592763 0.012427373679685 0.0003 0.00065175768920993 0.012395993188634 0
          0.00078658012555766 0.01242031863996 0 0.00065175768920993 0.012395993188634 0.00015
          0.00078658012555766 0.01242031863996 0.00015 0.00065175768920993 0.012395993188634 0.0003
          0.00078658012555766 0.01242031863996 0.0003 0.00072222222222142 0.013 0
          0.00076767785213736 0.012949407633443 0 0.00077777777777722 0.013 0
          0.00072222222222142 0.013 0.00015 0.00076767785213736 0.012949407633443 0.00015
          0.00077777777777722 0.013 0.00015 0.00072222222222142 0.013 0.0003
          0.00076767785213736 0.012949407633443 0.0003 0.00077777777777722 0.013 0.0003
          0.001 0.01228571428572 0 0.001 0.012428571428581 0
          0.00085243404696798 0.012340254950119 0 0.001 0.01228571428572 0.00015
          0.001 0.012428571428581 0.00015 0.00085243404696798 0.012340254950119 0.00015
          0.001 0.01228571428572 0.0003 0.001 0.012428571428581 0.0003
          0.00085243404696798 0.012340254950119 0.0003 0.000047305708530005 0.012255757186949 0
          0.000035989657241992 0.012305788523607 0 0 0.012277777777773 0
          0.000047305708530005 0.012255757186949 0.00015 0.000035989657241992 0.012305788523607 0.00015
          0 0.012277777777773 0.00015 0.000047305708530005 0.012255757186949 0.0003
          0.000035989657241992 0.012305788523607 0.0003 0 0.012277777777773 0.0003
          0 0.01233333333333 0 0 0.01233333333333 0.00015
          0 0.01233333333333 0.0003 0.00088888888888861 0.013 0
          0.00086852226729803 0.012945143609779 0 0.00092105077811413 0.012923509600428 0
          0.0009444444444442 0.013 0 0.00088888888888861 0.013 0.00015
          0.00086852226729803 0.012945143609779 0.00015 0.00092105077811413 0.012923509600428 0.00015
          0.0009444444444442 0.013 0.00015 0.00088888888888861 0.013 0.0003
          0.00086852226729803 0.012945143609779 0.0003 0.00092105077811413 0.012923509600428 0.0003
          0.0009444444444442 0.013 0.0003 0.000088322519872331 0.012287262323421 0
          0.000098057359918883 0.01234321954228 0 0.000088322519872331 0.012287262323421 0.00015
          0.000098057359918883 0.01234321954228 0.00015 0.000088322519872331 0.012287262323421 0.0003
          0.000098057359918883 0.01234321954228 0.0003 0.00082037799021753 0.012949927278989 0
          0.00083333333333302 0.013 0 0.00082037799021753 0.012949927278989 0.00015
          0.00083333333333302 0.013 0.00015 0.00082037799021753 0.012949927278989 0.0003
          0.00083333333333302 0.013 0.0003 0.000055423585756317 0.01245648439217 0
          0.00011750487062481 0.01240389197138 0 0.000055423585756317 0.01245648439217 0.00015
          0.00011750487062481 0.01240389197138 0.00015 0.000055423585756317 0.01245648439217 0.0003
          0.00011750487062481 0.01240389197138 0.0003 0.00022703795328819 0.012397087263253 0
          0.00024412512388832 0.012487409031957 0 0.00022703795328819 0.012397087263253 0.00015
          0.00024412512388832 0.012487409031957 0.00015 0.00022703795328819 0.012397087263253 0.0003
          0.00024412512388832 0.012487409031957 0.0003 0.00086622784349606 0.012879340816766 0
          0.00086622784349606 0.012879340816766 0.00015 0.00086622784349606 0.012879340816766 0.0003
          0.001 0.01214285714286 0 0.001 0.01214285714286 0.00015
          0.001 0.01214285714286 0.0003 0.00032807036377433 0.012530514194312 0
          0.00032139380548758 0.012616977778981 0 0.00032807036377433 0.012530514194312 0.00015
          0.00032139380548758 0.012616977778981 0.00015 0.00032807036377433 0.012530514194312 0.0003
          0.00032139380548758 0.012616977778981 0.0003 0.00078653837511981 0.012300730611142 0
          0.00078653837511981 0.012300730611142 0.00015 0.00078653837511981 0.012300730611142 0.0003
          0.00050187285486533 0.012723776617989 0 0.00050187285486533 0.012723776617989 0.00015
          0.00050187285486533 0.012723776617989 0.0003 0.00066666666666612 0.013 0
          0.00066666666666612 0.013 0.00015 0.00066666666666612 0.013 0.0003
          0.00086640285866826 0.012499721374928 0 0.00086640285866826 0.012499721374928 0.00015
          0.00086640285866826 0.012499721374928 0.0003 0.001 0.012857142857146 0
          0.001 0.012857142857146 0.00015 0.001 0.012857142857146 0.0003
          0.00043301270230906 0.012750000000722 0 0.00043301270230906 0.012750000000722 0.00015
          0.00043301270230906 0.012750000000722 0.0003 0.00025000000019401 0.01256698729822 0
          0.00025000000019401 0.01256698729822 0.00015 0.00025000000019401 0.01256698729822 0.0003
          0 0.0125 0 0 0.0125 0.00015
          0 0.0125 0.0003 0 0.012055555555554 0
          0 0.012055555555554 0.00015 0 0.012055555555554 0.0003
          0.001 0.013 0 0.001 0.013 0.00015
          0.001 0.013 0.0003 0.0005 0.013 0
          0.0005 0.013 0.00015 0.0005 0.013 0.0003
          0.0014444444444451 0.0095172413793029 0 0.0014444444444451 0.0095172413793029 0.00015
          0.0014444444444451 0.0095172413793029 0.0003 0.0018888888888902 0.0095172413793029 0
          0.0018888888888902 0.0095172413793029 0.00015 0.0018888888888902 0.0095172413793029 0.0003
          0.0014444444444452 0.0099310344827529 0 0.0014444444444452 0.0099310344827529 0.00015
          0.0014444444444452 0.0099310344827529 0.0003 0.0018888888888903 0.0099310344827529 0
          0.0018888888888903 0.0099310344827529 0.00015 0.0018888888888903 0.0099310344827529 0.0003
          0.0014444444444452 0.010344827586203 0 0.0014444444444452 0.010344827586203 0.00015
          0.0014444444444452 0.010344827586203 0.0003 0.0014444444444453 0.010758620689653 0
          0.0014444444444453 0.010758620689653 0.00015 0.0014444444444453 0.010758620689653 0.0003
          0.0014444444444453 0.0111724137931 0 0.0014444444444453 0.0111724137931 0.00015
          0.0014444444444453 0.0111724137931 0.0003 0.0014444444444454 0.01158620689655 0
          0.0014444444444454 0.01158620689655 0.00015 0.0014444444444454 0.01158620689655 0.0003
          0.0014444444444455 0.012 0 0.0014444444444455 0.012 0.00015
          0.0014444444444455 0.012 0.0003 0.0011659770658264 0.012184916069452 0
          0.0011978981211319 0.012291694091132 0 0.0011659770658264 0.012184916069452 0.00015
          0.0011978981211319 0.012291694091132 0.00015 0.0011659770658264 0.012184916069452 0.0003
          0.0011978981211319 0.012291694091132 0.0003 0.0014134281085546 0.012468353283698 0
          0.001412897365997 0.01265802692797 0 0.0011710921098332 0.012660749606473 0
          0.0011928404820732 0.012464476127519 0 0.0014134281085546 0.012468353283698 0.00015
          0.001412897365997 0.01265802692797 0.00015 0.0011710921098332 0.012660749606473 0.00015
          0.0011928404820732 0.012464476127519 0.00015 0.0014134281085546 0.012468353283698 0.0003
          0.001412897365997 0.01265802692797 0.0003 0.0011710921098332 0.012660749606473 0.0003
          0.0011928404820732 0.012464476127519 0.0003 0.0011801499871676 0.012824831216028 0
          0.0011801499871676 0.012824831216028 0.00015 0.0011801499871676 0.012824831216028 0.0003
          0.0014335559245349 0.012265987585326 0 0.0014335559245349 0.012265987585326 0.00015
          0.0014335559245349 0.012265987585326 0.0003 0.0014444444444455 0.013 0
          0.0014444444444455 0.013 0.00015 0.0014444444444455 0.013 0.0003
          0.0023333333333355 0.0099310344827529 0 0.0023333333333353 0.0095172413793029 0
          0.0023333333333355 0.0099310344827529 0.00015 0.0023333333333353 0.0095172413793029 0.00015
          0.0023333333333355 0.0099310344827529 0.0003 0.0023333333333353 0.0095172413793029 0.0003
          0.0018888888888904 0.010344827586203 0 0.0018888888888904 0.010344827586203 0.00015
          0.0018888888888904 0.010344827586203 0.0003 0.0023333333333357 0.010344827586203 0
          0.0023333333333357 0.010344827586203 0.00015 0.0023333333333357 0.010344827586203 0.0003
          0.0018888888888905 0.010758620689653 0 0.0018888888888905 0.010758620689653 0.00015
          0.0018888888888905 0.010758620689653 0.0003 0.0018888888888907 0.0111724137931 0
          0.0018888888888907 0.0111724137931 0.00015 0.0018888888888907 0.0111724137931 0.0003
          0.0018888888888908 0.01158620689655 0 0.0018888888888908 0.01158620689655 0.00015
          0.0018888888888908 0.01158620689655 0.0003 0.0018888888888909 0.012 0
          0.0018888888888909 0.012 0.00015 0.0018888888888909 0.012 0.0003
          0.0017386847932316 0.012348636106575 0 0.0017386847932316 0.012348636106575 0.00015
          0.0017386847932316 0.012348636106575 0.0003 0.0018888888888909 0.013 0
          0.001702980389272 0.012655949584096 0 0.0020604062010233 0.012679406151259 0
          0.0018888888888909 0.013 0.00015 0.001702980389272 0.012655949584096 0.00015
          0.0020604062010233 0.012679406151259 0.00015 0.0018888888888909 0.013 0.0003
          0.001702980389272 0.012655949584096 0.0003 0.0020604062010233 0.012679406151259 0.0003
          <InformationKey name="L2_NORM_RANGE" location="vtkDataArray" length="2">
            <Value index="0">
              0.008275862069
            </Value>
            <Value index="1">
              0.013139935359
            </Value>
          </InformationKey>
        </DataArray>
      </Points>
      <Cells>
        <DataArray type="Int64" Name="connectivity" format="ascii" RangeMin="0" RangeMax="755">
          1 0 6 7 3 2
          8 9 3 2 8 9
          5 4 10 11 7 6
          12 13 9 8 14 15
          9 8 14 15 11 10
          16 17 13 12 18 19
          15 14 20 21 15 14
          20 21 17 16 22 23
          19 18 24 25 21 20
          26 27 21 20 26 27
          23 22 28 29 25 24
          30 31 27 26 32 33
          27 26 32 33 29 28
          34 35 31 30 36 37
          33 32 38 39 33 32
          38 39 35 34 40 41
          37 36 42 43 39 38
          44 45 39 38 44 45
          41 40 46 47 43 42
          48 49 45 44 50 51
          45 44 50 51 47 46
          52 53 49 48 54 55
          51 50 56 57 51 50
          56 57 53 52 58 59
          0 60 63 6 2 61
          64 8 2 61 64 8
          4 62 65 10 6 63
          66 12 8 64 67 14
          8 64 67 14 10 65
          68 16 12 66 69 18
          14 67 70 20 14 67
          70 20 16 68 71 22
          18 69 72 24 20 70
          73 26 20 70 73 26
          22 71 74 28 24 72
          75 30 26 73 76 32
          26 73 76 32 28 74
          77 34 30 75 78 36
          32 76 79 38 32 76
          79 38 34 77 80 40
          36 78 81 42 38 79
          82 44 38 79 82 44
          40 80 83 46 42 81
          84 48 44 82 85 50
          44 82 85 50 46 83
          86 52 48 84 87 54
          50 85 88 56 50 85
          88 56 52 86 89 58
          60 90 93 63 61 91
          94 64 61 91 94 64
          62 92 95 65 63 93
          96 66 64 94 97 67
          64 94 97 67 65 95
          98 68 66 96 99 69
          67 97 100 70 67 97
          100 70 68 98 101 71
          69 99 102 72 70 100
          103 73 70 100 103 73
          71 101 104 74 72 102
          105 75 73 103 106 76
          73 103 106 76 74 104
          107 77 75 105 108 78
          76 106 109 79 76 106
          109 79 77 107 110 80
          78 108 111 81 79 109
          112 82 79 109 112 82
          80 110 113 83 81 111
          114 84 82 112 115 85
          82 112 115 85 83 113
          116 86 84 114 117 87
          85 115 118 88 85 115
          118 88 86 116 119 89
          90 120 123 93 91 121
          124 94 91 121 124 94
          92 122 125 95 93 123
          126 96 94 124 127 97
          94 124 127 97 95 125
          128 98 96 126 129 99
          97 127 130 100 97 127
          130 100 98 128 131 101
          99 129 132 102 100 130
          133 103 100 130 133 103
          101 131 134 104 102 132
          135 105 103 133 136 106
          103 133 136 106 104 134
          137 107 105 135 138 108
          106 136 139 109 106 136
          139 109 107 137 140 110
          108 138 141 111 109 139
          142 112 109 139 142 112
          110 140 143 113 111 141
          144 114 112 142 145 115
          112 142 145 115 113 143
          146 116 114 144 147 117
          115 145 148 118 115 145
          148 118 116 146 149 119
          120 150 153 123 121 151
          154 124 121 151 154 124
          122 152 155 125 123 153
          156 126 124 154 157 127
          124 154 157 127 125 155
          158 128 126 156 159 129
          127 157 160 130 127 157
          160 130 128 158 161 131
          129 159 162 132 130 160
          163 133 130 160 163 133
          131 161 164 134 132 162
          165 135 133 163 166 136
          133 163 166 136 134 164
          167 137 135 165 168 138
          136 166 169 139 136 166
          169 139 137 167 170 140
          138 168 171 141 139 169
          172 142 139 169 172 142
          140 170 173 143 141 171
          174 144 142 172 175 145
          142 172 175 145 143 173
          176 146 144 174 177 147
          145 175 178 148 145 175
          178 148 146 176 179 149
          150 180 183 153 151 181
          184 154 151 181 184 154
          152 182 185 155 153 183
          186 156 154 184 187 157
          154 184 187 157 155 185
          188 158 156 186 189 159
          157 187 190 160 157 187
          190 160 158 188 191 161
          159 189 192 162 160 190
          193 163 160 190 193 163
          161 191 194 164 162 192
          195 165 163 193 196 166
          163 193 196 166 164 194
          197 167 165 195 198 168
          166 196 199 169 166 196
          199 169 167 197 200 170
          168 198 201 171 169 199
          202 172 169 199 202 172
          170 200 203 173 171 201
          204 174 172 202 205 175
          172 202 205 175 173 203
          206 176 174 204 207 177
          175 205 208 178 175 205
          208 178 176 206 209 179
          180 210 213 183 181 211
          214 184 181 211 214 184
          182 212 215 185 183 213
          216 186 184 214 217 187
          184 214 217 187 185 215
          218 188 186 216 219 189
          187 217 220 190 187 217
          220 190 188 218 221 191
          189 219 222 192 190 220
          223 193 190 220 223 193
          191 221 224 194 192 222
          225 195 193 223 226 196
          193 223 226 196 194 224
          227 197 195 225 228 198
          196 226 229 199 196 226
          229 199 197 227 230 200
          198 228 231 201 199 229
          232 202 199 229 232 202
          200 230 233 203 201 231
          234 204 202 232 235 205
          202 232 235 205 203 233
          236 206 204 234 237 207
          205 235 238 208 205 235
          238 208 206 236 239 209
          210 240 243 213 211 241
          244 214 211 241 244 214
          212 242 245 215 213 243
          246 216 214 244 247 217
          214 244 247 217 215 245
          248 218 216 246 249 219
          217 247 250 220 217 247
          250 220 218 248 251 221
          219 249 252 222 220 250
          253 223 220 250 253 223
          221 251 254 224 222 252
          255 225 223 253 256 226
          223 253 256 226 224 254
          257 227 225 255 258 228
          226 256 259 229 226 256
          259 229 227 257 260 230
          228 258 261 231 229 259
          262 232 229 259 262 232
          230 260 263 233 231 261
          264 234 232 262 265 235
          232 262 265 235 233 263
          266 236 234 264 267 237
          235 265 268 238 235 265
          268 238 236 266 269 239
          246 270 273 249 247 271
          274 250 247 271 274 250
          248 272 275 251 249 273
          276 252 250 274 277 253
          250 274 277 253 251 275
          278 254 252 276 279 255
          253 277 280 256 253 277
          280 256 254 278 281 257
          255 279 282 258 256 280
          283 259 256 280 283 259
          257 281 284 260 258 282
          285 261 259 283 286 262
          259 283 286 262 260 284
          287 263 261 285 288 264
          262 286 289 265 262 286
          289 265 263 287 290 266
          264 288 291 267 265 289
          292 268 265 289 292 268
          266 290 293 269 294 295
          296 297 298 299 300 301
          298 299 300 301 302 303
          304 305 306 294 297 307
          308 298 301 309 308 298
          301 309 310 302 305 311
          312 306 313 314 315 308
          316 317 315 308 316 317
          318 310 319 320 321 322
          323 324 325 326 327 328
          325 326 327 328 329 330
          331 332 333 334 335 336
          337 338 339 340 337 338
          339 340 341 342 343 344
          345 346 347 348 349 350
          351 352 349 350 351 352
          353 354 355 356 357 358
          359 360 361 362 363 364
          361 362 363 364 365 366
          367 368 267 369 370 237
          268 371 372 238 268 371
          372 238 269 373 374 239
          375 347 376 322 377 351
          378 326 377 351 378 326
          379 355 380 330 381 382
          383 384 385 386 387 388
          385 386 387 388 389 390
          391 392 393 394 395 396
          397 398 399 400 397 398
          399 400 401 402 403 404
          323 322 405 406 327 326
          407 408 327 326 407 408
          331 330 409 410 411 412
          413 414 415 416 417 418
          415 416 417 418 419 420
          421 422 423 424 425 426
          427 428 429 430 427 428
          429 430 431 432 433 434
          435 436 437 438 439 440
          441 442 439 440 441 442
          443 444 445 446 447 358
          357 448 449 362 361 450
          449 362 361 450 451 366
          365 452 54 87 453 394
          56 88 454 398 56 88
          454 398 58 89 455 402
          456 457 295 294 458 459
          299 298 458 459 299 298
          460 461 303 302 457 462
          463 464 459 465 466 467
          459 465 466 467 461 468
          469 470 456 294 312 381
          458 298 315 385 458 298
          315 385 460 302 318 389
          471 472 473 474 475 476
          477 478 475 476 477 478
          479 480 481 482 483 395
          484 485 486 399 487 488
          486 399 487 488 489 403
          490 491 370 492 359 493
          372 494 363 495 372 494
          363 495 374 496 367 497
          237 370 493 207 238 372
          495 208 238 372 495 208
          239 374 497 209 336 335
          498 499 340 339 500 501
          340 339 500 501 344 343
          502 503 463 334 504 505
          466 338 506 507 466 338
          506 507 469 342 508 509
          510 511 512 513 514 515
          516 517 514 515 516 517
          518 519 520 521 522 523
          524 346 525 526 527 350
          525 526 527 350 528 529
          530 354 531 532 464 505
          533 534 467 507 533 534
          467 507 535 536 470 509
          537 147 177 538 539 148
          178 540 539 148 178 540
          541 149 179 542 523 543
          544 471 526 545 546 475
          526 545 546 475 529 547
          548 479 549 360 550 505
          551 364 552 507 551 364
          552 507 553 368 554 509
          555 313 556 557 558 316
          559 560 558 316 559 560
          561 319 562 563 564 565
          566 492 567 568 569 494
          567 568 569 494 570 571
          572 496 573 574 575 485
          576 577 578 488 576 577
          578 488 579 580 581 491
          582 574 511 510 583 577
          515 514 583 577 515 514
          584 580 519 518 87 117
          348 453 88 118 352 454
          88 118 352 454 89 119
          356 455 504 334 544 543
          506 338 546 545 506 338
          546 545 508 342 548 547
          585 586 587 588 589 590
          591 592 589 590 591 592
          593 594 595 596 574 597
          598 511 577 599 600 515
          577 599 600 515 580 601
          602 519 375 322 321 453
          377 326 325 454 377 326
          325 454 379 330 329 455
          557 556 603 604 560 559
          605 606 560 559 605 606
          563 562 607 608 425 609
          512 610 429 611 516 612
          429 611 516 612 433 613
          520 614 207 493 538 177
          208 495 540 178 208 495
          540 178 209 497 542 179
          615 473 616 426 617 477
          618 430 617 477 618 430
          619 481 620 434 297 414
          621 307 301 418 622 309
          301 418 622 309 305 422
          623 311 492 369 624 564
          494 371 625 567 494 371
          625 567 496 373 626 570
          627 333 336 628 629 337
          340 630 629 337 340 630
          631 341 344 632 360 633
          566 550 364 634 569 552
          364 634 569 552 368 635
          572 554 457 456 636 462
          459 458 637 465 459 458
          637 465 461 460 638 468
          357 360 549 543 361 364
          551 545 361 364 551 545
          365 368 553 547 295 464
          532 296 299 467 534 300
          299 467 534 300 303 470
          536 304 639 314 313 555
          640 317 316 558 640 317
          316 558 641 320 319 561
          471 474 524 523 475 478
          527 526 475 478 527 526
          479 482 530 529 426 610
          406 615 430 612 408 617
          430 612 408 617 434 614
          410 619 504 543 549 505
          506 545 551 507 506 545
          551 507 508 547 553 509
          566 565 642 550 569 568
          643 552 569 568 643 552
          572 571 644 554 610 512
          511 598 612 516 515 600
          612 516 515 600 614 520
          519 602 621 414 645 587
          622 418 646 591 622 418
          646 591 623 422 647 595
          405 474 615 406 407 478
          617 408 407 478 617 408
          409 482 619 410 381 384
          636 456 385 388 637 458
          385 388 637 458 389 392
          638 460 648 499 498 636
          649 501 500 637 649 501
          500 637 650 503 502 638
          616 651 423 426 618 652
          427 430 618 652 427 430
          620 653 431 434 324 597
          573 484 328 599 576 487
          328 599 576 487 332 601
          579 490 642 412 411 531
          643 416 415 533 643 416
          415 533 644 420 419 535
          538 358 447 537 540 362
          449 539 540 362 449 539
          542 366 451 541 524 376
          347 346 527 378 351 350
          527 378 351 350 530 380
          355 354 627 651 616 473
          629 652 618 477 629 652
          618 477 631 653 620 481
          405 322 376 474 407 326
          378 478 407 326 378 478
          409 330 380 482 306 307
          556 313 308 309 559 316
          308 309 559 316 310 311
          562 319 345 117 147 537
          349 118 148 539 349 118
          148 539 353 119 149 541
          414 297 296 411 418 301
          300 415 418 301 300 415
          422 305 304 419 621 586
          603 307 622 590 605 309
          622 590 605 309 623 594
          607 311 544 334 333 472
          546 338 337 476 546 338
          337 476 548 342 341 480
          348 347 375 453 352 351
          377 454 352 351 377 454
          356 355 379 455 531 505
          550 642 533 507 552 643
          533 507 552 643 535 509
          554 644 321 324 484 395
          325 328 487 399 325 328
          487 399 329 332 490 403
          598 597 323 406 600 599
          327 408 600 599 327 408
          602 601 331 410 447 448
          522 537 449 450 525 539
          449 450 525 539 451 452
          528 541 513 512 609 654
          517 516 611 655 517 516
          611 655 521 520 613 656
          604 603 586 585 606 605
          590 589 606 605 590 589
          608 607 594 593 463 462
          335 334 466 465 339 338
          466 465 339 338 469 468
          343 342 438 437 314 639
          442 441 317 640 442 441
          317 640 446 445 320 641
          436 383 382 437 440 387
          386 441 440 387 386 441
          444 391 390 445 393 657
          55 54 397 658 57 56
          397 658 57 56 401 659
          59 58 312 314 437 382
          315 317 441 386 315 317
          441 386 318 320 445 390
          346 345 537 522 350 349
          539 525 350 349 539 525
          354 353 541 528 498 335
          462 636 500 339 465 637
          500 339 465 637 502 343
          468 638 369 267 291 624
          371 268 292 625 371 268
          292 625 373 269 293 626
          358 538 493 359 362 540
          495 363 362 540 495 363
          366 542 497 367 394 453
          321 395 398 454 325 399
          398 454 325 399 402 455
          329 403 587 645 660 588
          591 646 661 592 591 646
          661 592 595 647 662 596
          448 543 523 522 450 545
          526 525 450 545 526 525
          452 547 529 528 472 333
          627 473 476 337 629 477
          476 337 629 477 480 341
          631 481 436 435 663 383
          440 439 664 387 440 439
          664 387 444 443 665 391
          411 296 532 531 415 300
          534 533 415 300 534 533
          419 304 536 535 609 425
          424 654 611 429 428 655
          611 429 428 655 613 433
          432 656 492 566 633 359
          494 569 634 363 494 569
          634 363 496 572 635 367
          393 394 54 397 398 56
          397 398 56 401 402 58
          413 414 645 417 418 646
          417 418 646 421 422 647
          628 627 651 630 629 652
          630 629 652 632 631 653
          117 348 345 118 352 349
          118 352 349 119 356 353
          565 642 412 568 643 416
          568 643 416 571 644 420
          457 295 464 459 299 467
          459 299 467 461 303 470
          463 464 505 466 467 507
          466 467 507 469 470 509
          499 336 628 501 340 630
          501 340 630 503 344 632
          384 636 648 388 637 649
          388 637 649 392 638 650
          492 369 370 494 371 372
          494 371 372 496 373 374
          473 474 615 477 478 617
          477 478 617 481 482 619
          381 382 312 385 386 315
          385 386 315 389 390 318
          471 472 544 475 476 546
          475 476 546 479 480 548
          582 574 575 583 577 578
          583 577 578 584 580 581
          312 306 294 315 308 298
          315 308 298 318 310 302
          524 376 474 527 378 478
          527 378 478 530 380 482
          396 393 657 400 397 658
          400 397 658 404 401 659
          483 395 396 486 399 400
          486 399 400 489 403 404
          357 448 543 361 450 545
          361 450 545 365 452 547
          485 573 484 488 576 487
          488 576 487 491 579 490
          621 586 587 622 590 591
          622 590 591 623 594 595
          324 597 323 328 599 327
          328 599 327 332 601 331
          603 307 556 605 309 559
          605 309 559 607 311 562
          610 425 426 612 429 430
          612 429 430 614 433 434
          360 633 359 364 634 363
          364 634 363 368 635 367
          598 610 406 600 612 408
          600 612 408 602 614 410
          574 597 573 577 599 576
          577 599 576 580 601 579
          672 276 273 666 673 277
          274 667 673 277 274 667
          674 278 275 668 675 672
          666 669 676 673 667 670
          676 673 667 670 677 674
          668 671 720 675 669 721
          722 676 670 723 722 676
          670 723 724 677 671 725
          678 279 276 672 679 280
          277 673 679 280 277 673
          680 281 278 674 726 678
          672 675 727 679 673 676
          727 679 673 676 728 680
          674 677 729 726 675 720
          730 727 676 722 730 727
          676 722 731 728 677 724
          681 282 279 678 682 283
          280 679 682 283 280 679
          683 284 281 680 732 681
          678 726 733 682 679 727
          733 682 679 727 734 683
          680 728 684 285 282 681
          685 286 283 682 685 286
          283 682 686 287 284 683
          735 684 681 732 736 685
          682 733 736 685 682 733
          737 686 683 734 687 288
          285 684 688 289 286 685
          688 289 286 685 689 290
          287 686 738 687 684 735
          739 688 685 736 739 688
          685 736 740 689 686 737
          690 291 288 687 691 292
          289 688 691 292 289 688
          692 293 290 689 741 690
          687 738 742 691 688 739
          742 691 688 739 743 692
          689 740 693 694 564 624
          695 696 567 625 695 696
          567 625 697 698 570 626
          699 700 701 702 703 704
          705 706 703 704 705 706
          707 708 709 710 702 701
          412 565 706 705 416 568
          706 705 416 568 710 709
          420 571 413 701 711 645
          417 705 712 646 417 705
          712 646 421 709 713 647
          690 741 744 714 691 742
          745 715 691 742 745 715
          692 743 746 716 714 699
          702 694 715 703 706 696
          715 703 706 696 716 707
          710 698 694 702 565 564
          696 706 568 567 696 706
          568 567 698 710 571 570
          747 717 748 749 750 718
          751 752 750 718 751 752
          753 719 754 755 699 744
          748 700 703 745 751 704
          703 745 751 704 707 746
          754 708 711 701 700 717
          712 705 704 718 712 705
          704 718 713 709 708 719
          714 694 693 690 715 696
          695 691 715 696 695 691
          716 698 697 692 291 690
          693 624 292 691 695 625
          292 691 695 625 293 692
          697 626 711 717 660 645
          712 718 661 646 712 718
          661 646 713 719 662 647
          714 699 744 715 703 745
          715 703 745 716 707 746
          748 700 717 751 704 718
          751 704 718 754 708 719
          413 701 412 417 705 416
          417 705 416 421 709 420
        </DataArray>
        <DataArray type="Int64" Name="offsets" format="ascii" RangeMin="8" RangeMax="3624">
          8 16 24 32 40 48
          56 64 72 80 88 96
          104 112 120 128 136 144
          152 160 168 176 184 192
          200 208 216 224 232 240
          248 256 264 272 280 288
          296 304 312 320 328 336
          344 352 360 368 376 384
          392 400 408 416 424 432
          440 448 456 464 472 480
          488 496 504 512 520 528
          536 544 552 560 568 576
          584 592 600 608 616 624
          632 640 648 656 664 672
          680 688 696 704 712 720
          728 736 744 752 760 768
          776 784 792 800 808 816
          824 832 840 848 856 864
          872 880 888 896 904 912
          920 928 936 944 952 960
          968 976 984 992 1000 1008
          1016 1024 1032 1040 1048 1056
          1064 1072 1080 1088 1096 1104
          1112 1120 1128 1136 1144 1152
          1160 1168 1176 1184 1192 1200
          1208 1216 1224 1232 1240 1248
          1256 1264 1272 1280 1288 1296
          1304 1312 1320 1328 1336 1344
          1352 1360 1368 1376 1384 1392
          1400 1408 1416 1424 1432 1440
          1448 1456 1464 1472 1480 1488
          1496 1504 1512 1520 1528 1536
          1544 1552 1560 1568 1576 1584
          1592 1600 1608 1616 1624 1632
          1640 1648 1656 1664 1672 1680
          1688 1696 1704 1712 1720 1728
          1736 1744 1752 1760 1768 1776
          1784 1792 1800 1808 1816 1824
          1832 1840 1848 1856 1864 1872
          1880 1888 1896 1904 1912 1920
          1928 1936 1944 1952 1960 1968
          1976 1984 1992 2000 2008 2016
          2024 2032 2040 2048 2056 2064
          2072 2080 2088 2096 2104 2112
          2120 2128 2136 2144 2152 2160
          2168 2176 2184 2192 2200 2208
          2216 2224 2232 2240 2248 2256
          2264 2272 2280 2288 2296 2304
          2312 2320 2328 2336 2344 2352
          2360 2368 2376 2384 2392 2400
          2408 2416 2424 2432 2440 2448
          2456 2464 2472 2480 2488 2496
          2504 2512 2520 2528 2536 2544
          2552 2560 2568 2576 2584 2592
          2600 2608 2616 2624 2632 2640
          2648 2656 2664 2672 2680 2688
          2696 2704 2712 2720 2728 2736
          2744 2752 2760 2768 2776 2784
          2792 2800 2808 2816 2824 2832
          2838 2844 2850 2856 2862 2868
          2874 2880 2886 2892 2898 2904
          2910 2916 2922 2928 2934 2940
          2946 2952 2958 2964 2970 2976
          2982 2988 2994 3000 3006 3012
          3018 3024 3030 3036 3042 3048
          3054 3060 3066 3072 3078 3084
          3090 3096 3102 3108 3114 3120
          3126 3132 3138 3144 3150 3156
          3164 3172 3180 3188 3196 3204
          3212 3220 3228 3236 3244 3252
          3260 3268 3276 3284 3292 3300
          3308 3316 3324 3332 3340 3348
          3356 3364 3372 3380 3388 3396
          3404 3412 3420 3428 3436 3444
          3452 3460 3468 3476 3484 3492
          3500 3508 3516 3524 3532 3540
          3548 3556 3564 3572 3580 3588
          3594 3600 3606 3612 3618 3624
        </DataArray>
        <DataArray type="UInt8" Name="types" format="ascii" RangeMin="12" RangeMax="13">
          12 12 12 12 12 12
          12 12 12 12 12 12
          12 12 12 12 12 12
          12 12 12 12 12 12
          12 12 12 12 12 12
          12 12 12 12 12 12
          12 12 12 12 12 12
          12 12 12 12 12 12
          12 12 12 12 12 12
          12 12 12 12 12 12
          12 12 12 12 12 12
          12 12 12 12 12 12
          12 12 12 12 12 12
          12 12 12 12 12 12
          12 12 12 12 12 12
          12 12 12 12 12 12
          12 12 12 12 12 12
          12 12 12 12 12 12
          12 12 12 12 12 12
          12 12 12 12 12 12
          12 12 12 12 12 12
          12 12 12 12 12 12
          12 12 12 12 12 12
          12 12 12 12 12 12
          12 12 12 12 12 12
          12 12 12 12 12 12
          12 12 12 12 12 12
          12 12 12 12 12 12
          12 12 12 12 12 12
          12 12 12 12 12 12
          12 12 12 12 12 12
          12 12 12 12 12 12
          12 12 12 12 12 12
          12 12 12 12 12 12
          12 12 12 12 12 12
          12 12 12 12 12 12
          12 12 12 12 12 12
          12 12 12 12 12 12
          12 12 12 12 12 12
          12 12 12 12 12 12
          12 12 12 12 12 12
          12 12 12 12 12 12
          12 12 12 12 12 12
          12 12 12 12 12 12
          12 12 12 12 12 12
          12 12 12 12 12 12
          12 12 12 12 12 12
          12 12 12 12 12 12
          12 12 12 12 12 12
          12 12 12 12 12 12
          12 12 12 12 12 12
          12 12 12 12 12 12
          12 12 12 12 12 12
          12 12 12 12 12 12
          12 12 12 12 12 12
          12 12 12 12 12 12
          12 12 12 12 12 12
          12 12 12 12 12 12
          12 12 12 12 12 12
          13 13 13 13 13 13
          13 13 13 13 13 13
          13 13 13 13 13 13
          13 13 13 13 13 13
          13 13 13 13 13 13
          13 13 13 13 13 13
          13 13 13 13 13 13
          13 13 13 13 13 13
          13 13 13 13 13 13
          12 12 12 12 12 12
          12 12 12 12 12 12
          12 12 12 12 12 12
          12 12 12 12 12 12
          12 12 12 12 12 12
          12 12 12 12 12 12
          12 12 12 12 12 12
          12 12 12 12 12 12
          12 12 12 12 12 12
          13 13 13 13 13 13
        </DataArray>
      </Cells>
    </Piece>
  </UnstructuredGrid>
</VTKFile>
