<?xml version="1.0"?>
<VTKFile type="UnstructuredGrid" version="0.1" byte_order="LittleEndian" header_type="UInt32" compressor="vtkZLibDataCompressor">
  <UnstructuredGrid>
    <Piece NumberOfPoints="819" NumberOfCells="454">
      <PointData>
        <DataArray type="Int32" Name="libmesh_node_id" format="ascii" RangeMin="2316" RangeMax="5735">
          2316 2317 2318 2319 2320 2321
          2322 2323 2324 2325 2326 2327
          2433 2434 2435 2436 2437 2438
          2439 2440 2441 2442 2443 2444
          2598 2599 2600 2601 2602 2603
          2643 2644 2645 2646 2647 2648
          2649 2650 2651 2709 2710 2711
          2712 2713 2714 2715 2716 2717
          2718 2719 2720 2766 2767 2768
          2769 2770 2771 2772 2773 2774
          2775 2776 2777 2808 2809 2810
          2811 2812 2813 2814 2815 2816
          2817 2818 2819 2852 2853 2856
          2857 2860 2861 2970 2971 2973
          2974 2976 2977 2991 2994 2995
          2998 2999 3002 3081 3082 3083
          3084 3085 3086 3087 3088 3089
          3090 3091 3092 3187 3190 3193
          3241 3243 3245 3270 3271 3272
          3312 3313 3314 3315 3316 3317
          3495 3496 3497 3498 3499 3500
          3501 3502 3503 3504 3505 3506
          3765 3766 3767 3768 3769 3770
          3852 3853 3854 4470 4471 4472
          4584 4585 4586 4587 4588 4589
          4635 4636 4637 4638 4639 4640
          4641 4642 4643 4644 4645 4646
          4659 4660 4661 4662 4663 4664
          4722 4723 4724 4782 4783 4784
          4791 4792 4793 4794 4795 4796
          4797 4798 4799 4812 4813 4814
          4815 4816 4817 4818 4819 4820
          4833 4834 4835 4836 4837 4838
          4848 4849 4850 4851 4852 4853
          4896 4897 4898 4899 4900 4901
          4911 4912 4913 4935 4936 4937
          4938 4939 4940 4944 4945 4946
          4947 4948 4949 4950 4951 4952
          4953 4954 4955 4956 4957 4958
          4992 4993 4994 5007 5008 5009
          5010 5011 5012 5013 5014 5015
          5016 5017 5018 5019 5020 5021
          5025 5026 5027 5028 5029 5030
          5040 5041 5042 5043 5044 5045
          5055 5056 5057 5073 5074 5075
          5079 5080 5081 5088 5089 5090
          5094 5095 5096 5103 5104 5105
          5151 5152 5153 5160 5161 5162
          5169 5170 5171 5178 5179 5180
          5187 5188 5189 5202 5203 5204
          5205 5206 5207 5208 5209 5210
          5211 5212 5213 5214 5215 5216
          5217 5218 5219 5220 5221 5222
          5223 5224 5225 5226 5227 5228
          5229 5230 5231 5232 5233 5234
          5235 5236 5237 5238 5239 5240
          5241 5242 5243 5244 5245 5246
          5247 5248 5249 5253 5254 5255
          5256 5257 5258 5259 5260 5261
          5262 5263 5264 5265 5266 5267
          5268 5269 5270 5271 5272 5273
          5274 5275 5276 5280 5281 5282
          5283 5284 5285 5286 5287 5288
          5289 5290 5291 5292 5293 5294
          5295 5296 5297 5298 5299 5300
          5301 5302 5303 5307 5308 5309
          5310 5311 5312 5313 5314 5315
          5316 5317 5318 5319 5320 5321
          5322 5323 5324 5325 5326 5327
          5328 5329 5330 5334 5335 5336
          5337 5338 5339 5340 5341 5342
          5343 5344 5345 5346 5347 5348
          5349 5350 5351 5352 5353 5354
          5355 5356 5357 5358 5359 5360
          5361 5362 5363 5364 5365 5366
          5367 5368 5369 5370 5371 5372
          5373 5374 5375 5376 5377 5378
          5379 5380 5381 5382 5383 5384
          5385 5386 5387 5388 5389 5390
          5391 5392 5393 5394 5395 5396
          5397 5398 5399 5400 5401 5402
          5403 5404 5405 5406 5407 5408
          5409 5410 5411 5412 5413 5414
          5415 5416 5417 5418 5419 5420
          5421 5422 5423 5424 5425 5426
          5427 5428 5429 5430 5431 5432
          5433 5434 5435 5436 5437 5438
          5439 5440 5441 5442 5443 5444
          5445 5446 5447 5448 5449 5450
          5451 5452 5453 5454 5455 5456
          5457 5458 5459 5460 5461 5462
          5463 5464 5465 5466 5467 5468
          5469 5470 5471 5472 5473 5474
          5475 5476 5477 5478 5479 5480
          5481 5482 5483 5484 5485 5486
          5487 5488 5489 5490 5491 5492
          5493 5494 5495 5496 5497 5498
          5499 5500 5501 5502 5503 5504
          5505 5506 5507 5508 5509 5510
          5511 5512 5513 5514 5515 5516
          5517 5518 5519 5520 5521 5522
          5523 5524 5525 5526 5527 5528
          5529 5530 5531 5532 5533 5534
          5535 5536 5537 5538 5539 5540
          5541 5542 5543 5544 5545 5546
          5547 5548 5549 5550 5551 5552
          5553 5554 5555 5556 5557 5558
          5559 5560 5561 5562 5563 5564
          5565 5566 5567 5568 5569 5570
          5571 5572 5573 5574 5575 5576
          5577 5578 5579 5580 5581 5582
          5583 5584 5585 5586 5587 5588
          5589 5590 5591 5592 5593 5594
          5595 5596 5597 5598 5599 5600
          5601 5602 5603 5604 5605 5606
          5607 5608 5609 5610 5611 5612
          5613 5614 5615 5616 5617 5618
          5619 5620 5621 5622 5623 5624
          5625 5626 5627 5628 5629 5630
          5631 5632 5633 5634 5635 5636
          5637 5638 5639 5640 5641 5642
          5643 5644 5645 5646 5647 5648
          5649 5650 5651 5652 5653 5654
          5655 5656 5657 5658 5659 5660
          5661 5662 5663 5664 5665 5666
          5667 5668 5669 5670 5671 5672
          5673 5674 5675 5676 5677 5678
          5679 5680 5681 5682 5683 5684
          5685 5686 5687 5688 5689 5690
          5691 5692 5693 5694 5695 5696
          5697 5698 5699 5700 5701 5702
          5703 5704 5705 5706 5707 5708
          5709 5710 5711 5712 5713 5714
          5715 5716 5717 5718 5719 5720
          5721 5722 5723 5724 5725 5726
          5727 5728 5729 5730 5731 5732
          5733 5734 5735
        </DataArray>
        <DataArray type="Float64" Name="resid_x" format="ascii" RangeMin="-0.24862280178476936" RangeMax="67.93108813528487">
          0.00011375610036346018 0.0006399112897881309 0.0004134156138064782 0.0009279565406057344 0.00010650442843385122 -0.0002097706424812884
          -0.00035651709279260757 -0.00022449325519247054 -0.012546160617267432 -0.01872796359330131 -0.013087164898271553 -0.01753763380105333
          -0.00014909142149743815 0.00020767299460988653 0.0019417548440152643 0.002513363649069067 -0.0012422378106560217 -0.0003830958481323421
          -0.0012570386872141626 -0.0008935499518996082 -0.013216349310234854 -0.015337025467035303 -0.02296768830813889 -0.023417628850204153
          -0.016555597176493464 -0.012159309915518612 -0.0012898148773050622 -0.00048397425436941255 -0.01737392817463146 -0.018217586740776115
          -0.0020767492995705794 -0.0008712430122521653 -0.014013445605950636 -0.0002635450461205835 0.0001884752931040623 -0.0006209393324638768
          -0.01677358475637014 -0.011987710935214224 -0.015049494484578929 -0.0007200512388602087 0.00019972247037269852 0.0006727566106654592
          0.0017163087284632894 -0.0023684054335895988 -0.0009548268690480199 -0.0015502435864385156 -0.00041548549990721995 -0.010746828381690943
          -0.005610167608901762 -0.009189480302791875 -0.014409976723529283 -0.0003836795732432563 0.0009889205160202863 -0.0031024463827185045
          -0.006695883806875358 -0.0010099612310270345 -0.0013729487382780903 -0.0036285110271245813 -0.0037726548124865644 -0.005886125834752676
          -0.00594507802933375 -0.008477681785557856 -0.013611248563591083 -0.011008005998047743 -0.00570696441668872 -0.011826675648734408
          -0.005201728665089611 -0.003682711785137016 -0.00348790856637482 -0.016742329619998664 -0.014374625033285682 -0.019121550383688124
          -0.009646775679740927 0.0012874560859508222 -0.0035112074614964683 -0.01977934584072827 -0.016901646305241158 -0.01642574712886713
          -0.014810089362963907 -0.012572533154314058 -0.012302847454076726 -0.007621270523010537 -0.005364856006343288 0.0022322325595247605
          -0.007161920756374229 -0.0008166884724829515 -0.0012510685718503112 -0.00289060055995094 -0.0018814013361945214 -0.0014541824955358607
          -0.0034572890619326557 -0.0014877296688222685 -0.0009496273344629103 -0.005565319307281769 0.000007743427579587348 0.00015604427477278193
          -0.005138950448215329 -0.0019511721912071067 -0.000179915847278167 -0.00017572222943229576 -0.0013780799047427572 -0.006062454509308424
          -0.0031961826067087307 -0.009898176963362815 -0.012821895070987854 -0.020205065216755358 -0.023326034116895045 -0.01226833883588796
          -0.003903449445863849 -0.008602644356564326 -0.0032868232142639897 -0.01040932212608503 -0.014114177647581272 -0.007493980802409261
          -0.010368370240173341 -0.00217672249329226 -0.001957210390897579 -0.00034234717862524633 -0.015371878829051333 -0.010179126534253236
          -0.009681038392084673 -0.0001553478417912757 0.000463034445186139 -0.0067766703502805115 -0.021832662029311223 -0.0003147112427965837
          0.0005101913468275043 -0.019514849797733547 -0.015060019164760519 -0.007129441789760271 -0.005700754322611523 -0.014846000778243607
          -0.010908568170457045 -0.010404510067224981 -0.0036916465465175463 -0.0029198673644024176 -0.014525308619031563 -0.015475041810809165
          -0.004699569237311962 -0.008165234121511489 -0.003927083528937558 -0.005094075305843937 -0.0023403434405535606 -0.005843418936062328
          -0.0059521880282655815 -0.004233549059451391 -0.009164995986871816 -0.007363146825873912 -0.0031663050182775265 -0.002433552165723718
          -0.005694097599176162 -0.005376955290416596 -0.0012125640598923404 -0.0018624583634974101 -0.0059450721884248825 -0.007240537724888085
          -0.009338152054913174 -0.009399310641163616 -0.00385924582549535 -0.004772315001988936 -0.011216015636670296 -0.009370688260285753
          -0.0017244745214100021 0.0004399188005184129 -0.0004322356161932106 -0.01567704591616703 -0.0062765688220824956 -0.010953615628841007
          -0.0054879008859720635 -0.0005465378168665325 -0.0022313532855358087 -0.017023534254186234 -0.00308054673695235 -0.010246890309899115
          -0.007041224559252157 -0.005668549218885488 -0.0037234080483026233 0.015239699104802717 0.0025767920767396646 0.00915989292770547
          -0.00464117369695316 0.013851048213288308 -0.0012814877622542298 -0.013609939465855092 -0.00215582053835206 -0.013023626891081719
          -0.012464496183261176 -0.006228751973946789 -0.0009114434676931182 -0.0013889400638609217 -0.008508260643166565 -0.008849026359056822
          -0.010241890155459288 -0.004946682794902735 -0.003097756049822209 -0.002022392967703013 -0.011057404545976368 -0.007962942258535222
          -0.010793718517774664 -0.0059033428315817815 0.00033469328663748854 -0.00036502147982542255 -0.010492526619573894 -0.007726359518502868
          -0.008131465441761243 -0.002993013715522075 -0.0036333056417037213 -0.007575270531098965 -0.0015470229048943906 -0.00605158085798152
          -0.013790809505231039 -0.014717349173373862 -0.008876547573498428 -0.005355969969756735 -0.0025708619735294036 -0.00029334666977298696
          -0.00023673288498304856 -0.002179511100850462 -0.0002533131194386584 -0.0033469913761416947 -0.0012333690321835178 0.0014228950153389874
          0.028859654087161957 -0.00047211868707996985 0.01022519371009345 -0.004608198895769355 -0.0033181559627477597 -0.003700728069172321
          0.00003939565038724169 -0.001807454048348589 -0.0012402713848027602 -0.0008320001382031705 -0.0025186675389541335 -0.001436270162571418
          0.002681687221822493 0.013069983707096 0.006135221908547983 -0.017913681662388825 -0.012014344809567312 -0.001591575443695703
          -0.00222636448354141 -0.008605934114527258 -0.010855629577131154 -0.007765082138003976 -0.005172783895940114 -0.0010492008410940556
          -0.003609376082627236 -0.008589427254093174 -0.007289943917442088 0.004669490705924595 0.01329995854064503 0.0064722061931732355
          -0.003918060102204635 -0.0027117768954569854 -0.0009439651415430461 -0.01307768929332287 -0.004607768873561291 -0.007619688103133626
          0.0030272693714756826 0.004606133707816262 0.010425218901686684 0.010725025810002897 0.0021277743267580362 0.002871223327825412
          0.003651568685460127 0.012608333841575892 0.0050026069608613 0.0016303035357445594 0.010888341071671803 0.0015970606718562763
          -0.018471193839703304 -0.0033886171532166998 -0.010039382324931623 0.0008215440092484982 0.010514469709306695 0.002587614963375451
          0.0010859592703011955 0.012216001341957217 0.0023317189585529974 0.006017398033913324 0.026746708251129903 0.0052774037801448515
          0.014480575876243407 0.038570578740614536 0.026120916814475592 -0.006853150672199604 -0.001528716755515802 0.0026970531219454585
          -0.009259654080338464 -0.005329489671233034 -0.005011023192778907 -0.015081536864101963 -0.011050970257720394 -0.013160885829460511
          0.006707070350870481 0.03298056378615044 0.013187547964282231 -0.00013076620124152782 -0.00013578276768910769 0.0008760771400275758
          0.0004289529095586886 0.0005540589205210722 0.00036422665053947867 0.00015610420058820296 0.0000849858277138793 0.00031146699788209276
          0.00015350801977653816 0.0006902761378562161 0.00028106068372935056 0.0002836621240991377 0.00008196178370845075 0.00019205194583626906
          0.00009796828681629677 0.0007938715230686455 0.0003853465280911905 0.00013805997551230575 0.0000727837637093387 0.0002866285456608608
          0.00011921925295155233 0.0009538982439600829 0.00043406434286907825 0.00020783761429932213 0.00008280813770511486 0.0003162371909173345
          0.00013897010816066313 0.0012633034550937339 0.000626357103270081 0.0003018716502989349 0.0001431489396992447 0.00037175334685102257
          0.00016110884555686766 0.0014772242407001812 0.0007354492548437008 0.0005398082332632725 0.00028080969656940624 0.0004288083340533433
          0.00016662213441875906 0.0015593628400729642 0.0007747257863961465 0.00063110695125701 0.0003352192353212047 0.00039899761135231415
          0.00013719273069412452 0.0015668926459753152 0.0007386008939924693 0.00008777727930464607 0.00012509647086744735 0.0005933696728419591
          0.00028237946407116965 0.0004619729104451409 0.0008582024425169976 0.00020279145220669648 0.0002960212960321229 0.0010818092084114994
          0.0001384123796270842 0.0004687515447319157 0.001178152261777754 0.0002638334348894489 0.00047046362355196436 0.0013675010234521778
          0.00037286673645375856 0.00048320444187588407 0.0015811612914671258 0.0005418802675585255 0.0005195596183948936 0.0018470153969118996
          0.0008058564080073438 0.0004594550758483251 0.0018915721713312905 0.00003503302356477889 -0.00014936312071256452 0.0008328285716672212
          0.00033084084314083384 0.000640354880363958 0.001246144976203567 0.0003126915246145501 0.0007197581604625469 0.0014427649898305361
          0.0004235670865586627 0.0006341713828916795 0.001667073145807052 0.00038344838320725216 0.0006662297408528417 0.0017415190161713667
          0.0005420875162016614 0.0006923480624649869 0.00188936305036691 0.0007617031826594456 0.0007294081216642212 0.0021597715369523485
          0.0009017552490497849 0.0005967397225461468 0.0021595414576012217 0.0006806351531807309 0.0009209245536965227 0.0013941244963362465
          0.0006444306871671301 0.000953434241520057 0.0015320998498609129 0.0007752327319714425 0.0011012915342050178 0.0016405827034571274
          0.0007108965605446826 0.0009649915134346543 0.0018251974357745837 0.0007633256534784749 0.000910290485013121 0.0021948631518071693
          0.0008835842588990062 0.0009035713458995787 0.002404567164454363 0.0011300521547674691 0.0009094008269201481 0.002380561579682805
          0.00110005121616652 0.0007155966865113328 0.002341775432704196 0.0007317149047239013 0.0012531172354854903 0.002600339004061425
          0.000814171624318405 0.0014887342293636863 0.0020729736477047567 0.0006826423917036806 0.0014509601238543723 0.0022756470651081884
          0.0005965098582727535 0.0014120917207893768 0.002255355866475739 0.0007377689824643596 0.0012685691004357125 0.0026972459224623435
          0.001033132340575449 0.0011246968368716637 0.0027536780428185637 0.0013858088630023246 0.00104625315608331 0.002427319130550387
          0.001059451065756889 0.0007690655527596846 0.0022506460186306754 -0.12124801330998025 -0.24049002396434815 -0.10983871652258337
          0.000338657404624243 0.00084780365727255 0.005277394052718876 0.0009398420930892826 0.0019737219026829678 0.0033341834713347396
          0.0010807637749810084 0.00202233315691025 0.00276140574987771 0.0003345623454986679 0.0018959426815108316 0.0026706649113208414
          0.001076882064504403 0.0016783247186662464 0.003164686574308462 0.000991782116773976 0.0013436194835509951 0.0027000888309824944
          0.0012532871356221165 0.0010815037695461882 0.0020023881569954938 0.0005919209114502166 0.0006775965835537079 0.0017786281765310719
          -0.12048277459468437 -0.23548403553667896 -0.10888106444209811 -0.0101843581424923 -0.02483485444661504 -0.002995847109810157
          0.001058719476802139 0.0012987863602873517 0.006792005221596398 0.0013892728087174788 0.0025893028725541 0.003507037812182645
          0.0011398682778303026 0.002563307347763555 0.003091385241466682 0.0011173022232213725 0.00228037387365454 0.003459353897826034
          0.001072840948614484 0.00162251514408851 0.0025371489371845968 0.0006613355626221562 0.0008795633605096498 0.001380764829036707
          -0.00012664056805178348 0.0002563865641125318 0.0010152632074049706 0.07603156748624684 0.16845270257233835 0.09111297547653052
          -0.11591289804852778 -0.24862280178476936 -0.11072431138210526 0.00043742248332101497 0.00023765280561960367 0.011731362464628248
          0.001615474158514374 0.0022848028082549376 0.006319608263963161 0.002124538553287536 0.00347217764761254 0.003718019285511076
          0.0013067922956597755 0.0034186083794818245 0.0035743771117502376 0.0010909103837324352 0.00240981577167787 0.002883007492481937
          0.000055107836619328054 0.0004631193073016959 0.00088219104227516 -0.001090328465068069 -0.0009382903721917302 0.00007665029261971767
          0.09241201961110512 0.1839358985290147 0.09445764775080612 -0.09081339575421055 -0.18084890356217542 -0.08191989733534477
          -0.0038665291089756693 -0.007986766120836819 0.0035288410965303996 -0.007558356747464856 -0.01643518463418303 -0.004071579022973282
          -0.008542974841164508 -0.017824928923365846 -0.007744449074888138 -0.00833722711355378 -0.016015583168396574 -0.00697773797832113
          -0.006906197314341611 -0.012810358497553409 -0.0052727715154805566 -0.0044580997803800315 -0.008541587116034144 -0.0036290976627801896
          -0.0025671493975627513 -0.00462099395586435 -0.002011353200592758 0.0003485186573115584 0.0007813884380425407 0.0001327948534459722
          0.00033971869669002785 0.0005593033288953109 0.0013177943114577317 0.0010606141075903963 0.0003938328740709096 0.0015633818316871384
          0.001292078779169259 0.0005266303087694268 0.0017111964174105765 0.0013945638088870282 0.0005985771365999426 0.001826575982057932
          0.001341651042448433 0.0006024178262080682 0.0017617509704059842 0.0008613198925910837 0.00046641902734556595 0.0014257445469993968
          0.00008385439203273393 0.00007280639162310365 0.0009265405945342309 -0.0007156532375631741 -0.0009927554421409468 0.00007162504399360614
          -0.0012781694241317254 -0.0022040368111619912 -0.001176603127998277 0.0003363527402555633 0.0008154879615638322 0.0001380482960939844
          0.0003111449122599197 0.00048108505340493934 0.0011105933101021037 0.0010396274547588291 0.0003494723214565454 0.0012587380901862844
          0.0012068266366753733 0.00043555958662722105 0.001282779022574232 0.0013385736199111875 0.0005147413819486246 0.0012290113483786058
          0.0013119619156327644 0.0005559422043788231 0.0010268343262680446 0.0010029123782722138 0.000484016384341146 0.0006551335378510714
          0.0005255320260832974 0.0001853389476824674 0.00017814110613478817 -0.00021839584300664683 -0.0007736334282792967 -0.0007605892525983649
          -0.0008386606944270625 -0.0015842663613021557 -0.0013141899993023287 0.00030202333437046036 0.0006915045449247259 0.00013550396582218127
          0.0003009605770607493 0.00041654084007802794 0.0009467850927755705 0.0008448314595206341 0.00033726458006810844 0.0010501529261972564
          0.0008949510325315657 0.00041310699655028316 0.0010669365905933148 0.0008763456384883739 0.0004839857863920827 0.0010275726937436502
          0.0007397705176277469 0.0005149899756222709 0.0008652090817964364 0.0004535766699884647 0.000439931906250024 0.0005252781982996169
          0.00011708215338934735 0.00011710460966618541 -0.000008543624900880786 -0.000424177680088178 -0.0007166319053872883 -0.0008163998322388011
          -0.0006712176625001121 -0.0011182673093248496 -0.000949129738694765 0.0002526482498694804 0.0005745084985129267 0.00012742604267401703
          0.00027968699563984956 0.00040643132242479396 0.000873942943837136 0.0006837824824472705 0.00031179350960286456 0.0009338825693809838
          0.0007050934144601229 0.00038251205693384804 0.0009995022836193357 0.0006576959395871995 0.00044521422324095283 0.001058655501534389
          0.0005174332907902368 0.0004624938771726761 0.0010351323967690007 0.00024134785146578963 0.0003658095163956432 0.0008646405560632786
          -0.00012156809179053596 0.000030499237665182477 0.0003692594582194175 -0.0004924210982952815 -0.0006464478392107509 -0.00044290777093358713
          -0.00046945901006978374 -0.0007736623897116601 -0.0006171535668677564 0.0002445267115191996 0.0005196201496282526 0.00011100822290188717
          0.00024219648837942032 0.00041912847640546147 0.0008740929229062999 0.0005914741733512585 0.0002631475487469004 0.0009311315673983245
          0.000667917258773798 0.0003283456102742832 0.0009618214748243759 0.0007216357404971063 0.0003769726139655205 0.0009651171340863129
          0.0007050200511020677 0.00038228011841212606 0.0009976715536410552 0.000587401274351862 0.0002790236521992284 0.0010556564201973373
          0.00028492804479007816 -0.000027001173805274448 0.0007558737140129779 -0.00009196856994897473 -0.0005467845912185965 -0.00010252499922103198
          -0.00019082828229599613 -0.0005230016173047858 -0.00044755431602006013 0.0002770421207998197 0.0005478933876332803 0.00008661782771213211
          0.00019046514196219277 0.00036386255307974125 0.0008420230645285187 0.0006052779859651025 0.0002006950702764243 0.0009822019903680257
          0.0006829952729887623 0.00025198524422975765 0.0008953065881769362 0.0007178268763130546 0.0002822415657082189 0.000729876878160951
          0.0007640737469269965 0.0002799621230007432 0.0007582036575097817 0.0008873055812994579 0.00018940099528919063 0.0009628353003030554
          0.0007830860481323754 -0.00005514046059751365 0.0008499173302443097 0.00028503614032260316 -0.0004265450175608976 0.00006856146826272891
          -0.0000641510212950891 -0.00033699300581346847 -0.00036060884003674687 0.00027384997233426134 0.0006017133758646764 0.0000549426986680146
          0.0001287976951438452 0.00022036958558047104 0.0006284196142871679 0.0007287716721897652 0.00013607384501312936 0.0008163192298944466
          0.0007080393624647741 0.0001668264395320307 0.0006733520165234097 0.0005827836663723218 0.00018139117093340928 0.00045207889132825585
          0.0006236766126654913 0.00017567600525048022 0.00047811458391677775 0.0009025826709692097 0.00010826370089311865 0.0006761127323553495
          0.0009709778827957649 -0.00005754015606207474 0.0006438902687193604 0.00043936855234427696 -0.00029338661538069744 0.00010918372612955807
          -0.00002870021708112347 -0.00019677950500707198 -0.0002362308339929342 0.00019635346140489673 0.0005266613521186514 0.000020863472187215848
          0.00006115651510896214 0.000048204053783251766 0.00019889237635695167 0.0007142071493113633 0.00006848546503235298 0.0002718567104302849
          0.0006127368492698793 0.00008260714425034621 0.00020787987989834278 0.00039901962555255466 0.00008864001231145835 0.0001269985667207152
          0.00043630754189827314 0.00008283362056182852 0.00013570222032832646 0.0007056028583924956 0.000044403855055108465 0.00019521406417588594
          0.0008125922644257599 -0.00003711129735073371 0.0001639724747430904 0.000425659446984028 -0.0001472489142670952 -0.0000329178355169546
          0.00005229399426021075 -0.00008328771801835444 -0.00014833299520056187 17.080035134156674 33.96545760531905 34.160185284601994
          67.93108813528487 17.081884850520588 33.9691132945384 33.37704845487929 66.75418150638323 33.38053914530215
          32.38516408715009 64.77042491503269 32.388333635765186 30.98922593917161 61.97856698934574 30.991739598041647
          29.22660446146947 58.45318360255484 29.22784338150199 27.21979265615861 54.4392436056371 27.21886484889116
          25.23401464084699 50.46734310032504 25.229970430117667 23.70610382259678 47.41123752861727 23.698236055438095
          11.566232057890268 23.131789846721745 11.560872225104257
        </DataArray>
        <DataArray type="Float64" Name="resid_y" format="ascii" RangeMin="-6.901199686293738" RangeMax="5.551418445333577">
          -0.00013633482065936176 0.0010094392202403303 0.0007718865821361443 0.0025998781164874307 -0.0005029360520278636 0.0006729933041573037
          -0.000009942454942509643 0.0004236729237710457 -0.012407816029613439 -0.015805631165318454 -0.012658476038720286 -0.020356384469910505
          -0.00007837869982164555 0.000832140029922001 0.0006039916963632153 0.0007520203997410796 -0.0009201092238623997 -0.0009141763449595323
          0.000744762903053281 -0.001157028823762507 -0.008274101614380422 -0.010544179528038133 -0.010506765140921581 -0.014321849640219486
          -0.013394542530116044 -0.011841754179435369 -0.0015249094614702696 0.0005622411364215596 -0.010857024734902826 -0.015200250951410019
          -0.005078503524273026 0.000005927694378127235 -0.007902426617196145 0.00008939785286721236 0.0004687514142864835 0.0004940474794899452
          -0.009543477673212897 -0.007725995195929036 -0.010082189402379038 -0.000135137945011896 0.0002807021014798322 0.00045029353074637485
          0.0011046766073345322 -0.0008807358432612027 0.00010778182693542415 0.00008371863990826178 -0.0029961633748033303 -0.009507664970787172
          -0.0044354007219103014 -0.008622682196082261 -0.014218872761099621 -0.00005483910042114806 0.0005007344892285215 -0.006402359288124729
          -0.006578884786552583 -0.00009454277647172327 0.0015130361565897227 -0.006707788550778478 -0.0044045635239807045 -0.00430551085908383
          -0.0026597091810081908 -0.009477641965293132 -0.012879259037641413 -0.0016420012913752058 -0.002108924894077241 -0.008773067073526476
          -0.001852050121328122 -0.0018747639010261163 -0.0014626470134061417 -0.00937491670358346 -0.011361862726189914 -0.010602504906835786
          -0.0088190697686788 -0.0008568447574713589 -0.01080893038584746 -0.01644197949040538 -0.018608795712314385 -0.01423895377632306
          -0.018539789168396992 -0.008310947046489436 -0.013617573123789195 -0.007557562484406019 -0.007127547417792202 -0.0027121908447613197
          -0.005152102078385068 -0.007131715880576969 -0.005135879487600831 -0.0018166716199904676 -0.0002752701561972923 -0.0005378486166400243
          -0.00043966327033042457 -0.002944200614054593 -0.0008304273986852739 -0.003177321260417261 0.0002999154616550072 -0.000024534803799977634
          -0.006300403014493604 -0.001220663138482396 0.00023706334440374427 0.00028202550859074416 -0.002083635173722641 -0.005811069851307971
          -0.003280753570628174 -0.005723814289261289 -0.010651047259511819 -0.010626314635535844 -0.013242849152692304 -0.009153955293415422
          -0.0020183024742747736 -0.005625537911569615 -0.003458416166322205 -0.012020676380989193 -0.009324433315871627 -0.006235941202495654
          -0.009788190525008372 -0.0017471136910109583 -0.0020103512233592344 -0.0005391932975278967 -0.010842960033296385 -0.007957735075877714
          -0.002142850387850115 -0.0004223466990340985 0.00029672455944793064 -0.0011563848977691749 -0.005275970035638788 -0.0012794765157021493
          -0.0005914877866630974 -0.0020681377796045175 -0.007429914393416837 -0.007094217360486266 -0.004537361475585644 -0.004889602950658933
          -0.004568055493176168 -0.0010891159089139318 -0.0006001286489601687 0.0005066469214527886 -0.012761873057952067 -0.01443258379580823
          -0.0017694474957496015 -0.005367514125046113 -0.004646878718255112 -0.005104215455597014 -0.0021587176342865236 -0.006200509190254638
          0.0006292340962653631 -0.00047808215023795175 0.0010132542920006093 -0.0002633193540703127 -0.0006862237359542 -0.00044824907435211947
          -0.00596814553499448 -0.0017350085793689275 -0.003111340966684567 0.0005609302291163624 -0.006072050430652776 -0.004579328557033122
          -0.0019834918893346376 -0.0022891712118122826 -0.0010567809933108435 -0.002201246588377323 -0.006000501583117962 -0.005526323426659888
          0.0006757907955052753 0.00012609754096262749 -0.0025284232094362966 -0.011733674154803392 -0.019005963179668878 -0.0152001910482161
          -0.0032424497954229997 -0.0016057808480083313 -0.005094229921190671 -0.0012644547886961968 0.0006560584391590712 -0.006067381118946308
          -0.0013459229950431723 -0.0008247451886787133 -0.002500604256962073 0.001547152200111035 -0.0033956196120114857 -0.008238989367197636
          -0.0025963157236123385 -0.0034531779195361018 -0.0031673713050776875 -0.010832938472485723 -0.004371409922355386 -0.011304675948013227
          -0.007423709589669449 -0.0004968411412170151 -0.0014705430729616378 0.002333021516161292 -0.00821811639398639 -0.0051992755776948535
          -0.011910263445427532 -0.007047918776188933 -0.0032977809406260217 -0.0011486548515162454 -0.006049310571374117 -0.003925021880788387
          -0.007593385208783221 -0.0025565501879371557 -0.0023952097440309225 -0.0007357254910509052 -0.010368321576096518 -0.00646036415899168
          -0.004384366394861727 0.000011530342510363 -0.0029319632139434004 -0.004724868666210809 -0.004953825135702798 -0.004450180676795139
          -0.0045208259631172865 -0.00028102434010279786 -0.003236310289407185 -0.0022161019068674195 -0.0012697526296228737 0.000722219932652278
          -0.0005597996746076056 -0.0033134150696657733 -0.0018073424055844237 -0.0010557339295029916 0.0020302682294692648 0.008804036668089293
          -0.0009708619642669059 -0.0010308433914725662 -0.0013682174067373293 -0.004288649300592154 -0.002880032865732976 -0.0008862164554796631
          -0.002426439913507321 0.0007710341972866491 0.0013857239559631057 -0.00400961059600527 -0.0036818990938317017 -0.0019215837286839649
          -0.0019728815650900955 0.0016020974693625734 -0.001548471939584857 -0.003952687894959575 -0.0080628084816644 -0.0004252985855814351
          -0.0009591931983552529 -0.0055114075781771965 -0.00489275934526931 -0.006162249738138533 -0.004552721038328725 -0.0018013138393816845
          -0.001618069816033657 -0.009265143131203232 -0.007087581405543664 -0.004478451949966246 -0.0013444873421336045 -0.0024527298500249053
          -0.004474483931540554 -0.0009845535006035022 -0.0008804059817948268 -0.005682613865998061 -0.0015878164138219443 -0.004554150744362488
          -0.005345194097938242 -0.005468947482490362 -0.0019191768757351492 -0.002360029913203776 -0.002794357693732121 -0.003203585866412298
          -0.004690604445242934 -0.0018492234214601208 -0.0032115925886640403 -0.005875827864471809 -0.0008040695017616272 -0.003132958276537093
          -0.009921451653939265 -0.0034594142701806427 -0.006295936367264859 -0.005740503006443851 -0.00042477756539545993 -0.002143391053341193
          -0.005719325569899063 0.0004894074430780125 -0.0022506570944842066 -0.009896980063183874 -0.001228490817065192 -0.007307024549812774
          0.010811772824303456 0.025768039214642435 0.00829913499765067 -0.004606678020658894 -0.002453651598798068 -0.006240723061662179
          -0.005433224999185471 -0.0015554710667436966 -0.009377807221259915 -0.008660593975225672 -0.003884740252441732 -0.012517939790269467
          -0.010908970392329825 -0.0003249681287061934 -0.0036220722282194195 0.00003070992069975631 -3.45023375777447 0.00028444993364029614
          -6.901199686293738 -0.000012008244753003439 -3.460086546404695 0.000041050954479704416 -2.952612175561643 0.00008203497024705797
          -5.905547145307645 0.00013664386238620985 -2.962223883937258 0.00017913930719815063 -2.2178492038055824 -0.000009592004397207532
          -4.436114074304234 -0.00001306749806229135 -2.2260054132507907 -0.000006457883986121793 -1.3429453844005295 0.00004666065493685867
          -2.686054141430724 -0.00011975050035506474 -1.3490849985095852 -0.000009313597466392709 -0.41533233645128875 0.00004152498458495635
          -0.8307131749788759 -0.00018175303365544626 -0.4187979864246697 -0.00002564134406921048 0.49338365169273984 0.000040016850573337814
          0.9868451398951309 -0.00005553152769136038 0.4932506672424658 0.000058657174993093086 1.330308064173233 0.00003998689746131934
          2.660736251948123 0.00006846824874073842 1.3336612624653696 0.00009750505310823776 1.700774502554901 0.000038878317138002494
          3.401679073250153 0.00010850074470886151 1.7057717613105448 0.0006703422654774638 0.0006864463513516217 -0.00035197985584911606
          0.0002014071287015362 0.00019513149437555555 0.00011549032210012022 0.000025616734880218317 0.0002134893983392061 -0.00013592893130009998
          -0.00007271166843558774 0.00011608168561461074 -0.00035292514855389534 -0.00018582875460482207 0.0000968190028746152 -0.0002420552031778822
          -0.00006081454355664345 0.00007807576570577346 -0.00010077114980031748 0.000057578199550323284 0.00005127743842714416 -0.000019654875415220374
          0.00018313027304195373 0.00007814879716033785 0.00013435407381040543 0.00017145285466568794 0.0004003850621772109 0.0004893591215533455
          0.00021891956639774612 0.00029796062474618523 0.00007072932202856208 0.00005569039712538526 0.00026964377801341755 -0.0003860245489739622
          -0.000169047334340644 0.0002503891955634163 -0.00041166019967997514 -0.0002491500846594219 0.0002313019662455451 -0.0003232578596463198
          -0.0001281772368237205 0.00022408378380012195 -0.00017381879007977163 -0.000001905650869438169 0.00017979749713395443 -0.00006803039711467118
          0.00016672090583557536 0.00017768231086739278 0.00011300005161633125 -0.0005221839772897585 0.0006463455906913218 0.00019196291751821803
          0.00019805170019004947 0.0004769669473518867 -0.00026964048413180564 -0.000048672815329497965 0.0005234760699048824 -0.0003233427335427308
          -0.000326045565304689 0.00041900050511389786 -0.0004783571220383642 -0.0002848756666673502 0.00044475613824612736 -0.0002986701624152488
          -0.00017492022020287878 0.00042621337779563673 -0.00012118986163556222 -0.00009875212693231938 0.0003605205206968082 0.00006946258862121357
          0.00021154132667899894 0.00031859129258937635 0.0001997882607926993 0.0009213243084644773 0.000738657702176404 -0.00047547013827475837
          0.00027097624352823146 0.0007015961574521334 0.0000964931018883064 -0.0002445414220029196 0.0008907792996049047 -0.00046415852302272853
          -0.0003433467720255212 0.0007676428627749754 -0.0004955227324152656 -0.00038360407133719576 0.0007821554645843776 -0.0002967260647586123
          -0.00008579043486200977 0.0007899485562646857 0.00006844746285850078 0.00006772579245156729 0.0006498333701451253 0.00024803942115303457
          0.0003436528867550859 0.0005108643885668451 0.00037262527653780797 -0.031794535229708654 -0.06450577479164821 -0.03410239357113687
          -0.000009155871051103048 -0.00030983918624905016 -0.0006144558936358457 0.00016331722749685085 0.000665666300425638 -0.00030645140923812875
          0.000302549491048687 0.0010272131692272701 -0.0005338667298535604 -0.0004112012582373481 0.0011513340890214607 -0.0004462581060207249
          -0.00040319559464707666 0.001327734760157906 0.00004223992835883372 0.00004978526898402613 0.0013351289964749213 0.0004668469619291127
          0.00043930354583865405 0.00110577115778554 0.0005369002572175319 0.0005276524706612218 0.0007783710197935001 0.0005293692511916248
          -0.021363957377460663 -0.05207333924677959 -0.02740005295584913 -0.006791604987236077 -0.017244140073505942 -0.00879407178849867
          -0.0000715309640280104 -0.00007968319429441095 0.000436991566981515 -0.00009998526895049764 0.0009068113342518558 -0.0003422551837553023
          -0.00019726605197156744 0.0016670880567621893 -0.00010097269700759526 -0.00009223741085717663 0.0020669603857945695 0.0007273457947385431
          0.0005260113446876602 0.0022222150870199187 0.0011733333056553885 0.0009248331010245359 0.0018845288462892018 0.0011055928480376842
          0.0007030225550106461 0.0011548413477024955 0.0006251484467474366 0.009737902768371498 0.028843726930654956 0.012604624938644893
          -0.05891676914008692 -0.11640141220073441 -0.05662652053971495 -0.0012580884733743858 -0.0017305211927052255 0.00006717405315814773
          -0.0006193520326602808 -0.0001866900567457641 -0.00016266276301024618 -0.0003660055831056219 0.0016227369824703963 0.0002792564945113263
          0.0005009594441265364 0.002911741373325949 0.0014038263137265972 0.0015160045602367056 0.0036773822575359993 0.002608962878115406
          0.0019052774014762797 0.0037029741434992935 0.002223843698934136 0.0008599731961216328 0.0017515141875257267 0.0007081516109059827
          0.06034559536995565 0.12083029127193967 0.05984253650463889 0.03234202741434844 0.06431913491981156 0.03244035539783141
          -0.0019322371736856248 -0.0039258636844570205 -0.0011522086644588647 -0.0034533283090141254 -0.00556216694621714 -0.0021685708906495904
          -0.00415585361981563 -0.0063287711142221426 -0.0030334477655094005 -0.003592297606823891 -0.0059777811831027705 -0.0026792662494976582
          -0.002378439550436262 -0.00481585994991196 -0.00182682633482667 -0.001116385251228369 -0.002386415176104606 -0.0009721821837174183
          -0.0006518669463067006 -0.0008158916014924245 -0.0005309052146038606 1.7622594173403043 0.00005168073097283621 3.52467585546531
          0.00003478262875944438 1.7674800814586216 0.0001237836176254392 0.0001574363031690007 0.000047202277350888444 0.00020859957219282466
          0.00025281950878613957 0.00012530085231252097 0.0002853020150527519 0.00029626441531224734 0.00021529409058440585 0.00032875550014407895
          0.0003793049746992905 0.00032724130228789505 0.00037460527221822026 0.0005015796186418342 0.00045948163219344806 0.00038231926450427167
          0.0004808318648703569 0.0005627813049895458 0.00025724291009110445 0.00021867442565715045 0.0005773150724086573 0.00009355117381515399
          -0.0003475275984810011 -0.0002792275883003459 -0.0003336671447358164 2.0265360292169055 0.0000624920055620759 4.053254138430055
          0.00006211187724958211 2.032218708953072 0.00008181051271460849 0.00015922958870051573 0.00011168731037991542 0.0001705400838304394
          0.0002838444068409829 0.00017417886261045235 0.00026782322729063113 0.0003827221930418484 0.0002448523308800493 0.00033417508428831844
          0.00044748046951503806 0.0003193399739556124 0.0003279398872468864 0.0004615733508285258 0.0003910918749204795 0.0002404086475785716
          0.0003922607306710013 0.0004805096264455244 0.0001640237228948127 0.00023007516817974416 0.0004767868577233436 0.00009943888434593706
          -0.00004356065789123953 0.00004950459266095386 -0.00008367531813968654 2.2464463190193795 0.000034976692756427674 4.49309540219807
          0.00006935301368482527 2.2523830195491668 0.000003822287462096341 0.00010543777269611532 0.00013247958152529105 0.00004866262188585324
          0.0002281475427945434 0.00020004520426281092 0.00014604527373923704 0.0003600689456079026 0.0002771406565868009 0.00022367114440131897
          0.0004453298358143565 0.0003580263958747887 0.0002359797742672587 0.000428004733802112 0.0004395499674209047 0.00019123002856513693
          0.0003444579444988882 0.0005323872904139382 0.00018658427992690463 0.00023501064568365315 0.0004618786830405952 0.0001332505326377964
          0.00004068715355798336 0.00012175275666370666 0.00001006795897828816 2.423949605271056 0.0000021818553854746625 4.848118287624494
          0.00007897024504688321 2.4300121993587958 -0.000007188328139173805 0.00002957900413536052 0.00015073135902154977 0.000016042459066611947
          0.0001243302196474172 0.0002317583109151533 0.0000837699307619788 0.00024896103887930843 0.00032223821497823213 0.00018973647584533126
          0.0003582739798371204 0.0004163373614011201 0.0003177149239827204 0.0004162689321924873 0.000511274609721446 0.00036795722753935056
          0.0003966210694106298 0.0005719230454847013 0.00029798708446626687 0.000261671410160369 0.0004370105143144398 0.00012363410715965362
          0.00005742724621549122 0.00012608871205299632 -0.0000035975450012326604 2.562128192117532 0.000012331281331157129 5.124477882899795
          0.00009292157247853261 2.568235163483192 0.00006556832763382481 0.000057150113358273025 0.0001765888100295765 0.00009895247800106866
          0.00011087636596651684 0.0002789774430552727 0.00014861826151280066 0.00020104017236993732 0.0003864286793142657 0.00031426535935086264
          0.00036298297684874553 0.0004898068356814916 0.0005463933153541795 0.0005373645896701862 0.0005763263314928491 0.000632549844396757
          0.0005631624996857987 0.0005875593846775828 0.00046194611266214824 0.0003451336784511261 0.00040164678731952064 0.00016755628664205657
          0.00007002032503389266 0.0001096649995468435 0.000021018554777041398 2.6645651968533355 0.00006219142196406402 5.329339213100904
          0.0001082379209940143 2.670657978565155 0.00014157400989556201 0.00016583309137430113 0.0002093723770206779 0.00019449217449918343
          0.00022436480762455524 0.0003271597001145432 0.00026631278299049654 0.0003242554913597817 0.0004516939294911815 0.00045755848437772917
          0.0005124217729602643 0.0005627854346188788 0.0006756294618044945 0.0006921218763917547 0.0006272151639919454 0.0007571148121701399
          0.0007041959981239354 0.0005870509524237288 0.000636910502329946 0.00047823376547823093 0.00037060780323772136 0.0004237333384393971
          0.00019127403317115155 0.00009480452367738312 0.00015357359023193684 2.7347615595683097 0.000096857542579043 5.469719983605782
          0.00012147642191728814 2.7408088041727074 0.00013081138743786802 0.00022463466941169408 0.00023743262385900188 0.00022117270433308356
          0.00034270946075865005 0.00036376113597469395 0.00033931358905869846 0.0004822184279237307 0.0005012805726146707 0.00047649030428431605
          0.0006172046314207313 0.0006169632323604346 0.0005966632409246664 0.0007053027117942118 0.0006592001555676963 0.0007039032570618359
          0.0007347010891785022 0.0005758964418934864 0.0007837168717372001 0.0006798698108774898 0.0003496501568817645 0.0007933856503868214
          0.00046243598994355484 0.0000872868845530339 0.00030161079331630924 2.7756087717999893 0.00007625589021187373 5.551418445333577
          0.00012997370208323034 2.7816157594463493 0.00004893234386194045 0.0001743491641690298 0.000253649070919737 0.00019824885649422086
          0.00036348101721461745 0.0003873615846925471 0.00035977223983296724 0.0005214610363297734 0.0005318670507257206 0.00040180283626944924
          0.0005561792009537436 0.0006466113654622907 0.0004221955904825103 0.000561399548546504 0.0006745906097981313 0.0005769860620974399
          0.0006682152702809363 0.000568770593373305 0.0008448634676135602 0.000834904350640554 0.0003395683071796725 0.0010258321859168487
          0.0006805779603191037 0.00008689960754390547 0.00039010110075782256 1.3944973038085604 0.000003612578673095612 2.789110070173482
          0.00006920116958575306 1.3975039188588647 0.000022588048010252493 0.00007128140288004126 0.0001300902287317829 0.00009474205190973528
          0.0002222998355567718 0.00019877056369987933 0.0001525444288745792 0.00029015569127555096 0.0002743424994362531 0.00015450132639815983
          0.0002484446310339061 0.0003325414025336926 0.0001705667754254847 0.0002528212157116849 0.0003427019199321313 0.0002557563556960796
          0.0004140391162878454 0.00028413937722793214 0.00037367473722893507 0.000644736866833362 0.00016850529868087105 0.0004276691290731327
          0.0004892853421399404 0.00004492122342867992 0.00013085943125745736
        </DataArray>
        <DataArray type="Float64" Name="resid_z" format="ascii" RangeMin="0" RangeMax="0">
          0 0 0 0 0 0
          0 0 0 0 0 0
          0 0 0 0 0 0
          0 0 0 0 0 0
          0 0 0 0 0 0
          0 0 0 0 0 0
          0 0 0 0 0 0
          0 0 0 0 0 0
          0 0 0 0 0 0
          0 0 0 0 0 0
          0 0 0 0 0 0
          0 0 0 0 0 0
          0 0 0 0 0 0
          0 0 0 0 0 0
          0 0 0 0 0 0
          0 0 0 0 0 0
          0 0 0 0 0 0
          0 0 0 0 0 0
          0 0 0 0 0 0
          0 0 0 0 0 0
          0 0 0 0 0 0
          0 0 0 0 0 0
          0 0 0 0 0 0
          0 0 0 0 0 0
          0 0 0 0 0 0
          0 0 0 0 0 0
          0 0 0 0 0 0
          0 0 0 0 0 0
          0 0 0 0 0 0
          0 0 0 0 0 0
          0 0 0 0 0 0
          0 0 0 0 0 0
          0 0 0 0 0 0
          0 0 0 0 0 0
          0 0 0 0 0 0
          0 0 0 0 0 0
          0 0 0 0 0 0
          0 0 0 0 0 0
          0 0 0 0 0 0
          0 0 0 0 0 0
          0 0 0 0 0 0
          0 0 0 0 0 0
          0 0 0 0 0 0
          0 0 0 0 0 0
          0 0 0 0 0 0
          0 0 0 0 0 0
          0 0 0 0 0 0
          0 0 0 0 0 0
          0 0 0 0 0 0
          0 0 0 0 0 0
          0 0 0 0 0 0
          0 0 0 0 0 0
          0 0 0 0 0 0
          0 0 0 0 0 0
          0 0 0 0 0 0
          0 0 0 0 0 0
          0 0 0 0 0 0
          0 0 0 0 0 0
          0 0 0 0 0 0
          0 0 0 0 0 0
          0 0 0 0 0 0
          0 0 0 0 0 0
          0 0 0 0 0 0
          0 0 0 0 0 0
          0 0 0 0 0 0
          0 0 0 0 0 0
          0 0 0 0 0 0
          0 0 0 0 0 0
          0 0 0 0 0 0
          0 0 0 0 0 0
          0 0 0 0 0 0
          0 0 0 0 0 0
          0 0 0 0 0 0
          0 0 0 0 0 0
          0 0 0 0 0 0
          0 0 0 0 0 0
          0 0 0 0 0 0
          0 0 0 0 0 0
          0 0 0 0 0 0
          0 0 0 0 0 0
          0 0 0 0 0 0
          0 0 0 0 0 0
          0 0 0 0 0 0
          0 0 0 0 0 0
          0 0 0 0 0 0
          0 0 0 0 0 0
          0 0 0 0 0 0
          0 0 0 0 0 0
          0 0 0 0 0 0
          0 0 0 0 0 0
          0 0 0 0 0 0
          0 0 0 0 0 0
          0 0 0 0 0 0
          0 0 0 0 0 0
          0 0 0 0 0 0
          0 0 0 0 0 0
          0 0 0 0 0 0
          0 0 0 0 0 0
          0 0 0 0 0 0
          0 0 0 0 0 0
          0 0 0 0 0 0
          0 0 0 0 0 0
          0 0 0 0 0 0
          0 0 0 0 0 0
          0 0 0 0 0 0
          0 0 0 0 0 0
          0 0 0 0 0 0
          0 0 0 0 0 0
          0 0 0 0 0 0
          0 0 0 0 0 0
          0 0 0 0 0 0
          0 0 0 0 0 0
          0 0 0 0 0 0
          0 0 0 0 0 0
          0 0 0 0 0 0
          0 0 0 0 0 0
          0 0 0 0 0 0
          0 0 0 0 0 0
          0 0 0 0 0 0
          0 0 0 0 0 0
          0 0 0 0 0 0
          0 0 0 0 0 0
          0 0 0 0 0 0
          0 0 0 0 0 0
          0 0 0 0 0 0
          0 0 0 0 0 0
          0 0 0 0 0 0
          0 0 0 0 0 0
          0 0 0 0 0 0
          0 0 0 0 0 0
          0 0 0 0 0 0
          0 0 0 0 0 0
          0 0 0 0 0 0
          0 0 0 0 0 0
          0 0 0 0 0 0
          0 0 0 0 0 0
          0 0 0
        </DataArray>
        <DataArray type="Float64" Name="stress_zz" format="ascii" RangeMin="-4041525.58103979" RangeMax="2145723.836460122">
          1018144.638541971 430676.60181191127 78440.23354931046 388321.8763228002 1017412.4670596085 428045.9886995119
          60784.268445013564 371159.9858882199 1016680.2955772461 425415.37558711274 43128.303340716695 353998.09545363963
          -318029.9471116056 -33911.9705325478 237412.32787910086 -23077.133167980115 -319126.6699192016 -41081.66767182104
          230696.02644768474 -33276.79255037361 -320223.39272679755 -48251.364811094245 223979.72501626855 -43476.4519327671
          674311.4794526723 394893.62012435036 662090.513627707 390648.828736471 649869.5478027416 386404.03734859166
          658248.2800196338 1106005.0723540653 1054468.9954290085 653739.0910166397 1090806.8800963934 1036158.6706926846
          649229.9020136456 1075608.6878387216 1017848.3459563606 -124683.01012015212 -153936.7593046185 -261005.35933071183
          -166566.9754665453 -123065.26964923303 -195935.4672427569 -261098.01342115254 -170636.84704990577 -121447.52917831397
          -237934.17518089528 -261190.66751159326 -174706.7186332662 -493944.79096012126 -236632.63451693038 -261105.52340661088
          -566178.9989633225 -483744.7327251205 -286360.10185269447 -292447.2101829468 -532624.9514498255 -473544.6744901197
          -336087.5691884585 -323788.8969592827 -499070.90393632866 -603507.9280175943 -268840.72837851534 534393.4390087954
          -607961.6904359378 -259783.74802104864 533228.5626553613 -612415.4528542815 -250726.76766358202 532063.6863019272
          1677166.2666132634 1686865.6421381298 1696565.0176629964 399865.4799551673 -456713.9249476057 399220.2272900901
          -442383.29272890964 398574.97462501295 -428052.66051021346 2078505.8472951956 1240486.4091019423 2096230.0192623062
          1225074.0928171917 2113954.191229417 1209661.776532441 -1450.3067312889732 -120032.44052835554 -32899.189850312
          -102275.54357497927 -64348.07296933506 -84518.64662160304 -646322.3198377935 -496843.38891479536 -408792.6300162257
          -465968.8054708712 -650848.3650547799 -503473.56561181985 -428259.7254337996 -466878.49111764354 -655374.4102717665
          -510103.74230884464 -447726.8208513735 -467788.1767644159 246897.67100957347 259044.07363879788 271190.4762680223
          212890.55430492747 215537.98602144513 218185.41773796285 722133.2208760853 726299.6099253388 730465.9989745921
          -14156.946993113284 -474060.9208981064 -22079.425951630492 -459433.91568390664 -30001.904910147685 -444806.9104697068
          -484646.07612247404 -1734125.8435270493 -1809997.088457196 -1352370.1226903256 -497659.3777635511 -1821362.973849672
          -1859154.708689487 -1394242.225063858 -510672.67940462823 -1908600.104172294 -1908312.3289217781 -1436114.32743739
          -83824.10417398231 -373414.31974593666 -76340.61612976779 -363407.61683914135 -68857.1280855533 -353400.9139323461
          -377694.06922842015 -345063.2748580971 -312432.480487774 -229285.96643528005 -219932.5776175082 -210579.18879973632
          417284.18461713684 531838.3994962875 406470.60007843963 554987.969643463 395657.0155397424 578137.5397906386
          -681561.6655786549 -525601.2518637658 -629323.7461946387 -506209.4307681896 -577085.8268106224 -486817.6096726133
          -1388768.0660648877 -2016535.577838327 -1361052.9613288245 -2024290.0622282184 -1333337.8565927618 -2032044.5466181103
          -445745.7722444345 -424050.20692860446 -402354.64161277446 -895796.9168499237 -899452.225521079 -903107.5341922346
          -180452.9924638125 -166574.59996066906 -152696.2074575256 -1383900.957650541 -1314178.6986144863 -1244456.4395784312
          -23199.761915535433 26636.782698048948 76473.32731163333 1345343.6288581584 762318.5310471843 -221998.36571026314
          112427.43536067684 -1789340.3602786846 -537463.6603258303 -139262.09659521078 -136869.2443722621 -134476.3921493134
          -486627.5384946224 -976972.3894468591 -468320.0432739548 -966642.8394603304 -450012.54805328744 -956313.2894738019
          -938773.2551447175 -771230.8552683525 -935893.6219804469 -742890.4144499446 -933013.9888161761 -714549.9736315366
          -551517.5673991705 -394941.8522583912 -555258.9351568024 -405043.2679324135 -559000.3029144345 -415144.6836064357
          293337.0353187227 329283.4584828392 365229.8816469556 -6641.681695488864 93223.14770951157 193087.97711451177
          -949208.7967328663 -973300.8434698038 -997392.8902067413 302156.984704983 563805.2130904417 325497.64519782143
          488025.4938258401 348838.3056906599 412245.7745612387 1878286.0207716231 2145723.836460122 749711.5894689304
          -258789.2774906758 -378862.8418337623 -2663302.3914414737 71695.98458751047 -581837.5121057407 -492382.6262349774
          114381.55087281644 -422983.87702274136 -822744.7741613766 157067.11715812242 -264130.24193974194 -1153106.922087776
          -555110.5115850698 -1291775.5761746226 -2028440.6407641757 -1057240.334511326 -1101550.2898978356 -989554.7755498685
          -1111320.2237083782 -921869.216588411 -1121090.1575189212 -60521.706784670154 166682.55146984986 -50168.032136539085
          178940.9197151939 -39814.357488407986 191199.28796053794 -963670.239215767 -658380.4335798585 -353090.62794394995
          1013841.8129133302 1017730.1914058265 1021618.5698983227 -914651.3613915792 -861527.8127084789 -808404.2640253786
          -430180.8231740484 -424292.6112275388 -437660.90911263303 -436127.05096152524 -445140.9950512176 -447961.4906955118
          -477640.78279824497 -560506.9743090564 -643373.165819868 -233318.85635260513 -239458.15636741873 -245597.45638223234
          -811029.7196248306 -795344.5092827689 -779659.2989407071 -137018.42353139955 -108438.73382899753 -79859.04412659552
          3300.2176066537213 2971.120223985752 2642.022841317783 140894.29328293554 117246.47231360665 93598.65134427778
          1563797.2654893901 1556630.417426153 1549463.5693629165 1441416.0255717458 1440694.4401607304 1439972.854749715
          1054592.1605077998 1053058.4637352836 1051524.766962767 182180.39672535824 186335.6000849962 190490.80344463416
          -495565.3100204159 -484969.27618697216 -474373.24235352845 -42541.02501577938 -41126.904804485355 -41695.84515281088
          -39191.65751779229 -40850.66528984236 -37256.41023109924 -28817.104745758545 -20675.20396517542 -29426.195883839053
          -21371.64547997963 -30035.287021919557 -22068.086994783844 7454.462705596696 13809.187131184606 7773.486663367126
          14164.560569941128 8092.510621137555 14519.93400869765 33812.78608224106 41918.300787172826 33699.07625777014
          41921.80904841913 33585.36643329922 41925.317309665435 50239.97834830174 58573.90248301197 50247.19266803808
          58661.47984382357 50254.40698777442 58749.05720463517 59534.39349385108 65029.670637363895 59526.85980681601
          65095.448966256605 59519.326119780955 65161.22729514931 49838.118428805756 54790.34709063445 49860.695677287
          54870.80600091657 49883.27292576826 54951.2649111987 8501.801232436312 17160.571914586028 8428.585506862788
          17188.475814649955 8355.369781289262 17216.37971471388 -89252.36978520402 -84576.42539090278 -79900.48099660153
          -21732.748149884123 -23139.385473427126 -24546.02279697014 7700.686360654618 7854.209515161723 8007.732669668823
          35434.926257148014 35404.5820576578 35374.23785816759 48573.45157790443 48498.31640961492 48423.18124132541
          61076.75689088463 61143.06443392912 61209.3719769736 43755.755263388615 43914.50507613486 44073.25488888112
          -16431.498813681414 -16470.008571250444 -16508.518328819468 -58837.92044296947 -54961.30794105699 -51084.69543914452
          -27719.37924970102 -27649.492805441267 -27579.60636118151 33568.732090666424 33993.30528061702 34417.87847056761
          50536.07434422051 50656.9081491621 50777.74195410368 57506.073246311986 57505.31682220908 57504.56039810618
          71532.92680188589 71539.86510241913 71546.80340295237 34998.155641392084 34977.64584943695 34957.136057481825
          -61602.677902729265 -62205.18819585662 -62807.69848898399 -11812.369738635265 -22290.058301444104 -32767.74686425295
          20327.755337913208 19029.65267056738 17731.550003221557 44747.08071917307 44835.19990595054 44923.319092728016
          66704.26466475944 66546.66555371118 66389.06644266292 52260.16429443266 51909.42420347425 51558.68411251583
          75099.07861348358 75411.89342210755 75724.70823073151 10955.242420645161 11761.606563476958 12567.970706308752
          -135724.10949929542 -135635.66267234983 -135547.21584540428 -631223.1656106001 -632917.7871931181 -634612.4087756361
          56071.48790454327 53489.087006841044 50906.68610913881 109412.87933856981 109015.17235833564 108617.46537810146
          55332.16029214053 56739.2863740026 58146.41245586466 39361.17513331716 38917.59143937821 38474.00774543925
          70491.17452854376 70282.28258113998 70073.39063373621 -49204.91235893447 -49832.59117413101 -50460.26998932754
          -277472.48608000035 -280094.14930305263 -282715.812526105 -741445.9402374219 -744682.4231505994 -747918.9060637769
          -1238348.6946275337 -1225485.5722497776 -1212622.449872022 -670211.3110798432 -659813.3068397591 -649415.302599675
          78560.73435228354 75706.85414795435 72852.97394362514 73852.50161322742 71695.56326944332 69538.62492565921
          2236.800085795878 1888.7225274998339 1540.6449692037913 83120.18906641734 83853.41318570518 84586.63730499304
          -111631.8137825398 -109127.80600511548 -106623.79822769115 -458242.92161561316 -458088.95288586954 -457934.984156126
          1272757.1042675013 1258099.0946987297 1243441.085129958 194487.99998341023 201191.92250362263 207895.84502383502
          -1408677.5599077223 -1381671.9723503434 -1354666.3847929647 -645485.5837214598 -640318.7392862631 -635151.8948510664
          402000.33538947796 395545.66931349365 389091.0032375092 42823.42859599456 41061.802297278526 39300.17599856249
          42705.10041043901 43708.52675478165 44711.95309912428 -641100.4278418776 -639408.3779602355 -637716.3280785932
          -1281957.9346318545 -1284818.3484190966 -1287678.7622063383 974024.6121151424 965815.6856322777 957606.7591494131
          -61988.980604715296 -65195.941282807384 -68402.90196089959 -2729713.1276924084 -2710325.8910321044 -2690938.6543718004
          -2653725.3951042253 -2640621.299727578 -2627517.204350931 -100461.48057515814 -104780.73951866111 -109099.99846216408
          332120.24526183424 326554.015955623 320987.78664941166 546900.857561391 547992.8248225633 549084.7920837357
          -343492.4869518607 -343692.4542023066 -343892.4214527524 -1545537.9607598768 -1553602.4739128319 -1561666.987065787
          -547616.0642788595 -555364.8242621055 -563113.5842453516 -1767703.5121447844 -1777521.6164009296 -1787339.720657075
          -4005048.955136343 -3999352.3587638605 -3993655.762391378 -4041525.58103979 -4031211.9617791953 -4020898.3425186016
          -890383.9875090339 -893627.9284161354 -896871.8693232369 549093.9142750954 540898.6315824396 532703.348889784
          1108896.2444322775 1111782.7722045532 1114669.2999768292 464901.8732511293 469387.7640805811 473873.6549100329
          -1069649.8146980514 -1073027.5194476675 -1076405.2241972834 -14513.65711982388 -21082.74439795276 -14494.136422572818
          -21080.777074136124 -14474.615725321753 -21078.809750319488 -40731.40856625899 -40555.14738081255 -40378.8861953661
          -74407.02160837896 -74363.5409692263 -74320.06033007364 -122753.34216721261 -121791.025536418 -120828.70890562344
          -210464.29265944372 -210585.8705488308 -210707.44843821783 -283141.0744607299 -280235.33919098217 -277329.6039212345
          -781778.0438758074 -777750.6318680109 -773723.2198602143 -401797.62809261004 -396636.5130379431 -391475.39798327605
          464103.6413897186 474631.4542055236 485159.2670213289 -25763.698887382667 -29085.81241706422 -25754.62188489425
          -29074.49698390416 -25745.544882405837 -29063.181550744106 -38350.31719757344 -38267.53460816653 -38184.75201875962
          -52660.94470241168 -52603.13125350888 -52545.31780460608 -71619.73640211903 -71222.64750462289 -70825.55860712676
          -100898.45611796438 -100803.92854643254 -100709.40097490071 -118624.4849538282 -117521.71856397907 -116418.95217412992
          -338097.4451204921 -336528.85341503157 -334960.2617095711 510307.651464932 509720.9752766177 509134.29908830323
          1579147.8436513047 1577684.3477125585 1576220.851773812 -37936.83644956867 -41586.373184524586 -37929.82116381049
          -41593.30315770604 -37922.80587805231 -41600.23313088749 -52161.211471273535 -52213.88858697357 -52266.56570267361
          -69137.38748025219 -69299.22933950069 -69461.0711987492 -93143.31708752483 -93415.51303373292 -93687.70897994099
          -126316.86943822248 -126939.64575922508 -127562.42208022768 -184430.29201185476 -185393.8255830649 -186357.359154275
          -251573.12912399735 -253788.6005580949 -256004.07199219248 344425.16404824133 340113.8021749906 335802.44030173984
          968671.3689596009 963492.8864076814 958314.4038557619 -50462.3472172561 -54002.97289065001 -50461.65742604573
          -53990.43228539603 -50460.96763483535 -53977.89168014205 -64340.62484538812 -64297.90506105881 -64255.18527672949
          -80930.8331397053 -80841.57187960032 -80752.31061949534 -102916.53392708054 -102751.55423472864 -102586.57454237677
          -132660.38841878407 -132359.80481530871 -132059.22121183336 -161058.81236431588 -160629.60901992343 -160200.405675531
          -105990.17724526004 -105019.2696147019 -104048.36198414373 375182.4915870244 377749.075111272 380315.6586355195
          790439.4370720225 794100.5133550903 797761.5896381582 -62436.23367332702 -66074.33716793802 -62439.521567796415
          -66077.86204900725 -62442.809462265825 -66081.38693007646 -76679.05211940903 -76694.90560173505 -76710.75908406105
          -93132.64944301275 -93172.90805052072 -93213.1666580287 -113135.86660959413 -113234.06215823951 -113332.2577068849
          -132014.02584398002 -132141.11278779383 -132268.19973160763 -123016.23270583575 -123430.31927142642 -123844.40583701707
          -9273.125400491688 -9742.394421645282 -10211.663442798883 354969.20952576597 354054.96884789376 353140.72817002155
          622828.1582193719 621220.3966831233 619612.6351468747 -72988.17590066926 -76758.59692376568 -72994.56708508478
          -76762.715675805 -73000.95826950029 -76766.8344278443 -87565.851983536 -87570.20536131515 -87574.55873909427
          -103405.73377387201 -103405.91736222056 -103406.10095056912 -119251.70699519466 -119261.7213332135 -119271.73567123234
          -123391.41951185031 -123357.48185675137 -123323.54420165246 -84017.99206134054 -84111.50143000325 -84205.01079866596
          52905.63599013384 53069.76850905064 53233.90102796746 333136.8768494735 333682.45352062164 334228.0301917697
          512914.7041568436 513396.1764785473 513877.64880025084 -81294.96391091603 -85212.81921717984 -81297.80893732281
          -85216.04015059104 -81300.65396372956 -85219.26108400221 -96134.95536843246 -96144.66707359461 -96154.37877875674
          -110878.37726562974 -110892.77079309196 -110907.16432055419 -121739.15243429987 -121780.7541935975 -121822.3559528951
          -112699.1631661297 -112720.61664657455 -112742.07012701941 -53426.122342913746 -53599.946213871095 -53773.77008482843
          90306.20639006037 90313.21924952036 90320.23210898036 315767.42516552785 315816.4557733243 315865.4863811207
          444607.73264660535 444316.78432867373 444025.8360107421 -86628.32039675687 -90680.207711202 -86623.2752312849
          -90674.95989249987 -86618.23006581292 -90669.71207379777 -101656.85170035962 -101655.81986318518 -101654.78802601075
          -115366.27023228255 -115368.7076309013 -115371.14502952005 -122372.19292398682 -122400.4042626277 -122428.61560126857
          -104706.99593814966 -104709.09768223816 -104711.19942632665 -34750.94533550712 -34871.81127136422 -34992.67720722132
          109702.40500909922 109777.95897215215 109853.51293520507 304331.81054789166 304522.4595282784 304713.1085086651
          406577.4585243894 406515.18549789215 406452.9124713949 -88461.07444907156 -92561.99665485285 -88453.84738150483
          -92555.30519730954 -88446.62031393813 -92548.61373976624 -103546.9221104703 -103544.95250857856 -103542.98290668681
          -116837.60901582078 -116839.90674119344 -116842.2044665661 -122408.50128199781 -122439.63025330647 -122470.75922461516
          -101770.70746309878 -101779.37392080534 -101788.04037851194 -28470.1269313916 -28595.943319769573 -28721.759708147547
          115773.73665245595 115831.66389760126 115889.59114274658 300593.28829364787 300734.8209806824 300876.3536677169
          394667.5544531377 394540.5863399649 394413.618226792
        </DataArray>
        <DataArray type="Float64" Name="peeq" format="ascii" RangeMin="0" RangeMax="0.0024399185124319906">
          0.0015426640629674555 0.0015862859471407146 0.0015596438523279065 0.00155615120813751 0.0015424618555214317 0.0015860851538275229
          0.0015594909522059725 0.0015559041568878002 0.0015422596480754083 0.0015858843605143307 0.0015593380520840386 0.00155565710563809
          0.0014930839926856308 0.0015362547444382623 0.001548682253462383 0.001529137567562107 0.001493395373702679 0.0015364413794284125
          0.0015483758679551841 0.0015289245142405471 0.0014937067547197273 0.0015366280144185629 0.0015480694824479854 0.001528711460918987
          0.0015555834009764256 0.0015300317634608454 0.0015551955551771908 0.0015299068828744534 0.0015548077093779562 0.0015297820022880612
          0.0015528045696354144 0.001449669734257273 0.0015265684257377969 0.0015525868103791842 0.001449380633422234 0.0015261671984540166
          0.001552369051122954 0.0014490915325871948 0.0015257659711702361 0.0015061244495674741 0.0015674999349784842 0.0016386097115403096
          0.0015122381593992056 0.0015068230991258046 0.0015680674012733826 0.0016392718248051386 0.001512999188055305 0.0015075217486841355
          0.001568634867568281 0.0016399339380699675 0.0015137602167114045 0.001552399719860014 0.0016238475522323927 0.001590468365390979
          0.0015123901946718851 0.0015529594583856643 0.0016245932492716527 0.0015910435506803458 0.0015131447264086172 0.0015535191969113147
          0.0016253389463109127 0.0015916187359697124 0.0015138992581453497 0.0015235321078776527 0.0016202020458234824 0.0015997285927066252
          0.0015242807578595599 0.0016209637288121634 0.0015999489497212477 0.001525029407841467 0.0016217254118008444 0.0016001693067358705
          0.001431287688877922 0.001431177321268946 0.00143106695365997 0.0017258626229601005 0.001795823746045734 0.0017261394478704209
          0.0017963398202359572 0.001726416272780741 0.0017968558944261802 0.001273072259277337 0.0013326195786768093 0.0012730620186045178
          0.001332517304133035 0.001273051777931698 0.001332415029589261 0.0021452686113817127 0.002280124218418935 0.0021455226914755435
          0.002280301275516901 0.0021457767715693738 0.002280478332614867 0.0016934033056821862 0.0018056015889451522 0.001646543750321864
          0.001547074950469487 0.001694068920368295 0.0018064256775346503 0.0016473275054033174 0.0015478351860148435 0.0016947345350544038
          0.0018072497661241486 0.0016481112604847705 0.0015485954215602 0.0022257662233749077 0.002226185089187286 0.0022266039549996646
          0.0024399185124319906 0.0024397854152195192 0.0024396523180070483 0.0015793014916310247 0.0015793711272679561 0.0015794407629048871
          0.0014905082464514489 0.0014575379199803502 0.0014906573682405642 0.0014582331522230995 0.0014908064900296795 0.0014589283844658489
          0.002191397829225435 0.0019324738641155437 0.0019039683782789622 0.0021780730796999697 0.00219187545565202 0.0019326516983077726
          0.0019043812788335792 0.0021786049180344625 0.0021923530820786045 0.0019328295325000016 0.0019047941793881964 0.002179136756368956
          0.0014869533985949228 0.0015068554884096288 0.0014873969364272983 0.0015071783987732317 0.0014878404742596739 0.0015075013091368347
          0.002170456773558345 0.0021711848684584072 0.002171912963358469 0.0016939727271302178 0.001694657589560493 0.0016953424519907678
          0.0021252683157387924 0.0021176227440682406 0.002126124564877846 0.002118555286352157 0.0021269808140168996 0.002119487828636073
          0.001499414845138665 0.0015159982111466555 0.0015001030816879084 0.0015165646313986432 0.0015007913182371517 0.0015171310516506307
          0.0016937444305610795 0.0017495113354748925 0.0016949566219863546 0.0017505028899306373 0.0016961688134116294 0.0017514944443863827
          0.002018255317095253 0.0020189734496945215 0.002019691582293791 0.001932215568447218 0.001932568245222642 0.0019329209219980659
          0.0018963530390572888 0.0018968825769321335 0.001897412114806978 0.0016732151157064865 0.00167448818436737 0.0016757612530282533
          0.001965007489737325 0.0019662312583195703 0.0019674550269018157 0.002270801222874659 0.002246204754042464 0.0022742407440080863
          0.002247678856391941 0.0022776802651415136 0.0022491529587414173 0.0014653771406346154 0.0014660179058946005 0.001466658671154585
          0.0014618457177231895 0.0014899841012708261 0.0014627740340005108 0.001490955472293192 0.0014637023502778324 0.0014919268433155582
          0.0016537293259183028 0.0018646492953581656 0.0016547446260675289 0.0018655365433139454 0.0016557599262167545 0.001866423791269725
          0.0015168743521936832 0.0015128806937118999 0.0015170619601476707 0.001513298610421962 0.0015172495681016586 0.0015137165271320245
          0.0018727190634458685 0.0018738917204571518 0.001875064377468435 0.002199196885751714 0.002199045302574929 0.002198893719398144
          0.0021508923629481986 0.002151621950521217 0.0021523515380942352 0.0018344714022040418 0.0019968773320007925 0.0018350344745005603
          0.0019971696659790194 0.0018355975467970788 0.001997461999957246 0.002098257162429007 0.0021279466198228037 0.002099875101370675
          0.0021318797789862303 0.0021014930403123436 0.002135812938149657 0.0018492138332067511 0.0017351767020732014 0.0019010419264645505
          0.0018496712396128317 0.0017359610021597512 0.0019012084439824447 0.0018501286460189121 0.001736745302246301 0.001901374961500339
          0.0019274163844487466 0.0019274134642014553 0.0019274105439541639 0.001563611118713147 0.0015245388144670719 0.0015650457157275848
          0.0015255439450156845 0.0015664803127420223 0.0015265490755642973 0.0015369155674071597 0.0015681613071574856 0.0015372807498705377
          0.0015681598347234938 0.0015376459323339154 0.0015681583622895016 0.001754398591439011 0.0017551931481412442 0.0017559877048434775
          0.002041203660864596 0.0020409990375062762 0.002040794414147957 0.0014514260733116014 0.0014525356185424332 0.001453645163773265
          0.0015262851313760824 0.001571474577977348 0.0015267994886649261 0.0015718564034244212 0.00152731384595377 0.0015722382288714941
          0.0016427781794061333 0.0016436845293344362 0.0016445908792627393 0.0015071139900634432 0.0015078301508856826 0.001508546311707922
          0.001477591773652063 0.0014784463879133443 0.001479301002174625 0.0015184955609404685 0.001519268609719442 0.0015200416584984157
          0.0015655421876284346 0.0015655274970271392 0.0015655128064258439 0.00160801195409964 0.001607628664112125 0.00160724537412461
          0.0010059207057044708 0.0010058731528543945 0.001005825600004318 0.0012407461139263044 0.0012406710269455249 0.0012405959399647455
          0.0014285262474071079 0.0014284503886462208 0.0014283745298853338 0.0015606860995985893 0.0015606357375981626 0.0015605853755977358
          0.0016125350552337674 0.0016125104608485158 0.0016124858664632643 0 0 0
          0 0 0 0 0 0
          0 0 0 0 0 0
          0 0 0 0 0 0
          0 0 0 0 0 0
          0 0 0 0 0 0
          0 0 0 0 0 0
          0 0 0 0 0 0
          0 0 0 0 0 0
          0 0 0 0 0 0
          0 0 0 0 0 0
          0 0 0 0 0 0
          0 0 0 0 0 0
          0 0 0 0 0 0
          0 0 0 0 0 0
          0 0 0 0 0 0
          0 0 0 0 0 0
          0 0 0 0 0 0
          0 0 0 0 0 0
          0 0 0 0 0 0
          0 0 0 0.000015509932230946463 0.000015539514553737924 0.000015569096876529384
          0 0 0 0 0 0
          0 0 0 0 0 0
          0 0 0 0 0 0
          0 0 0 0.00032148636379316525 0.000321522188413315 0.0003215580130334646
          0.00010621308535860016 0.00010630213940345616 0.00010639119344831216 0.000015034576860655156 0.000015085614778968075 0.000015136652697280994
          0 0 0 0 0 0
          0 0 0 0 0 0
          0 0 0 0 0 0
          0.0006497539552473773 0.0006496031591703828 0.0006494523630933884 0.00032772726610582915 0.00032774538568775983 0.00032776350526969047
          0.00009077593087369322 0.00009089465013893138 0.00009101336940416954 0.000004046501838618647 0.000004088299831834974 0.000004130097825051302
          0 0 0 0 0 0
          0 0 0 0 0 0
          0 0 0 0.0010577651094523636 0.0010573486104270154 0.0010569321114016674
          0.0006745146181215099 0.0006743196567823387 0.0006741246954431677 0.0002804248460318101 0.00028056200449636215 0.00028069916296091416
          0.000049826307396027564 0.000049955566602553306 0.00005008482580907904 0 0 0
          0 0 0 0 0 0
          0 0 0 0 0 0
          0.001279981861216985 0.0012794292957222417 0.0012788767302274987 0.0008749810102866689 0.0008746737918885945 0.0008743665734905201
          0.000409366984037544 0.00040950593827279757 0.0004096448925080512 0.00009155961111481783 0.00009173453354143666 0.00009190945596805549
          0 0 0 0 0 0
          0 0 0 0 0 0
          0 0 0 0 0 0
          0 0 0 0 0 0
          0 0 0 0 0 0
          0 0 0 0 0 0
          0 0 0 0 0 0
          0 0 0 0 0 0
          0 0 0 0 0 0
          0 0 0 0 0 0
          0 0 0 0 0 0
          0 0 0 0 0 0
          0 0 0 0 0 0
          0 0 0 0 0 0
          0 0 0 0 0 0
          0 0 0 0 0 0
          0 0 0 0 0 0
          0 0 0 0 0 0
          0 0 0 0 0 0
          0 0 0 0 0 0
          0 0 0 0 0 0
          0 0 0 0 0 0
          0 0 0 0 0 0
          0 0 0 0 0 0
          0 0 0 0 0 0
          0 0 0 0 0 0
          0 0 0 0 0 0
          0 0 0 0 0 0
          0 0 0 0 0 0
          0 0 0 0 0 0
          0 0 0 0 0 0
          0 0 0 0 0 0
          0 0 0 0 0 0
          0 0 0 0 0 0
          0 0 0 0 0 0
          0 0 0 0 0 0
          0 0 0 0 0 0
          0 0 0 0 0 0
          0 0 0 0 0 0
          0 0 0 0 0 0
          0 0 0 0 0 0
          0 0 0 0 0 0
          0 0 0 0 0 0
          0 0 0 0 0 0
          0 0 0 0 0 0
          0 0 0 0 0 0
          0 0 0 0 0 0
          0 0 0
        </DataArray>
        <DataArray type="Float64" Name="pe11" format="ascii" RangeMin="0" RangeMax="0.0024397024261351334">
          0.00154257170985274 0.0015862252900725262 0.0015595739652823027 0.0015560804303237973 0.0015423687975018021 0.0015860235978722784
          0.0015594202981474093 0.001555832902238532 0.0015421658851508644 0.001585821905672031 0.0015592666310125158 0.0015555853741532665
          0.00149300755358468 0.0015361267878850195 0.001548497403013445 0.0015290289036311413 0.0014933186016220384 0.0015363110693984428
          0.0015481885967656413 0.0015288150170614783 0.0014936296496593968 0.0015364953509118659 0.0015478797905178377 0.0015286011304918156
          0.0015554737706613836 0.0015299458202456145 0.0015550852238281616 0.0015298205575650285 0.0015546966769949399 0.0015296952948844426
          0.001552516650215105 0.0014493759494424315 0.0015263968814902603 0.0015522941535686713 0.001449083274056768 0.0015259939251204748
          0.0015520716569222377 0.0014487905986711046 0.0015255909687506893 0.0015060655964080577 0.0015674303916922178 0.0016385200156030198
          0.0015121590525026516 0.0015067620847216128 0.0015679975596168576 0.0016391810416133859 0.0015129181293167741 0.0015074585730351679
          0.0015685647275414973 0.0016398420676237515 0.0015136772061308968 0.001552366475417956 0.001623818470624274 0.0015904241315206273
          0.001512341604907551 0.0015529259703596838 0.0016245640046219233 0.0015909991906022528 0.0015130944176604357 0.0015534854653014114
          0.0016253095386195722 0.0015915742496838785 0.00151384723041332 0.0015234546764191666 0.001620034523632539 0.0015995182849974819
          0.0015242009583559053 0.0016207921652869226 0.0015997336685703125 0.001524947240292644 0.0016215498069413064 0.0015999490521431434
          0.0014310912120793695 0.0014309795941182656 0.0014308679761571618 0.0017254716596101394 0.001795498796293031 0.0017257407699646883
          0.0017960110672232727 0.0017260098803192378 0.0017965233381535147 0.0012726878709836604 0.0013321507953700839 0.0012726754808880503
          0.001332043075992164 0.0012726630907924402 0.0013319353566142442 0.002145095304644086 0.0022798540591593445 0.0021453490125957157
          0.002280031355389572 0.002145602720547346 0.0022802086516197986 0.0016932538560394531 0.0018054089090892205 0.0016464200288432787
          0.0015469704466821274 0.0016939184436577837 0.0018062319309977337 0.001647203640846574 0.0015477293442775226 0.0016945830312761147
          0.0018070549529062472 0.0016479872528498696 0.0015484882418729177 0.0022253502727031197 0.0022257622609927414 0.002226174249282363
          0.0024397024261351334 0.0024395690930099144 0.0024394357598846957 0.0015788562488369931 0.0015789173554151992 0.0015789784619934057
          0.0014904365713621667 0.0014574827451344428 0.0014905855012004158 0.0014581779154057624 0.0014907344310386651 0.0014588730856770823
          0.002191017134232486 0.0019322653805164008 0.0019037589293475962 0.0021777401629186678 0.0021914908615569295 0.0019324392387809312
          0.0019041696533317754 0.0021782696155727642 0.0021919645888813727 0.0019326130970454614 0.001904580377315955 0.0021787990682268603
          0.001486890916428849 0.0015067978816459644 0.0014873322643977442 0.0015071186488768325 0.0014877736123666396 0.0015074394161077001
          0.002170235273885146 0.0021709645174785965 0.002171693761072047 0.0016939319024337094 0.0016946158783379866 0.0016952998542422637
          0.002125032938447193 0.0021174557263846853 0.002125887750960765 0.002118388110655271 0.0021267425634743367 0.002119320494925857
          0.0014993677880359723 0.0015159673712956607 0.0015000530250489153 0.0015165318631179135 0.0015007382620618583 0.0015170963549401661
          0.0016936418454721815 0.001749395754475245 0.0016948544403941233 0.0017503866933568375 0.0016960670353160646 0.0017513776322384293
          0.002018012416238317 0.002018730259341587 0.0020194481024448574 0.0019319395939313532 0.0019322885785683246 0.0019326375632052954
          0.0018961585397256882 0.0018966876279062554 0.0018972167160868224 0.0016730658687954317 0.0016743367360074726 0.0016756076032195138
          0.0019648157460766653 0.00196603933296406 0.0019672629198514554 0.0022707409236700634 0.0022461557046104465 0.0022741777025655887
          0.002247627773838781 0.0022776144814611143 0.002249099843067116 0.0014653184073480767 0.0014659574812614354 0.0014665965551747936
          0.0014617833386775011 0.001489923807208899 0.00146271036111628 0.0014908937667589338 0.0014636373835550589 0.0014918637263089684
          0.0016536315745871155 0.0018644458956655313 0.0016546477867335164 0.0018653335242489763 0.001655663998879917 0.0018662211528324211
          0.0015168226964455882 0.0015128413367507282 0.0015170079649080737 0.0015132572044933806 0.0015171932333705586 0.0015136730722360328
          0.0018725383041740134 0.0018737114466564136 0.001874884589138813 0.002199147787184249 0.0021989951832516387 0.002198842579319028
          0.0021505866830678812 0.0021513145917932087 0.002152042500518536 0.0018343607733379533 0.0019967615785467523 0.001834922964500362
          0.001997054105427996 0.0018354851556627706 0.00199734663230924 0.002098194900123044 0.002127872862013184 0.002099804482172273
          0.0021317901399424133 0.002101414064221501 0.0021357074178716424 0.0018491575836726139 0.0017351453007306058 0.0019009894742350133
          0.001849613930267284 0.001735929506077655 0.0019011501458230894 0.001850070276861954 0.0017367137114247043 0.001901310817411165
          0.001927362105962129 0.0019273479818222336 0.0019273338576823382 0.001563534158672613 0.0015244821932174964 0.001564967021831092
          0.0015254857119627856 0.001566399884989571 0.001526489230708075 0.0015368509121520115 0.0015680992572231543 0.0015372158716494369
          0.0015680973644653714 0.0015375808311468631 0.0015680954717075888 0.0017543650096362958 0.0017551598384625518 0.001755954667288808
          0.00204113747059598 0.002040932290546889 0.002040727110497799 0.0014513779549839574 0.0014524868446528505 0.0014535957343217434
          0.0015262644100684352 0.0015714533641692607 0.0015267775588151664 0.0015718349200561693 0.0015272907075618977 0.0015722164759430777
          0.001642750372647894 0.0016436563507076837 0.0016445623287674733 0.0015070869936047054 0.001507801768481606 0.0015085165433585063
          0.001477538343491248 0.001478391967020837 0.0014792455905504255 0.0015184528861043717 0.0015192265876954017 0.0015200002892864317
          0.0015654986459766333 0.0015654840890411124 0.0015654695321055915 0.0016079761093142023 0.0016075919200354352 0.001607207730756668
          0.0010049963408121764 0.0010049475686638655 0.0010048987965155546 0.0012401474954204799 0.0012400710092168215 0.0012399945230131626
          0.0014282287194517197 0.0014281515166206602 0.0014280743137896007 0.0015605687639588797 0.001560517215080662 0.001560465666202444
          0.0016124761631927105 0.0016124505542380225 0.0016124249452833348 0 0 0
          0 0 0 0 0 0
          0 0 0 0 0 0
          0 0 0 0 0 0
          0 0 0 0 0 0
          0 0 0 0 0 0
          0 0 0 0 0 0
          0 0 0 0 0 0
          0 0 0 0 0 0
          0 0 0 0 0 0
          0 0 0 0 0 0
          0 0 0 0 0 0
          0 0 0 0 0 0
          0 0 0 0 0 0
          0 0 0 0 0 0
          0 0 0 0 0 0
          0 0 0 0 0 0
          0 0 0 0 0 0
          0 0 0 0 0 0
          0 0 0 0 0 0
          0 0 0 0.00001525791711388752 0.000015287206957291725 0.000015316496800695932
          0 0 0 0 0 0
          0 0 0 0 0 0
          0 0 0 0 0 0
          0 0 0 0.00031798157803911663 0.000318016588840052 0.00031805159964098733
          0.00010435735422417284 0.00010444615625488403 0.00010453495828559524 0.000014686758842221905 0.000014737255434283986 0.000014787752026346067
          0 0 0 0 0 0
          0 0 0 0 0 0
          0 0 0 0 0 0
          0.0006435108638000945 0.0006433580907782307 0.0006432053177563667 0.0003214528112524942 0.00032147346390938797 0.0003214941165662819
          0.00008804451063786709 0.00008816346957457191 0.00008828242851127672 0.000003868997929219764 0.000003909287245684205 0.0000039495765621486455
          0 0 0 0 0 0
          0 0 0 0 0 0
          0 0 0 0.0010485345633563367 0.0010481116602695122 0.0010476887571826878
          0.0006596704940360061 0.0006594824350434248 0.0006592943760508434 0.00026888609332664505 0.00026902873984342544 0.00026917138636020583
          0.00004651490046940208 0.000046642692791975424 0.000046770485114548766 0 0 0
          0 0 0 0 0 0
          0 0 0 0 0 0
          0.0012690540863215492 0.001268492330265001 0.001267930574208453 0.0008546342397875947 0.0008543358408632582 0.0008540374419389216
          0.00039105668306199973 0.00039120505140627506 0.0003913534197505503 0.00008529180508036463 0.00008546681109258245 0.00008564181710480025
          0 0 0 0 0 0
          0 0 0 0 0 0
          0 0 0 0 0 0
          0 0 0 0 0 0
          0 0 0 0 0 0
          0 0 0 0 0 0
          0 0 0 0 0 0
          0 0 0 0 0 0
          0 0 0 0 0 0
          0 0 0 0 0 0
          0 0 0 0 0 0
          0 0 0 0 0 0
          0 0 0 0 0 0
          0 0 0 0 0 0
          0 0 0 0 0 0
          0 0 0 0 0 0
          0 0 0 0 0 0
          0 0 0 0 0 0
          0 0 0 0 0 0
          0 0 0 0 0 0
          0 0 0 0 0 0
          0 0 0 0 0 0
          0 0 0 0 0 0
          0 0 0 0 0 0
          0 0 0 0 0 0
          0 0 0 0 0 0
          0 0 0 0 0 0
          0 0 0 0 0 0
          0 0 0 0 0 0
          0 0 0 0 0 0
          0 0 0 0 0 0
          0 0 0 0 0 0
          0 0 0 0 0 0
          0 0 0 0 0 0
          0 0 0 0 0 0
          0 0 0 0 0 0
          0 0 0 0 0 0
          0 0 0 0 0 0
          0 0 0 0 0 0
          0 0 0 0 0 0
          0 0 0 0 0 0
          0 0 0 0 0 0
          0 0 0 0 0 0
          0 0 0 0 0 0
          0 0 0 0 0 0
          0 0 0 0 0 0
          0 0 0 0 0 0
          0 0 0
        </DataArray>
        <DataArray type="Float64" Name="pe22" format="ascii" RangeMin="-0.0012279320623929733" RangeMax="0">
          -0.0007660907417912728 -0.0007918995739718947 -0.0007792026722203363 -0.0007746194431307291 -0.0007661341618522206 -0.000791885208963466
          -0.0007791869687819569 -0.0007745851380916086 -0.0007661775819131682 -0.0007918708439550368 -0.0007791712653435773 -0.0007745508330524881
          -0.0007461085447426852 -0.0007640387726123588 -0.0007663642169317643 -0.0007595806848537667 -0.000746066741497364 -0.000764052396146737
          -0.000766322366055319 -0.0007595185247135188 -0.000746024938252043 -0.0007640660196811153 -0.0007662805151788738 -0.0007594563645732709
          -0.0007710731888612015 -0.0007615946918205752 -0.000771018988383266 -0.0007615139191489186 -0.0007709647879053306 -0.0007614331464772619
          -0.0007662821654550135 -0.0007152323589614433 -0.0007544673326447608 -0.0007662697445791028 -0.000715229028191028 -0.0007544367596923017
          -0.0007662573237031921 -0.0007152256974206128 -0.0007544061867398429 -0.0007551360464383217 -0.0007879977303615328 -0.0008203259592824731
          -0.000757227923007333 -0.0007550765143170865 -0.0007878840215424674 -0.0008202454847079522 -0.000757192533900306 -0.000755016982195851
          -0.0007877703127234023 -0.0008201650101334317 -0.0007571571447932791 -0.0007777086696800515 -0.0008122745389222512 -0.000797851955028284
          -0.0007584157714390744 -0.0007776197814250237 -0.0008122401760877838 -0.0007977370285045789 -0.0007583483817397041 -0.0007775308931699959
          -0.0008122058132533162 -0.0007976221019808738 -0.0007582809920403337 -0.000760075181154175 -0.000803839189959023 -0.00079190574651445
          -0.0007600515109677003 -0.0008038103228395928 -0.0007919157993403938 -0.0007600278407812258 -0.0008037814557201625 -0.0007919258521663377
          -0.0007080755399993131 -0.0007081580870031579 -0.0007082406340070025 -0.0008502818599615616 -0.0008870381772325237 -0.0008503133482831843
          -0.0008869735213732986 -0.0008503448366048069 -0.0008869088655140736 -0.0006274864002791952 -0.000656460517784338 -0.0006275853717964577
          -0.0006565060303410131 -0.0006276843433137202 -0.0006565515428976882 -0.0010755672307314608 -0.001145656799462943 -0.0010757255164337573
          -0.001145873402332949 -0.001075883802136054 -0.0011460900052029548 -0.0008467168004557696 -0.0009039376415380632 -0.0008267781468193975
          -0.0007744461996088223 -0.0008466692691718466 -0.0009039230997992875 -0.0008267099955366062 -0.0007744069939892876 -0.0008466217378879238
          -0.000903908558060512 -0.0008266418442538151 -0.0007743677883697531 -0.001116036452034779 -0.0011157342629536046 -0.0011154320738724298
          -0.0012275537399561087 -0.0012277429011745408 -0.0012279320623929733 -0.0007764212725228911 -0.0007764986994172301 -0.0007765761263115689
          -0.0007437195897583573 -0.0007299757947192562 -0.0007436122684870775 -0.000729927999514981 -0.0007435049472157976 -0.0007298802043107057
          -0.0011030924112251919 -0.0009662310419736096 -0.0009546380439656164 -0.001096979841142066 -0.0011029065936307698 -0.0009659214425290861
          -0.0009544222935926595 -0.0010968586663476824 -0.0011027207760363473 -0.0009656118430845626 -0.000954206543219703 -0.0010967374915532987
          -0.000742011471363664 -0.000751746745775834 -0.0007419603786565156 -0.0007517273759091079 -0.0007419092859493671 -0.0007517080060423818
          -0.0010879860385035155 -0.0010881175349499036 -0.0010882490313962915 -0.0008471839875789515 -0.000847058350908409 -0.0008469327142378664
          -0.0010643151236872516 -0.0010589137393928888 -0.0010641498978609396 -0.0010588340851413762 -0.0010639846720346276 -0.0010587544308898638
          -0.000751292857462801 -0.0007594083721399492 -0.0007511718039009751 -0.0007592905115901811 -0.0007510507503391493 -0.000759172651040413
          -0.000849198917454362 -0.0008739126216675196 -0.0008491103560089662 -0.000873760291431747 -0.0008490217945635705 -0.0008736079611959745
          -0.0010102990501714045 -0.0010103750126706768 -0.001010450975169949 -0.0009612110501625488 -0.0009609234093521429 -0.0009606357685417371
          -0.0009482980219100019 -0.0009482169231511833 -0.0009481358243923646 -0.0008334563406528083 -0.0008334298042730185 -0.0008334032678932289
          -0.0009839055239015686 -0.0009839891602419272 -0.0009840727965822855 -0.00113634219850568 -0.0011235051640126536 -0.001137406834250825
          -0.001124143840302122 -0.00113847146999597 -0.0011247825165915906 -0.0007322034088300408 -0.0007321320212011144 -0.0007320606335721877
          -0.0007311687042487096 -0.0007468762925187143 -0.0007311623046839799 -0.0007468907901944349 -0.0007311559051192502 -0.0007469052878701552
          -0.00083144385435166 -0.0009379950960781475 -0.0008313589385831584 -0.0009378371852341135 -0.0008312740228146572 -0.0009376792743900797
          -0.0007581863993415344 -0.0007572878535736175 -0.0007580940910144227 -0.0007572057855832447 -0.0007580017826873111 -0.0007571237175928718
          -0.0009415666383419497 -0.000941522792215295 -0.0009414789460886404 -0.0011000062550479872 -0.001100273388659095 -0.0011005405222702029
          -0.0010805509881102679 -0.0010803803783829887 -0.0010802097686557096 -0.000918415017438564 -0.0010016382956296987 -0.0009182075237110125
          -0.0010014447796956566 -0.0009180000299834611 -0.0010012512637616144 -0.0010501518138126794 -0.001065384076077857 -0.0010502208676710662
          -0.001065713816887068 -0.0010502899215294528 -0.001066043557696279 -0.0009253932504505336 -0.0008670454856411458 -0.0009502083453597111
          -0.0009251688824035782 -0.0008671186226271832 -0.0009497959697298889 -0.0009249445143566229 -0.0008671917596132204 -0.0009493835941000667
          -0.0009629667658424546 -0.0009622977124033298 -0.000961628658964205 -0.0007827407488739686 -0.0007650061892344559 -0.0007827514911193194
          -0.0007649636070626843 -0.0007827622333646706 -0.0007649210248909127 -0.0007694014854446275 -0.0007849322338439346 -0.000769488488979721
          -0.0007849587026716821 -0.0007695754925148143 -0.0007849851714994298 -0.000876284093202778 -0.0008765167588449989 -0.0008767494244872197
          -0.001022469911923571 -0.0010223004707616283 -0.0010221310295996857 -0.0007285401910737975 -0.0007285831990881036 -0.0007286262071024098
          -0.0007632514594342444 -0.0007850725972616783 -0.0007632280410151408 -0.0007850450578528001 -0.0007632046225960373 -0.000785017518443922
          -0.0008207685648929723 -0.0008208150454633545 -0.0008208615260337366 -0.0007542739620202694 -0.0007542878736450428 -0.0007543017852698162
          -0.0007408226317233604 -0.0007408080712967311 -0.0007407935108701019 -0.0007596409223446831 -0.000759854273339983 -0.000760067624335283
          -0.0007834151496371903 -0.0007834421951581655 -0.0007834692406791409 -0.0008039177628746009 -0.0008037850532807505 -0.0008036523436869003
          -0.00048704947446523417 -0.000487090172334934 -0.00048713087020463384 -0.0006072460234646186 -0.0006073015980067528 -0.0006073571725488868
          -0.0007055737012371134 -0.0007056375835019635 -0.0007057014657668136 -0.0007758113913090866 -0.0007758465948768464 -0.0007758817984446061
          -0.0008035352771288964 -0.000803548137416676 -0.0008035609977044557 0 0 0
          0 0 0 0 0 0
          0 0 0 0 0 0
          0 0 0 0 0 0
          0 0 0 0 0 0
          0 0 0 0 0 0
          0 0 0 0 0 0
          0 0 0 0 0 0
          0 0 0 0 0 0
          0 0 0 0 0 0
          0 0 0 0 0 0
          0 0 0 0 0 0
          0 0 0 0 0 0
          0 0 0 0 0 0
          0 0 0 0 0 0
          0 0 0 0 0 0
          0 0 0 0 0 0
          0 0 0 0 0 0
          0 0 0 0 0 0
          0 0 0 0 0 0
          0 0 0 -0.000006102004129041102 -0.000006110141941308724 -0.000006118279753576346
          0 0 0 0 0 0
          0 0 0 0 0 0
          0 0 0 0 0 0
          0 0 0 -0.00013655540545476466 -0.00013655316124421094 -0.00013655091703365722
          -0.00004308580142498793 -0.00004310875625765663 -0.00004313171109032533 -0.000005984449110744807 -0.000006002444150600438 -0.000006020439190456068
          0 0 0 0 0 0
          0 0 0 0 0 0
          0 0 0 0 0 0
          -0.0002881041463000817 -0.0002880338897972026 -0.0002879636332943234 -0.0001391816123455673 -0.00013916581839079436 -0.0001391500244360214
          -0.00003750035948176726 -0.000037536623832030346 -0.00003757288818229343 -0.0000016393512616669665 -0.000001655620761166545 -0.0000016718902606661237
          0 0 0 0 0 0
          0 0 0 0 0 0
          0 0 0 -0.0004886461253568224 -0.0004884280483495108 -0.000488209971342199
          -0.0002991447883926986 -0.0002990139279034174 -0.00029888306741413624 -0.00011930850360524784 -0.00011932976503627312 -0.00011935102646729842
          -0.000020247736900246675 -0.00002029227326709869 -0.000020336809633950703 0 0 0
          0 0 0 0 0 0
          0 0 0 0 0 0
          -0.000599897114313393 -0.0005995871367621322 -0.0005992771592108715 -0.00039389394668615626 -0.00039369344765794194 -0.00039349294862972757
          -0.00017558518646845075 -0.00017559117070968644 -0.00017559715495092215 -0.00003721677127715942 -0.000037273305011864283 -0.000037329838746569155
          0 0 0 0 0 0
          0 0 0 0 0 0
          0 0 0 0 0 0
          0 0 0 0 0 0
          0 0 0 0 0 0
          0 0 0 0 0 0
          0 0 0 0 0 0
          0 0 0 0 0 0
          0 0 0 0 0 0
          0 0 0 0 0 0
          0 0 0 0 0 0
          0 0 0 0 0 0
          0 0 0 0 0 0
          0 0 0 0 0 0
          0 0 0 0 0 0
          0 0 0 0 0 0
          0 0 0 0 0 0
          0 0 0 0 0 0
          0 0 0 0 0 0
          0 0 0 0 0 0
          0 0 0 0 0 0
          0 0 0 0 0 0
          0 0 0 0 0 0
          0 0 0 0 0 0
          0 0 0 0 0 0
          0 0 0 0 0 0
          0 0 0 0 0 0
          0 0 0 0 0 0
          0 0 0 0 0 0
          0 0 0 0 0 0
          0 0 0 0 0 0
          0 0 0 0 0 0
          0 0 0 0 0 0
          0 0 0 0 0 0
          0 0 0 0 0 0
          0 0 0 0 0 0
          0 0 0 0 0 0
          0 0 0 0 0 0
          0 0 0 0 0 0
          0 0 0 0 0 0
          0 0 0 0 0 0
          0 0 0 0 0 0
          0 0 0 0 0 0
          0 0 0 0 0 0
          0 0 0 0 0 0
          0 0 0 0 0 0
          0 0 0 0 0 0
          0 0 0
        </DataArray>
        <DataArray type="Float64" Name="pe33" format="ascii" RangeMin="-0.0012121486861790248" RangeMax="0">
          -0.0007764809680614668 -0.0007943257161006307 -0.0007803712930619662 -0.0007814609871930681 -0.0007762346356495815 -0.0007941383889088124
          -0.0007802333293654524 -0.0007812477641469229 -0.0007759883032376962 -0.0007939510617169937 -0.0007800953656689387 -0.0007810345411007777
          -0.0007468990088419947 -0.0007720880152726603 -0.0007821331860816805 -0.0007694482187773743 -0.0007472518601246743 -0.0007722586732517054
          -0.0007818662307103219 -0.0007692964923479595 -0.0007476047114073537 -0.0007724293312307506 -0.0007815992753389636 -0.0007691447659185444
          -0.000784400581800182 -0.0007683511284250391 -0.0007840662354448956 -0.0007683066384161099 -0.000783731889089609 -0.0007682621484071807
          -0.0007862344847600914 -0.0007341435904809884 -0.0007719295488454995 -0.0007860244089895684 -0.00073385424586574 -0.0007715571654281729
          -0.0007858143332190456 -0.0007335649012504918 -0.0007711847820108461 -0.0007509295499697359 -0.000779432661330685 -0.0008181940563205469
          -0.0007549311294953185 -0.0007516855704045262 -0.00078011353807439 -0.0008189355569054334 -0.0007557255954164678 -0.0007524415908393166
          -0.0007807944148180949 -0.0008196770574903199 -0.0007565200613376172 -0.0007746578057379043 -0.0008115439317020226 -0.0007925721764923432
          -0.0007539258334684768 -0.0007753061889346598 -0.0008123238285341393 -0.000793262162097674 -0.0007547460359207314 -0.0007759545721314153
          -0.000813103725366256 -0.0007939521477030049 -0.000755566238372986 -0.0007633794952649916 -0.0008161953336735159 -0.0008076125384830316
          -0.0007641494473882049 -0.00081698184244733 -0.0008078178692299186 -0.0007649193995114182 -0.0008177683512211439 -0.0008080231999768057
          -0.0007230156720800561 -0.0007228215071151077 -0.0007226273421501591 -0.0008751897996485775 -0.000908460619060507 -0.0008754274216815042
          -0.000909037545849974 -0.0008756650437144308 -0.0009096144726394408 -0.0006452014707044651 -0.0006756902775857459 -0.0006450901090915925
          -0.0006755370456511509 -0.0006449787474787199 -0.0006753838137165558 -0.0010695280739126249 -0.0011341972596964013 -0.0010696234961619585
          -0.0011341579530566228 -0.001069718918411292 -0.0011341186464168445 -0.0008465370555836833 -0.000901471267551157 -0.0008196418820238811
          -0.0007725242470733049 -0.0008472491744859371 -0.000902308831198446 -0.0008204936453099675 -0.0007733223502882346 -0.0008479612933881911
          -0.0009031463948457351 -0.0008213454085960543 -0.0007741204535031644 -0.0011093138206683404 -0.001110027998039137 -0.0011107421754099334
          -0.0012121486861790248 -0.0012118261918353734 -0.001211503697491722 -0.0008024349763141017 -0.000802418655997969 -0.0008024023356818365
          -0.0007467169816038092 -0.0007275069504151865 -0.0007469732327133384 -0.0007282499158907814 -0.0007472294838228675 -0.0007289928813663764
          -0.0010879247230072945 -0.0009660343385427912 -0.0009491208853819801 -0.001080760321776602 -0.00108858426792616 -0.000966517796251845
          -0.000949747359739116 -0.0010814109492250819 -0.0010892438128450254 -0.0009670012539608993 -0.0009503738340962519 -0.001082061576673562
          -0.000744879445065185 -0.0007550511358701303 -0.0007453718857412285 -0.0007553912729677242 -0.0007458643264172721 -0.000755731410065318
          -0.00108224923538163 -0.0010828469825286927 -0.0010834447296757554 -0.0008467479148547577 -0.0008475575274295776 -0.0008483671400043974
          -0.0010607178147599408 -0.001058541986991796 -0.0010617378530998248 -0.0010595540255138947 -0.0010627578914397086 -0.0010605660640359933
          -0.0007480749305731712 -0.0007565589991557115 -0.00074888122114794 -0.0007572413515277321 -0.0007496875117227086 -0.0007579237038997527
          -0.0008444429280178194 -0.0008754831328077251 -0.0008457440843851569 -0.0008766264019250901 -0.000847045240752494 -0.000877769671042455
          -0.0010077133660669122 -0.00100835524667091 -0.0010089971272749078 -0.0009707285437688045 -0.0009713651692161814 -0.0009720017946635587
          -0.0009478605178156862 -0.0009484707047550722 -0.000949080891694458 -0.000839609528142623 -0.000840906931734454 -0.000842204335326285
          -0.0009809102221750962 -0.000982050172722133 -0.00098319012326917 -0.0011343987251643834 -0.0011226505405977927 -0.001136770868314764
          -0.0011234839335366592 -0.0011391430114651444 -0.0011243173264755255 -0.0007331149985180357 -0.0007338254600603206 -0.0007345359216026056
          -0.0007306146344287915 -0.0007430475146901847 -0.0007315480564323 -0.0007440029765644989 -0.0007324814784358084 -0.000744958438438813
          -0.0008221877202354555 -0.0009264507995873843 -0.0008232888481503576 -0.0009274963390148626 -0.0008243899760652597 -0.000928541878442341
          -0.0007586362971040537 -0.0007555534831771107 -0.0007589138738936506 -0.0007560514189101358 -0.0007591914506832474 -0.000756549354643161
          -0.0009309716658320635 -0.0009321886544411181 -0.0009334056430501726 -0.0010991415321362618 -0.0010987217945925434 -0.001098302057048825
          -0.0010700356949576127 -0.0010709342134102196 -0.0010718327318628264 -0.0009159457558993889 -0.0009951232829170532 -0.0009167154407893493
          -0.0009956093257323393 -0.0009174851256793094 -0.0009960953685476254 -0.001048043086310364 -0.0010624887859353267 -0.0010495836145012064
          -0.001066076323055345 -0.0010511241426920486 -0.0010696638601753634 -0.00092376433322208 -0.0008680998150894598 -0.0009507811288753019
          -0.0009244450478637056 -0.0008688108834504718 -0.0009513541760932 -0.0009251257625053312 -0.0008695219518114838 -0.0009519272233110982
          -0.0009643953401196742 -0.0009650502694189035 -0.0009657051987181328 -0.0007807934097986446 -0.0007594760039830403 -0.0007822155307117724
          -0.0007605221049001013 -0.0007836376516249004 -0.0007615682058171622 -0.0007674494267073835 -0.0007831670233792195 -0.0007677273826697162
          -0.000783138661793689 -0.0007680053386320487 -0.0007831103002081588 -0.0008780809164335174 -0.0008786430796175526 -0.0008792052428015878
          -0.0010186675586724087 -0.0010186318197852608 -0.001018596080898113 -0.00072283776391016 -0.0007239036455647468 -0.0007249695272193335
          -0.0007630129506341907 -0.0007863807669075825 -0.0007635495178000253 -0.0007867898622033689 -0.00076408608496586 -0.0007871989574991554
          -0.0008219818077549213 -0.0008228413052443289 -0.0008237008027337366 -0.000752813031584436 -0.0007535138948365628 -0.0007542147580886897
          -0.0007367157117678878 -0.0007375838957241058 -0.0007384520796803238 -0.0007588119637596883 -0.0007593723143554183 -0.0007599326649511485
          -0.0007820834963394427 -0.0007820418938829465 -0.0007820002914264504 -0.0008040583464396013 -0.0008038068667546845 -0.0008035553870697678
          -0.0005179468663469424 -0.0005178573963289315 -0.0005177679263109207 -0.0006329014719558614 -0.0006327694112100686 -0.0006326373504642758
          -0.0007226550182146063 -0.0007225139331186967 -0.0007223728480227872 -0.0007847573726497928 -0.0007846706202038155 -0.000784583867757838
          -0.0008089408860638138 -0.0008089024168213466 -0.0008088639475788792 0 0 0
          0 0 0 0 0 0
          0 0 0 0 0 0
          0 0 0 0 0 0
          0 0 0 0 0 0
          0 0 0 0 0 0
          0 0 0 0 0 0
          0 0 0 0 0 0
          0 0 0 0 0 0
          0 0 0 0 0 0
          0 0 0 0 0 0
          0 0 0 0 0 0
          0 0 0 0 0 0
          0 0 0 0 0 0
          0 0 0 0 0 0
          0 0 0 0 0 0
          0 0 0 0 0 0
          0 0 0 0 0 0
          0 0 0 0 0 0
          0 0 0 0 0 0
          0 0 0 -0.00000915591298484642 -0.000009177065015983003 -0.000009198217047119587
          0 0 0 0 0 0
          0 0 0 0 0 0
          0 0 0 0 0 0
          0 0 0 -0.000181426172584352 -0.00018146342759584104 -0.00018150068260733006
          -0.0000612715527991849 -0.0000613373999972274 -0.00006140324719526989 -0.000008702309731477098 -0.000008734811283683545 -0.000008767312835889993
          0 0 0 0 0 0
          0 0 0 0 0 0
          0 0 0 0 0 0
          -0.0003554067175000127 -0.000355324200981028 -0.0003552416844620433 -0.00018227119890692686 -0.00018230764551859364 -0.00018234409213026048
          -0.000050544151156099806 -0.000050626845742541544 -0.00005070954032898329 -0.000002229646667552797 -0.000002253666484517659 -0.0000022776863014825216
          0 0 0 0 0 0
          0 0 0 0 0 0
          0 0 0 -0.0005598884379995141 -0.0005596836119200015 -0.0005594787858404888
          -0.00036052570564330756 -0.00036046850714000725 -0.00036041130863670705 -0.00014957758972139722 -0.00014969897480715226 -0.0001498203598929073
          -0.000026267163569155393 -0.00002635041952487673 -0.000026433675480598067 0 0 0
          0 0 0 0 0 0
          0 0 0 0 0 0
          -0.000669156972008156 -0.0006689051935028688 -0.0006686534149975816 -0.0004607402931014385 -0.0004606423932053161 -0.00046054449330919375
          -0.000215471496593549 -0.00021561388069658854 -0.00021575626479962802 -0.00004807503380320519 -0.00004819350608071814 -0.00004831197835823109
          0 0 0 0 0 0
          0 0 0 0 0 0
          0 0 0 0 0 0
          0 0 0 0 0 0
          0 0 0 0 0 0
          0 0 0 0 0 0
          0 0 0 0 0 0
          0 0 0 0 0 0
          0 0 0 0 0 0
          0 0 0 0 0 0
          0 0 0 0 0 0
          0 0 0 0 0 0
          0 0 0 0 0 0
          0 0 0 0 0 0
          0 0 0 0 0 0
          0 0 0 0 0 0
          0 0 0 0 0 0
          0 0 0 0 0 0
          0 0 0 0 0 0
          0 0 0 0 0 0
          0 0 0 0 0 0
          0 0 0 0 0 0
          0 0 0 0 0 0
          0 0 0 0 0 0
          0 0 0 0 0 0
          0 0 0 0 0 0
          0 0 0 0 0 0
          0 0 0 0 0 0
          0 0 0 0 0 0
          0 0 0 0 0 0
          0 0 0 0 0 0
          0 0 0 0 0 0
          0 0 0 0 0 0
          0 0 0 0 0 0
          0 0 0 0 0 0
          0 0 0 0 0 0
          0 0 0 0 0 0
          0 0 0 0 0 0
          0 0 0 0 0 0
          0 0 0 0 0 0
          0 0 0 0 0 0
          0 0 0 0 0 0
          0 0 0 0 0 0
          0 0 0 0 0 0
          0 0 0 0 0 0
          0 0 0 0 0 0
          0 0 0 0 0 0
          0 0 0
        </DataArray>
        <DataArray type="Float64" Name="disp_x" format="ascii" RangeMin="0.0000671414458647278" RangeMax="0.00013">
          0.00008773325142389105 0.0000859717446693135 0.00008290416100669962 0.00008315637471913092 0.00008773290952012021 0.00008597178551173043
          0.00008290431203218533 0.00008315662223614472 0.0000877319348473628 0.00008597196980883244 0.00008290476798680389 0.00008315742476705751
          0.0000805126226428409 0.00008141447495714278 0.00008395724217056391 0.00008250397679284681 0.00008051308950483187 0.00008141469848133194
          0.00008395741193944554 0.00008250439459141951 0.0000805145454628548 0.00008141536221101753 0.00008395804910297812 0.00008250581158369035
          0.00008471875864694949 0.00008218734032174403 0.00008471888347251412 0.00008218792850093225 0.00008471906196507455 0.00008218959481367951
          0.00008505924296806406 0.00008816362297100973 0.00008665736580952858 0.00008505910084757184 0.00008816265633781167 0.00008665691576358427
          0.00008505881424379278 0.00008815974625323584 0.00008665536088410383 0.00007759837229074688 0.0000761095701872397 0.00007456164735467275
          0.000076735552476473 0.00007759798232274751 0.0000761088102186993 0.00007456056698612946 0.00007673498093490088 0.00007759688731562453
          0.00007610636050455219 0.00007455768458927288 0.00007673337246324563 0.00007732776548063938 0.00007567551460425246 0.00007596253971675847
          0.00007810445940013859 0.00007732715258798752 0.00007567443899904489 0.00007596170974117733 0.00007810415024126521 0.00007732531476928732
          0.00007567178453324986 0.00007595889663440085 0.00007810300651257347 0.0000791077208205392 0.0000792324960680652 0.00008200019868440263
          0.00007910774463677164 0.00007923212902163039 0.00008200007600600185 0.00007910782645165596 0.00007923135998560292 0.00008199935372412463
          0.00008944837719402015 0.00008944775054283268 0.00008944578733466451 0.00008203338295983866 0.00007900857955009807 0.00008203255542097034
          0.00007900757656736355 0.00008202980445002035 0.00007900449520832914 0.00009103187766353088 0.00008957441577441665 0.0000910309896049205
          0.00008957314761773159 0.00009102821820050242 0.0000895692349176326 0.00006947568242492727 0.00006826172050322031 0.00006947366471923955
          0.00006825918844166251 0.00006946715388735696 0.00006825192135670563 0.00007352390986123359 0.00007229171015099637 0.00007441631442956772
          0.00007566009460759321 0.0000735225030428904 0.00007229005121296602 0.00007441503900300753 0.0000756591554456639 0.00007351810323456446
          0.00007228515674351632 0.0000744113794406958 0.00007565618117259064 0.00007301092912614835 0.00007300925788374864 0.00007300414318584532
          0.00006715296175548482 0.00006715015545322094 0.0000671414458647278 0.00008597686610672909 0.00008597591859046466 0.000085973178924232
          0.00008072606985749091 0.0000793297269887873 0.00008072666175340256 0.00007933011799324258 0.00008072818718392296 0.00007933155906653772
          0.00007233452323505545 0.0000742784892632577 0.00007347768673887287 0.00007151238973950334 0.00007233258364958199 0.00007427636568967283
          0.00007347521832944918 0.00007150999927950303 0.00007232706903658297 0.00007427048535845955 0.00007346757085731722 0.00007150293453421531
          0.00007976366205534406 0.00008043127165091639 0.0000797640389781503 0.00008043183868537174 0.00007976497322260578 0.00008043352318678867
          0.00006924695600362036 0.00006924413739117254 0.00006923546909972036 0.00007413977701607089 0.00007413859027367453 0.00007413528736194543
          0.00007024174774331913 0.0000698644244948866 0.00007023880399593907 0.00006986162556948414 0.00007022962943384034 0.00006985212092866401
          0.00007923184535665047 0.00007881366256052942 0.00007923207725100665 0.0000788134954351731 0.00007923271262119707 0.00007881275472801682
          0.00007524063077267444 0.00007548485660531352 0.00007523865227246483 0.00007548269167395866 0.000075232629019631 0.00007547430664533756
          0.00007036309324322909 0.00007036097386095988 0.00007035462815282309 0.00007591696320457248 0.00007591521979152934 0.00007590968086230616
          0.0000714726004654896 0.00007147069008944448 0.0000714647726062659 0.0000769708566293339 0.00007696945582569724 0.00007696497783837415
          0.00007091630114081187 0.00007091402496734489 0.00007090740791101504 0.00006879734566870428 0.00006884648089206499 0.00006878297902018521
          0.00006884595796881163 0.00006878159715963777 0.00006884168439994996 0.00007878338214437602 0.00007878367175791701 0.00007878431232362487
          0.00007769204687271577 0.00007694713686143075 0.00007769189757226247 0.00007694633434577964 0.00007769129294339803 0.00007694359574469029
          0.0000748551752986062 0.00007286490872505324 0.00007485391480818543 0.00007286270285775531 0.0000748503296844072 0.00007285586353673153
          0.000080641878123363 0.00008036247688895412 0.00008064247596279037 0.0000803625474609643 0.00008064403932135753 0.00008036279693927091
          0.00007208591547770567 0.00007208388585532855 0.00007207769404457703 0.00006899681905491214 0.0000689947786910689 0.0000689898638087314
          0.0000708120731872717 0.0000708093512688447 0.00007080087334736151 0.00007221426890971197 0.00007082766547359739 0.00007221267314965652
          0.00007082574593588732 0.00007220742182514835 0.00007081943991569662 0.00007059781781198202 0.00007060635491299199 0.00007059504024215853
          0.00007061652923578638 0.00007058989806419424 0.00007061108004881192 0.00007240626425343829 0.00007402428786315448 0.0000723331884736619
          0.00007240454600810499 0.00007402297307465608 0.0000723312041550472 0.00007239903335672395 0.00007401850484276642 0.00007232478883047897
          0.00007233027559338986 0.00007232801108663419 0.00007232127529669157 0.0000770659855129094 0.00007687086260790623 0.0000770653549406812
          0.00007687012541650314 0.0000770633769849742 0.00007686751542703172 0.00008199400270639514 0.00008285578675004191 0.00008199437440873672
          0.00008285626017760852 0.00008199502563445809 0.00008285776983669444 0.00007393223934206679 0.00007393017721399739 0.00007392542572083626
          0.00007072219381284203 0.00007072070052077427 0.0000707149219768216 0.00007834175999126408 0.00007834179569041812 0.00007834155332494157
          0.00007842203012695273 0.00007696101729976958 0.00007842156438528476 0.00007696032269119001 0.00007841990432010912 0.00007695820650272027
          0.00007546848933950468 0.00007546818763607823 0.00007546585525405686 0.00007985880598811213 0.00007985867947867277 0.00007985773876898895
          0.00007871298334354842 0.00007871303922889746 0.00007871279495272804 0.0000812831960298395 0.00008128388775483897 0.00008128538735800768
          0.00008272438255060024 0.00008272540639413806 0.0000827286988609293 0.00008421536527136827 0.00008421563691358773 0.00008421611075654293
          0.00009514521855547152 0.00009514438491909987 0.00009514190538244615 0.00009389461285309642 0.00009389400750902814 0.00009389216284497362
          0.00009241587519593157 0.00009241549936555385 0.0000924143062642827 0.00009078300067341231 0.00009078290311673209 0.00009078254048106329
          0.00008908867168393379 0.0000890887762236428 0.00008908900523977614 0.00010523714954516412 0.00010518574885630043 0.00010523709845943819
          0.00010518569986436414 0.00010523694601838283 0.00010518556315206628 0.00010710791654661728 0.00010704037481394627 0.00010710783930415393
          0.00010704030059809677 0.00010710760757891305 0.00010704007542414995 0.00010897460645719158 0.0001088943549433635 0.0001089745181522411
          0.00010889427062144252 0.00010897425199696148 0.00010889401181751797 0.00011084177606572143 0.00011075307944076126 0.00011084168092930793
          0.00011075298740997006 0.00011084139307136938 0.00011075270802114341 0.00011271052794178892 0.00011261882291197286 0.0001127104317387326
          0.00011261872963895997 0.00011271014125515025 0.00011261844688707796 0.00011457943984544854 0.00011449139428604763 0.00011457934660588221
          0.00011449130437856783 0.00011457906473284509 0.00011449103134559726 0.00011644539935670721 0.00011636888168007695 0.00011644531461499865
          0.00011636879899365866 0.00011644505805828458 0.00011636854794627781 0.00011830452807906771 0.0001182484933254094 0.00011830445184427594
          0.00011824841918133021 0.00011830422068745325 0.00011824819241635777 0.00010534441756906524 0.00010534436474449525 0.0001053442144798646
          0.00010724332584426219 0.00010724323711275337 0.00010724296565248118 0.0001091340247831645 0.00010913392810798864 0.00010913363662218756
          0.00011102015261135265 0.00011102004892859889 0.00011101973416774608 0.00011290133187589825 0.00011290122915119998 0.00011290091752059076
          0.00011477454331331895 0.00011477444361836826 0.00011477414094841078 0.00011663501226825881 0.00011663492437224248 0.00011663465776220128
          0.0001184772011438079 0.00011847712214076983 0.00011847688129723711 0.00010551894788670956 0.00010551882776953413 0.0001055184728084493
          0.000107458681370773 0.000107458594521885 0.0001074583346936389 0.0001093855595305352 0.00010938544164710697 0.00010938508242608271
          0.00011130163620149667 0.00011130151968140897 0.00011130116811933143 0.00011320464136310102 0.00011320452564737461 0.00011320417613065021
          0.00011508963326421996 0.00011508952211134394 0.00011508918475193204 0.00011694999988786767 0.0001169499058684625 0.00011694962154048
          0.00011877838825156327 0.00011877830340303363 0.00011877804609928866 0.00010577938846318831 0.0001057793356128929 0.0001057791605065646
          0.00010777509874582703 0.00010777494258601643 0.00010777446838388287 0.0001097515013992156 0.00010975137551189994 0.00010975100005932882
          0.00011170911782280458 0.00011170897681786722 0.00011170854691122148 0.00011364276695902347 0.00011364263625965288 0.00011364224330198211
          0.00011554571001489306 0.00011554558189693409 0.00011554519353006549 0.00011740977447696528 0.00011740967378993278 0.00011740937186193164
          0.00011922594629077341 0.00011922585512888037 0.00011922558096001592 0.00010615636523585097 0.00010615625554787567 0.00010615597174689961
          0.00010822436318887317 0.00010822423450625866 0.00010822384344096531 0.0001102654293216514 0.00011026524234589383 0.0001102646715612398
          0.00011227550168263763 0.00011227534853464116 0.00011227489143273117 0.00011424652928092851 0.0001142463749251016 0.00011424590869292955
          0.00011617065568249144 0.00011617050584695043 0.0001161700531116562 0.00011803898412884416 0.00011803887188472118 0.000118038533769274
          0.000119840736715721 0.0001198406356343742 0.00011984032981159704 0.00010429390134610255 0.00010429278617982167 0.00010428941907202009
          0.00010669418040808596 0.000106693499392821 0.00010669144222692482 0.00010885424638663665 0.00010885404442274348 0.00010885347849815257
          0.00011097271788947656 0.00011097254758016053 0.00011097202866904174 0.00011304285056346895 0.00011304264454170823 0.00011304201771045054
          0.00011505379302604607 0.00011505362211502483 0.00011505311476641685 0.00011699818274746714 0.0001169980011628873 0.00011699744948169028
          0.00011886525492615536 0.00011886514567932877 0.00011886482841014391 0.00012064182173292435 0.00012064172347555507 0.00012064143522240789
          0.00010437451190532488 0.00010437326759313485 0.00010436955623541309 0.00010729238592498267 0.00010729103736817422 0.00010728691138262886
          0.00010972973252375496 0.00010972896449930359 0.00010972668030867146 0.00011192392858313507 0.00011192375072169094 0.00011192325922613702
          0.00011405783237000423 0.00011405765666573487 0.00011405710966126761 0.00011611119019895556 0.00011611097087955133 0.00011611031752132954
          0.00011806948947008351 0.00011806925583627531 0.00011806854417248588 0.0001199197279375075 0.00011991956712863788 0.00011991907927687481
          0.000121639971253588 0.0001216398335476465 0.0001216394136062646 0.00010426135759106137 0.00010426015424325832 0.0001042565587005994
          0.00010786102775945052 0.00010785919706207044 0.00010785371974415325 0.00011079190255352346 0.00011079033377568381 0.00011078559894178329
          0.00011317252659753876 0.00011317199551289597 0.00011317045242087201 0.00011537684547326391 0.00011537669886468027 0.00011537629020417542
          0.00011747913831820267 0.0001174788770026241 0.00011747808568828058 0.00011944625766229339 0.00011944595967554893 0.00011944506428732895
          0.00012123529889845549 0.00012123522573643586 0.00012123504824517592 0.0001228106236837901 0.00012281055754643933 0.00012281037091765341
          0.00010399661718519564 0.0001039953875044813 0.0001039917117530749 0.00010840162180210807 0.00010839932034730596 0.00010839236308320582
          0.00011194171712577949 0.00011193939144930204 0.00011193231486878301 0.00011471194993431386 0.00011471072289690338 0.00011470691532413053
          0.00011706660128030005 0.00011706629339306366 0.00011706538467931612 0.00011927701943858415 0.00011927667833954284 0.00011927566829971876
          0.00012125758216431177 0.0001212569917589345 0.00012125515439530582 0.0001228875050730571 0.00012288722383876078 0.00012288637161425838
          0.00012404676001803814 0.00012404672881124792 0.000124046623323491 0.00011956254441427052 0.00011961466911825817 0.00011956247843793217
          0.00011961460151816015 0.00011956227491321924 0.00011961439327942098 0.00011977463667369382 0.00011977456495861052 0.0001197743437796867
          0.00012005210049513299 0.00012005202239890242 0.00012005178200711616 0.00012046102633874527 0.00012046093987840597 0.00012046067340244976
          0.00012101620617305848 0.00012101611156490679 0.0001210158223230906 0.00012172773952196804 0.00012172763148525707 0.00012172729367842695
          0.0001225872808747584 0.00012258718450513075 0.00012258689138841552 0.00012354747182128614 0.00012354733026200782 0.00012354684244289372
          0.0001243282564163204 0.00012432856256028519 0.00012432949771416638 0.00012087541620584282 0.00012092286152544733 0.00012087535789594272
          0.00012092280243300088 0.00012087517740499179 0.00012092262033890026 0.00012106803743035053 0.0001210679774866312 0.00012106779280505188
          0.00012131865257067453 0.00012131859187961697 0.00012131840590536762 0.00012168532522350123 0.00012168526515177496 0.0001216850835613615
          0.00012217787109886685 0.00012217781639520375 0.00012217765502130012 0.00012279829382414692 0.00012279825328990955 0.00012279813940387278
          0.00012352681475514063 0.0001235268265139407 0.00012352688049804323 0.00012428290765147354 0.0001242830002216893 0.00012428330762890584
          0.0001247809331768878 0.0001247814693612731 0.00012478316229942837 0.00012218629092496753 0.00012222837654008416 0.00012218624081309276
          0.0001222283258638789 0.0001221860858349183 0.00012222816950856617 0.00012235687636612055 0.00012235682527453196 0.0001223566662711431
          0.0001225778157978011 0.00012257776437413358 0.0001225776039157999 0.00012289900313870218 0.0001228989530088002 0.00012289879661125472
          0.0001233260971433278 0.0001233260522514649 0.00012332591204422625 0.00012385517069129248 0.00012385514320743164 0.0001238550549394093
          0.00012445678446024785 0.00012445679160167993 0.00012445680293464532 0.00012503674909603864 0.00012503683716261256 0.00012503707885966128
          0.00012536380660247478 0.00012536404306621229 0.00012536470081406202 0.00012349461941354458 0.0001235307288018754 0.00012349457781064108
          0.00012353068697246844 0.00012349444860113094 0.0001235305572032506 0.00012364080235574887 0.00012364076069956636 0.00012364063074945094
          0.00012382942448765918 0.0001238293837649975 0.00012382925691818117 0.0001241020587279963 0.00012410202104580706 0.00012410190454668213
          0.00012446115050675655 0.00012446112089590906 0.00012446103107110706 0.00012489854280064874 0.0001248985309438181 0.00012489849633211578
          0.00012537988599294837 0.00012537990992619806 0.0001253799862580346 0.00012581570035831828 0.00012581578748710034 0.00012581605414877938
          0.00012603331848007185 0.0001260335109790739 0.00012603411712381137 0.0001248001553390299 0.00012482974561304783 0.00012480012239663146
          0.00012482971257399167 0.0001248000194458598 0.00012482960932217984 0.00012491983578166485 0.0001249198033280838 0.0001249197007180525
          0.00012507378580378932 0.0001250737547445507 0.000125073656517796 0.0001252951818260099 0.00012529515425919316 0.00012529506771401908
          0.00012558420830775403 0.00012558418872231207 0.00012558412730284026 0.00012593062840420815 0.0001259306251967681 0.00012593061284681036
          0.00012630088375671343 0.0001263009098591522 0.00012630098430848238 0.00012661983999200782 0.00012661991280581416 0.00012662012612303802
          0.0001267646757654259 0.00012676480591407587 0.00012676518629199196 0.0001261029699478846 0.00012612558318700375 0.00012610294555913404
          0.0001261255588157037 0.00012610286882717918 0.00012612548190648674 0.00012619437063450217 0.0001261943470922649 0.00012619427133231246
          0.0001263116595264822 0.0001263116373983731 0.00012631156643840987 0.0001264796102404182 0.00012647959103341221 0.00012647953079220097
          0.00012669716132970206 0.00012669714888481013 0.00012669711011732143 0.00012695431464731998 0.0001269543155151553 0.00012695431607370698
          0.00012722274499180219 0.00012722276788817868 0.00012722283475547063 0.00012744553128181673 0.00012744558509582052 0.00012744574593344529
          0.00012753951375097633 0.00012753960040392113 0.00012753986714725466 0.00012740343392927256 0.00012741871261524925 0.00012740341783693028
          0.00012741869669138047 0.0001274033670347096 0.00012741864581569735 0.00012746516434627346 0.00012746514927685997 0.00012746509956900175
          0.00012754424225032952 0.00012754422819578502 0.00012754418237183492 0.00012765709866125797 0.00012765708663332222 0.00012765704867987942
          0.0001278023948927498 0.00012780238782176273 0.00012780236508197826 0.00012797233584351 0.00012797233816240703 0.0001279723426796235
          0.00012814671876293176 0.0001281467356390345 0.00012814678378173915 0.00012828777194326315 0.00012828780760546337 0.0001282879134596086
          0.00012834418404626276 0.00012834423827494946 0.0001283444029914346 0.00012870217287728471 0.0001287098733621727 0.00012870216504296054
          0.00012870986584459225 0.00012870213993884446 0.00012870984085654449 0.00012873327980864185 0.00012873327296736314 0.0001287332488667889
          0.00012877308760967388 0.0001287730809817972 0.00012877305879494303 0.00012882977696224927 0.00012882977132099133 0.00012882975318740826
          0.0001289024782128012 0.0001289024754198613 0.00012890246533227114 0.00012898695573279972 0.00012898695770021797 0.00012898696147759005
          0.00012907275232375157 0.0001290727612443907 0.00012907278648901732 0.00012914111117596572 0.00012914112859910664 0.00012914118087260364
          0.0001291675741432672 0.00012916759950445424 0.00012916767874129005 0.00013 0.00013 0.00013
          0.00013 0.00013 0.00013 0.00013 0.00013 0.00013
          0.00013 0.00013 0.00013 0.00013 0.00013 0.00013
          0.00013 0.00013 0.00013 0.00013 0.00013 0.00013
          0.00013 0.00013 0.00013 0.00013 0.00013 0.00013
          0.00013 0.00013 0.00013
        </DataArray>
        <DataArray type="Float64" Name="disp_y" format="ascii" RangeMin="-0.000018892836665979047" RangeMax="0">
          -0.00000866126005161883 -0.000010357639710256724 -0.000011741174531531458 -0.00001110993678331316 -0.000008661020796291793 -0.000010357617140747638
          -0.000011741454570787065 -0.000011110065991930227 -0.000008660290101459443 -0.00001035747479346797 -0.000011742367810947634 -0.000011110289744502646
          -0.00001092115675364889 -0.000010041582665466439 -0.000008953033153045182 -0.00001017374426218615 -0.00001092156591179984 -0.000010041996753752042
          -0.000008953112705035572 -0.000010173969423653001 -0.000010922795954776151 -0.000010043160918259878 -0.000008953328867827446 -0.000010174535971302521
          -0.000009454171888107346 -0.000011084840847948296 -0.000009454218464374039 -0.000011084991169600594 -0.00000945453835167517 -0.000011085638221133358
          -0.000007806075438372364 -0.000006510827212816133 -0.000007933941832316354 -0.000007806008764446472 -0.000006510425082762613 -0.000007933702638741696
          -0.000007805885958200633 -0.0000065091440461623245 -0.000007933058581424468 -0.000013719942317180144 -0.000014551899977179872 -0.000015123894717827354
          -0.00001381661509644064 -0.000013719675943856855 -0.000014551347557293792 -0.00001512318629818402 -0.00001381624725215722 -0.000013718877172547285
          -0.000014549530155691883 -0.000015121021087986571 -0.00001381483238634112 -0.000014624617629308883 -0.00001534518010834208 -0.000014874410491558603
          -0.000013876830618342923 -0.000014624065123645528 -0.00001534453283664791 -0.000014873784298032203 -0.0000138765281429637 -0.000014622189209223483
          -0.000015342452183454285 -0.000014872075977453633 -0.000013875727648993553 -0.000011080469260762735 -0.000010509890633762953 -0.00000921308661949329
          -0.000011081091035410055 -0.00001051085778027931 -0.000009213612235682107 -0.000011083006932017926 -0.000010513697880064109 -0.00000921526097812277
          -0.000007010501232199202 -0.000007009931602651041 -0.000007008225448813929 -0.00000856310046068015 -0.000009952969515346905 -0.000008564045439409972
          -0.000009954262721982488 -0.000008567050907520049 -0.000009958509830604466 -0.000005454414214567489 -0.000005130874042850828 -0.000005453679999887624
          -0.00000513024536155499 -0.000005451530951673121 -0.000005128445848584558 -0.000017647572189695414 -0.00001797645938320286 -0.00001764633408302639
          -0.000017975495982003806 -0.00001764278908782103 -0.000017972231439069705 -0.00001527053716694229 -0.000015576959572145936 -0.000014202277958843212
          -0.000014022270199832732 -0.00001526974918871011 -0.000015576267398346037 -0.00001420195459115839 -0.000014021788540665183 -0.00001526755561143759
          -0.00001557419433664261 -0.00001420090123127181 -0.000014020465397746746 -0.00001173025691419926 -0.000011730871810665593 -0.000011733021286247363
          -0.000018216624021739087 -0.000018215904313012285 -0.000018213706479779117 -0.0000065730403578014145 -0.000006573033898476177 -0.000006572987881713017
          -0.000011414631669818888 -0.000011818819743040601 -0.000011414803749517948 -0.000011818989067363251 -0.000011415524122230029 -0.000011819476825447355
          -0.000012828585877217212 -0.000012510822006884988 -0.000013406184836448386 -0.000013926208091515353 -0.000012828843368498708 -0.000012511414656444263
          -0.000013406828055704597 -0.000013926441316583489 -0.000012829175691909313 -0.000012512976224984192 -0.000013409345810608593 -0.000013927078957208682
          -0.000012509782709258242 -0.00001257931114500599 -0.000012509801893444601 -0.000012579432016267952 -0.000012509974113245077 -0.000012579880906495616
          -0.00001701491136559342 -0.00001701407461402689 -0.000017011618447596422 -0.000015717674138483953 -0.000015716725079226166 -0.000015714198684860243
          -0.00001578167891080563 -0.000016295581590219095 -0.000015781489642440736 -0.000016294921706402015 -0.000015780900342851436 -0.000016293532408596727
          -0.000013560999265625289 -0.000014002962355249891 -0.000013560841851103382 -0.000014002664757130399 -0.000013560771062271897 -0.000014001463471719857
          -0.000012785535468343706 -0.000012286455966419893 -0.000012785991459089504 -0.000012287139953391559 -0.000012787331179786736 -0.00001228941629110785
          -0.000016749817548733686 -0.000016748871967336578 -0.000016745847467314545 -0.00001125026012528162 -0.000011251363969414667 -0.000011254534059005559
          -0.000016467485833286992 -0.000016466380876435633 -0.00001646324691168636 -0.000011561579576968378 -0.000011562406329682788 -0.000011565338968750574
          -0.000015980814851890217 -0.000015980040440981153 -0.00001597756348934667 -0.000018890064316126376 -0.00001858759268334295 -0.000018892836665979047
          -0.000018585894990308605 -0.000018890077995738144 -0.00001858232373463966 -0.000012623579439879263 -0.00001262344712405632 -0.000012623246986822883
          -0.000012837826893124996 -0.00001287722936056527 -0.00001283763825895521 -0.000012877163597539584 -0.0000128371805011161 -0.000012876957480423216
          -0.000013440337397344838 -0.000014246700937549003 -0.00001344016917955966 -0.000014246933138248002 -0.000013439810821180833 -0.000014247786386298575
          -0.000012851010354168287 -0.000013332567996283688 -0.000012851101694279407 -0.000013332703540623058 -0.000012851558206230738 -0.000013333241191911416
          -0.000015095139740750942 -0.000015094664221960531 -0.000015093369125265138 -0.000018235139955578614 -0.000018233883734335558 -0.000018230343912363617
          -0.000014943191592233671 -0.000014943214769247538 -0.000014943577258071473 -0.000016358346378601865 -0.00001713199682135883 -0.000016357169947965446
          -0.000017130739549741993 -0.000016354096583912742 -0.000017125981876426474 -0.000017718804318353977 -0.000018006759585699213 -0.000017715341290653994
          -0.000018005468797998628 -0.000017711884478195884 -0.000017994875088347045 -0.00001654577574055537 -0.00001609909456786191 -0.000016884825739959414
          -0.000016544253900261953 -0.000016097911764181775 -0.000016884013015899454 -0.000016539788297591884 -0.000016095209171561217 -0.000016878843160867853
          -0.000017194653464500144 -0.000017193828816846717 -0.00001719088257997053 -0.000011994438489036914 -0.000012521249128506835 -0.000011994749072682104
          -0.000012521226536148438 -0.000011995395643881844 -0.000012521206776200979 -0.000012613405950963289 -0.000012320364809108729 -0.000012613701865406776
          -0.000012320447700229522 -0.000012614902675807006 -0.000012320747713790523 -0.000016459465048495887 -0.000016458287748572102 -0.00001645552506647577
          -0.00001737993662658008 -0.000017378530873644868 -0.000017373680453409223 -0.000012123492230223985 -0.00001212344744329818 -0.000012123604554715151
          -0.00001450506646066246 -0.00001512527698013458 -0.000014504635716936895 -0.000015124551412610704 -0.000014503413814220957 -0.000015122792192238839
          -0.000015771729059467367 -0.000015770995120633587 -0.00001576846441215352 -0.000013905004531214284 -0.000013905160084138194 -0.000013905790003585942
          -0.00001167872936657822 -0.000011678946761713633 -0.000011680177178177904 -0.00001330035014131682 -0.00001330080157859155 -0.000013302179420568477
          -0.000012696086023492976 -0.000012695860624449843 -0.000012695469007771552 -0.00001207612897572276 -0.00001207585717446415 -0.00001207522800991464
          -0.000003823862506510688 -0.0000038229063402363035 -0.000003820034613663747 -0.000005172541682581833 -0.000005171774372534323 -0.000005169483013510435
          -0.000006693880573963218 -0.000006693321220665873 -0.000006691676495327841 -0.000008343551024679184 -0.00000834322576143805 -0.0000083422983047698
          -0.000010066447671656474 -0.000010066251625649372 -0.000010065776106442343 -3.2787562519147334e-7 0 -3.2784977568134144e-7
          0 -3.2777106076880915e-7 0 -3.6244745354129476e-7 0 -3.62431994226017e-7
          0 -3.623866537204744e-7 0 -4.1666519895197565e-7 0 -4.1665399744645503e-7
          0 -4.166201465332461e-7 0 -4.859450238565436e-7 0 -4.859396567448546e-7
          0 -4.859241283689304e-7 0 -5.660170371927666e-7 0 -5.660171083806285e-7
          0 -5.660173791357035e-7 0 -6.531688813348431e-7 0 -6.531736163827024e-7
          0 -6.531881436801613e-7 0 -7.442393504522612e-7 0 -7.442484612560438e-7
          0 -7.442762912397583e-7 0 -8.367027576324965e-7 0 -8.367142742783704e-7
          0 -8.367489196507745e-7 0 -6.564398708080616e-7 -6.564117170142948e-7 -6.563242043662386e-7
          -7.265954654448673e-7 -7.265608213648399e-7 -7.264547340170645e-7 -8.363291022013328e-7 -8.363124978652848e-7 -8.362626037792092e-7
          -9.756335285365658e-7 -9.756271865757331e-7 -9.75607680184465e-7 -0.0000011355759017323562 -0.0000011355800868084054 -0.0000011355931920647847
          -0.0000013086611278843464 -0.0000013086740893487251 -0.000001308713601929922 -0.000001488568600486696 -0.0000014885900862357628 -0.0000014886547070658604
          -0.0000016701302731778184 -0.0000016701550289573237 -0.0000016702305016241615 -9.854517248713412e-7 -9.853554256685507e-7 -9.85069928918832e-7
          -0.0000010927135378682948 -0.0000010926783569428694 -0.0000010925776169358325 -0.0000012598029534697827 -0.000001259775360843355 -0.0000012596889612054854
          -0.0000014697474248845929 -0.0000014697408667669772 -0.0000014697219142812035 -0.0000017086406655784323 -0.0000017086493676034511 -0.000001708675114131215
          -0.0000019653217158158746 -0.000001965344338482743 -0.0000019654119897383633 -0.000002230293035159838 -0.0000022303283291741557 -0.0000022304342078030545
          -0.0000024953697958749385 -0.0000024954102658041296 -0.000002495531534845622 -0.0000013140869727751453 -0.0000013140413524527956 -0.0000013138788093760849
          -0.0000014610352671659477 -0.0000014609532836189006 -0.0000014606989274160182 -0.0000016873538262453697 -0.0000016873310132238783 -0.0000016872655979242732
          -0.0000019674617701463633 -0.0000019674562426176248 -0.000001967436684984325 -0.0000022825646659382974 -0.0000022825825651298164 -0.000002282636222245515
          -0.000002618714247417735 -0.0000026187508573149884 -0.0000026188616176873956 -0.0000029633217278398114 -0.000002963377073759921 -0.0000029635461480909055
          -0.0000033042120815867267 -0.0000033042756346008307 -0.000003304469731924747 -0.0000016398493767796872 -0.0000016397624493400814 -0.000001639556827386658
          -0.0000018315792863103264 -0.000001831549076469528 -0.0000018314627123538739 -0.000002118256273980987 -0.000002118219952067426 -0.0000021181081620735727
          -0.0000024649318631271256 -0.0000024649417676886055 -0.00000246497562541466 -0.0000028499362047378475 -0.000002849967502577697 -0.0000028500618884593086
          -0.000003259055542225913 -0.0000032591100768681876 -0.0000032592741505431327 -0.0000036763387305883986 -0.000003676416528563652 -0.000003676648075139015
          -0.000004083438505353259 -0.000004083522426300273 -0.00000408376785646809 -0.0000020474819592720206 -0.0000020461849081312366 -0.000002042222593592759
          -0.0000019720886045274537 -0.0000019714289672689554 -0.000001969432589684738 -0.0000022018870039564243 -0.0000022018182916838036 -0.0000022016287621334794
          -0.000002549640516132936 -0.000002549636867143579 -0.0000025496154209528555 -0.0000029523357336922957 -0.000002952342838332021 -0.0000029523591424022887
          -0.000003395940586573658 -0.0000033959862035633567 -0.0000033961238448867597 -0.000003868438662907501 -0.000003868521361278176 -0.0000038687723215694
          -0.000004350110598980141 -0.0000043502445817697794 -0.00000435065675290147 -0.000004812272267231349 -0.00000481242851695313 -0.000004812908809914439
          -0.0000027222902271934212 -0.0000027209382961051554 -0.0000027168988157947602 -0.0000024147418412424107 -0.000002413600090791451 -0.000002410149320865755
          -0.000002572664688674549 -0.0000025723202089605082 -0.0000025713178879415453 -0.0000029724034366714996 -0.0000029725137285174496 -0.0000029728776403231356
          -0.0000034126268058414865 -0.000003412669826752627 -0.0000034127943700620497 -0.000003895533182913861 -0.0000038956061588797565 -0.000003895830802523373
          -0.000004416776536251092 -0.00000441687622143869 -0.000004417172668871642 -0.00000495382654522781 -0.000004953966192073518 -0.000004954378251277576
          -0.000005458235065825101 -0.0000054583575342909774 -0.000005458706378307224 -0.000003726328457216689 -0.000003724596693689694 -0.000003719404201658454
          -0.000003117468398858177 -0.000003115932745364433 -0.000003111329020814779 -0.0000030315534227595596 -0.0000030306121717480335 -0.000003027768102969497
          -0.0000033702105798605087 -0.000003369993763744249 -0.0000033693922482385267 -0.0000038264271273833 -0.000003826469993282497 -0.0000038266135201156715
          -0.000004311123323697038 -0.0000043111713402186 -0.000004311312966991087 -0.000004850685777907743 -0.000004850852432147405 -0.00000485135845055955
          -0.000005424097152019193 -0.000005424445103280859 -0.000005425504434491736 -0.00000596295406579783 -0.000005963428012514923 -0.000005964842476824276
          -0.000005120446722127587 -0.000005117957179262093 -0.00000511042354971676 -0.000004166390894743974 -0.000004164334065978454 -0.0000041581320036786015
          -0.0000037073329318252966 -0.0000037058704604257047 -0.000003701375842697282 -0.000003787581697051439 -0.0000037870272828671423 -0.000003785273942193703
          -0.000004170255448314058 -0.000004170254244110454 -0.000004170251406945227 -0.00000458736848213651 -0.0000045873608302447535 -0.0000045873340303982445
          -0.000005067388429554012 -0.000005067634506337853 -0.000005068371190828055 -0.000005610738757695292 -0.000005611378877929308 -0.000005613300955950805
          -0.0000062293916160405975 -0.00000623033317215433 -0.000006233206026895599 0 -8.671866602799279e-7 0
          -8.672003899804206e-7 0 -8.672417632054948e-7 -0.000001729568878765001 -0.000001729597582176202 -0.0000017296853150599211
          -0.000002580899419236587 -0.000002580945637038217 -0.0000025810852380677285 -0.000003412206598475595 -0.0000034122775021882512 -0.0000034124939516479308
          -0.000004210511390134945 -0.000004210605674525571 -0.0000042108872304944684 -0.000004956722101115345 -0.000004956885256286906 -0.000004957384764057498
          -0.000005623876564036655 -0.0000056240451746010525 -0.0000056245468131237045 -0.000006168856670677256 -0.000006169293070257298 -0.0000061706152210743135
          -0.000006509822192020165 -0.000006510608538604064 -0.0000065129836834584925 0 -8.926246346733202e-7 0
          -8.926390676915111e-7 0 -8.926826164707285e-7 -0.0000017787129298848614 -0.0000017787428006797779 -0.0000017788331948327254
          -0.0000026504684403948734 -0.000002650516242332282 -0.0000026506606667469604 -0.00000349770376740854 -0.000003497773085536038 -0.000003497982527595935
          -0.0000043066771791088345 -0.0000043067739455127 -0.000004307065519270223 -0.0000050585156986763625 -0.00000505865325992602 -0.000005059066959848589
          -0.00000572748808001845 -0.000005727663472865002 -0.00000572819124429771 -0.000006267020267241733 -0.000006267298094187502 -0.0000062681227953896775
          -0.000006639147152329644 -0.000006639503653167819 -0.0000066405746413762506 0 -9.131702696122942e-7 0
          -9.131852430968918e-7 0 -9.132302686760012e-7 -0.0000018179624879984805 -0.0000018179931272933283 -0.000001818085730598785
          -0.0000027048386827733646 -0.0000027048867430043754 -0.000002705031880409112 -0.000003562025734599131 -0.0000035620940705744167 -0.0000035623004685326624
          -0.000004374441140121846 -0.000004374533478392326 -0.000004374811800403586 -0.000005122447881860504 -0.00000512256962051756 -0.00000512293649116278
          -0.000005778790469316235 -0.0000057789426827873005 -0.000005779400337474463 -0.000006306598351420293 -0.000006306783082328357 -0.000006307337143121592
          -0.000006701568451861374 -0.000006701768381934827 -0.000006702370838668956 0 -9.292064158841391e-7 0
          -9.292215779009228e-7 0 -9.292671898948931e-7 -0.000001848182417577652 -0.0000018482131134013398 -0.0000018483058309643618
          -0.00000274557670999595 -0.0000027456241505340256 -0.000002745767320548786 -0.0000036078814118550393 -0.000003607947238759708 -0.000003608145781605127
          -0.00000441851889984798 -0.0000044186045510152885 -0.000004418862985410875 -0.000005156823535261722 -0.000005156929785253248 -0.000005157249594895926
          -0.000005797364487178917 -0.000005797489388102507 -0.000005797865301900359 -0.000006316893522444527 -0.0000063170166906070795 -0.0000063173844829328375
          -0.000006730528134191796 -0.000006730639913582132 -0.0000067309729979844105 0 -9.412420315943365e-7 0
          -9.412572182414374e-7 0 -9.413028159946577e-7 -0.0000018705108949935612 -0.000001870541383363602 -0.0000018706333032297487
          -0.0000027747220550273104 -0.00000277476842260065 -0.0000027749082376321894 -0.0000036387123560842505 -0.000003638775076804412 -0.000003638964287779598
          -0.000004444565049739302 -0.0000044446437606358915 -0.000004444881322221314 -0.000005171511770927906 -0.000005171604384696956 -0.000005171883096314263
          -0.000005798181216724499 -0.000005798282184565477 -0.000005798585857071049 -0.000006313196737456884 -0.000006313281092283658 -0.000006313532903258473
          -0.000006741936929872367 -0.000006742000889045843 -0.000006742190803255852 0 -9.498381403177726e-7 0
          -9.498532433824777e-7 0 -9.498985296328557e-7 -0.000001886194180408378 -0.000001886224279620499 -0.000001886314907722716
          -0.0000027944778499145102 -0.0000027945229335485764 -0.000002794658999713033 -0.000003658121526105286 -0.0000036581811409052865 -0.000003658361277846312
          -0.000004458296848298198 -0.0000044583693897962145 -0.000004458588526935626 -0.0000051749498414065894 -0.000005175031332423747 -0.000005175276436873064
          -0.000005791129545600233 -0.000005791212292966077 -0.000005791461307885826 -0.000006304194748066001 -0.000006304254337602954 -0.000006304432335391566
          -0.000006744551448853477 -0.000006744588334723329 -0.000006744698339625668 0 -9.55528810088619e-7 0
          -9.555437634309058e-7 0 -9.555885940676194e-7 -0.0000018964121332122307 -0.000001896441770736327 -0.0000018965310592215818
          -0.0000028068985134991554 -0.0000028069423604580387 -0.0000028070750596155533 -0.0000036693863865946408 -0.0000036694433636482905 -0.0000036696160245783758
          -0.000004464560901401572 -0.0000044646285907994205 -0.000004464833544379995 -0.000005173359317443966 -0.000005173432466534393 -0.000005173653126441879
          -0.0000057824650731635535 -0.000005782534917498072 -0.0000057827465399258825 -0.000006294947037028448 -0.0000062949911720151 -0.000006295124626721822
          -0.000006743500473171707 -0.000006743520667419849 -0.0000067435845970457474 0 -9.587520139525088e-7 0
          -9.587668662186354e-7 0 -9.588113128015399e-7 -0.0000019021258001739968 -0.0000019021553147023067 -0.0000019022438939620234
          -0.0000028136384079582117 -0.0000028136816642693525 -0.0000028138123223591924 -0.0000036750688713329344 -0.0000036751244000128132 -0.000003675292344702799
          -0.0000044669027547235084 -0.0000044669677348430636 -0.000004467164088382809 -0.000005170865140401401 -0.000005170933556331388 -0.000005171139882287843
          -0.000005775947641580168 -0.000005776010280856406 -0.000005776200808123006 -0.000006288387276379157 -0.000006288423618388065 -0.000006288533834160435
          -0.000006741812199197203 -0.000006741823498013923 -0.000006741864016126319 0 -9.597939768470949e-7 0
          -9.598087546786774e-7 0 -9.598530998892376e-7 -0.000001903960435634471 -0.0000019039892937152561 -0.000001904077206549894
          -0.0000028157653463822017 -0.000002815807423699714 -0.000002815936613203495 -0.0000036767828550794575 -0.000003676837021805767 -0.00000367700266951435
          -0.000004467451512600098 -0.0000044675145026401836 -0.000004467707173682636 -0.0000051697903617187465 -0.000005169855404705002 -0.0000051700556544654125
          -0.000005773574293163636 -0.0000057736320845975385 -0.00000577381390386609 -0.00000628605115970249 -0.000006286081795863251 -0.000006286182344494136
          -0.00000674109010307523 -0.000006741095477715346 -0.000006741126057041846
        </DataArray>
        <DataArray type="Float64" Name="disp_z" format="ascii" RangeMin="-4.785163461265785e-7" RangeMax="0">
          0 0 0 0 -1.760231156992602e-7 -1.7812360851317634e-7
          -1.7653256102702946e-7 -1.776447611113696e-7 -3.519590933837637e-7 -3.562312659524483e-7 -3.529144727763962e-7 -3.5510927390278616e-7
          0 0 0 0 -1.6965423925383037e-7 -1.7395371446249565e-7
          -1.7664822371363846e-7 -1.742989700332317e-7 -3.394051778054964e-7 -3.479761012255538e-7 -3.5312575067001426e-7 -3.4846056878461655e-7
          0 0 -1.7882136796029525e-7 -1.7352414022314113e-7 -3.5749828824065704e-7 -3.4699449010421776e-7
          0 0 0 -1.7670261484973908e-7 -1.718961306176022e-7 -1.7737889136448232e-7
          -3.532178390315978e-7 -3.4371158997798005e-7 -3.546029136877355e-7 0 0 0
          0 -1.6868849497751326e-7 -1.7449638962294613e-7 -1.7926821456842565e-7 -1.6916095299300955e-7 -3.376024283427537e-7
          -3.4919722473317824e-7 -3.5880558607079993e-7 -3.386369459988641e-7 0 0 0
          0 -1.7390532453936475e-7 -1.7820071301023617e-7 -1.760386851962888e-7 -1.68554286752028e-7 -3.4808748079381504e-7
          -3.5660114035137273e-7 -3.5218303220914684e-7 -3.3754945705705126e-7 0 0 0
          -1.7121014331282094e-7 -1.7849450673675632e-7 -1.7852542240364367e-7 -3.426171191031338e-7 -3.573419891749292e-7 -3.5715146317786607e-7
          0 -1.671464149315709e-7 -3.342032347463124e-7 0 0 -1.8998807317299866e-7
          -1.9152285987925978e-7 -3.800962181642406e-7 -3.8330628580786734e-7 0 0 -1.5481320791278587e-7
          -1.6261139582684458e-7 -3.0958382355700357e-7 -3.25162013465571e-7 0 0 -2.1778830087275574e-7
          -2.2698528693505285e-7 -4.3560286119435733e-7 -4.5413414081289994e-7 0 0 0
          0 -1.8327705193010958e-7 -1.923745888708443e-7 -1.7904562486927708e-7 -1.7077374920855974e-7 -3.6681433075308844e-7
          -3.8507715574728307e-7 -3.583175190416642e-7 -3.4179078189261514e-7 0 -2.2211596257196026e-7 -4.444529684125285e-7
          0 -2.393733941962693e-7 -4.785163461265785e-7 0 -1.7771314571834852e-7 -3.554123458401503e-7
          0 0 -1.6996560088792193e-7 -1.6618896272850567e-7 -3.399738808052197e-7 -3.3266770215753786e-7
          0 0 0 0 -2.1856932472640337e-7 -2.0620118955340808e-7
          -2.0021130022975173e-7 -2.2122846691789824e-7 -4.372964837160078e-7 -4.1237287389747754e-7 -4.004367005245446e-7 -4.425424257496967e-7
          0 0 -1.6812220115817693e-7 -1.6979036498825905e-7 -3.3644818583600405e-7 -3.3970128971873236e-7
          0 -2.1821052386755884e-7 -4.3671222265580034e-7 0 -1.848064733875337e-7 -3.701091487692697e-7
          0 0 -2.1667464531172433e-7 -2.1478324742623528e-7 -4.33994608457608e-7 -4.2992716510104534e-7
          0 0 -1.6787217757311135e-7 -1.7023944807947478e-7 -3.3603115291365804e-7 -3.40788647596221e-7
          0 0 -1.8195556850656868e-7 -1.9033749427626748e-7 -3.645243901097354e-7 -3.8122853324913643e-7
          0 -2.0726016358131522e-7 -4.1485842828431795e-7 0 -2.023039977479285e-7 -4.0486967178472544e-7
          0 -1.9891272395630907e-7 -3.980131634761646e-7 0 -1.7873011866808354e-7 -3.5798585360449886e-7
          0 -2.0193712313772019e-7 -4.043779050136488e-7 0 0 -2.275011378368299e-7
          -2.2635778423264438e-7 -4.5619943225992543e-7 -4.5222714815538237e-7 0 -1.660049310481079e-7 -3.322938713734482e-7
          0 0 -1.6466078293347094e-7 -1.673699653386485e-7 -3.29772935596311e-7 -3.3502659342998276e-7
          0 0 -1.7935795172203565e-7 -1.9255692675008753e-7 -3.5918143003638463e-7 -3.8559795562011404e-7
          0 0 -1.723711791410519e-7 -1.7099517185987658e-7 -3.4474889399313456e-7 -3.421320923857099e-7
          0 -1.9312339393784687e-7 -3.867013396342565e-7 0 -2.206641475487254e-7 -4.408219609582713e-7
          0 -2.1668238914928595e-7 -4.3363498840521727e-7 0 0 -1.9264450833548318e-7
          -2.0745468808392917e-7 -3.8565035312727445e-7 -4.152151807617074e-7 0 0 -2.1640967002650267e-7
          -2.194925066118562e-7 -4.308609016702773e-7 -4.5623229848303714e-7 0 0 0
          -1.9396767225997586e-7 -1.8716001878192992e-7 -2.0039960998802556e-7 -3.8786474706585326e-7 -3.7459731629126396e-7 -4.0142039072187265e-7
          0 -2.0432780224766073e-7 -4.026967574215931e-7 0 0 -1.7164791615170356e-7
          -1.7088892326191791e-7 -3.4396149057815597e-7 -3.4204382809757e-7 0 0 -1.7210396957408578e-7
          -1.7378486882602527e-7 -3.4431248361666264e-7 -3.4758743302750703e-7 0 -1.8940407270711217e-7 -3.8075672932345443e-7
          0 -2.1251500917078402e-7 -4.260587690641832e-7 0 -1.6406950703356082e-7 -3.2861651567268334e-7
          0 0 -1.7311916115446192e-7 -1.7748635159378956e-7 -3.4630640501095035e-7 -3.549876795675643e-7
          0 -1.826597611870775e-7 -3.6538131390944663e-7 0 -1.696509119476713e-7 -3.3958467094908843e-7
          0 -1.6629057957553813e-7 -3.3299590820663587e-7 0 -1.6904806591925293e-7 -3.3855322940478147e-7
          0 -1.7598166764660743e-7 -3.51726206305861e-7 0 -1.810880918306667e-7 -3.620514418155252e-7
          0 -1.3947161948303228e-7 -2.789186816578738e-7 0 -1.5616940961972552e-7 -3.123126903165822e-7
          0 -1.6876500064040221e-7 -3.374773685020643e-7 0 -1.7703013519468838e-7 -3.540095844541334e-7
          0 -1.8096101124534565e-7 -3.6196631108500374e-7 0 0 -6.092962073373127e-8
          -6.072359267355886e-8 -1.2186203562191838e-7 -1.2145679216983888e-7 0 0 -5.952349575190105e-8
          -5.937413538454215e-8 -1.1904649071938083e-7 -1.1874446740815089e-7 0 0 -5.776982526716608e-8
          -5.7678398043804206e-8 -1.1554033764296789e-7 -1.1535753203405541e-7 0 0 -5.5807695750683444e-8
          -5.577265710166354e-8 -1.1161552457451829e-7 -1.115449441606856e-7 0 0 -5.3764039339469656e-8
          -5.378555275102128e-8 -1.075282566999248e-7 -1.0757091275117599e-7 0 0 -5.1750544650911413e-8
          -5.182408103115728e-8 -1.035013774360447e-7 -1.0364820601282343e-7 0 0 -4.984665408311655e-8
          -4.996943000737939e-8 -9.96931249122754e-8 -9.993871335432764e-8 0 0 -4.815502776618587e-8
          -4.830057614045516e-8 -9.631007495559414e-8 -9.660126042148691e-8 0 -6.157177355944792e-8 -1.2314910491205918e-7
          0 -5.994666498189937e-8 -1.1988836347062608e-7 0 -5.800958360365184e-8 -1.1602056614069824e-7
          0 -5.586324161557004e-8 -1.1172570957751657e-7 0 -5.3653780367061676e-8 -1.0730723994489574e-7
          0 -5.149294847007888e-8 -1.0298618688530949e-7 0 -4.944546112478373e-8 -9.889060062377542e-8
          0 -4.7686125217368074e-8 -9.537291130877483e-8 0 -6.242168110253716e-8 -1.2486898219283903e-7
          0 -6.072193957076996e-8 -1.2144685291339357e-7 0 -5.840428205064834e-8 -1.1680614768735535e-7
          0 -5.5962611335692426e-8 -1.1192726412883352e-7 0 -5.346645900683982e-8 -1.0693210088429832e-7
          0 -5.1045444709596505e-8 -1.0209202434243917e-7 0 -4.8735665531219574e-8 -9.746973981157536e-8
          0 -4.6841346121145226e-8 -9.368265259452414e-8 0 -6.460103548651151e-8 -1.291617516030494e-7
          0 -6.1545056705797e-8 -1.2308244923809943e-7 0 -5.8954769472025114e-8 -1.1791470056277629e-7
          0 -5.6012568665474116e-8 -1.1202138564225616e-7 0 -5.312061791571424e-8 -1.0624109291409508e-7
          0 -5.031741092706779e-8 -1.0063670084455027e-7 0 -4.7610446802040804e-8 -9.522090100474635e-8
          0 -4.552244077053634e-8 -9.104920207078129e-8 0 -6.490986814804614e-8 -1.2987556343408643e-7
          0 -6.332306984869728e-8 -1.2664901277694987e-7 0 -5.931746881520575e-8 -1.1862984350061854e-7
          0 -5.5972552648000246e-8 -1.1195375416868404e-7 0 -5.251462667180542e-8 -1.0502565824739633e-7
          0 -4.920067531140604e-8 -9.840455407937863e-8 0 -4.5921423440415526e-8 -9.183444538599147e-8
          0 -4.355760937124487e-8 -8.711157899131398e-8 0 -9.048598189996441e-8 -1.8103412381601548e-7
          0 -7.055045768000415e-8 -1.411884480942033e-7 0 -6.313468383423414e-8 -1.2630154906639202e-7
          0 -6.004173050296199e-8 -1.2006734538162592e-7 0 -5.552724520852622e-8 -1.1104776799092344e-7
          0 -5.156926554203253e-8 -1.0313692206639392e-7 0 -4.756854725636815e-8 -9.514468263846311e-8
          0 -4.345213067999488e-8 -8.690928060939387e-8 0 -4.079002234191381e-8 -8.16001979657744e-8
          0 -1.178232336366427e-7 -2.3562380948769866e-7 0 -9.007302331970428e-8 -1.8026889404065348e-7
          0 -6.696367111121577e-8 -1.3395781105585977e-7 0 -5.876125897533746e-8 -1.1758989161851731e-7
          0 -5.529016289889665e-8 -1.1057460855494735e-7 0 -5.0199417992871496e-8 -1.0039355800762024e-7
          0 -4.526899186552694e-8 -9.054591772975908e-8 0 -3.958279097167798e-8 -7.913662329024457e-8
          0 -3.62951977342453e-8 -7.257922533878576e-8 0 -1.4425508605063318e-7 -2.884287119585813e-7
          0 -1.1441022419554003e-7 -2.288089884270496e-7 0 -7.794359756143274e-8 -1.5605486250811096e-7
          0 -5.756701861552635e-8 -1.152206678688207e-7 0 -5.378772858064597e-8 -1.0759504545424937e-7
          0 -4.844296958467446e-8 -9.685889212576964e-8 0 -4.237200859495017e-8 -8.478029370248718e-8
          0 -3.493224918262841e-8 -6.984589578500014e-8 0 -3.1505043372635185e-8 -6.303880147423998e-8
          0 -1.8764468646306858e-7 -3.7523924833181927e-7 0 -1.5081338111652184e-7 -3.01618666653477e-7
          0 -1.03764383226373e-7 -2.0771727244078908e-7 0 -6.673515150176359e-8 -1.3365385955503145e-7
          0 -5.333595135831664e-8 -1.0672065283920009e-7 0 -4.809528295234308e-8 -9.617531285345905e-8
          0 -3.711683359318757e-8 -7.42600700919209e-8 0 -2.154967372270831e-8 -4.306904539528558e-8
          0 -1.076944383863744e-8 -2.1549598882005798e-8 0 0 -4.724811057174286e-8
          -4.707290367195875e-8 -9.44963361877739e-8 -9.41457221112961e-8 0 -4.65213504541454e-8 -9.30423694743618e-8
          0 -4.554208670771455e-8 -9.108217632006948e-8 0 -4.403742690683496e-8 -8.807384031499584e-8
          0 -4.182912167231051e-8 -8.364943253758079e-8 0 -3.873460904459483e-8 -7.746816043839452e-8
          0 -3.377446279196093e-8 -6.752458238140956e-8 0 -2.7736559482545535e-8 -5.5436755604877385e-8
          0 -1.0153578960307554e-8 -2.024547285514524e-8 0 0 -4.630223803224636e-8
          -4.6116436699029035e-8 -9.260441441332813e-8 -9.223290879531367e-8 0 -4.554214074627866e-8 -9.108480035300142e-8
          0 -4.4536237437453873e-8 -8.907373068370935e-8 0 -4.301712718678425e-8 -8.603704301148603e-8
          0 -4.086945543805771e-8 -8.174269959150805e-8 0 -3.7863098302949716e-8 -7.573634916468547e-8
          0 -3.3743719325712975e-8 -6.749838727591963e-8 0 -2.8220269348246152e-8 -5.6476949744407385e-8
          0 -1.971189547761447e-8 -3.946212225085748e-8 0 0 -4.5478827229075714e-8
          -4.528598098528327e-8 -9.095769095298867e-8 -9.057192798337151e-8 0 -4.4695640103814624e-8 -8.939102900832368e-8
          0 -4.367423629142995e-8 -8.734779078516307e-8 0 -4.216504447313966e-8 -8.432884549649949e-8
          0 -4.0079140075259284e-8 -8.015574557042601e-8 0 -3.731099896962038e-8 -7.461836606277485e-8
          0 -3.373579055561571e-8 -6.746259837740226e-8 0 -2.9392838857584756e-8 -5.8770542406647935e-8
          0 -2.432879939285172e-8 -4.85991662697592e-8 0 0 -4.47811098921767e-8
          -4.4585375890930624e-8 -8.956221799381485e-8 -8.917076931150978e-8 0 -4.399058450177036e-8 -8.798127123997524e-8
          0 -4.297491630866686e-8 -8.595010048164902e-8 0 -4.1503234680715725e-8 -8.30069712257053e-8
          0 -3.9532492346860764e-8 -7.906608951792722e-8 0 -3.703506438282988e-8 -7.407132358760263e-8
          0 -3.4020039245710936e-8 -6.804410815285484e-8 0 -3.071577230550662e-8 -6.143554457718501e-8
          0 -2.7741010775721088e-8 -5.5495588331636696e-8 0 0 -4.421130443367989e-8
          -4.401535570682885e-8 -8.842263622555928e-8 -8.803071607020219e-8 0 -4.342334681130913e-8 -8.684667840898552e-8
          0 -4.2424540758476774e-8 -8.484901323232264e-8 0 -4.1005525051937513e-8 -8.201087197057052e-8
          0 -3.916168074604167e-8 -7.832308561870677e-8 0 -3.692453260984154e-8 -7.384827392911937e-8
          0 -3.439301979853558e-8 -6.878548902929698e-8 0 -3.1893687094855756e-8 -6.378436155056583e-8
          0 -3.0080070266851044e-8 -6.014948054262405e-8 0 0 -4.3769691675936625e-8
          -4.357489800857901e-8 -8.753938932356224e-8 -8.714980073954539e-8 0 -4.298937257379633e-8 -8.597877196209919e-8
          0 -4.2011792825713484e-8 -8.40236365313964e-8 0 -4.0646814520919486e-8 -8.129364483261676e-8
          0 -3.891963995785335e-8 -7.783943962881229e-8 0 -3.69031258911545e-8 -7.38060686458053e-8
          0 -3.4752264091308806e-8 -6.950557871859017e-8 0 -3.2817882513877034e-8 -6.563500236209319e-8
          0 -3.167879315145322e-8 -6.335796072950377e-8 0 0 -4.345537352128176e-8
          -4.3262274127522096e-8 -8.691074947935517e-8 -8.652456696617991e-8 0 -4.268395355281557e-8 -8.536794344686441e-8
          0 -4.172605619674677e-8 -8.34521236607874e-8 0 -4.040657100655436e-8 -8.081309993733652e-8
          0 -3.877159255394753e-8 -7.754323652528296e-8 0 -3.692060233209645e-8 -7.384089017102863e-8
          0 -3.5040385783447125e-8 -7.008128770260678e-8 0 -3.3474447549673745e-8 -6.694770499503551e-8
          0 -3.273100691042404e-8 -6.546016225693846e-8 0 0 -4.32673319112779e-8
          -4.307579248693175e-8 -8.653465524189741e-8 -8.615156561710678e-8 0 -4.250294815367344e-8 -8.500587677168736e-8
          0 -4.155848566256835e-8 -8.311696120004366e-8 0 -4.026897439668392e-8 -8.053790731978612e-8
          0 -3.869262295003585e-8 -7.738530938552238e-8 0 -3.6943362587443155e-8 -7.38864474373844e-8
          0 -3.5223309796635665e-8 -7.044720536657684e-8 0 -3.3863843382886524e-8 -6.772677533141564e-8
          0 -3.3326958290482655e-8 -6.665332140680674e-8 0 0 -4.3204735854276376e-8
          -4.301367535014297e-8 -8.640941033129001e-8 -8.60272731982507e-8 0 -4.2442771283448566e-8 -8.48854434344151e-8
          0 -4.1503167276906295e-8 -8.300627692758094e-8 0 -4.0224134221484266e-8 -8.044818263995862e-8
          0 -3.866779559118407e-8 -7.733559048495832e-8 0 -3.695276093301183e-8 -7.390520744867913e-8
          0 -3.5285686823647474e-8 -7.05718850738987e-8 0 -3.3992637969311436e-8 -6.798445696098794e-8
          0 -3.352091210766944e-8 -6.704089519977528e-8
        </DataArray>
      </PointData>
      <CellData>
        <DataArray type="Int32" Name="libmesh_elem_id" format="ascii" RangeMin="1398" RangeMax="3643">
          1398 1399 1422 1423 1460 1461
          1470 1471 1482 1483 1494 1495
          1502 1503 1506 1507 1520 1521
          1528 1529 1580 1581 1584 1585
          1612 1613 1636 1637 1652 1653
          1722 1723 1798 1799 1850 1851
          2298 2299 2406 2407 2442 2443
          2450 2451 2472 2473 2558 2559
          2610 2611 2646 2647 2648 2649
          2662 2663 2672 2673 2680 2681
          2748 2749 2756 2757 2776 2777
          2808 2809 2814 2815 2822 2823
          2828 2829 2836 2837 2852 2853
          2876 2877 2898 2899 2910 2911
          2926 2927 2936 2937 2950 2951
          2952 2953 2954 2955 2966 2967
          2980 2981 2982 2983 2990 2991
          3006 3007 3014 3015 3026 3027
          3068 3069 3074 3075 3104 3105
          3110 3111 3124 3125 3126 3127
          3168 3169 3194 3195 3204 3205
          3208 3209 3210 3211 3212 3213
          3220 3221 3222 3223 3224 3225
          3226 3227 3234 3235 3236 3237
          3240 3241 3252 3253 3254 3255
          3264 3265 3296 3297 3302 3303
          3308 3309 3314 3315 3324 3325
          3326 3327 3328 3329 3330 3331
          3332 3333 3334 3335 3336 3337
          3342 3343 3344 3345 3346 3347
          3348 3349 3350 3351 3352 3353
          3354 3355 3360 3361 3362 3363
          3364 3365 3366 3367 3368 3369
          3370 3371 3372 3373 3378 3379
          3380 3381 3382 3383 3384 3385
          3386 3387 3388 3389 3390 3391
          3396 3397 3398 3399 3400 3401
          3402 3403 3404 3405 3406 3407
          3408 3409 3414 3415 3416 3417
          3418 3419 3420 3421 3422 3423
          3424 3425 3426 3427 3430 3431
          3432 3433 3434 3435 3436 3437
          3438 3439 3440 3441 3442 3443
          3444 3445 3448 3449 3450 3451
          3452 3453 3454 3455 3456 3457
          3458 3459 3460 3461 3462 3463
          3466 3467 3468 3469 3470 3471
          3472 3473 3474 3475 3476 3477
          3478 3479 3480 3481 3482 3483
          3484 3485 3486 3487 3488 3489
          3490 3491 3492 3493 3494 3495
          3496 3497 3498 3499 3500 3501
          3502 3503 3504 3505 3506 3507
          3508 3509 3510 3511 3512 3513
          3514 3515 3516 3517 3518 3519
          3520 3521 3522 3523 3524 3525
          3526 3527 3528 3529 3530 3531
          3532 3533 3534 3535 3536 3537
          3538 3539 3540 3541 3542 3543
          3544 3545 3546 3547 3548 3549
          3550 3551 3552 3553 3554 3555
          3556 3557 3558 3559 3560 3561
          3562 3563 3564 3565 3566 3567
          3568 3569 3570 3571 3572 3573
          3574 3575 3576 3577 3578 3579
          3580 3581 3582 3583 3584 3585
          3586 3587 3588 3589 3590 3591
          3592 3593 3594 3595 3596 3597
          3598 3599 3600 3601 3602 3603
          3604 3605 3606 3607 3608 3609
          3610 3611 3612 3613 3614 3615
          3616 3617 3618 3619 3620 3621
          3622 3623 3624 3625 3626 3627
          3628 3629 3630 3631 3632 3633
          3634 3635 3636 3637 3638 3639
          3640 3641 3642 3643
        </DataArray>
        <DataArray type="Int32" Name="subdomain_id" format="ascii" RangeMin="107" RangeMax="110">
          107 107 107 107 107 107
          107 107 107 107 107 107
          107 107 107 107 107 107
          107 107 107 107 107 107
          107 107 107 107 107 107
          107 107 107 107 107 107
          107 107 107 107 107 107
          107 107 107 107 107 107
          107 107 107 107 107 107
          107 107 107 107 107 107
          107 107 107 107 107 107
          107 107 107 107 107 107
          107 107 107 107 107 107
          107 107 107 107 107 107
          107 107 107 107 107 107
          107 107 107 107 107 107
          107 107 107 107 107 107
          107 107 107 107 107 107
          107 107 107 107 107 107
          107 107 107 107 107 107
          107 107 107 107 107 107
          107 107 107 107 107 107
          107 107 107 107 107 107
          107 107 107 107 107 107
          107 107 107 107 107 107
          107 107 108 108 108 108
          108 108 108 108 109 109
          109 109 109 109 109 109
          109 109 109 109 109 109
          109 109 109 109 109 109
          109 109 109 109 109 109
          109 109 109 109 109 109
          109 109 109 109 109 109
          109 109 109 109 109 109
          109 109 109 109 109 109
          109 109 109 109 109 109
          109 109 109 109 109 109
          109 109 109 109 109 109
          109 109 109 109 109 109
          109 109 109 109 109 109
          109 109 109 109 109 109
          109 109 109 109 109 109
          109 109 109 109 109 109
          109 109 109 109 109 109
          109 109 109 109 109 109
          109 109 109 109 109 109
          109 109 109 109 109 109
          109 109 109 109 109 109
          109 109 109 109 110 110
          110 110 110 110 110 110
          110 110 110 110 110 110
          110 110 110 110 110 110
          110 110 110 110 110 110
          110 110 110 110 110 110
          110 110 110 110 110 110
          110 110 110 110 110 110
          110 110 110 110 110 110
          110 110 110 110 110 110
          110 110 110 110 110 110
          110 110 110 110 110 110
          110 110 110 110 110 110
          110 110 110 110 110 110
          110 110 110 110 110 110
          110 110 110 110 110 110
          110 110 110 110 110 110
          110 110 110 110 110 110
          110 110 110 110 110 110
          110 110 110 110 110 110
          110 110 110 110 110 110
          110 110 110 110 110 110
          110 110 110 110 110 110
          110 110 110 110 110 110
          110 110 110 110 110 110
          110 110 110 110 110 110
          110 110 110 110 110 110
          110 110 110 110
        </DataArray>
        <DataArray type="Int32" Name="processor_id" format="ascii" RangeMin="0" RangeMax="0">
          0 0 0 0 0 0
          0 0 0 0 0 0
          0 0 0 0 0 0
          0 0 0 0 0 0
          0 0 0 0 0 0
          0 0 0 0 0 0
          0 0 0 0 0 0
          0 0 0 0 0 0
          0 0 0 0 0 0
          0 0 0 0 0 0
          0 0 0 0 0 0
          0 0 0 0 0 0
          0 0 0 0 0 0
          0 0 0 0 0 0
          0 0 0 0 0 0
          0 0 0 0 0 0
          0 0 0 0 0 0
          0 0 0 0 0 0
          0 0 0 0 0 0
          0 0 0 0 0 0
          0 0 0 0 0 0
          0 0 0 0 0 0
          0 0 0 0 0 0
          0 0 0 0 0 0
          0 0 0 0 0 0
          0 0 0 0 0 0
          0 0 0 0 0 0
          0 0 0 0 0 0
          0 0 0 0 0 0
          0 0 0 0 0 0
          0 0 0 0 0 0
          0 0 0 0 0 0
          0 0 0 0 0 0
          0 0 0 0 0 0
          0 0 0 0 0 0
          0 0 0 0 0 0
          0 0 0 0 0 0
          0 0 0 0 0 0
          0 0 0 0 0 0
          0 0 0 0 0 0
          0 0 0 0 0 0
          0 0 0 0 0 0
          0 0 0 0 0 0
          0 0 0 0 0 0
          0 0 0 0 0 0
          0 0 0 0 0 0
          0 0 0 0 0 0
          0 0 0 0 0 0
          0 0 0 0 0 0
          0 0 0 0 0 0
          0 0 0 0 0 0
          0 0 0 0 0 0
          0 0 0 0 0 0
          0 0 0 0 0 0
          0 0 0 0 0 0
          0 0 0 0 0 0
          0 0 0 0 0 0
          0 0 0 0 0 0
          0 0 0 0 0 0
          0 0 0 0 0 0
          0 0 0 0 0 0
          0 0 0 0 0 0
          0 0 0 0 0 0
          0 0 0 0 0 0
          0 0 0 0 0 0
          0 0 0 0 0 0
          0 0 0 0 0 0
          0 0 0 0 0 0
          0 0 0 0 0 0
          0 0 0 0 0 0
          0 0 0 0 0 0
          0 0 0 0 0 0
          0 0 0 0 0 0
          0 0 0 0 0 0
          0 0 0 0 0 0
          0 0 0 0
        </DataArray>
      </CellData>
      <Points>
        <DataArray type="Float64" Name="Points" NumberOfComponents="3" format="ascii" RangeMin="0.019949534490770096" RangeMax="0.057059767276955435">
          0.025 0.010111111111103 0 0.025 0.011555555555552 0
          0.023969654121399 0.011643457228511 0 0.023712354871128 0.010827306146479 0
          0.025 0.010111111111103 0.00015 0.025 0.011555555555552 0.00015
          0.023969654121399 0.011643457228511 0.00015 0.023712354871128 0.010827306146479 0.00015
          0.025 0.010111111111103 0.0003 0.025 0.011555555555552 0.0003
          0.023969654121399 0.011643457228511 0.0003 0.023712354871128 0.010827306146479 0.0003
          0.021832836898909 0.0086447924127183 0 0.021823224979211 0.0078559681587773 0
          0.022737846371709 0.0079006862580081 0 0.022634898807434 0.0088549234284915 0
          0.021832836898909 0.0086447924127183 0.00015 0.021823224979211 0.0078559681587773 0.00015
          0.022737846371709 0.0079006862580081 0.00015 0.022634898807434 0.0088549234284915 0.00015
          0.021832836898909 0.0086447924127183 0.0003 0.021823224979211 0.0078559681587773 0.0003
          0.022737846371709 0.0079006862580081 0.0003 0.022634898807434 0.0088549234284915 0.0003
          0.023595500831214 0.0092794942281182 0 0.023071107871262 0.010124307969263 0
          0.023595500831214 0.0092794942281182 0.00015 0.023071107871262 0.010124307969263 0.00015
          0.023595500831214 0.0092794942281182 0.0003 0.023071107871262 0.010124307969263 0.0003
          0.022679909737796 0.0068405181074087 0 0.023816654948859 0.0069324696013164 0
          0.023805320189621 0.0081867285281858 0 0.022679909737796 0.0068405181074087 0.00015
          0.023816654948859 0.0069324696013164 0.00015 0.023805320189621 0.0081867285281858 0.00015
          0.022679909737796 0.0068405181074087 0.0003 0.023816654948859 0.0069324696013164 0.0003
          0.023805320189621 0.0081867285281858 0.0003 0.021890570917318 0.011219591567605 0
          0.021490495874743 0.011513015985888 0 0.020878683694742 0.011349585571751 0
          0.021380466308845 0.010767094219468 0 0.021890570917318 0.011219591567605 0.00015
          0.021490495874743 0.011513015985888 0.00015 0.020878683694742 0.011349585571751 0.00015
          0.021380466308845 0.010767094219468 0.00015 0.021890570917318 0.011219591567605 0.0003
          0.021490495874743 0.011513015985888 0.0003 0.020878683694742 0.011349585571751 0.0003
          0.021380466308845 0.010767094219468 0.0003 0.022336312736143 0.012467557709352 0
          0.021763745105177 0.012476629724541 0 0.021622459990569 0.011931223094182 0
          0.02233098651665 0.011816769005978 0 0.022336312736143 0.012467557709352 0.00015
          0.021763745105177 0.012476629724541 0.00015 0.021622459990569 0.011931223094182 0.00015
          0.02233098651665 0.011816769005978 0.00015 0.022336312736143 0.012467557709352 0.0003
          0.021763745105177 0.012476629724541 0.0003 0.021622459990569 0.011931223094182 0.0003
          0.02233098651665 0.011816769005978 0.0003 0.021047379294988 0.0079667793778881 0
          0.020813290684512 0.007243328880283 0 0.021666975794544 0.0069715825078724 0
          0.021047379294988 0.0079667793778881 0.00015 0.020813290684512 0.007243328880283 0.00015
          0.021666975794544 0.0069715825078724 0.00015 0.021047379294988 0.0079667793778881 0.0003
          0.020813290684512 0.007243328880283 0.0003 0.021666975794544 0.0069715825078724 0.0003
          0.025 0.0086666666666559 0 0.025 0.0086666666666559 0.00015
          0.025 0.0086666666666559 0.0003 0.021356284292895 0.0061182113295331 0
          0.020489019208248 0.0065103794253073 0 0.021356284292895 0.0061182113295331 0.00015
          0.020489019208248 0.0065103794253073 0.00015 0.021356284292895 0.0061182113295331 0.0003
          0.020489019208248 0.0065103794253073 0.0003 0.025 0.0072222222222063 0
          0.023829479378086 0.0056593315311521 0 0.025 0.0072222222222063 0.00015
          0.023829479378086 0.0056593315311521 0.00015 0.025 0.0072222222222063 0.0003
          0.023829479378086 0.0056593315311521 0.0003 0.019357361519954 0.01157618305141 0
          0.01884046117173 0.011223113854601 0 0.019357361519954 0.01157618305141 0.00015
          0.01884046117173 0.011223113854601 0.00015 0.019357361519954 0.01157618305141 0.0003
          0.01884046117173 0.011223113854601 0.0003 0.020274347850796 0.01080512315655 0
          0.019692191057164 0.010418143528135 0 0.020104676199583 0.0097475599042502 0
          0.020792052735599 0.010316149813733 0 0.020274347850796 0.01080512315655 0.00015
          0.019692191057164 0.010418143528135 0.00015 0.020104676199583 0.0097475599042502 0.00015
          0.020792052735599 0.010316149813733 0.00015 0.020274347850796 0.01080512315655 0.0003
          0.019692191057164 0.010418143528135 0.0003 0.020104676199583 0.0097475599042502 0.0003
          0.020792052735599 0.010316149813733 0.0003 0.018734278863615 0.0068564365277259 0
          0.018734278863615 0.0068564365277259 0.00015 0.018734278863615 0.0068564365277259 0.0003
          0.018384253973557 0.010894663204421 0 0.018384253973557 0.010894663204421 0.00015
          0.018384253973557 0.010894663204421 0.0003 0.022477642087048 0.0055533155338694 0
          0.022477642087048 0.0055533155338694 0.00015 0.022477642087048 0.0055533155338694 0.0003
          0.022333445868241 0.0096250088550796 0 0.021678233976573 0.0092839168226163 0
          0.022333445868241 0.0096250088550796 0.00015 0.021678233976573 0.0092839168226163 0.00015
          0.022333445868241 0.0096250088550796 0.0003 0.021678233976573 0.0092839168226163 0.0003
          0.018696511924608 0.0075816988835645 0 0.019307778433714 0.0076950261479263 0
          0.019244919669154 0.0083241905034728 0 0.018643245907353 0.0082916041839039 0
          0.018696511924608 0.0075816988835645 0.00015 0.019307778433714 0.0076950261479263 0.00015
          0.019244919669154 0.0083241905034728 0.00015 0.018643245907353 0.0082916041839039 0.00015
          0.018696511924608 0.0075816988835645 0.0003 0.019307778433714 0.0076950261479263 0.0003
          0.019244919669154 0.0083241905034728 0.0003 0.018643245907353 0.0082916041839039 0.0003
          0.02247089481133 0.010746063389313 0 0.022956441030322 0.011313723369763 0
          0.02247089481133 0.010746063389313 0.00015 0.022956441030322 0.011313723369763 0.00015
          0.02247089481133 0.010746063389313 0.0003 0.022956441030322 0.011313723369763 0.0003
          0.018817000838468 0.010560792840001 0 0.018817000838468 0.010560792840001 0.00015
          0.018817000838468 0.010560792840001 0.0003 0.021028725472558 0.011993213484042 0
          0.021028725472558 0.011993213484042 0.00015 0.021028725472558 0.011993213484042 0.0003
          0.018719100515555 0.0096191331103102 0 0.018769006148643 0.010016813571171 0
          0.018719100515555 0.0096191331103102 0.00015 0.018769006148643 0.010016813571171 0.00015
          0.018719100515555 0.0096191331103102 0.0003 0.018769006148643 0.010016813571171 0.0003
          0.022845614094026 0.012068678060928 0 0.022870050818517 0.012481997757377 0
          0.022845614094026 0.012068678060928 0.00015 0.022870050818517 0.012481997757377 0.00015
          0.022845614094026 0.012068678060928 0.0003 0.022870050818517 0.012481997757377 0.0003
          0.01980903614198 0.0082923028866096 0 0.019733887771193 0.007830319872041 0
          0.01980903614198 0.0082923028866096 0.00015 0.019733887771193 0.007830319872041 0.00015
          0.01980903614198 0.0082923028866096 0.0003 0.019733887771193 0.007830319872041 0.0003
          0.019287865107188 0.010870204720027 0 0.019287865107188 0.010870204720027 0.00015
          0.019287865107188 0.010870204720027 0.0003 0.019611341590458 0.0069319215290848 0
          0.019611341590458 0.0069319215290848 0.00015 0.019611341590458 0.0069319215290848 0.0003
          0.019793192887703 0.011218191570876 0 0.019793192887703 0.011218191570876 0.00015
          0.019793192887703 0.011218191570876 0.0003 0.02014052068744 0.0075597001530957 0
          0.02014052068744 0.0075597001530957 0.00015 0.02014052068744 0.0075597001530957 0.0003
          0.019142781766586 0.010156284019367 0 0.019142781766586 0.010156284019367 0.00015
          0.019142781766586 0.010156284019367 0.0003 0.019871794871807 0.013 0
          0.019671681078705 0.012567114388191 0 0.019871794871807 0.013 0.00015
          0.019671681078705 0.012567114388191 0.00015 0.019871794871807 0.013 0.0003
          0.019671681078705 0.012567114388191 0.0003 0.02189605775595 0.01024368797285 0
          0.02189605775595 0.01024368797285 0.00015 0.02189605775595 0.01024368797285 0.0003
          0.021306208963658 0.0098107932917518 0 0.020830530356293 0.0093484326970494 0
          0.021306208963658 0.0098107932917518 0.00015 0.020830530356293 0.0093484326970494 0.00015
          0.021306208963658 0.0098107932917518 0.0003 0.020830530356293 0.0093484326970494 0.0003
          0.019927087042343 0.0089401115508047 0 0.019284140679376 0.0089915496868705 0
          0.019927087042343 0.0089401115508047 0.00015 0.019284140679376 0.0089915496868705 0.00015
          0.019927087042343 0.0089401115508047 0.0003 0.019284140679376 0.0089915496868705 0.0003
          0.023272296973232 0.01187913061167 0 0.023408043049707 0.012441583397961 0
          0.023272296973232 0.01187913061167 0.00015 0.023408043049707 0.012441583397961 0.00015
          0.023272296973232 0.01187913061167 0.0003 0.023408043049707 0.012441583397961 0.0003
          0.019291729405334 0.009640079412969 0 0.019291729405334 0.009640079412969 0.00015
          0.019291729405334 0.009640079412969 0.0003 0.019497075330812 0.012129782091497 0
          0.019497075330812 0.012129782091497 0.00015 0.019497075330812 0.012129782091497 0.0003
          0.018655444813331 0.0089912542068827 0 0.018655444813331 0.0089912542068827 0.00015
          0.018655444813331 0.0089912542068827 0.0003 0.020217772280624 0.01161574996656 0
          0.019866459267603 0.011787315550137 0 0.020217772280624 0.01161574996656 0.00015
          0.019866459267603 0.011787315550137 0.00015 0.020217772280624 0.01161574996656 0.0003
          0.019866459267603 0.011787315550137 0.0003 0.020169909004412 0.012559422291794 0
          0.020384615384626 0.013 0 0.020169909004412 0.012559422291794 0.00015
          0.020384615384626 0.013 0.00015 0.020169909004412 0.012559422291794 0.0003
          0.020384615384626 0.013 0.0003 0.02048968364866 0.012063778985416 0
          0.021216890903006 0.012503701361908 0 0.020684692364028 0.012535095885709 0
          0.02048968364866 0.012063778985416 0.00015 0.021216890903006 0.012503701361908 0.00015
          0.020684692364028 0.012535095885709 0.00015 0.02048968364866 0.012063778985416 0.0003
          0.021216890903006 0.012503701361908 0.0003 0.020684692364028 0.012535095885709 0.0003
          0.020897435897446 0.013 0 0.020897435897446 0.013 0.00015
          0.020897435897446 0.013 0.0003 0.020387511226442 0.0081443073342907 0
          0.02056343795537 0.0087688297792787 0 0.020387511226442 0.0081443073342907 0.00015
          0.02056343795537 0.0087688297792787 0.00015 0.020387511226442 0.0081443073342907 0.0003
          0.02056343795537 0.0087688297792787 0.0003 0.023967653117571 0.012391671962311 0
          0.024322147732379 0.012509260561901 0 0.023967653117571 0.012391671962311 0.00015
          0.024322147732379 0.012509260561901 0.00015 0.023967653117571 0.012391671962311 0.0003
          0.024322147732379 0.012509260561901 0.0003 0.021410256410266 0.013 0
          0.021410256410266 0.013 0.00015 0.021410256410266 0.013 0.0003
          0.019993073529409 0.012116879865089 0 0.019993073529409 0.012116879865089 0.00015
          0.019993073529409 0.012116879865089 0.0003 0.02122910202584 0.0090825003429501 0
          0.02122910202584 0.0090825003429501 0.00015 0.02122910202584 0.0090825003429501 0.0003
          0.022948717948721 0.013 0 0.022435897435903 0.013 0
          0.022948717948721 0.013 0.00015 0.022435897435903 0.013 0.00015
          0.022948717948721 0.013 0.0003 0.022435897435903 0.013 0.0003
          0.021923076923085 0.013 0 0.021923076923085 0.013 0.00015
          0.021923076923085 0.013 0.0003 0.023461538461539 0.013 0
          0.023461538461539 0.013 0.00015 0.023461538461539 0.013 0.0003
          0.021171209164951 0.0086229949315581 0 0.021171209164951 0.0086229949315581 0.00015
          0.021171209164951 0.0086229949315581 0.0003 0.023974358974358 0.013 0
          0.023974358974358 0.013 0.00015 0.023974358974358 0.013 0.0003
          0.024487179487177 0.013 0 0.024487179487177 0.013 0.00015
          0.024487179487177 0.013 0.0003 0.025 0.013 0
          0.025 0.013 0.00015 0.025 0.013 0.0003
          0.026666666666667 0.0072222222222063 0 0.026666666666667 0.0072222222222063 0.00015
          0.026666666666667 0.0072222222222063 0.0003 0.026666666666668 0.0086666666666559 0
          0.026666666666668 0.0086666666666559 0.00015 0.026666666666668 0.0086666666666559 0.0003
          0.026666666666669 0.010111111111103 0 0.026666666666669 0.010111111111103 0.00015
          0.026666666666669 0.010111111111103 0.0003 0.026666666666669 0.011555555555552 0
          0.026666666666669 0.011555555555552 0.00015 0.026666666666669 0.011555555555552 0.0003
          0.02666666666667 0.013 0 0.02666666666667 0.013 0.00015
          0.02666666666667 0.013 0.0003 0.033201501647561 0.0014698753983525 0
          0.033179797338052 0 0 0.033201501647561 0.0014698753983525 0.00015
          0.033179797338052 0 0.00015 0.033201501647561 0.0014698753983525 0.0003
          0.033179797338052 0 0.0003 0.034800103200053 0.0015015548376625 0
          0.034769696007096 0 0 0.034800103200053 0.0015015548376625 0.00015
          0.034769696007096 0 0.00015 0.034800103200053 0.0015015548376625 0.0003
          0.034769696007096 0 0.0003 0.03639613666046 0.0015457026119765 0
          0.036359594676111 0 0 0.03639613666046 0.0015457026119765 0.00015
          0.036359594676111 0 0.00015 0.03639613666046 0.0015457026119765 0.0003
          0.036359594676111 0 0.0003 0.037988764334349 0.001602116400018 0
          0.037949493345121 0 0 0.037988764334349 0.001602116400018 0.00015
          0.037949493345121 0 0.00015 0.037988764334349 0.001602116400018 0.0003
          0.037949493345121 0 0.0003 0.039577164134098 0.001670537667151 0
          0.039539392014149 0 0 0.039577164134098 0.001670537667151 0.00015
          0.039539392014149 0 0.00015 0.039577164134098 0.001670537667151 0.0003
          0.039539392014149 0 0.0003 0.041160533348121 0.0017506528505884 0
          0.041129290683195 0 0 0.041160533348121 0.0017506528505884 0.00015
          0.041129290683195 0 0.00015 0.041160533348121 0.0017506528505884 0.0003
          0.041129290683195 0 0.0003 0.042738092320879 0.0018420947973532 0
          0.042719189352233 0 0 0.042738092320879 0.0018420947973532 0.00015
          0.042719189352233 0 0.00015 0.042738092320879 0.0018420947973532 0.0003
          0.042719189352233 0 0.0003 0.044309088021254 0.0019444444444413 0
          0.044309088021254 0 0 0.044309088021254 0.0019444444444413 0.00015
          0.044309088021254 0 0.00015 0.044309088021254 0.0019444444444413 0.0003
          0.044309088021254 0 0.0003 0.033223205957069 0.0029397507967035 0
          0.033223205957069 0.0029397507967035 0.00015 0.033223205957069 0.0029397507967035 0.0003
          0.03483051039301 0.0030031096753234 0 0.03483051039301 0.0030031096753234 0.00015
          0.03483051039301 0.0030031096753234 0.0003 0.036432678644808 0.0030914052239513 0
          0.036432678644808 0.0030914052239513 0.00015 0.036432678644808 0.0030914052239513 0.0003
          0.038028035323577 0.0032042328000343 0 0.038028035323577 0.0032042328000343 0.00015
          0.038028035323577 0.0032042328000343 0.0003 0.039614936254047 0.0033410753343001 0
          0.039614936254047 0.0033410753343001 0.00015 0.039614936254047 0.0033410753343001 0.0003
          0.041191776013048 0.0035013057011749 0 0.041191776013048 0.0035013057011749 0.00015
          0.041191776013048 0.0035013057011749 0.0003 0.042756995289524 0.0036841895947044 0
          0.042756995289524 0.0036841895947044 0.00015 0.042756995289524 0.0036841895947044 0.0003
          0.044309088021254 0.0038888888888803 0 0.044309088021254 0.0038888888888803 0.00015
          0.044309088021254 0.0038888888888803 0.0003 0.033244910266578 0.0044096261950543 0
          0.033244910266578 0.0044096261950543 0.00015 0.033244910266578 0.0044096261950543 0.0003
          0.034860917585967 0.004504664512984 0 0.034860917585967 0.004504664512984 0.00015
          0.034860917585967 0.004504664512984 0.0003 0.036469220629156 0.0046371078359259 0
          0.036469220629156 0.0046371078359259 0.00015 0.036469220629156 0.0046371078359259 0.0003
          0.038067306312805 0.0048063492000502 0 0.038067306312805 0.0048063492000502 0.00015
          0.038067306312805 0.0048063492000502 0.0003 0.039652708373995 0.0050116130014489 0
          0.039652708373995 0.0050116130014489 0.00015 0.039652708373995 0.0050116130014489 0.0003
          0.041223018677975 0.005251958551761 0 0.041223018677975 0.005251958551761 0.00015
          0.041223018677975 0.005251958551761 0.0003 0.04277589825817 0.0055262843920551 0
          0.04277589825817 0.0055262843920551 0.00015 0.04277589825817 0.0055262843920551 0.0003
          0.044309088021254 0.0058333333333189 0 0.044309088021254 0.0058333333333189 0.00015
          0.044309088021254 0.0058333333333189 0.0003 0.033266614576087 0.0058795015934051 0
          0.033266614576087 0.0058795015934051 0.00015 0.033266614576087 0.0058795015934051 0.0003
          0.034891324778924 0.0060062193506447 0 0.034891324778924 0.0060062193506447 0.00015
          0.034891324778924 0.0060062193506447 0.0003 0.036505762613504 0.0061828104479004 0
          0.036505762613504 0.0061828104479004 0.00015 0.036505762613504 0.0061828104479004 0.0003
          0.038106577302032 0.0064084656000662 0 0.038106577302032 0.0064084656000662 0.00015
          0.038106577302032 0.0064084656000662 0.0003 0.039690480493944 0.0066821506685977 0
          0.039690480493944 0.0066821506685977 0.00015 0.039690480493944 0.0066821506685977 0.0003
          0.041254261342902 0.0070026114023471 0 0.041254261342902 0.0070026114023471 0.00015
          0.041254261342902 0.0070026114023471 0.0003 0.042794801226816 0.0073683791894058 0
          0.042794801226816 0.0073683791894058 0.00015 0.042794801226816 0.0073683791894058 0.0003
          0.044309088021254 0.0077777777777574 0 0.044309088021254 0.0077777777777574 0.00015
          0.044309088021254 0.0077777777777574 0.0003 0.033288318885596 0.0073493769917596 0
          0.033288318885596 0.0073493769917596 0.00015 0.033288318885596 0.0073493769917596 0.0003
          0.034921731971881 0.0075077741883091 0 0.034921731971881 0.0075077741883091 0.00015
          0.034921731971881 0.0075077741883091 0.0003 0.036542304597852 0.0077285130598789 0
          0.036542304597852 0.0077285130598789 0.00015 0.036542304597852 0.0077285130598789 0.0003
          0.03814584829126 0.0080105820000862 0 0.03814584829126 0.0080105820000862 0.00015
          0.03814584829126 0.0080105820000862 0.0003 0.039728252613893 0.0083526883357508 0
          0.039728252613893 0.0083526883357508 0.00015 0.039728252613893 0.0083526883357508 0.0003
          0.041285504007829 0.0087532642529377 0 0.041285504007829 0.0087532642529377 0.00015
          0.041285504007829 0.0087532642529377 0.0003 0.042813704195461 0.0092104739867613 0
          0.042813704195461 0.0092104739867613 0.00015 0.042813704195461 0.0092104739867613 0.0003
          0.044309088021254 0.0097222222222011 0 0.044309088021254 0.0097222222222011 0.00015
          0.044309088021254 0.0097222222222011 0.0003 0.031657595460571 0.0087048568522863 0
          0.031657595460571 0.0087048568522863 0.00015 0.031657595460571 0.0087048568522863 0.0003
          0.033310023195106 0.0088192523901195 0 0.033310023195106 0.0088192523901195 0.00015
          0.033310023195106 0.0088192523901195 0.0003 0.034952139164838 0.009009329025979 0
          0.034952139164838 0.009009329025979 0.00015 0.034952139164838 0.009009329025979 0.0003
          0.0365788465822 0.0092742156718627 0 0.0365788465822 0.0092742156718627 0.00015
          0.0365788465822 0.0092742156718627 0.0003 0.038185119280488 0.0096126984001116 0
          0.038185119280488 0.0096126984001116 0.00015 0.038185119280488 0.0096126984001116 0.0003
          0.039766024733842 0.010023226002909 0 0.039766024733842 0.010023226002909 0.00015
          0.039766024733842 0.010023226002909 0.0003 0.041316746672756 0.010503917103534 0
          0.041316746672756 0.010503917103534 0.00015 0.041316746672756 0.010503917103534 0.0003
          0.042832607164107 0.011052568784123 0 0.042832607164107 0.011052568784123 0.00015
          0.042832607164107 0.011052568784123 0.0003 0.044309088021254 0.011666666666651 0
          0.044309088021254 0.011666666666651 0.00015 0.044309088021254 0.011666666666651 0.0003
          0.031668878259163 0.010155666327672 0 0.031668878259163 0.010155666327672 0.00015
          0.031668878259163 0.010155666327672 0.0003 0.033331727504615 0.010289127788478 0
          0.033331727504615 0.010289127788478 0.00015 0.033331727504615 0.010289127788478 0.0003
          0.034982546357795 0.010510883863647 0 0.034982546357795 0.010510883863647 0.00015
          0.034982546357795 0.010510883863647 0.0003 0.036615388566549 0.010819918283845 0
          0.036615388566549 0.010819918283845 0.00015 0.036615388566549 0.010819918283845 0.0003
          0.038224390269716 0.011214814800136 0 0.038224390269716 0.011214814800136 0.00015
          0.038224390269716 0.011214814800136 0.0003 0.039803796853791 0.011693763670067 0
          0.039803796853791 0.011693763670067 0.00015 0.039803796853791 0.011693763670067 0.0003
          0.041347989337683 0.012254569954129 0 0.041347989337683 0.012254569954129 0.00015
          0.041347989337683 0.012254569954129 0.0003 0.042851510132752 0.012894663581483 0
          0.042851510132752 0.012894663581483 0.00015 0.042851510132752 0.012894663581483 0.0003
          0.044309088021254 0.0136111111111 0 0.044309088021254 0.0136111111111 0.00015
          0.044309088021254 0.0136111111111 0.0003 0.031680161057755 0.011606475803059 0
          0.031680161057755 0.011606475803059 0.00015 0.031680161057755 0.011606475803059 0.0003
          0.033353431814124 0.011759003186837 0 0.033353431814124 0.011759003186837 0.00015
          0.033353431814124 0.011759003186837 0.0003 0.035012953550752 0.012012438701317 0
          0.035012953550752 0.012012438701317 0.00015 0.035012953550752 0.012012438701317 0.0003
          0.036651930550897 0.012365620895829 0 0.036651930550897 0.012365620895829 0.00015
          0.036651930550897 0.012365620895829 0.0003 0.038263661258944 0.012816931200161 0
          0.038263661258944 0.012816931200161 0.00015 0.038263661258944 0.012816931200161 0.0003
          0.03984156897374 0.013364301337225 0 0.03984156897374 0.013364301337225 0.00015
          0.03984156897374 0.013364301337225 0.0003 0.04137923200261 0.014005222804725 0
          0.04137923200261 0.014005222804725 0.00015 0.04137923200261 0.014005222804725 0.0003
          0.042870413101398 0.014736758378844 0 0.042870413101398 0.014736758378844 0.00015
          0.042870413101398 0.014736758378844 0.0003 0.044309088021254 0.015555555555549 0
          0.044309088021254 0.015555555555549 0.00015 0.044309088021254 0.015555555555549 0.0003
          0.031691443856347 0.013057285278446 0 0.031691443856347 0.013057285278446 0.00015
          0.031691443856347 0.013057285278446 0.0003 0.033375136123633 0.013228878585196 0
          0.033375136123633 0.013228878585196 0.00015 0.033375136123633 0.013228878585196 0.0003
          0.035043360743709 0.013513993538986 0 0.035043360743709 0.013513993538986 0.00015
          0.035043360743709 0.013513993538986 0.0003 0.036688472535245 0.013911323507812 0
          0.036688472535245 0.013911323507812 0.00015 0.036688472535245 0.013911323507812 0.0003
          0.038302932248172 0.014419047600187 0 0.038302932248172 0.014419047600187 0.00015
          0.038302932248172 0.014419047600187 0.0003 0.039879341093689 0.015034839004384 0
          0.039879341093689 0.015034839004384 0.00015 0.039879341093689 0.015034839004384 0.0003
          0.041410474667538 0.015755875655322 0 0.041410474667538 0.015755875655322 0.00015
          0.041410474667538 0.015755875655322 0.0003 0.042889316070044 0.016578853176207 0
          0.042889316070044 0.016578853176207 0.00015 0.042889316070044 0.016578853176207 0.0003
          0.044309088021254 0.0175 0 0.044309088021254 0.0175 0.00015
          0.044309088021254 0.0175 0.0003 0.045420199132363 0 0
          0.045420199132363 0.0019444444444413 0 0.045420199132363 0 0.00015
          0.045420199132363 0.0019444444444413 0.00015 0.045420199132363 0 0.0003
          0.045420199132363 0.0019444444444413 0.0003 0.045420199132363 0.0038888888888803 0
          0.045420199132363 0.0038888888888803 0.00015 0.045420199132363 0.0038888888888803 0.0003
          0.045420199132363 0.0058333333333189 0 0.045420199132363 0.0058333333333189 0.00015
          0.045420199132363 0.0058333333333189 0.0003 0.045420199132363 0.0077777777777574 0
          0.045420199132363 0.0077777777777574 0.00015 0.045420199132363 0.0077777777777574 0.0003
          0.045420199132363 0.0097222222222011 0 0.045420199132363 0.0097222222222011 0.00015
          0.045420199132363 0.0097222222222011 0.0003 0.045420199132363 0.011666666666651 0
          0.045420199132363 0.011666666666651 0.00015 0.045420199132363 0.011666666666651 0.0003
          0.045420199132363 0.0136111111111 0 0.045420199132363 0.0136111111111 0.00015
          0.045420199132363 0.0136111111111 0.0003 0.045420199132363 0.015555555555549 0
          0.045420199132363 0.015555555555549 0.00015 0.045420199132363 0.015555555555549 0.0003
          0.045420199132363 0.0175 0 0.045420199132363 0.0175 0.00015
          0.045420199132363 0.0175 0.0003 0.046531310243475 0 0
          0.046531310243475 0.0019444444444413 0 0.046531310243475 0 0.00015
          0.046531310243475 0.0019444444444413 0.00015 0.046531310243475 0 0.0003
          0.046531310243475 0.0019444444444413 0.0003 0.046531310243475 0.0038888888888803 0
          0.046531310243475 0.0038888888888803 0.00015 0.046531310243475 0.0038888888888803 0.0003
          0.046531310243475 0.0058333333333189 0 0.046531310243475 0.0058333333333189 0.00015
          0.046531310243475 0.0058333333333189 0.0003 0.046531310243475 0.0077777777777574 0
          0.046531310243475 0.0077777777777574 0.00015 0.046531310243475 0.0077777777777574 0.0003
          0.046531310243475 0.0097222222222011 0 0.046531310243475 0.0097222222222011 0.00015
          0.046531310243475 0.0097222222222011 0.0003 0.046531310243475 0.011666666666651 0
          0.046531310243475 0.011666666666651 0.00015 0.046531310243475 0.011666666666651 0.0003
          0.046531310243475 0.0136111111111 0 0.046531310243475 0.0136111111111 0.00015
          0.046531310243475 0.0136111111111 0.0003 0.046531310243475 0.015555555555549 0
          0.046531310243475 0.015555555555549 0.00015 0.046531310243475 0.015555555555549 0.0003
          0.046531310243475 0.0175 0 0.046531310243475 0.0175 0.00015
          0.046531310243475 0.0175 0.0003 0.04764242135458 0 0
          0.04764242135458 0.0019444444444413 0 0.04764242135458 0 0.00015
          0.04764242135458 0.0019444444444413 0.00015 0.04764242135458 0 0.0003
          0.04764242135458 0.0019444444444413 0.0003 0.04764242135458 0.0038888888888803 0
          0.04764242135458 0.0038888888888803 0.00015 0.04764242135458 0.0038888888888803 0.0003
          0.04764242135458 0.0058333333333189 0 0.04764242135458 0.0058333333333189 0.00015
          0.04764242135458 0.0058333333333189 0.0003 0.04764242135458 0.0077777777777574 0
          0.04764242135458 0.0077777777777574 0.00015 0.04764242135458 0.0077777777777574 0.0003
          0.04764242135458 0.0097222222222011 0 0.04764242135458 0.0097222222222011 0.00015
          0.04764242135458 0.0097222222222011 0.0003 0.04764242135458 0.011666666666651 0
          0.04764242135458 0.011666666666651 0.00015 0.04764242135458 0.011666666666651 0.0003
          0.04764242135458 0.0136111111111 0 0.04764242135458 0.0136111111111 0.00015
          0.04764242135458 0.0136111111111 0.0003 0.04764242135458 0.015555555555549 0
          0.04764242135458 0.015555555555549 0.00015 0.04764242135458 0.015555555555549 0.0003
          0.04764242135458 0.0175 0 0.04764242135458 0.0175 0.00015
          0.04764242135458 0.0175 0.0003 0.048753532465692 0 0
          0.048753532465692 0.0019444444444413 0 0.048753532465692 0 0.00015
          0.048753532465692 0.0019444444444413 0.00015 0.048753532465692 0 0.0003
          0.048753532465692 0.0019444444444413 0.0003 0.048753532465692 0.0038888888888803 0
          0.048753532465692 0.0038888888888803 0.00015 0.048753532465692 0.0038888888888803 0.0003
          0.048753532465692 0.0058333333333189 0 0.048753532465692 0.0058333333333189 0.00015
          0.048753532465692 0.0058333333333189 0.0003 0.048753532465692 0.0077777777777574 0
          0.048753532465692 0.0077777777777574 0.00015 0.048753532465692 0.0077777777777574 0.0003
          0.048753532465692 0.0097222222222011 0 0.048753532465692 0.0097222222222011 0.00015
          0.048753532465692 0.0097222222222011 0.0003 0.048753532465692 0.011666666666651 0
          0.048753532465692 0.011666666666651 0.00015 0.048753532465692 0.011666666666651 0.0003
          0.048753532465692 0.0136111111111 0 0.048753532465692 0.0136111111111 0.00015
          0.048753532465692 0.0136111111111 0.0003 0.048753532465692 0.015555555555549 0
          0.048753532465692 0.015555555555549 0.00015 0.048753532465692 0.015555555555549 0.0003
          0.048753532465692 0.0175 0 0.048753532465692 0.0175 0.00015
          0.048753532465692 0.0175 0.0003 0.0498646435768 0 0
          0.0498646435768 0.0019444444444413 0 0.0498646435768 0 0.00015
          0.0498646435768 0.0019444444444413 0.00015 0.0498646435768 0 0.0003
          0.0498646435768 0.0019444444444413 0.0003 0.0498646435768 0.0038888888888803 0
          0.0498646435768 0.0038888888888803 0.00015 0.0498646435768 0.0038888888888803 0.0003
          0.0498646435768 0.0058333333333189 0 0.0498646435768 0.0058333333333189 0.00015
          0.0498646435768 0.0058333333333189 0.0003 0.0498646435768 0.0077777777777574 0
          0.0498646435768 0.0077777777777574 0.00015 0.0498646435768 0.0077777777777574 0.0003
          0.0498646435768 0.0097222222222011 0 0.0498646435768 0.0097222222222011 0.00015
          0.0498646435768 0.0097222222222011 0.0003 0.0498646435768 0.011666666666651 0
          0.0498646435768 0.011666666666651 0.00015 0.0498646435768 0.011666666666651 0.0003
          0.0498646435768 0.0136111111111 0 0.0498646435768 0.0136111111111 0.00015
          0.0498646435768 0.0136111111111 0.0003 0.0498646435768 0.015555555555549 0
          0.0498646435768 0.015555555555549 0.00015 0.0498646435768 0.015555555555549 0.0003
          0.0498646435768 0.0175 0 0.0498646435768 0.0175 0.00015
          0.0498646435768 0.0175 0.0003 0.050975754687912 0 0
          0.050975754687912 0.0019444444444413 0 0.050975754687912 0 0.00015
          0.050975754687912 0.0019444444444413 0.00015 0.050975754687912 0 0.0003
          0.050975754687912 0.0019444444444413 0.0003 0.050975754687912 0.0038888888888803 0
          0.050975754687912 0.0038888888888803 0.00015 0.050975754687912 0.0038888888888803 0.0003
          0.050975754687912 0.0058333333333189 0 0.050975754687912 0.0058333333333189 0.00015
          0.050975754687912 0.0058333333333189 0.0003 0.050975754687912 0.0077777777777574 0
          0.050975754687912 0.0077777777777574 0.00015 0.050975754687912 0.0077777777777574 0.0003
          0.050975754687912 0.0097222222222011 0 0.050975754687912 0.0097222222222011 0.00015
          0.050975754687912 0.0097222222222011 0.0003 0.050975754687912 0.011666666666651 0
          0.050975754687912 0.011666666666651 0.00015 0.050975754687912 0.011666666666651 0.0003
          0.050975754687912 0.0136111111111 0 0.050975754687912 0.0136111111111 0.00015
          0.050975754687912 0.0136111111111 0.0003 0.050975754687912 0.015555555555549 0
          0.050975754687912 0.015555555555549 0.00015 0.050975754687912 0.015555555555549 0.0003
          0.050975754687912 0.0175 0 0.050975754687912 0.0175 0.00015
          0.050975754687912 0.0175 0.0003 0.052086865799025 0 0
          0.052086865799025 0.0019444444444413 0 0.052086865799025 0 0.00015
          0.052086865799025 0.0019444444444413 0.00015 0.052086865799025 0 0.0003
          0.052086865799025 0.0019444444444413 0.0003 0.052086865799025 0.0038888888888803 0
          0.052086865799025 0.0038888888888803 0.00015 0.052086865799025 0.0038888888888803 0.0003
          0.052086865799025 0.0058333333333189 0 0.052086865799025 0.0058333333333189 0.00015
          0.052086865799025 0.0058333333333189 0.0003 0.052086865799025 0.0077777777777574 0
          0.052086865799025 0.0077777777777574 0.00015 0.052086865799025 0.0077777777777574 0.0003
          0.052086865799025 0.0097222222222011 0 0.052086865799025 0.0097222222222011 0.00015
          0.052086865799025 0.0097222222222011 0.0003 0.052086865799025 0.011666666666651 0
          0.052086865799025 0.011666666666651 0.00015 0.052086865799025 0.011666666666651 0.0003
          0.052086865799025 0.0136111111111 0 0.052086865799025 0.0136111111111 0.00015
          0.052086865799025 0.0136111111111 0.0003 0.052086865799025 0.015555555555549 0
          0.052086865799025 0.015555555555549 0.00015 0.052086865799025 0.015555555555549 0.0003
          0.052086865799025 0.0175 0 0.052086865799025 0.0175 0.00015
          0.052086865799025 0.0175 0.0003 0.05319797691014 0 0
          0.05319797691014 0.0019444444444413 0 0.05319797691014 0 0.00015
          0.05319797691014 0.0019444444444413 0.00015 0.05319797691014 0 0.0003
          0.05319797691014 0.0019444444444413 0.0003 0.05319797691014 0.0038888888888803 0
          0.05319797691014 0.0038888888888803 0.00015 0.05319797691014 0.0038888888888803 0.0003
          0.05319797691014 0.0058333333333189 0 0.05319797691014 0.0058333333333189 0.00015
          0.05319797691014 0.0058333333333189 0.0003 0.05319797691014 0.0077777777777574 0
          0.05319797691014 0.0077777777777574 0.00015 0.05319797691014 0.0077777777777574 0.0003
          0.05319797691014 0.0097222222222011 0 0.05319797691014 0.0097222222222011 0.00015
          0.05319797691014 0.0097222222222011 0.0003 0.05319797691014 0.011666666666651 0
          0.05319797691014 0.011666666666651 0.00015 0.05319797691014 0.011666666666651 0.0003
          0.05319797691014 0.0136111111111 0 0.05319797691014 0.0136111111111 0.00015
          0.05319797691014 0.0136111111111 0.0003 0.05319797691014 0.015555555555549 0
          0.05319797691014 0.015555555555549 0.00015 0.05319797691014 0.015555555555549 0.0003
          0.05319797691014 0.0175 0 0.05319797691014 0.0175 0.00015
          0.05319797691014 0.0175 0.0003 0.054309088021254 0 0
          0.054309088021254 0.0019444444444413 0 0.054309088021254 0 0.00015
          0.054309088021254 0.0019444444444413 0.00015 0.054309088021254 0 0.0003
          0.054309088021254 0.0019444444444413 0.0003 0.054309088021254 0.0038888888888803 0
          0.054309088021254 0.0038888888888803 0.00015 0.054309088021254 0.0038888888888803 0.0003
          0.054309088021254 0.0058333333333189 0 0.054309088021254 0.0058333333333189 0.00015
          0.054309088021254 0.0058333333333189 0.0003 0.054309088021254 0.0077777777777574 0
          0.054309088021254 0.0077777777777574 0.00015 0.054309088021254 0.0077777777777574 0.0003
          0.054309088021254 0.0097222222222011 0 0.054309088021254 0.0097222222222011 0.00015
          0.054309088021254 0.0097222222222011 0.0003 0.054309088021254 0.011666666666651 0
          0.054309088021254 0.011666666666651 0.00015 0.054309088021254 0.011666666666651 0.0003
          0.054309088021254 0.0136111111111 0 0.054309088021254 0.0136111111111 0.00015
          0.054309088021254 0.0136111111111 0.0003 0.054309088021254 0.015555555555549 0
          0.054309088021254 0.015555555555549 0.00015 0.054309088021254 0.015555555555549 0.0003
          0.054309088021254 0.0175 0 0.054309088021254 0.0175 0.00015
          0.054309088021254 0.0175 0.0003
          <InformationKey name="L2_NORM_RANGE" location="vtkDataArray" length="2">
            <Value index="0">
              0.019949534491
            </Value>
            <Value index="1">
              0.057059767277
            </Value>
          </InformationKey>
        </DataArray>
      </Points>
      <Cells>
        <DataArray type="Int64" Name="connectivity" format="ascii" RangeMin="0" RangeMax="818">
          0 1 2 3 4 5
          6 7 4 5 6 7
          8 9 10 11 12 13
          14 15 16 17 18 19
          16 17 18 19 20 21
          22 23 24 0 3 25
          26 4 7 27 26 4
          7 27 28 8 11 29
          30 31 32 14 33 34
          35 18 33 34 35 18
          36 37 38 22 39 40
          41 42 43 44 45 46
          43 44 45 46 47 48
          49 50 51 52 53 54
          55 56 57 58 55 56
          57 58 59 60 61 62
          13 63 64 65 17 66
          67 68 17 66 67 68
          21 69 70 71 0 24
          32 72 4 26 35 73
          4 26 35 73 8 28
          38 74 24 15 14 32
          26 19 18 35 26 19
          18 35 28 23 22 38
          13 65 30 14 17 68
          33 18 17 68 33 18
          21 71 36 22 93 94
          95 96 97 98 99 100
          97 98 99 100 101 102
          103 104 72 32 31 81
          73 35 34 83 73 35
          34 83 74 38 37 85
          53 40 39 54 57 44
          43 58 57 44 43 58
          61 48 47 62 31 30
          111 82 34 33 112 84
          34 33 112 84 37 36
          113 86 12 15 114 115
          16 19 116 117 16 19
          116 117 20 23 118 119
          120 121 122 123 124 125
          126 127 124 125 126 127
          128 129 130 131 64 76
          75 65 67 78 77 68
          67 78 77 68 70 80
          79 71 132 133 54 39
          134 135 58 43 134 135
          58 43 136 137 62 47
          53 141 41 40 57 142
          45 44 57 142 45 44
          61 143 49 48 111 30
          65 75 112 33 68 77
          112 33 68 77 113 36
          71 79 54 150 151 51
          58 152 153 55 58 152
          153 55 62 154 155 59
          156 122 121 157 158 126
          125 159 158 126 125 159
          160 130 129 161 162 88
          108 138 163 90 109 139
          163 90 109 139 164 92
          110 140 168 87 88 162
          169 89 90 163 169 89
          90 163 170 91 92 164
          121 165 171 157 125 166
          172 159 125 166 172 159
          129 167 173 161 132 39
          42 183 134 43 46 184
          134 43 46 184 136 47
          50 185 186 96 95 187
          188 100 99 189 188 100
          99 189 190 104 103 191
          192 193 122 156 194 195
          126 158 194 195 126 158
          196 197 130 160 183 42
          96 186 184 46 100 188
          184 46 100 188 185 50
          104 190 151 150 198 199
          153 152 200 201 153 152
          200 201 155 154 202 203
          174 145 144 204 175 147
          146 205 175 147 146 205
          176 149 148 206 193 192
          95 204 195 194 99 205
          195 194 99 205 197 196
          103 206 123 122 193 210
          127 126 195 211 127 126
          195 211 131 130 197 212
          93 96 42 41 97 100
          46 45 97 100 46 45
          101 104 50 49 213 214
          87 168 215 216 89 169
          215 216 89 169 217 218
          91 170 178 219 220 177
          180 221 222 179 180 221
          222 179 182 223 224 181
          225 141 226 227 228 142
          229 230 228 142 229 230
          231 143 232 233 120 105
          165 121 124 106 166 125
          124 106 166 125 128 107
          167 129 210 193 204 144
          211 195 205 146 211 195
          205 146 212 197 206 148
          219 227 234 220 221 230
          235 222 221 230 235 222
          223 233 236 224 94 174
          204 95 98 175 205 99
          98 175 205 99 102 176
          206 103 192 156 237 238
          194 158 239 240 194 158
          239 240 196 160 241 242
          243 2 1 244 245 6
          5 246 245 6 5 246
          247 10 9 248 227 226
          249 234 230 229 250 235
          230 229 250 235 233 232
          251 236 238 187 95 192
          240 189 99 194 240 189
          99 194 242 191 103 196
          252 207 87 214 253 208
          89 216 253 208 89 216
          254 209 91 218 187 255
          115 186 189 256 117 188
          189 256 117 188 191 257
          119 190 94 162 138 174
          98 163 139 175 98 163
          139 175 102 164 140 176
          64 63 237 171 67 66
          239 172 67 66 239 172
          70 69 241 173 41 213
          168 93 45 215 169 97
          45 215 169 97 49 217
          170 101 2 198 133 3
          6 200 135 7 6 200
          135 7 10 202 137 11
          25 114 15 24 27 116
          19 26 27 116 19 26
          29 118 23 28 114 183
          186 115 116 184 188 117
          116 184 188 117 118 185
          190 119 51 151 258 259
          55 153 260 261 55 153
          260 261 59 155 262 263
          226 52 264 249 229 56
          265 250 229 56 265 250
          232 60 266 251 198 150
          54 133 200 152 58 135
          200 152 58 135 202 154
          62 137 64 171 165 76
          67 172 166 78 67 172
          166 78 70 173 167 80
          52 51 259 264 56 55
          261 265 56 55 261 265
          60 59 263 266 171 237
          156 157 172 239 158 159
          172 239 158 159 173 241
          160 161 252 214 213 225
          253 216 215 228 253 216
          215 228 254 218 217 231
          151 199 267 258 153 201
          268 260 153 201 268 260
          155 203 269 262 63 13
          12 270 66 17 16 271
          66 17 16 271 69 21
          20 272 270 255 187 238
          271 256 189 240 271 256
          189 240 272 257 191 242
          199 198 2 243 201 200
          6 245 201 200 6 245
          203 202 10 247 225 213
          41 141 228 215 45 142
          228 215 45 142 231 217
          49 143 52 226 141 53
          56 229 142 57 56 229
          142 57 60 232 143 61
          25 132 183 114 27 134
          184 116 27 134 184 116
          29 136 185 118 252 225
          227 219 253 228 230 221
          253 228 230 221 254 231
          233 223 219 178 207 252
          221 180 208 253 221 180
          208 253 223 182 209 254
          25 3 133 132 27 7
          135 134 27 7 135 134
          29 11 137 136 93 168
          162 94 97 169 163 98
          97 169 163 98 101 170
          164 102 270 12 115 255
          271 16 117 256 271 16
          117 256 272 20 119 257
          199 243 273 267 201 245
          274 268 201 245 274 268
          203 247 275 269 63 270
          238 237 66 271 240 239
          66 271 240 239 69 272
          242 241 243 244 276 273
          245 246 277 274 245 246
          277 274 247 248 278 275
          276 244 1 279 277 246
          5 280 277 246 5 280
          278 248 9 281 285 72
          81 282 286 73 83 283
          286 73 83 283 287 74
          85 284 288 0 72 285
          289 4 73 286 289 4
          73 286 290 8 74 287
          291 1 0 288 292 5
          4 289 292 5 4 289
          293 9 8 290 294 279
          1 291 295 280 5 292
          295 280 5 292 296 281
          9 293 303 297 298 304
          305 299 300 306 305 299
          300 306 307 301 302 308
          309 303 304 310 311 305
          306 312 311 305 306 312
          313 307 308 314 315 309
          310 316 317 311 312 318
          317 311 312 318 319 313
          314 320 321 315 316 322
          323 317 318 324 323 317
          318 324 325 319 320 326
          327 321 322 328 329 323
          324 330 329 323 324 330
          331 325 326 332 333 327
          328 334 335 329 330 336
          335 329 330 336 337 331
          332 338 339 333 334 340
          341 335 336 342 341 335
          336 342 343 337 338 344
          348 345 297 303 349 346
          299 305 349 346 299 305
          350 347 301 307 351 348
          303 309 352 349 305 311
          352 349 305 311 353 350
          307 313 354 351 309 315
          355 352 311 317 355 352
          311 317 356 353 313 319
          357 354 315 321 358 355
          317 323 358 355 317 323
          359 356 319 325 360 357
          321 327 361 358 323 329
          361 358 323 329 362 359
          325 331 363 360 327 333
          364 361 329 335 364 361
          329 335 365 362 331 337
          366 363 333 339 367 364
          335 341 367 364 335 341
          368 365 337 343 372 369
          345 348 373 370 346 349
          373 370 346 349 374 371
          347 350 375 372 348 351
          376 373 349 352 376 373
          349 352 377 374 350 353
          378 375 351 354 379 376
          352 355 379 376 352 355
          380 377 353 356 381 378
          354 357 382 379 355 358
          382 379 355 358 383 380
          356 359 384 381 357 360
          385 382 358 361 385 382
          358 361 386 383 359 362
          387 384 360 363 388 385
          361 364 388 385 361 364
          389 386 362 365 390 387
          363 366 391 388 364 367
          391 388 364 367 392 389
          365 368 396 393 369 372
          397 394 370 373 397 394
          370 373 398 395 371 374
          399 396 372 375 400 397
          373 376 400 397 373 376
          401 398 374 377 402 399
          375 378 403 400 376 379
          403 400 376 379 404 401
          377 380 405 402 378 381
          406 403 379 382 406 403
          379 382 407 404 380 383
          408 405 381 384 409 406
          382 385 409 406 382 385
          410 407 383 386 411 408
          384 387 412 409 385 388
          412 409 385 388 413 410
          386 389 414 411 387 390
          415 412 388 391 415 412
          388 391 416 413 389 392
          420 417 393 396 421 418
          394 397 421 418 394 397
          422 419 395 398 423 420
          396 399 424 421 397 400
          424 421 397 400 425 422
          398 401 426 423 399 402
          427 424 400 403 427 424
          400 403 428 425 401 404
          429 426 402 405 430 427
          403 406 430 427 403 406
          431 428 404 407 432 429
          405 408 433 430 406 409
          433 430 406 409 434 431
          407 410 435 432 408 411
          436 433 409 412 436 433
          409 412 437 434 410 413
          438 435 411 414 439 436
          412 415 439 436 412 415
          440 437 413 416 447 444
          417 420 448 445 418 421
          448 445 418 421 449 446
          419 422 450 447 420 423
          451 448 421 424 451 448
          421 424 452 449 422 425
          453 450 423 426 454 451
          424 427 454 451 424 427
          455 452 425 428 456 453
          426 429 457 454 427 430
          457 454 427 430 458 455
          428 431 459 456 429 432
          460 457 430 433 460 457
          430 433 461 458 431 434
          462 459 432 435 463 460
          433 436 463 460 433 436
          464 461 434 437 465 462
          435 438 466 463 436 439
          466 463 436 439 467 464
          437 440 471 468 441 444
          472 469 442 445 472 469
          442 445 473 470 443 446
          474 471 444 447 475 472
          445 448 475 472 445 448
          476 473 446 449 477 474
          447 450 478 475 448 451
          478 475 448 451 479 476
          449 452 480 477 450 453
          481 478 451 454 481 478
          451 454 482 479 452 455
          483 480 453 456 484 481
          454 457 484 481 454 457
          485 482 455 458 486 483
          456 459 487 484 457 460
          487 484 457 460 488 485
          458 461 489 486 459 462
          490 487 460 463 490 487
          460 463 491 488 461 464
          492 489 462 465 493 490
          463 466 493 490 463 466
          494 491 464 467 498 495
          468 471 499 496 469 472
          499 496 469 472 500 497
          470 473 501 498 471 474
          502 499 472 475 502 499
          472 475 503 500 473 476
          504 501 474 477 505 502
          475 478 505 502 475 478
          506 503 476 479 507 504
          477 480 508 505 478 481
          508 505 478 481 509 506
          479 482 510 507 480 483
          511 508 481 484 511 508
          481 484 512 509 482 485
          513 510 483 486 514 511
          484 487 514 511 484 487
          515 512 485 488 516 513
          486 489 517 514 487 490
          517 514 487 490 518 515
          488 491 519 516 489 492
          520 517 490 493 520 517
          490 493 521 518 491 494
          525 522 495 498 526 523
          496 499 526 523 496 499
          527 524 497 500 528 525
          498 501 529 526 499 502
          529 526 499 502 530 527
          500 503 531 528 501 504
          532 529 502 505 532 529
          502 505 533 530 503 506
          534 531 504 507 535 532
          505 508 535 532 505 508
          536 533 506 509 537 534
          507 510 538 535 508 511
          538 535 508 511 539 536
          509 512 540 537 510 513
          541 538 511 514 541 538
          511 514 542 539 512 515
          543 540 513 516 544 541
          514 517 544 541 514 517
          545 542 515 518 546 543
          516 519 547 544 517 520
          547 544 517 520 548 545
          518 521 340 549 550 339
          342 551 552 341 342 551
          552 341 344 553 554 343
          339 550 555 366 341 552
          556 367 341 552 556 367
          343 554 557 368 366 555
          558 390 367 556 559 391
          367 556 559 391 368 557
          560 392 390 558 561 414
          391 559 562 415 391 559
          562 415 392 560 563 416
          414 561 564 438 415 562
          565 439 415 562 565 439
          416 563 566 440 438 564
          567 465 439 565 568 466
          439 565 568 466 440 566
          569 467 465 567 570 492
          466 568 571 493 466 568
          571 493 467 569 572 494
          492 570 573 519 493 571
          574 520 493 571 574 520
          494 572 575 521 519 573
          576 546 520 574 577 547
          520 574 577 547 521 575
          578 548 549 579 580 550
          551 581 582 552 551 581
          582 552 553 583 584 554
          550 580 585 555 552 582
          586 556 552 582 586 556
          554 584 587 557 555 585
          588 558 556 586 589 559
          556 586 589 559 557 587
          590 560 558 588 591 561
          559 589 592 562 559 589
          592 562 560 590 593 563
          561 591 594 564 562 592
          595 565 562 592 595 565
          563 593 596 566 564 594
          597 567 565 595 598 568
          565 595 598 568 566 596
          599 569 567 597 600 570
          568 598 601 571 568 598
          601 571 569 599 602 572
          570 600 603 573 571 601
          604 574 571 601 604 574
          572 602 605 575 573 603
          606 576 574 604 607 577
          574 604 607 577 575 605
          608 578 579 609 610 580
          581 611 612 582 581 611
          612 582 583 613 614 584
          580 610 615 585 582 612
          616 586 582 612 616 586
          584 614 617 587 585 615
          618 588 586 616 619 589
          586 616 619 589 587 617
          620 590 588 618 621 591
          589 619 622 592 589 619
          622 592 590 620 623 593
          591 621 624 594 592 622
          625 595 592 622 625 595
          593 623 626 596 594 624
          627 597 595 625 628 598
          595 625 628 598 596 626
          629 599 597 627 630 600
          598 628 631 601 598 628
          631 601 599 629 632 602
          600 630 633 603 601 631
          634 604 601 631 634 604
          602 632 635 605 603 633
          636 606 604 634 637 607
          604 634 637 607 605 635
          638 608 609 639 640 610
          611 641 642 612 611 641
          642 612 613 643 644 614
          610 640 645 615 612 642
          646 616 612 642 646 616
          614 644 647 617 615 645
          648 618 616 646 649 619
          616 646 649 619 617 647
          650 620 618 648 651 621
          619 649 652 622 619 649
          652 622 620 650 653 623
          621 651 654 624 622 652
          655 625 622 652 655 625
          623 653 656 626 624 654
          657 627 625 655 658 628
          625 655 658 628 626 656
          659 629 627 657 660 630
          628 658 661 631 628 658
          661 631 629 659 662 632
          630 660 663 633 631 661
          664 634 631 661 664 634
          632 662 665 635 633 663
          666 636 634 664 667 637
          634 664 667 637 635 665
          668 638 639 669 670 640
          641 671 672 642 641 671
          672 642 643 673 674 644
          640 670 675 645 642 672
          676 646 642 672 676 646
          644 674 677 647 645 675
          678 648 646 676 679 649
          646 676 679 649 647 677
          680 650 648 678 681 651
          649 679 682 652 649 679
          682 652 650 680 683 653
          651 681 684 654 652 682
          685 655 652 682 685 655
          653 683 686 656 654 684
          687 657 655 685 688 658
          655 685 688 658 656 686
          689 659 657 687 690 660
          658 688 691 661 658 688
          691 661 659 689 692 662
          660 690 693 663 661 691
          694 664 661 691 694 664
          662 692 695 665 663 693
          696 666 664 694 697 667
          664 694 697 667 665 695
          698 668 669 699 700 670
          671 701 702 672 671 701
          702 672 673 703 704 674
          670 700 705 675 672 702
          706 676 672 702 706 676
          674 704 707 677 675 705
          708 678 676 706 709 679
          676 706 709 679 677 707
          710 680 678 708 711 681
          679 709 712 682 679 709
          712 682 680 710 713 683
          681 711 714 684 682 712
          715 685 682 712 715 685
          683 713 716 686 684 714
          717 687 685 715 718 688
          685 715 718 688 686 716
          719 689 687 717 720 690
          688 718 721 691 688 718
          721 691 689 719 722 692
          690 720 723 693 691 721
          724 694 691 721 724 694
          692 722 725 695 693 723
          726 696 694 724 727 697
          694 724 727 697 695 725
          728 698 699 729 730 700
          701 731 732 702 701 731
          732 702 703 733 734 704
          700 730 735 705 702 732
          736 706 702 732 736 706
          704 734 737 707 705 735
          738 708 706 736 739 709
          706 736 739 709 707 737
          740 710 708 738 741 711
          709 739 742 712 709 739
          742 712 710 740 743 713
          711 741 744 714 712 742
          745 715 712 742 745 715
          713 743 746 716 714 744
          747 717 715 745 748 718
          715 745 748 718 716 746
          749 719 717 747 750 720
          718 748 751 721 718 748
          751 721 719 749 752 722
          720 750 753 723 721 751
          754 724 721 751 754 724
          722 752 755 725 723 753
          756 726 724 754 757 727
          724 754 757 727 725 755
          758 728 729 759 760 730
          731 761 762 732 731 761
          762 732 733 763 764 734
          730 760 765 735 732 762
          766 736 732 762 766 736
          734 764 767 737 735 765
          768 738 736 766 769 739
          736 766 769 739 737 767
          770 740 738 768 771 741
          739 769 772 742 739 769
          772 742 740 770 773 743
          741 771 774 744 742 772
          775 745 742 772 775 745
          743 773 776 746 744 774
          777 747 745 775 778 748
          745 775 778 748 746 776
          779 749 747 777 780 750
          748 778 781 751 748 778
          781 751 749 779 782 752
          750 780 783 753 751 781
          784 754 751 781 784 754
          752 782 785 755 753 783
          786 756 754 784 787 757
          754 784 787 757 755 785
          788 758 759 789 790 760
          761 791 792 762 761 791
          792 762 763 793 794 764
          760 790 795 765 762 792
          796 766 762 792 796 766
          764 794 797 767 765 795
          798 768 766 796 799 769
          766 796 799 769 767 797
          800 770 768 798 801 771
          769 799 802 772 769 799
          802 772 770 800 803 773
          771 801 804 774 772 802
          805 775 772 802 805 775
          773 803 806 776 774 804
          807 777 775 805 808 778
          775 805 808 778 776 806
          809 779 777 807 810 780
          778 808 811 781 778 808
          811 781 779 809 812 782
          780 810 813 783 781 811
          814 784 781 811 814 784
          782 812 815 785 783 813
          816 786 784 814 817 787
          784 814 817 787 785 815
          818 788
        </DataArray>
        <DataArray type="Int64" Name="offsets" format="ascii" RangeMin="8" RangeMax="3632">
          8 16 24 32 40 48
          56 64 72 80 88 96
          104 112 120 128 136 144
          152 160 168 176 184 192
          200 208 216 224 232 240
          248 256 264 272 280 288
          296 304 312 320 328 336
          344 352 360 368 376 384
          392 400 408 416 424 432
          440 448 456 464 472 480
          488 496 504 512 520 528
          536 544 552 560 568 576
          584 592 600 608 616 624
          632 640 648 656 664 672
          680 688 696 704 712 720
          728 736 744 752 760 768
          776 784 792 800 808 816
          824 832 840 848 856 864
          872 880 888 896 904 912
          920 928 936 944 952 960
          968 976 984 992 1000 1008
          1016 1024 1032 1040 1048 1056
          1064 1072 1080 1088 1096 1104
          1112 1120 1128 1136 1144 1152
          1160 1168 1176 1184 1192 1200
          1208 1216 1224 1232 1240 1248
          1256 1264 1272 1280 1288 1296
          1304 1312 1320 1328 1336 1344
          1352 1360 1368 1376 1384 1392
          1400 1408 1416 1424 1432 1440
          1448 1456 1464 1472 1480 1488
          1496 1504 1512 1520 1528 1536
          1544 1552 1560 1568 1576 1584
          1592 1600 1608 1616 1624 1632
          1640 1648 1656 1664 1672 1680
          1688 1696 1704 1712 1720 1728
          1736 1744 1752 1760 1768 1776
          1784 1792 1800 1808 1816 1824
          1832 1840 1848 1856 1864 1872
          1880 1888 1896 1904 1912 1920
          1928 1936 1944 1952 1960 1968
          1976 1984 1992 2000 2008 2016
          2024 2032 2040 2048 2056 2064
          2072 2080 2088 2096 2104 2112
          2120 2128 2136 2144 2152 2160
          2168 2176 2184 2192 2200 2208
          2216 2224 2232 2240 2248 2256
          2264 2272 2280 2288 2296 2304
          2312 2320 2328 2336 2344 2352
          2360 2368 2376 2384 2392 2400
          2408 2416 2424 2432 2440 2448
          2456 2464 2472 2480 2488 2496
          2504 2512 2520 2528 2536 2544
          2552 2560 2568 2576 2584 2592
          2600 2608 2616 2624 2632 2640
          2648 2656 2664 2672 2680 2688
          2696 2704 2712 2720 2728 2736
          2744 2752 2760 2768 2776 2784
          2792 2800 2808 2816 2824 2832
          2840 2848 2856 2864 2872 2880
          2888 2896 2904 2912 2920 2928
          2936 2944 2952 2960 2968 2976
          2984 2992 3000 3008 3016 3024
          3032 3040 3048 3056 3064 3072
          3080 3088 3096 3104 3112 3120
          3128 3136 3144 3152 3160 3168
          3176 3184 3192 3200 3208 3216
          3224 3232 3240 3248 3256 3264
          3272 3280 3288 3296 3304 3312
          3320 3328 3336 3344 3352 3360
          3368 3376 3384 3392 3400 3408
          3416 3424 3432 3440 3448 3456
          3464 3472 3480 3488 3496 3504
          3512 3520 3528 3536 3544 3552
          3560 3568 3576 3584 3592 3600
          3608 3616 3624 3632
        </DataArray>
        <DataArray type="UInt8" Name="types" format="ascii" RangeMin="12" RangeMax="12">
          12 12 12 12 12 12
          12 12 12 12 12 12
          12 12 12 12 12 12
          12 12 12 12 12 12
          12 12 12 12 12 12
          12 12 12 12 12 12
          12 12 12 12 12 12
          12 12 12 12 12 12
          12 12 12 12 12 12
          12 12 12 12 12 12
          12 12 12 12 12 12
          12 12 12 12 12 12
          12 12 12 12 12 12
          12 12 12 12 12 12
          12 12 12 12 12 12
          12 12 12 12 12 12
          12 12 12 12 12 12
          12 12 12 12 12 12
          12 12 12 12 12 12
          12 12 12 12 12 12
          12 12 12 12 12 12
          12 12 12 12 12 12
          12 12 12 12 12 12
          12 12 12 12 12 12
          12 12 12 12 12 12
          12 12 12 12 12 12
          12 12 12 12 12 12
          12 12 12 12 12 12
          12 12 12 12 12 12
          12 12 12 12 12 12
          12 12 12 12 12 12
          12 12 12 12 12 12
          12 12 12 12 12 12
          12 12 12 12 12 12
          12 12 12 12 12 12
          12 12 12 12 12 12
          12 12 12 12 12 12
          12 12 12 12 12 12
          12 12 12 12 12 12
          12 12 12 12 12 12
          12 12 12 12 12 12
          12 12 12 12 12 12
          12 12 12 12 12 12
          12 12 12 12 12 12
          12 12 12 12 12 12
          12 12 12 12 12 12
          12 12 12 12 12 12
          12 12 12 12 12 12
          12 12 12 12 12 12
          12 12 12 12 12 12
          12 12 12 12 12 12
          12 12 12 12 12 12
          12 12 12 12 12 12
          12 12 12 12 12 12
          12 12 12 12 12 12
          12 12 12 12 12 12
          12 12 12 12 12 12
          12 12 12 12 12 12
          12 12 12 12 12 12
          12 12 12 12 12 12
          12 12 12 12 12 12
          12 12 12 12 12 12
          12 12 12 12 12 12
          12 12 12 12 12 12
          12 12 12 12 12 12
          12 12 12 12 12 12
          12 12 12 12 12 12
          12 12 12 12 12 12
          12 12 12 12 12 12
          12 12 12 12 12 12
          12 12 12 12 12 12
          12 12 12 12 12 12
          12 12 12 12 12 12
          12 12 12 12 12 12
          12 12 12 12 12 12
          12 12 12 12
        </DataArray>
      </Cells>
    </Piece>
  </UnstructuredGrid>
</VTKFile>
