<?xml version="1.0"?>
<VTKFile type="UnstructuredGrid" version="0.1" byte_order="LittleEndian" header_type="UInt32" compressor="vtkZLibDataCompressor">
  <UnstructuredGrid>
    <Piece NumberOfPoints="798" NumberOfCells="454">
      <PointData>
        <DataArray type="Int32" Name="libmesh_node_id" format="ascii" RangeMin="2250" RangeMax="5441">
          2250 2251 2252 2253 2254 2255
          2256 2257 2258 2259 2260 2261
          2274 2275 2276 2277 2278 2279
          2280 2281 2282 2283 2284 2285
          2298 2299 2300 2301 2302 2303
          2304 2305 2306 2307 2308 2309
          2328 2329 2330 2331 2332 2333
          2334 2335 2336 2337 2338 2339
          2352 2353 2354 2355 2356 2357
          2358 2359 2360 2361 2362 2363
          2376 2377 2378 2379 2380 2381
          2382 2383 2384 2385 2386 2387
          2424 2425 2426 2427 2428 2429
          2430 2431 2432 2445 2446 2447
          2448 2449 2450 2451 2452 2453
          2454 2455 2456 2457 2458 2459
          2460 2461 2462 2481 2482 2483
          2484 2485 2486 2493 2494 2495
          2496 2497 2498 2535 2536 2537
          2538 2539 2540 2541 2542 2543
          2544 2545 2546 2547 2548 2549
          2562 2563 2564 2565 2566 2567
          2568 2569 2570 2571 2572 2573
          2604 2605 2606 2607 2608 2609
          2610 2611 2612 2615 2619 2623
          2625 2626 2627 2628 2629 2630
          2631 2632 2633 2664 2665 2666
          2667 2668 2669 2670 2671 2672
          2787 2788 2789 2790 2791 2792
          2793 2794 2795 2820 2821 2822
          2823 2824 2825 2850 2851 2854
          2855 2858 2859 2880 2882 2884
          2886 2887 2888 2889 2890 2891
          2892 2893 2894 2895 2896 2897
          2898 2899 2900 2928 2929 2930
          2931 2932 2933 2934 2935 2936
          2937 2938 2939 2972 2975 2978
          2979 2980 2981 2982 2983 2984
          2985 2986 2987 2988 2989 2990
          3078 3079 3080 3111 3112 3113
          3114 3115 3116 3129 3130 3131
          3132 3133 3134 3135 3136 3137
          3138 3139 3140 3141 3142 3143
          3144 3145 3146 3147 3148 3149
          3150 3151 3152 3153 3154 3155
          3156 3157 3158 3159 3160 3161
          3162 3163 3164 3165 3166 3167
          3186 3188 3189 3191 3192 3194
          3259 3261 3263 3342 3343 3344
          3345 3346 3347 3435 3436 3437
          3438 3439 3440 3447 3448 3449
          3450 3451 3452 3513 3514 3515
          3519 3520 3521 3522 3523 3524
          3537 3538 3539 3540 3541 3542
          3714 3715 3716 3717 3718 3719
          3720 3721 3722 3792 3793 3794
          3822 3823 3824 3825 3826 3827
          3828 3829 3830 3831 3832 3833
          3855 3856 3857 3858 3859 3860
          3867 3868 3869 3870 3871 3872
          3873 3874 3875 3876 3877 3878
          3879 3880 3881 3883 3886 3889
          3921 3922 3923 3957 3961 3965
          4065 4066 4067 4077 4078 4079
          4086 4087 4088 4119 4120 4121
          4191 4192 4193 4206 4207 4210
          4211 4214 4215 4224 4225 4226
          4227 4228 4229 4251 4252 4253
          4260 4261 4262 4263 4264 4265
          4275 4276 4277 4278 4279 4280
          4296 4297 4298 4347 4348 4349
          4401 4402 4403 4404 4405 4406
          4407 4408 4409 4410 4411 4412
          4413 4414 4415 4431 4432 4433
          4452 4453 4454 4461 4462 4463
          4464 4465 4466 4533 4534 4535
          4551 4552 4553 4554 4555 4556
          4557 4558 4559 4560 4561 4562
          4590 4591 4592 4593 4594 4595
          4608 4609 4610 4617 4618 4619
          4620 4621 4622 4623 4624 4625
          4626 4627 4628 4629 4630 4631
          4665 4666 4667 4668 4669 4670
          4680 4681 4682 4683 4684 4685
          4719 4720 4721 4728 4729 4730
          4731 4732 4733 4734 4735 4736
          4752 4753 4754 4761 4762 4763
          4764 4765 4766 4767 4768 4769
          4773 4774 4775 4785 4786 4787
          4869 4870 4871 4881 4882 4883
          4887 4888 4889 4890 4891 4892
          4893 4894 4895 4917 4918 4919
          4920 4921 4922 4926 4927 4928
          4929 4930 4931 4962 4963 4964
          4965 4966 4967 4971 4972 4973
          4974 4975 4976 4995 4996 4997
          4998 4999 5000 5001 5002 5003
          5004 5005 5006 5022 5023 5024
          5031 5032 5033 5037 5038 5039
          5046 5047 5048 5049 5050 5051
          5052 5053 5054 5058 5059 5060
          5064 5065 5066 5067 5068 5069
          5070 5071 5072 5076 5077 5078
          5082 5083 5084 5085 5086 5087
          5091 5092 5093 5097 5098 5099
          5100 5101 5102 5106 5107 5108
          5109 5110 5111 5112 5113 5114
          5115 5116 5117 5118 5119 5120
          5121 5122 5123 5124 5125 5126
          5127 5128 5129 5130 5131 5132
          5133 5134 5135 5136 5137 5138
          5139 5140 5141 5142 5143 5144
          5145 5146 5147 5148 5149 5150
          5154 5155 5156 5157 5158 5159
          5163 5164 5165 5166 5167 5168
          5172 5173 5174 5175 5176 5177
          5181 5182 5183 5184 5185 5186
          5190 5191 5192 5193 5194 5195
          5196 5197 5198 5199 5200 5201
          5250 5251 5252 5277 5278 5279
          5304 5305 5306 5331 5332 5333
          2852 2853 2856 2857 2860 2861
          2970 2644 2971 2973 2647 2974
          2976 2650 2977 3187 3190 3193
          4662 4663 4664 3270 3271 3272
          5151 5152 5153 5160 5161 5162
          5169 5170 5171 5178 5179 5180
          5187 5188 5189 5202 5203 5204
          5205 5206 5207 5253 5254 5255
          5280 5281 5282 5307 5308 5309
          5334 5335 5336 5358 5359 5360
          5361 5362 5363 5385 5386 5387
          5412 5413 5414 5439 5440 5441
        </DataArray>
        <DataArray type="Float64" Name="resid_x" format="ascii" RangeMin="-0.2962040610281065" RangeMax="0.2829802820546998">
          0.00008962393498102017 0.0005879678941607125 0.0005645923676173004 0.0018921146511936549 -0.0030907523839713846 -0.004601242765110314
          -0.005239107217959588 -0.001365591663813781 -0.0088273633473257 -0.008355736700963234 -0.00834594844402975 -0.010353855906712006
          -0.0002081591360667545 0.0014334860379121572 0.001773519635324794 0.0026573252561399308 -0.003935236404117859 -0.005161640872801687
          -0.003557823212690492 -0.006993256790048807 -0.02433090793513415 -0.023750260085419583 -0.022898633057699014 -0.027277355239797796
          -0.005826325143114097 0.007324676462770796 0.0018159975032165931 0.0030664594836267156 -0.016110168492315502 0.014016965009420623
          0.0027400241384647472 -0.0004091138565325281 -0.007677347336679574 0.009859065209057327 0.005343306658064151 -0.006935523313075009
          -0.007857264732669123 -0.00017498206685218065 -0.0003027655586276268 -0.009862313422168256 -0.018500108987282715 -0.0006383043894979679
          -0.004759131423969443 -0.026657351045307642 -0.01737072392677952 -0.01004241846211329 -0.015049330750738 -0.021805168293789867
          -0.00006569006309664616 0.0012653707825647231 0.0010642630755128835 0.0021159743770278183 -0.004503905424013688 -0.00221273879467887
          -0.006753210652416186 -0.0050497805670906 -0.017110879608269514 -0.017703034777942328 -0.023068916798736794 -0.021291626416601872
          -0.00015808359161084695 0.0014537830866823143 0.0020317561864793277 0.002787555293779498 -0.0034810072064779263 -0.0051391998270240435
          -0.0006906418611167808 -0.0034029575364300513 -0.019703420435430274 -0.02692535402580276 -0.025873026618545403 -0.022907854504492065
          -0.012757462535592179 -0.0023364786335138277 -0.004754949247342655 -0.006997016515985166 -0.003342910975471014 -0.00670811780609748
          -0.02520432677926321 -0.023710026990803712 -0.028284149879793663 -0.015714999998060364 -0.0086411748125661 -0.007688349050313903
          -0.0017883663272115768 -0.027583520215900492 -0.022953832949442976 0.00004653286216393937 0.0007859513251033956 0.005378321507384598
          0.0007400530906442881 -0.004615472048924207 -0.0038011699120733544 0.005897466001830054 -0.006409939666488507 -0.010704465262534768
          -0.01270008803604561 -0.008318111201790046 -0.013199269335854469 -0.007855681171617057 -0.010222125659706371 -0.003913063590791133
          -0.006571507493973172 -0.015605079842033298 -0.019838025356322397 -0.02076814467465482 -0.009871531035657632 -0.006229449657041197
          -0.0011407898219006896 -0.020301716685271032 -0.019103681101531933 -0.013496771965721521 -0.005859288078674751 -0.000608478603432161
          -0.022177348529934804 -0.005649271534603706 0.0017117379697655366 -0.007539776496928496 0.002546482047933729 0.011038268356537984
          -0.009666255880418584 -0.006483863333785145 -0.00527713174378297 -0.003945357965450924 -0.016249759010775966 -0.01714409684947782
          -0.0011675439535583365 0.0012544286416700245 0.0008340201083907317 0.0013891796256846334 -0.00389785068141979 -0.003683008036720725
          -0.003129163392973311 -0.00462444172107368 -0.016588934416702728 -0.021438793871475514 -0.020689488104736142 -0.020038459940939113
          -0.014574611003394189 -0.02302754575562016 -0.009126549407339368 -0.004005441251350383 -0.011347450693460992 -0.0035610689083940272
          -0.019259164060201783 -0.024081430674739224 -0.01812782863001061 -0.01453053827371864 -0.01742003100306455 -0.023483326284394757
          -0.013140773844422249 -0.004795324657420608 -0.005919995264803246 -0.006822680403044679 -0.001846535829197471 -0.0031989761778894454
          -0.020705260704939832 -0.021917522900569253 -0.01403152565431709 -0.01735894541454286 -0.004214210439548616 -0.014438947003069469
          -0.003372875473943715 -0.0018852632242838396 -0.005398751865303364 -0.01692373582242057 -0.016193578762086602 -0.024538539202988652
          -0.008512814181311334 -0.0029740910029456558 -0.008131229252852812 -0.0034560048748533134 -0.0015707551325352398 -0.005123083689926311
          -0.013260518212850236 -0.008009737919206117 -0.011097633742950919 -0.008762305113842794 -0.0068113872475121795 -0.006089099937573117
          -0.002334401933790531 -0.010563313948857456 -0.011812867355026846 -0.006365470309596333 -0.004003640162457245 -0.015206226273933865
          -0.012691294069401948 -0.014856416038940168 -0.017010064650159862 -0.010624704793568363 -0.019911090043191138 -0.0067380589931502755
          -0.0016249209520262653 0.0005660207219699842 -0.0007335341582814792 -0.001623904184036462 -0.011224741014159711 -0.009538941918515675
          -0.009634709126337793 -0.02137189648875637 -0.00037191384459811516 -0.006195414766577478 -0.016286029830332005 -0.01977478543705402
          -0.02845527694515937 -0.009352727148081996 -0.025028564799107755 0.00003687665025786657 0.0016021882318364433 0.0016304665935349405
          0.00244537745126161 -0.003469319587113162 -0.005251831085557157 -0.00312373639414254 -0.004812196653236622 -0.019176600510440345
          -0.023217032573346508 -0.02469103553930907 -0.022804885313405965 -0.011558940591129385 -0.023253979694301208 -0.0052948222791364685
          -0.0010350036813306929 -0.002980632704639774 0.00019782639952126146 -0.001764979100942199 0.0028290879533781066 -0.0007170707662886855
          -0.008477927143468067 -0.009670517237823972 -0.005389068377732009 -0.006334611765018927 -0.007449123403903357 -0.007243979997602068
          -0.017585707589771182 -0.004167562386404811 -0.017310118991828105 -0.011986990026029432 -0.018998063806161092 -0.005216334505128373
          -0.0047651060044628935 -0.013719043446814183 -0.012928927807237756 -0.012016323251985206 -0.009513524095902781 -0.010629820758351727
          -0.00631461456355531 -0.004680017733607933 -0.0014358472040658654 -0.016446260770910825 -0.00825072514826708 -0.009156977308122372
          -0.0038933864779249205 -0.009998969341245001 -0.008211975052596188 -0.019859996191865292 -0.01847704803599981 -0.005400717880098327
          -0.002482975553828981 -0.007318991991224877 -0.004577268014468228 -0.005407102016918408 0.0010051997710305294 0.006645149764375802
          -0.004453849313117431 0.0013373495628972165 0.002302827516735828 0.0026304788793467537 -0.004495751509439927 0.0036266409874290417
          0.001892974327918573 -0.0007939116078796715 -0.00018845549475976497 -0.013189480225165084 -0.004070910597652855 -0.017599318592226965
          -0.009200962892766285 -0.011660784269108326 -0.00545842599472568 -0.011653936180734181 -0.013612101930723597 -0.023809613386622352
          -0.017045187762236402 -0.018634717837803016 -0.016554466989523675 -0.03556203013624781 -0.018183402458011422 -0.01705706758448855
          -0.02077651166089023 -0.023397509516630777 -0.01232670116976653 -0.017231382700689135 -0.0140229546611772 -0.006179136282352893
          -0.006792160773194 -0.01873493072478638 -0.017098500009520512 -0.010380836600170112 -0.019573802617085967 -0.0015574255683203364
          -0.01210797129323371 -0.014998191373193914 -0.014176834096414126 -0.012221751280280913 -0.011102921858785919 -0.0013547501536823603
          -0.007563284172860563 -0.013468259168827323 -0.014266921512307018 -0.012315890197572621 -0.007557771072052688 -0.011428023087241002
          -0.023500693618323076 -0.015116919229583914 -0.0062737813344053706 -0.011146366607030167 -0.02501465863236607 -0.01647001079928323
          -0.019410627068275232 -0.016462225128938357 -0.021243156315737366 -0.010759621437296474 -0.010748428939441723 -0.008243474055318778
          -0.004394155921377374 -0.016697786334200604 -0.010111685971992301 -0.0017920991911013484 -0.008792020219621222 -0.00469594376135718
          -0.008373283375769147 -0.018871467734835612 -0.011769526941727504 -0.010298451433766731 -0.0009864512166735118 -0.01006705515037587
          -0.02622031624014909 -0.020167555150101713 -0.009164470535484526 -0.006689891896093592 -0.024979679448440706 -0.022866025608427876
          -0.01152917939558229 -0.01874223988061363 -0.0018007876017738234 -0.005816693688287078 -0.015600781286658538 -0.01945242822998061
          -0.003806419018268503 -0.006129158131706447 0.006312333841543172 0.0015507782413521909 0.008674557658544746 0.0010641853412725055
          -0.015377506366036187 -0.006583805378508778 -0.003949261163251894 -0.003077302850456043 -0.012594035252747382 -0.005968595496945284
          -0.013212201721151118 -0.011462766150569181 -0.014566781528888129 -0.020590539978993405 -0.0025980711101588616 -0.013448288890756999
          -0.010967582091156558 -0.005980172658928584 -0.011434252812694723 -0.014070997279215902 -0.021510848115568137 -0.010839755123065231
          -0.02216579105270977 -0.0035281968068590075 -0.021707500478417963 -0.01800950755035302 -0.026423668248757082 -0.013876149982800179
          -0.010644607360436709 -0.004931207781145419 -0.0055786809534739135 -0.023754282909767888 -0.005908049866791387 -0.018157441423781062
          -0.011727741750904741 -0.002458315679743972 -0.009976591117416334 -0.009551979075498984 -0.011024772927525461 -0.00550895523949535
          -0.009531260470089897 -0.0023837170125120544 -0.00952871944659428 -0.005272757416265428 -0.014563672222427826 -0.011873911782034341
          -0.02511816521117538 -0.00703532936582274 -0.014553864067462285 -0.000028629159568360762 -0.005932275996408887 -0.00034367426383763444
          -0.003688659310751241 -0.0028705076239772254 -0.009005891025308355 -0.01683585731636228 -0.02162017905300928 -0.009078296458400636
          -0.0050667991987793926 -0.012175582867318901 -0.0019070281908879494 -0.0029594871307132564 -0.006201322749543436 -0.011220436452635596
          0.0023535706593236227 0.011476454653383428 0.012784028249006596 0.028443113704270218 0.00558813818663495 0.015457406972862131
          -0.009586567867584606 -0.0003180455992559672 -0.001034970605326535 -0.014220542389676183 -0.014209131877876757 -0.007615693988965333
          -0.007104890615441839 -0.0033148316869864303 -0.008425764041414041 -0.0020263697316824647 -0.008600803398553403 -0.0075613636788034455
          -0.004718618085634674 -0.003432353619091444 -0.0033283445326688366 -0.0031166470909065325 -0.010953044521593291 -0.012030297243705412
          -0.014742484486921725 -0.007325689487401199 -0.008252085474269144 -0.014156343919037528 -0.013452738715881374 -0.011204976671813416
          -0.011354416115371357 -0.0034295621990294567 -0.00514426226785103 -0.011817074230258129 -0.005362641790979339 -0.007167805500760238
          -0.0027471954915290198 -0.016439515990948728 -0.008497435923541019 -0.022172587881351014 -0.00752356463671644 -0.018313110660753917
          -0.004370835166031206 -0.01360993301938418 0.000019435745105766955 0.0017165498670195234 -0.004302836566009383 -0.009429444321323643
          -0.0011503613968120163 -0.00012575981278217796 -0.00879546618743543 -0.02070168834624564 -0.013646204612186352 -0.00802530263790846
          -0.01966402903554698 -0.004974838031404083 -0.01259624211524013 0.0004734642946448986 -0.025654336827245494 -0.012880411921046608
          -0.025148485347634697 -0.011629394078304323 -0.013987158169226355 -0.012741228790655867 -0.026452000976529888 -0.005555840035559534
          -0.016342643872378382 -0.017359592334576845 -0.02408051263294464 -0.014762109088813702 -0.007227436390816244 -0.003954299741767642
          -0.00560234028106521 -0.01650599743796377 -0.013901022565870669 -0.023189394335049407 -0.00197489474178969 -0.008520956875423202
          -0.026899459940184833 -0.0011384635134705778 -0.01055792978130854 -0.018019721282489437 -0.008533658622521562 -0.015270643435577602
          -0.01670378411557083 -0.008727961833209008 -0.00029762169485358925 -0.00028768125529143873 -0.006532878607345527 -0.003809656405151962
          -0.017124270778371087 -0.0064497337718281145 -0.01522393050624582 -0.0033716427913912383 -0.007928748717522138 -0.015606239459777793
          -0.007477088990675895 -0.013004836329340463 -0.009811394822582642 -0.00832065551374761 -0.014026910135082504 -0.010622794972014571
          -0.012440864206800795 -0.004566669077845087 -0.00823123778195023 -0.0038579422725053547 -0.0019554976224021026 -0.010261092003744032
          -0.0014679508895465432 -0.00318874655193202 -0.006876499580714679 -0.00986233909598866 -0.009652290877715242 -0.01631109940056641
          -0.009430648087971782 -0.006818532510513009 -0.010443573745367196 -0.02795076051724754 -0.008164917739097444 -0.01761222671264484
          -0.01492978645505083 -0.0076088933143481086 0.0046248367547736535 -0.016112079991831507 -0.010452950096322411 -0.012225070778403513
          -0.023105896187067376 -0.012320937921619812 -0.008375324988376676 -0.005557750258097904 -0.015422411153963811 -0.009209654143011115
          -0.012149107679569227 -0.004899615940646029 -0.010292728441246624 -0.015375547174271809 -0.019210631710602222 -0.0020384310670849004
          -0.009549782063603462 -0.006635852805452203 -0.013706384012213135 -0.020957030780200725 -0.018432934330142814 -0.007156087198672445
          -0.009038491293302364 -0.015206192607731595 -0.010564244812528933 -0.01554318283234668 -0.014857755213336432 -0.004896295264071426
          -0.0037755843263589384 -0.007534017936396076 -0.005288482315270571 -0.008964898719154846 -0.005246484817485353 -0.008215714166156296
          -0.005823109530821213 -0.007836891995048667 -0.00941717656678076 -0.022578654659248798 -0.005136356039426637 -0.0022957570396480165
          -0.011391829711245194 -0.002515636160181245 -0.0012211705406315332 -0.011902945591763192 -0.003855883226371759 -0.003506219932879695
          -0.017723397167090926 -0.003259679443405439 -0.005549182503752803 -0.0052544533624487855 -0.006298711102433963 -0.004971782171065087
          -0.009215971457700256 -0.0018596247690059187 -0.005636878881869478 -0.018061734118008488 -0.004318253154949048 0.0011860084021648731
          -0.0010410244896226217 0.0005558466741009127 -0.0010230122743526415 -0.0017072648874707497 0.003365624913707954 -0.0001155716298884002
          0.0006157954940881893 0.0028771140258694317 0.00011811908643766245 -0.005277976569858289 -0.005729647628735179 -0.0025661114535573404
          -0.010940290051833834 -0.008280816668746027 -0.007957184322067157 -0.011719997069530308 -0.012641507133393404 -0.005311837565665556
          0.0009821244582290944 -0.003423441566838825 0.0022780674710833893 -0.0012022175563339843 0.003974665549143275 0.005062896186442067
          -0.0072385731097757144 -0.009778756883155326 -0.0026019122243698956 0.0029894560746708265 0.005272679581270978 -0.0016359242549146558
          -0.007944345846201628 -0.014594720214091694 -0.0012079799798287993 -0.009344699408335266 -0.02537800942602697 -0.018407144802438324
          -0.009716690216897916 -0.018005872328055617 -0.010364798275954712 0.07062866614352181 -0.013565210903053071 0.1467344838763367
          -0.02366843578636768 0.13274837619911928 0.0222329827436738 -0.10016787404664385 0.0011049905521218761 -0.20135363026749076
          0.0024167766720406547 -0.10054302182496855 0.0014400422012226244 -0.0022048835962813484 -0.0016462737812741324 -0.004311575546831037
          -0.0030022837862073715 -0.0008137620566124326 -0.0010532033964150145 0.026835819281499695 0.06652803749002523 0.06058475964159271
          -0.00506334485747395 -0.006629574971166008 0.009687413479635865 -0.018320536254305964 -0.038360648293810584 -0.017730861512314178
          0.0012745668455060866 0.012949846432652734 0.01805003773109526 0.06501679308469654 0.13427058010939774 0.11198812527500124
          -0.08395417056832954 -0.17098545712221735 -0.07979715691305955 -0.0007204170761117012 0.00995448043026137 0.011321271870588845
          0.007814074535781756 0.019103952550771908 0.02396242935179771 0.1392096698107359 0.2829802820546998 0.1757824463422928
          0.011407112878774939 0.025643204962626953 0.022936766133161868 0.02987541026948648 0.06353513030000357 0.048308636235713465
          -0.021654462906356642 -0.04029454365960916 -0.01730954023948783 -0.005857799042454204 -0.004175997582157365 0.015293557155931836
          0.0005894300270128383 0.004456636863547914 -0.025195970308729443 -0.02767729252179585 -0.04553929478547758 0.040716541891967495
          0.006680060991801184 0.024632065723643848 -0.025662844910705473 -0.027666034243404525 -0.03737895145983927 0.06316419109973559
          0.021961804628775283 0.05340362830815337 0.0021101697114982443 0.00818855239907812 0.02818171282996751 0.055596588702295335
          0.0022938525334463833 0.0010425448668911486 0.00022679374982459422 0.0009101180649064844 0.001664511090243792 0.0008547956073314822
          0.0004147653929411632 -0.0019128193137767369 0.00045534930914925553 0.00034859392682484724 -0.0007985959901333217 0.0004921525575181107
          -0.14730140058863128 -0.2962040610281065 -0.14849665955418168 0.03872092198036903 0.08030553990989375 0.04854937276423854
          -0.023382987711208614 -0.018675102126412213 -0.02312532319562166 -0.020222206399601816 -0.013730663654571984 -0.01155490588746133
          -0.014282333506695721 -0.0008632280224709632 -0.012752418137292665 -0.00042361774138832686 0.0013361252867589712 -0.01980878338407166
          -0.00417868654780662 -0.012738049407222007 -0.00327510571386469 -0.0221605892829011 -0.03101064241451823 -0.0163628381694938
          -0.016249976615726247 -0.012634526864022 -0.008825240825646397 -0.013827767625484988 -0.018294651659866545 -0.007314503698571784
          -0.00914707737595677 -0.0026495323488191502 0.006642202749157278 -0.014788241378674627 -0.00809704102695008 0.0031312318798839556
          -0.027819204216751103 -0.031121505231318736 0.015069098507311196 -0.04197961240727466 -0.053816419731006704 0.015380922899950633
          0.01386423488273536 0.05431506452388746 0.04712635252485242 0.0017316340217270465 0.0006276514239065278 0.0002655117702801135
          0.0003060273322539331 0.002818469086484754 0.0010468089866755292 0.0011982351910369005 0.002063637362290649 0.003273944478042523
          0.000909435708450701 0.00121638521605405 0.0024453669890540652 0.0002723475145991472 -0.0006078170411072392 0.001775820877604417
          -0.07423057985800696 -0.14905128687563263 -0.07283773943823135 0.06864118526246443 0.1366053234994027 0.07940678860424377
          -0.05450998935821083 -0.17185066667566318 -0.12058135714046614 0.008196922784691196 0.012389353247030499 -0.01630298389347118
          0.04090368743936068 0.08144558787476797 -0.004282212337386682 0.019608741506676353 0.03894287761193027 -0.006002668603699135
        </DataArray>
        <DataArray type="Float64" Name="resid_y" format="ascii" RangeMin="-7.311063262365565" RangeMax="0.8914899368066517">
          0.00013483280443586654 0.00043677366847568247 -0.0005668281561729549 -0.00010517935404796841 0.0011155861105036219 0.0029174547469683135
          -0.0017610885835205592 0.0012041704621544858 0.0020612597267171823 0.003027807470464215 0.0011623319423442746 0.0020296664039353707
          0.00019356569937924173 0.0001736323984390803 -0.00033943077318573933 0.0007642475560374895 -0.0003918434634561513 -0.0006572739917445058
          0.0005132200573154666 0.0025485901135140765 -0.0008596807810606066 0.00012770410012229172 0.0011587880278280116 0.0003859725967129135
          -0.009425198733596596 0.00006741683790989494 -0.00820481095597686 -0.001775837309852868 -0.019172473882628105 0.0006127670075118941
          -0.016520609325152535 -0.003197358062915878 -0.011372557604458544 -0.00004469148972974235 -0.010455880122817562 0.0007694501970025858
          0.0106102941533954 0.0007637092102956988 0.0019461486781354662 0.005123532644655414 0.021993839447972313 0.001138328726013882
          0.0007468627730609842 0.013089127021002914 0.01247820036117138 0.0008567080040996627 0.0015234356475622123 0.009438143126770826
          0.0005531558683109505 0.001094742649104404 0.0012549416153743165 0.0003734674993653396 0.00020918929760010974 0.0013690330708037556
          0.002234384613163637 -0.002333911660675564 -0.0021072496988429057 -0.001912403145180118 -0.0014289863075228615 -0.002389077549294162
          -0.0002340258739160217 0.00022480069256075597 -0.0010845911407443565 -0.0010566382433798704 0.0004170841433087935 -0.0008135185470129758
          -0.0011669463985918005 0.0002994877411203467 0.002779670454116312 0.0015632160603814838 0.0036391712088289507 0.003358403116307959
          -0.00533653145449145 -0.002069433783164265 0.0025211982607935 -0.0013877566591627144 0.001321431176423471 -0.0001945544118953646
          -0.0009483784677478679 0.0013885198698996293 0.0004987531347895313 -0.0009952781113744813 -0.005189342471313987 0.0013047625366122417
          -0.0018710431340892703 0.0033583992558136877 0.003813578777453558 -0.0028759505372205063 0.003138823317248407 0.0027292363499462624
          -0.00013929548600785657 -0.006157010933196649 0.0046543560261942535 0.004849536745559158 -0.00014000924592708075 -0.010860847695699394
          -0.0043969181441292915 -0.0008463753274226549 -0.006958695984417285 0.00764216577010883 0.0064558331887501486 0.0028632654694041304
          -0.001054204341434578 0.003816501952730436 0.0020803520711836915 0.0008060297547991535 -0.004771457256156311 0.0030482910642469496
          -0.0010105307454146492 0.003444495295605296 0.0028873596625525397 -0.0065456149936746755 -0.0058209725889162844 -0.005914147120990837
          -0.013093396437538207 -0.012744080298048244 -0.010707399098890819 -0.0074372425764389904 -0.00734684215921394 -0.010886233127723854
          -0.0025315432294148593 -0.004256777886619698 0.0008338867993817334 0.0003257250371980769 0.003762290589280237 0.0031767983020297708
          0.00031649042166737723 0.0007158961103002071 0.0010117126203633697 0.001710771230906783 -0.00064093686025124 -0.0001482462829610065
          0.0007330492211684858 0.0011544966456333884 -0.0075823164786360045 -0.006103457197796425 -0.004043887556653095 -0.007114537226635402
          -0.00010716034543145625 0.0029729615774980594 0.007370173016939208 0.003060950984958219 0.0033457458325626827 0.005984400867455664
          -0.0017845032229025642 -0.0013432026806242253 -0.0027656422262227753 -0.000009896294234409964 0.009664711444331925 0.008916209693231467
          -0.002534563712705745 0.002874175437177044 0.0010757865895049956 0.0017080180490800512 0.001875899366387157 0.0007080171480323555
          -0.0006794383467359222 -0.006689576083984877 -0.002141551726704244 -0.0012980961088028542 -0.0010862492666204038 -0.0021202307650956542
          0.005838561771989548 0.0038816708397710342 0.0021526993590234855 -0.0031407655994866446 -0.00098187928792981 -0.0017153517594154233
          0.0038288945885768116 0.0007372738399169243 -0.0006316027335131758 0.000892685265421217 -0.0007744619019312143 0.003991488098438606
          0.0014252647037778232 0.0009666713122731749 0.004584013850332726 0.00026656220242309014 0.0031471809996774878 -0.000055881987787852194
          0.0033596296456756443 0.001069858887002572 0.0027755283382393248 -0.01002206370655212 -0.011950392375727481 -0.019925699185482704
          -0.023219983403338917 -0.017263130690022943 -0.018647264101902483 0.002981765309333276 0.003998049816702039 0.0013194826751608858
          -0.0028658250808352714 0.0023932778409630345 0.0002824761055139069 0.008073876491678594 -0.00163081758732464 0.002337745514210454
          -0.003746745068862807 0.005054624356803122 -0.0009351257654730896 0.006472633450338425 -0.00015320666432907387 0.002572057402679878
          0.007316017440573697 0.0019517444963590425 0.0001353465244632035 -0.00004863261244138174 -0.000022002075347443695 -0.0005863435393398952
          0.00021638381015851027 0.000052497639286423585 0.00023457084775441173 -0.002694727991227691 0.0013189513923234225 0.0007953163419180398
          0.0009000040355083283 0.0002480109942559483 0.0010240404828839866 -0.005288176026084113 -0.010970399232369088 -0.010079854668583466
          -0.010905346437492969 -0.014118056329217754 -0.011327315139842586 -0.023645601433964936 -0.013837820162537928 -0.015538705085123228
          -0.0033212826636259685 -0.00041273549627773853 -0.00151699034654304 0.00356259781504498 0.0019740722203852867 0.003800535154645658
          -0.0023809760223676077 -0.0005314203806715406 -0.0037304125705652953 0.001353819262782989 -0.01257072551765016 0.005023739748463665
          -0.002327956262119818 -0.002885952441105899 -0.007881989288044608 -0.0049389045115162955 -0.006564094123346076 -0.0067886355893484185
          -0.008904261422722326 -0.0038604692984471473 -0.0008624407434252704 -0.012680479084104052 -0.013076800284532786 -0.0047100662668704135
          -0.0008268936624681068 -0.007569279175915072 -0.007201766074197979 -0.002432863073995331 -0.00120229504703101 0.0018094625987180452
          0.005062337163662722 -0.001810953071976873 0.00007676509031778744 -0.00032503488586671514 -0.00008882444410701629 -0.002531032645424078
          -0.0029479853768360764 -0.00043153655522543133 -0.003412275211528454 -0.007854811382734667 -0.00831846846474879 0.0003269515595012984
          -0.0036626853280511407 -0.004283260076105841 -0.009693332018314418 -0.0014079295889314059 -0.0018265424731929297 0.00041637176915933216
          0.004886405151790653 0.009124564296498078 0.0031646336373644113 0.0041423307946603025 0.0011881558527712804 0.0010483174938194506
          -0.0017380946003753839 -0.000541546758206668 0.0006070410243970148 -0.0017159600920316764 -0.004446735218915199 -0.002862920126312868
          0.0015484051026495305 0.0029827447120602257 -0.0006823234173365667 0.010428902663003427 0.009220598118527414 0.005195505664213132
          0.0013692124433924216 0.002604099485218489 0.0011794981908021876 0.004766475326224599 0.00529628557468978 -0.0010794077424285727
          -0.0005205805349894621 0.002237118152830982 0.0010173050599661948 -0.0028543316758742193 0.0034018571122196584 -0.0026633090888574656
          0.014695140356899117 -0.0012582942319852297 0.009715714675397003 0.004397055019007556 0.00832058998939389 0.0021875514769246762
          0.0017957855033558234 -0.001853477353267522 -0.00041100722554163194 -0.0003442739466901854 0.000059823743838810506 -0.0002766269918324446
          0.0000029944980156973444 0.0005578254665316307 0.005414065877660301 0.006422799893892495 0.003794606401547676 0.003939966785872967
          0.0003300090327130467 0.0018405343617816233 0.001080980889906824 0.00014152727117355823 0.00173292656930938 -0.005828009256032076
          0.002427523428330372 0.005507235443632949 -0.0017678424331295031 0.0022021449037886442 -0.0013707130736522466 0.0022759765484698657
          0.0023453888138375567 -0.0035993238720599813 -0.0004901297757143874 -0.002731970110461876 0.0023126065780305904 0.0003820501661521841
          -0.00548478844224435 0.0022135984754601684 -0.0015857671054559166 0.0058356020760900185 -0.000945452198249909 0.0028561739143599524
          -0.006506195488468647 -0.003284263059005088 -0.01296204302680326 -0.0024418359214601892 -0.012077646165875588 -0.004484010772528579
          -0.000789694946093128 -0.00038718254276527003 0.0015821143112356717 0.00038546461111773483 0.002535652868607685 0.00024309872489911705
          0.006187159530862657 0.004030827970447376 0.006526882331055181 0.010898455187619949 0.003188944886779649 0.005138513112287302
          0.005703589442532242 0.0023999036823159348 0.004512160962119378 0.004260662453383312 0.00652220555707185 0.0031697989525997367
          -0.003335139329955772 -0.0033441085677790583 -0.00020050446848973724 0.009280392872015493 0.011909758051678113 0.007432302309425952
          0.0017432869164411557 0.000822262646931915 0.0005400479800737046 0.007689606085047859 0.004355131898740616 0.0023938198791524264
          0.0017499061116665326 0.0017425170570966042 0.0016440070241419968 0.0081259578549997 0.012376762128969099 0.006019139237805338
          0.0029449184083017166 0.0006252057115865989 0.0025752745190234932 0.4565804014609642 -0.0056536108752720665 0.8914899368066517
          -0.008577584454612722 0.3509143061794058 -0.0014745193432953302 0.2947343819653391 -0.00012059637215164343 0.5805364197655891
          -0.0009946842151229707 0.2944475319243277 0.0006520088151841658 -0.00543779381151413 -0.011227368313850516 -0.004272420295484247
          0.19581072359356777 -0.0005589938522300442 0.37278500375985796 -0.0005143258751892921 0.1403749018998784 0.0003147462792605915
          -0.025364185856453392 -0.014952707169051449 -0.03472240361935519 -0.015076287346288575 -0.025813020980729684 -0.009767752604097069
          -0.010730863031693072 -0.01429223810135083 -0.013221415537091386 0.005220101889039242 0.007417631298341196 0.003913089446752883
          -0.0004348646057310557 -0.004276123990703262 -0.0002962144545780726 -0.0035893669549669216 -0.0036339155090712102 -0.0020642280667587665
          -0.09726899691593313 -0.15941848363199068 -0.196084653300876 -0.3212515298418338 -0.10557415895092755 -0.15974026165336533
          0.002012968306176227 -0.0021723530164231564 -0.000010504865035537714 0.008537127022560917 0.014570239360123721 0.009288105260281718
          0.0006343185701501095 -0.00019442162831510845 -0.000531450472938344 -0.001663957053383098 0.002926483418269725 -0.0015085103001735555
          -0.002240576280605245 -0.0007105996193019163 -0.028188775072476257 -0.002148187899586901 0.0018173946890019527 -0.0013366138505282038
          -0.3228513847577589 -0.005479733515404761 -0.00021342022093248647 -0.33057273055703623 -0.6476469195225253 -0.0046871291028246775
          0.0003311336807880483 -0.6579667636718268 -0.34198202375107345 -0.0026695125106896145 -0.0001777550629461222 -0.3269912970275886
          -0.0011702668750449069 0.0011449090108244242 0.0012918218847696216 0.0007894270752902138 0.0018844243939675556 0.0006672053423530111
          -0.004770565655468892 -0.0008887835347558964 -0.0025071816725669646 0.0075213001488126235 -0.0006090314054173485 0.0038589314709735617
          -0.0040278795761993225 -0.0010520598982663582 -0.004843763754394603 -0.003391474208934722 -0.0039340886437372324 0.003240523517286986
          -0.0012198508566668952 -0.0005692826261455702 -0.003980781028785407 -0.0035563789998634063 -0.00038575152517097283 -0.00004792414720528049
          -0.0006849798525630519 0.00393924046495692 0.003213961978793752 0.0002546397138109002 0.00605939452191484 -0.003247555170915961
          0.000715343600956337 0.10493128922277575 -0.00020508371151833557 0.1944880058539032 0.00006328565520919566 0.04669375763769957
          -0.0033870000286953805 0.002635486909152912 -0.004192218490290445 -0.005535826540499167 -0.009446409380796689 -0.011023503594428413
          -0.00668787979848795 -0.022493447775279674 0.0013722912201398207 -0.009179431723179449 -0.020433393149479395 -0.00541176737813992
          -0.005753322041739034 -0.0011120634966688692 -0.004223914488866026 -0.22705059841393635 -0.3507952536882153 0.0005394519929425023
          -0.4511174595228202 -0.6978409455616554 -0.002071421502220283 -0.21491628960318118 -0.3262473543050315 -0.00009155999141141624
          -0.3138847217189969 -0.6332571577534543 -0.34327221972530186 -0.006286085822253366 -0.000608458678910101 -0.0021873558015156336
          -0.017440108417159372 -0.02718284864748849 -0.01768950495725735 -0.18591865267169128 -0.36923988386878687 -0.17590715015557457
          -0.007226780638420083 -0.35778619236501397 -0.0031414857800302065 -0.7055797870346612 -0.0009735743084027249 -0.33092087503269507
          -0.0014167335969871228 0.005804301078278 -0.0037660320749816727 0.0007226459486679576 0.0008164478237359107 -0.0015486608740433797
          0.0000470255973430353 -0.0005775363366847391 0.0003917432009631974 0.00233120521007852 -0.0011503968594293607 0.0018733192964245898
          -0.0023918707895169075 0.0006640472183451346 -0.000080837945437515 -0.002451758564381354 -0.005815294927790836 0.004164547672986797
          0.004419978402779981 -0.0016105370427513884 0.00000781763542237468 -0.013553891196582846 -0.00831977560508797 -0.018206546196333717
          -0.004603177552725049 -0.01543791138102485 -0.007858585378681462 -0.002823950119010432 -0.26464173804872637 -0.2832299090306029
          0.0013812011979394759 -0.5277655502227251 -0.5744186973333177 -0.0006939801071838766 -0.2884081295531629 -0.34198609820737635
          -0.011684257066144232 0.0003223828966797959 -0.004915482498585422 -0.306967817235006 -0.6340244512308445 -0.4036700575816341
          -0.3018129739624291 -0.604677259587235 -0.3247600386113554 -0.025495264691565683 -0.03278699187577147 -0.022874899243567698
          0.008737135810463675 0.0029902313544125647 -0.002477847129027988 0.0014289126335567948 -0.0017770929441031647 -0.0025230560842860184
          -0.03608847218975414 -0.0968292105958089 0.0009277205858850002 -0.13149736769065196 -0.29375816813940453 -0.19020715194322646
          -0.008954255447408466 -0.004751285060389937 -0.006071466731178088 -0.015536413083197309 -0.022356421370720844 -0.01694165016008148
          -0.0318619029297516 -0.012513742318682852 -0.019513870724010465 0.060171585954778395 0.1329306925036463 0.056260324932316474
          -0.004201840051708927 -0.004172240784093506 -0.0031434729531241434 -0.013474707385003358 -0.028307578882495854 -0.016096407220934694
          -0.1157870773853969 -0.19736222118715235 -0.07990176741638128 -0.0035197750782369752 -0.01575166199375777 -0.4747439102918448
          0.47961597651108256 0.8661445745425914 -0.6537865846070708 -0.05169270898224562 -1.4535757275309948 -0.10395707923116493
          -2.9421360301063904 -0.044170061064311095 -1.2716805585082505 -0.014960403734585626 -2.6675112985958966 -0.029769519002659228
          -5.338821210347038 -0.013679483794971636 -2.552901319657356 -0.000021092592693339185 -3.4789901467860878 0.00018466841011210988
          -6.959040526296851 -0.0005996955739167031 -3.5272576317582436 0.04668265589327425 0.09771408191370214 0.04386814864254057
          -0.02076142649488122 -0.04140177033390757 -0.030016755792035443 -0.011909575423011631 -0.02266089729829801 -0.013057173293653523
          -0.004861518215213884 -0.0032159925762365593 -0.01417266757778135 0.027921632768571403 0.06006504028066828 0.022109862458666196
          0.001401720414094143 0.005222112650288935 0.0016203246083064116 -0.006796099409887152 -0.005203598144259608 -0.0020595640006547122
          -0.010798976198535759 -0.01808945816541796 -0.014060191614318263 -0.06334274860471534 -0.12538046678213632 -0.0659603636484043
          0.012045307194088223 0.03154076594870439 0.009856429779567744 0.05573053978398779 0.11508343532360299 0.0540937508460122
          0.016320478874531558 0.03928353866521553 0.027223268409120482 0.021915838679226307 0.050250432677267476 0.034041926317369575
          0.01285357219247893 0.03397027945143288 -0.005809223804729924 0.019394311829099564 0.053217908305738026 0.00857938468065833
          -0.012525667636499371 -0.015590405288867043 -0.01958869086880549 -0.016441022112892112 -0.01696417490218677 -0.01658389503258073
          -0.013314658371372745 -0.01325118083296184 -0.01039483550936171 -0.022656310367607513 -0.028122252188165775 -0.017085626874368987
          -0.00007260415211263194 -3.655749312640215 -0.00018710736220262092 -7.311063262365565 -0.00047903363013368505 -3.6717822034276173
          -0.0000153437558036984 0.0005853166672036281 -0.0017606848618627602 -0.00044229951486318697 0.0004598266748101487 -0.0013584560549739777
          -0.05196677254057169 -0.10314308859710142 -0.05039763060004443 0.012831799264663601 0.02232656618657769 0.010323292295264075
          -0.028290789979524028 -0.02294444761559783 -0.0318144244378627 -0.0253396796026239 -0.019355088612474092 -0.01847125995502591
          -0.00860009081986221 -0.000429370808135654 -0.015470277947090189 0.0016096787183488281 0.0006404328939798587 -0.01699840987534673
          -0.00835311920720383 -0.011714239552425232 -0.012799849519097184 -0.011134169855625209 -0.013418452894423116 -0.009557553474054126
          -0.012399134980166093 -0.01722548042250588 -0.014576621271869872 -0.02892836762342227 -0.03552876804441013 -0.021939970021615463
          -0.004809044488109815 -0.005486515757640031 -0.009227666074385632 -0.011007215332316522 -0.013327808473645009 -0.013613182892971865
          -0.026693041245517635 -0.03839211843231982 -0.031475931081182185 -0.03970643257600859 -0.05955689488898486 -0.04453811924578094
          -0.0285644698132948 -0.026726306143932177 -0.018216164022196307 0.0004031032925591038 -3.500378181612666 -0.00036952251010591297
          -7.002050524325086 -0.0006285872629598899 -3.509670752976894 0.00007615671520766476 -0.000009128535168656526 -0.0017405331602977636
          0.00010803425019756396 0.00032831607164762744 -0.0003022467517390659 -0.000051207152662380295 0.00014642569408129802 -0.0007533270206416809
          -0.05842984666818918 -0.11638130746292497 -0.059215513953797316 0.04320925686029087 0.08683868827345531 0.04450983956452781
          -0.0010944029379347242 0.11624588315780215 0.12280425053993449 -0.020693730130239674 -0.037883358514789744 -0.021882843320850887
          -0.026309841267840417 -0.0486087183984365 -0.027677320966393415 -0.014066285692527769 -0.0238758489470694 -0.012537718757400507
        </DataArray>
        <DataArray type="Float64" Name="resid_z" format="ascii" RangeMin="0" RangeMax="0">
          0 0 0 0 0 0
          0 0 0 0 0 0
          0 0 0 0 0 0
          0 0 0 0 0 0
          0 0 0 0 0 0
          0 0 0 0 0 0
          0 0 0 0 0 0
          0 0 0 0 0 0
          0 0 0 0 0 0
          0 0 0 0 0 0
          0 0 0 0 0 0
          0 0 0 0 0 0
          0 0 0 0 0 0
          0 0 0 0 0 0
          0 0 0 0 0 0
          0 0 0 0 0 0
          0 0 0 0 0 0
          0 0 0 0 0 0
          0 0 0 0 0 0
          0 0 0 0 0 0
          0 0 0 0 0 0
          0 0 0 0 0 0
          0 0 0 0 0 0
          0 0 0 0 0 0
          0 0 0 0 0 0
          0 0 0 0 0 0
          0 0 0 0 0 0
          0 0 0 0 0 0
          0 0 0 0 0 0
          0 0 0 0 0 0
          0 0 0 0 0 0
          0 0 0 0 0 0
          0 0 0 0 0 0
          0 0 0 0 0 0
          0 0 0 0 0 0
          0 0 0 0 0 0
          0 0 0 0 0 0
          0 0 0 0 0 0
          0 0 0 0 0 0
          0 0 0 0 0 0
          0 0 0 0 0 0
          0 0 0 0 0 0
          0 0 0 0 0 0
          0 0 0 0 0 0
          0 0 0 0 0 0
          0 0 0 0 0 0
          0 0 0 0 0 0
          0 0 0 0 0 0
          0 0 0 0 0 0
          0 0 0 0 0 0
          0 0 0 0 0 0
          0 0 0 0 0 0
          0 0 0 0 0 0
          0 0 0 0 0 0
          0 0 0 0 0 0
          0 0 0 0 0 0
          0 0 0 0 0 0
          0 0 0 0 0 0
          0 0 0 0 0 0
          0 0 0 0 0 0
          0 0 0 0 0 0
          0 0 0 0 0 0
          0 0 0 0 0 0
          0 0 0 0 0 0
          0 0 0 0 0 0
          0 0 0 0 0 0
          0 0 0 0 0 0
          0 0 0 0 0 0
          0 0 0 0 0 0
          0 0 0 0 0 0
          0 0 0 0 0 0
          0 0 0 0 0 0
          0 0 0 0 0 0
          0 0 0 0 0 0
          0 0 0 0 0 0
          0 0 0 0 0 0
          0 0 0 0 0 0
          0 0 0 0 0 0
          0 0 0 0 0 0
          0 0 0 0 0 0
          0 0 0 0 0 0
          0 0 0 0 0 0
          0 0 0 0 0 0
          0 0 0 0 0 0
          0 0 0 0 0 0
          0 0 0 0 0 0
          0 0 0 0 0 0
          0 0 0 0 0 0
          0 0 0 0 0 0
          0 0 0 0 0 0
          0 0 0 0 0 0
          0 0 0 0 0 0
          0 0 0 0 0 0
          0 0 0 0 0 0
          0 0 0 0 0 0
          0 0 0 0 0 0
          0 0 0 0 0 0
          0 0 0 0 0 0
          0 0 0 0 0 0
          0 0 0 0 0 0
          0 0 0 0 0 0
          0 0 0 0 0 0
          0 0 0 0 0 0
          0 0 0 0 0 0
          0 0 0 0 0 0
          0 0 0 0 0 0
          0 0 0 0 0 0
          0 0 0 0 0 0
          0 0 0 0 0 0
          0 0 0 0 0 0
          0 0 0 0 0 0
          0 0 0 0 0 0
          0 0 0 0 0 0
          0 0 0 0 0 0
          0 0 0 0 0 0
          0 0 0 0 0 0
          0 0 0 0 0 0
          0 0 0 0 0 0
          0 0 0 0 0 0
          0 0 0 0 0 0
          0 0 0 0 0 0
          0 0 0 0 0 0
          0 0 0 0 0 0
          0 0 0 0 0 0
          0 0 0 0 0 0
          0 0 0 0 0 0
          0 0 0 0 0 0
          0 0 0 0 0 0
          0 0 0 0 0 0
          0 0 0 0 0 0
          0 0 0 0 0 0
          0 0 0 0 0 0
          0 0 0 0 0 0
        </DataArray>
        <DataArray type="Float64" Name="stress_zz" format="ascii" RangeMin="-3445843.1213979535" RangeMax="5525250.725771244">
          109653.01670491039 112259.8355722486 728645.744126522 -301799.3770686757 138261.5984281885 186473.6322708248
          906911.5316523516 -130578.86884490441 166870.18015146666 260687.42896940102 1085177.3191781812 40641.63937886682
          528039.6512274896 268643.5986344433 353525.7747547784 443557.825846516 517262.21368777246 225177.89285329796
          305581.5818816201 450882.0578585752 506484.7761480554 181712.18707215262 257637.38900846176 458206.2898706343
          1944084.34448059 -2681864.290473388 1103574.7375459885 1598027.628063928 1921448.0306157726 -2787750.872125946
          1065385.7418608088 1661058.106225688 1898811.7167509547 -2893637.453778504 1027196.7461756289 1724088.5843874484
          456605.90034487005 45904.36387859186 -275576.6650405042 792233.7801336512 416091.6767837346 29250.43338551218
          -267886.15715621423 767430.2620224952 375577.4532225992 12596.502892432472 -260195.64927192425 742626.7439113392
          724912.6917868282 971704.7753548669 777155.729189117 912619.2393394307 718926.6327940449 953392.7227207109
          771928.7303742793 905954.270399131 712940.5738012616 935080.6700865548 766701.7315594419 899289.3014588314
          -663998.5909129002 -108465.61070493802 -323058.36530802137 -439366.53483814234 -675103.2789235965 -108576.95064435832
          -344153.4335188142 -464670.39922288875 -686207.9669342927 -108688.29058377864 -365248.50172960706 -489974.2636076353
          734702.4852739782 704895.0914864517 653135.2478660711 739888.5182102773 703453.1441016559 629057.6193473735
          745074.5511465764 702011.1967168602 604979.9908286757 317242.2096581813 3688.65989833817 355968.83661168866
          -15690.171368662486 394695.46356519597 -35069.00263566316 1148238.2828213181 2264650.9122818685 1605298.7280731273
          756680.2418636539 1136355.0644679705 2322719.8046830404 1753826.6083371046 720490.9267833198 1124471.846114623
          2380788.6970842117 1902354.488601081 684301.6117029858 -420513.0597589888 -482928.3146164919 -408957.18419338437
          -445628.6927474955 -397401.30862777994 -408329.0708784991 487189.8332130116 380848.14218485175 514292.0407449042
          377025.18131863564 541394.2482767967 373202.22045241954 3463645.794896269 2971459.1818009373 3544703.469632066
          3489785.978356841 3029015.2069268916 3368064.119016917 3515926.161817413 3086571.232052846 3191424.768401768
          -829309.4495736721 -824748.4218344484 -836086.5097095044 -811731.2078980298 -842863.5698453368 -798713.9939616111
          230290.6218213301 389387.7688624845 280167.8088283076 -204154.47511026397 248728.14830072084 423336.961316964
          297624.782316472 -186919.65643310035 267165.6747801116 457286.15377144347 315081.75580463634 -169684.8377559367
          974589.3070799898 750060.9848474067 845850.8535559254 991674.7689897433 767438.0112197341 873724.4570869966
          1008760.2308994969 784815.0375920617 901598.0606180679 278828.2369346195 300337.70057312294 321847.16421162646
          551638.4164236668 -270327.18079139385 -397604.7006221353 564408.9587433821 -246554.3379126867 -435779.6252358705
          577179.5010630974 -222781.49503397965 -473954.5498496056 947456.7210379967 133724.63534980215 730912.172799862
          907536.0817569919 140642.11098044872 742152.5250309987 867615.4424759869 147559.58661109532 753392.8772621355
          -661688.6223421677 -1416198.0251517957 -1054754.0355477552 -620115.5250413172 -1367718.8091038456 -1018789.3488079768
          -578542.4277404668 -1319239.593055896 -982824.6620681988 -48501.324156178256 -712551.3177403387 -59287.230880751464
          -758689.9832900676 -70073.13760532468 -804828.6488397964 -704238.3903669028 372804.9096701174 -693301.5414133455
          342797.29435591603 -682364.6924597882 312789.67904171476 -1127807.5861515668 -1214801.2878171476 -1301794.9894827283
          -680490.8891770162 199066.44797673053 -624800.5113072512 -60438.91207955018 -569110.1334374861 -319944.2721358307
          610658.0053809133 602468.6101666514 603528.4950923473 594364.4325183508 596398.9848037814 586260.25487005
          255588.08477024754 240628.72732742454 225669.36988460144 -744450.7786892058 -200893.27130617664 -126040.07847921111
          -722785.2657208245 -762440.1745526714 -219243.7488975325 -138917.6440238998 -752144.0870842352 -780429.5704161368
          -237594.22648888832 -151795.2095685884 -781502.9084476456 2542120.990852372 2567155.7902045147 2592190.5895566572
          2715320.1365689393 2590143.587480514 2732663.86394541 2573723.5236045206 2750007.591321881 2557303.459728528
          -1065401.8251383924 -737719.1669963198 -1084267.1990013658 -706928.0430715947 -1103132.5728643392 -676136.9191468697
          900752.370674868 836176.8900934104 771601.4095119527 -522729.65159727144 -454907.7312681243 -565013.6565433407
          -442317.683359817 -607297.6614894099 -429727.6354515098 -1409860.6907808068 -1828752.5752593605 -1486850.9351984868
          -704347.9886348094 -1444199.1049439192 -1909994.1574327692 -1532194.1123047632 -740689.7153476548 -1478537.5191070312
          -1991235.7396061774 -1577537.28941104 -777031.4420605002 1376744.881707446 1923147.6349676577 1352529.6167789085
          1875706.7401895814 1328314.3518503713 1828265.8454115056 1295073.6083973935 423583.793177307 553565.4771823589
          1362503.1472746276 981516.3974109186 339784.1234727269 686044.4969576546 1392295.270618183 667959.1864244436
          255984.45376814678 818523.5167329503 1422087.3939617383 330351.9687329504 365928.7948418923 401505.6209508343
          -1125994.5821281662 -685694.2084630273 -1096133.6715991083 -695940.1646105971 -1066272.7610700505 -706186.1207581667
          165393.98729493725 441543.35175169003 189469.48939192953 463773.66082192794 213544.99148892175 486003.9698921658
          359962.4967137511 386886.9300260186 413811.36333828606 360255.8128405988 -354976.92914161395 358159.2888841459
          -375734.0584863744 356062.76492769306 -396491.1878311348 -167273.53670095385 -703651.9229052119 -167123.07354842033
          -735802.3742042767 -166972.6103958868 -767952.8255033417 536468.8047478622 -631772.597229277 549267.208208971
          -630340.0412712165 562065.6116700799 -628907.4853131559 -539228.905150514 -535488.4989527899 -531748.0927550661
          -25695.075851898222 158472.2532650324 -16031.223062885174 131565.9824778639 -6367.370273872186 104659.71169069542
          -1012862.9936885467 -1284735.0959329389 -1018845.4439080452 -1289809.8985517665 -1024827.8941275438 -1294884.7011705944
          149943.4676676451 -102251.39233436255 226605.78396435556 176793.68884576354 -101786.9595774723 220329.88508471928
          203643.910023882 -101322.52682058203 214053.98620508303 -110413.66502505964 -65521.29829034336 -20628.93155562706
          -238868.07682676511 246325.0979504083 -244003.80719727743 291019.4728615234 -249139.53756778978 335713.84777263843
          667610.2046220028 683370.483188991 676478.5675045277 684181.2912192498 685346.9303870528 684992.0992495087
          851122.5258613538 -265840.7161086658 873504.2112128045 -299468.5941342392 895885.8965642555 -333096.4721598126
          -801452.5744926538 -1625028.0408454894 -794547.1833007765 -1578102.5344590868 -787641.7921088993 -1531177.0280726838
          -444193.69559762825 -612582.6606156371 102264.16343943054 -470844.33491792984 -564967.5120193505 66924.37621487628
          -497494.9742382316 -517352.3634230639 31584.588990322052 -1421217.010053237 -1448915.2622799673 -1476613.514506698
          405428.606162532 422124.38930632995 438820.1724501279 507738.00839224237 480054.67089394474 452371.333395647
          -594100.1385221911 -575905.7261640767 -557711.3138059623 723012.1741186299 698738.6435560801 674465.1129935302
          -1333522.6315629007 -1412650.0735432163 -1491777.5155235317 -1440313.3200343181 -1526419.0662733386 -1612524.81251236
          615642.8373216105 636196.8897313075 656750.9421410046 -699415.781074251 -2301727.2805360905 -508736.27760358865
          -2221442.0627258876 -318056.774132926 -2141156.844915684 -2836537.219102216 -2199396.635852095 -2922811.4599325336
          -2263671.4005962773 -3009085.7007628516 -2327946.16534046 -2084707.1430836283 -2184800.2015862465 -2284893.260088864
          -2314019.8715278227 -1899633.621310902 -2277553.641438062 -1937793.555389581 -2241087.4113483015 -1975953.4894682602
          5457182.7103398545 3501871.117056122 5491216.718055549 3537997.830865074 5525250.725771244 3574124.5446740254
          1062238.7304558062 1032389.536180483 1002540.3419051596 -1291130.0612381613 -1280411.6699545102 -1269693.278670859
          456494.4026383831 538584.3994112725 266751.39897913946 561213.1376317146 77008.39531989588 583841.8758521567
          -750296.4741481901 -336263.70683786774 -765299.430114246 -363751.55415584537 -780302.3860803018 -391239.401473823
          890119.4082292601 905900.8702782138 921682.3323271676 685693.5814409426 670217.4192670612 654741.2570931796
          -1564353.3791165657 -1618017.7728299869 -1671682.1665434076 -1251161.605588145 -948522.2209086893 -1239963.790677544
          -941436.5177882086 -1228765.9757669426 -934350.8146677278 556179.1267139 560358.9028077321 564538.6789015642
          1161247.5838267975 990984.2959316826 921816.1542848818 1267995.6342392918 1191671.5188491507 992235.492341427
          920173.4437605697 1266974.0379806622 1222095.453871504 993486.6887511716 918530.7332362578 1265952.4417220326
          199171.51819571195 418871.6646957166 233858.88994643185 480171.35085677786 268546.2616971517 541471.037017839
          821506.4085149347 827319.0398108733 833131.671106812 535768.0742969908 763005.4136550459 547398.6029051661
          764558.183682326 559029.1315133416 766110.9537096061 66460.42226714225 -776426.8185000755 87370.77589624084
          -781744.154336556 108281.1295253394 -787061.4901730365 -93300.40696666657 -127676.18498475356 -162051.96300284055
          748298.0956180276 724901.153593547 701504.2115690664 597605.7518222282 572308.7962619863 547011.8407017444
          -1549388.5170659292 -1417851.2918099617 -1510695.4026336367 -1329985.6712262963 -1472002.2882013437 -1242120.0506426312
          47002.67704291886 22013.916552514886 -2974.8439378890907 1858541.1330240252 1213298.1733195763 623967.2976122717
          1795099.7476046914 1215001.1345305615 599646.6912403806 1731658.362185358 1216704.0957415462 575326.0848684893
          -770605.5934774956 -874003.3865098752 -977401.1795422545 315521.9320827138 591579.867062513 686231.2573734504
          338399.3674273573 582822.934121348 663836.8727844226 361276.80277200084 574066.0011801829 641442.4881953949
          975237.974148431 1003209.2905152076 1031180.6068819842 552163.329105643 558347.0278072642 564530.7265088855
          1473820.2080200557 1458714.207024794 1443608.2060295332 170156.507043158 167828.2273371244 165499.94763109088
          886641.630687504 1174937.3985777225 827600.7612892317 1133352.509248416 768559.8918909593 1091767.6199191096
          672520.9406870014 659636.7239816616 646752.5072763216 -1945728.8317827606 -1498193.5283740938 -1929506.4656691751
          -1482678.9158768049 -1913284.0995555902 -1467164.3033795161 269692.80444209045 300522.0610127361 205122.51255305062
          243995.9138592606 140552.2206640108 187469.76670578515 809685.3101519714 673267.4491138653 733579.5406393508
          623886.5929154482 657473.7711267301 574505.7367170311 3515620.6887825634 2741214.451127365 3562584.0356495073
          2777956.3863057047 3609547.382516452 2814698.321484044 725666.20410379 1328236.4830608487 1890267.8608617499
          727581.6591298359 1353258.4620392967 2001498.6752748145 729497.1141558818 1378280.4410177448 2112729.4896878796
          1407638.6752705132 1388078.4329492142 1368518.190627915 1396562.9730084129 1467904.880462962 1539246.787917511
          794680.3804087912 798430.6309615067 802180.8815142224 4016486.403997843 4003688.4333620807 3990890.462726318
          2529909.638783402 2965325.0265429383 1278418.7518039444 2703000.747322506 2930221.6191261695 1144225.4190563941
          2876091.8558616103 2895118.2117094006 1010032.0863088443 789580.6046823389 929729.6571340584 1069878.709585778
          2995712.462196991 3036325.0230762158 3076937.583955441 3386478.2838034546 2975589.687531156 3472698.3507632995
          2967086.625619365 3558918.417723144 2958583.5637075733 1893109.6773660006 2053074.1661775352 2213038.65498907
          1914050.3052120227 1845768.2963294198 1777486.2874468167 1982446.7196331203 1702654.0952707182 1422861.4709083156
          2417611.1369527495 2079027.6746713142 1740444.212389879 1469774.2249108464 1254278.8267770526 1038783.4286432585
          1300208.2724494035 1656862.3372912742 2013516.4021331444 -2390758.3392892014 -1355579.3528498043 -2399037.7288222606
          -1379326.8769886643 -2407317.1183553203 -1403074.401127524 -2405586.4510215446 -1944429.4461522286 -2408152.5625849366
          -1961359.2910039928 -2410718.6741483277 -1978289.1358557567 253918.6315939165 391613.5406495259 252079.88546285024
          394829.9265216057 250241.13933178404 398046.3123936855 -1640928.2568052202 -1651932.4688143684 -1662936.6808235177
          -3445843.1213979535 -3433896.1354652764 -3421949.149532599 -832235.8699098094 -834917.9217608228 -837599.973611836
          872892.7076271906 855411.9332354036 837931.1588436165 -2965875.0968641215 -2952751.910044424 -2939628.723224726
          -2384116.385199024 -2371360.1005078265 -2358603.8158166297 1747738.6003053659 1735982.9082864139 1724227.216267462
          -995254.3253001247 -997701.0964623599 -1000147.8676245953 -2694725.7360926094 -2674085.772228521 -2653445.808364432
          334357.8961843991 322904.6259417434 311451.3556990877 -1468233.0692044233 -1456600.179447115 -1444967.2896898063
          1120477.3299555797 1108599.5879115006 1096721.8458674212 138817.6642051463 150265.74933769298 161713.83447023958
          1729918.852475896 1715859.1326008171 1701799.4127257382 1771383.251411177 1791704.1826941639 1812025.1139771508
          455456.20757400896 455421.9580872734 455387.7086005381 1067757.105593657 1076978.1558275013 1086199.2060613458
          -1060387.6660384655 -1052229.2346881186 -1044070.8033377714 -595064.988960998 -600337.2275308376 -605609.4661006773
          -142083.91642472532 -175281.67314469762 -145610.72768466195 -180032.6463185434 -149137.53894459855 -184783.61949238923
          58226.65076485387 50327.51145134317 42428.37213783248 -223174.17165383924 -234318.25145144004 -245462.3312490406
          -1446710.6681852485 -1446745.04043596 -1446779.4126866716 -2175596.3600971075 -2160041.045017495 -2144485.7299378817
          563022.7782657825 -134022.6476169658 564090.7316976778 -116027.54238114864 565158.6851295731 -98032.43714533147
          2494156.8710900038 1201631.9817357722 1323427.7769304437 2519697.993499233 1183204.3491564998 1303558.3464803214
          2545239.1159084626 1164776.7165772277 1283688.9160301986 683581.552381701 701375.3208305985 719169.0892794961
          -612141.4623447004 -621737.998374725 -631334.5344047493 781221.1914210322 788234.8067314007 795248.4220417694
          2014063.1545415106 2004445.025704007 1994826.8968665032 1910547.345928417 1908358.115359348 1906168.884790279
          1463445.2708873702 1459362.842217104 1455280.4135468379 432957.81389914785 432047.58158212854 431137.3492651093
          -374233.93372812367 -370778.7488301289 -367323.56393213413 -46291.56909597284 -36583.6066269738 -43250.0043071086
          -33660.89679036368 -40208.439518244355 -30738.186953753568 -113450.64166887783 -111177.69776868205 -108904.75386848628
          -8254.9980938925 -9734.575855982417 -11214.153618072363 14172.50313303058 4138.855566396363 -5894.792000237838
          -871348.4397291731 -864024.0551400238 -856699.6705508746 -1227725.8606015616 -1283015.1808814434 -1338304.5011613255
          -1718974.30937223 -1875258.0992763864 -2031541.8891805424 1150088.489595408 1037647.231821576 925205.9740477441
          898172.144878759 854000.669472534 809829.1940663091 -829825.2222705642 -826251.1424415552 -822677.0626125463
        </DataArray>
        <DataArray type="Float64" Name="peeq" format="ascii" RangeMin="0" RangeMax="0.005619442935196216">
          0.0042729665844505275 0.004627422086160999 0.004765260318598218 0.004301698953869497 0.004276362671498865 0.004631063467664582
          0.004768120520244985 0.0043064741566265705 0.004279758758547202 0.004634704849168163 0.004770980721891752 0.004311249359383645
          0.004139018398201851 0.00408924629610964 0.004159756703767475 0.004201906085376537 0.004137789802117952 0.004088328031781489
          0.004158037796049472 0.004200336019404573 0.004136561206034054 0.004087409767453337 0.004156318888331468 0.004198765953432609
          0.0014390129227022 0.0015852471123377569 0.0014303347874027243 0.0007772124828324583 0.0014395988044066418 0.0015854226036718167
          0.0014305114427965357 0.0007789923542671657 0.0014401846861110833 0.0015855980950058761 0.0014306880981903472 0.0007807722257018732
          0.00494188015186456 0.004634124157968291 0.004639263133589684 0.004964219752196677 0.004940953468737743 0.00463409933245932
          0.0046398716289045025 0.0049637287835207575 0.004940026785610926 0.004634074506950347 0.004640480124219321 0.004963237814844836
          0.003912035098918353 0.003938843009809893 0.004096858245671224 0.004073058826301795 0.003911370578363659 0.003937666978427242
          0.004095569031309008 0.0040720893167535445 0.003910706057808965 0.003936490947044591 0.00409427981694679 0.004071119807205294
          0.003872239861905195 0.00393541711254148 0.004115171290089444 0.004040266815830534 0.0038730236691532412 0.003935933688975319
          0.0041156281200668225 0.004040944830128496 0.0038738074764012856 0.0039364502654091575 0.004116084950044202 0.004041622844426458
          0.004126356463650586 0.004056640218495987 0.00407236867848622 0.00412553534372375 0.004056001259156394 0.00407155238821307
          0.004124714223796915 0.004055362299816801 0.0040707360979399185 0.003985030972656132 0.004086465084916731 0.003985660204066922
          0.004086965852140104 0.003986289435477711 0.004087466619363476 0.003022394578680276 0.003473603035713233 0.0034262550591310035
          0.0030284028713162625 0.0030220353108231326 0.003472883327523467 0.003426038825175766 0.003027152519981255 0.003021676042965989
          0.0034721636193337 0.0034258225912205285 0.003025902168646248 0.004368763408216772 0.004368537000353832 0.004369308934104425
          0.004369268157591126 0.004369854459992077 0.0043699993148284206 0.004019785626407505 0.004070089394863047 0.004020112962167877
          0.004070484940477087 0.004020440297928249 0.004070880486091127 0.001929092151575372 0.0018174747528751835 0.0013631217252508523
          0.0019291192428504702 0.0018173150187984382 0.0013618537813110576 0.0019291463341255686 0.0018171552847216926 0.0013605858373712623
          0.003990346811406436 0.003826290400374091 0.003991754322363283 0.0038275582221837523 0.00399316183332013 0.003828826043993414
          0.003455221646565207 0.0036445535699267174 0.0037043039607425297 0.003549620263090522 0.003454907812342397 0.0036451625137000634
          0.003704526065932112 0.0035491863683440837 0.003454593978119587 0.0036457714574734093 0.003704748171121695 0.0035487524735976464
          0.004053582178310162 0.004176967334544694 0.004089882512779405 0.004052721492799055 0.004175916837807876 0.004088685093781715
          0.0040518608072879474 0.004174866341071056 0.004087487674784025 0.0046005766969514136 0.004601056995940736 0.004601537294930058
          0.0038319500350576627 0.003662977449392475 0.0038934625581564684 0.003832538189374625 0.0036639185000055 0.0038938722401268616
          0.003833126343691586 0.0036648595506185246 0.003894281922097255 0.0038764156218053488 0.0038629289495794293 0.003987638281356276
          0.0038746610447551407 0.0038618907460638585 0.003987141307386483 0.0038729064677049336 0.0038608525425482877 0.003986644333416691
          0.0042166844998027895 0.004226075342302506 0.00400531510814049 0.004218418447721156 0.004228272151949253 0.004007358019330978
          0.004220152395639522 0.004230468961595999 0.004009400930521465 0.00403102584532172 0.003994504740026133 0.004033128551149231
          0.003997171961425732 0.004035231256976742 0.00399983918282533 0.0028413083864662417 0.002686919928162194 0.002841210217927352
          0.0026868348989986393 0.002841112049388462 0.0026867498698350837 0.005619442935196216 0.0056165154186226165 0.005613587902049017
          0.003472464121913192 0.003236134612575089 0.0034721324959501765 0.0032339039587730286 0.0034718008699871606 0.0032316733049709678
          0.004034839175732906 0.004028199979751761 0.0040348953644865964 0.0040279465831151995 0.004034951553240288 0.00402769318647864
          0.004031644052231982 0.004031465105439821 0.0040312861586476595 0.0036163585937966313 0.003735041518822286 0.0037654334399479495
          0.003662350931021836 0.0036169376822764586 0.003735325304114461 0.003765831567102596 0.003663006591657422 0.0036175167707562855
          0.003735609089406637 0.0037662296942572427 0.0036636622522930084 0.0014390341467593998 0.001439198326549512 0.001439362506339624
          0.0011575734281796452 0.0015853606530862316 0.001157955859461841 0.0015856325844993743 0.0011583382907440368 0.0015859045159125169
          0.0042615932295187575 0.00406636452962669 0.004263954197924708 0.004068616986331778 0.004266315166330661 0.004070869443036866
          0.003947538750995436 0.003945835341736379 0.003944131932477321 0.0034062168406891165 0.0031870265014361126 0.003404768959245546
          0.003186210714242224 0.0034033210778019757 0.003185394927048335 0.0033838532793936033 0.0031939132817945686 0.003028564334063669
          0.0032863740455929694 0.003383830591936049 0.00319332217754593 0.003028294645282301 0.0032865349822045844 0.0033838079044784955
          0.003192731073297292 0.003028024956500933 0.0032866959188161994 0.0037239680361721176 0.003720386725635124 0.0037230726918199963
          0.0037188044403225207 0.0037221773474678736 0.003717222155009916 0.0030142344067650797 0.002900194464962096 0.0025670136345212315
          0.002652715126432726 0.0030125499812359183 0.0028994648992991608 0.0025681270353626958 0.0026526594467535247 0.0030108655557067564
          0.002898735333636225 0.0025692404362041604 0.0026526037670743232 0.0043163644310919855 0.004316881768457717 0.004317399105823446
          0.0036942453065635203 0.003745599133689326 0.003695800036790785 0.0037464109021168404 0.00369735476701805 0.0037472226705443546
          0.0035719435624410843 0.003505781730402769 0.003572955303362605 0.0035068285785079165 0.0035739670442841267 0.003507875426613064
          0.003874227358763135 0.003875279992757557 0.003876332626751979 0.004164846146870265 0.00420344801470257 0.004165241478386223
          0.004204028317917818 0.004165636809902182 0.004204608621133066 0.0043207942390720245 0.00422511008152408 0.0043212206955259985
          0.0042257368073324916 0.004321647151979972 0.004226363533140903 0.004217669240875985 0.004362325312969762 0.004217754954701541
          0.004362293311484313 0.004217840668527098 0.004362261309998864 0.003924957555334685 0.003925815543059278 0.00392667353078387
          0.0039350985974457575 0.004012860452517804 0.00393568362104481 0.004012856648298539 0.003936268644643864 0.004012852844079275
          0.004197105020570556 0.004155037009679569 0.004197338089382397 0.004155026691402013 0.00419757115819424 0.004155016373124457
          0.004548604527393608 0.004261722627246057 0.004586971455860755 0.00454950426517934 0.004262583323257201 0.0045870518841091175
          0.00455040400296507 0.004263444019268344 0.004587132312357479 0.004539928557401836 0.004541115365433984 0.004542302173466132
          0.0038265627980574425 0.0038800390425661946 0.003827121303052983 0.0038808242237432875 0.0038276798080485223 0.0038816094049203805
          0.0039625629127542136 0.003991875249522385 0.003962674468018378 0.003991597556561834 0.003962786023282542 0.003991319863601283
          0.0021493389897932714 0.0025924984437864238 0.0021493830995474223 0.0025921412419954454 0.0021494272093015724 0.0025917840402044667
          0.0038488522013053264 0.003698609947441947 0.003850444373413249 0.0037004988204105992 0.003852036545521173 0.0037023876933792517
          0.004919497592532984 0.0045717768225586155 0.004843545261814514 0.004918651412436169 0.0045729914258553364 0.00484313130888692
          0.004917805232339354 0.004574206029152057 0.004842717355959327 0.00492583471015463 0.004926083767447988 0.004926332824741346
          0.0040371762876891025 0.004036982585909647 0.004036788884130192 0.0050303061601078055 0.00502875266369587 0.005027199167283936
          0.004600807658298779 0.004602970122296819 0.0046051325862948595 0.004099741667670025 0.004099751267858613 0.004099760868047203
          0.003789779512793881 0.003791436865478723 0.0037930942181635644 0.005131890955684671 0.0051305116150741955 0.005129132274463719
          0.004821024559412301 0.0048210812917637985 0.004821138024115296 0.004440780753595792 0.004521006877680349 0.004445291887857012
          0.004525590993792945 0.004449803022118233 0.004530175109905542 0.0040005667444501705 0.003988294166661621 0.0040030281298361545
          0.003991110324258425 0.0040054895152221385 0.0039939264818552285 0.005124465948916267 0.005124718402502913 0.005124970856089561
          0.0037000812876537793 0.003728330504408994 0.0037019370980984558 0.0037301205002350786 0.003703792908543133 0.003731910496061163
          0.0014266493629966866 0.0008847613893476654 0.0014272656216161345 0.0008855531544858519 0.0014278818802355821 0.0008863449196240384
          0.002502049846580042 0.0025018882017448295 0.002501726556909617 0.004906402242461853 0.00490803121692314 0.004909660191384426
          0.0032109147498225517 0.0034838115025157537 0.003208632301728569 0.0034827767911107467 0.0032063498536345865 0.0034817420797057393
          0.0036030785161335656 0.0037280806639244293 0.00360368139794194 0.0037283496272804547 0.003604284279750314 0.00372861859063648
          0.004796579135792907 0.0047963652927694705 0.004796151449746033 0.005019870731581478 0.0050187756679571476 0.005017680604332818
          0.003986911721907289 0.003987184478423885 0.003987457234940481 0.003554138227853716 0.0035350329886356772 0.0035558323615669483
          0.003536658658465144 0.0035575264952801815 0.003538284328294611 0.0039081874975620675 0.003908092820135711 0.003907998142709354
          0.0041822842636410115 0.004192515535621755 0.004253713354625896 0.004255466184348139 0.004181128609363816 0.004191229716193414
          0.004251744395515026 0.00425342567911313 0.004179972955086619 0.0041899438967650734 0.004249775436404157 0.004251385173878122
          0.0038729549764706453 0.004012986823095236 0.0038736829353974494 0.004013345844494245 0.003874410894324254 0.004013704865893256
          0.0037240358513425916 0.003723753825116418 0.0037234717988902434 0.004240952063432087 0.00419915522942146 0.0042391639714744
          0.004197877083029468 0.004237375879516714 0.004196598936637476 0.003788883495980243 0.0036541914812505656 0.0037886509695263266
          0.0036530606596141347 0.003788418443072411 0.003651929837977704 0.004072899754565768 0.004072725852232884 0.004072551949900001
          0.003990755332724185 0.003990783658337958 0.00399081198395173 0.003615657813504174 0.0036139462795826294 0.0036122347456610847
          0.0035846551470981865 0.003554808843287278 0.00358687330274159 0.0035570711014596924 0.0035890914583849944 0.0035593333596321067
          0.003696930191889725 0.0036949388825610863 0.003692947573232448 0.0028138664875114448 0.002483515420225176 0.003014859436144848
          0.0028135331659300306 0.002483950832836915 0.0030139991453476405 0.002813199844348617 0.002484386245448654 0.0030131388545504333
          0.003540105114705374 0.003538043580835802 0.003535982046966231 0.004024446887807547 0.00415630930585903 0.004148613960196718
          0.0040246079279078716 0.004154874638538466 0.004147225999664586 0.004024768968008195 0.004153439971217901 0.004145838039132455
          0.004054542803851738 0.00405381411258136 0.004053085421310982 0.003847917567679756 0.0038482376937722003 0.0038485578198646456
          0.001996093540691103 0.001996267298163241 0.001996441055635379 0.0038778460483664175 0.003878443576479345 0.003879041104592272
          0.004240966751765425 0.004246744940714935 0.004238466314083619 0.004244225322266265 0.004235965876401812 0.004241705703817596
          0.0033201383510279856 0.0033191009020273107 0.0033180634530266357 0.0036483509849068604 0.0036076665889082215 0.0036504470545305296
          0.003609402074420495 0.0036525431241542002 0.00361113755993277 0.00421586450643659 0.004147252299339722 0.004213559128645293
          0.00414568245997787 0.004211253750853996 0.004144112620616019 0.003496954984657163 0.003272156656339892 0.003494743492526301
          0.0032706224475256796 0.0034925320003954385 0.003269088238711467 0.0023821974248972155 0.002750709295438634 0.002382483809054408
          0.002750767355158567 0.0023827701932116 0.0027508254148784998 0.0037178700859914855 0.003710058184121975 0.0034669964736079367
          0.0037174598182298227 0.003709265218468045 0.003465371625228628 0.00371704955046816 0.003708472252814116 0.0034637467768493194
          0.003055889559611998 0.003055102355064018 0.003054315150516038 0.0031623768278637855 0.0031601131820177776 0.003157849536171769
          0.0038967459305079767 0.0038961331636587436 0.0038955203968095106 0.0019385276560360191 0.0019385868267624029 0.001938645997488787
          0.002519997109296992 0.0021700170594051663 0.002212517111886937 0.002520644577451915 0.0021702281896518166 0.0022129840807943242
          0.0025212920456068382 0.002170439319898467 0.0022134510497017106 0.002839521101004352 0.0028389559638737 0.002838390826743047
          0.0026251567456099622 0.002625634295140925 0.0026261118446718884 0.0023405916825359244 0.0019719552723214072 0.002341413579104214
          0.0019722143558668936 0.002342235475672504 0.0019724734394123795 0.0017805144319866283 0.0017801953408486204 0.0017798762497106125
          0.00225644356097218 0.0022570797110798677 0.0022577158611875553 0.0009387127842353584 0.0009394844246799913 0.0009402560651246245
          0.001349361702577594 0.0013467083899814706 0.0013440550773853466 0.0008513208945520827 0.0008524263785667342 0.0008535318625813857
          0.00040630540047345207 0.0004101337568594434 0.0004139621132454347 0.00018560849342509552 0.00011433342718003277 0.00018608327802459502
          0.00011483615342239829 0.00018655806262409452 0.00011533887966476381 0.000013084902419292698 0 0.000013140705726330469
          0 0.000013196509033368239 0 0 0 0
          0 0 0 0.0003948444607533572 0.000395178074234453 0.00039551168771554887
          0.0000855392144980825 0.0000856905048795041 0.00008584179526092568 0.0000013853654575050854 0.0000014101638011168689 0.0000014349621447286524
          0.0006923429188959784 0.0006924711387566678 0.0006925993586173572 0.00026560297612859796 0.0002657829405823229 0.00026596290503604785
          0.00004255374089391798 0.00004266993755749922 0.00004278613422108047 0.0010186124037299459 0.0010186087244883693 0.0010186050452467925
          0.0005525269051971323 0.0005526155320549251 0.0005527041589127178 0.00018494429152751172 0.00018516403354930722 0.00018538377557110268
          0.0008995790562799028 0.0008995155725892456 0.0008994520888985883 0.0004545649329259557 0.000454720765171355 0.00045487659741675447
          0.001258837425468189 0.001258704604010886 0.0012585717825535836 0.0008192319836446294 0.0008191967549680032 0.0008191615262913767
          0.0016031179972521166 0.0016029717616108583 0.0016028255259696001 0.0012287677328656447 0.001228563000567468 0.0012283582682692915
          0.0019140611845654119 0.0019139161120100819 0.0019137710394547518 0.0016629994632611593 0.0016626363054588953 0.001662273147656631
          0.002059159595297811 0.00205903154489328 0.0020589034944887485 0.0018853493944105747 0.0018849071089620003 0.0018844648235134258
          0 0 0 0 0 0
          0 0 0 0 0 0
          0.000025354414985748793 0.00002543227436437752 0.000025510133743006248 0.00014416899131583684 0.00014433699520634646 0.00014450499909685608
          0.002385861331980256 0.0025501680365361355 0.0023863268771119545 0.0025507739094883554 0.0023867924222436532 0.002551379782440575
          0.0016905209283747554 0.0019371668377216804 0.0017793233293526545 0.0016905715151893815 0.001936871273772464 0.0017792527938114723
          0.0016906221020040074 0.0019365757098232473 0.0017791822582702902 0.0031805046917677614 0.003180689001944751 0.003180873312121741
          0.002789422862825734 0.00278953172377141 0.0027896405847170867 0.0021275497804502676 0.0021277831311162926 0.0021280164817823175
          0.001342000679849358 0.0013419299852650654 0.0013418592906807728 0.0016353507841853161 0.0016352532523208015 0.0016351557204562868
          0.0018818615723022283 0.0018817575459336392 0.0018816535195650503 0.002070084463643727 0.0020700021056579984 0.0020699197476722704
          0.0021484903228594044 0.002148436570865708 0.0021483828188720118 0 0 0
          0 0 0 0 0 0
          0 0 0 0 0 0
          0.000019873779985686432 0.000019929015721312962 0.000019984251456939496 0.00040750616295739045 0.00040768836833931783 0.0004078705737212453
          0.00012774232446972783 0.00012820277455720587 0.0001286632246446839 0.0007967872824840156 0.0007967873936187912 0.0007967875047535666
          0.001277448802915252 0.0012770397447933136 0.0012766306866713749 0.0015387062141170773 0.0015380719973437423 0.0015374377805704074
        </DataArray>
        <DataArray type="Float64" Name="pe11" format="ascii" RangeMin="0" RangeMax="0.005615756943445299">
          0.004271183945505306 0.004624946593105446 0.004762681403102274 0.004299741781938124 0.0042746497287408005 0.004628650646338137
          0.00476560224099962 0.004304599588789796 0.004278115511976295 0.004632354699570828 0.004768523078896967 0.004309457395641466
          0.004138139613189416 0.004088494406486884 0.004158877022993159 0.004200886490221607 0.004136920995814813 0.004087580444674752
          0.004157174005625072 0.0041993384824502225 0.004135702378440211 0.004086666482862622 0.0041554709882569854 0.004197790474678838
          0.001438111523862398 0.0015843506798599053 0.001429740119677378 0.0007766336103659676 0.0014386875433815907 0.0015845184042991899
          0.0014299052536613814 0.0007783925850245562 0.0014392635629007834 0.0015846861287384746 0.0014300703876453842 0.0007801515596831446
          0.004939381891815871 0.004631286814284159 0.004636327407383919 0.00496181804550354 0.0049384333680568765 0.004631224489570233
          0.0046369096187020495 0.004961307940513705 0.004937484844297882 0.004631162164856307 0.004637491830020181 0.00496079783552387
          0.003910805178924345 0.003937455105012951 0.004095515899912333 0.004071731558101546 0.003910155452502645 0.003936299193697559
          0.0040942498398040565 0.004070780475536448 0.003909505726080944 0.003935143282382166 0.004092983779695781 0.00406982939297135
          0.003870982750051824 0.003934224339088018 0.004113270034876865 0.004038437663240007 0.003871753318383094 0.003934718157971747
          0.004113701687018171 0.004039101214902301 0.0038725238867143652 0.003935211976855476 0.004114133339159477 0.004039764766564594
          0.0041254611659152455 0.004055897848206751 0.004071588321941502 0.004124652225768861 0.004055261596822558 0.0040707668970760185
          0.0041238432856224765 0.0040546253454383655 0.0040699454722105365 0.003984072226802652 0.004084954488738437 0.003984677638254268
          0.004085432052131764 0.003985283049705883 0.004085909615525093 0.003021280025635461 0.00347262006742592 0.0034252925948199267
          0.0030274710526634946 0.0030209283728164613 0.0034719103032651386 0.003425083978038109 0.0030262243587211015 0.0030205767199974606
          0.0034712005391043577 0.0034248753612562918 0.0030249776647787085 0.004366479121900484 0.004366124241388516 0.004366985986547267
          0.004366821109406748 0.00436749285119405 0.004367517977424982 0.004018979224976783 0.004068993106481112 0.004019281758034264
          0.004069363421170796 0.004019584291091746 0.00406973373586048 0.0019285391785481146 0.0018171989922482349 0.0013627346273728973
          0.0019285591654661415 0.0018170372730524458 0.0013614490827865383 0.0019285791523841688 0.0018168755538566562 0.0013601635382001788
          0.0039888283349481125 0.0038251249467963627 0.003990244022130059 0.0038264015772566003 0.003991659709312005 0.003827678207716838
          0.0034548019110093994 0.003644131032583581 0.0037038723652564856 0.003548981137120406 0.0034544836282921223 0.003644729563719266
          0.0037040907237157624 0.0035485536667683184 0.003454165345574845 0.0036453280948549518 0.003704309082175039 0.003548126196416231
          0.004052659098949919 0.004175896608821818 0.004088696765268992 0.0040518141519741615 0.004174865401762 0.004087521593408643
          0.0040509692049984026 0.004173834194702184 0.004086346421548296 0.004597643779155362 0.004598106577100658 0.004598569375045955
          0.0038314079202676084 0.0036622569741988882 0.003892638774179053 0.0038319780161566288 0.0036631863117010284 0.0038930290135543023
          0.0038325481120456495 0.0036641156492031694 0.0038934192529295527 0.0038753709894885796 0.0038621643152953753 0.003986954765082843
          0.003873635533108473 0.0038611370485820396 0.0039864641776339894 0.0038719000767283656 0.0038601097818687035 0.003985973590185136
          0.004214759823733734 0.004224310355209549 0.004003895992611537 0.004216503906712834 0.004226529733269679 0.00400596620340855
          0.004218247989691934 0.0042287491113298095 0.0040080364142055635 0.004029497289277522 0.003992828291453725 0.004031646206523047
          0.003995552441961129 0.0040337951237685715 0.003998276592468533 0.002840666746336062 0.002686217647052445 0.0028405678023163583
          0.002686124322777501 0.0028404688582966556 0.002686030998502558 0.005615756943445299 0.00561273210538679 0.00560970726732828
          0.0034714206459938645 0.003235074853306869 0.003471110303107419 0.003232866912252058 0.003470799960220974 0.0032306589711972463
          0.004033910319116773 0.004027426834111589 0.004033940249783513 0.004027153327195958 0.004033970180450254 0.004026879820280329
          0.004030943539130742 0.0040307522005904525 0.004030560862050163 0.0036161283147239523 0.0037347443302478416 0.003764960269080437
          0.003661898004270611 0.0036167043854672966 0.0037350214643134924 0.0037653479352254314 0.0036625474689338158 0.0036172804562106405
          0.003735298598379142 0.0037657356013704245 0.003663196933597021 0.0014381778014615587 0.0014383381950396922 0.0014384985886178262
          0.0011565465801268212 0.0015844172226893972 0.0011569263917962454 0.0015846792780013 0.0011573062034656697 0.0015849413333132029
          0.0042598951600129765 0.004064912735923157 0.004262293245800516 0.004067200669349157 0.004264691331588054 0.0040694886027751575
          0.003946206907001417 0.003944528674503611 0.003942850442005805 0.003405319887017466 0.0031863989119640867 0.003403890269890846
          0.0031855848667204276 0.003402460652764226 0.0031847708214767694 0.003383447731777498 0.003193478773238437 0.00302808440248454
          0.0032858682936502143 0.003383419433697078 0.003192887798711763 0.0030278142384945438 0.003286022237949656 0.0033833911356166584
          0.0031922968241850885 0.0030275440745045476 0.0032861761822490974 0.0037227456651917536 0.003719275687825209 0.003721865420879885
          0.0037177075054543496 0.0037209851765680167 0.0037161393230834908 0.0030132202971199025 0.00289924285896128 0.002566475126090135
          0.0026519450980548908 0.0030115451196404425 0.002898521148279562 0.002567585083211732 0.0026518864191627063 0.0030098699421609817
          0.0028977994375978438 0.002568695040333328 0.002651827740270521 0.004314136324918168 0.004314625056716595 0.004315113788515021
          0.003693468162990451 0.0037448217815494386 0.0036950281088476943 0.0037456234784425508 0.0036965880547049374 0.003746425175335663
          0.003571101335848633 0.0035049978390869086 0.0035721004327718747 0.0035060355507337167 0.003573099529695116 0.0035070732623805256
          0.0038730534993500557 0.003874092708132422 0.0038751319169147884 0.004163332798350501 0.004201591886070976 0.004163702662268579
          0.0042021435285015405 0.004164072526186659 0.004202695170932106 0.0043184877853099345 0.0042231259769245815 0.004318884409475439
          0.0042237205328833245 0.004319281033640944 0.004224315088842067 0.004215979900836287 0.004359996949061669 0.0042160336250529375
          0.0043599297869876975 0.0042160873492695875 0.0043598626249137275 0.00392389074891048 0.003924730750544718 0.003925570752178957
          0.003934480272060439 0.004012257816956871 0.00393505034344467 0.00401225049435175 0.003935620414828903 0.004012243171746627
          0.00419571491078424 0.004153699609333797 0.004195917441422293 0.004153652875518022 0.004196119972060345 0.004153606141702246
          0.004545911880263018 0.004259458795910872 0.004584103891752499 0.004546812512335069 0.004260308608816645 0.004584159144144467
          0.004547713144407119 0.004261158421722418 0.004584214396536434 0.004537652408362189 0.004538855342277582 0.004540058276192975
          0.0038258446383865573 0.003879561015415222 0.003826386069583608 0.003880336475615671 0.0038269275007806586 0.003881111935816119
          0.003961881130066849 0.00399122051587965 0.003961972231857721 0.003990932765545874 0.003962063333648592 0.003990645015212097
          0.00214844067957489 0.002591394893298083 0.0021484790911008617 0.002591038223326262 0.0021485175026268338 0.0025906815533544413
          0.0038475796530817894 0.003697663280577693 0.003849200901502703 0.0036995700958537305 0.0038508221499236168 0.0037014769111297675
          0.004917974266826271 0.004569710522627475 0.004841495780672001 0.004917114197777087 0.0045709438153171975 0.004841096239821235
          0.004916254128727903 0.0045721771080069196 0.004840696698970471 0.004923860132901182 0.0049240791046644685 0.004924298076427755
          0.004036541242009811 0.004036345828657331 0.004036150415304853 0.005028852559713877 0.005027302665620089 0.0050257527715263026
          0.004598646474116421 0.004600839486753438 0.004603032499390455 0.004098516296957358 0.004098499119636446 0.004098481942315534
          0.0037884303552978395 0.003790120883877547 0.003791811412457254 0.005129360340860939 0.005127949277239737 0.005126538213618534
          0.00481844693895523 0.004818508391273412 0.004818569843591594 0.004436173469913673 0.004517554401442893 0.004440849928878325
          0.004522217570786536 0.0044455263878429765 0.004526880740130179 0.003998010805845771 0.003986141083106369 0.0040005649505993075
          0.0039890347903575206 0.004003119095352845 0.003991928497608672 0.0051211153021586235 0.0051213193997472015 0.005121523497335779
          0.0036989158776049597 0.003727074094015722 0.0037008285191602445 0.00372891066392358 0.0037027411607155293 0.0037307472338314373
          0.0014257207971637366 0.0008838434020250743 0.0014263238547579569 0.0008846307422093339 0.0014269269123521775 0.0008854180823935933
          0.002501045854586581 0.002500880070671627 0.0025007142867566733 0.0049038021182427755 0.004905430850063195 0.004907059581883613
          0.0032096597405369847 0.0034827482669658356 0.003207400056535285 0.003481734908886496 0.003205140372533585 0.0034807215508071564
          0.0036029179939149345 0.0037278226297354135 0.0036035193743965666 0.003728087678388724 0.0036041207548781983 0.0037283527270420337
          0.004793709143697115 0.0047934780992778475 0.004793247054858581 0.005017839621654937 0.005016743767228039 0.005015647912801141
          0.0039859288321783285 0.003986177844253583 0.003986426856328838 0.0035538380755339933 0.0035348339060114232 0.0035555426094702894
          0.0035364712712226886 0.003557247143406587 0.003538108636433953 0.003907650127221083 0.003907552905162448 0.003907455683103812
          0.004180910334858226 0.004191157370087466 0.004252327384375405 0.004253972549713873 0.0041797774307729685 0.004189895799215797
          0.004250392422534567 0.004251967667392641 0.004178644526687712 0.0041886342283441284 0.004248457460693729 0.00424996278507141
          0.0038725843424003564 0.004012391816418272 0.003873306331319065 0.004012748849474795 0.0038740283202377736 0.004013105882531318
          0.0037228288624834758 0.003722561957704079 0.0037222950529246816 0.004239764059985057 0.0041979054730674125 0.004238005237700381
          0.004196651383909049 0.004236246415415706 0.004195397294750685 0.0037883029610586627 0.0036533868670228647 0.003788074405239396
          0.003652273019206466 0.0037878458494201295 0.0036511591713900672 0.004071751550716533 0.004071547578134535 0.004071343605552538
          0.003989911674898394 0.003989914931311989 0.0039899181877255845 0.0036146224062624174 0.0036129296971767286 0.0036112369880910403
          0.0035840013877305264 0.0035542844107343857 0.003586247751421078 0.0035565823959915763 0.0035884941151116297 0.0035588803812487664
          0.00369599153505359 0.0036940202728726226 0.003692049010691657 0.0028132691543688625 0.002482929359075856 0.0030141404588594697
          0.002812930675870742 0.0024833522436493727 0.0030132802698387647 0.0028125921973726218 0.0024837751282228895 0.0030124200808180606
          0.0035391046951367138 0.0035370733768399555 0.003535042058543197 0.004023818762591409 0.004155116606260676 0.004147565654800254
          0.0040239823495754196 0.004153702014011947 0.004146193253547606 0.0040241459365594305 0.004152287421763218 0.004144820852294957
          0.004053283863687309 0.004052569615335572 0.004051855366983837 0.003847464638035958 0.003847773198241619 0.0038480817584472795
          0.0019951942495550867 0.0019953571913196256 0.001995520133084165 0.003877500598875595 0.0038780945603331014 0.003878688521790608
          0.004239613021713457 0.004245212744044201 0.004237147191850066 0.0042427299703976795 0.004234681361986675 0.004240247196751158
          0.0033189855108589207 0.003317964498702853 0.0033169434865467843 0.0036474477415920276 0.0036071275429197945 0.0036495641791750447
          0.0036088702053406647 0.003651680616758062 0.0036106128677615354 0.004214795250886196 0.0041463636363695 0.004212515679153675
          0.004144804251113681 0.004210236107421156 0.004143244865857862 0.0034959065779625836 0.0032712051615535866 0.0034937215542463866
          0.003269686813370245 0.003491536530530191 0.003268168465186903 0.0023814476160439685 0.002749844352771443 0.0023817233558366393
          0.002749901993211304 0.0023819990956293106 0.0027499596336511634 0.003716826092518022 0.003709096425619398 0.0034659610116876335
          0.0037164305476279844 0.0037083183359044062 0.0034643477737279845 0.003716035002737947 0.003707540246189414 0.003462734535768336
          0.003054913800215667 0.0030541314042295967 0.003053349008243526 0.0031613009309164474 0.0031590395973050706 0.003156778263693694
          0.0038956343818165053 0.0038950348639419695 0.0038944353460674333 0.0019376576947044044 0.0019376985297674253 0.0019377393648304466
          0.0025196581309405606 0.002169690644650752 0.0022121262438060283 0.0025202999200560515 0.002169896508689286 0.0022125901596189495
          0.0025209417091715414 0.00217010237272782 0.002213054075431871 0.0028388938467604975 0.0028383261534099882 0.002837758460059479
          0.002624631202196411 0.0026251025096047623 0.002625573817013114 0.0023400391212553403 0.001971138489987121 0.002340848442256944
          0.0019713809385160795 0.002341657763258548 0.001971623387045037 0.001780276005877393 0.0017799561621004542 0.0017796363183235154
          0.0022558681665981665 0.0022565013426867025 0.0022571345187752394 0.0009382263706458402 0.0009389489585368008 0.0009396715464277614
          0.0013489189433347024 0.0013462435975649743 0.001343568251795246 0.0008507682535906255 0.0008518123221078256 0.000852856390625026
          0.00040597981162970544 0.0004097679243111325 0.0004135560369925596 0.00018534410205428198 0.00011423311972070143 0.00018581807845477366
          0.00011473499036820632 0.00018629205485526533 0.00011523686101571122 0.000013049375011189648 0 0.000013104909836821479
          0 0.000013160444662453308 0 0 0 0
          0 0 0 0.0003941406063196367 0.0003944736488650158 0.0003948066914103949
          0.00008527911777664885 0.00008542974403633516 0.00008558037029602146 0.000001378596792807232 0.000001403258022123595 0.0000014279192514399578
          0.0006911096522295792 0.0006912363302527073 0.0006913630082758353 0.00026466349218927046 0.00026484210920882205 0.0002650207262283737
          0.00004227847659322756 0.0000423941342747774 0.00004250979195632724 0.00101712304510623 0.0010171173209862598 0.0010171115968662897
          0.0005506010624073779 0.0005506883640261966 0.0005507756656450153 0.0001836877089910158 0.0001839061444529753 0.00018412457991493476
          0.0008970797557193318 0.00089701450990228 0.0008969492640852284 0.0004516887878690005 0.00045184246574995834 0.0004519961436309161
          0.0012564984213308918 0.0012563625164541945 0.0012562266115774977 0.0008150467403957229 0.000815009160262341 0.000814971580128959
          0.001601408040810246 0.0016012575108943078 0.0016011069809783699 0.0012243373949826454 0.0012241275955165885 0.0012239177960505312
          0.0019130505408460432 0.0019128995389205762 0.0019127485369951095 0.001658920278374495 0.001658545565668418 0.0016581708529623408
          0.0020584569572618477 0.002058322247190142 0.0020581875371184374 0.001881457330218335 0.0018809998657290678 0.0018805424012397999
          0 0 0 0 0 0
          0 0 0 0 0 0
          0.000025064149160392445 0.000025141279042556316 0.00002521840892472019 0.00014254409987782168 0.00014271033117726703 0.00014287656247671235
          0.002385276560972941 0.00254967068286658 0.0023857304797572695 0.0025502709313047255 0.0023861843985415977 0.0025508711797428713
          0.0016899303605828844 0.001936733142132043 0.0017786209891588892 0.0016899780060743307 0.0019364330424066784 0.001778543240987929
          0.0016900256515657774 0.0019361329426813142 0.0017784654928169694 0.0031800003230592925 0.0031801783260906966 0.0031803563291221
          0.0027890347899333966 0.002789140128671634 0.0027892454674098713 0.0021268848933721136 0.00212710579318167 0.002127326692991226
          0.0013406962122803818 0.0013406238824283704 0.0013405515525763592 0.001634459744020255 0.001634360433999452 0.0016342611239786487
          0.0018813650478925162 0.0018812593528932675 0.0018811536578940188 0.0020698469799067757 0.002069763079191919 0.0020696791784770626
          0.002148343841512977 0.002148288668395261 0.002148233495277546 0 0 0
          0 0 0 0 0 0
          0 0 0 0 0 0
          0.00001955098838048775 0.000019605616642144146 0.000019660244903800545 0.0004031760284479294 0.0004033544317814083 0.0004035328351148872
          0.00012553115646062274 0.00012598273601816296 0.00012643431557570319 0.0007893145193382807 0.0007893085332306943 0.0007893025471231079
          0.0012664640529228594 0.0012660480506409494 0.0012656320483590393 0.0015256912226301578 0.0015250497941139054 0.001524408365597653
        </DataArray>
        <DataArray type="Float64" Name="pe22" format="ascii" RangeMin="-0.00296457220134192" RangeMax="0">
          -0.0022279527406070935 -0.002433295355040715 -0.002504048729063197 -0.002249720431141511 -0.0022271056961528086 -0.002433102124292591
          -0.0025034001279959557 -0.0022493722989036114 -0.002226258651698523 -0.0024329088935444673 -0.0025027515269287143 -0.002249024166665712
          -0.002008047888742218 -0.0019923085917887195 -0.002014963410519842 -0.002027983824477526 -0.002008084269590791 -0.0019923733126656043
          -0.002015000239104624 -0.002028198007905319 -0.002008120650439364 -0.0019924380335424883 -0.002015037067689406 -0.0020284121913331115
          -0.0007118915838633787 -0.0007752359262418815 -0.0007048682945253479 -0.0003866712097242416 -0.0007119380791194773 -0.0007751466025288247
          -0.0007048125126012696 -0.00038719348782786396 -0.0007119845743755756 -0.0007750572788157681 -0.0007047567306771912 -0.00038771576593148627
          -0.0025129054656252434 -0.0023486821070119136 -0.0023464332268824505 -0.002524913664029082 -0.0025135283505971816 -0.002348765737599526
          -0.0023467032517340857 -0.002525431631925502 -0.00251415123556912 -0.002348849368187138 -0.0023469732765857214 -0.0025259495998219217
          -0.001874090470943582 -0.001883155526899735 -0.001961867901202857 -0.0019502893167781567 -0.0018743181223126431 -0.0018833220648921912
          -0.001962137703429707 -0.0019505004541096678 -0.0018745457736817049 -0.001883488602884647 -0.001962407505656557 -0.0019507115914411787
          -0.0019475703225920813 -0.0019663492401648564 -0.0020679232385614706 -0.002039574402231622 -0.0019471235695853334 -0.0019660357576988022
          -0.00206767523489054 -0.0020391359916477015 -0.0019466768165785856 -0.0019657222752327472 -0.002067427231219609 -0.002038697581063781
          -0.001996896739918155 -0.0019745411638545257 -0.0019878443002509204 -0.0019971196173443587 -0.0019745880099111095 -0.001987631534721352
          -0.0019973424947705622 -0.001974634855967694 -0.0019874187691917835 -0.0019803832062817743 -0.0020422438580011614 -0.001980167334379969
          -0.0020420965875823515 -0.0019799514624781645 -0.002041949317163541 -0.0014580812376158484 -0.0016741557689784318 -0.001649217312395926
          -0.0014676354592091574 -0.001458249197439607 -0.001674207462451852 -0.001649404276474305 -0.00146748034832815 -0.0014584171572633658
          -0.0016742591559252723 -0.0016495912405526836 -0.0014673252374471425 -0.002200744651034681 -0.00219581132582398 -0.0022005845754649064
          -0.002195638428523687 -0.002200424499895131 -0.002195465531223394 -0.0019855490207953126 -0.002021848288296377 -0.001985281817986191
          -0.002021697838229939 -0.00198501461517707 -0.0020215473881635007 -0.0009394617584372671 -0.0008984775514438328 -0.0006740428916224451
          -0.0009394131357811752 -0.0008986482072750623 -0.000673568708658869 -0.0009393645131250833 -0.0008988188631062917 -0.0006730945256952931
          -0.002027569030111068 -0.0019408155347065646 -0.0020269537004414593 -0.0019401772272027154 -0.0020263383707718506 -0.0019395389196988659
          -0.0016935922980210682 -0.0017977256859884763 -0.0018140057281992614 -0.0017251743743993153 -0.001693223405105808 -0.0017976008017260583
          -0.0018139885803085932 -0.0017252128130517115 -0.0016928545121905475 -0.0017974759174636398 -0.0018139714324179245 -0.0017252512517041082
          -0.0019580964929783885 -0.002011585670624896 -0.001964293607047508 -0.001958392577573514 -0.0020118680550974847 -0.0019646199273650944
          -0.0019586886621686395 -0.002012150439570073 -0.0019649462476826803 -0.0023229182614682583 -0.0023228787693824306 -0.0023228392772966025
          -0.0018991281722057507 -0.0018269081332627384 -0.0019447026291891777 -0.0018990087778926112 -0.0018268313839830558 -0.0019445815697278952
          -0.0018988893835794722 -0.0018267546347033724 -0.0019444605102666127 -0.001867080892930651 -0.0018714134374504684 -0.0019382898124642352
          -0.0018670698713347694 -0.0018714757607183777 -0.001938435863629167 -0.0018670588497388875 -0.001871538083986287 -0.001938581914794098
          -0.0021495177650004186 -0.002170638182841974 -0.002054261741581897 -0.0021490578393175814 -0.00217023411117357 -0.0020535133369858952
          -0.0021485979136347446 -0.002169830039505166 -0.002052764932389894 -0.002090035295468404 -0.0020783621151243205 -0.0020890879665983295
          -0.002077724485503325 -0.0020881406377282544 -0.002077086855882329 -0.00139182328299331 -0.0013207908292778773 -0.0013916671974978673
          -0.0013207227576879923 -0.0013915111120024247 -0.0013206546860981075 -0.00296457220134192 -0.0029645481106969074 -0.0029645240200518947
          -0.00166749872876759 -0.0015557564050814147 -0.001668170216366228 -0.001555981899487375 -0.0016688417039648655 -0.001556207393893335
          -0.0019940801904633 -0.0019784828789769504 -0.0019938271257608337 -0.0019781767029422716 -0.0019935740610583664 -0.0019778705269075923
          -0.001978163510138461 -0.001978013540319731 -0.001977863570501001 -0.0018007084813562166 -0.0018439360471168606 -0.0018653416414663407
          -0.0018287173686817575 -0.001799998625304138 -0.0018435093981244482 -0.001864862003888732 -0.0018280409921439893 -0.0017992887692520592
          -0.0018430827491320361 -0.001864382366311124 -0.0018273646156062207 -0.0007091848249844049 -0.0007093245409441426 -0.0007094642569038803
          -0.0005700708406363678 -0.0007822691749639891 -0.0005702353195506651 -0.0007823607293404778 -0.0005703997984649625 -0.0007824522837169666
          -0.0022070473478090816 -0.0020985580988684884 -0.002206455096571571 -0.002097702623520547 -0.00220586284533406 -0.0020968471481726068
          -0.001891013922670601 -0.0018911755821627537 -0.0018913372416549065 -0.0016466987572021853 -0.0015545692071437986 -0.0016467099666763357
          -0.0015542395690652162 -0.0016467211761504862 -0.0015539099309866335 -0.0016715667532977761 -0.0015644549238244916 -0.0014900774023459608
          -0.0016339333876406298 -0.001671339567385465 -0.0015641888834228097 -0.0014898185639018876 -0.0016337459343402038 -0.0016711123814731538
          -0.001563922843021128 -0.001489559725457814 -0.001633558481039777 -0.001785627436595265 -0.001788089536092407 -0.0017857480856859008
          -0.0017879356880017485 -0.0017858687347765364 -0.0017877818399110901 -0.0014509972002844861 -0.001397827659323583 -0.0012548970668336652
          -0.0012884181867693898 -0.0014514428655615556 -0.0013980541693666428 -0.00125568604099389 -0.0012888196861233266 -0.0014518885308386251
          -0.001398280679409703 -0.001256475015154115 -0.0012892211854772634 -0.0021655638204314555 -0.002165258079206421 -0.0021649523379813867
          -0.0018672359503391761 -0.0018767230819496895 -0.0018666597758260767 -0.0018761445180175541 -0.0018660836013129766 -0.0018755659540854184
          -0.0017926494713539865 -0.0017678939938258924 -0.0017925762233713986 -0.001767859425147005 -0.001792502975388811 -0.0017678248564681174
          -0.001950433014060078 -0.0019503077214977572 -0.0019501824289354366 -0.0020796390032698196 -0.002106475135949713 -0.002079450575460012
          -0.0021063399574601147 -0.002079262147650204 -0.0021062047789705165 -0.0021830923637856303 -0.0021219310462589846 -0.0021828466920555865
          -0.0021218041366995 -0.002182601020325543 -0.0021216772271400153 -0.0021129499698169674 -0.0021928905248746232 -0.00211260343308391
          -0.0021927537708120596 -0.0021122568963508528 -0.0021926170167494963 -0.0019703751358827806 -0.0019702670689507647 -0.001970159002018748
          -0.001939738258521977 -0.0019625259445580647 -0.0019396555661286802 -0.0019626534781996756 -0.0019395728737353832 -0.001962781011841287
          -0.002105832021050466 -0.002084144258184649 -0.002105891217027522 -0.002084064756351791 -0.002105950413004578 -0.0020839852545189324
          -0.0023283836517841707 -0.0021628490897329933 -0.0023359313162010457 -0.0023282614540898693 -0.0021624314813382672 -0.00233578592874846
          -0.0023281392563955683 -0.0021620138729435416 -0.002335640541295875 -0.002331269130555708 -0.002331231244520079 -0.00233119335848445
          -0.0019017615967696845 -0.0019096623774038485 -0.0019013804996621591 -0.0019094867510185572 -0.0019009994025546344 -0.0019093111246332659
          -0.001953593008416015 -0.0019548798793521936 -0.001953380816538512 -0.001954735286011308 -0.0019531686246610095 -0.0019545906926704227
          -0.001043715562376988 -0.0012582493435594267 -0.0010437309583435223 -0.0012583786933006529 -0.0010437463543100565 -0.0012585080430418793
          -0.001976575685272879 -0.0018844835739480089 -0.001975894461977411 -0.001884058390978807 -0.001975213238681942 -0.0018836332080096052
          -0.002538509586115554 -0.002363808423786817 -0.002486464154599155 -0.0025389070856013493 -0.002364001045919779 -0.0024867863226605046
          -0.002539304585087145 -0.0023641936680527404 -0.0024871084907218542 -0.0025705331371999153 -0.002571339002335512 -0.002572144867471109
          -0.0019682567891354027 -0.001968235801847377 -0.001968214814559352 -0.002560072014179271 -0.0025605119230109157 -0.0025609518318425607
          -0.0024028850296491768 -0.002403142252316362 -0.002403399474983548 -0.002039480133884228 -0.0020391792833004793 -0.0020388784327167305
          -0.001956210719834571 -0.0019557199028723744 -0.001955229085910178 -0.002689712991606117 -0.0026891993565393082 -0.0026886857214724986
          -0.002470310011153557 -0.0024706861669997067 -0.0024710623228458564 -0.0023769212414777125 -0.002392171711467585 -0.0023760169543699354
          -0.002392622132816781 -0.0023751126672621583 -0.0023930725541659774 -0.0021105518475206487 -0.002090303898543803 -0.0021094649190084988
          -0.0020895543193415094 -0.002108377990496349 -0.002088804740139215 -0.002702398206979643 -0.002703040945909504 -0.002703683684839364
          -0.0019185912761563162 -0.0019294513046979025 -0.0019172789923046817 -0.0019285228042090177 -0.0019159667084530474 -0.0019275943037201332
          -0.0007061843361194638 -0.00043706431081987844 -0.0007062580660047157 -0.00043728176869340925 -0.0007063317958899677 -0.00043749922656694006
          -0.0012150346297515322 -0.0012152172528187592 -0.0012153998758859862 -0.002579164203967 -0.002579546042167612 -0.0025799278803682246
          -0.0015348143974320135 -0.0016710835416580106 -0.0015346881958430696 -0.0016715032415241722 -0.0015345619942541255 -0.0016719229413903337
          -0.0017918596279833765 -0.0018369878580087816 -0.0017911635829881616 -0.0018366387007090084 -0.0017904675379929464 -0.001836289543409235
          -0.002451579267096221 -0.0024518199700224847 -0.0024520606729487478 -0.0025535038648727168 -0.0025542771680138205 -0.0025550504711549242
          -0.0019995506213317488 -0.0019994383026926067 -0.0019993259840534647 -0.0017938606789357913 -0.0017833782090034746 -0.0017930601864552427
          -0.0017824639779968998 -0.0017922596939746944 -0.001781549746990325 -0.0019100613378094699 -0.0019100612896019056 -0.0019100612413943414
          -0.002002423169243651 -0.0020079332269259203 -0.0020376000152712687 -0.0020349942250125624 -0.002002684060648977 -0.0020082000341893375
          -0.0020378648854881606 -0.0020352457889933366 -0.002002944952054303 -0.0020084668414527542 -0.002038129755705052 -0.00203549735297411
          -0.001903522303363523 -0.001957573555961748 -0.0019034565400023883 -0.0019577010453410066 -0.0019033907766412535 -0.0019578285347202655
          -0.0017838440733743887 -0.0017842143739129849 -0.0017845846744515806 -0.002038705478318548 -0.0020150042448971606 -0.002038996073646675
          -0.002015308646501521 -0.0020392866689748017 -0.0020156130481058816 -0.0018441670303847872 -0.0017666918182322557 -0.0018442913789281038
          -0.001766884602009326 -0.0018444157274714204 -0.0017670773857863965 -0.0020361927866682423 -0.002035916106655479 -0.002035639426642716
          -0.00198091677701306 -0.001980650756100967 -0.0019803847351888733 -0.001744050709221945 -0.0017440444919096523 -0.001744038274597359
          -0.0018335560270967858 -0.0018196522232419893 -0.0018327243396876198 -0.0018185033944531999 -0.001831892652278454 -0.00181735456566441
          -0.0017843010747087503 -0.0017842854091428492 -0.001784269743576948 -0.0013777295951690517 -0.0012216367932327329 -0.0014741609831253736
          -0.0013777372368978255 -0.0012217966762367296 -0.001474041950174758 -0.0013777448786265992 -0.0012219565592407264 -0.001473922917224143
          -0.001702997141893164 -0.0017032090717126643 -0.0017034210015321645 -0.0019616673743717526 -0.002000593644811856 -0.0020014914970553593
          -0.0019618911211990693 -0.0020006937426346677 -0.0020015343262902194 -0.0019621148680263865 -0.0020007938404574795 -0.0020015771555250794
          -0.0019431341198738574 -0.0019433101564674644 -0.0019434861930610714 -0.0018934816831093853 -0.0018933659676876981 -0.0018932502522660112
          -0.0009775428978555272 -0.0009776509893005257 -0.0009777590807455241 -0.0019037927601152547 -0.001903859216179213 -0.0019039256722431712
          -0.002033466043626291 -0.002030449525999665 -0.002033536789362317 -0.002030523187672291 -0.002033607535098342 -0.0020305968493449177
          -0.0016011455342346038 -0.0016013586589763529 -0.001601571783718102 -0.0018636836609655341 -0.0018219036064233095 -0.0018632507917866093
          -0.0018212838373120783 -0.0018628179226076844 -0.001820664068200847 -0.00203285523642441 -0.002007362799037115 -0.002032859996402032
          -0.002007236458880918 -0.0020328647563796543 -0.002007110118724721 -0.0016851811841698094 -0.0015841924428374675 -0.0016852769401600404
          -0.0015843028870170788 -0.0016853726961502714 -0.00158441333119669 -0.0011644930556805608 -0.0013338440111234592 -0.001164526207338868
          -0.001333838885831859 -0.001164559358997175 -0.0013338337605402586 -0.0017847947778083383 -0.0017841119193676212 -0.0016646313065254688
          -0.001785188596169901 -0.0017843645238526191 -0.0016644319819680024 -0.0017855824145314634 -0.001784617128337617 -0.001664232657410536
          -0.0014792771562838764 -0.0014793273160932931 -0.0014793774759027094 -0.0015170065794089308 -0.001515973179959338 -0.0015149397805097452
          -0.0018702586321971482 -0.0018704799206349179 -0.0018707012090726878 -0.0009535695356640149 -0.0009534707307532805 -0.0009533719258425461
          -0.0012446501306521928 -0.0010763418303006479 -0.0010888820712183134 -0.001244768082940397 -0.0010763762167933634 -0.0010891524168410356
          -0.0012448860352286015 -0.001076410603286079 -0.001089422762463758 -0.0013807683708789665 -0.0013801686813000097 -0.0013795689917210526
          -0.0012838191108671437 -0.001283858770927547 -0.0012838984309879505 -0.0011468525916493069 -0.0009669234725838006 -0.0011470140674213099
          -0.0009669345545444953 -0.001147175543193313 -0.0009669456365051899 -0.0008847890851603508 -0.0008850533095220371 -0.0008853175338837237
          -0.0010980938384685382 -0.0010984395022433327 -0.0010987851660181275 -0.0004623578248292082 -0.00046228591105345874 -0.00046221399727770936
          -0.0006644338405809484 -0.0006634714336596892 -0.0006625090267384302 -0.000414522504738364 -0.00041455159555753036 -0.0004145806863766967
          -0.00019961038286556287 -0.0002010102551532823 -0.00020241012744100174 -0.00009094921749512898 -0.00005668508678469977 -0.00009110139071897522
          -0.000056861748935057413 -0.00009125356394282145 -0.00005703841108541505 -0.000005865401464033837 0 -0.000005885767408894308
          0 -0.0000059061333537547795 0 0 0 0
          0 0 0 -0.00019020171316043026 -0.00019029682469743242 -0.0001903919362344346
          -0.00003892838110105877 -0.00003897691880649002 -0.00003902545651192127 -5.889295712468725e-7 -5.989812340955735e-7 -6.090328969442746e-7
          -0.00033162596412026306 -0.0003316437945863485 -0.00033166162505243404 -0.00012110199961217956 -0.00012113692984148895 -0.00012117186007079834
          -0.000018315832307946305 -0.000018355672217689972 -0.00001839551212743364 -0.0004900354639713624 -0.0004900397585090707 -0.0004900440530467789
          -0.0002536005681223662 -0.00025360635212527785 -0.00025361213612818946 -0.00008023435797610995 -0.00008029971341798101 -0.00008036506885985205
          -0.00041921693415681677 -0.00041920384570262283 -0.0004191907572484289 -0.00020040600103943775 -0.00020043957392223288 -0.00020047314680502802
          -0.000597915392441312 -0.0005979178344405341 -0.0005979202764397563 -0.0003701156459847976 -0.0003701130883899086 -0.0003701105307950196
          -0.0007763998665467854 -0.0007764083559663599 -0.0007764168453859345 -0.0005732591790647682 -0.0005732020832475953 -0.0005731449874304223
          -0.0009396547720663124 -0.0009396141672884424 -0.0009395735625105724 -0.0007960509643422772 -0.0007958576713255373 -0.0007956643783087979
          -0.0010150298239024677 -0.001014960747482757 -0.0010148916710630462 -0.0009100177709245587 -0.000909744249960009 -0.0009094707289954594
          0 0 0 0 0 0
          0 0 0 0 0 0
          -0.000010281276185752625 -0.000010305831402526503 -0.00001033038661930038 -0.000059694681977695624 -0.00005973613262091101 -0.000059777583264126396
          -0.0011756898517428266 -0.001257927614156933 -0.0011757368811383055 -0.0012578033392456264 -0.0011757839105337843 -0.0012576790643343196
          -0.0008353185607575888 -0.000956809031000735 -0.0008776357045323737 -0.0008354558201292901 -0.0009568257574484877 -0.0008776921857630894
          -0.0008355930795009917 -0.0009568424838962404 -0.000877748666993805 -0.0015918664977957796 -0.0015914661068721532 -0.001591065715948527
          -0.001384859851297397 -0.001384418772324177 -0.0013839776933509567 -0.001046255958971639 -0.0010463630013364156 -0.0010464700437011916
          -0.0006513583731274257 -0.0006513971926265683 -0.0006514360121257111 -0.0008015528440731068 -0.0008016150428586609 -0.0008016772416442152
          -0.0009303652227525229 -0.0009304362693316217 -0.0009305073159107206 -0.0010291615498290827 -0.001029192129906241 -0.0010292227099833995
          -0.001069990673861983 -0.00106999196635084 -0.001069993258839697 0 0 0
          0 0 0 0 0 0
          0 0 0 0 0 0
          -0.000007805573751634682 -0.000007822383181731468 -0.000007839192611828253 -0.000173452924452392 -0.0001734977082236529 -0.00017354249199491378
          -0.00005177760480960133 -0.00005193260159281886 -0.000052087598376036374 -0.0003540989507962624 -0.0003540719566007014 -0.0003540449624051403
          -0.0005903523948429055 -0.0005901095067873405 -0.0005898666187317755 -0.0007205859254141841 -0.0007202099143838151 -0.0007198339033534461
        </DataArray>
        <DataArray type="Float64" Name="pe33" format="ascii" RangeMin="-0.0026511847421033788" RangeMax="0">
          -0.002043231204898212 -0.0021916512380647313 -0.002258632674039077 -0.0020500213507966126 -0.0020475440325879923 -0.002195548522045546
          -0.0022622021130036646 -0.002055227289886183 -0.002051856860277772 -0.0021994458060263598 -0.0022657715519682525 -0.0020604332289757533
          -0.0021300917244471964 -0.0020961858146981626 -0.0021439136124733163 -0.0021729026657440805 -0.0021288367262240217 -0.002095207132009148
          -0.0021421737665204476 -0.0021711404745449027 -0.002127581728000847 -0.002094228449320133 -0.002140433920567578 -0.002169378283345726
          -0.0007262199399990192 -0.0008091147536180236 -0.0007248718251520298 -0.00038996240064172595 -0.0007267494642621133 -0.0008093718017703651
          -0.0007250927410601113 -0.00039119909719669216 -0.0007272789885252076 -0.0008096288499227063 -0.0007253136569681927 -0.0003924357937516582
          -0.002426476426190627 -0.002282604707272245 -0.002289894180501467 -0.0024369043814744576 -0.002424905017459695 -0.0022824587519707073
          -0.002290206366967963 -0.0024358763085882023 -0.0024233336087287624 -0.0022823127966691685 -0.0022905185534344594 -0.002434848235701947
          -0.002036714707980763 -0.002054299578113216 -0.002133647998709475 -0.0021214422413233895 -0.0020358373301900008 -0.002052977128805367
          -0.002132112136374349 -0.0021202800214267805 -0.002034959952399239 -0.002051654679497518 -0.002130576274039223 -0.002119117801530172
          -0.001923412427459742 -0.0019678750989231613 -0.0020453467963153942 -0.0019988632610083855 -0.0019246297487977605 -0.001968682400272945
          -0.0020460264521276307 -0.001999965223254599 -0.0019258470701357792 -0.0019694897016227283 -0.0020467061079398677 -0.0020010671855008122
          -0.0021285644259970895 -0.002081356684352224 -0.002083744021690581 -0.0021275326084245014 -0.0020806735869114473 -0.0020831353623546665
          -0.0021265007908519134 -0.002079990489470671 -0.002082526703018752 -0.002003689020520877 -0.0020427106307372737 -0.002004510303874298
          -0.002043335464549413 -0.0020053315872277182 -0.002043960298361552 -0.001563198788019612 -0.0017984642984474877 -0.0017760752824239993
          -0.0015598355934543363 -0.0015626791753768532 -0.0017977028408132862 -0.0017756797015638034 -0.0015587440103929514 -0.0015621595627340946
          -0.0017969413831790846 -0.0017752841207036075 -0.001557652427331566 -0.0021657344708658024 -0.0021703129155645345 -0.002166401411082361
          -0.002171182680883061 -0.0021670683512989195 -0.0021720524462015877 -0.002033430204181469 -0.0020471448181847342 -0.0020339999400480722
          -0.002047665582940857 -0.0020345696759146758 -0.0020481863476969793 -0.000989077420110847 -0.0009187214408044022 -0.000688691735750452
          -0.0009891460296849663 -0.0009183890657773834 -0.0006878803741276687 -0.0009892146392590855 -0.0009180566907503645 -0.0006870690125048856
          -0.001961259304837044 -0.0018843094120897974 -0.001963290321688599 -0.0018862243500538838 -0.0019653213385401533 -0.0018881392880179706
          -0.0017612096129883301 -0.001846405346595104 -0.001889866637057223 -0.0018238067627210908 -0.0017612602231863136 -0.0018471287619932079
          -0.0018901021434071688 -0.001823340853716606 -0.0017613108333842972 -0.001847852177391312 -0.0018903376497571142 -0.0018228749447121214
          -0.0020945626059715294 -0.002164310938196921 -0.002124403158221483 -0.0020934215744006462 -0.0021629973466645155 -0.002122901666043549
          -0.002092280542829763 -0.00216168375513211 -0.0021214001738656145 -0.0022747255176871024 -0.0022752278077182273 -0.0022757300977493517
          -0.0019322797480618578 -0.001835348840936149 -0.0019479361449898757 -0.0019329692382640176 -0.001836354927717973 -0.001948447443826408
          -0.0019336587284661773 -0.001837361014499797 -0.00194895874266294 -0.0020082900965579286 -0.0019907508778449065 -0.0020486649526186068
          -0.0020065656617737028 -0.001989661287863661 -0.0020480283140048225 -0.002004841226989478 -0.001988571697882416 -0.0020473916753910378
          -0.002065242058733315 -0.002053672172367574 -0.001949634251029639 -0.0020674460673952523 -0.0020562956220961082 -0.0019524528664226545
          -0.0020696500760571893 -0.002058919071824643 -0.0019552714818156696 -0.0019394619938091174 -0.0019144661763294047 -0.0019425582399247169
          -0.001917827956457804 -0.001945654486040316 -0.001921189736586203 -0.0014488434633427515 -0.0013654268177745676 -0.001448900604818491
          -0.0013654015650895086 -0.0014489577462942305 -0.0013653763124044497 -0.0026511847421033788 -0.002648183994689882 -0.0026451832472763853
          -0.0018039219172262737 -0.001679318448225454 -0.0018029400867411909 -0.0016768850127646825 -0.0018019582562561086 -0.001674451577303911
          -0.0020398301286534727 -0.0020489439551346386 -0.0020401131240226802 -0.002048976624253687 -0.0020403961193918873 -0.002049009293372736
          -0.0020527800289922805 -0.002052738660270721 -0.0020526972915491616 -0.001815419833367735 -0.0018908082831309808 -0.0018996186276140962
          -0.0018331806355888524 -0.001816705760163158 -0.0018915120661890427 -0.0019004859313366985 -0.0018345064767898262 -0.0018179916869585809
          -0.001892215849247105 -0.0019013532350593003 -0.0018358323179907998 -0.000728992976477154 -0.0007290136540955499 -0.0007290343317139458
          -0.0005864757394904534 -0.0008021480477254082 -0.0005866910722455803 -0.000802318548660822 -0.0005869064050007072 -0.000802489049596236
          -0.0020528478122038944 -0.0019663546370546677 -0.0020558381492289442 -0.001969498045828609 -0.002058828486253993 -0.0019726414546025503
          -0.0020551929843308165 -0.002053353092340857 -0.0020515132003508974 -0.0017586211298152802 -0.001631829704820288 -0.0017571803032145096
          -0.0016313452976552112 -0.0017557394766137388 -0.0016308608904901348 -0.0017118809784797211 -0.0016290238494139446 -0.0015380070001385785
          -0.0016519349060095836 -0.0017120798663116123 -0.0016286989152889519 -0.0015379956745926557 -0.0016522763036094519 -0.001712278754143504
          -0.0016283739811639596 -0.0015379843490467332 -0.00165261770120932 -0.001937118228596488 -0.0019311861517328016 -0.0019361173351939837
          -0.0019297718174526007 -0.0019351164417914799 -0.0019283574831723993 -0.0015622230968354162 -0.001501415199637697 -0.0013115780592564705
          -0.001363526911285501 -0.0015601022540788865 -0.0015004669789129188 -0.0013118990422178417 -0.0013630667330393792 -0.0015579814113223565
          -0.001499518758188141 -0.001312220025179213 -0.0013626065547932575 -0.002148572504486712 -0.0021493669775101733 -0.002150161450533635
          -0.0018262322126512743 -0.0018680986995997491 -0.0018283683330216171 -0.0018694789604249966 -0.0018305044533919606 -0.0018708592212502446
          -0.001778451864494646 -0.001737103845261016 -0.0017795242094004755 -0.001738176125586712 -0.001780596554306305 -0.0017392484059124082
          -0.0019226204852899776 -0.0019237849866346644 -0.001924949487979351 -0.0020836937950806807 -0.002095116750121262 -0.0020842520868085677
          -0.0020958035710414258 -0.002084810378536455 -0.0020964903919615894 -0.0021353954215243046 -0.002101194930665596 -0.002136037717419852
          -0.0021019163961838237 -0.0021366800133154 -0.002102637861702052 -0.00210302993101932 -0.002167106424187046 -0.0021034301919690274
          -0.0021671760161756383 -0.002103830452918735 -0.0021672456081642307 -0.0019535156130276988 -0.001954463681593954 -0.0019554117501602085
          -0.00199474201353846 -0.0020497318723988055 -0.0019953947773159895 -0.0020495970161520725 -0.001996047541093518 -0.0020494621599053396
          -0.002089882889733775 -0.002069555351149148 -0.0020900262243947706 -0.0020695881191662305 -0.0020901695590557663 -0.0020696208871833132
          -0.0022175282284788472 -0.0020966097061778785 -0.002248172575551452 -0.0022185510582451995 -0.0020978771274783774 -0.0022483732153960063
          -0.0022195738880115513 -0.0020991445487788763 -0.002248573855240559 -0.002206383277806482 -0.002207624097757503 -0.0022088649177085242
          -0.0019240830416168725 -0.001969898638011372 -0.0019250055699214482 -0.001970849724597112 -0.001925928098226024 -0.001971800811182852
          -0.002008288121650834 -0.002036340636527456 -0.0020085914153192084 -0.0020361974795345653 -0.0020088947089875824 -0.002036054322541674
          -0.001104725117197902 -0.0013331455497386556 -0.0011047481327573394 -0.001332659530025609 -0.0011047711483167769 -0.001332173510312562
          -0.00187100396780891 -0.001813179706629684 -0.0018733064395252922 -0.0018155117048749229 -0.0018756089112416743 -0.0018178437031201623
          -0.0023794646807107174 -0.0022059020988406584 -0.0023550316260728464 -0.002378207112175737 -0.0022069427693974185 -0.0023543099171607312
          -0.0023769495436407563 -0.0022079834399541787 -0.0023535882082486156 -0.002353326995701266 -0.002352740102328956 -0.002352153208956646
          -0.002068284452874407 -0.002068110026809953 -0.0020679356007454993 -0.0024687805455346047 -0.0024667907426091733 -0.002464800939683741
          -0.0021957614444672435 -0.0021976972344370754 -0.0021996330244069074 -0.002059036163073129 -0.0020593198363359666 -0.002059603509598804
          -0.0018322196354632685 -0.001834400981005172 -0.0018365823265470752 -0.0024396473492548218 -0.0024387499207004287 -0.002437852492146036
          -0.002348136927801672 -0.0023478222242737054 -0.0023475075207457377 -0.00205925222843596 -0.0021253826899753072 -0.002064832974508389
          -0.0021295954379697544 -0.002070413720580818 -0.0021338081859642016 -0.0018874589583251216 -0.0018958371845625662 -0.0018911000315908087
          -0.001899480471016011 -0.0018947411048564958 -0.0019031237574694557 -0.00241871709517898 -0.0024182784538376973 -0.0024178398124964145
          -0.0017803246014486429 -0.00179762278931782 -0.0017835495268555626 -0.001800387859714562 -0.0017867744522624821 -0.001803152930111304
          -0.0007195364610442727 -0.00044677909120519575 -0.0007200657887532412 -0.0004473489735159246 -0.0007205951164622095 -0.00044791885582665326
          -0.0012860112248350485 -0.0012856628178528676 -0.0012853144108706872 -0.0023246379142757745 -0.002325884807895582 -0.002327131701515389
          -0.001674845343104971 -0.0018116647253078252 -0.0016727118606922153 -0.0018102316673623239 -0.0016705783782794592 -0.0018087986094168225
          -0.0018110583659315571 -0.001890834771726632 -0.001812355791408404 -0.0018914489776797152 -0.0018136532168852508 -0.001892063183632798
          -0.002342129876600893 -0.0023416581292553633 -0.002341186381909832 -0.002464335756782221 -0.002462466599214219 -0.0024605974416462167
          -0.00198637821084658 -0.0019867395415609766 -0.0019871008722753725 -0.0017599773965982011 -0.0017514556970079477 -0.0017624824230150463
          -0.001754007293225788 -0.0017649874494318919 -0.0017565588894436278 -0.001997588789411613 -0.0019974916155605415 -0.0019973944417094706
          -0.002178487165614574 -0.0021832241431615452 -0.0022147273691041362 -0.00221897832470131 -0.002177093370123991 -0.0021816957650264597
          -0.002212527537046406 -0.0022167218783993043 -0.0021756995746334083 -0.002180167386891374 -0.002210327704988677 -0.002214465432097299
          -0.0019690620390368325 -0.0020548182604565235 -0.001969849791316676 -0.0020550478041337877 -0.0019706375435965197 -0.002055277347811053
          -0.0019389847891090866 -0.0019383475837910936 -0.0019377103784731006 -0.002201058581666509 -0.0021829012281702523 -0.002199009164053706
          -0.0021813427374075276 -0.002196959746440903 -0.0021797842466448024 -0.0019441359306738744 -0.0018866950487906092 -0.0019437830263112914
          -0.0018853884171971397 -0.0019434301219487088 -0.00188408178560367 -0.002035558764048292 -0.0020356314714790567 -0.0020357041789098216
          -0.002008994897885334 -0.002009264175211022 -0.0020095334525367108 -0.0018705716970404717 -0.0018688852052670757 -0.0018671987134936798
          -0.00175044536063374 -0.001734632187492396 -0.0017535234117334578 -0.0017380790015383758 -0.0017566014628331754 -0.0017415258155843562
          -0.0019116904603448388 -0.0019097348637297732 -0.0019077792671147078 -0.0014355395591998108 -0.001261292565843123 -0.0015399794757340957
          -0.0014351934389729164 -0.0012615555674126428 -0.0015392383196640065 -0.0014348473187460224 -0.0012618185689821629 -0.0015384971635939173
          -0.0018361075532435502 -0.0018338643051272908 -0.0018316210570110316 -0.0020621513882196556 -0.0021545229614488197 -0.002146074157744894
          -0.00206209122837635 -0.002153008271377279 -0.0021446589272573857 -0.002062031068533044 -0.002151493581305738 -0.0021432436967698774
          -0.0021101497438134513 -0.0021092594588681076 -0.002108369173922764 -0.001953982954926572 -0.00195440723055392 -0.0019548315061812685
          -0.001017651351699559 -0.0010177062020190995 -0.0010177610523386402 -0.00197370783876034 -0.001974235344153889 -0.0019747628495474373
          -0.0022061469780871646 -0.0022147632180445362 -0.002203610402487749 -0.0022122067827253875 -0.002201073826888332 -0.0022096503474062393
          -0.001717839976624317 -0.0017166058397264994 -0.001715371702828682 -0.0017837640806264935 -0.0017852239364964848 -0.0017863133873884354
          -0.0017875863680285862 -0.001788862694150377 -0.0017899487995606876 -0.0021819400144617853 -0.0021390008373323843 -0.0021796556827516434
          -0.0021375677922327624 -0.0021773713510415014 -0.002136134747133141 -0.001810725393792774 -0.001687012718716119 -0.0018084446140863462
          -0.0016853839263531662 -0.0018061638343799186 -0.0016837551339902131 -0.0012169545603634081 -0.0014160003416479837 -0.0012171971484977717
          -0.0014160631073794445 -0.0012174397366321353 -0.001416125873110905 -0.0019320313147096835 -0.0019249845062517775 -0.0018013297051621647
          -0.001931241951458083 -0.0019239538120517869 -0.001799915791759982 -0.0019304525882064831 -0.001922923117851796 -0.0017985018783577996
          -0.00157563664393179 -0.001574804088136304 -0.0015739715323408174 -0.001644294351507516 -0.001643066417345732 -0.0016418384831839482
          -0.0020253757496193573 -0.0020245549433070506 -0.002023734136994744 -0.0009840881590403897 -0.0009842277990141448 -0.0009843674389879
          -0.0012750080002883683 -0.0010933488143501043 -0.0011232441725877152 -0.0012755318371156538 -0.001093520291895923 -0.0011234377427779142
          -0.0012760556739429395 -0.0010936917694417414 -0.0011236313129681132 -0.001458125475881531 -0.0014581574721099786 -0.0014581894683384261
          -0.001340812091329267 -0.0013412437386772153 -0.001341675386025163 -0.001193186529606033 -0.0010042150174033205 -0.0011938343748356338
          -0.0010044463839715837 -0.0011944822200652344 -0.001004677750539847 -0.0008954869207170426 -0.0008949028525784171 -0.0008943187844397916
          -0.0011577743281296282 -0.00115806184044337 -0.0011583493527571119 -0.00047586854581663186 -0.00047666304748334186 -0.0004774575491500518
          -0.0006844851027537539 -0.000682772163905285 -0.0006810592250568159 -0.00043624574885226143 -0.00043726072655029527 -0.0004382757042483291
          -0.00020636942876414255 -0.00020875766915785018 -0.00021114590955155778 -0.000094394884559153 -0.00005754803293600163 -0.00009471668773579842
          -0.000057873241433148884 -0.00009503849091244384 -0.00005819844993029614 -0.000007183973547155812 0 -0.000007219142427927171
          0 -0.00000725431130869853 0 0 0 0
          0 0 0 -0.00020393889315920645 -0.0002041768241675834 -0.00020441475517596027
          -0.00004635073667559008 -0.000046452825229845126 -0.000046554913784100174 -7.896672215603593e-7 -8.042767880280211e-7 -8.188863544956829e-7
          -0.00035948368810931623 -0.0003595925356663587 -0.0003597013832234012 -0.00014356149257709094 -0.00014370517936733307 -0.00014384886615757527
          -0.000023962644285281256 -0.00002403846205708742 -0.000024114279828893584 -0.0005270875811348675 -0.000527077562477189 -0.0005270675438195105
          -0.0002970004942850117 -0.0002970820119009187 -0.0002971635295168258 -0.00010345335101490581 -0.00010360643103499425 -0.0001037595110550827
          -0.00047786282156251486 -0.0004778106641996571 -0.0004777585068367993 -0.00025128278682956263 -0.00025140289182772535 -0.00025152299682588806
          -0.0006585830288895794 -0.0006584446820136603 -0.0006583063351377411 -0.00044493109441092507 -0.0004448960718724322 -0.00044486104933393934
          -0.0008250081742634602 -0.0008248491549279478 -0.0008246901355924352 -0.0006510782159178769 -0.0006509255122689927 -0.0006507728086201086
          -0.0009733957687797305 -0.0009732853716321335 -0.0009731749744845366 -0.0008628693140322174 -0.0008626878943428799 -0.0008625064746535425
          -0.0010434271333593797 -0.0010433614997073853 -0.0010432958660553907 -0.0009714395592937758 -0.000971255615769058 -0.0009710716722443401
          0 0 0 0 0 0
          0 0 0 0 0 0
          -0.000014782872974639813 -0.00001483544764002981 -0.000014888022305419805 -0.00008284941790012602 -0.00008297419855635599 -0.00008309897921258594
          -0.0012095867092301133 -0.0012917430687096466 -0.0012099935986189633 -0.001292467592059099 -0.0012104004880078133 -0.0012931921154085515
          -0.0008546117998252954 -0.0009799241111313074 -0.000900985284626515 -0.0008545221859450404 -0.0009796072849581907 -0.0009008510552248397
          -0.0008544325720647854 -0.000979290458785074 -0.0009007168258231642 -0.0015881338252635136 -0.001588712219218543 -0.0015892906131735724
          -0.0014041749386359994 -0.0014047213563474568 -0.0014052677740589144 -0.0010806289344004742 -0.001080742791845254 -0.0010808566492900343
          -0.0006893378391529563 -0.0006892266898018021 -0.0006891155404506479 -0.0008329068999471478 -0.0008327453911407906 -0.0008325838823344335
          -0.000950999825139993 -0.0009508230835616456 -0.0009506463419832982 -0.0010406854300776926 -0.001040570949285678 -0.001040456468493663
          -0.0010783531676509938 -0.0010782967020444212 -0.0010782402364378485 0 0 0
          0 0 0 0 0 0
          0 0 0 0 0 0
          -0.000011745414628853068 -0.000011783233460412683 -0.000011821052291972297 -0.00022972310399553734 -0.0002298567235577554 -0.00022999034311997345
          -0.0000737535516510214 -0.0000740501344253441 -0.00007434671719966681 -0.0004352155685420181 -0.0004352365766299928 -0.00043525758471796744
          -0.0006761116580799538 -0.0006759385438536087 -0.0006757654296272636 -0.0008051052972159735 -0.0008048398797300902 -0.000804574462244207
        </DataArray>
        <DataArray type="Float64" Name="disp_x" format="ascii" RangeMin="0.000051372256595364506" RangeMax="0.00012668767020733882">
          0.00005955602930771823 0.000057440789581491524 0.00005620985316562381 0.00005878155716079475 0.00005955292395165168 0.00005743627004811142
          0.00005620289794735019 0.000058777689348139094 0.00005954440990794131 0.000057423885896343346 0.00005618241036253219 0.00005876713693376077
          0.00008354760069800996 0.00008072644627945146 0.00008187268627504812 0.0000846358799953798 0.00008354821964986807 0.00008072757147760432
          0.00008187389062823642 0.00008463576578054544 0.00008354996206046597 0.00008073158377244084 0.00008187844951865954 0.00008463618978074844
          0.00011139349990115698 0.00011087171902828779 0.00011187158838767493 0.00011472268364728791 0.00011138922256013455 0.00011086773263091741
          0.00011186693540367572 0.00011471973485577882 0.00011137627577021631 0.00011085583050577068 0.00011185283565505314 0.00011471079730041536
          0.00006393388993739259 0.0000671316808055326 0.0000692284622472437 0.00006620788260613535 0.00006393189824990876 0.00006712975064528553
          0.00006922631747784683 0.0000662052417935865 0.00006392616606784427 0.00006712388594049915 0.00006921983176455868 0.00006619755547161036
          0.00009522239516423643 0.00009442067144159024 0.00009150632359190291 0.00009236904353940615 0.00009521997293873531 0.00009441827407828993
          0.00009150476350797795 0.00009236702221326986 0.00009521355792008617 0.00009441159424740671 0.00009150048982807563 0.00009236161506027549
          0.00006930279485325153 0.0000721218802235101 0.00007065676126504091 0.00006778136170534319 0.00006930303508929089 0.00007212183573800705
          0.00007065625403874835 0.00006778080978118107 0.00006930400492620805 0.00007212231685191966 0.00007065517705175391 0.00006777983218904294
          0.00008661393633392522 0.00008539873507127262 0.00008235381768168673 0.00008661396748994168 0.00008539845065354138 0.00008235418414634184
          0.00008661367453509985 0.00008539797799064812 0.00008235562606725242 0.00007519307492217386 0.00007419078009152703 0.00007519357285102708
          0.00007419067529883956 0.00007519427304300324 0.00007418973098707394 0.00010194714777580565 0.00009872580749303026 0.00009975042716139534
          0.00010342407964472321 0.00010194390185949082 0.00009872224029370549 0.00009974761345882613 0.0001034206787742303 0.00010193454692090391
          0.00009871161690740203 0.00009973930389160177 0.00010341133960616463 0.00006955664393014442 0.0000716818058647847 0.000069555367780364
          0.00007168053623696147 0.00006955147003617614 0.00007167617729505346 0.00007820360692567031 0.00007712887331942147 0.0000782043718314824
          0.00007712876735331142 0.0000782061012622814 0.00007712790130275848 0.00010986608825391585 0.00011076033228946969 0.0001124856361299192
          0.00010986205059695118 0.00011075647030065445 0.00011248154055506699 0.00010984955893280612 0.00011074196935670142 0.00011247293102082608
          0.00006541402405421814 0.00006689717778337838 0.0000654136945061563 0.00006689705227807017 0.0000654121042813782 0.00006689632183392106
          0.00009021055192166694 0.00008730041674882018 0.00008866409084325332 0.00009141024201920144 0.00009020942484793155 0.00008729937513328315
          0.00008866321141566112 0.00009140945383937731 0.00009020603285360704 0.00008729659384225097 0.00008866096115961518 0.00009140761808912234
          0.00008988263728812187 0.00008762302231655075 0.0000907592329858165 0.00008988229029398601 0.00008762290827617627 0.00009075858077799865
          0.0000898804672664289 0.00008762130775227255 0.00009075612299072811 0.00007207832386155384 0.00007207657078398619 0.00007207106296767813
          0.0000844967326785063 0.0000853491703412026 0.00008291597643855138 0.00008449535670734234 0.00008534741822914157 0.00008291378393788479
          0.00008449101850705678 0.00008534204615322886 0.00008290667079156965 0.00009388709164312534 0.00009169074632770172 0.00008854813234678462
          0.0000938857418339679 0.0000916900439656006 0.0000885479513377812 0.00009388150674416294 0.00009168828485501298 0.00008854682814989656
          0.00006356799767375041 0.00006177611623563781 0.00006336102241279389 0.00006356680788174766 0.00006177389120348049 0.00006335987828637238
          0.00006356320458262093 0.00006176724072013597 0.00006335661794593533 0.00006179129217313737 0.00006148039825208439 0.0000617895260712157
          0.00006147863606659932 0.00006178378218503248 0.0000614734002082733 0.00009467739780536898 0.00009830093527262435 0.00009467516630158563
          0.00009829847485907106 0.00009466862099595241 0.00009829153202596172 0.00005139052789002377 0.000051385813975849475 0.000051372256595364506
          0.00010014615017333408 0.00010274188702776755 0.00010014410897319566 0.00010273842571280992 0.00010013744252658767 0.00010273090573570437
          0.00008001956203544352 0.00008116608177748804 0.00008001919590185396 0.0000811668378376475 0.00008001783797342119 0.00008116789186581387
          0.000079439555047016 0.0000794413237032466 0.00007944485194485451 0.00007115662663610612 0.00007365966397793895 0.00007340771583996789
          0.00007080607484821495 0.00007115810294451097 0.00007366097889087019 0.00007340862462844387 0.00007080699855939683 0.00007116273892065025
          0.00007366580359274903 0.00007341207586149484 0.00007081067513041211 0.00011128593381536099 0.00011128441921530082 0.00011127994934879641
          0.00011276179382223666 0.0001097434377848302 0.00011276010402523423 0.00010974103196121787 0.00011275504726516144 0.00010973364132417432
          0.000060467910371029845 0.00006189024832267772 0.00006046566114456684 0.00006188877673858716 0.000060457256230189106 0.00006188241223804176
          0.00009388483820983051 0.00009388329543947633 0.00009387851195884513 0.00009410720567619119 0.00009357735849969591 0.00009410601467999023
          0.00009357568278499994 0.00009410215431901707 0.00009357007565491265 0.00008898172928466309 0.00009119759449624494 0.00009132578384649979
          0.00008819518370051325 0.00008898083299265655 0.00009119615889608029 0.00009132376285606374 0.0000881933996109195 0.00008897797840301435
          0.00009119096770328015 0.00009131771381018871 0.00008818820374261259 0.00009686779676329617 0.00009662838413062936 0.00009686495771391975
          0.00009662620354904888 0.00009685443712039362 0.00009661685657337314 0.00010453877379572011 0.00010504539254987566 0.00010684019901989934
          0.00010580067800726417 0.00010453438492041854 0.00010504028059599171 0.0001068354895695959 0.00010579575612045268 0.00010451718729062623
          0.0001050235426986502 0.00010682291488675669 0.00010577956205544469 0.00007449447974673711 0.00007449336965160676 0.0000744895386690234
          0.00006793746263057892 0.00007027424654010478 0.00006793771569161465 0.00007027513984882714 0.00006793857211695869 0.00007027732497984264
          0.0000850233700786099 0.0000845347917554879 0.00008502149782621139 0.00008453211353373781 0.0000850155255126453 0.00008452400189476151
          0.00008183031713394215 0.00008182762240143503 0.00008181901491930593 0.00007602333950845707 0.000073248149024641 0.00007602285506483384
          0.00007324770974386346 0.00007602093451676496 0.00007324543525267717 0.00006775231330178658 0.0000712281176583518 0.00006775164843984837
          0.00007122795601786906 0.00006774869211473091 0.00007122581478131694 0.00007761936065665935 0.00007636475915911485 0.00007761820223117746
          0.00007636292990293043 0.00007761465166072192 0.0000763567782766911 0.00008181863470214557 0.00008181592430841796 0.00008180744261413321
          0.00007651052891100996 0.00007880064465194991 0.00007651192956875393 0.00007880253109658631 0.0000765158850933472 0.00007880734739494016
          0.00007884844417398279 0.00007939703583047734 0.00007884566098677173 0.00007939513355724797 0.00007883618241938433 0.00007938917551388505
          0.00006351817176096431 0.00006571060952860498 0.00006539801335118412 0.00006351668802526273 0.00006571025002527398 0.00006539695090111135
          0.00006351276801013094 0.00006570784302526517 0.00006539282530911616 0.0000613907759127021 0.00006138906975919766 0.00006138286885667442
          0.00007299875126647126 0.0000761686959644656 0.00007300037674799281 0.00007617071767606906 0.00007300330991727857 0.00007617522850650722
          0.00008292407260809717 0.00008408930837830979 0.00008292339760925985 0.00008408949319374564 0.00008292136587427756 0.00008408895977081385
          0.00010845385047172791 0.00010586350213742624 0.00010844978051572762 0.00010585914945885603 0.0001084381448253577 0.00010584472585925104
          0.00006455777440009025 0.00006633436950759795 0.00006455714599395836 0.00006633423678681034 0.00006455392839764293 0.00006633295005443154
          0.00005635132929352901 0.000059545751944991556 0.00005937239205869808 0.000056349124175519245 0.00005954325665226938 0.00005937061509712284
          0.0000563429531012844 0.00005953419802814784 0.00005936418657926667 0.00005578436371769451 0.0000557805802989906 0.000055768088571696003
          0.00007927109160475645 0.0000792738101422282 0.00007928101092799424 0.000057930181048972177 0.000057929623487793926 0.000057927983929364846
          0.00005831695467024864 0.00005831375797426846 0.000058303540712408984 0.00007890967610920707 0.00007890927435805528 0.00007890670799844163
          0.0000640077863443739 0.00006400676169852929 0.0000640026134500812 0.000054149884711342156 0.000054144430772705425 0.00005412625875876862
          0.00006180851512805016 0.00006180729231211384 0.00006180201810490812 0.0000586198559677969 0.000057739306155748245 0.00005861581656580371
          0.00005773345448144133 0.000058607118798139874 0.00005771581381357911 0.00006144257878640445 0.00006123273195255357 0.0000614404313098802
          0.00006123046997443226 0.00006143319609676965 0.0000612238621233255 0.00005475915215364159 0.00005475200352520548 0.000054725869685015534
          0.0000640440357932403 0.000063939143403254 0.0000640425405566897 0.00006393816650643708 0.00006403653214090521 0.00006393397821839489
          0.00011105856437227372 0.00011385659553765974 0.00011105544594722561 0.00011385502338459403 0.00011104605567914804 0.00011385045795279292
          0.00010570198098246556 0.00010569809505429494 0.00010568585290625637 0.000055778248022746696 0.00005577386435104381 0.00005575737593691631
          0.00010301389228364927 0.00010056599934749188 0.00010301011295997272 0.00010056349369488125 0.000102999160051386 0.0001005561045364984
          0.0000714739814742198 0.00007401491033678939 0.00007147581955895675 0.00007401676857192078 0.00007148083997534202 0.00007402206640711069
          0.00006368117195647554 0.00006368037623617652 0.00006367639683391564 0.00006068571189053433 0.00006068478989952998 0.00006068088619475393
          0.00008146000610851457 0.00008145808467019432 0.00008145131824138079 0.0000687229900387517 0.00006899001001262489 0.00006872396106639464
          0.00006899135578484046 0.00006872654506066737 0.00006899482028365923 0.00008708208757763674 0.00008708188630653393 0.00008708053848660012
          0.00009066934008684234 0.00008955757419899137 0.000086681086205596 0.00008783006123321844 0.00009066779198788122 0.00008955660404872545
          0.00008668056774335744 0.00008782900479540751 0.0000906630126811618 0.00008955294718203858 0.00008667966252720972 0.00008782613732870454
          0.00007633109699172834 0.00007884098307251514 0.00007633305877827964 0.00007884330257503876 0.00007633751255824834 0.00007885023749912743
          0.00009734694862057706 0.00009734461668539888 0.00009733615740091148 0.00008568600461747665 0.00008856929699904855 0.00008568633440551029
          0.00008856903965445836 0.00008568634053879322 0.00008856697404824635 0.0000899998485580251 0.00009259415918399243 0.00008999982069071217
          0.00009259365976161922 0.0000899985576513444 0.0000925925466144379 0.00008047218442720072 0.00008047101149153298 0.00008046604491770696
          0.00008176351451334131 0.00008176278798015577 0.00008175860961002789 0.0000966639480101556 0.0000966612450771264 0.00009665270265734887
          0.00006638148247783931 0.00006652940040268208 0.00006638148265379595 0.00006652957172009954 0.0000663801828251905 0.00006652959447327581
          0.00009435716369140537 0.00009435614653041258 0.00009435220905587204 0.00010048094972558438 0.00010175123814635442 0.00009747501949883154
          0.00010047722393314067 0.00010174817299183227 0.00009747277169815054 0.00010046667695167448 0.00010173839571552466 0.00009746611337405589
          0.00009430555295593625 0.00009430464912176465 0.00009430073265357984 0.0000793381795265827 0.00008212228309990884 0.00008097323828857709
          0.00007934048288042866 0.00008212392473395105 0.00008097556388266909 0.00007934711150140073 0.0000821293076758178 0.000080982625334214
          0.0000934457718345823 0.00009344444688628908 0.00009343893785724665 0.00008583095349385861 0.00008583084870651176 0.00008582896000726573
          0.00010858035861995447 0.00010857655967111925 0.00010856495521616627 0.00007663297315473103 0.00007663557962310933 0.00007664134879346271
          0.00008394180688266135 0.00008496429692007861 0.00008394323707598821 0.00008496535525303077 0.00008394566882308684 0.00008496617126897101
          0.00009867695788226231 0.0000986736009799514 0.00009866289037465272 0.00006631264446828345 0.00006847122620268035 0.00006631265717718737
          0.00006847237529329096 0.00006631070110314622 0.00006847433058479551 0.00008293879874107838 0.00008115702116863176 0.00008294076224859389
          0.00008115976158513815 0.00008294358625608947 0.0000811665360068676 0.00009605556243177643 0.00009690569190033056 0.00009605337051281437
          0.00009690307379496694 0.00009604598281605104 0.00009689432616484688 0.00010519764348330768 0.00010245238981758738 0.00010519447398361396
          0.00010244867977736621 0.00010518535568834528 0.00010243767296564557 0.00009789564920903768 0.00009876219830829611 0.00010126944065857907
          0.00009789380139016708 0.0000987596931655111 0.00010126638944819059 0.00009788667607219714 0.00009875195856662601 0.00010125663866952942
          0.00009971214309541368 0.00009970878118129184 0.00009969777337553141 0.00010361904706161411 0.00010361495233591228 0.00010360249441044557
          0.00009614557558284836 0.00009614412837685371 0.00009613800896358945 0.00010806266994862047 0.00010805928482079705 0.00010804862286690513
          0.00010780774716096018 0.00010964400003607208 0.00010888335522061195 0.00010780379421077206 0.00010963995233367025 0.00010887921702268721
          0.0001077917568871877 0.0001096277924789186 0.00010886767257544706 0.00010578907147053422 0.00010578471184815653 0.00010577109845442894
          0.00010237780987607427 0.00010237412350217727 0.00010236108935236187 0.00010404465266686602 0.00010664443897156761 0.00010404184672076393
          0.000106642563623185 0.00010403324528561361 0.00010663712197290598 0.00011129492035480458 0.00011129159792413416 0.00011128114401369212
          0.00010829439057928688 0.00010829037622605299 0.00010827928194813414 0.00011366187176252655 0.00011365654815029354 0.00011363874132808242
          0.00011276756138445045 0.00011276187838370457 0.00011274687319343557 0.00011400264354637005 0.00011399462009866155 0.00011396571019584451
          0.00011489240767955556 0.00011489048594063659 0.00011488596783525649 0.00011732613596298814 0.00011734799795079494 0.0001173256048131275
          0.00011734818544573775 0.00011732400808131736 0.00011734854145591041 0.0001194175236726911 0.00011943264124739402 0.00011941755058340366
          0.00011943236074234866 0.00011941768247193122 0.00011943148838588428 0.00012144180105482361 0.00012143147127122453 0.0001214418755957076
          0.0001214316256577404 0.00012144209516694615 0.00012143213829980245 0.00011706462387851667 0.00011706323097151886 0.00011705894849933599
          0.00011942682242500262 0.00011942627245477678 0.00011942460476303907 0.00012147761365933021 0.00012147774568336418 0.00012147819886804057
          0.00011647116632164387 0.00011646961775824432 0.00011646503031240859 0.00011934817033739052 0.00011934692040160541 0.0001193430865596721
          0.00012154823245491503 0.00012154807566986371 0.00012154766882976628 0.00011553832849618875 0.00011553707535249775 0.0001155332850350088
          0.00011899733018958314 0.00011899562552190258 0.00011899047496421421 0.00012164834007493406 0.00012164740497087377 0.00012164455685075591
          0.00011831007856178618 0.00011830849553623999 0.00011830372125378269 0.00012154897514897731 0.00012154749378516129 0.00012154303751470721
          0.00011725040936387971 0.00011724907351274694 0.00011724504808365261 0.0001211458020175752 0.00012114432321643873 0.00012113987940098592
          0.00011583788580709621 0.00011583685417395792 0.00011583381261147073 0.0001203960978108716 0.00012039490160412393 0.00012039121628154079
          0.00011411145223592977 0.00011411083532881911 0.00011410894438900371 0.0001193095784231229 0.00011930867086722717 0.00011930589637740994
          0.00011213463305261466 0.00011213481045414028 0.00011213540553717872 0.0001179165312618489 0.00011791638349055988 0.00011791590541411219
          0.0001233487429157836 0.0001233165738372327 0.0001233486807921613 0.0001233165112645205 0.00012334848988502294 0.00012331629330305393
          0.00012342033389721536 0.00012342028698955046 0.00012342011915924696 0.00012354688924588994 0.00012354694200643096 0.0001235471099680637
          0.00012374254896734175 0.00012374247218360876 0.00012374229781810577 0.0001240334323601722 0.00012403263666518153 0.00012403020428389827
          0.00009896953818027193 0.00009519802896049608 0.0000989680099083325 0.00009519620023554428 0.00009896304333062376 0.00009519060915025835
          0.0001094962762922263 0.00010618109962811082 0.00010799684404791046 0.00010949508972553734 0.00010617967452502576 0.00010799516160159464
          0.00010949141873042425 0.00010617534965602212 0.00010798997149701612 0.00008755721399383795 0.00008755515595435904 0.00008754884718034394
          0.00009125456634575122 0.00009125205415152018 0.00009124407176763977 0.00010378097809293451 0.000103779562793626 0.0001037754619571529
          0.00011424600858113403 0.00011424493680192714 0.0001142417400571992 0.00011262233684697717 0.00011262151225105646 0.00011261901616406154
          0.00011070909453312699 0.00011070852353038735 0.00011070672252774599 0.00010857320833888311 0.00010857294529414934 0.00010857207618588951
          0.00010632273104948588 0.00010632276162371877 0.00010632273533198264 0.00012523061391191392 0.0001251798305823513 0.00012523056925318215
          0.00012517978729557975 0.00012523044764169177 0.000125179672656745 0.00012533667009717223 0.00012533660610096562 0.00012533642485436461
          0.00012550894326431833 0.0001255088217542716 0.00012550843762190026 0.0001257676019620902 0.00012576758220069032 0.0001257675271043063
          0.00012614727437225954 0.0001261471582561332 0.00012614688033486324 0.0001242346901118261 0.00012423319549287838 0.00012422868445819698
          0.00012668767020733882 0.00012668688382561427 0.00012668446658439217 0.00012421481771101323 0.00012421316860717106 0.00012420827253644114
          0.00012395887656463055 0.00012395719309984046 0.0001239521435945153 0.00012349410397028264 0.00012349234467627537 0.0001234870869740155
        </DataArray>
        <DataArray type="Float64" Name="disp_y" format="ascii" RangeMin="-0.000015503364410801472" RangeMax="0">
          -0.000003844686225535752 -0.000004660604167216533 -0.000003952820008958797 -0.000002943046612968529 -0.000003842848795831475 -0.000004658732406572667
          -0.000003952216348756823 -0.000002941594289609752 -0.00000383664531820136 -0.000004651626728382842 -0.000003948806292667742 -0.0000029379866857948336
          -0.0000041510051391579715 -0.0000036411838215829074 -0.0000026930889587501676 -0.0000030641007199138107 -0.000004151892186612413 -0.0000036417702834471185
          -0.0000026935271448550835 -0.000003064808284798248 -0.000004154593721008822 -0.000003643689736317425 -0.000002695159860845672 -0.0000030671913111932383
          -0.000002403562142350167 -0.0000019949589281997105 -0.000001352910697625657 -9.076751905267229e-7 -0.000002403824778972682 -0.000001995112316120209
          -0.0000013532781903560206 -9.063846333984024e-7 -0.0000024053928554195366 -0.000001994906010762841 -0.0000013543099795859477 -9.023121614833345e-7
          -0.000009823075727310606 -0.00000873913497110286 -0.000009680340771420499 -0.000010851693043073373 -0.000009820533243026162 -0.000008736686666142226
          -0.000009678520335313337 -0.000010849828298335028 -0.000009812283028740774 -0.000008729177545664996 -0.000009672775067716588 -0.000010844630209711954
          -0.0000011343642840446923 -0.000002317731602010786 -0.000002299432850559543 -0.0000011223064552029724 -0.0000011343700984831589 -0.0000023179662149826757
          -0.0000022996396606688577 -0.0000011224498399985001 -0.0000011344261071496464 -0.0000023183519527163937 -0.0000023007365274255395 -0.0000011222777583911114
          -0.000004068321223523181 -0.000004552419561017813 -0.00000600757244231443 -0.000005178091196633193 -0.0000040667501962607345 -0.000004551206838719328
          -0.000006005946555295918 -0.000005176000247028237 -0.000004061459217494376 -0.000004547565499845894 -0.000006001029906427098 -0.000005170069013752418
          -0.000004580161290210627 -0.0000057831378245100635 -0.000005247704876746556 -0.0000045810283864380525 -0.000005784249312305348 -0.000005248574266491454
          -0.000004584096608167015 -0.000005787785022610652 -0.0000052509390897916664 -0.0000050866610831480075 -0.000006339187297540631 -0.000005085905051586057
          -0.000006338166332650792 -0.0000050839084458118385 -0.000006334774647478111 -0.000005053091029108497 -0.00000461041967622062 -0.0000033733147066213704
          -0.000003156145010490385 -0.000005054095968479979 -0.000004610722757136237 -0.0000033742458410992943 -0.0000031569162098876033 -0.000005057103559524925
          -0.000004610709621064007 -0.0000033773147248605904 -0.0000031591185039893377 -0.00000778274424893117 -0.00000857318374490512 -0.000007780949778903988
          -0.000008571874455496906 -0.000007775427698233794 -0.000008567320945285731 -0.000005706557298965402 -0.000006879750271355491 -0.000005706396894411661
          -0.000006879180835767421 -0.000005705886264340388 -0.000006877518398206918 -0.0000014192233109376784 -6.757808968118916e-7 -6.284804924674274e-7
          -0.0000014194655129084966 -6.759991116734956e-7 -6.28746798247592e-7 -0.0000014201838393117845 -6.768533152895389e-7 -6.311107481503844e-7
          -0.00000464144994919849 -0.0000036182235601030118 -0.000004639226158291022 -0.0000036163017390250028 -0.00000463252214721602 -0.0000036107230910769784
          -0.000010792128191879054 -0.00001052632836673966 -0.00000919262426712196 -0.000009454277156545349 -0.000010793564616484893 -0.00001052745802285575
          -0.000009194045123889645 -0.000009456001847616729 -0.000010797716358621755 -0.000010531019192072317 -0.000009198175729842169 -0.000009461115726899322
          -0.000004903436096249449 -0.0000033628375580726105 -0.0000035683714512669444 -0.000004904489658847066 -0.0000033637263783135947 -0.0000035691231049219744
          -0.000004907704937586366 -0.0000033661754163109795 -0.0000035710036141928804 -0.0000109286724702013 -0.000010927064938070223 -0.00001092254577676502
          -0.000009953744434395681 -0.000012143622505995418 -0.000011069295437717078 -0.000009954407953108116 -0.000012144471864049986 -0.000011069836471871483
          -0.00000995668129820832 -0.000012146794450187124 -0.00001107119289490886 -0.0000050893856582852114 -0.000006653275890048508 -0.000006241394248355128
          -0.000005090242723058136 -0.000006654502444546758 -0.000006242670541191087 -0.000005093074251122408 -0.000006658199359329907 -0.000006246744882652708
          -0.000005722932398415435 -0.000005201463214624495 -0.000004250486542082774 -0.000005720503663180999 -0.000005199017812146211 -0.000004248331077305358
          -0.0000057128402699296915 -0.000005191717585592739 -0.000004242475714840068 -0.0000033257778518730498 -0.0000023505335760605866 -0.0000033241712612482418
          -0.0000023496581512848183 -0.0000033199904243143208 -0.000002346619644467382 -0.000011760948276814435 -0.000010131912019922403 -0.000011762762343709225
          -0.000010133425222401079 -0.000011768086625177849 -0.000010138128688185998 -0.000004895236328391108 -0.000004896599141061669 -0.000004900008874900077
          -0.000002170844826966127 -0.0000019002147438079104 -0.0000021717655118377288 -0.0000019006175260786622 -0.0000021755042428977695 -0.0000019034097627922146
          -0.000007486417955008615 -0.000006357623344781479 -0.0000074864973180929915 -0.00000635803123033424 -0.000007486648918796808 -0.0000063594874667707685
          -0.00000461985773951753 -0.000004620320102494326 -0.000004621497337582598 -9.709190252616796e-7 -0.0000010397579412596556 -0.0000021378394335020787
          -0.000001961265972837229 -9.705377663912128e-7 -0.000001039560526951979 -0.0000021374187315250494 -0.000001960365478590781 -9.693034259308081e-7
          -0.00000103896242177053 -0.000002135990228843348 -0.000001957816786494423 -0.000004878214687825608 -0.000004877147291008315 -0.000004873887561144934
          -0.0000033651705914880626 -0.000004662134946104071 -0.0000033639768566742037 -0.0000046610118038277406 -0.0000033604007201517694 -0.000004657587648367339
          -0.000004600809170495534 -0.00000404239636431276 -0.000004598477773000432 -0.000004040427816570714 -0.0000045917240114999624 -0.00000403445441114209
          -0.0000035702207104802047 -0.0000035706372593882815 -0.000003571847000568954 -0.000009241352816651174 -0.000010775513091970911 -0.000009243356834652133
          -0.00001077724830624734 -0.000009250393681714545 -0.000010782473139488315 -0.000012210243767136945 -0.000012091559403480618 -0.000012962367588005714
          -0.000013634447561160704 -0.000012211278584956014 -0.000012092739004208892 -0.000012963952508397815 -0.000013635640250494981 -0.000012214310862045246
          -0.000012096245833268097 -0.000012969169074363382 -0.000013639369975152188 -0.0000034410342947545457 -0.000004327397838828391 -0.0000034415280181817802
          -0.000004327860120384464 -0.0000034422958284779114 -0.0000043308556512576035 -0.0000015802037815078195 -8.684977776211844e-7 -8.503140044961192e-7
          -0.000001989594988688097 -0.000001580300027863529 -8.680544109598464e-7 -8.502197740118328e-7 -0.0000019902088771093625 -0.000001581855073835991
          -8.646640070797594e-7 -8.500673850065051e-7 -0.0000019917845853370548 -0.000009288801518530795 -0.000009287764161675455 -0.000009284520085384974
          -0.0000026964761512358317 -0.0000029871950619157923 -0.000002695161784673624 -0.000002986064587851638 -0.0000026909003055012598 -0.0000029823034950059024
          -0.00001394609107293829 -0.000015500427252343264 -0.000013946642453842103 -0.000015501152914302734 -0.00001394830881492713 -0.000015503364410801472
          -0.00001417368702259655 -0.00001417394732359906 -0.000014174542133221489 -0.000008058046405713832 -0.000007491898544273241 -0.000008057445431171026
          -0.000007490832083651483 -0.000008055533377117474 -0.00000748773603772559 -0.000006975051635494145 -0.000007139471424296871 -0.0000069728807864251175
          -0.000007138061781514779 -0.000006965896541970527 -0.000007133473424527738 -0.000009882151777327114 -0.000011241718083908829 -0.00000988145607253251
          -0.000011240569386452808 -0.000009879776332188596 -0.000011236814471389221 -0.00001273402093386049 -0.000012734402666875733 -0.000012736171383585566
          -0.00000367217044157574 -0.0000031842215742489752 -0.0000036718242979822072 -0.000003184267556489272 -0.0000036709252417510415 -0.0000031841891792108385
          -0.000012814071762126438 -0.000011550760116529728 -0.000012813849319701505 -0.000011550470126745811 -0.00001281320800998768 -0.000011549770954566984
          -0.000007383567606940536 -0.000006272780382073169 -0.000007954268395347636 -0.000007380649028123151 -0.000006270173879837963 -0.000007951765036555845
          -0.000007371676320030017 -0.000006262387890078552 -0.000007943613265354064 -0.0000069017598129694225 -0.000006898970430843784 -0.000006889961851431732
          -0.000003321205519599001 -0.000002226422641093342 -0.0000033203073386274443 -0.0000022261814122802462 -0.0000033175744711891116 -0.000002225452235183554
          -0.00000811261277643596 -0.000006948612077074081 -0.000008113131277866324 -0.000006949506944324683 -0.00000811507811761135 -0.0000069524622884891475
          -0.0000024674474020118077 -0.000003361657735378707 -0.0000024675880166951625 -0.0000033620543842105754 -0.000002467677217561953 -0.000003362884365487537
          -0.000003080556691579997 -0.0000024906824298208484 -0.0000030791412352324153 -0.000002489332469312548 -0.0000030751683849109842 -0.0000024852213691607354
          -0.000007874537244952515 -0.000006294040260065223 -0.000008304527873100949 -0.000007872980570873907 -0.0000062914507335882895 -0.0000083021421924374
          -0.000007868302234519465 -0.00000628320769479045 -0.000008294055323366946 -0.000006335800854415251 -0.000006334441333536752 -0.000006329263659174077
          -0.0000021726464663521687 -0.0000021727677309361275 -0.0000021726273556229067 -0.000009848693819875638 -0.000009846626591161358 -0.00000984047173145938
          -0.000005459030008253845 -0.0000054565644765518215 -0.0000054489680631118614 -0.000008656567998565602 -0.000008656437843382178 -0.000008655645927351568
          -0.0000019869127511614044 -0.0000019857287548499016 -0.0000019822292127888205 -0.000005328936081446613 -0.000005328061572312325 -0.000005324119435377451
          -0.000008576163384038035 -0.00000857329186521941 -0.000008564216521274198 0 -0.0000017424183736971067 0
          -0.0000017413096465032773 0 -0.0000017383237672071992 0 -0.0000012095761103050352 0
          -0.0000012090095566139502 0 -0.0000012078410375903909 -0.0000032604527808654845 -0.0000032600822573218126 -0.000003261652854522801
          0 -0.0000010024666481935384 0 -0.0000010017277488676537 0 -9.98322795681033e-7
          -0.00000329989287929696 -0.000002061943622458543 -0.0000032991303781507267 -0.000002060759911502305 -0.0000032965318139315565 -0.0000020573289911400565
          -0.0000042812982462571446 -0.00000428226327971089 -0.000004285678235687724 -0.000005425376696076886 -0.000005424088007704149 -0.000005419147151407014
          -9.294966452658795e-7 -0.000001046189765774461 -9.293823085469017e-7 -0.0000010463594444551785 -9.270358636080019e-7 -0.0000010463782596541956
          0 0 0 0 0 0
          -0.000008733438016421457 -0.000008730602318704401 -0.000008721381874499617 -0.000009869343109760598 -0.000009866868858095602 -0.00000985902325308924
          -0.000011791751818214402 -0.00001179196506101379 -0.000011792828792846281 -9.15837218855869e-7 0 -9.152548585313422e-7
          0 -9.135830107049496e-7 0 -0.000007487172182601275 -0.0000074885037181571844 -0.000007492412004867545
          0 -0.0000010730026195789472 -9.924918365167897e-7 0 0 -0.0000010731637382330828
          -9.926750825292436e-7 0 0 -0.0000010735980829294535 -9.936123664720151e-7 0
          -0.0000010710298456610041 -0.0000010160974241317503 -0.0000010709382810567053 -0.000001015958652999184 -0.0000010713792348366766 -0.000001016244232427813
          -0.0000022689615988699118 -0.0000022691356216825124 -0.000002269959658842178 -0.000002015196195461873 -0.0000021917697584139214 -0.0000020158009703354976
          -0.0000021923160554516618 -0.0000020174366779626605 -0.0000021938415071397053 -0.000007932888315406257 -0.000008244301683681716 -0.000007934166679101755
          -0.000008245803072747699 -0.00000793852397850695 -0.000008250215435677445 -0.000010424982100296187 -0.000010424889961857908 -0.000010424926867381081
          -0.00000928358308105563 -0.000009283813424418568 -0.000009284473438663706 -0.0000058445489237088025 -0.000005845120744684057 -0.000005846541055260294
          -9.20519371096023e-7 0 -9.19823824214596e-7 0 -9.172293056457562e-7 0
          -0.00000707542667387123 -0.00000707645810910959 -0.0000070799905469312824 -0.00000797573871680398 -0.000008295537339464786 -0.000009352164458635012
          -0.000007976861366685741 -0.000008296264022798173 -0.000009353890768283576 -0.000007980088637256465 -0.000008298125519455246 -0.000009359864102633493
          -0.000008381237151876665 -0.000008382754671012074 -0.000008387299257408524 0 0 -8.817878304824484e-7
          0 0 -8.821242843761089e-7 0 0 -8.824477421974891e-7
          0 0 0 -0.000008716696563988736 -0.000008717725724922109 -0.000008721247339359665
          -0.0000034468364544743203 -0.0000034469531869809688 -0.0000034474075765561756 0 0 0
          -9.107693487850697e-7 0 -9.107951331468331e-7 0 -9.11428871647131e-7 0
          -0.000006493502267285579 -0.000006494398606999703 -0.0000064974787133270125 -0.000001825320178265922 -0.0000018237732473411214 -0.0000018241160379269915
          -0.0000018228200025843228 -0.0000018206294070369355 -0.0000018196549636301325 -0.000001792384306271393 -0.0000015890575022350806 -0.0000017927382898114498
          -0.0000015895465676461142 -0.0000017937659506375435 -0.0000015906052400103906 -0.000007646256798610469 -0.000008439634848837274 -0.000007647366985108075
          -0.000008441154386673113 -0.00000765067256959214 -0.000008446101300743481 -0.000005482416045422654 -0.000006279329377885537 -0.0000054835811023202205
          -0.000006280358110628975 -0.000005487285751653493 -0.0000062839140002590185 -0.0000011090961374641977 0 0
          -0.0000011092375849903175 0 0 -0.0000011100664950573446 0 0
          -0.000007291593363250077 -0.000007292472830874577 -0.000007295073567612907 0 0 0
          0 0 0 -0.0000045354102742629195 -0.000004535445650431809 -0.000004535640329012531
          0 0 -7.127288818056774e-7 0 0 -7.130162344110921e-7
          0 0 -7.122095280679247e-7 0 0 0
          -0.000007022452872130338 -0.00000702310044639041 -0.000007025034206127359 -0.000006751877133118 -0.000005957208650144539 -0.000006752339475412134
          -0.000005957152791384439 -0.000006754094831302696 -0.000005957076260022427 0 0 0
          -0.0000013028554633715256 -0.0000013028606862276587 -0.0000013052360740983024 -4.47648166888784e-7 -4.4702762789677286e-7 -4.4379344977044666e-7
          0 0 0 0 0 0
          0 0 0 -5.19855659516868e-7 0 -5.193173644936179e-7
          0 -5.17778425816027e-7 0 -3.8609473401864055e-7 0 -3.860653140263373e-7
          0 -3.8599540760080084e-7 0 -3.3622255474548574e-7 0 -3.361854596811259e-7
          0 -3.3606167947657606e-7 0 -0.0000011385306353722062 -0.0000011370819776762593 -0.0000011325837558727584
          -7.863245382766215e-7 -7.859179451439395e-7 -7.847457781253958e-7 -6.748313555222466e-7 -6.748726913845116e-7 -6.750187817549868e-7
          -0.000002005793085179723 -0.000002004488288729469 -0.000002000615488238292 -0.000001270258833723088 -0.0000012691019415344467 -0.000001265570152721284
          -0.0000010124835860413149 -0.0000010122740666650242 -0.0000010117069728001622 -0.0000031162164690041448 -0.0000031148597822248136 -0.0000031108037313962962
          -0.000001957141351691934 -0.000001955630882171221 -0.0000019510647058513223 -0.0000014013474033614676 -0.0000014003700416613352 -0.0000013973988096732355
          -0.0000029091737221515615 -0.0000029077536335321474 -0.000002903526628026282 -0.000001952834400926092 -0.000001951320185239362 -0.000001946740744533034
          -0.000004148220239527808 -0.000004146852928764665 -0.000004142739210681131 -0.000002775649106396889 -0.0000027740254034367916 -0.0000027691531538848914
          -0.000005677488383838457 -0.00000567634295711022 -0.000005672925681662282 -0.000003918641167712846 -0.0000039171686028693715 -0.000003912788932844644
          -0.000007482532530209891 -0.000007481469164649592 -0.00000747828896763119 -0.000005426259008410679 -0.000005424492238426639 -0.000005419229947803446
          -0.000009506460752440614 -0.000009505327388179463 -0.000009501968273645688 -0.000007295467398229324 -0.000007293099075544929 -0.0000072860670852745364
          -3.1629210408255675e-7 0 -3.1627010554576934e-7 0 -3.162141952152582e-7 0
          -6.329073012097917e-7 -6.328069628199341e-7 -6.324824375227556e-7 -9.511025105582395e-7 -9.511111342449771e-7 -9.511477396664089e-7
          -0.0000012641160315628023 -0.0000012639973800119606 -0.0000012637019847273822 -0.0000015956219894495099 -0.0000015947578009223738 -0.0000015921544446566433
          -0.000010731325392280994 -0.000012575037811707833 -0.00001073244103426633 -0.00001257656070140796 -0.000010736054815945347 -0.0000125816315445593
          -0.000006591671665590851 -0.000007981892455032173 -0.000006305398122673256 -0.000006590732890480129 -0.00000798131228109874 -0.000006304587093178634
          -0.000006588018408338623 -0.000007979457006891055 -0.0000063022789625308935 -0.000015076864104822712 -0.000015077741551168208 -0.000015080823134031484
          -0.000014351107661284444 -0.000014352456850587206 -0.000014356286942647527 -0.000008168556191621936 -0.000008168462744138894 -0.000008168150735887697
          -0.000004481816908427319 -0.000004480629243186363 -0.000004477049162148032 -0.000006093496459745618 -0.000006092524010186696 -0.000006089624634912944
          -0.000007920176241403806 -0.00000791938648057557 -0.000007917074122914177 -0.000009918790706361898 -0.000009918236207253393 -0.000009916627840102215
          -0.000012029077027220647 -0.00001202862677602401 -0.000012027464022822125 -3.2537756523396943e-7 0 -3.253525322603345e-7
          0 -3.2527066036394884e-7 0 -6.514487036190448e-7 -6.514187039247714e-7 -6.51340361953432e-7
          -9.77336710558458e-7 -9.77230402151905e-7 -9.768977134581391e-7 -0.0000013031939223537206 -0.0000013031449048708163 -0.0000013029869151590649
          -0.0000016240720045849725 -0.0000016240286994410662 -0.0000016239523047570677 -0.0000020687110128594504 -0.0000020671848505257946 -0.000002062492306029938
          -0.0000019504905803468883 -0.0000019496136083361647 -0.000001947088700214426 -0.0000028151891797453623 -0.000002813512403888897 -0.0000028086004395830125
          -0.000003940641388665842 -0.000003938598844432278 -0.000003932396090468286 -0.000005508605204335219 -0.000005505616577143522 -0.000005496637658274253
        </DataArray>
        <DataArray type="Float64" Name="disp_z" format="ascii" RangeMin="-9.169203563670571e-7" RangeMax="0">
          0 0 0 0 -3.601876971626601e-7 -3.7950643153920223e-7
          -3.855581080166728e-7 -3.550856644683536e-7 -7.218488503656796e-7 -7.60691490704474e-7 -7.735900931898561e-7 -7.122227171711094e-7
          0 0 0 0 -3.8004112619017384e-7 -3.743262047393366e-7
          -3.8422810475993805e-7 -3.880508490236239e-7 -7.596478787980007e-7 -7.48212387206028e-7 -7.676073292242058e-7 -7.754806233274403e-7
          0 0 0 0 -1.6566572352608388e-7 -1.8780428347153167e-7
          -1.644581586984302e-7 -9.769984308094454e-8 -3.3147326967691023e-7 -3.761118581174361e-7 -3.288139749042025e-7 -1.958830700411132e-7
          0 0 0 0 -4.236717492123324e-7 -3.9955394157883686e-7
          -4.0134174630118506e-7 -4.2424554779813093e-7 -8.465650038281061e-7 -7.991064490365307e-7 -8.029168948804652e-7 -8.480757567306542e-7
          0 0 0 0 -3.6698506554355843e-7 -3.6999325640544857e-7
          -3.8221788876375056e-7 -3.7984091578314456e-7 -7.338789486946937e-7 -7.394541128652122e-7 -7.638327844512422e-7 -7.593489738448877e-7
          0 0 0 0 -3.454422003830024e-7 -3.5260122278613314e-7
          -3.6369109957293e-7 -3.5694318519275434e-7 -6.91204713155098e-7 -7.05377522943711e-7 -7.27529531476776e-7 -7.142092706551235e-7
          0 0 0 -3.8048968625803923e-7 -3.722362331304262e-7 -3.7296363151619635e-7
          -7.606201439535942e-7 -7.442796964539168e-7 -7.456378316937118e-7 0 0 -3.565327223148834e-7
          -3.643488932874243e-7 -7.134072774509224e-7 -7.288106805023864e-7 0 0 0
          0 -2.953619522150034e-7 -3.2690299228216615e-7 -3.2077475320265937e-7 -2.9806764150195515e-7 -5.905915069478751e-7
          -6.537619592901677e-7 -6.418017703485229e-7 -5.955737403027969e-7 0 0 -3.8045490850974306e-7
          -3.8094457297452267e-7 -7.610789718563862e-7 -7.622259343685167e-7 0 0 -3.6178959205547776e-7
          -3.6522703056622164e-7 -7.239395706262896e-7 -7.305826560558936e-7 0 0 0
          -2.0514019070067645e-7 -1.9442607585602595e-7 -1.602330404528744e-7 -4.1000069534480893e-7 -3.893674985888557e-7 -3.1911973669767887e-7
          0 0 -3.503147740552361e-7 -3.369468834731726e-7 -7.011814754591711e-7 -6.744780876471248e-7
          0 0 0 0 -3.230719782097579e-7 -3.337377389099926e-7
          -3.4222749035760827e-7 -3.329139614908517e-7 -6.461633132366273e-7 -6.677416622621132e-7 -6.845474868685561e-7 -6.657478409939303e-7
          0 0 0 -3.7625705087477587e-7 -3.862378115132941e-7 -3.795901889942081e-7
          -7.521914528713888e-7 -7.722300773534425e-7 -7.587373461316623e-7 0 -3.971109779262671e-7 -7.944579459361245e-7
          0 0 0 -3.4604565343104195e-7 -3.2995284910167934e-7 -3.5039132574780875e-7
          -6.925033517092294e-7 -6.604449443386563e-7 -7.008381266323206e-7 0 0 0
          -3.6431140591193915e-7 -3.60281379990758e-7 -3.6674330638617454e-7 -7.27967542081683e-7 -7.203472545119361e-7 -7.333022922321439e-7
          0 0 0 -3.6394939692202173e-7 -3.6053494277325473e-7 -3.470042641985496e-7
          -7.288325338905084e-7 -7.220974394958528e-7 -6.950602899243129e-7 0 0 -3.4450037809984283e-7
          -3.4122971477062397e-7 -6.898557519409587e-7 -6.833588697653467e-7 0 0 -2.7640350407153666e-7
          -2.6545527828713185e-7 -5.528086299740072e-7 -5.308142069251882e-7 0 -4.591356114852679e-7 -9.169203563670571e-7
          0 0 -3.3015469541081136e-7 -3.1881274178342466e-7 -6.602017070688527e-7 -6.361344713175435e-7
          0 0 -3.6415298660815194e-7 -3.6626015315761893e-7 -7.283697404638307e-7 -7.325026957416429e-7
          0 -3.671519866064729e-7 -7.343553441721193e-7 0 0 0
          0 -3.2901535139106573e-7 -3.417145320309575e-7 -3.4319111165713536e-7 -3.320822449082981e-7 -6.584007355282735e-7
          -6.834447123682987e-7 -6.866497430032784e-7 -6.644655253389441e-7 0 -1.6595709923267555e-7 -3.3189937847055853e-7
          0 0 -1.4340903428085275e-7 -1.8100450709946682e-7 -2.868383059191749e-7 -3.6211051800185583e-7
          0 0 -3.633893055837815e-7 -3.488355098699843e-7 -7.277224526231802e-7 -6.986705999523721e-7
          0 -3.7251251181844764e-7 -7.440951665349865e-7 0 0 -3.276454665263475e-7
          -3.033306577592302e-7 -6.547396969300545e-7 -6.065351809988128e-7 0 0 0
          0 -3.153765282130023e-7 -3.077104485319661e-7 -2.915924047870213e-7 -3.0713508572864156e-7 -6.307166183214935e-7
          -6.152859110371118e-7 -5.83048709533729e-7 -6.142487586678367e-7 0 0 -3.5501558171859493e-7
          -3.5327429051826625e-7 -7.098067016506541e-7 -7.060502126982356e-7 0 0 0
          0 -3.0753138494275783e-7 -2.8541391872183167e-7 -2.525966621292327e-7 -2.6585660783849427e-7 -6.151409781264609e-7
          -5.701330948144266e-7 -5.052225647871146e-7 -5.312434542913253e-7 0 -3.773571938705758e-7 -7.549781153712952e-7
          0 0 -3.299333084964462e-7 -3.3674091419862427e-7 -6.60747452339694e-7 -6.738976300680222e-7
          0 0 -3.2358573181113037e-7 -3.165385564208257e-7 -6.47501455402482e-7 -6.33475972772583e-7
          0 -3.4285328335795324e-7 -6.862478536746851e-7 0 0 -3.697359322588193e-7
          -3.7223234719074794e-7 -7.396340661204076e-7 -7.446058310135424e-7 0 0 -3.7658538472379494e-7
          -3.7435000645719814e-7 -7.533094554613812e-7 -7.491005660459263e-7 0 0 -3.722507718182864e-7
          -3.8171717486763805e-7 -7.447700194377767e-7 -7.634982879893703e-7 0 -3.496885827245685e-7 -6.997332160827216e-7
          0 0 -3.571041755367344e-7 -3.6676217437525527e-7 -7.143966946830332e-7 -7.335398042935718e-7
          0 0 -3.7234804927702767e-7 -3.6708355169563554e-7 -7.447231228785858e-7 -7.340144705054029e-7
          0 0 0 -3.891244212556579e-7 -3.6960739371568175e-7 -3.953993825530153e-7
          -7.788181818221056e-7 -7.394623149964893e-7 -7.908139387381845e-7 0 -3.853583147246037e-7 -7.713710464954511e-7
          0 0 -3.45824115381463e-7 -3.5196832455035426e-7 -6.919395692637988e-7 -7.044177156450615e-7
          0 0 -3.592906674932843e-7 -3.6474736200218724e-7 -7.188293353206011e-7 -7.293835831253294e-7
          0 0 -2.2154725652933722e-7 -2.6586045956318215e-7 -4.432720557469379e-7 -5.319747069400136e-7
          0 0 -3.3546649036682355e-7 -3.269161034090018e-7 -6.716578441539787e-7 -6.543401323978741e-7
          0 0 0 -4.1594370711096624e-7 -3.8578144832073e-7 -4.101887587777545e-7
          -8.312519428559514e-7 -7.717191771995013e-7 -8.201062116877924e-7 0 -4.086483634398811e-7 -8.170615272156553e-7
          0 -3.674271574426101e-7 -7.349225967358095e-7 0 -4.30319423323642e-7 -8.598472865214098e-7
          0 -3.841928978540909e-7 -7.689710980925029e-7 0 -3.6758988893793805e-7 -7.351868433514501e-7
          0 -3.317388005521607e-7 -6.638642895009936e-7 0 -4.264439794231252e-7 -8.51981410204438e-7
          0 -4.0728542713922953e-7 -8.145530386788969e-7 0 0 -3.503276896320783e-7
          -3.6472571587792003e-7 -7.02548571945136e-7 -7.315150768520556e-7 0 0 -3.392182948595271e-7
          -3.3596372817074143e-7 -6.791586738511366e-7 -6.731459702014625e-7 0 -4.1952230900316065e-7 -8.381811163629128e-7
          0 0 -3.16768662648647e-7 -3.245549721246525e-7 -6.346698951761695e-7 -6.498445252080492e-7
          0 0 -1.5879343275271598e-7 -1.2074495899719137e-7 -3.181789169271001e-7 -2.4155354736788736e-7
          0 -2.5276135049188487e-7 -5.050508088858301e-7 0 -4.0317075269339875e-7 -8.071749879882333e-7
          0 0 -3.1662388627534257e-7 -3.344593657945248e-7 -6.321546362521021e-7 -6.683755806962126e-7
          0 0 -3.2981322495562184e-7 -3.4318169100263425e-7 -6.600659793255013e-7 -6.86517816907397e-7
          0 -4.0615085086198496e-7 -8.122099571903035e-7 0 -4.2917545866910375e-7 -8.5775575222545e-7
          0 -3.5849553785388406e-7 -7.170669916448712e-7 0 0 -3.191327538123353e-7
          -3.1830762637275465e-7 -6.39198574457207e-7 -6.373178462114844e-7 0 -3.5870040044367895e-7 -7.173771455069535e-7
          0 0 0 0 -3.855471878319243e-7 -3.8966406861277926e-7
          -3.9442516197087895e-7 -3.9426367942142657e-7 -7.707337706734338e-7 -7.78936976252209e-7 -7.881495455562653e-7 -7.876652769483983e-7
          0 0 -3.5376016006974285e-7 -3.6350810432473063e-7 -7.079052468795193e-7 -7.272763525917914e-7
          0 -3.505970264892063e-7 -7.011077908186816e-7 0 0 -3.912996595843384e-7
          -3.893336291534377e-7 -7.819567305132227e-7 -7.780943052341907e-7 0 0 -3.504749828715632e-7
          -3.4374031557611153e-7 -7.009476279205221e-7 -6.870346653633403e-7 0 -3.644570530175277e-7 -7.288177837906843e-7
          0 -3.5926732907562746e-7 -7.184554291203281e-7 0 -3.451016892295244e-7 -6.893136787907268e-7
          0 0 -3.1648553056585055e-7 -3.1264807901997934e-7 -6.34023033001254e-7 -6.267959212624337e-7
          0 -3.4937019891118896e-7 -6.979069956564425e-7 0 0 0
          -2.788093116701976e-7 -2.4698958340530943e-7 -2.913797837372096e-7 -5.5731453731831e-7 -4.942636978064008e-7 -5.824903903737412e-7
          0 -3.397445767802717e-7 -6.78564679183987e-7 0 0 0
          -3.706921936746468e-7 -3.8926248296059554e-7 -3.811816008600735e-7 -7.412497046381543e-7 -7.781726984561096e-7 -7.616191032651948e-7
          0 -3.7360694412716993e-7 -7.470576369621044e-7 0 -3.5119896677990175e-7 -7.02542289775849e-7
          0 -2.0804077178172874e-7 -4.1586174840985606e-7 0 -3.567265907712076e-7 -7.135879534302075e-7
          0 0 -3.925075993337533e-7 -3.963565588935609e-7 -7.840917515582659e-7 -7.917757165612593e-7
          0 -3.2038277266355255e-7 -6.407272907029475e-7 0 0 -3.2269368416653293e-7
          -3.2303432400849576e-7 -6.463565500236086e-7 -6.468813621976678e-7 0 0 -3.8966618642844594e-7
          -3.8417755049782424e-7 -7.783000722176919e-7 -7.682322729301584e-7 0 0 -3.3450863179344547e-7
          -3.1619235831252636e-7 -6.678370315399118e-7 -6.316936713328475e-7 0 0 -2.408923688925389e-7
          -2.67709320328939e-7 -4.821595670269134e-7 -5.354724509866418e-7 0 0 0
          -3.519814584701224e-7 -3.459427689111336e-7 -3.2543496739634666e-7 -7.040211408681605e-7 -6.912676695762007e-7 -6.502931378060948e-7
          0 -2.95504489486263e-7 -5.907085366770411e-7 0 -2.998467442018298e-7 -5.994939480612371e-7
          0 -3.6117780011029324e-7 -7.22004744251265e-7 0 -2.057474663519249e-7 -4.114707027270833e-7
          0 0 0 -2.3978637939426514e-7 -2.129889948838742e-7 -2.3234598863509034e-7
          -4.796393126258997e-7 -4.25777174106957e-7 -4.649289197088295e-7 0 -2.694789293805691e-7 -5.401171677072695e-7
          0 -2.576181054790075e-7 -5.156429132611314e-7 0 0 -2.3057189830854026e-7
          -2.0706575402546537e-7 -4.615742512428695e-7 -4.1405582226329307e-7 0 -1.8588896746442596e-7 -3.7173451516143794e-7
          0 -2.3454560719013218e-7 -4.697448266140475e-7 0 -1.431825419665159e-7 -2.8885557444798577e-7
          0 -1.6338870688720412e-7 -3.24205886173041e-7 0 -1.1236596229974792e-7 -2.2637033659037544e-7
          0 -6.692886309950686e-8 -1.342662331220871e-7 0 0 -6.418925194310091e-8
          -6.886002869082924e-8 -1.2854580950534093e-7 -1.380302698405856e-7 0 0 -5.971875944058863e-8
          -5.910103005990943e-8 -1.1943374183141522e-7 -1.1810161979233691e-7 0 0 -6.267896316196453e-8
          -6.199580502580579e-8 -1.2536898723191081e-7 -1.2406160019223126e-7 0 -8.914829958451335e-8 -1.7848870990399515e-7
          0 -6.249129383081014e-8 -1.2508801293853747e-7 0 -6.264565380171067e-8 -1.2533670765915183e-7
          0 -1.150748024206893e-7 -2.3018530827474583e-7 0 -7.725676065611124e-8 -1.546248733003195e-7
          0 -6.26013585463947e-8 -1.2531828867269133e-7 0 -1.4101506626374747e-7 -2.820254366210273e-7
          0 -1.0568720086473882e-7 -2.1142164756050588e-7 0 -7.310334526860422e-8 -1.4637252509481664e-7
          0 -1.3354123520538227e-7 -2.6698752199106417e-7 0 -9.939878931180322e-8 -1.989537703417692e-7
          0 -1.605832675436937e-7 -3.210753506074203e-7 0 -1.2964636950089067e-7 -2.592491455048108e-7
          0 -1.8517180827700765e-7 -3.7023388100822527e-7 0 -1.6033793188902715e-7 -3.208108781146302e-7
          0 -2.0571007874775613e-7 -4.113894240008547e-7 0 -1.8880874151362894e-7 -3.77541471119675e-7
          0 -2.2691700460892903e-7 -4.5385463500380607e-7 0 -2.301723236824996e-7 -4.6031616266216577e-7
          0 0 -6.176632334978196e-8 -6.159230639494896e-8 -1.2352704177116975e-7 -1.231425470528718e-7
          0 -6.278224239892565e-8 -1.2552354417538047e-7 0 -6.472826623881344e-8 -1.2947080604184845e-7
          0 -6.362537156108647e-8 -1.2730914534477705e-7 0 -7.219043709754124e-8 -1.445226907153872e-7
          0 0 -2.3922278312200295e-7 -2.484610598641331e-7 -4.786568499696207e-7 -4.972583730958974e-7
          0 0 0 -1.852570466146044e-7 -2.0952408844498084e-7 -1.9651279710831567e-7
          -3.7049623954717503e-7 -4.189768144524313e-7 -3.9295640536612684e-7 0 -2.9448631307650423e-7 -5.891266006489632e-7
          0 -2.6798094996284707e-7 -5.361823780770775e-7 0 -2.1783643188823887e-7 -4.357280194288003e-7
          0 -1.6572714986226276e-7 -3.314211110529099e-7 0 -1.8667197936097203e-7 -3.733139085474385e-7
          0 -2.0319991126093391e-7 -4.0634572377900136e-7 0 -2.1595836978026374e-7 -4.3183848508691727e-7
          0 -2.2420967173386915e-7 -4.484448925367034e-7 0 0 -6.10306603166326e-8
          -6.080579985504877e-8 -1.220649312794166e-7 -1.2162960405927e-7 0 -6.166739684809834e-8 -1.233510210697764e-7
          0 -6.256424016306578e-8 -1.2510422323375197e-7 0 -6.51302041408435e-8 -1.3025516285692693e-7
          0 -6.475550843698732e-8 -1.2960204790789762e-7 0 -9.669841432241972e-8 -1.9349431716024057e-7
          0 -7.095420929782423e-8 -1.4198429132718483e-7 0 -1.29456752812539e-7 -2.5831715513410983e-7
          0 -1.6109595686531115e-7 -3.2227138079406656e-7 0 -2.1287292719095543e-7 -4.2560528095525585e-7
        </DataArray>
      </PointData>
      <CellData>
        <DataArray type="Int32" Name="libmesh_elem_id" format="ascii" RangeMin="1386" RangeMax="3465">
          1386 1387 1390 1391 1394 1395
          1400 1401 1406 1407 1410 1411
          1420 1421 1424 1425 1426 1427
          1432 1433 1436 1437 1444 1445
          1446 1447 1450 1451 1462 1463
          1466 1467 1474 1475 1498 1499
          1504 1505 1508 1509 1514 1515
          1524 1525 1526 1527 1530 1531
          1540 1541 1550 1551 1552 1553
          1554 1555 1578 1579 1588 1589
          1592 1593 1594 1595 1596 1597
          1598 1599 1600 1601 1606 1607
          1662 1663 1698 1699 1702 1703
          1712 1713 1726 1727 1730 1731
          1734 1735 1748 1749 1752 1753
          1774 1775 1778 1779 1834 1835
          1854 1855 1872 1873 1892 1893
          1894 1895 1896 1897 1902 1903
          1914 1915 1920 1921 1922 1923
          1932 1933 1942 1943 1944 1945
          1988 1989 2000 2001 2010 2011
          2024 2025 2070 2071 2100 2101
          2112 2113 2132 2133 2140 2141
          2150 2151 2166 2167 2206 2207
          2218 2219 2238 2239 2242 2243
          2244 2245 2256 2257 2258 2259
          2268 2269 2278 2279 2284 2285
          2306 2307 2334 2335 2340 2341
          2360 2361 2372 2373 2392 2393
          2396 2397 2398 2399 2418 2419
          2422 2423 2426 2427 2432 2433
          2434 2435 2436 2437 2476 2477
          2480 2481 2482 2483 2518 2519
          2534 2535 2540 2541 2542 2543
          2546 2547 2556 2557 2562 2563
          2568 2569 2574 2575 2584 2585
          2588 2589 2598 2599 2612 2613
          2638 2639 2656 2657 2664 2665
          2678 2679 2682 2683 2702 2703
          2704 2705 2708 2709 2720 2721
          2724 2725 2734 2735 2738 2739
          2742 2743 2746 2747 2774 2775
          2788 2789 2790 2791 2804 2805
          2806 2807 2834 2835 2840 2841
          2844 2845 2850 2851 2854 2855
          2858 2859 2872 2873 2888 2889
          2892 2893 2896 2897 2908 2909
          2912 2913 2916 2917 2918 2919
          2924 2925 2932 2933 2944 2945
          2972 2973 2984 2985 2996 2997
          3000 3001 3002 3003 3022 3023
          3024 3025 3030 3031 3032 3033
          3044 3045 3048 3049 3080 3081
          3092 3093 3108 3109 3120 3121
          3130 3131 3136 3137 3140 3141
          3142 3143 3146 3147 3150 3151
          3160 3161 3162 3163 3164 3165
          3170 3171 3172 3173 3174 3175
          3178 3179 3186 3187 3188 3189
          3198 3199 3216 3217 3218 3219
          3228 3229 3232 3233 3238 3239
          3242 3243 3246 3247 3250 3251
          3256 3257 3260 3261 3262 3263
          3266 3267 3268 3269 3270 3271
          3272 3273 3274 3275 3276 3277
          3278 3279 3280 3281 3282 3283
          3284 3285 3286 3287 3288 3289
          3290 3291 3292 3293 3294 3295
          3298 3299 3300 3301 3304 3305
          3306 3307 3310 3311 3312 3313
          3316 3317 3318 3319 3320 3321
          3322 3323 3338 3339 3340 3341
          3356 3357 3358 3359 3374 3375
          3376 3377 3392 3393 3394 3395
          3410 3411 3412 3413 3428 3429
          3446 3447 3464 3465
        </DataArray>
        <DataArray type="Int32" Name="subdomain_id" format="ascii" RangeMin="107" RangeMax="109">
          107 107 107 107 107 107
          107 107 107 107 107 107
          107 107 107 107 107 107
          107 107 107 107 107 107
          107 107 107 107 107 107
          107 107 107 107 107 107
          107 107 107 107 107 107
          107 107 107 107 107 107
          107 107 107 107 107 107
          107 107 107 107 107 107
          107 107 107 107 107 107
          107 107 107 107 107 107
          107 107 107 107 107 107
          107 107 107 107 107 107
          107 107 107 107 107 107
          107 107 107 107 107 107
          107 107 107 107 107 107
          107 107 107 107 107 107
          107 107 107 107 107 107
          107 107 107 107 107 107
          107 107 107 107 107 107
          107 107 107 107 107 107
          107 107 107 107 107 107
          107 107 107 107 107 107
          107 107 107 107 107 107
          107 107 107 107 107 107
          107 107 107 107 107 107
          107 107 107 107 107 107
          107 107 107 107 107 107
          107 107 107 107 107 107
          107 107 107 107 107 107
          107 107 107 107 107 107
          107 107 107 107 107 107
          107 107 107 107 107 107
          107 107 107 107 107 107
          107 107 107 107 107 107
          107 107 107 107 107 107
          107 107 107 107 107 107
          107 107 107 107 107 107
          107 107 107 107 107 107
          107 107 107 107 107 107
          107 107 107 107 107 107
          107 107 107 107 107 107
          107 107 107 107 107 107
          107 107 107 107 107 107
          107 107 107 107 107 107
          107 107 107 107 107 107
          107 107 107 107 107 107
          107 107 107 107 107 107
          107 107 107 107 107 107
          107 107 107 107 107 107
          107 107 107 107 107 107
          107 107 107 107 107 107
          107 107 107 107 107 107
          107 107 107 107 107 107
          107 107 107 107 107 107
          107 107 107 107 107 107
          107 107 107 107 107 107
          107 107 107 107 107 107
          107 107 107 107 107 107
          107 107 107 107 107 107
          107 107 107 107 107 107
          107 107 107 107 107 107
          108 108 108 108 108 108
          108 108 108 108 108 108
          108 108 108 108 108 108
          108 108 108 108 108 108
          108 108 108 108 108 108
          108 108 108 108 108 108
          108 108 108 108 108 108
          108 108 108 108 109 109
          109 109 109 109 109 109
          109 109 109 109 109 109
          109 109 109 109 109 109
          109 109 109 109 109 109
          109 109 109 109
        </DataArray>
        <DataArray type="Int32" Name="processor_id" format="ascii" RangeMin="1" RangeMax="1">
          1 1 1 1 1 1
          1 1 1 1 1 1
          1 1 1 1 1 1
          1 1 1 1 1 1
          1 1 1 1 1 1
          1 1 1 1 1 1
          1 1 1 1 1 1
          1 1 1 1 1 1
          1 1 1 1 1 1
          1 1 1 1 1 1
          1 1 1 1 1 1
          1 1 1 1 1 1
          1 1 1 1 1 1
          1 1 1 1 1 1
          1 1 1 1 1 1
          1 1 1 1 1 1
          1 1 1 1 1 1
          1 1 1 1 1 1
          1 1 1 1 1 1
          1 1 1 1 1 1
          1 1 1 1 1 1
          1 1 1 1 1 1
          1 1 1 1 1 1
          1 1 1 1 1 1
          1 1 1 1 1 1
          1 1 1 1 1 1
          1 1 1 1 1 1
          1 1 1 1 1 1
          1 1 1 1 1 1
          1 1 1 1 1 1
          1 1 1 1 1 1
          1 1 1 1 1 1
          1 1 1 1 1 1
          1 1 1 1 1 1
          1 1 1 1 1 1
          1 1 1 1 1 1
          1 1 1 1 1 1
          1 1 1 1 1 1
          1 1 1 1 1 1
          1 1 1 1 1 1
          1 1 1 1 1 1
          1 1 1 1 1 1
          1 1 1 1 1 1
          1 1 1 1 1 1
          1 1 1 1 1 1
          1 1 1 1 1 1
          1 1 1 1 1 1
          1 1 1 1 1 1
          1 1 1 1 1 1
          1 1 1 1 1 1
          1 1 1 1 1 1
          1 1 1 1 1 1
          1 1 1 1 1 1
          1 1 1 1 1 1
          1 1 1 1 1 1
          1 1 1 1 1 1
          1 1 1 1 1 1
          1 1 1 1 1 1
          1 1 1 1 1 1
          1 1 1 1 1 1
          1 1 1 1 1 1
          1 1 1 1 1 1
          1 1 1 1 1 1
          1 1 1 1 1 1
          1 1 1 1 1 1
          1 1 1 1 1 1
          1 1 1 1 1 1
          1 1 1 1 1 1
          1 1 1 1 1 1
          1 1 1 1 1 1
          1 1 1 1 1 1
          1 1 1 1 1 1
          1 1 1 1 1 1
          1 1 1 1 1 1
          1 1 1 1 1 1
          1 1 1 1
        </DataArray>
      </CellData>
      <Points>
        <DataArray type="Float64" Name="Points" NumberOfComponents="3" format="ascii" RangeMin="0.011720201602553146" RangeMax="0.03445906060790294">
          0.012969222910182 0.0014853020742274 0 0.012627852011276 0.0016898182928561 0
          0.01236786906931 0.0013587217336166 0 0.012783325134333 0.0011067100297067 0
          0.012969222910182 0.0014853020742274 0.00015 0.012627852011276 0.0016898182928561 0.00015
          0.01236786906931 0.0013587217336166 0.00015 0.012783325134333 0.0011067100297067 0.00015
          0.012969222910182 0.0014853020742274 0.0003 0.012627852011276 0.0016898182928561 0.0003
          0.01236786906931 0.0013587217336166 0.0003 0.012783325134333 0.0011067100297067 0.0003
          0.017563073004652 0.0017425656775748 0 0.017044554764736 0.0015497457581888 0
          0.017260149731535 0.0011385367421141 0 0.017760141546291 0.0012815461285561 0
          0.017563073004652 0.0017425656775748 0.00015 0.017044554764736 0.0015497457581888 0.00015
          0.017260149731535 0.0011385367421141 0.00015 0.017760141546291 0.0012815461285561 0.00015
          0.017563073004652 0.0017425656775748 0.0003 0.017044554764736 0.0015497457581888 0.0003
          0.017260149731535 0.0011385367421141 0.0003 0.017760141546291 0.0012815461285561 0.0003
          0.023776898874178 0.0022456328082928 0 0.023504823460796 0.0016933718681226 0
          0.023764932341086 0.0012053538973125 0 0.025 0.0014444444444417 0
          0.023776898874178 0.0022456328082928 0.00015 0.023504823460796 0.0016933718681226 0.00015
          0.023764932341086 0.0012053538973125 0.00015 0.025 0.0014444444444417 0.00015
          0.023776898874178 0.0022456328082928 0.0003 0.023504823460796 0.0016933718681226 0.0003
          0.023764932341086 0.0012053538973125 0.0003 0.025 0.0014444444444417 0.0003
          0.014128459199836 0.0039835282877348 0 0.014611363502717 0.0036877867763913 0
          0.015005639561329 0.0040763460944633 0 0.014554004584986 0.0044253882271801 0
          0.014128459199836 0.0039835282877348 0.00015 0.014611363502717 0.0036877867763913 0.00015
          0.015005639561329 0.0040763460944633 0.00015 0.014554004584986 0.0044253882271801 0.00015
          0.014128459199836 0.0039835282877348 0.0003 0.014611363502717 0.0036877867763913 0.0003
          0.015005639561329 0.0040763460944633 0.0003 0.014554004584986 0.0044253882271801 0.0003
          0.019696280766899 0.00050763342021358 0 0.019550033943553 0.0010320458815065 0
          0.01900444612813 0.00098950685152215 0 0.019158982336274 0.00048623495360749 0
          0.019696280766899 0.00050763342021358 0.00015 0.019550033943553 0.0010320458815065 0.00015
          0.01900444612813 0.00098950685152215 0.00015 0.019158982336274 0.00048623495360749 0.00015
          0.019696280766899 0.00050763342021358 0.0003 0.019550033943553 0.0010320458815065 0.0003
          0.01900444612813 0.00098950685152215 0.0003 0.019158982336274 0.00048623495360749 0.0003
          0.014859009547347 0.0018414606933245 0 0.015407964407671 0.0020438178723745 0
          0.01515544156871 0.0026588338800995 0 0.014598102610542 0.0022982704245768 0
          0.014859009547347 0.0018414606933245 0.00015 0.015407964407671 0.0020438178723745 0.00015
          0.01515544156871 0.0026588338800995 0.00015 0.014598102610542 0.0022982704245768 0.00015
          0.014859009547347 0.0018414606933245 0.0003 0.015407964407671 0.0020438178723745 0.0003
          0.01515544156871 0.0026588338800995 0.0003 0.014598102610542 0.0022982704245768 0.0003
          0.018126604709057 0.0019215066283495 0 0.017910174904861 0.0024312076221655 0
          0.017342980714859 0.0022157520731189 0 0.018126604709057 0.0019215066283495 0.00015
          0.017910174904861 0.0024312076221655 0.00015 0.017342980714859 0.0022157520731189 0.00015
          0.018126604709057 0.0019215066283495 0.0003 0.017910174904861 0.0024312076221655 0.0003
          0.017342980714859 0.0022157520731189 0.0003 0.015995561521593 0.0022418351865966 0
          0.01581460170494 0.0027743126456578 0 0.015995561521593 0.0022418351865966 0.00015
          0.01581460170494 0.0027743126456578 0.00015 0.015995561521593 0.0022418351865966 0.0003
          0.01581460170494 0.0027743126456578 0.0003 0.021203243478062 0.0026574159093233 0
          0.020454986610371 0.0022211941162512 0 0.020632218270446 0.001642443645643 0
          0.021442904813338 0.0016925342242502 0 0.021203243478062 0.0026574159093233 0.00015
          0.020454986610371 0.0022211941162512 0.00015 0.020632218270446 0.001642443645643 0.00015
          0.021442904813338 0.0016925342242502 0.00015 0.021203243478062 0.0026574159093233 0.0003
          0.020454986610371 0.0022211941162512 0.0003 0.020632218270446 0.001642443645643 0.0003
          0.021442904813338 0.0016925342242502 0.0003 0.015000171033694 0.0033600360828681 0
          0.015396645228865 0.0036775895732469 0 0.015000171033694 0.0033600360828681 0.00015
          0.015396645228865 0.0036775895732469 0.00015 0.015000171033694 0.0033600360828681 0.0003
          0.015396645228865 0.0036775895732469 0.0003 0.016564676280502 0.0024636417082771 0
          0.016363912484153 0.0029730068966809 0 0.016564676280502 0.0024636417082771 0.00015
          0.016363912484153 0.0029730068966809 0.00015 0.016564676280502 0.0024636417082771 0.0003
          0.016363912484153 0.0029730068966809 0.0003 0.023072410624366 0.001035238244058 0
          0.023303887517976 0.00051385162283572 0 0.023907474886085 0.00057797945625648 0
          0.023072410624366 0.001035238244058 0.00015 0.023303887517976 0.00051385162283572 0.00015
          0.023907474886085 0.00057797945625648 0.00015 0.023072410624366 0.001035238244058 0.0003
          0.023303887517976 0.00051385162283572 0.0003 0.023907474886085 0.00057797945625648 0.0003
          0.014126846853415 0.0020250855845452 0 0.014376196219822 0.0016213258676016 0
          0.014126846853415 0.0020250855845452 0.00015 0.014376196219822 0.0016213258676016 0.00015
          0.014126846853415 0.0020250855845452 0.0003 0.014376196219822 0.0016213258676016 0.0003
          0.018981322625637 0.0048047339747308 0 0.018357141436072 0.0045551651420339 0
          0.018591751365599 0.0039752866369835 0 0.01916753543825 0.0042045163914746 0
          0.018981322625637 0.0048047339747308 0.00015 0.018357141436072 0.0045551651420339 0.00015
          0.018591751365599 0.0039752866369835 0.00015 0.01916753543825 0.0042045163914746 0.00015
          0.018981322625637 0.0048047339747308 0.0003 0.018357141436072 0.0045551651420339 0.0003
          0.018591751365599 0.0039752866369835 0.0003 0.01916753543825 0.0042045163914746 0.0003
          0.018733892370512 0.0020905204418308 0 0.018302277235643 0.001411928503633 0
          0.018878430913296 0.0015272195647153 0 0.018733892370512 0.0020905204418308 0.00015
          0.018302277235643 0.001411928503633 0.00015 0.018878430913296 0.0015272195647153 0.00015
          0.018733892370512 0.0020905204418308 0.0003 0.018302277235643 0.001411928503633 0.0003
          0.018878430913296 0.0015272195647153 0.0003 0.015535554193674 0.0045828394817383 0
          0.015535554193674 0.0045828394817383 0.00015 0.015535554193674 0.0045828394817383 0.0003
          0.017780760549951 0.0042442262797048 0 0.018018112537919 0.0052480329433742 0
          0.017497318700769 0.0047182001999379 0 0.017780760549951 0.0042442262797048 0.00015
          0.018018112537919 0.0052480329433742 0.00015 0.017497318700769 0.0047182001999379 0.00015
          0.017780760549951 0.0042442262797048 0.0003 0.018018112537919 0.0052480329433742 0.0003
          0.017497318700769 0.0047182001999379 0.0003 0.019494677591535 0.00226139088066 0
          0.019117853172676 0.0029004952170283 0 0.018505903140776 0.002650294613165 0
          0.019494677591535 0.00226139088066 0.00015 0.019117853172676 0.0029004952170283 0.00015
          0.018505903140776 0.002650294613165 0.00015 0.019494677591535 0.00226139088066 0.0003
          0.019117853172676 0.0029004952170283 0.0003 0.018505903140776 0.002650294613165 0.0003
          0.013829014690192 0.0024142080164891 0 0.013458574547778 0.0021218274131508 0
          0.013711742209243 0.0017918189860839 0 0.013829014690192 0.0024142080164891 0.00015
          0.013458574547778 0.0021218274131508 0.00015 0.013711742209243 0.0017918189860839 0.00015
          0.013829014690192 0.0024142080164891 0.0003 0.013458574547778 0.0021218274131508 0.0003
          0.013711742209243 0.0017918189860839 0.0003 0.0133672983588 0.0013583262253912 0
          0.013268156677071 0.00095273786274694 0 0.0133672983588 0.0013583262253912 0.00015
          0.013268156677071 0.00095273786274694 0.00015 0.0133672983588 0.0013583262253912 0.0003
          0.013268156677071 0.00095273786274694 0.0003 0.020151989638292 0.0057951577471947 0
          0.020929132214341 0.005368110675239 0 0.020151989638292 0.0057951577471947 0.00015
          0.020929132214341 0.005368110675239 0.00015 0.020151989638292 0.0057951577471947 0.0003
          0.020929132214341 0.005368110675239 0.0003 0.011634800364854 0.0014122839921498 0
          0.011634800364854 0.0014122839921498 0.00015 0.011634800364854 0.0014122839921498 0.0003
          0.020690070611507 0.0010537467946972 0 0.021241463234904 0.0010007048777636 0
          0.020690070611507 0.0010537467946972 0.00015 0.021241463234904 0.0010007048777636 0.00015
          0.020690070611507 0.0010537467946972 0.0003 0.021241463234904 0.0010007048777636 0.0003
          0.01690585017332 0.0031962434076044 0 0.017120511962154 0.0027019865785896 0
          0.01690585017332 0.0031962434076044 0.00015 0.017120511962154 0.0027019865785896 0.00015
          0.01690585017332 0.0031962434076044 0.0003 0.017120511962154 0.0027019865785896 0.0003
          0.016801656731456 0.0019822328720047 0 0.016801656731456 0.0019822328720047 0.00015
          0.016801656731456 0.0019822328720047 0.0003 0.015193226280812 0.00045041659473928 0
          0.015698309574236 0.00047366638839958 0 0.015648437383567 0.00097128418016613 0
          0.015127663000402 0.00090574444628299 0 0.015193226280812 0.00045041659473928 0.00015
          0.015698309574236 0.00047366638839958 0.00015 0.015648437383567 0.00097128418016613 0.00015
          0.015127663000402 0.00090574444628299 0.00015 0.015193226280812 0.00045041659473928 0.0003
          0.015698309574236 0.00047366638839958 0.0003 0.015648437383567 0.00097128418016613 0.0003
          0.015127663000402 0.00090574444628299 0.0003 0.025 0.0057777777777625 0
          0.025 0.0057777777777625 0.00015 0.025 0.0057777777777625 0.0003
          0.025 0.0043333333333224 0 0.023896353247243 0.0043894596145303 0
          0.025 0.0043333333333224 0.00015 0.023896353247243 0.0043894596145303 0.00015
          0.025 0.0043333333333224 0.0003 0.023896353247243 0.0043894596145303 0.0003
          0.013179014717582 0.001822526704721 0 0.013420070576712 0.0016525675047962 0
          0.013179014717582 0.001822526704721 0.00015 0.013420070576712 0.0016525675047962 0.00015
          0.013179014717582 0.001822526704721 0.0003 0.013420070576712 0.0016525675047962 0.0003
          0.01946472134525 0.0015844882179861 0 0.01946472134525 0.0015844882179861 0.00015
          0.01946472134525 0.0015844882179861 0.0003 0.019738918970445 0.0042679072806348 0
          0.019737200842686 0.0050366958134185 0 0.019738918970445 0.0042679072806348 0.00015
          0.019737200842686 0.0050366958134185 0.00015 0.019738918970445 0.0042679072806348 0.0003
          0.019737200842686 0.0050366958134185 0.0003 0.018801022408002 0.0054477015438504 0
          0.019301386887175 0.0055580415356932 0 0.019427042946373 0.0060730727381959 0
          0.018733542944404 0.0061279994653871 0 0.018801022408002 0.0054477015438504 0.00015
          0.019301386887175 0.0055580415356932 0.00015 0.019427042946373 0.0060730727381959 0.00015
          0.018733542944404 0.0061279994653871 0.00015 0.018801022408002 0.0054477015438504 0.0003
          0.019301386887175 0.0055580415356932 0.0003 0.019427042946373 0.0060730727381959 0.0003
          0.018733542944404 0.0061279994653871 0.0003 0.020038894590203 0.0015918984718873 0
          0.020014763899096 0.0020069766457038 0 0.020038894590203 0.0015918984718873 0.00015
          0.020014763899096 0.0020069766457038 0.00015 0.020038894590203 0.0015918984718873 0.0003
          0.020014763899096 0.0020069766457038 0.0003 0.02163606673442 0.0008902471917336 0
          0.021744201350165 0.00049421716196859 0 0.022190644598282 0.0005058615377216 0
          0.021944604947084 0.0011684672971015 0 0.02163606673442 0.0008902471917336 0.00015
          0.021744201350165 0.00049421716196859 0.00015 0.022190644598282 0.0005058615377216 0.00015
          0.021944604947084 0.0011684672971015 0.00015 0.02163606673442 0.0008902471917336 0.0003
          0.021744201350165 0.00049421716196859 0.0003 0.022190644598282 0.0005058615377216 0.0003
          0.021944604947084 0.0011684672971015 0.0003 0.015913060403389 0.0039637658470315 0
          0.015913060403389 0.0039637658470315 0.00015 0.015913060403389 0.0039637658470315 0.0003
          0.014558693053864 0.0012292895498017 0 0.015031644896308 0.0013689537442351 0
          0.014558693053864 0.0012292895498017 0.00015 0.015031644896308 0.0013689537442351 0.00015
          0.014558693053864 0.0012292895498017 0.0003 0.015031644896308 0.0013689537442351 0.0003
          0.018057579772584 0.0060827128421873 0 0.018070157245618 0.0068021820766994 0
          0.018057579772584 0.0060827128421873 0.00015 0.018070157245618 0.0068021820766994 0.00015
          0.018057579772584 0.0060827128421873 0.0003 0.018070157245618 0.0068021820766994 0.0003
          0.017413401850906 0.0060417176080878 0 0.017413401850906 0.0060417176080878 0.00015
          0.017413401850906 0.0060417176080878 0.0003 0.016169389215855 0.0034677229039223 0
          0.015655980876909 0.003250339095381 0 0.016169389215855 0.0034677229039223 0.00015
          0.015655980876909 0.003250339095381 0.00015 0.016169389215855 0.0034677229039223 0.0003
          0.015655980876909 0.003250339095381 0.0003 0.014652329158707 0.0030238496825634 0
          0.015285307382498 0.0031101507370722 0 0.014652329158707 0.0030238496825634 0.00015
          0.015285307382498 0.0031101507370722 0.00015 0.014652329158707 0.0030238496825634 0.0003
          0.015285307382498 0.0031101507370722 0.0003 0.016487808895433 0.0042010147125967 0
          0.016291762387835 0.0047307906783276 0 0.016487808895433 0.0042010147125967 0.00015
          0.016291762387835 0.0047307906783276 0.00015 0.016487808895433 0.0042010147125967 0.0003
          0.016291762387835 0.0047307906783276 0.0003 0.017341722495578 0.0054175123203669 0
          0.017341722495578 0.0054175123203669 0.00015 0.017341722495578 0.0054175123203669 0.0003
          0.016251164393845 0.0016133033435965 0 0.016687160352932 0.001374608348519 0
          0.016251164393845 0.0016133033435965 0.00015 0.016687160352932 0.001374608348519 0.00015
          0.016251164393845 0.0016133033435965 0.0003 0.016687160352932 0.001374608348519 0.0003
          0.01678493258985 0.0053840721103251 0 0.016848637368385 0.0048798435935376 0
          0.01678493258985 0.0053840721103251 0.00015 0.016848637368385 0.0048798435935376 0.00015
          0.01678493258985 0.0053840721103251 0.0003 0.016848637368385 0.0048798435935376 0.0003
          0.013915703094631 0.0030656560250288 0 0.01425441565673 0.0027053116394345 0
          0.014277331184122 0.0033493109511997 0 0.013915703094631 0.0030656560250288 0.00015
          0.01425441565673 0.0027053116394345 0.00015 0.014277331184122 0.0033493109511997 0.00015
          0.013915703094631 0.0030656560250288 0.0003 0.01425441565673 0.0027053116394345 0.0003
          0.014277331184122 0.0033493109511997 0.0003 0.013503308513005 0.0027817056572273 0
          0.013503308513005 0.0027817056572273 0.00015 0.013503308513005 0.0027817056572273 0.0003
          0.015571407447371 0.001500509245043 0 0.016188320748251 0.0009824473909215 0
          0.015571407447371 0.001500509245043 0.00015 0.016188320748251 0.0009824473909215 0.00015
          0.015571407447371 0.001500509245043 0.0003 0.016188320748251 0.0009824473909215 0.0003
          0.017456683820944 0.0034405145363726 0 0.017671289470578 0.0029336357035204 0
          0.017456683820944 0.0034405145363726 0.00015 0.017671289470578 0.0029336357035204 0.00015
          0.017456683820944 0.0034405145363726 0.0003 0.017671289470578 0.0029336357035204 0.0003
          0.022716879195272 0.001694170750475 0 0.022069698771397 0.0020298487038736 0
          0.022716879195272 0.001694170750475 0.00015 0.022069698771397 0.0020298487038736 0.00015
          0.022716879195272 0.001694170750475 0.0003 0.022069698771397 0.0020298487038736 0.0003
          0.013893710777701 0.0013389894450257 0 0.014229820502632 0.0011148528015907 0
          0.013893710777701 0.0013389894450257 0.00015 0.014229820502632 0.0011148528015907 0.00015
          0.013893710777701 0.0013389894450257 0.0003 0.014229820502632 0.0011148528015907 0.0003
          0.012674188674928 0.0028095410694266 0 0.013119330518162 0.0024349279719224 0
          0.013248150362312 0.0031919567697963 0 0.012674188674928 0.0028095410694266 0.00015
          0.013119330518162 0.0024349279719224 0.00015 0.013248150362312 0.0031919567697963 0.00015
          0.012674188674928 0.0028095410694266 0.0003 0.013119330518162 0.0024349279719224 0.0003
          0.013248150362312 0.0031919567697963 0.0003 0.012451479243686 0.0021914486022899 0
          0.012451479243686 0.0021914486022899 0.00015 0.012451479243686 0.0021914486022899 0.0003
          0.016782084774574 0.00093367828557597 0 0.016782084774574 0.00093367828557597 0.00015
          0.016782084774574 0.00093367828557597 0.0003 0.013121586466294 0.0036708577033715 0
          0.013121586466294 0.0036708577033715 0.00015 0.013121586466294 0.0036708577033715 0.0003
          0.012837862818801 0.0020433604618052 0 0.012837862818801 0.0020433604618052 0.00015
          0.012837862818801 0.0020433604618052 0.0003 0.016706746155521 0.0036970402910047 0
          0.016706746155521 0.0036970402910047 0.00015 0.016706746155521 0.0036970402910047 0.0003
          0.013749164985008 0.00086088989331873 0 0.013749164985008 0.00086088989331873 0.00015
          0.013749164985008 0.00086088989331873 0.0003 0.012096711335481 0.0017058387426491 0
          0.012096711335481 0.0017058387426491 0.00015 0.012096711335481 0.0017058387426491 0.0003
          0.013693266362936 0.0034326845509566 0 0.013693266362936 0.0034326845509566 0.00015
          0.013693266362936 0.0034326845509566 0.0003 0.012692307692288 0 0
          0.012542896420733 0.00061304595643839 0 0.012692307692288 0 0.00015
          0.012542896420733 0.00061304595643839 0.00015 0.012692307692288 0 0.0003
          0.012542896420733 0.00061304595643839 0.0003 0.013205128205107 0 0
          0.013181655749567 0.00048421972568225 0 0.013205128205107 0 0.00015
          0.013181655749567 0.00048421972568225 0.00015 0.013205128205107 0 0.0003
          0.013181655749567 0.00048421972568225 0.0003 0.012087580163866 0.0010424427844857 0
          0.012087580163866 0.0010424427844857 0.00015 0.012087580163866 0.0010424427844857 0.0003
          0.013717948717925 0 0 0.013709151553936 0.00043508888993868 0
          0.013717948717925 0 0.00015 0.013709151553936 0.00043508888993868 0.00015
          0.013717948717925 0 0.0003 0.013709151553936 0.00043508888993868 0.0003
          0.023934294716764 0.0032087575652495 0 0.025 0.0028888888888822 0
          0.023934294716764 0.0032087575652495 0.00015 0.025 0.0028888888888822 0.00015
          0.023934294716764 0.0032087575652495 0.0003 0.025 0.0028888888888822 0.0003
          0.022119784948444 0.002618759724243 0 0.022119784948444 0.002618759724243 0.00015
          0.022119784948444 0.002618759724243 0.0003 0.012384518900215 0.0018567382086698 0
          0.012384518900215 0.0018567382086698 0.00015 0.012384518900215 0.0018567382086698 0.0003
          0.021279978971931 0.00049482730399591 0 0.020757556768826 0.00050973095909409 0
          0.021279978971931 0.00049482730399591 0.00015 0.020757556768826 0.00050973095909409 0.00015
          0.021279978971931 0.00049482730399591 0.0003 0.020757556768826 0.00050973095909409 0.0003
          0.015256410256382 0 0 0.015769230769205 0 0
          0.015256410256382 0 0.00015 0.015769230769205 0 0.00015
          0.015256410256382 0 0.0003 0.015769230769205 0 0.0003
          0.014025581742285 0.0035717972510793 0 0.014025581742285 0.0035717972510793 0.00015
          0.014025581742285 0.0035717972510793 0.0003 0.013590285783394 0.0038446716816234 0
          0.013590285783394 0.0038446716816234 0.00015 0.013590285783394 0.0038446716816234 0.0003
          0.017243082343815 0.0050067004105205 0 0.017243082343815 0.0050067004105205 0.00015
          0.017243082343815 0.0050067004105205 0.0003 0.014691316585943 0.00042340821879555 0
          0.014743589743561 0 0 0.014691316585943 0.00042340821879555 0.00015
          0.014743589743561 0 0.00015 0.014691316585943 0.00042340821879555 0.0003
          0.014743589743561 0 0.0003 0.018245486290569 0.0031782516753476 0
          0.018245486290569 0.0031782516753476 0.00015 0.018245486290569 0.0031782516753476 0.0003
          0.018846153846135 0 0 0.018644197304734 0.00045373129675669 0
          0.01812656348281 0.00041497632726255 0 0.018333333333313 0 0
          0.018846153846135 0 0.00015 0.018644197304734 0.00045373129675669 0.00015
          0.01812656348281 0.00041497632726255 0.00015 0.018333333333313 0 0.00015
          0.018846153846135 0 0.0003 0.018644197304734 0.00045373129675669 0.0003
          0.01812656348281 0.00041497632726255 0.0003 0.018333333333313 0 0.0003
          0.016222123693441 0.00047331176344161 0 0.016700854199337 0.00043557402690065 0
          0.016222123693441 0.00047331176344161 0.00015 0.016700854199337 0.00043557402690065 0.00015
          0.016222123693441 0.00047331176344161 0.0003 0.016700854199337 0.00043557402690065 0.0003
          0.020119253581834 0.0010505613075795 0 0.020119253581834 0.0010505613075795 0.00015
          0.020119253581834 0.0010505613075795 0.0003 0.017948162073368 0.00084248305268282 0
          0.018468108748109 0.00092264731154686 0 0.017948162073368 0.00084248305268282 0.00015
          0.018468108748109 0.00092264731154686 0.00015 0.017948162073368 0.00084248305268282 0.0003
          0.018468108748109 0.00092264731154686 0.0003 0.018823294200687 0.0034327213803771 0
          0.019357958441624 0.0036753812238739 0 0.018823294200687 0.0034327213803771 0.00015
          0.019357958441624 0.0036753812238739 0.00015 0.018823294200687 0.0034327213803771 0.0003
          0.019357958441624 0.0036753812238739 0.0003 0.017020820655581 0.0044256808272369 0
          0.017020820655581 0.0044256808272369 0.00015 0.017020820655581 0.0044256808272369 0.0003
          0.017246333426457 0.0039469397271967 0 0.017246333426457 0.0039469397271967 0.00015
          0.017246333426457 0.0039469397271967 0.0003 0.020078691259254 0.0027314397537426 0
          0.020078691259254 0.0027314397537426 0.00015 0.020078691259254 0.0027314397537426 0.0003
          0.014206101807249 0.00041708713844452 0 0.014230769230743 0 0
          0.014206101807249 0.00041708713844452 0.00015 0.014230769230743 0 0.00015
          0.014206101807249 0.00041708713844452 0.0003 0.014230769230743 0 0.0003
          0.019663480844036 0.0032045589214632 0 0.019663480844036 0.0032045589214632 0.00015
          0.019663480844036 0.0032045589214632 0.0003 0.021168425648455 0.0043064684914555 0
          0.021635594211814 0.0048272474453844 0 0.020555573714582 0.0046911399787169 0
          0.021168425648455 0.0043064684914555 0.00015 0.021635594211814 0.0048272474453844 0.00015
          0.020555573714582 0.0046911399787169 0.00015 0.021168425648455 0.0043064684914555 0.0003
          0.021635594211814 0.0048272474453844 0.0003 0.020555573714582 0.0046911399787169 0.0003
          0.019723975353689 0.0038421555098755 0 0.019723975353689 0.0038421555098755 0.00015
          0.019723975353689 0.0038421555098755 0.0003 0.01679487179485 0 0
          0.017307692307672 0 0 0.017098243235352 0.00037703288126221 0
          0.01679487179485 0 0.00015 0.017307692307672 0 0.00015
          0.017098243235352 0.00037703288126221 0.00015 0.01679487179485 0 0.0003
          0.017307692307672 0 0.0003 0.017098243235352 0.00037703288126221 0.0003
          0.019358974358957 0 0 0.019358974358957 0 0.00015
          0.019358974358957 0 0.0003 0.018021318366412 0.0037089471112668 0
          0.018021318366412 0.0037089471112668 0.00015 0.018021318366412 0.0037089471112668 0.0003
          0.022914230268928 0.0025172233828488 0 0.022914230268928 0.0025172233828488 0.00015
          0.022914230268928 0.0025172233828488 0.0003 0.016282051282027 0 0
          0.016282051282027 0 0.00015 0.016282051282027 0 0.0003
          0.017636327566636 0.00038375181151782 0 0.017820512820494 0 0
          0.017636327566636 0.00038375181151782 0.00015 0.017820512820494 0 0.00015
          0.017636327566636 0.00038375181151782 0.0003 0.017820512820494 0 0.0003
          0.020545307319607 0.0031941956482125 0 0.020545307319607 0.0031941956482125 0.00015
          0.020545307319607 0.0031941956482125 0.0003 0.014207774647908 0.00082121811907846 0
          0.014649951203035 0.00083908958777153 0 0.014207774647908 0.00082121811907846 0.00015
          0.014649951203035 0.00083908958777153 0.00015 0.014207774647908 0.00082121811907846 0.0003
          0.014649951203035 0.00083908958777153 0.0003 0.017453973974276 0.00075538641526017 0
          0.017131504825278 0.00067680946789985 0 0.017453973974276 0.00075538641526017 0.00015
          0.017131504825278 0.00067680946789985 0.00015 0.017453973974276 0.00075538641526017 0.0003
          0.017131504825278 0.00067680946789985 0.0003 0.020049549059284 0.0035870308776452 0
          0.020306231316884 0.0040846257713005 0 0.020049549059284 0.0035870308776452 0.00015
          0.020306231316884 0.0040846257713005 0.00015 0.020049549059284 0.0035870308776452 0.0003
          0.020306231316884 0.0040846257713005 0.0003 0.022163023796879 0.0034061119862663 0
          0.021471654866651 0.0034951402573089 0 0.022163023796879 0.0034061119862663 0.00015
          0.021471654866651 0.0034951402573089 0.00015 0.022163023796879 0.0034061119862663 0.0003
          0.021471654866651 0.0034951402573089 0.0003 0.020216848120139 0.00051365536395203 0
          0.020384615384602 0 0 0.020897435897425 0 0
          0.020216848120139 0.00051365536395203 0.00015 0.020384615384602 0 0.00015
          0.020897435897425 0 0.00015 0.020216848120139 0.00051365536395203 0.0003
          0.020384615384602 0 0.0003 0.020897435897425 0 0.0003
          0.020867240059882 0.0037570922548429 0 0.020867240059882 0.0037570922548429 0.00015
          0.020867240059882 0.0037570922548429 0.0003 0.021410256410247 0 0
          0.021410256410247 0 0.00015 0.021410256410247 0 0.0003
          0.01987179487178 0 0 0.01987179487178 0 0.00015
          0.01987179487178 0 0.0003 0.022975084693504 0.003367305376383 0
          0.022975084693504 0.003367305376383 0.00015 0.022975084693504 0.003367305376383 0.0003
          0.022435897435893 0 0 0.022948717948713 0 0
          0.022737844672879 0.00047743690091317 0 0.022435897435893 0 0.00015
          0.022948717948713 0 0.00015 0.022737844672879 0.00047743690091317 0.00015
          0.022435897435893 0 0.0003 0.022948717948713 0 0.0003
          0.022737844672879 0.00047743690091317 0.0003 0.02192307692307 0 0
          0.02192307692307 0 0.00015 0.02192307692307 0 0.0003
          0.021567010772127 0.0039949981403974 0 0.021567010772127 0.0039949981403974 0.00015
          0.021567010772127 0.0039949981403974 0.0003 0.02205136800235 0.0041574599345453 0
          0.022874799944018 0.0043411431204517 0 0.02205136800235 0.0041574599345453 0.00015
          0.022874799944018 0.0043411431204517 0.00015 0.02205136800235 0.0041574599345453 0.0003
          0.022874799944018 0.0043411431204517 0.0003 0.023461538461532 0 0
          0.023461538461532 0 0.00015 0.023461538461532 0 0.0003
          0.022597273609822 0.0008601076908125 0 0.022597273609822 0.0008601076908125 0.00015
          0.022597273609822 0.0008601076908125 0.0003 0.024392416230449 0.00057909033861659 0
          0.024392416230449 0.00057909033861659 0.00015 0.024392416230449 0.00057909033861659 0.0003
          0.023974358974355 0 0 0.023974358974355 0 0.00015
          0.023974358974355 0 0.0003 0.024487179487177 0 0
          0.024487179487177 0 0.00015 0.024487179487177 0 0.0003
          0.025 0 0 0.025 0 0.00015
          0.025 0 0.0003 0.026666666666664 0.0014444444444417 0
          0.026666666666663 0 0 0.026666666666664 0.0014444444444417 0.00015
          0.026666666666663 0 0.00015 0.026666666666664 0.0014444444444417 0.0003
          0.026666666666663 0 0.0003 0.028333333333331 0.0014444444444417 0
          0.02833333333333 0 0 0.028333333333331 0.0014444444444417 0.00015
          0.02833333333333 0 0.00015 0.028333333333331 0.0014444444444417 0.0003
          0.02833333333333 0 0.0003 0.03 0.0014444444444417 0
          0.03 0 0 0.03 0.0014444444444417 0.00015
          0.03 0 0.00015 0.03 0.0014444444444417 0.0003
          0.03 0 0.0003 0.026666666666665 0.0028888888888822 0
          0.026666666666665 0.0028888888888822 0.00015 0.026666666666665 0.0028888888888822 0.0003
          0.028333333333331 0.0028888888888822 0 0.028333333333331 0.0028888888888822 0.00015
          0.028333333333331 0.0028888888888822 0.0003 0.03 0.0028888888888822 0
          0.03 0.0028888888888822 0.00015 0.03 0.0028888888888822 0.0003
          0.026666666666666 0.0043333333333224 0 0.026666666666666 0.0043333333333224 0.00015
          0.026666666666666 0.0043333333333224 0.0003 0.028333333333332 0.0043333333333224 0
          0.028333333333332 0.0043333333333224 0.00015 0.028333333333332 0.0043333333333224 0.0003
          0.03 0.0043333333333224 0 0.03 0.0043333333333224 0.00015
          0.03 0.0043333333333224 0.0003 0.026666666666666 0.0057777777777625 0
          0.026666666666666 0.0057777777777625 0.00015 0.026666666666666 0.0057777777777625 0.0003
          0.028333333333333 0.0057777777777625 0 0.028333333333333 0.0057777777777625 0.00015
          0.028333333333333 0.0057777777777625 0.0003 0.03 0.0057777777777625 0
          0.03 0.0057777777777625 0.00015 0.03 0.0057777777777625 0.0003
          0.028333333333334 0.0072222222222063 0 0.028333333333334 0.0072222222222063 0.00015
          0.028333333333334 0.0072222222222063 0.0003 0.03 0.0072222222222063 0
          0.03 0.0072222222222063 0.00015 0.03 0.0072222222222063 0.0003
          0.028333333333334 0.0086666666666559 0 0.028333333333334 0.0086666666666559 0.00015
          0.028333333333334 0.0086666666666559 0.0003 0.03 0.0086666666666559 0
          0.03 0.0086666666666559 0.00015 0.03 0.0086666666666559 0.0003
          0.028333333333335 0.010111111111103 0 0.028333333333335 0.010111111111103 0.00015
          0.028333333333335 0.010111111111103 0.0003 0.03 0.010111111111103 0
          0.03 0.010111111111103 0.00015 0.03 0.010111111111103 0.0003
          0.028333333333336 0.011555555555552 0 0.028333333333336 0.011555555555552 0.00015
          0.028333333333336 0.011555555555552 0.0003 0.03 0.011555555555552 0
          0.03 0.011555555555552 0.00015 0.03 0.011555555555552 0.0003
          0.028333333333337 0.013 0 0.028333333333337 0.013 0.00015
          0.028333333333337 0.013 0.0003 0.03 0.013 0
          0.03 0.013 0.00015 0.03 0.013 0.0003
          0.031601181467612 0.0014508094753802 0 0.03158989866902 0 0
          0.031601181467612 0.0014508094753802 0.00015 0.03158989866902 0 0.00015
          0.031601181467612 0.0014508094753802 0.0003 0.03158989866902 0 0.0003
          0.031612464266204 0.0029016189507591 0 0.031612464266204 0.0029016189507591 0.00015
          0.031612464266204 0.0029016189507591 0.0003 0.031623747064796 0.0043524284261377 0
          0.031623747064796 0.0043524284261377 0.00015 0.031623747064796 0.0043524284261377 0.0003
          0.031635029863388 0.0058032379015163 0 0.031635029863388 0.0058032379015163 0.00015
          0.031635029863388 0.0058032379015163 0.0003 0.031646312661979 0.0072540473768985 0
          0.031646312661979 0.0072540473768985 0.00015 0.031646312661979 0.0072540473768985 0.0003
          0.021356284292895 0.0061182113295331 0 0.020489019208248 0.0065103794253073 0
          0.021356284292895 0.0061182113295331 0.00015 0.020489019208248 0.0065103794253073 0.00015
          0.021356284292895 0.0061182113295331 0.0003 0.020489019208248 0.0065103794253073 0.0003
          0.025 0.0072222222222063 0 0.023816654948859 0.0069324696013164 0
          0.023829479378086 0.0056593315311521 0 0.025 0.0072222222222063 0.00015
          0.023816654948859 0.0069324696013164 0.00015 0.023829479378086 0.0056593315311521 0.00015
          0.025 0.0072222222222063 0.0003 0.023816654948859 0.0069324696013164 0.0003
          0.023829479378086 0.0056593315311521 0.0003 0.018734278863615 0.0068564365277259 0
          0.018734278863615 0.0068564365277259 0.00015 0.018734278863615 0.0068564365277259 0.0003
          0.019611341590458 0.0069319215290848 0 0.019611341590458 0.0069319215290848 0.00015
          0.019611341590458 0.0069319215290848 0.0003 0.022477642087048 0.0055533155338694 0
          0.022477642087048 0.0055533155338694 0.00015 0.022477642087048 0.0055533155338694 0.0003
          0.026666666666667 0.0072222222222063 0 0.026666666666667 0.0072222222222063 0.00015
          0.026666666666667 0.0072222222222063 0.0003 0.026666666666668 0.0086666666666559 0
          0.026666666666668 0.0086666666666559 0.00015 0.026666666666668 0.0086666666666559 0.0003
          0.026666666666669 0.010111111111103 0 0.026666666666669 0.010111111111103 0.00015
          0.026666666666669 0.010111111111103 0.0003 0.026666666666669 0.011555555555552 0
          0.026666666666669 0.011555555555552 0.00015 0.026666666666669 0.011555555555552 0.0003
          0.02666666666667 0.013 0 0.02666666666667 0.013 0.00015
          0.02666666666667 0.013 0.0003 0.033201501647561 0.0014698753983525 0
          0.033179797338052 0 0 0.033201501647561 0.0014698753983525 0.00015
          0.033179797338052 0 0.00015 0.033201501647561 0.0014698753983525 0.0003
          0.033179797338052 0 0.0003 0.033223205957069 0.0029397507967035 0
          0.033223205957069 0.0029397507967035 0.00015 0.033223205957069 0.0029397507967035 0.0003
          0.033244910266578 0.0044096261950543 0 0.033244910266578 0.0044096261950543 0.00015
          0.033244910266578 0.0044096261950543 0.0003 0.033266614576087 0.0058795015934051 0
          0.033266614576087 0.0058795015934051 0.00015 0.033266614576087 0.0058795015934051 0.0003
          0.033288318885596 0.0073493769917596 0 0.033288318885596 0.0073493769917596 0.00015
          0.033288318885596 0.0073493769917596 0.0003 0.031657595460571 0.0087048568522863 0
          0.031657595460571 0.0087048568522863 0.00015 0.031657595460571 0.0087048568522863 0.0003
          0.033310023195106 0.0088192523901195 0 0.033310023195106 0.0088192523901195 0.00015
          0.033310023195106 0.0088192523901195 0.0003 0.031668878259163 0.010155666327672 0
          0.031668878259163 0.010155666327672 0.00015 0.031668878259163 0.010155666327672 0.0003
          0.031680161057755 0.011606475803059 0 0.031680161057755 0.011606475803059 0.00015
          0.031680161057755 0.011606475803059 0.0003 0.031691443856347 0.013057285278446 0
          0.031691443856347 0.013057285278446 0.00015 0.031691443856347 0.013057285278446 0.0003
          <InformationKey name="L2_NORM_RANGE" location="vtkDataArray" length="2">
            <Value index="0">
              0.011720201603
            </Value>
            <Value index="1">
              0.034459060608
            </Value>
          </InformationKey>
        </DataArray>
      </Points>
      <Cells>
        <DataArray type="Int64" Name="connectivity" format="ascii" RangeMin="0" RangeMax="797">
          0 1 2 3 4 5
          6 7 4 5 6 7
          8 9 10 11 12 13
          14 15 16 17 18 19
          16 17 18 19 20 21
          22 23 24 25 26 27
          28 29 30 31 28 29
          30 31 32 33 34 35
          36 37 38 39 40 41
          42 43 40 41 42 43
          44 45 46 47 48 49
          50 51 52 53 54 55
          52 53 54 55 56 57
          58 59 60 61 62 63
          64 65 66 67 64 65
          66 67 68 69 70 71
          72 73 74 12 75 76
          77 16 75 76 77 16
          78 79 80 20 61 81
          82 62 65 83 84 66
          65 83 84 66 69 85
          86 70 87 88 89 90
          91 92 93 94 91 92
          93 94 95 96 97 98
          37 99 100 38 41 101
          102 42 41 101 102 42
          45 103 104 46 81 105
          106 82 83 107 108 84
          83 107 108 84 85 109
          110 86 26 111 112 113
          30 114 115 116 30 114
          115 116 34 117 118 119
          63 120 121 60 67 122
          123 64 67 122 123 64
          71 124 125 68 126 127
          128 129 130 131 132 133
          130 131 132 133 134 135
          136 137 138 72 139 140
          141 75 142 143 141 75
          142 143 144 78 145 146
          150 127 151 152 153 131
          154 155 153 131 154 155
          156 135 157 158 159 160
          161 138 162 163 164 141
          162 163 164 141 165 166
          167 144 120 168 169 170
          122 171 172 173 122 171
          172 173 124 174 175 176
          15 139 72 12 19 142
          75 16 19 142 75 16
          23 145 78 20 177 0
          3 178 179 4 7 180
          179 4 7 180 181 8
          11 182 183 184 726 727
          185 186 728 729 185 186
          728 729 187 188 730 731
          192 193 90 89 194 195
          94 93 194 195 94 93
          196 197 98 97 198 106
          105 199 200 108 107 201
          200 108 107 201 202 110
          109 203 204 13 12 74
          205 17 16 77 205 17
          16 77 206 21 20 80
          207 208 209 210 211 212
          213 214 211 212 213 214
          215 216 217 218 732 733
          734 219 735 736 737 220
          735 736 737 220 738 739
          740 221 222 219 734 223
          224 220 737 225 224 220
          737 225 226 221 740 227
          228 229 170 169 230 231
          173 172 230 231 173 172
          232 233 176 175 234 140
          50 49 235 143 54 53
          235 143 54 53 236 146
          58 57 129 237 238 126
          133 239 240 130 133 239
          240 130 137 241 242 134
          243 244 245 246 247 248
          249 250 247 248 249 250
          251 252 253 254 255 256
          159 234 257 258 162 235
          257 258 162 235 259 260
          165 236 261 262 263 264
          265 266 267 268 265 266
          267 268 269 270 271 272
          273 147 38 100 274 148
          42 102 274 148 42 102
          275 149 46 104 121 276
          277 60 123 278 279 64
          123 278 279 64 125 280
          281 68 282 246 741 283
          284 250 742 285 284 250
          742 285 286 254 743 287
          291 292 82 106 293 294
          84 108 293 294 84 108
          295 296 86 110 99 297
          62 298 101 299 66 300
          101 299 66 300 103 301
          70 302 303 304 147 273
          305 306 148 274 305 306
          148 274 307 308 149 275
          105 204 74 199 107 205
          77 201 107 205 77 201
          109 206 80 203 288 309
          151 282 289 310 154 284
          289 310 154 284 290 311
          157 286 312 313 13 204
          314 315 17 205 314 315
          17 205 316 317 21 206
          99 298 292 100 101 300
          294 102 101 300 294 102
          103 302 296 104 292 298
          62 82 294 300 66 84
          294 300 66 84 296 302
          70 86 151 127 126 243
          154 131 130 247 154 131
          130 247 157 135 134 251
          246 282 151 243 250 284
          154 247 250 284 154 247
          254 286 157 251 100 292
          291 273 102 294 293 274
          102 294 293 274 104 296
          295 275 324 325 297 326
          327 328 299 329 327 328
          299 329 330 331 301 332
          325 63 62 297 328 67
          66 299 328 67 66 299
          331 71 70 301 333 168
          325 324 334 171 328 327
          334 171 328 327 335 174
          331 330 168 120 63 325
          171 122 67 328 171 122
          67 328 174 124 71 331
          312 336 209 337 314 338
          213 339 314 338 213 339
          316 340 217 341 88 256
          255 89 92 258 257 93
          92 258 257 93 96 260
          259 97 342 198 199 343
          344 200 201 345 344 200
          201 345 346 202 203 347
          90 264 348 349 94 268
          350 351 94 268 350 351
          98 272 352 353 354 355
          276 121 356 357 278 123
          356 357 278 123 358 359
          280 125 360 361 333 362
          363 364 334 365 363 364
          334 365 366 367 335 368
          336 277 210 209 338 279
          214 213 338 279 214 213
          340 281 218 217 73 72
          138 161 76 75 141 164
          76 75 141 164 79 78
          144 167 372 14 13 313
          373 18 17 315 373 18
          17 315 374 22 21 317
          168 333 361 169 171 334
          364 172 171 334 364 172
          174 335 367 175 378 361
          360 369 379 364 363 370
          379 364 363 370 380 367
          366 371 381 291 106 198
          382 293 108 200 382 293
          108 200 383 295 110 202
          354 177 178 384 356 179
          180 385 356 179 180 385
          358 181 182 386 37 326
          297 99 41 329 299 101
          41 329 299 101 45 332
          301 103 324 390 362 333
          327 391 365 334 327 391
          365 334 330 392 368 335
          394 393 399 400 396 395
          401 402 396 395 401 402
          398 397 403 404 2 387
          189 405 6 388 190 406
          6 388 190 406 10 389
          191 407 400 399 408 409
          402 401 410 411 402 401
          410 411 404 403 412 413
          414 24 27 415 416 28
          31 417 416 28 31 417
          418 32 35 419 420 87
          90 349 421 91 94 351
          421 91 94 351 422 95
          98 353 199 74 73 343
          201 77 76 345 201 77
          76 345 203 80 79 347
          336 61 60 277 338 65
          64 279 338 65 64 279
          340 69 68 281 426 193
          192 427 428 195 194 429
          428 195 194 429 430 197
          196 431 207 432 433 208
          211 434 435 212 211 434
          435 212 215 436 437 216
          326 438 390 324 329 439
          391 327 329 439 391 327
          332 440 392 330 441 375
          362 390 442 376 365 391
          442 376 365 391 443 377
          368 392 381 303 273 291
          382 305 274 293 382 305
          274 293 383 307 275 295
          348 111 26 25 350 114
          30 29 350 114 30 29
          352 117 34 33 319 444
          309 318 321 445 310 320
          321 445 310 320 323 446
          311 322 432 207 447 448
          434 211 449 450 434 211
          449 450 436 215 451 452
          238 244 243 126 240 248
          247 130 240 248 247 130
          242 252 251 134 140 234
          159 138 143 235 162 141
          143 235 162 141 146 236
          165 144 161 453 343 73
          164 454 345 76 164 454
          345 76 167 455 347 79
          456 457 458 459 460 461
          462 463 460 461 462 463
          464 465 466 467 61 336
          312 81 65 338 314 83
          65 338 314 83 69 340
          316 85 81 312 204 105
          83 314 205 107 83 314
          205 107 85 316 206 109
          468 469 372 337 470 471
          373 339 470 471 373 339
          472 473 374 341 468 337
          209 208 470 339 213 212
          470 339 213 212 472 341
          217 216 474 255 234 49
          475 257 235 53 475 257
          235 53 476 259 236 57
          372 313 312 337 373 315
          314 339 373 315 314 339
          374 317 316 341 152 151
          309 444 155 154 310 445
          155 154 310 445 158 157
          311 446 477 478 139 15
          479 480 142 19 479 480
          142 19 481 482 145 23
          483 484 129 128 485 486
          133 132 485 486 133 132
          487 488 137 136 489 319
          304 303 490 321 306 305
          490 321 306 305 491 323
          308 307 744 741 246 245
          745 742 250 249 745 742
          250 249 746 743 254 253
          492 381 198 342 493 382
          200 344 493 382 200 344
          494 383 202 346 88 495
          159 256 92 496 162 258
          92 496 162 258 96 497
          165 260 498 499 448 447
          500 501 450 449 500 501
          450 449 502 503 452 451
          223 414 415 222 225 416
          417 224 225 416 417 224
          227 418 419 226 354 121
          120 170 356 123 122 173
          356 123 122 173 358 125
          124 176 394 3 2 405
          396 7 6 406 396 7
          6 406 398 11 10 407
          453 161 160 483 454 164
          163 485 454 164 163 485
          455 167 166 487 495 504
          160 159 496 505 163 162
          496 505 163 162 497 506
          166 165 492 489 303 381
          493 490 305 382 493 490
          305 382 494 491 307 383
          264 90 193 261 268 94
          195 265 268 94 195 265
          272 98 197 269 507 508
          184 509 510 511 186 512
          510 511 186 512 513 514
          188 515 237 129 484 516
          239 133 486 517 239 133
          486 517 241 137 488 518
          469 519 520 521 471 522
          523 524 471 522 523 524
          473 525 526 527 457 456
          528 51 461 460 529 55
          461 460 529 55 465 464
          530 59 531 342 343 453
          532 344 345 454 532 344
          345 454 533 346 347 455
          238 183 245 244 240 185
          249 248 240 185 249 248
          242 187 253 252 1 378
          369 423 5 379 370 424
          5 379 370 424 9 380
          371 425 504 484 483 160
          505 486 485 163 505 486
          485 163 506 488 487 166
          453 483 128 531 454 485
          132 532 454 485 132 532
          455 487 136 533 747 726
          184 508 748 728 186 511
          748 728 186 511 749 730
          188 514 478 457 51 50
          480 461 55 54 480 461
          55 54 482 465 59 58
          400 409 384 178 402 411
          385 180 402 411 385 180
          404 413 386 182 420 349
          348 534 421 351 350 535
          421 351 350 535 422 353
          352 536 468 537 519 469
          470 538 522 471 470 538
          522 471 472 539 525 473
          509 184 183 238 512 186
          185 240 512 186 185 240
          515 188 187 242 170 229
          177 354 173 231 179 356
          173 231 179 356 176 233
          181 358 499 498 409 408
          501 500 411 410 501 500
          411 410 503 502 413 412
          540 541 459 458 542 543
          463 462 542 543 463 462
          544 545 467 466 87 546
          495 88 91 547 496 92
          91 547 496 92 95 548
          497 96 228 169 361 378
          230 172 364 379 230 172
          364 379 232 175 367 380
          549 550 276 355 551 552
          278 357 551 552 278 357
          553 554 280 359 478 50
          140 139 480 54 143 142
          480 54 143 142 482 58
          146 145 540 555 556 521
          542 557 558 524 542 557
          558 524 544 559 560 527
          36 441 390 438 40 442
          391 439 40 442 391 439
          44 443 392 440 561 562
          237 516 563 564 239 517
          563 564 239 517 565 566
          241 518 152 444 319 489
          155 445 321 490 155 445
          321 490 158 446 323 491
          567 568 87 420 569 570
          91 421 569 570 91 421
          571 572 95 422 150 492
          342 531 153 493 344 532
          153 493 344 532 156 494
          346 533 477 15 14 555
          479 19 18 557 479 19
          18 557 481 23 22 559
          531 128 127 150 532 132
          131 153 532 132 131 153
          533 136 135 156 24 534
          348 25 28 535 350 29
          28 535 350 29 32 536
          352 33 504 495 546 561
          505 496 547 563 505 496
          547 563 506 497 548 565
          474 192 89 255 475 194
          93 257 475 194 93 257
          476 196 97 259 573 574
          575 427 576 577 578 429
          576 577 578 429 579 580
          581 431 546 582 562 561
          547 583 564 563 547 583
          564 563 548 584 566 565
          561 516 484 504 563 517
          486 505 563 517 486 505
          565 518 488 506 555 540
          458 477 557 542 462 479
          557 542 462 479 559 544
          466 481 550 210 277 276
          552 214 279 278 552 214
          279 278 554 218 281 280
          744 245 183 727 745 249
          185 729 745 249 185 729
          746 253 187 731 210 550
          447 207 214 552 449 211
          214 552 449 211 218 554
          451 215 427 575 585 426
          429 578 586 428 429 578
          586 428 431 581 587 430
          150 152 489 492 153 155
          490 493 153 155 490 493
          156 158 491 494 48 588
          574 573 52 589 577 576
          52 589 577 576 56 590
          580 579 573 474 49 48
          576 475 53 52 576 475
          53 52 579 476 57 56
          562 509 238 237 564 512
          240 239 564 512 240 239
          566 515 242 241 372 556
          555 14 373 558 557 18
          373 558 557 18 374 560
          559 22 534 591 567 420
          535 592 569 421 535 592
          569 421 536 593 571 422
          521 556 372 469 524 558
          373 471 524 558 373 471
          527 560 374 473 178 3
          394 400 180 7 396 402
          180 7 396 402 182 11
          398 404 263 594 595 596
          267 597 598 599 267 597
          598 599 271 600 601 602
          549 355 354 384 551 357
          356 385 551 357 356 385
          553 359 358 386 0 228
          378 1 4 230 379 5
          4 230 379 5 8 232
          380 9 426 585 603 262
          428 586 604 266 428 586
          604 266 430 587 605 270
          582 546 87 568 583 547
          91 570 583 547 91 570
          584 548 95 572 474 573
          427 192 475 576 429 194
          475 576 429 194 476 579
          431 196 262 603 594 263
          266 604 597 267 266 604
          597 267 270 605 600 271
          537 468 208 433 538 470
          212 435 538 470 212 435
          539 472 216 437 36 438
          326 37 40 439 329 41
          40 439 329 41 44 440
          332 45 541 540 521 520
          543 542 524 523 543 542
          524 523 545 544 527 526
          1 423 387 2 5 424
          388 6 5 424 388 6
          9 425 389 10 498 447
          550 549 500 449 552 551
          500 449 552 551 502 451
          554 553 228 0 177 229
          230 4 179 231 230 4
          179 231 232 8 181 233
          507 582 568 606 510 583
          570 607 510 583 570 607
          513 584 572 608 588 48
          51 528 589 52 55 529
          589 52 55 529 590 56
          59 530 609 567 591 610
          611 569 592 612 611 569
          592 612 613 571 593 614
          596 595 615 112 599 598
          616 115 599 598 616 115
          602 601 617 118 414 591
          534 24 416 592 535 28
          416 592 535 28 418 593
          536 32 262 261 193 426
          266 265 195 428 266 265
          195 428 270 269 197 430
          223 610 591 414 225 612
          592 416 225 612 592 416
          227 614 593 418 477 458
          457 478 479 462 461 480
          479 462 461 480 481 466
          465 482 610 747 508 609
          612 748 511 611 612 748
          511 611 614 749 514 613
          549 384 409 498 551 385
          411 500 551 385 411 500
          553 386 413 502 223 734
          747 610 225 737 748 612
          225 737 748 612 227 740
          749 614 596 618 264 263
          599 619 268 267 599 619
          268 267 602 620 272 271
          507 606 609 508 510 607
          611 511 510 607 611 511
          513 608 613 514 582 507
          509 562 583 510 512 564
          583 510 512 564 584 513
          515 566 113 621 27 26
          116 622 31 30 116 622
          31 30 119 623 35 34
          112 615 624 113 115 616
          625 116 115 616 625 116
          118 617 626 119 609 606
          568 567 611 607 570 569
          611 607 570 569 613 608
          572 571 112 111 618 596
          115 114 619 599 115 114
          619 599 118 117 620 602
          113 624 627 621 116 625
          628 622 116 625 628 622
          119 626 629 623 111 348
          264 618 114 350 268 619
          114 350 268 619 117 352
          272 620 27 621 627 630
          31 622 628 631 31 622
          628 631 35 623 629 632
          633 27 630 634 635 31
          631 636 635 31 631 636
          637 35 632 638 639 633
          634 640 641 635 636 642
          641 635 636 642 643 637
          638 644 645 639 640 646
          647 641 642 648 647 641
          642 648 649 643 644 650
          651 415 27 633 652 417
          31 635 652 417 31 635
          653 419 35 637 654 651
          633 639 655 652 635 641
          655 652 635 641 656 653
          637 643 657 654 639 645
          658 655 641 647 658 655
          641 647 659 656 643 649
          660 222 415 651 661 224
          417 652 661 224 417 652
          662 226 419 653 663 660
          651 654 664 661 652 655
          664 661 652 655 665 662
          653 656 666 663 654 657
          667 664 655 658 667 664
          655 658 668 665 656 659
          669 219 222 660 670 220
          224 661 670 220 224 661
          671 221 226 662 672 669
          660 663 673 670 661 664
          673 670 661 664 674 671
          662 665 675 672 663 666
          676 673 664 667 676 673
          664 667 677 674 665 668
          750 732 219 669 751 735
          220 670 751 735 220 670
          752 738 221 671 678 750
          669 672 679 751 670 673
          679 751 670 673 680 752
          671 674 681 678 672 675
          682 679 673 676 682 679
          673 676 683 680 674 677
          684 753 750 678 685 754
          751 679 685 754 751 679
          686 755 752 680 687 684
          678 681 688 685 679 682
          688 685 679 682 689 686
          680 683 690 756 753 684
          691 757 754 685 691 757
          754 685 692 758 755 686
          693 690 684 687 694 691
          685 688 694 691 685 688
          695 692 686 689 696 759
          756 690 697 760 757 691
          697 760 757 691 698 761
          758 692 699 696 690 693
          700 697 691 694 700 697
          691 694 701 698 692 695
          702 762 759 696 703 763
          760 697 703 763 760 697
          704 764 761 698 705 702
          696 699 706 703 697 700
          706 703 697 700 707 704
          698 701 708 645 646 709
          710 647 648 711 710 647
          648 711 712 649 650 713
          765 708 709 766 767 710
          711 768 767 710 711 768
          769 712 713 770 714 657
          645 708 715 658 647 710
          715 658 647 710 716 659
          649 712 771 714 708 765
          772 715 710 767 772 715
          710 767 773 716 712 769
          717 666 657 714 718 667
          658 715 718 667 658 715
          719 668 659 716 774 717
          714 771 775 718 715 772
          775 718 715 772 776 719
          716 773 720 675 666 717
          721 676 667 718 721 676
          667 718 722 677 668 719
          777 720 717 774 778 721
          718 775 778 721 718 775
          779 722 719 776 723 681
          675 720 724 682 676 721
          724 682 676 721 725 683
          677 722 780 723 720 777
          781 724 721 778 781 724
          721 778 782 725 722 779
          783 687 681 723 784 688
          682 724 784 688 682 724
          785 689 683 725 786 783
          723 780 787 784 724 781
          787 784 724 781 788 785
          725 782 789 693 687 783
          790 694 688 784 790 694
          688 784 791 695 689 785
          792 699 693 789 793 700
          694 790 793 700 694 790
          794 701 695 791 795 705
          699 792 796 706 700 793
          796 706 700 793 797 707
          701 794
        </DataArray>
        <DataArray type="Int64" Name="offsets" format="ascii" RangeMin="8" RangeMax="3632">
          8 16 24 32 40 48
          56 64 72 80 88 96
          104 112 120 128 136 144
          152 160 168 176 184 192
          200 208 216 224 232 240
          248 256 264 272 280 288
          296 304 312 320 328 336
          344 352 360 368 376 384
          392 400 408 416 424 432
          440 448 456 464 472 480
          488 496 504 512 520 528
          536 544 552 560 568 576
          584 592 600 608 616 624
          632 640 648 656 664 672
          680 688 696 704 712 720
          728 736 744 752 760 768
          776 784 792 800 808 816
          824 832 840 848 856 864
          872 880 888 896 904 912
          920 928 936 944 952 960
          968 976 984 992 1000 1008
          1016 1024 1032 1040 1048 1056
          1064 1072 1080 1088 1096 1104
          1112 1120 1128 1136 1144 1152
          1160 1168 1176 1184 1192 1200
          1208 1216 1224 1232 1240 1248
          1256 1264 1272 1280 1288 1296
          1304 1312 1320 1328 1336 1344
          1352 1360 1368 1376 1384 1392
          1400 1408 1416 1424 1432 1440
          1448 1456 1464 1472 1480 1488
          1496 1504 1512 1520 1528 1536
          1544 1552 1560 1568 1576 1584
          1592 1600 1608 1616 1624 1632
          1640 1648 1656 1664 1672 1680
          1688 1696 1704 1712 1720 1728
          1736 1744 1752 1760 1768 1776
          1784 1792 1800 1808 1816 1824
          1832 1840 1848 1856 1864 1872
          1880 1888 1896 1904 1912 1920
          1928 1936 1944 1952 1960 1968
          1976 1984 1992 2000 2008 2016
          2024 2032 2040 2048 2056 2064
          2072 2080 2088 2096 2104 2112
          2120 2128 2136 2144 2152 2160
          2168 2176 2184 2192 2200 2208
          2216 2224 2232 2240 2248 2256
          2264 2272 2280 2288 2296 2304
          2312 2320 2328 2336 2344 2352
          2360 2368 2376 2384 2392 2400
          2408 2416 2424 2432 2440 2448
          2456 2464 2472 2480 2488 2496
          2504 2512 2520 2528 2536 2544
          2552 2560 2568 2576 2584 2592
          2600 2608 2616 2624 2632 2640
          2648 2656 2664 2672 2680 2688
          2696 2704 2712 2720 2728 2736
          2744 2752 2760 2768 2776 2784
          2792 2800 2808 2816 2824 2832
          2840 2848 2856 2864 2872 2880
          2888 2896 2904 2912 2920 2928
          2936 2944 2952 2960 2968 2976
          2984 2992 3000 3008 3016 3024
          3032 3040 3048 3056 3064 3072
          3080 3088 3096 3104 3112 3120
          3128 3136 3144 3152 3160 3168
          3176 3184 3192 3200 3208 3216
          3224 3232 3240 3248 3256 3264
          3272 3280 3288 3296 3304 3312
          3320 3328 3336 3344 3352 3360
          3368 3376 3384 3392 3400 3408
          3416 3424 3432 3440 3448 3456
          3464 3472 3480 3488 3496 3504
          3512 3520 3528 3536 3544 3552
          3560 3568 3576 3584 3592 3600
          3608 3616 3624 3632
        </DataArray>
        <DataArray type="UInt8" Name="types" format="ascii" RangeMin="12" RangeMax="12">
          12 12 12 12 12 12
          12 12 12 12 12 12
          12 12 12 12 12 12
          12 12 12 12 12 12
          12 12 12 12 12 12
          12 12 12 12 12 12
          12 12 12 12 12 12
          12 12 12 12 12 12
          12 12 12 12 12 12
          12 12 12 12 12 12
          12 12 12 12 12 12
          12 12 12 12 12 12
          12 12 12 12 12 12
          12 12 12 12 12 12
          12 12 12 12 12 12
          12 12 12 12 12 12
          12 12 12 12 12 12
          12 12 12 12 12 12
          12 12 12 12 12 12
          12 12 12 12 12 12
          12 12 12 12 12 12
          12 12 12 12 12 12
          12 12 12 12 12 12
          12 12 12 12 12 12
          12 12 12 12 12 12
          12 12 12 12 12 12
          12 12 12 12 12 12
          12 12 12 12 12 12
          12 12 12 12 12 12
          12 12 12 12 12 12
          12 12 12 12 12 12
          12 12 12 12 12 12
          12 12 12 12 12 12
          12 12 12 12 12 12
          12 12 12 12 12 12
          12 12 12 12 12 12
          12 12 12 12 12 12
          12 12 12 12 12 12
          12 12 12 12 12 12
          12 12 12 12 12 12
          12 12 12 12 12 12
          12 12 12 12 12 12
          12 12 12 12 12 12
          12 12 12 12 12 12
          12 12 12 12 12 12
          12 12 12 12 12 12
          12 12 12 12 12 12
          12 12 12 12 12 12
          12 12 12 12 12 12
          12 12 12 12 12 12
          12 12 12 12 12 12
          12 12 12 12 12 12
          12 12 12 12 12 12
          12 12 12 12 12 12
          12 12 12 12 12 12
          12 12 12 12 12 12
          12 12 12 12 12 12
          12 12 12 12 12 12
          12 12 12 12 12 12
          12 12 12 12 12 12
          12 12 12 12 12 12
          12 12 12 12 12 12
          12 12 12 12 12 12
          12 12 12 12 12 12
          12 12 12 12 12 12
          12 12 12 12 12 12
          12 12 12 12 12 12
          12 12 12 12 12 12
          12 12 12 12 12 12
          12 12 12 12 12 12
          12 12 12 12 12 12
          12 12 12 12 12 12
          12 12 12 12 12 12
          12 12 12 12 12 12
          12 12 12 12 12 12
          12 12 12 12
        </DataArray>
      </Cells>
    </Piece>
  </UnstructuredGrid>
</VTKFile>
