<?xml version="1.0"?>
<VTKFile type="UnstructuredGrid" version="0.1" byte_order="LittleEndian" header_type="UInt32" compressor="vtkZLibDataCompressor">
  <UnstructuredGrid>
    <Piece NumberOfPoints="783" NumberOfCells="456">
      <PointData>
        <DataArray type="Int32" Name="libmesh_node_id" format="ascii" RangeMin="1863" RangeMax="4982">
          1863 1864 1865 1887 1888 1889
          1890 1891 1892 1899 1900 1901
          1902 1903 1904 1905 1906 1907
          1908 1909 1910 1911 1912 1913
          1914 1915 1916 1917 1918 1919
          1926 1927 1928 1929 1930 1931
          1932 1933 1934 1935 1936 1937
          1938 1939 1940 1941 1942 1943
          1944 1945 1946 1950 1951 1952
          1953 1954 1955 1956 1957 1958
          1959 1960 1961 1962 1963 1964
          1965 1966 1967 1968 1969 1970
          1971 1972 1973 1977 1978 1979
          1980 1981 1982 1983 1984 1985
          1986 1987 1988 1989 1990 1991
          1992 1993 1994 1995 1996 1997
          1998 1999 2000 2004 2005 2006
          2007 2008 2009 2010 2011 2012
          2013 2014 2015 2016 2017 2018
          2019 2020 2021 2022 2023 2024
          2025 2026 2027 2031 2032 2033
          2034 2035 2036 2037 2038 2039
          2040 2041 2042 2043 2044 2045
          2046 2047 2048 2049 2050 2051
          2052 2053 2054 2058 2059 2060
          2061 2062 2063 2064 2065 2066
          2067 2068 2069 2070 2071 2072
          2073 2074 2075 2076 2077 2078
          2079 2080 2081 2082 2083 2084
          2085 2086 2087 2088 2089 2090
          2091 2092 2093 2094 2095 2096
          2097 2098 2099 2100 2101 2102
          2103 2104 2105 2106 2107 2108
          2109 2110 2111 2118 2119 2120
          2121 2122 2123 2136 2137 2138
          2139 2140 2141 2142 2143 2144
          2145 2146 2147 2154 2155 2156
          2157 2158 2159 2160 2161 2162
          2163 2165 2167 2169 2170 2171
          2172 2173 2174 2175 2176 2177
          2178 2179 2180 2181 2182 2183
          2209 2213 2217 2232 2233 2234
          2235 2236 2237 2238 2239 2240
          2241 2242 2243 2245 2247 2249
          2310 2311 2312 2313 2314 2315
          2364 2365 2366 2367 2368 2369
          2370 2371 2372 2373 2374 2375
          2574 2575 2576 2577 2578 2579
          2586 2587 2588 2589 2590 2591
          2634 2635 2636 2637 2638 2639
          2640 2641 2642 2673 2674 2675
          2676 2677 2678 2679 2680 2681
          2682 2683 2684 2727 2728 2729
          2730 2731 2732 2733 2734 2735
          2826 2827 2828 2829 2830 2831
          2832 2833 2834 2835 2836 2837
          2874 2875 2876 2877 2878 2879
          2901 2902 2903 2904 2905 2906
          2907 2908 2909 2910 2911 2912
          3003 3004 3005 3006 3007 3008
          3009 3010 3011 3012 3013 3014
          3015 3016 3017 3024 3025 3026
          3027 3028 3029 3030 3031 3032
          3033 3034 3035 3037 3038 3041
          3042 3045 3046 3048 3049 3050
          3051 3052 3053 3105 3106 3107
          3108 3109 3110 3168 3169 3170
          3171 3172 3173 3174 3175 3176
          3177 3178 3179 3228 3229 3230
          3231 3232 3233 3234 3235 3236
          3237 3238 3239 3246 3247 3248
          3249 3250 3251 3264 3265 3266
          3267 3268 3269 3375 3376 3377
          3393 3394 3395 3396 3397 3398
          3423 3424 3425 3426 3427 3428
          3429 3430 3431 3432 3433 3434
          3441 3442 3443 3444 3445 3446
          3465 3466 3467 3468 3469 3470
          3471 3472 3473 3474 3475 3476
          3477 3478 3479 3480 3481 3482
          3516 3517 3518 3546 3547 3548
          3549 3550 3551 3552 3553 3554
          3573 3574 3575 3576 3577 3578
          3600 3601 3602 3663 3664 3665
          3666 3667 3668 3705 3706 3707
          3723 3724 3725 3726 3727 3728
          3729 3730 3731 3732 3733 3734
          3789 3790 3791 3810 3811 3812
          3813 3814 3815 3819 3820 3821
          3840 3841 3842 3843 3844 3845
          3864 3865 3866 3891 3892 3893
          3894 3895 3896 3897 3898 3899
          3933 3934 3935 3936 3937 3938
          3945 3946 3947 3948 3949 3950
          3996 3997 3998 3999 4000 4001
          4002 4003 4004 4005 4006 4007
          4038 4039 4040 4071 4072 4073
          4074 4075 4076 4083 4084 4085
          4110 4111 4112 4113 4114 4115
          4131 4132 4133 4134 4135 4136
          4137 4138 4139 4140 4141 4142
          4143 4144 4145 4239 4240 4241
          4242 4243 4244 4245 4246 4247
          4248 4249 4250 4329 4330 4331
          4332 4333 4334 4356 4357 4358
          4359 4360 4361 4362 4363 4364
          4392 4393 4394 4419 4420 4421
          4446 4447 4448 4449 4450 4451
          4467 4468 4469 4479 4480 4481
          4503 4504 4505 4512 4513 4514
          4524 4525 4526 4542 4543 4544
          4548 4549 4550 4563 4564 4565
          4575 4576 4577 4596 4597 4598
          4632 4633 4634 4674 4675 4676
          4686 4687 4688 4755 4756 4757
          4758 4759 4760 4776 4777 4778
          4824 4825 4826 4827 4828 4829
          4839 4840 4841 4959 4960 4961
          4980 4981 4982 3036 3039 3040
          3043 3044 3047 3609 3693 3610
          3613 3695 3614 3617 3697 3618
          4021 4024 4027 4020 4023 4026
          4009 4008 4013 4012 4017 4016
          3671 4188 3675 4189 3679 4190
          2402 2409 2405 2410 2408 2411
          2389 4395 2393 4396 2397 4397
          2400 2403 2406 3939 4287 3941
          4288 3943 4289 3694 3696 3698
          4599 4380 4600 4384 4601 4388
          4830 4831 4832 4022 4025 4028
          4656 4657 4658
        </DataArray>
        <DataArray type="Float64" Name="resid_x" format="ascii" RangeMin="-0.0027217837664643696" RangeMax="0.00026020358963130263">
          -0.00001902166094147617 -0.00003665960630172549 -0.000017741484218625203 0.000007865327078526718 -0.000008821144518833535 -0.00001263679065344192
          0.00001954218416422293 0.000022363931553748273 -0.000005935201130569112 0.000008621357213023373 -0.000007088821561751502 0.00006525611155794309
          0.000033950144906924606 0.00006021414349444143 0.00008204235884301525 0.0000033098060421288267 0.000051963852524927745 0.00005529871327114577
          0.000006737224944597386 0.000058696234463528896 0.000045899677641791925 -0.000013648197015214691 0.00004455636029954135 0.000032811563599022264
          0.000027178701852648146 0.000025304675971504764 -0.00000942858359476162 0.000020241083201533172 0.000033449525802531355 -0.000003332597407812443
          0.00004933737903378699 0.00007727903033405426 0.00012871864127284027 0.00006541385438740832 0.00012740488777485126 0.00011103251530908409
          0.00003258736322075961 0.00009455756920440095 0.00006579245585669469 0.000024857833917923955 0.000083186213428732 0.00004377014989431771
          0.0000033969184771720506 0.00005568529354604834 0.000021855804240189514 -0.000004865638072448775 0.00003344650968628571 -0.000007030049247624959
          -0.000002579037431615916 0.00003197918466035787 -0.000008519404398832364 0.000042919492888593425 0.00013193513194309503 0.00026020358963130263
          0.00008865845690575469 0.00018269977654483682 0.00017888704034696445 0.00006906128890538099 0.00015231459483322496 0.0001120128651890262
          0.00002331865680993417 0.00010086225136740623 0.00005872429913544863 0.000015110098444459652 0.00008464106802641425 0.00003363500264086383
          0.0000019106859512341146 0.00006030021410596831 0.000008504967577760425 -0.000011777839183046979 0.000032423214458621175 -0.000012052146807661757
          -0.000008959058095392436 0.000031216318037596835 -0.000021508069310005595 0.00002472725978996948 -0.0019605492517662526 -0.0027217837664643696
          0.00009868292518522281 0.00022751352388894475 0.00018712742104654012 0.00004569032287005115 0.00014722385341192634 0.00009762130600421415
          0.000023532753778976456 0.00010322948966168255 0.00005093809056422316 0.000007467922441772856 0.00006849964420263532 0.000015377095766933024
          -0.000009413782516176639 0.00003998844325181494 -0.000011472589976690983 -0.000023233952399337454 0.00001580138902523842 -0.000028952330744846932
          -0.000019314184336316487 0.000012539974022729439 -0.00003255178378580581 0.0000789441181225925 -0.0003943276759734715 -0.000548040858914689
          0.0000877976060582597 0.00020425756768416292 0.00013449387382458156 0.000029169720934696386 0.00011240453956506968 0.0000592898451139412
          0.000009157480367782966 0.00007150455998816696 0.000014171544698182714 -0.000009256209140051652 0.00003277302251047942 -0.000020871462840688082
          -0.000026237115936744715 0.000007746561178745281 -0.00004303020380325151 -0.0000389318886990786 -0.000014662399382192604 -0.00005517678051081276
          -0.00003136035169193363 -0.00000859103497674596 -0.0000522748712441512 0.00009395630716824144 0.00019916672298059268 0.0001716892388134994
          0.00005437381912010153 0.00012939090099051143 0.00006903583534789703 -0.000004139713427608882 0.0000375998643153963 -0.00001618306873396591
          -0.000024861348292049 0.0000038114002398614844 -0.00005102693249181556 -0.00003749448398204791 -0.000024666417575147648 -0.00007088225357554379
          -0.00004759114987651358 -0.00003581875871416784 -0.00008071061464187679 -0.000055010542855615796 -0.00004728730732850295 -0.00008247535285921259
          -0.00004503107738340617 -0.00003382745362845441 -0.00007540779858139501 -0.000005595455648155223 0.0000063562369998493295 -0.000020483380703595344
          -0.000019879611595552404 -0.000018192693212792932 -0.00006414458138825907 -0.00006039626191192693 -0.00008178772455608163 -0.00013239142305840335
          -0.00006749550974305407 -0.00008317304660243607 -0.00012005156315053611 -0.00006313162131288408 -0.00007975532909698657 -0.0001111739474137785
          -0.00006372618002936647 -0.0000774559909739736 -0.00010842459276361183 -0.00006802558039353812 -0.00008311867264643169 -0.0001098823726941589
          -0.00006160105425223605 -0.00006795741729925808 -0.0001048041071163297 -0.00005643086191664537 -0.00005127056162201882 -0.000035662940647718244
          -0.00005503032831999377 -0.00009644095927985319 -0.00010093694965274125 -0.00008614074930601845 -0.00012708694410745736 -0.0001181524050020144
          -0.00011850288116610486 -0.00009863876381066561 -0.00012955215335619386 -0.00008661579911883877 -0.0001754574452353594 -0.00019553322409038287
          -0.00008846300077403058 -0.00016173189753576622 -0.0003481759860786554 -0.00039817553151788587 -0.00016464133645666124 -0.00018629466772823733
          -0.00035208489469040066 -0.00037840495010854625 -0.000204824684765903 -0.00011993055558434662 -0.00011237541711572874 -0.00019408824777267242
          -0.00020917042824963872 -0.00017574099050898795 -0.00022090288406939607 -0.00011324601856399497 -0.000104282591050886 -0.0001695939532471158
          -0.00013788646622270306 -0.00016638833908011463 -0.0001423154307849117 -0.00008713644515778718 -0.00003852440587614331 -0.00012958503413051936
          -0.00006710991251665868 -0.0001303198325655064 -0.00008459262333062809 -0.00011886349481748937 -0.00018356416197162773 -0.00020517349877557933
          -0.0003730106026296198 -0.00021271141408440997 -0.00035841409437020744 -0.00008645331083956265 -0.00011298705838702627 -0.00016365391985528888
          -0.0002204143127396696 -0.00010495943308930222 -0.0001614373356045723 -0.00008502081428485297 -0.000113019678059878 -0.00013344264551840013
          -0.0004716356273366529 -0.000929746668327347 -0.0005878199776261361 -0.00033069716443545616 -0.0006333926993646877 -0.000395421604507451
          -0.0002617285124313362 -0.00018534790376545374 -0.0005113748290277442 -0.0003573781074508453 -0.00031315204301129995 -0.00023548977776233215
          -0.00015630549994050114 -0.0002770131129468112 -0.00018201405344520083 -0.00008431672371944643 -0.00013800311131451082 -0.0001254919602224902
          -0.000058483038735346327 -0.00007035559844936756 -0.00005055005740217666 -0.0000468181438604276 -0.000035050818294024566 -0.000006838410278486862
          -0.000013004948116623893 -0.00006556868490470436 -0.00003705931050390632 -0.000016592999890097104 -0.00002660124807718489 -0.00009890012861468733
          -0.00007038141513149299 -0.00004185373745091425 -0.000056869059528175114 -0.0000673974366982577 -0.00009826682930835773 -0.00006376659459483847
          -0.00003426701496023199 -0.00008046612487699889 -0.00005941770454054307 -0.0001079998100355084 -0.00010403267631531321 -0.0001217427503474866
          0.000011271284746428023 0.000006990417993790743 0.0000068974047175984765 0.000018233433588310533 0.000009425718501709923 -0.000010700031451094105
          -0.000007258054871339681 0.000015536594615728205 -0.00003641247079499976 -0.000027767416225454866 -0.000027048931663387066 -0.00003317769944377602
          -0.00000900143481796789 -0.000027469605795360508 1.2103935809193445e-7 -0.000034335133272556106 -0.000029728885673208083 -0.00005703146415170224
          -5.352102760980415e-9 -0.00001566610200143259 0.000019298034742654124 -0.000004069194097233719 -0.000036723327061061184 -0.00004152194835516099
          -0.000028991773495690154 -0.00003457722619248926 -0.00003920646996213861 -0.00004761959082966172 -0.00005812212383826676 -0.00006529432317936568
          -0.00006805056326175674 -0.0001068923926172971 -0.00006847138268195607 -0.000001953184091796345 0.0000017937997078831813 -0.0000024862630172428624
          0.0000042902706196557006 -0.000016398740809719925 -0.00002882763964695556 -0.000033973830513733816 -0.00002330973596365027 -0.00006258740728881662
          -0.00006826304582130405 -0.00008520438688286447 -0.00008291153324790912 -0.000020268360072572822 0.0000012570003082856829 -1.4891468413935627e-7
          -0.0000168015351509343 -5.322122884621194e-7 -0.000025800017016130994 -0.000026230803096161104 -0.000031914532661048156 -0.000053077249789978964
          -0.000006115307289000782 -0.000037053095583328144 -0.000011884341743151339 0.000011228622979864156 -0.000013072333046260098 -0.00009502542486350407
          -0.00003922974206060914 0.000006836230037610136 -0.00003795038382659044 -0.00006844385325388558 -0.000057012565813141514 -0.000036966755506018245
          -0.00002741628843239141 -0.000005756045386107189 -0.000021145112470755123 0.000012589101908933031 -0.00003348320996998666 -0.000016314347278445496
          -0.000011560895702533713 -0.000014529658422191005 -0.000014841140589361146 -0.000005233859871722757 -0.000033783775109874625 -0.000023785204894544165
          -0.00005347069853822717 -0.000047626645034881676 -0.00007622120726313852 -0.00007006568400758084 -0.00010496952854488484 -0.00009000679368398323
          -0.000015282338234445803 -0.000025276011268227094 0.0000016995461047386584 0.000004936295433743965 -0.00001490195891951096 -0.0000020900146942004483
          -0.000048475283902948973 -0.000032999959708623905 -0.000016893623550284786 -0.0000518369762039228 -0.00004747953142469896 -0.00004994053963436329
          -0.00003781103711775202 -0.0000828289419114725 -0.00007680859111980354 -0.000013820801364694546 -0.00001832031248572008 -0.000015724024752472587
          -0.000007890236335406087 -0.000036715699043732286 -0.00003818248167153371 -0.00004273152570366534 -0.00004134638730413087 -0.00007452182884737368
          -0.0000808657920554623 -0.00006840207360436779 -0.00007935047774854098 -0.000040220213901598356 -0.00003101558432305751 -0.00008240072629028816
          -0.00006820488520542511 -0.00007131986330177753 -0.0000643039292138603 -0.0000026079604773521226 -0.0000023537347280111476 -0.0000066130616152015875
          -0.000013178181424988722 -0.000046848345228944765 -0.00004350991330381859 -0.000029976932102493414 -0.00002640405087195319 -0.000010980474090760417
          -0.000011373345691900738 -0.000032841201606459425 -0.00003329405305141364 7.544467557352164e-7 0.000005420957331914167 0.000011107288716338815
          0.000013948974862731944 -0.00001666565951374821 -0.00003174770222091894 -0.000003957933468967667 -0.000014990213875076819 -0.00006863779134302916
          -0.0000793818245199418 -0.0000646507300929855 -0.00008618235039126176 -0.0000581815130904495 -0.000046018220541732546 -0.00007253588352984508
          -0.00003897731817037453 -0.00002821993462021055 -0.00003079446676057529 -0.000023210830834230478 -0.00003965353879031852 -0.00003511573462589013
          -0.000052673482645815284 -0.000030272134159403663 -0.00003727905901751427 -0.000052605535090677336 -0.00005397372656501531 -0.000048375459686944566
          -0.000054273416099537286 -0.00006981554698359815 -0.00007289499456808457 -0.00005113917211785335 -0.000055994342918808115 -0.00007710214650025193
          -0.00007130879919881039 -0.00010467781638734408 -0.0000827603277397948 -0.0000522198488988046 -0.000025847678707613397 -0.00006695608996665214
          -0.00008578384168789199 -0.00005328683646865784 -0.00003516699924244193 -0.000015630905097374637 -0.00005959284685985722 -0.00005651001389050947
          -0.00003204598322703589 -0.00001684171158755632 -0.000017701834098549085 -0.000018941154906748636 -0.000047621229394056996 -0.00004302259539468167
          -0.00006085996613869327 -0.000049450582163323986 -0.00008774147624812656 -0.00008139382997551792 -0.00009419579520031363 -0.0000882337961733981
          -0.000013193006063616508 -0.00001548358416303408 -0.000013868535476468935 -0.000010805896511811852 -0.0000619160421031495 -0.0000451564507204516
          -0.000033291923737355233 -0.00008527710982342285 -0.000011553820965293227 -0.00004112870111816491 -0.00008502479309369093 -0.000007980940095020372
          -0.000050227465115959546 -0.00009499809693513939 -0.00003272381075003494 -0.000033024190101649253 -0.00005409845522574841 -0.000009134591880233245
          -0.00003304240594692587 -0.000009506040084872325 0.000007230759468512815 -0.00006450299966420658 -0.00004471211539769371 -0.00002022035126891808
          -0.00003983699407961172 -0.000010880208150765291 -0.00004817567305059889 -0.00003243181489143154 -0.00001148453387411763 -0.00002693655267771433
          -0.000017606756141042013 -0.000021676048463703523 0.000003300506728365349 0.000010557181866488463 -0.000020198068895194154 -0.000019988638387147262
          -0.000038933422652931426 -0.000046114100207717 -0.00002358747327191324 -0.000015121217539881826 -0.00006015342636311871 -0.00006231409323298465
          -0.0000611490052095931 -0.000046834154431518726 -0.00010578991105347768 -0.0000341390788136664 -0.0000042713554668782905 -0.00006737673531809207
          0.000005860054279605009 -0.000041019950002940675 -0.000004839063510120312 -0.00004315954192524174 -0.00006629089972776114 -0.00003049104785191048
          -0.00003700229036063263 -0.00004103073202488261 -0.000025642551141569214 -0.000009765991847210387 -0.00008351501216719015 -0.00009225092336118124
          -0.000053862674429971946 -0.000019726174784295836 -0.00005977393104128481 -0.00005733844374677943 -0.000045677362063845095 -0.00003292665992926658
          -0.000011737176421444673 0.0000061239044102379125 -0.000026064381273727122 -0.000016967708106108148 -0.00004812578926127742 -0.000008681121823173044
          -0.00004371523715640535 -0.00004992982752138886 -0.00007746563083355085 -0.000037967931506344144 0.000008671092960987892 -0.000027158683473693657
          -0.000011778052821043161 -0.000017519987720537866 0.000002281482227139975 -0.000001784722434838848 -0.0000179775864319609 -0.000025962864709794253
          -0.00004942023142717744 -0.00008510514042914252 -0.00005459847020361508 0.00001315720398853415 -0.00008548761520454917 -0.0000018966365571415622
          0.00004391510017587308 -0.00011275403708665976 0.000010508197122227614 -0.0000022485499240332274 -0.00009463537002130096 -0.000009139269445235243
          -0.00005097639955131683 -0.00003353843989262195 -0.00001737635446996677 -0.000005024025478084226 -0.00003713890017653654 -0.00003356977908541836
          -0.00007583365514163276 -0.00007496976120213716 -0.00004773706279870282 -0.00006178093556119535 -0.00005793758382388603 -0.00006330622118211338
          -0.000027629804229434285 -0.0000381321936715473 -0.000009278814329327645 -0.00003181711058575232 -0.00006605483349186869 -0.00005611421448703524
          -0.0000212106746690921 -0.00003626449768745488 -8.059400942173056e-7 -0.00003683137975141193 -0.000033537736004785046 -0.00003884468709536293
          -0.00005865503089186319 -0.00006714360346293802 -0.00006216234337563797 -0.00006141107315071892 -0.00004531432819421255 -0.00007689899007923273
          -0.00006466934834747917 -0.00008838822908519006 -0.00006108667212068042 -0.00006342030913764063 -0.00004225789575773575 -0.00004106673703851982
          -0.00005980041784869883 -0.000013272855851731435 -0.00004443099094864067 -0.000009203541300628615 0.000013001230839471134 -0.00001131066098913891
          -0.00008491653678088795 -0.0000900260634359995 -0.00007553552934957963 -0.00008754240220287812 -0.00008286598289242164 -0.00009142145501872534
          -0.000042237766366359786 -0.00003557361795536451 -0.000029309612743722013 -0.000021997629967795973 -0.000029947944906683066 -0.000042091432177482346
          -0.000037501147542862157 -0.000014809227851131368 -0.00006628065945335493 -0.00006177641970150916 -0.000023735511220479566 -0.00004162855818279354
          -0.00003870139977568687 -0.00003185748113931908 -0.00004893795169458315 -0.000004710673866314963 -0.00002967016713917303 -4.7277112713572933e-7
          -0.00002365167694512449 -0.00003220843100937287 -0.000022657671874704022 -0.00007596733758852281 -0.00008460550212285867 -0.00009838631576908341
          -0.00011472730239514561 -0.000059197236477182 -0.00007586969149953049 -0.00002746386416863089 0.000007899455121140875 -0.000012872805857711
          -0.00001721519149544548 0.000016781811379207312 -0.000016303688303409558 -0.00006038773589978064 -0.0000764312556276181 -0.00006597860125800992
          -0.00007193672909733273 -0.00001282111611811132 -0.00003399231188971896 -0.000039171571392326854 -0.000040689487428746673 -0.000022373589351420975
          -0.0000614139785493073 -0.000039635348040079066 -0.00005724904773130035 -0.00009013636338295328 -0.00004893873753619715 -0.00006740098753788004
          -0.00002161328406291574 0.000004748777181262653 0.000003089094060992892 -0.000019199256137802934 0.000013318909768855747 -0.000002798862511532718
          -0.00003807986805526298 -0.00003384562315567052 -0.000024497835902970166 -0.00002468623772422518 0.00000389681807577702 -0.000017163653855511996
          -0.0000482352107384898 -0.000060598458425431545 -0.000038016839245536005 -0.00003637167071479652 -0.000006519798883442007 -0.000020814421345161094
          -0.000058235807759210445 -0.0000307656549694002 -0.00006421656722555014 -0.00007818482429478024 -0.000041075026393500025 -0.00005683362760589006
          -0.00006171479916439182 -0.00003914473235688831 -0.0000686218115379944 -0.00008064642331628846 -0.000026249312014670068 -0.00005636109507811682
          -0.0000880172161714654 -0.00004025250111627798 -0.00006580976534653615 -0.00006103410861868497 -0.00003841722719499785 -0.000048074985257162695
          -0.00007242591667555587 -0.00002219855070206833 -0.00004252572893825857 -0.000035829014962018846 -0.00003233592859253065 0.00001994369679803043
          0.00001441477286068249 -0.000006077183695829547 -0.000007129008317008356 -0.00004776357780489349 0.000006863750496854948 -0.000013830708992301766
          -0.0000943441720329119 -0.0000780993602935709 -0.0000932135914326615 -0.0001049326929818406 -0.00009631050815128717 -0.00008146098249417477
          -0.000058603506190024746 -0.00002191144538921108 -0.0000277307169218588 -0.0000061276908001062225 0.00003280591833654256 -0.000007714543981407473
          -0.00010186088473940202 -0.0000774060024228973 -0.00008495069321146076 -0.000051108080532991096 -0.00004305143689631308 -0.00007674667676305091
          -0.00006641107718863282 -0.00005301099493504324 -0.00004664104575358152 -0.000024247006806810134 -0.00007564148774763524 -9.30786900110725e-7
          -0.000051488372131203164 -0.00011046671943404363 -0.000012731751590777662 -0.00006672229713267086 -0.00006194485836985564 -0.000026279882778368346
          -0.00005689240711959087 -0.00009965770301967325 -0.0000579371059563627 -0.00006248393656882456 -0.00007158453875177884 -0.00005579976578662382
          -0.00004358138490978547 0.000014399367460171675 -0.00009243785039814156 0.000025480509739495005 -0.00007240521973450598 1.307283739038212e-7
          -0.000017537739976702937 -0.00005401414196359866 -0.00004815380264489022 -0.00006654230848290865 -0.00006484759653346828 -0.00005635886933141876
          -0.00007477869253413871 -0.00007875936910117787 -0.00010938064789556279 -0.00010288731847118981 -0.0000714605513696398 -0.00006680804020131603
          -0.000012190477338691608 -0.00007745761784150318 -0.000041642887950388285 -0.0001000809090623278 -0.00006091089368176483 -0.00007189231310711364
          -0.00007393299771241146 -0.00010648839830729173 -0.0000720055923579821 -0.00002561993870919821 -0.000020782872960367627 -0.00003493387381592328
          -0.00002324594518832157 -0.00002086525725975008 -0.00002743161229190605 -0.00005226135219782435 -0.0000652835336687474 -0.00005551683161897358
          -0.000045521142815196924 -0.00001723180899837473 -0.00007571625707392116 -0.00003284463803510107 -0.000045822289941099825 -0.000035639338581638924
          -0.000059481977714881396 -0.0000724668856104671 -0.00004451935964322473 -0.0000659452670070948 -0.00009178969779277679 -0.000058792452667155715
          -0.000028197469474022796 -0.000034265730125326854 -0.000030986907091801186
        </DataArray>
        <DataArray type="Float64" Name="resid_y" format="ascii" RangeMin="-0.0006194164583802064" RangeMax="0.0004275839193143005">
          0.000020405541297912125 0.000015069953805631198 0.000007195432708688096 -0.0000060599692525212245 0.0000063755072459148465 0.000024236636993926752
          -0.000011977558012889189 -0.0000026313048138715267 0.000019815217961453857 0.000006767915217495077 0.00003470361674639405 0.000032242921135964414
          0.000005336124421273514 0.00005196060458767526 0.000050393881404903196 0.00003383914471874472 0.00008595195309463177 0.00006793489367262762
          0.00003894405272716894 0.00008909763924763725 0.00006470664031399398 0.00002886878456651032 0.00005274919102304931 0.0000482024914323087
          -0.00001113006611636741 -0.000015917493385420034 0.00001689062771154104 -0.0000031762440364270506 -0.000001221077100738155 0.000020870150004449056
          -0.0000760837442840695 -0.0001516428035636258 -0.00005779268869735704 -0.000048170354811610805 -0.00009549542084955065 -0.000020998570005217876
          -0.000025364466656657703 -0.00006419317073581843 -0.000003906273451530218 -0.00001096880287406593 -0.000036780320329228566 0.000004994618690579156
          0.000009385636055337515 -0.000009211433777078781 0.000013662171870768708 0.00003543396724492009 0.000024336945307877784 0.000035422293011055754
          0.00001669823212057525 0.000006502290062368465 0.00002675566839239335 -0.00003686289880849847 -0.0000749874586530308 -0.000020480338181722013
          -0.000014930064983792457 -0.00008590557069482196 -0.000006665006055478484 0.00001193329220408601 -0.000026750029257907593 0.000028111194043591026
          0.000032953154097976195 -2.2849989604264986e-7 0.0000398191920903887 0.000039115701810638406 0.000018466821586590396 0.000042588254976792805
          0.00003852787599235071 0.00002027628770293879 0.00004060020753175568 0.000039054341889114413 0.000026845541058079583 0.00004115067930783242
          0.00003008950493189628 0.000025061827547064562 0.00004195148819150299 -0.0000751480877307642 -0.0005323655357958312 -0.0006194164583802064
          -0.0000033675748258577 -0.0000742985167714455 -0.000005022999887055457 0.000027648429361714494 -0.000030950417684971754 0.00002609922348584086
          0.00003876105415987364 0.0000020920374687602786 0.00003887003171500463 0.0000442557350352063 0.000023454569304703216 0.000044867312930439024
          0.00004490276513576669 0.000030790639386771984 0.00004462497514186661 0.00004532488767595641 0.000036268166919779105 0.00004518967609287716
          0.000035106738510648494 0.000028699725765884976 0.000038952501081518376 -0.000006310450154867198 0.0002451689440990945 0.0004275839193143005
          0.00002986191128193441 -0.0000029305814740910457 0.00003504549985264803 0.00005464140941748019 0.00002554620128610019 0.00005423501682427084
          0.0000633412546487272 0.00004850305972238511 0.00006243380459807629 0.00006107059190774838 0.000053652007711922634 0.00006204226985871697
          0.00005500255371862495 0.00005062674234124209 0.00005463242272313318 0.00005137569529593822 0.000051681741872200426 0.000051880952273299086
          0.00004045684788567261 0.00004463813851157683 0.00004667131580284728 0.00007715953913206564 0.00009417907650621782 0.00004564344815877197
          0.0000727719310468361 0.0000717768889283571 0.00006609316435031432 0.00008156778180962165 0.00007543580862534593 0.00007764472760793395
          0.00008541810644853431 0.00008802873105104303 0.00008430167746156791 0.00007429516581065887 0.00007478385260796527 0.00007350085889304414
          0.00006116233983667618 0.00006221425148141696 0.000060092462009692094 0.00005271988981965514 0.00005727386281400432 0.000053013889629034694
          0.000041874154434989874 0.000048533083339311056 0.000047665496945847874 0.00010380668956244676 0.0001477925739192809 0.00007652580968908751
          0.00010993387037827596 0.00014252948607751392 0.0000998170974945145 0.00010146748143878559 0.00012985532095086127 0.00010879479938293024
          0.00009220062626738579 0.00009735966210092095 0.00008582851360999788 0.00007147877409530157 0.00006887105758579537 0.00006663867698478154
          0.00005719190671796964 0.00005780062206321712 0.00005525716439915701 0.00004875694449334167 0.000053519995428574774 0.00004979876319910481
          0.00004064682117334989 0.000047407897703369284 0.0000478915223812576 0.000045649541061218435 0.000032935753866106254 0.000004830708826498303
          0.000009523494121931736 0.00005676997607906298 0.000054302229470143404 0.00001702848937995896 0.0000228032524141053 0.00006085267046833376
          0.000059620639895174854 0.000024215447082875236 0.000025139467203606075 0.00007501368075402137 0.00003713222216910131 0.000052554192748355266
          0.00011706741587839964 0.00011511500855748702 0.00007563633877440135 0.00010710596059898547 0.00022267378616921962 0.00010553946018918015
          0.00007069879744520113 0.00007471988372070859 0.00015283092268297827 0.00008972581827304538 0.000016396076383443092 0.000125773624788994
          0.0000219521399613537 0.0001059113727701344 0.00004108415020623313 0.00003777305118470714 0.00009867173237382287 0.000027813895295811242
          0.00012764004509832616 0.00003184041996902309 0.00009923790752033868 0.000047889397944183426 0.000005343592595095925 0.00007025480481783093
          0.000007575627937264802 0.000060405163096735257 0.000015377993728656232 0.00014065481800840107 0.0000891376617002948 0.0002445468200309442
          0.00014187506323415366 0.00012914067000724394 0.00005387928886485538 0.00003096541074242964 0.00004191706262951338 0.00003422703329657769
          0.000042515573035009115 0.000019947992183268898 0.00003009321114213776 0.000041558037507494205 0.000050694286755539886 0.000046960462798284475
          0.00004331517124520328 0.000017091953236198637 0.000029025064539837248 0.00006912621818453563 0.00006388768789374402 0.000041493269114352416
          0.00006591353212800216 0.0000437477459008101 0.000052266546919491064 0.00003567079887152602 0.000036402532531003284 0.00002852196770912474
          0.00004726897870934929 0.00003988988978032362 0.000024550473325186256 0.000017637755695121965 0.000011337264319781493 0.000018333839660870932
          -0.000025836438140487868 -0.0000381244586483212 -6.853940202333764e-7 0.000028301502335841 0.000025835778913213536 0.00001332266997851328
          0.000010713637537400345 0.00005082152049430688 0.000045290801319486373 0.00003692937816135444 0.00003427593169326448 0.00005375870956619844
          0.00004597738847259003 0.000040045820404469024 0.00004625785932334259 -0.000016364961182017274 -0.00002347872906914572 -0.000001457380299354355
          0.000025818044429241904 0.00005390697254847865 0.00003518140290208194 0.00005569563927312893 0.00005221904537758282 0.00005117476500533791
          -0.000001829188858493147 4.6555164699702e-7 -0.000004308138724110067 -0.000007936799812119366 -0.000002972946628217177 0.000006517476126996491
          -0.0000060415562775500975 -0.000011222333354640734 0.000011336465252725914 0.000010928198412807344 0.000008381210995209165 0.000011025600496136767
          0.00003415193730614552 0.000028486446166819945 0.00003199358321769041 0.00003197090177476953 0.00003090302596558958 0.00003460979286376911
          0.0000128153777269914 0.00001488882306723005 -0.000003040866059306896 -0.0000019156639112193063 0.000011242922191907756 0.000009555178084368066
          0.000010264762498986973 -1.7779908479537143e-7 0.000022760742905234 0.000022754199337320785 0.000013655329040559994 0.00003065778429366811
          0.000031556346456990125 0.00004455402724826141 0.00002714855339203126 0.000005587381542597469 0.000004607781329768468 0.000004493896883020487
          0.00000625392013986481 0.000012387467068226965 0.000016219995809918508 0.000004182703266776555 0.00002175290176187339 0.00001447588839820213
          0.00001601482091120182 0.000013188520045462337 0.000019361926356951942 0.0000012318088483051493 -0.00000336212656044943 -1.357100503952824e-7
          0.000006039396571747013 0.0000010454034294060666 0.000004178587605062345 0.000010305693488782408 0.000014339115302824945 0.000019291150597258028
          0.00002390133365704622 0.000018225051125780878 0.000025233076063627125 0.00000448691226653114 0.00004711638482859243 0.0000394520478489771
          0.00005025344673394855 0.0000015511897689460263 0.000033146078953064095 0.000025418765900592222 0.000034331787233825295 0.0000025680391629034904
          0.000024009633530053254 0.00001596471955239015 0.000029380505407600177 0.000008306958550606536 0.000027443996223619482 0.000014524222760936567
          0.000006377889678620824 0.000015900834223488147 0.000017701059702845273 0.000004808355490208693 0.000012254675957987238 0.000018726737274953054
          0.00003703220492013923 0.0000033956804749643577 0.000007502550666584756 0.00001252653857114483 0.000021140371638719152 0.00000386148335213693
          0.000027130894679740225 0.00001556503578561963 0.000008036806543234437 0.000026364042277540593 0.000008643664052607192 0.000004197738216041302
          0.00003186608906407314 0.00001703707495905038 0.0000058203363097406036 0.00001540247365877656 0.000006062734856787655 0.00002020566746489122
          0.000012320915659939924 0.000015199649922935377 0.000016573528846909602 0.00000217429353394083 5.2457276904227523e-8 -0.0000035231717576099386
          6.187748065947241e-7 0.00000643957860776978 0.000004002364852651041 0.000006098043398707759 0.000002180220672830767 0.0000065068438196893424
          0.000008574419710607323 0.000008164871476708246 0.0000064714495466022814 -0.000006114785981854894 -0.000006232633817443737 -0.000007452316650330762
          -0.0000035186228224117974 0.0000019847292882756162 0.000007450912932253223 0.0000032145876328187883 0.000011812682533210439 -5.940169680446195e-7
          0.0000017835458566151097 0.000010031151490709489 0.000006851747343834813 0.000010735687618938783 0.000008918257630146503 0.000013047978184216324
          0.000010568768483983776 0.000014421430339715824 0.000017133129329154062 0.000007297010313819102 0.000008003205551360137 0.0000027137941333993387
          0.000006575323284418316 0.000017231706850574097 0.000020837263704005793 0.000011611956287654879 0.000030207872432736274 0.000021457060797095556
          0.000027069419341781142 0.000028641554453479046 0.00003249691331789345 0.000022655160013491937 0.00002975402223152901 0.000022370150150080592
          -0.000005758182911576315 -0.000015471439901798556 0.000007482821430253306 -0.0000063040736784023 -0.000008438176103294642 -0.000030152984004855332
          -0.000025106823280725277 -0.00000714918080190613 -0.000006449968249964966 0.000026529249865903104 0.000024918568848536493 0.00003558082669088969
          0.00003819874973631787 0.000033088194233796275 0.00004031196279068866 0.000027544380028766274 0.00003130196348775233 0.000019691948921159164
          0.000026136631513389713 0.00002847960071572335 0.000029781488766554565 0.000044692839461388245 0.00003817684110021813 0.00003600148443758111
          0.000035584229637244946 0.000032815615327516645 0.00003301882517769972 0.000029374044293421775 0.000026701058972275482 0.000023942455787552552
          0.000016262328963526085 0.0000034398044976517023 0.000004562251985680207 0.00001099471237894084 0.000015551148674457227 0.0000011929293283457348
          0.000007823089243243556 0.000010266703711792058 0.000007828552640178066 0.0000013756887367773196 0.000009112893995627883 0.000011977537281705058
          0.00001851139878602387 0.000010350601121242309 0.000022599616658153243 0.000014583795884627604 0.000026562378616958038 0.00001779639101014141
          0.000018084546346846912 0.000009618957374918358 0.000020471991467927494 0.000016430943393424147 0.000009835233529506202 0.00001744595628848291
          0.000013878535691539025 0.000016785286349334932 0.00001126405031345824 0.0000248924782354637 0.000018377901075127684 0.0000061180806344984795
          0.000023181380864351064 0.00001079874754630894 0.000004947244097039394 0.0000228659131410458 0.000015434512451277527 0.000009847040911448168
          0.000012697785496430802 0.000014092108999941289 0.000018789945535301056 0.000015642458126043784 0.00001146166701225873 0.000017849672812951523
          0.000013714019581610379 0.0000047198076944966055 0.000013635309422811714 0.000002691878878805648 0.00001669498827898408 0.00001010019676368594
          0.00003067852462567203 0.000025689623133477724 0.00003404338015981084 0.000020722648583937353 0.000028300023543200575 0.00001820643996343352
          0.000006953264032957471 0.00001522265458024901 0.000020419866840218348 -0.000010377356515118424 -0.000001046863774618878 -0.00002000997166974952
          -0.000010756585227790494 -0.00000758078239825391 -0.000001020397260798056 0.000024502258284105072 0.00002687133101894959 0.0000169964966258776
          0.000007813239224045698 0.000004443084842438438 -0.000011343200047683744 0.000013764580795487535 0.000019160593756294836 0.000009982878744263513
          -0.000025439895344012836 0.00002868250277816148 0.000015338243137666407 0.00000727606291339028 -0.000011595813288061557 0.000020349504522378103
          0.000002635658008222526 -9.414270448057302e-7 0.000003860816233959823 0.00000620576119082783 0.000037609876615829485 0.00001589684644889844
          0.000036997536861906044 0.000021653743562763395 0.000028410104493226118 0.00003489614419335818 0.00001718934000886907 0.000013899671358619248
          0.000007801456849969302 0.000011523497504120628 -0.000003377173563159225 -0.00000500774895700884 0.000004425492545246518 0.000008591073344582645
          0.000009354969809610703 0.000019743730643985435 0.000015716448040631326 -0.000005171750235366448 -0.00000352117923635778 -0.0000016523311717024647
          -0.00000376636201470347 -0.000012796042566204716 0.000002755990165385566 -1.1566802071358295e-7 -0.00000763069827660473 2.687448020159515e-7
          0.000028642734671169984 0.000013815854957931195 0.000018326043918243107 0.000008384078389656047 0.00001039472893808735 0.000009713845361934703
          0.000024029684892679093 0.000022635066103358914 0.00001623940727571438 0.000010496188646378496 0.00000956537991751022 0.000006794895641124704
          -0.000006626198238685044 -2.3365728362562121e-7 0.0000050800686347898805 0.000015574039594304367 0.00002168228754550333 0.000021467103531930265
          0.000021339138503058408 0.000016840685587396487 0.000016581041527316195 0.00000721285984275552 0.000014960615795561738 0.000004206435078122489
          0.000028804350572426887 0.00005413507997083797 0.000028859977612641016 0.00001427177735564486 0.000018535365075162888 0.000012244727324521587
          0.000024325969898923716 0.00004055096377533762 0.000022838207230344715 0.000019888635592144044 0.000023917588996689998 0.00001805390526872508
          0.000002581732352728572 0.00001119598782430703 0.000013596571485433029 0.000007447209010070371 -0.000009631327839820791 0.000007033690460851727
          -0.0000014559088365780765 0.000010245329298153721 -0.0000018251839446897788 0.000010937045280587365 8.998448072870119e-7 0.000005444522633946819
          0.000019617672122787533 0.000006071787200891132 0.0000294350857098849 0.0000018041853941386243 0.000016636267403884186 0.0000074109405559241726
          0.000013521261561663667 0.00000844529145142131 0.00001731660347285141 0.000007560912012569837 0.000013851419907867646 0.000010158271541708952
          0.000009830055655440928 -0.000001528209440923578 0.000020121231159103692 -0.000004700711260859081 0.0000021560506313772487 0.00000935212043157857
          0.0000098390419697586 0.00001007856417177544 0.000013326431222329682 0.000024737420646906566 0.0000194770121438384 0.000036454663856305
          0.000032914948410851796 0.00002252395764229878 0.00002099822056831485 0.000006814652292255752 -0.00001022893430648042 0.000004915645125145446
          0.0000036820373499036295 0.0000018695335040931627 0.0000016987404017100582 0.000019892619117063692 0.00004074809880693156 0.00002836545443520022
          0.000020468635557588377 -0.000003307965954893466 0.000006023684109894567 0.00002265436613710023 0.000018840375290648387 0.000016657288338606246
          0.000015830014844758766 0.000020142749413372407 0.0000148420402967947 0.000009917541073371783 0.000007497212223372962 0.00001836261698247299
          0.00000905294862152406 -0.000002143030565310289 0.0000010519814398757266 0.000009859182421398383 2.0879641401960747e-7 0.000010437714196634418
          0.000023498051474432624 0.00002427261640966516 0.000015055943172033459 0.00001406819009001914 0.000009755118089371795 0.000018363383345668116
          0.000026733905302694927 0.0000318962876292711 0.000019244422348303758 0.000019712344471511933 0.000016282426726896282 0.00002227415632163887
          0.000031338554234303095 0.000029718383979249197 0.000020826679044599894 0.0000200470746822487 0.000026589240811142334 0.000017685250559326682
          0.000016089323033652292 0.000019104641989391158 0.000020790194998232536 0.00002076214001664467 0.000026401486173624478 0.000021793590702957888
          0.00001698973561910927 0.000016724109412252774 0.00001688759267227946 0.000014371617329872119 0.00001713125258839994 0.000014101338128763574
          0.000021362203030395044 0.000019036010224855737 0.000015576437790432163 0.000009658519105309581 0.000019805386982024026 -0.000001827925704585287
          0.000006754850503172538 0.000005504971057846905 0.000009177892484297373 0.000022117759911179438 0.000006572077103824889 0.00000938948156415341
          0.00004389781706472251 0.000016132115917125156 0.00002320434791414777 0.000005844135979152926 0.000024383605946469433 0.000007372789077603886
          0.00000791223957638705 0.000010533130027187004 0.0000064281174525695345 0.000007165693748549442 0.000009517350902114342 0.000004027014228042986
          0.000022792387852868523 0.000025532507380944536 0.000027012380523334933 0.000003482208904389411 4.656259530722018e-7 -0.000012921266918028418
          -0.000008719497643278062 -0.0000048181178778881895 -0.0000014500017341510796 0.000026151244103489457 0.000036504820780686176 0.000010065641695582161
          0.0000540906719667944 0.0000521925295233483 0.00002279297891755183 0.000037353131584760835 0.00002841186613259522 0.000018211432727933963
          0.00001523158112400752 0.00002842284065977807 0.000017229765084947335 0.000029041139786904757 0.000054757293698068366 0.000029907235879020333
          -0.000003669278780645685 -0.000011839444652932346 -0.000008122891775826091 -0.00001989890525255821 3.0776670630582037e-7 -0.0000033746410796067165
          0.000004796785410828008 -0.000002879561673375247 0.000012686829954026979 -0.000015894423995202467 0.000011515321013285534 -0.000004291954058197045
          0.00003020816713839025 0.000029242728831223308 0.00005922287380832891 0.000037728454126112476 0.000030999838026499194 0.000018696161552131385
          0.000014430054526809455 0.000024811405918374885 0.000030234491742650582 0.000035143226466721744 0.000019252755914370145 0.000019541978162146423
          0.000022085257094520833 0.000023699337371646534 0.000018697670877240724 0.000032274635261078655 0.000027662198893399492 0.000045289793362698894
          0.000040725460836305016 0.000024974971217318898 0.0000286627012209828 0.00003718348308126562 0.00006581657354018389 0.00004355852596296672
          0.0000415810283591056 0.000004303597729557462 0.000059066850306599417 0.000015005556891975469 0.000032007680392909243 0.000019050741216886102
          0.000021218575752657287 0.000026183595821627215 0.000017235606154547556 -0.000010657908092306934 -0.00001879266794335005 -0.000005807636807225042
          0.000023880989515258355 0.00003026063047531502 0.000023021067205031276
        </DataArray>
        <DataArray type="Float64" Name="resid_z" format="ascii" RangeMin="0" RangeMax="0">
          0 0 0 0 0 0
          0 0 0 0 0 0
          0 0 0 0 0 0
          0 0 0 0 0 0
          0 0 0 0 0 0
          0 0 0 0 0 0
          0 0 0 0 0 0
          0 0 0 0 0 0
          0 0 0 0 0 0
          0 0 0 0 0 0
          0 0 0 0 0 0
          0 0 0 0 0 0
          0 0 0 0 0 0
          0 0 0 0 0 0
          0 0 0 0 0 0
          0 0 0 0 0 0
          0 0 0 0 0 0
          0 0 0 0 0 0
          0 0 0 0 0 0
          0 0 0 0 0 0
          0 0 0 0 0 0
          0 0 0 0 0 0
          0 0 0 0 0 0
          0 0 0 0 0 0
          0 0 0 0 0 0
          0 0 0 0 0 0
          0 0 0 0 0 0
          0 0 0 0 0 0
          0 0 0 0 0 0
          0 0 0 0 0 0
          0 0 0 0 0 0
          0 0 0 0 0 0
          0 0 0 0 0 0
          0 0 0 0 0 0
          0 0 0 0 0 0
          0 0 0 0 0 0
          0 0 0 0 0 0
          0 0 0 0 0 0
          0 0 0 0 0 0
          0 0 0 0 0 0
          0 0 0 0 0 0
          0 0 0 0 0 0
          0 0 0 0 0 0
          0 0 0 0 0 0
          0 0 0 0 0 0
          0 0 0 0 0 0
          0 0 0 0 0 0
          0 0 0 0 0 0
          0 0 0 0 0 0
          0 0 0 0 0 0
          0 0 0 0 0 0
          0 0 0 0 0 0
          0 0 0 0 0 0
          0 0 0 0 0 0
          0 0 0 0 0 0
          0 0 0 0 0 0
          0 0 0 0 0 0
          0 0 0 0 0 0
          0 0 0 0 0 0
          0 0 0 0 0 0
          0 0 0 0 0 0
          0 0 0 0 0 0
          0 0 0 0 0 0
          0 0 0 0 0 0
          0 0 0 0 0 0
          0 0 0 0 0 0
          0 0 0 0 0 0
          0 0 0 0 0 0
          0 0 0 0 0 0
          0 0 0 0 0 0
          0 0 0 0 0 0
          0 0 0 0 0 0
          0 0 0 0 0 0
          0 0 0 0 0 0
          0 0 0 0 0 0
          0 0 0 0 0 0
          0 0 0 0 0 0
          0 0 0 0 0 0
          0 0 0 0 0 0
          0 0 0 0 0 0
          0 0 0 0 0 0
          0 0 0 0 0 0
          0 0 0 0 0 0
          0 0 0 0 0 0
          0 0 0 0 0 0
          0 0 0 0 0 0
          0 0 0 0 0 0
          0 0 0 0 0 0
          0 0 0 0 0 0
          0 0 0 0 0 0
          0 0 0 0 0 0
          0 0 0 0 0 0
          0 0 0 0 0 0
          0 0 0 0 0 0
          0 0 0 0 0 0
          0 0 0 0 0 0
          0 0 0 0 0 0
          0 0 0 0 0 0
          0 0 0 0 0 0
          0 0 0 0 0 0
          0 0 0 0 0 0
          0 0 0 0 0 0
          0 0 0 0 0 0
          0 0 0 0 0 0
          0 0 0 0 0 0
          0 0 0 0 0 0
          0 0 0 0 0 0
          0 0 0 0 0 0
          0 0 0 0 0 0
          0 0 0 0 0 0
          0 0 0 0 0 0
          0 0 0 0 0 0
          0 0 0 0 0 0
          0 0 0 0 0 0
          0 0 0 0 0 0
          0 0 0 0 0 0
          0 0 0 0 0 0
          0 0 0 0 0 0
          0 0 0 0 0 0
          0 0 0 0 0 0
          0 0 0 0 0 0
          0 0 0 0 0 0
          0 0 0 0 0 0
          0 0 0 0 0 0
          0 0 0 0 0 0
          0 0 0 0 0 0
          0 0 0 0 0 0
          0 0 0 0 0 0
          0 0 0 0 0 0
          0 0 0 0 0 0
          0 0 0
        </DataArray>
        <DataArray type="Float64" Name="stress_zz" format="ascii" RangeMin="-450969.7513235623" RangeMax="949086.7232249386">
          -23451.324079914673 -24724.264994642406 -25997.205909370143 -26605.177789327907 -26623.452863441744 -26641.727937555585
          -35155.99401000901 -36449.31624289859 -37742.63847578817 86383.9968920669 84870.16895084924 83356.34100963158
          30775.386703120632 31249.07312113102 31722.759539141407 -2449.812517182936 -2524.569395945331 -2599.326274707727
          -18677.06143278454 -19328.228562595184 -19979.39569240583 -24653.673085854716 -24183.8965762054 -23714.120066556083
          -40868.926232223275 -40911.58336146311 -40954.24049070295 -45716.34965661576 -47809.2289511352 -49902.10824565466
          57037.07232814683 55028.1895804666 53019.30683278636 -10822.64658993617 -10172.6154665008 -9522.584343065422
          -35776.388520385175 -35907.089832496255 -36037.79114460732 -42920.99189523225 -43488.47506946044 -44055.95824368864
          -40388.27587990743 -39872.75201532038 -39357.22815073334 -55444.31511032511 -55411.137935772276 -55377.960761219445
          -51498.16225327504 -52984.44064478961 -54470.71903630417 102705.89432531605 108180.11109515955 113654.32786500301
          -28627.799169362137 -34179.78825153278 -39731.7773337034 -71368.68823775696 -71569.57784611755 -71770.46745447816
          -75552.34387285686 -75897.36217318769 -76242.38047351853 -67349.67166588482 -67851.30844388445 -68352.94522188409
          -53975.09306588715 -54073.632071743334 -54172.17107759953 -49531.086325041535 -49093.255396993714 -48655.4244689459
          -49884.02694347123 -50559.160770037946 -51234.29459660465 -177429.20552146103 -186341.66854328735 -195254.13156511364
          -114384.06970408346 -117654.35048174622 -120924.63125940897 -133790.90260004127 -134806.58762564606 -135822.27265125088
          -110512.61109912094 -109706.47878719837 -108900.34647527583 -84095.24535371951 -84266.10179058088 -84436.95822744224
          -59863.636511389224 -60266.09204040764 -60668.547569426046 -35813.83357649686 -35213.30112020683 -34612.768663916795
          -48307.30638925491 -47837.68086750278 -47368.055345750654 -341717.37112415046 -396343.5612238564 -450969.7513235623
          -207914.59122429078 -201995.58851040158 -196076.58579651234 -172516.78545350113 -176502.22313138167 -180487.66080926213
          -126042.41187840626 -126636.21419607563 -127230.01651374498 -85886.39530114253 -86513.27919268717 -87140.16308423181
          -50633.538342962565 -51283.36272486428 -51933.187106765996 -24196.763813018883 -24405.773889164186 -24614.78396530949
          -18666.01721649527 -17257.462400796252 -15848.90758509723 -198367.30535771855 -286376.4957948396 -374385.68623196054
          -249647.63606132317 -244169.50423473498 -238691.37240814688 -154855.04268785837 -155615.84666883247 -156376.6506498065
          -83091.62759085624 -85686.94547238032 -88282.2633539044 -34162.05096157835 -35784.75695652534 -37407.46295147234
          -16956.64006037294 -17238.72548039366 -17520.810900414373 5168.991368621461 5158.605133391682 5148.218898161904
          287.13939677293615 1619.0335988299112 2950.927800886886 -58688.55313677133 -87263.65251240088 -115838.75188803044
          -106586.2278627585 -93313.31722042864 -80040.40657809877 -96235.05048918621 -92286.3922538214 -88337.73401845654
          84156.09061955786 85499.88846718353 86843.6863148092 40159.976864423676 39878.29067250493 39596.60448058618
          30086.19126711426 30411.716523181018 30737.241779247775 10429.254798094626 10413.185429772018 10397.116061449407
          730.3445402034304 158.9020384536955 -412.540463296039 106008.84654555772 82296.48157218746 105494.51604968146
          137931.99251539717 108799.05228284786 83179.97175976376 104565.76510560275 138576.954899563 111589.25802013799
          84063.46194734008 103637.01416152404 139221.91728372884 -193024.38584477134 326308.24218267587 232147.75841511393
          -25966.56391695072 -197816.4266633347 317356.4719068663 221926.15129564336 -28142.653017332173 -202608.4674818981
          308404.7016310567 211704.54417617287 -30318.742117713584 -44494.70755435986 135864.44630696025 -46160.80759097419
          139514.53228553385 -47826.907627588516 143164.61826410747 124117.1500018629 160713.02840676327 126600.75775632197
          165668.06514916784 129084.36551078102 170623.10189157235 29355.19866731335 134915.3765129696 31115.048518582065
          138273.54119781705 32874.898369850765 141631.7058826645 -233430.08342177497 275775.32263479516 -244289.0284890433
          280548.50924652215 -255147.97355631163 285321.69585824915 208057.07897064724 90586.35872772697 210317.52370549328
          86693.7717448953 212577.96844033932 82801.18476206365 -74.89950534900618 -2680.8649333670164 -5286.830361385029
          530334.782416732 539749.4103811162 549164.0383455004 949086.7232249386 936521.4684158057 923956.2136066728
          157936.64715536416 54158.123019651015 127807.66010559947 56406.41963719688 97678.6730558348 58654.71625474274
          134516.00544935174 134102.23201765952 133688.4585859673 139836.7558812142 141585.9571172384 143335.1583532626
          -5198.727999304663 -4990.434552491254 -4782.141105677844 -26357.54924661892 -34158.082397910905 -21936.691192052185
          4576.375908019091 -28451.79690584808 -34414.88745220846 -21793.080242446824 4246.392659856072 -30546.04456507724
          -34671.692506506006 -21649.469292841462 3916.4094116930573 3002.2347236052665 2852.4177940047703 2702.600864404272
          29744.12823438797 23556.03608738002 30941.626913693133 23181.145904548765 32139.125592998298 22806.25572171751
          -12037.560773091987 -20815.67042519923 -29944.391963767725 -14530.806387529745 -12090.245851209836 -21670.371201289046
          -31146.84895587903 -14909.0762974541 -12142.93092932769 -22525.07197737886 -32349.30594799034 -15287.34620737845
          -49548.40620351553 -79726.3754882476 -51312.37723317012 -83088.21377203343 -53076.348262824715 -86450.05205581928
          6100.73807943013 3306.430055103304 6292.04267873104 3802.3412739588475 6483.347278031948 4298.25249281439
          -30298.62852152913 -31467.85340479444 14880.3930405695 -30826.65661238784 -35272.16053890711 17641.566219737488
          -31354.68470324655 -39076.46767301977 20402.73939890548 -2781.323879423961 -4970.911698868883 5084.263197028301
          -7724.006701875327 -2350.4423666803045 -5480.908301144306 5288.7589459744695 -7605.912384888122 -1919.5608539366476
          -5990.904903419729 5493.254694920639 -7487.818067900917 -20283.70421505484 -26526.22795857991 -17738.10186413426
          -21183.72222011513 -27397.50865502399 -17508.00820154734 -22083.74022517542 -28268.789351468065 -17277.914538960427
          -4887.766201904733 -18275.558616419676 -8437.152073946074 6855.650702747942 -5141.767597293937 -19368.186753400372
          -8754.189459800107 7005.345744487462 -5395.76899268314 -20460.81489038107 -9071.22684565414 7155.04078622698
          -78358.38850071061 -36340.864354296595 -83041.88525542717 -37778.42357478049 -87725.3820101437 -39215.9827952644
          2329.6394076569204 -2109.9114707520457 -1204.9872289136756 12724.460979756625 2388.0241975613926 -2202.5664608905
          -1450.753898527868 12722.6597703226 2446.4089874658657 -2295.221451028954 -1696.5205681420603 12720.858560888573
          8261.100075474926 13500.139924646324 53723.46942057434 8931.80105942331 15904.29401427833 57016.00689928124
          9602.502043371695 18308.448103910334 60308.544377988146 535.4080336830501 -1550.9085181283745 669.3340904112188
          -1588.1725094681444 803.2601471393875 -1625.4365008079144 8527.299610443175 10846.748875551777 24364.67243102232
          9434.403925931818 8280.44447374256 10544.950510995764 24948.79306287499 9112.578166081861 8033.589337041945
          10243.152146439748 25532.913694727657 8790.752406231904 -6491.791477138591 -12220.386125369065 -6672.635839553204
          -12444.22541907148 -6853.480201967818 -12668.064712773892 7046.551721356822 21122.094371664003 7570.642977072357
          21718.601007116227 8094.7342327878905 22315.107642568444 -8566.927679897355 -14202.815543295274 -8804.6502574259
          -14875.524555911614 -9042.37283495444 -15548.23356852795 -16532.829315692168 -8019.3270774680495 -16108.048114455112
          -19591.51211989777 -16312.59042726873 -7856.252781540313 -15931.154563788705 -19806.120749600545 -16092.351538845289
          -7693.178485612576 -15754.261013122297 -20020.729379303328 -7856.084333295419 -7602.565292733232 -7349.046252171042
          -9783.999599482162 -9247.351596971257 -8710.703594460352 -7727.065448326022 3328.1015508707146 -7836.405282424757
          3866.095293458597 -7945.745116523491 4404.08903604648 10934.882684332888 41417.15742066983 11577.180781288629
          44642.45783394203 12219.478878244374 47867.758247214246 43147.08820092353 100009.91614132501 44886.94481540296
          107596.93104392437 46626.80142988239 115183.94594652376 4031.937163693008 5148.560622565326 6265.184081437645
          -9715.480341209794 10000.529732010098 -10472.078519253868 9959.927405531405 -11228.676697297942 9919.32507905271
          1719.9929612076064 14761.09006979788 14941.312451856285 -7615.890624255872 1648.6163918132693 14082.072401347179
          15943.35405893312 -6960.574196896246 1577.2398224189321 13403.054732896482 16945.39566600996 -6305.257769536619
          -18644.44499403215 3452.907848527772 -18698.205623065303 3570.779429534317 -18751.96625209846 3688.6510105408624
          10452.951548065223 -13497.458286079307 40473.10529617043 10051.50641815339 -14703.589498556343 42074.24615528109
          9650.061288241566 -15909.720711033377 43675.38701439177 -24749.261880622675 -18596.490166345222 -12220.651140026337
          -24650.809276961347 -19130.12861260552 -11844.204835740517 -24552.356673300023 -19663.767058865826 -11467.758531454696
          2940.3285480546992 3093.548050267949 3246.7675524811993 -15219.86614520604 -15153.562581177499 -15087.25901714896
          -16647.271614238227 -2303.576438759175 -17516.13293376381 -2983.3898440832436 -18384.994253289395 -3663.203249407312
          17458.50816509434 17234.0485080593 18592.564523185723 16426.032344373478 19726.620881277122 15618.016180687662
          4131.593057846326 4072.4014827507212 4013.2099076551176 8516.43842366413 5087.782154663427 8950.77778363049
          5023.479135218225 9385.11714359685 4959.1761157730225 -4138.233386375498 -4376.388812440902 -4614.544238506305
          18867.14638816869 20214.24384566983 18842.092052452674 18560.316186330514 19105.3357131438 20655.512588054673
          19056.866840900915 18649.298360080036 19343.525038118907 21096.781330439513 19271.641629349157 18738.28053382956
          26269.019389125137 25384.09030139288 24499.161213660627 -6329.42706232699 -3370.483639374957 -6019.27121312136
          -3428.2540761583796 -5709.115363915732 -3486.024512941803 9900.71413210839 9219.72715183085 8538.740171553309
          -4581.347457431464 -2742.6803550668383 -5029.135651311396 -3349.4435414377444 -5476.923845191329 -3956.2067278086506
          -8762.577895869008 -8945.248631220074 -9127.919366571143 3033.87181771516 10029.334940711302 11565.319201479168
          2804.157754566276 10152.204139840553 11451.205042559166 2574.443691417392 10275.073338969805 11337.090883639165
          18878.561445804648 26810.19680005524 18769.93091298565 27272.385943867623 18661.30038016665 27734.575087680005
          17940.03644858664 10507.16056665056 18229.641539126653 10681.093984135146 18519.246629666664 10855.02740161973
          6669.60331740045 -19028.708918230262 6922.633257429472 -19760.361637399517 7175.663197458494 -20492.014356568776
          17616.937814423207 34262.629424160754 18251.832545840454 35197.79931836011 18886.7272772577 36132.96921255945
          -7605.580572992849 -7793.3988701695325 -7981.217167346216 24287.261079925902 25103.79891972059 25920.33675951528
          -6367.098655205882 -6281.98552522759 -6196.872395249298 -42000.255429333476 -44325.799227504205 -46651.34302567495
          -10834.96076016188 -11433.939287941956 -12032.91781572203 424.55768802008333 538.0259697911306 651.4942515621779
          12601.960659039565 5723.863342351153 12754.955213237761 5834.734559538987 12907.949767435959 5945.605776726821
          -18278.10928721285 -15506.395956456225 -19303.984736730123 -16328.314666065582 -20329.8601862474 -17150.233375674943
          -7782.359854872379 -8175.392355945698 -8568.424857019018 14607.001630046263 15315.377660428763 16023.75369081126
          -88.07385762870996 1018.1491995134838 -1288.7343343087518 -163.00565991591617 1066.363106430052 -903.3465274778796
          -237.93746220312232 1114.577013346621 -517.9587206470069 -11582.626978259834 3123.443472323206 -11938.56388662065
          3502.3087034522214 -12294.500794981468 3881.173934581236 4770.404432818164 5055.672762853073 5340.941092887982
          18628.195870291787 18923.58590323285 19218.975936173912 13785.225308229026 13952.420163664265 14119.615019099507
          6460.202924895844 6610.083454931086 6759.963984966329 803.6263745073684 857.0398209416892 910.4532673760102
          -32243.27209295395 -33448.53652801134 -34653.80096306873 -7769.95113544465 -7560.525351989351 -7351.099568534052
          -6881.819141514191 -6465.106891221701 -6048.39464092921 -16937.66967320254 -16150.278129389053 -15362.886585575565
          5793.914384213137 6525.583769271411 7257.2531543296855 -12391.50687184311 -12014.901718028092 -11638.296564213073
          4437.240703104432 4706.139641861619 4975.038580618806 11425.64659132483 13366.653172851462 15307.659754378092
          4065.4168529456647 3602.0512303745013 3138.685607803338 -19641.54685654513 -19908.948101639853 -20176.34934673458
          -5941.879627505687 -5802.956350880704 -5664.033074255721 -2343.957589832491 -2430.0474322879636 -2516.137274743436
          -3533.9013366263453 -3150.535674774527 -2767.1700129227092 -14047.10533144844 -15314.281657409016 -16581.457983369586
          1672.2223621760631 1437.123287067414 1202.0242119587674 4712.337672511355 45952.258406067325 5079.411242675737
          47862.42859912708 5446.484812840119 49772.59879218685 -8288.763627434773 -7690.191687343635 -7091.6197472524955
          79774.19153759707 83272.30421697424 81596.70637466962 83469.9979907042 83419.22121174219 83667.69176443414
          30209.414314861468 31850.328860754435 33491.2434066474 11794.12718947356 11870.600731965003 11947.074274456449
          -26200.51018831392 -26571.503152230933 -26942.49611614793 -13136.627281677558 -13697.9159248678 -13003.736915443547
          -13524.035252874743 -12870.846549209535 -13350.154580881685 2956.3586360636336 3530.391544734446 17338.45641367696
          3165.5606132163325 4053.1089211720655 18290.02387836828 3374.762590369029 4575.826297609685 19241.59134305961
          8304.046539936171 8234.711931724883 8165.377323513595 3575.133352333067 3477.444642220278 3379.7559321074896
          2975.036286416129 18514.323919333074 2927.367502737018 18651.32848300065 2879.698719057907 18788.333046668224
          5233.04041090696 -5438.056018005573 5311.834186775032 -5424.102947834259 5390.627962643106 -5410.149877662944
          8167.414955036602 12742.555499043669 8190.31914030738 12568.474468785029 8213.22332557816 12394.393438526387
          8246.54268455524 14120.79670661427 8115.651247534436 14219.857441325621 7984.759810513631 14318.918176036976
          4011.027574206658 4222.701866940721 4434.3761596747845 8373.439626474687 5331.449817097788 8669.25564564101
          5279.569427996604 8965.071664807332 5227.68903889542 214.9285769370268 204.98302386354771 195.03747079006862
          -1197.7361548068477 5551.549342758454 -1372.7726007588585 5775.6044008631025 -1547.8090467108686 5999.659458967747
          4310.636532635765 4350.264000209556 4389.891467783347 15220.386362339561 15245.120050232272 15269.853738124977
          2921.5457841429184 2913.972482970621 2906.399181798324
        </DataArray>
        <DataArray type="Float64" Name="peeq" format="ascii" RangeMin="0" RangeMax="0">
          0 0 0 0 0 0
          0 0 0 0 0 0
          0 0 0 0 0 0
          0 0 0 0 0 0
          0 0 0 0 0 0
          0 0 0 0 0 0
          0 0 0 0 0 0
          0 0 0 0 0 0
          0 0 0 0 0 0
          0 0 0 0 0 0
          0 0 0 0 0 0
          0 0 0 0 0 0
          0 0 0 0 0 0
          0 0 0 0 0 0
          0 0 0 0 0 0
          0 0 0 0 0 0
          0 0 0 0 0 0
          0 0 0 0 0 0
          0 0 0 0 0 0
          0 0 0 0 0 0
          0 0 0 0 0 0
          0 0 0 0 0 0
          0 0 0 0 0 0
          0 0 0 0 0 0
          0 0 0 0 0 0
          0 0 0 0 0 0
          0 0 0 0 0 0
          0 0 0 0 0 0
          0 0 0 0 0 0
          0 0 0 0 0 0
          0 0 0 0 0 0
          0 0 0 0 0 0
          0 0 0 0 0 0
          0 0 0 0 0 0
          0 0 0 0 0 0
          0 0 0 0 0 0
          0 0 0 0 0 0
          0 0 0 0 0 0
          0 0 0 0 0 0
          0 0 0 0 0 0
          0 0 0 0 0 0
          0 0 0 0 0 0
          0 0 0 0 0 0
          0 0 0 0 0 0
          0 0 0 0 0 0
          0 0 0 0 0 0
          0 0 0 0 0 0
          0 0 0 0 0 0
          0 0 0 0 0 0
          0 0 0 0 0 0
          0 0 0 0 0 0
          0 0 0 0 0 0
          0 0 0 0 0 0
          0 0 0 0 0 0
          0 0 0 0 0 0
          0 0 0 0 0 0
          0 0 0 0 0 0
          0 0 0 0 0 0
          0 0 0 0 0 0
          0 0 0 0 0 0
          0 0 0 0 0 0
          0 0 0 0 0 0
          0 0 0 0 0 0
          0 0 0 0 0 0
          0 0 0 0 0 0
          0 0 0 0 0 0
          0 0 0 0 0 0
          0 0 0 0 0 0
          0 0 0 0 0 0
          0 0 0 0 0 0
          0 0 0 0 0 0
          0 0 0 0 0 0
          0 0 0 0 0 0
          0 0 0 0 0 0
          0 0 0 0 0 0
          0 0 0 0 0 0
          0 0 0 0 0 0
          0 0 0 0 0 0
          0 0 0 0 0 0
          0 0 0 0 0 0
          0 0 0 0 0 0
          0 0 0 0 0 0
          0 0 0 0 0 0
          0 0 0 0 0 0
          0 0 0 0 0 0
          0 0 0 0 0 0
          0 0 0 0 0 0
          0 0 0 0 0 0
          0 0 0 0 0 0
          0 0 0 0 0 0
          0 0 0 0 0 0
          0 0 0 0 0 0
          0 0 0 0 0 0
          0 0 0 0 0 0
          0 0 0 0 0 0
          0 0 0 0 0 0
          0 0 0 0 0 0
          0 0 0 0 0 0
          0 0 0 0 0 0
          0 0 0 0 0 0
          0 0 0 0 0 0
          0 0 0 0 0 0
          0 0 0 0 0 0
          0 0 0 0 0 0
          0 0 0 0 0 0
          0 0 0 0 0 0
          0 0 0 0 0 0
          0 0 0 0 0 0
          0 0 0 0 0 0
          0 0 0 0 0 0
          0 0 0 0 0 0
          0 0 0 0 0 0
          0 0 0 0 0 0
          0 0 0 0 0 0
          0 0 0 0 0 0
          0 0 0 0 0 0
          0 0 0 0 0 0
          0 0 0 0 0 0
          0 0 0 0 0 0
          0 0 0 0 0 0
          0 0 0 0 0 0
          0 0 0 0 0 0
          0 0 0 0 0 0
          0 0 0 0 0 0
          0 0 0 0 0 0
          0 0 0 0 0 0
          0 0 0 0 0 0
          0 0 0 0 0 0
          0 0 0 0 0 0
          0 0 0 0 0 0
          0 0 0
        </DataArray>
        <DataArray type="Float64" Name="pe11" format="ascii" RangeMin="0" RangeMax="0">
          0 0 0 0 0 0
          0 0 0 0 0 0
          0 0 0 0 0 0
          0 0 0 0 0 0
          0 0 0 0 0 0
          0 0 0 0 0 0
          0 0 0 0 0 0
          0 0 0 0 0 0
          0 0 0 0 0 0
          0 0 0 0 0 0
          0 0 0 0 0 0
          0 0 0 0 0 0
          0 0 0 0 0 0
          0 0 0 0 0 0
          0 0 0 0 0 0
          0 0 0 0 0 0
          0 0 0 0 0 0
          0 0 0 0 0 0
          0 0 0 0 0 0
          0 0 0 0 0 0
          0 0 0 0 0 0
          0 0 0 0 0 0
          0 0 0 0 0 0
          0 0 0 0 0 0
          0 0 0 0 0 0
          0 0 0 0 0 0
          0 0 0 0 0 0
          0 0 0 0 0 0
          0 0 0 0 0 0
          0 0 0 0 0 0
          0 0 0 0 0 0
          0 0 0 0 0 0
          0 0 0 0 0 0
          0 0 0 0 0 0
          0 0 0 0 0 0
          0 0 0 0 0 0
          0 0 0 0 0 0
          0 0 0 0 0 0
          0 0 0 0 0 0
          0 0 0 0 0 0
          0 0 0 0 0 0
          0 0 0 0 0 0
          0 0 0 0 0 0
          0 0 0 0 0 0
          0 0 0 0 0 0
          0 0 0 0 0 0
          0 0 0 0 0 0
          0 0 0 0 0 0
          0 0 0 0 0 0
          0 0 0 0 0 0
          0 0 0 0 0 0
          0 0 0 0 0 0
          0 0 0 0 0 0
          0 0 0 0 0 0
          0 0 0 0 0 0
          0 0 0 0 0 0
          0 0 0 0 0 0
          0 0 0 0 0 0
          0 0 0 0 0 0
          0 0 0 0 0 0
          0 0 0 0 0 0
          0 0 0 0 0 0
          0 0 0 0 0 0
          0 0 0 0 0 0
          0 0 0 0 0 0
          0 0 0 0 0 0
          0 0 0 0 0 0
          0 0 0 0 0 0
          0 0 0 0 0 0
          0 0 0 0 0 0
          0 0 0 0 0 0
          0 0 0 0 0 0
          0 0 0 0 0 0
          0 0 0 0 0 0
          0 0 0 0 0 0
          0 0 0 0 0 0
          0 0 0 0 0 0
          0 0 0 0 0 0
          0 0 0 0 0 0
          0 0 0 0 0 0
          0 0 0 0 0 0
          0 0 0 0 0 0
          0 0 0 0 0 0
          0 0 0 0 0 0
          0 0 0 0 0 0
          0 0 0 0 0 0
          0 0 0 0 0 0
          0 0 0 0 0 0
          0 0 0 0 0 0
          0 0 0 0 0 0
          0 0 0 0 0 0
          0 0 0 0 0 0
          0 0 0 0 0 0
          0 0 0 0 0 0
          0 0 0 0 0 0
          0 0 0 0 0 0
          0 0 0 0 0 0
          0 0 0 0 0 0
          0 0 0 0 0 0
          0 0 0 0 0 0
          0 0 0 0 0 0
          0 0 0 0 0 0
          0 0 0 0 0 0
          0 0 0 0 0 0
          0 0 0 0 0 0
          0 0 0 0 0 0
          0 0 0 0 0 0
          0 0 0 0 0 0
          0 0 0 0 0 0
          0 0 0 0 0 0
          0 0 0 0 0 0
          0 0 0 0 0 0
          0 0 0 0 0 0
          0 0 0 0 0 0
          0 0 0 0 0 0
          0 0 0 0 0 0
          0 0 0 0 0 0
          0 0 0 0 0 0
          0 0 0 0 0 0
          0 0 0 0 0 0
          0 0 0 0 0 0
          0 0 0 0 0 0
          0 0 0 0 0 0
          0 0 0 0 0 0
          0 0 0 0 0 0
          0 0 0 0 0 0
          0 0 0 0 0 0
          0 0 0 0 0 0
          0 0 0 0 0 0
          0 0 0 0 0 0
          0 0 0
        </DataArray>
        <DataArray type="Float64" Name="pe22" format="ascii" RangeMin="0" RangeMax="0">
          0 0 0 0 0 0
          0 0 0 0 0 0
          0 0 0 0 0 0
          0 0 0 0 0 0
          0 0 0 0 0 0
          0 0 0 0 0 0
          0 0 0 0 0 0
          0 0 0 0 0 0
          0 0 0 0 0 0
          0 0 0 0 0 0
          0 0 0 0 0 0
          0 0 0 0 0 0
          0 0 0 0 0 0
          0 0 0 0 0 0
          0 0 0 0 0 0
          0 0 0 0 0 0
          0 0 0 0 0 0
          0 0 0 0 0 0
          0 0 0 0 0 0
          0 0 0 0 0 0
          0 0 0 0 0 0
          0 0 0 0 0 0
          0 0 0 0 0 0
          0 0 0 0 0 0
          0 0 0 0 0 0
          0 0 0 0 0 0
          0 0 0 0 0 0
          0 0 0 0 0 0
          0 0 0 0 0 0
          0 0 0 0 0 0
          0 0 0 0 0 0
          0 0 0 0 0 0
          0 0 0 0 0 0
          0 0 0 0 0 0
          0 0 0 0 0 0
          0 0 0 0 0 0
          0 0 0 0 0 0
          0 0 0 0 0 0
          0 0 0 0 0 0
          0 0 0 0 0 0
          0 0 0 0 0 0
          0 0 0 0 0 0
          0 0 0 0 0 0
          0 0 0 0 0 0
          0 0 0 0 0 0
          0 0 0 0 0 0
          0 0 0 0 0 0
          0 0 0 0 0 0
          0 0 0 0 0 0
          0 0 0 0 0 0
          0 0 0 0 0 0
          0 0 0 0 0 0
          0 0 0 0 0 0
          0 0 0 0 0 0
          0 0 0 0 0 0
          0 0 0 0 0 0
          0 0 0 0 0 0
          0 0 0 0 0 0
          0 0 0 0 0 0
          0 0 0 0 0 0
          0 0 0 0 0 0
          0 0 0 0 0 0
          0 0 0 0 0 0
          0 0 0 0 0 0
          0 0 0 0 0 0
          0 0 0 0 0 0
          0 0 0 0 0 0
          0 0 0 0 0 0
          0 0 0 0 0 0
          0 0 0 0 0 0
          0 0 0 0 0 0
          0 0 0 0 0 0
          0 0 0 0 0 0
          0 0 0 0 0 0
          0 0 0 0 0 0
          0 0 0 0 0 0
          0 0 0 0 0 0
          0 0 0 0 0 0
          0 0 0 0 0 0
          0 0 0 0 0 0
          0 0 0 0 0 0
          0 0 0 0 0 0
          0 0 0 0 0 0
          0 0 0 0 0 0
          0 0 0 0 0 0
          0 0 0 0 0 0
          0 0 0 0 0 0
          0 0 0 0 0 0
          0 0 0 0 0 0
          0 0 0 0 0 0
          0 0 0 0 0 0
          0 0 0 0 0 0
          0 0 0 0 0 0
          0 0 0 0 0 0
          0 0 0 0 0 0
          0 0 0 0 0 0
          0 0 0 0 0 0
          0 0 0 0 0 0
          0 0 0 0 0 0
          0 0 0 0 0 0
          0 0 0 0 0 0
          0 0 0 0 0 0
          0 0 0 0 0 0
          0 0 0 0 0 0
          0 0 0 0 0 0
          0 0 0 0 0 0
          0 0 0 0 0 0
          0 0 0 0 0 0
          0 0 0 0 0 0
          0 0 0 0 0 0
          0 0 0 0 0 0
          0 0 0 0 0 0
          0 0 0 0 0 0
          0 0 0 0 0 0
          0 0 0 0 0 0
          0 0 0 0 0 0
          0 0 0 0 0 0
          0 0 0 0 0 0
          0 0 0 0 0 0
          0 0 0 0 0 0
          0 0 0 0 0 0
          0 0 0 0 0 0
          0 0 0 0 0 0
          0 0 0 0 0 0
          0 0 0 0 0 0
          0 0 0 0 0 0
          0 0 0 0 0 0
          0 0 0 0 0 0
          0 0 0 0 0 0
          0 0 0 0 0 0
          0 0 0
        </DataArray>
        <DataArray type="Float64" Name="pe33" format="ascii" RangeMin="0" RangeMax="0">
          0 0 0 0 0 0
          0 0 0 0 0 0
          0 0 0 0 0 0
          0 0 0 0 0 0
          0 0 0 0 0 0
          0 0 0 0 0 0
          0 0 0 0 0 0
          0 0 0 0 0 0
          0 0 0 0 0 0
          0 0 0 0 0 0
          0 0 0 0 0 0
          0 0 0 0 0 0
          0 0 0 0 0 0
          0 0 0 0 0 0
          0 0 0 0 0 0
          0 0 0 0 0 0
          0 0 0 0 0 0
          0 0 0 0 0 0
          0 0 0 0 0 0
          0 0 0 0 0 0
          0 0 0 0 0 0
          0 0 0 0 0 0
          0 0 0 0 0 0
          0 0 0 0 0 0
          0 0 0 0 0 0
          0 0 0 0 0 0
          0 0 0 0 0 0
          0 0 0 0 0 0
          0 0 0 0 0 0
          0 0 0 0 0 0
          0 0 0 0 0 0
          0 0 0 0 0 0
          0 0 0 0 0 0
          0 0 0 0 0 0
          0 0 0 0 0 0
          0 0 0 0 0 0
          0 0 0 0 0 0
          0 0 0 0 0 0
          0 0 0 0 0 0
          0 0 0 0 0 0
          0 0 0 0 0 0
          0 0 0 0 0 0
          0 0 0 0 0 0
          0 0 0 0 0 0
          0 0 0 0 0 0
          0 0 0 0 0 0
          0 0 0 0 0 0
          0 0 0 0 0 0
          0 0 0 0 0 0
          0 0 0 0 0 0
          0 0 0 0 0 0
          0 0 0 0 0 0
          0 0 0 0 0 0
          0 0 0 0 0 0
          0 0 0 0 0 0
          0 0 0 0 0 0
          0 0 0 0 0 0
          0 0 0 0 0 0
          0 0 0 0 0 0
          0 0 0 0 0 0
          0 0 0 0 0 0
          0 0 0 0 0 0
          0 0 0 0 0 0
          0 0 0 0 0 0
          0 0 0 0 0 0
          0 0 0 0 0 0
          0 0 0 0 0 0
          0 0 0 0 0 0
          0 0 0 0 0 0
          0 0 0 0 0 0
          0 0 0 0 0 0
          0 0 0 0 0 0
          0 0 0 0 0 0
          0 0 0 0 0 0
          0 0 0 0 0 0
          0 0 0 0 0 0
          0 0 0 0 0 0
          0 0 0 0 0 0
          0 0 0 0 0 0
          0 0 0 0 0 0
          0 0 0 0 0 0
          0 0 0 0 0 0
          0 0 0 0 0 0
          0 0 0 0 0 0
          0 0 0 0 0 0
          0 0 0 0 0 0
          0 0 0 0 0 0
          0 0 0 0 0 0
          0 0 0 0 0 0
          0 0 0 0 0 0
          0 0 0 0 0 0
          0 0 0 0 0 0
          0 0 0 0 0 0
          0 0 0 0 0 0
          0 0 0 0 0 0
          0 0 0 0 0 0
          0 0 0 0 0 0
          0 0 0 0 0 0
          0 0 0 0 0 0
          0 0 0 0 0 0
          0 0 0 0 0 0
          0 0 0 0 0 0
          0 0 0 0 0 0
          0 0 0 0 0 0
          0 0 0 0 0 0
          0 0 0 0 0 0
          0 0 0 0 0 0
          0 0 0 0 0 0
          0 0 0 0 0 0
          0 0 0 0 0 0
          0 0 0 0 0 0
          0 0 0 0 0 0
          0 0 0 0 0 0
          0 0 0 0 0 0
          0 0 0 0 0 0
          0 0 0 0 0 0
          0 0 0 0 0 0
          0 0 0 0 0 0
          0 0 0 0 0 0
          0 0 0 0 0 0
          0 0 0 0 0 0
          0 0 0 0 0 0
          0 0 0 0 0 0
          0 0 0 0 0 0
          0 0 0 0 0 0
          0 0 0 0 0 0
          0 0 0 0 0 0
          0 0 0 0 0 0
          0 0 0 0 0 0
          0 0 0 0 0 0
          0 0 0
        </DataArray>
        <DataArray type="Float64" Name="disp_x" format="ascii" RangeMin="0.0000023013734952693452" RangeMax="0.000013237987136742845">
          0.000005938332854253389 0.000005938309941256404 0.000005938240692188671 0.0000054299263453741874 0.000005429900013765451 0.000005429828853136736
          0.000005957327145198409 0.000005957306910863823 0.0000059572435830281636 0.0000027807758204063294 0.000002780643797708879 0.000002780240738826729
          0.000003321044070576645 0.0000033209406540216257 0.0000033206327317957826 0.000003858999854857188 0.000003858924382712838 0.000003858697822827372
          0.000004393771329089446 0.000004393716827569408 0.000004393555789087615 0.0000049252176993657385 0.000004925181864255877 0.000004925068272846596
          0.0000054535925909712785 0.000005453570688876992 0.000005453513163361854 0.00000597935332222677 0.000005979335796863445 0.000005979282568192394
          0.0000028101895218786038 0.0000028100336991941846 0.0000028095578451162528 0.0000033534391736301917 0.0000033533259584039382 0.0000033529888642211562
          0.00000389199857096215 0.000003891923060710018 0.000003891694739671647 0.000004425764142851855 0.000004425713833382127 0.0000044255649432486804
          0.000004955226018797854 0.000004955196660319829 0.000004955100446863982 0.00000548108586064251 0.0000054810699541037725 0.0000054810347576148175
          0.000006004227023245868 0.000006004215722883613 0.0000060041755323635785 0.0000023024394446605384 0.0000023021563068107213 0.0000023013734952693452
          0.0000028537249148586448 0.0000028535546397711756 0.000002853023624926084 0.0000033975643251987617 0.000003397451310323911 0.0000033971153314999877
          0.000003934197806870968 0.000003934129870712018 0.0000039339260304995135 0.00000446468134879303 0.000004464642014873579 0.000004464525216716639
          0.000004990269032624786 0.000004990249085217017 0.000004990187307548053 0.0000055121436099115635 0.000005512137576720196 0.000005512121034340996
          0.0000060313226534353615 0.000006031322710671112 0.0000060313242641821384 0.0000023649308830119333 0.000002364604224914975 0.000002363648338208743
          0.0000029155276181454587 0.0000029153680655473423 0.0000029148919008874374 0.000003455178971017494 0.0000034550871537843966 0.0000034548064799440625
          0.00000398599008952666 0.000003985941838936343 0.000003985799295561209 0.000004510157533720324 0.000004510138403257374 0.0000045100807131093274
          0.000005029620458153038 0.000005029616126023667 0.000005029606767439652 0.000005545890401955969 0.000005545897482615176 0.0000055459098922176845
          0.000006059986720094052 0.000006060000827123343 0.000006060054881458958 0.000002456665775817679 0.0000024564366226713684 0.0000024556996283242683
          0.0000029973341282689124 0.0000029972120055699804 0.0000029969157047489875 0.0000035260664355596977 0.0000035260212309820334 0.000003525853852652345
          0.000004046144660461006 0.000004046130874798521 0.000004046102451439501 0.000004560583767573777 0.000004560594811247112 0.000004560624093996215
          0.000005071621225649623 0.000005071639573192103 0.000005071699627674242 0.000005580806492140545 0.000005580829426018047 0.000005580893447293639
          0.000006089094355351205 0.00000608912137251979 0.000006089202674612435 0.000002576029313384186 0.0000025759880290253653 0.0000025758168872278573
          0.000003096775332534081 0.0000030967217303545216 0.000003096522936821959 0.0000036068300485629306 0.0000036068442141968187 0.000003606901263032681
          0.000004111218080148004 0.000004111264745737154 0.000004111406324782599 0.00000461270212987209 0.000004612750969251482 0.000004612889729640353
          0.000005113601715648669 0.000005113648033648434 0.000005113793791338324 0.000005614754585425743 0.0000056147980538749745 0.000005614919946891364
          0.000006116601134128018 0.000006116643151610284 0.000006116773438827306 0.0000027176077495631173 0.000002717719607411733 0.0000027179684331413336
          0.000003206010045242824 0.000003206107907346995 0.0000032063545726389617 0.0000036904276590797476 0.000003690536047655255 0.0000036908784417312394
          0.000004174608519163804 0.000004174716474685948 0.000004175071749388981 0.000004661871723057721 0.0000046619688015293975 0.000004662241176115952
          0.00000515194245609 0.000005152020201148481 0.000005152268101772607 0.000005644986641172153 0.000005645055563992608 0.000005645249881782546
          0.000006140628749749972 0.0000061406835919339595 0.000006140856684762077 0.0000048204892557248674 0.0000052598906815719766 0.000005328611159788025
          0.000004933612176482267 0.0000048206089889047795 0.000005259994801752301 0.000005328722029250349 0.000004933752015917341 0.0000048209880820173174
          0.000005260297908875146 0.000005329045261836505 0.000004934179892825427 0.000003562898295874448 0.0000035962337850802416 0.0000031011812304194888
          0.0000031514740981724776 0.0000035631136633120448 0.0000035966168701419847 0.0000031017237697377246 0.000003151735440899692 0.000003563776757649302
          0.000003597671793464829 0.0000031032421653202434 0.0000031525173856493013 0.00000398431016664555 0.000004106243396729308 0.000003984506516694348
          0.0000041064590431736885 0.0000039850502311368184 0.000004107159944584473 0.000004552203515307265 0.000004375990152878406 0.000004552379320729672
          0.000004376138686323621 0.000004552894375334798 0.000004376578077037434 0.0000057049989239991076 0.0000056817682443202614 0.0000057050843835651866
          0.0000056818679941491 0.0000057053640392363935 0.000005682154801798226 0.0000026905601972684506 0.0000027682969939303545 0.000002690870090995065
          0.0000027688938657649126 0.000002691796455602104 0.000002770843872025692 0.00000568547754771897 0.0000052064374593432926 0.000005685579359712124
          0.000005206562786284578 0.000005685860859522592 0.000005206945568430185 0.000006162180911540914 0.000006162249221496527 0.000006162456774056692
          0.000003001888506979445 0.000003002553956905537 0.000003004899726535049 0.0000033972432064268374 0.000003397674281263396 0.000003399368851736769
          0.0000038253821299472205 0.000004273571267451848 0.000003825711437492337 0.000004273800988215576 0.000003826756845908715 0.000004274447828566007
          0.00000473415821495603 0.0000047343208204816766 0.00000473485648915625 0.00000617177991334709 0.000006171858661079744 0.000006172135914410781
          0.0000069363706519874496 0.000006936357561913276 0.000006936321132640734 0.0000065827082914319785 0.000006530245328684923 0.000006969919644027778
          0.000007039737790745006 0.000006582746057725945 0.000006530271576918662 0.000006969941218346184 0.000007039768429016318 0.0000065828681047539
          0.000006530355640272282 0.000006970004702106864 0.000007039835137092807 0.000007290886387450871 0.000007290874314890167 0.0000072908347766407835
          0.000007169346300363389 0.000006620199926448175 0.000007169393271658105 0.000006620246095615524 0.000007169542972844556 0.0000066203885782831775
          0.000007972460557516699 0.000007606046365334173 0.000007295596189858519 0.000007509325229350201 0.000007972453762411503 0.000007606039840888107
          0.00000729558768871711 0.000007509316001850444 0.000007972433081988843 0.000007606012088961418 0.000007295566689808523 0.000007509284719493304
          0.0000068882316435584294 0.000006474496137773152 0.0000068882438750009635 0.0000064745109715118685 0.000006888262204564704 0.00000647456481317782
          0.00000787677409794597 0.000008351983826541537 0.000007876765436189914 0.000008351978495345088 0.000007876740496689103 0.000008351963698945163
          0.00000782315045089204 0.000007637279490511918 0.000007507212508257493 0.00000782318330341437 0.00000763732225287443 0.000007507250814586331
          0.000007823281712862974 0.000007637458076787875 0.000007507366845570811 0.00001012634452096203 0.000010612648886915167 0.00001078593637685495
          0.000010258794930639598 0.000010126351437549647 0.00001061265546684626 0.000010785943348958774 0.000010258804100662405 0.000010126375031875519
          0.000010612676510929413 0.00001078596233829137 0.000010258833149570476 0.000008404730425265752 0.000008485501548687384 0.000008055772367633
          0.000008404726290310977 0.000008485499270490352 0.000008055769420025013 0.000008404717063063372 0.00000848549495441425 0.000008055762743901164
          0.000009706749831160906 0.000010246112282407322 0.000010449550481191668 0.000009846524567371234 0.00000970674869794954 0.000010246111554776299
          0.00001044955181994469 0.000009846525153082755 0.000009706747989190156 0.000010246109572957813 0.000010449556126814424 0.000009846528674371029
          0.000006442764563215942 0.000006734155303092236 0.000006442770919530949 0.0000067341610994375224 0.000006442791869912766 0.000006734168296755855
          0.00000986761706139426 0.00000981816858548286 0.000010357705597891837 0.00001039765083612421 0.000009867632293031647 0.000009818182014786647
          0.000010357717143620136 0.000010397663091827908 0.00000986767939654111 0.000009818223798657882 0.000010357751333673668 0.000010397697709338445
          0.000007173351612355866 0.000006543187873745365 0.000006830636284928295 0.000007173357977504255 0.000006543185235131088 0.0000068306341011700565
          0.000007173381827841398 0.000006543174227627237 0.000006830640709068855 0.000009345540069154778 0.000009311528097905432 0.00000934555847688896
          0.00000931154341560401 0.000009345613547959076 0.00000931158791287319 0.000010307087102418261 0.000010374239883747095 0.000010888923822714582
          0.000010878445318565866 0.000010307104263427871 0.000010374254127120054 0.000010888936863748645 0.000010878459200292254 0.000010307156840222762
          0.000010374299706649956 0.000010888968553812409 0.00001087850241336416 0.00001189279599561039 0.000012144060090539453 0.000011892807899065834
          0.000012144069069888251 0.000011892844485434729 0.000012144092394619666 0.000010378651265797408 0.000009925232062234013 0.000010378655794987568
          0.000009925234360259453 0.000010378675046992993 0.000009925238440699215 0.000008684258580650754 0.000008905466906684106 0.000008684255282386828
          0.000008905463749313872 0.000008684243237283434 0.000008905452905322536 0.000008736530804812973 0.000008254182365199948 0.00000820233520710295
          0.00000879459614793364 0.000008736540729327302 0.000008254191325882964 0.00000820233887834351 0.000008794601207230713 0.000008736576832863228
          0.00000825421214454786 0.000008202347640152297 0.000008794619327687507 0.000009740059423975157 0.000009740070264944711 0.000009740103606386725
          0.000006851043785297802 0.0000068510320737478716 0.000006851003555589134 0.000008052118471958159 0.000007743274691064003 0.000008052109470935814
          0.000007743265207239558 0.000008052083923320814 0.000007743241394899096 0.000007417989061082002 0.0000074706924567323354 0.000007418009884182154
          0.000007470720581720841 0.000007418075263734957 0.000007470809409675961 0.00000730923732296154 0.000007029117020791778 0.000007309290597497796
          0.00000702916508793808 0.000007309465014739031 0.0000070293435979063924 0.0000073362828093971544 0.000007336294857026197 0.000007336332247705963
          0.000007749360617729148 0.000007819800144841188 0.000007749369292542264 0.000007819815798888779 0.000007749395888835857 0.000007819867789744207
          0.000009304941709123763 0.000009216289666111199 0.000008658122508890272 0.000008787425606511515 0.00000930496270348624 0.000009216313638200602
          0.000008658149385090268 0.000008787448663754116 0.000009305025014228924 0.000009216384870581546 0.000008658232972083952 0.000008787519988917245
          0.000008608955529855072 0.000009070807542165963 0.000008608955234441408 0.000009070806580390607 0.000008608950524976972 0.000009070799802409282
          0.000007883717897348243 0.000008126430055032289 0.000008461843670752293 0.000007883761327586273 0.00000812646234425676 0.000008461873251927816
          0.000007883877092494749 0.000008126541393567301 0.000008461982671906982 0.000008130077696344813 0.0000077043136361005 0.000007659276165321925
          0.00000813007791929777 0.00000770431686050421 0.00000765927505389096 0.000008130081286453004 0.000007704324707034733 0.00000765927318875233
          0.000009268418560978756 0.000009268420627631868 0.000009268429004134187 0.000007623397094853272 0.000007623392325997927 0.000007623374353141393
          0.000007215008430657397 0.000007218844819363851 0.0000072150024274195845 0.000007218842496320181 0.000007214983857140698 0.0000072188306181466325
          0.00000789998345165234 0.000007881838504522246 0.00000790001193985563 0.00000788186094093963 0.000007900106556469922 0.000007881927022157793
          0.00001104228985496884 0.000011042300513250262 0.00001104233264732279 0.000007500217893150918 0.00000783054193262497 0.000007500206698797172
          0.000007830532653533366 0.000007500171525416483 0.00000783051040893964 0.000008315966898409834 0.000008315958067992481 0.000008315931324775094
          0.000012160281946927633 0.000012204701078691629 0.000011936156938531004 0.000011732126831293354 0.000012160288428487754 0.000012204708339694268
          0.000011936164555638895 0.000011732133431656216 0.00001216030816454609 0.000012204729107317177 0.000011936187317685576 0.000011732154437714564
          0.000009042523640230304 0.000009042551927270167 0.000009042631271300237 0.000008776438475199627 0.000008302937833987943 0.00000877645206226815
          0.000008302952970726356 0.000008776491227520527 0.000008302998029181641 0.000007236631685501043 0.0000072366347942098025 0.000007236648494006137
          0.000008114402276569932 0.000008436157317516444 0.00000811439492507004 0.000008436150677800884 0.000008114372505955595 0.000008436131564391758
          0.0000111704870120492 0.000011170488020112296 0.000011170490590310792 0.000010795551136501612 0.000011528725965044129 0.000011382733775821226
          0.000010795566411267694 0.00001152873871190315 0.000011382745889599092 0.000010795611424178624 0.000011528778140498478 0.000011382777650693706
          0.000009497480658719978 0.00000967756215457207 0.000009497479666545369 0.000009677564244843239 0.000009497478562835136 0.000009677568956153362
          0.000011279177891354672 0.000011548290245083974 0.00001127918490558372 0.00001154829926547943 0.000011279204628050995 0.000011548327231038399
          0.000010022867839759213 0.000009487398466719534 0.000010022873077406775 0.000009487403617405026 0.000010022891050633489 0.000009487411471574257
          0.000010276439021653308 0.000009955830195657215 0.00001027644402083337 0.000009955834375631978 0.000010276464258912412 0.000009955840801918155
          0.000011942891222195196 0.000011942899968856129 0.000011942923972842715 0.000010930604874002892 0.000010930617657949176 0.000010930653955936852
          0.000012418797845227589 0.000012418805795139468 0.000012418829050739769 0.000009165385144473036 0.00000916539129801008 0.000009165412601411727
          0.000011642901795043892 0.000011642913706499721 0.000011642947133587769 0.000008482077629533618 0.000008482070024181934 0.000008482045741139996
          0.000009758925066975338 0.0000098511521600403 0.000009758945297066364 0.000009851170505698962 0.000009759004102116705 0.00000985122494160719
          0.000010851554362477249 0.000010853165797617671 0.000010851556160703832 0.000010853169438169632 0.000010851561939064766 0.000010853180906192288
          0.000010819301417997853 0.000010819306022059179 0.000010819317126820983 0.000011429178940860261 0.000011429193121659203 0.000011429241778489308
          0.000008785647549686257 0.000009208049592986345 0.000009125103180830863 0.000008785642906099037 0.000009208046257521833 0.000009125100104385723
          0.000008785630236015243 0.00000920803306795112 0.00000912509114593757 0.000011343324271096953 0.000011449701068201496 0.000011343326079524593
          0.000011449704286127307 0.00001134332531052629 0.000011449714024820606 0.000008841337508264862 0.00000884133188125588 0.000008841311662755613
          0.000009625270200156446 0.000009625291536175198 0.000009625357360726075 0.000011577106514877313 0.00001157711174837347 0.00001157712758937866
          0.000009347255712237274 0.000009347253999795936 0.000009347246080156435 0.000008934398463770166 0.000008934392152356006 0.000008934373384105345
          0.000009193255460631405 0.000009193264641304034 0.000009193292748246443 0.000009253718299577974 0.00000925373064837387 0.000009253766447161701
          0.0000063771508097807444 0.000006377132373125772 0.000006377072057408293 0.000006375546707779615 0.000006375529538296214 0.000006375471131256475
          0.00000911556032311705 0.000009115554873236603 0.000009115541304092124 0.000006387484989213677 0.000006387469791384823 0.000006387416292428655
          0.000009466218336032 0.000009466214796402387 0.000009466204994403675 0.0000064271615966415335 0.0000064271520932875285 0.000006427102726429807
          0.000008350310604547365 0.000008350330389750605 0.000008350389892035163 0.00000964634571293708 0.00000964635278590609 0.00000964636698733726
          0.000008357545556371554 0.000008357570237761487 0.00000835764113042518 0.000008822646613162587 0.000008822663804408386 0.000008822715361423386
          0.000008845652317080339 0.000008845672675724856 0.000008845733992852731 0.00001048946640694698 0.000010489473183472266 0.000010489494700222588
          0.000011084449004294885 0.000011084454229940378 0.000011084464620889052 0.000006802845700830553 0.000006823131244315715 0.0000068028366856536345
          0.000006823127460666228 0.00000680281864872489 0.000006823123657219906 0.000006804543736873356 0.0000068045329321122025 0.000006804506346194488
          0.000006658559018533585 0.000006737729763016138 0.0000066586156016124466 0.000006737789913900108 0.000006658728071329987 0.00000673796561783815
          0.000011270973314357754 0.000011270987932974046 0.000011271028240175483 0.000010209695074462185 0.000010209714188176955 0.000010209771838156424
          0.00000827694759852486 0.000008276974596528509 0.000008277053232937732 0.000012374690770417766 0.000012599468481185874 0.000012374701076337092
          0.000012599477109859384 0.000012374728487805522 0.000012599505151084768 0.000011661075719823422 0.000010905381618139388 0.000011223126813768978
          0.00001166107788285613 0.00001090538173224943 0.00001122312664294577 0.00001166108526485781 0.000010905377400057574 0.000011223130995950404
          0.00001226940982542674 0.000012269417059683988 0.000012269440001932058 0.000012730218400663016 0.000012730226141738478 0.000012730246476092059
          0.000012183532252627446 0.000011970630302927048 0.000012183543272363279 0.0000119706418470647 0.000012183575899572375 0.000011970678783775646
          0.000013237959916007181 0.000012895507285197773 0.000013237966384735385 0.000012895515711508187 0.000013237987136742845 0.000012895539270148267
          0.000011992861746306777 0.000012086026416669488 0.00001199286648572341 0.000012086032791827824 0.000011992881832648025 0.000012086050908776353
          0.000012614805664736753 0.000012619728613510909 0.000012614811033764517 0.00001261973559742347 0.000012614827665222592 0.000012619755658246108
          0.000011869164551316662 0.000011869167246408042 0.000011869175399611604 0.000008469696584780517 0.00000914891124259482 0.000008469688793419423
          0.000009148905847010218 0.000008469665069993142 0.000009148889095243347 0.00001056777879800749 0.000010567777133655353 0.000010567769352789564
          0.000009592952958199455 0.000009714223978199081 0.000009592949004083676 0.000009714220501010199 0.00000959293611756059 0.000009714208396141498
          0.000009950771447675061 0.000009950769799918986 0.000009950764806999806 0.000012517538691017253 0.000012517545947136134 0.000012517568622849834
          0.000010099119423310977 0.000010099117156454647 0.000010099109365017565
        </DataArray>
        <DataArray type="Float64" Name="disp_y" format="ascii" RangeMin="-0.000004624139987489794" RangeMax="-0.0000020458615972198636">
          -0.00000308861170557686 -0.000003088643113239147 -0.0000030887375288327345 -0.000003230844406270576 -0.000003230887345734089 -0.0000032310143562928007
          -0.0000032421837624028576 -0.0000032422228424779563 -0.0000032423377950322494 -0.000003252317850637495 -0.000003252348838572094 -0.000003252441868696886
          -0.0000032940227943189575 -0.0000032940739040369786 -0.0000032942252963804317 -0.0000033271596196427725 -0.0000033272185678453882 -0.000003327394491530907
          -0.000003352656609721872 -0.0000033527165581887247 -0.0000033528954168143824 -0.0000033718033702497555 -0.000003371860341700274 -0.0000033720305980177033
          -0.0000033858419438631342 -0.0000033858935866106204 -0.0000033860501455238924 -0.0000033958350647043954 -0.0000033958824354188115 -0.0000033960176812726237
          -0.000003409958585570662 -0.0000034100278897819603 -0.0000034102340126425707 -0.0000034538896184646157 -0.0000034539738152668335 -0.0000034542259187906296
          -0.0000034869066107311792 -0.0000034869914169627135 -0.000003487246507116471 -0.0000035111251188659802 -0.0000035112043227769064 -0.000003511442421315053
          -0.000003528530141233543 -0.0000035286008253920034 -0.0000035288142056554487 -0.0000035407940176384687 -0.000003540856182878582 -0.0000035410429078666413
          -0.0000035491118698701555 -0.000003549164732755726 -0.0000035493321377926997 -0.0000035131495918070876 -0.0000035132612133479596 -0.0000035135743507447813
          -0.000003573486423929959 -0.000003573618227488287 -0.0000035740137242084474 -0.000003617252474542343 -0.0000036173819999914964 -0.0000036177697546806525
          -0.0000036483372164998695 -0.000003648453724335633 -0.0000036488042223631594 -0.0000036700135800294955 -0.0000036701143163169424 -0.0000036704182003816476
          -0.000003684881903893629 -0.000003684966937642365 -0.000003685223394793432 -0.000003694846708255449 -0.0000036949189010984674 -0.0000036951374517577154
          -0.0000037014849198015978 -0.000003701544828103079 -0.0000037017293242960716 -0.0000036818605325874587 -0.0000036820918576174738 -0.0000036828680723520673
          -0.0000037417258022855186 -0.0000037419429111294457 -0.0000037425843509368025 -0.0000037825017367608115 -0.0000037826813053844556 -0.0000037832287600572575
          -0.0000038098130351586496 -0.0000038099633869839955 -0.0000038104176461693365 -0.00000382788298288589 -0.0000038280045714915165 -0.000003828372193818197
          -0.00000383966666067906 -0.000003839764487985746 -0.000003840062037560505 -0.000003847179353284354 -0.000003847258938567702 -0.000003847496819186099
          -0.000003851619869484824 -0.000003851685876951502 -0.000003851892618739704 -0.0000038562312917637905 -0.000003856635854177095 -0.0000038577627074382515
          -0.000003911510683206356 -0.0000039118033224378935 -0.000003912686682657068 -0.000003946751621223379 -0.000003946994717131116 -0.0000039477102158641115
          -0.000003968988039345512 -0.000003969170095098333 -0.00000396971142585093 -0.000003982922541735431 -0.000003983062634954133 -0.000003983481366939973
          -0.000003991597011842388 -0.000003991704974731405 -0.000003992027818385765 -0.00000399678504792037 -0.000003996868765267249 -0.000003997121380140958
          -0.000003999598750502526 -0.000003999667111517597 -0.000003999870924602278 -0.000004030804192319133 -0.000004031301135754275 -0.000004032740624708278
          -0.0000040776907188824876 -0.000004078084693686471 -0.000004079246917302287 -0.000004106359886469639 -0.000004106640543815497 -0.000004107535012200053
          -0.000004123061711430574 -0.0000041232718228697805 -0.000004123891755363389 -0.000004133263815098921 -0.0000041334142732981 -0.000004133874089872034
          -0.000004139506822281309 -0.000004139619253382062 -0.000004139959603552538 -0.000004143008510708356 -0.000004143091293450884 -0.000004143342751261938
          -0.000004144704434820416 -0.000004144766545576756 -0.000004144962809802692 -0.000004197092932251497 -0.0000041977174292593285 -0.000004199722913763697
          -0.000004234305517186619 -0.000004234715167409739 -0.0000042360465317616055 -0.000004257779543188875 -0.000004258077211838592 -0.00000425892398132143
          -0.000004269311077246905 -0.000004269510451145673 -0.000004270149922251015 -0.000004277778822522165 -0.000004277928384282054 -0.000004278372195905115
          -0.000004282695055990599 -0.000004282799221071427 -0.0000042831211623951045 -0.000004285529862807455 -0.000004285608159088742 -0.000004285838980535345
          -0.000004286727192392277 -0.000004286782908091572 -0.000004286935910348694 -0.000004392246503142875 -0.000004399156189808308 -0.000004500461032029516
          -0.000004492599868124633 -0.000004392356870556883 -0.000004399244564074549 -0.000004500524755831621 -0.000004492684768295033 -0.0000043927172474219044
          -0.000004399493301313356 -0.000004500715582677079 -0.000004492913737940159 -0.000004377321039609954 -0.000004484550845843252 -0.000004438551052265353
          -0.000004345884859828253 -0.00000437763006561421 -0.000004484815851090867 -0.000004439138623089838 -0.000004346391884723236 -0.000004378543445737023
          -0.000004485622975830824 -0.000004440987033284212 -0.000004347711152807169 -0.0000043915391716867406 -0.0000044915497246166566 -0.000004391747602962291
          -0.000004491695766042642 -0.000004392379148832903 -0.000004492145788964251 -0.000004497545470800729 -0.0000043883074561424836 -0.000004497655275716525
          -0.000004388465541603093 -0.000004497948643990912 -0.000004388930588487408 -0.000004419779406389902 -0.000004526139368474059 -0.000004419841209587309
          -0.000004526194041064132 -0.0000044200538875218785 -0.000004526352612344556 -0.000004309913700558951 -0.000004399761475479741 -0.000004310754377207639
          -0.000004400655433798119 -0.000004313119942024726 -0.0000044034930126610846 -0.000004616867386656257 -0.000004611567586730216 -0.000004616919836611832
          -0.000004611616039086819 -0.0000046170284236043405 -0.000004611750410513888 -0.0000044547617944050344 -0.000004454809164075355 -0.000004454942017446414
          -0.000004509764659670257 -0.00000451037433214195 -0.00000451265153342576 -0.000004546948309671265 -0.000004547350825220975 -0.000004548217910435891
          -0.000004575547574930785 -0.000004591969815550517 -0.0000045757127975128545 -0.000004592085326666874 -0.000004576028057675723 -0.000004592350831661085
          -0.000004603792569206391 -0.000004603858209273958 -0.000004604095052734213 -0.000004620475849013928 -0.000004620512051116197 -0.000004620641089846057
          -0.0000028219114980740654 -0.0000028219333643874197 -0.0000028219987726028236 -0.000004165679252628412 -0.0000040183694009717385 -0.000004020096140825812
          -0.0000041717515606922886 -0.0000041657311680726485 -0.000004018424680970103 -0.000004020142137929752 -0.000004171795829888743 -0.00000416587424388021
          -0.000004018593695517873 -0.000004020279937759445 -0.000004171916784685387 -0.000002664315059883948 -0.0000026643322309597657 -0.0000026643844224417763
          -0.000004340110171091401 -0.000004318401170105829 -0.000004340142915988434 -0.000004318448200574129 -0.0000043402593568930016 -0.000004318611182183516
          -0.0000029610869799955583 -0.0000030499714013819186 -0.0000030242018776220493 -0.0000028811772089795952 -0.000002961107214130954 -0.0000030499959342105663
          -0.000003024227010966937 -0.0000028811981063420765 -0.0000029611662264680228 -0.000003050068940258048 -0.0000030243012533672576 -0.0000028812575772011818
          -0.000003871667861851651 -0.000003876194355592891 -0.000003871713693156365 -0.000003876248087550243 -0.000003871856363078315 -0.000003876424488786133
          -0.000002716779586595726 -0.0000028388210367217774 -0.0000027167973885535066 -0.000002838839012815769 -0.0000027168526685878197 -0.000002838895001390752
          -0.000004297585386109241 -0.0000044336674392310364 -0.000004269714052073579 -0.000004297607891725076 -0.000004433693021197831 -0.000004269745895528054
          -0.000004297649870060994 -0.000004433767220617111 -0.000004269812342893406 -0.0000035985957616664793 -0.0000035475619932956367 -0.0000037124544393213825
          -0.0000037666868139503627 -0.000003598612407578114 -0.0000035475777377730588 -0.000003712468983016071 -0.000003766702798896426 -0.0000035986618541921374
          -0.0000035476296915066696 -0.000003712510225263686 -0.0000037667472021205305 -0.0000030091641842553466 -0.0000031167987121178913 -0.000003144321245422284
          -0.0000030091834720827963 -0.0000031168192539970453 -0.0000031443450478022047 -0.0000030092385212794787 -0.0000031168841019453277 -0.000003144414049065589
          -0.000002755230555686165 -0.0000027722458287394815 -0.000002914824084345203 -0.0000029481997653301687 -0.0000027552455490956417 -0.0000027722592360928196
          -0.0000029148385337986317 -0.000002948217572615715 -0.000002755290195583224 -0.000002772298960201978 -0.0000029148853174836662 -0.0000029482716230547733
          -0.0000037753856293255793 -0.000003737509832320203 -0.000003775437959021711 -0.0000037375534359102125 -0.000003775585318705397 -0.0000037376732155904143
          -0.000004145124460777183 -0.000003973491583989753 -0.000003945719018730771 -0.000004127261350012706 -0.000004145139000797013 -0.000003973508818771374
          -0.000003945734184566938 -0.000004127274894340583 -0.000004145182659896902 -0.000003973559687012751 -0.000003945782955430408 -0.000004127314596305154
          -0.0000036569778768013733 -0.000003618338330875318 -0.0000035738361937460568 -0.0000036570171142700772 -0.0000036183820912221254 -0.0000035738763908822326
          -0.0000036571365566376656 -0.0000036185016014660942 -0.000003573996742210881 -0.000004162513558009129 -0.0000039953433450964225 -0.000004162530379044721
          -0.0000039953630431760784 -0.0000041625813968711425 -0.000003995421160811853 -0.0000044603850975541494 -0.000004300616896323959 -0.000004295856395046412
          -0.000004452907099100781 -0.000004460394373931401 -0.000004300626958818954 -0.000004295864735094973 -0.000004452914488572955 -0.000004460423151256834
          -0.000004300657402458999 -0.000004295884966157594 -0.000004452935361282827 -0.000004242342136824885 -0.000004101652806042532 -0.000004242350779022838
          -0.000004101662078893535 -0.000004242374356605325 -0.000004101690249922206 -0.000003095786211845532 -0.000003102157591467338 -0.0000030958021887229765
          -0.000003102174209890385 -0.000003095851526324936 -0.0000031022252905685897 -0.0000029467020420956483 -0.0000030683792596262817 -0.000002946719833783356
          -0.000003068398528918692 -0.0000029467685972218945 -0.0000030684549323999888 -0.0000036714418169093383 -0.000003664335086674975 -0.000003482102102035624
          -0.0000034720259291461355 -0.000003671467179287975 -0.0000036643643148543 -0.000003482130884579571 -0.000003472049644048386 -0.000003671542492976183
          -0.000003664448606383947 -0.0000034822189964042534 -0.000003472118853555994 -0.0000038034337785857904 -0.000003803452586184669 -0.000003803510029346419
          -0.0000030186104758037447 -0.000003018637107853949 -0.0000030187165191743316 -0.0000023228347522743814 -0.000002433233689495408 -0.000002322847799140286
          -0.000002433247700385692 -0.0000023228890571463273 -0.0000024332905833655183 -0.00000401438940797798 -0.000004164291765884562 -0.000004014428567817011
          -0.0000041643215016736335 -0.000004014542639622265 -0.000004164431887120387 -0.000004624064979977403 -0.00000447573423058007 -0.000004624086374768617
          -0.000004475760971057834 -0.000004624139987489794 -0.000004475840561181352 -0.000003850889594134057 -0.00000385092737479241 -0.000003851044107872122
          -0.000003661464880486923 -0.000003842261755855303 -0.0000036614989107178266 -0.000003842295982632488 -0.000003661605263150373 -0.000003842401857525677
          -0.000004319447334040599 -0.000004474392851729727 -0.000004475942729142019 -0.0000043257519691736205 -0.000004319461074095587 -0.0000044744054599937936
          -0.000004475959984843471 -0.000004325769302280841 -0.0000043195016564214116 -0.00000447444371017114 -0.000004476007699059002 -0.0000043258176326429105
          -0.0000032737211444316058 -0.0000032132660753146106 -0.000003273743701490108 -0.0000032132857371802317 -0.0000032738139666607072 -0.0000032133481007580003
          -0.000004623296542849186 -0.000004470101807545719 -0.000004622175912190678 -0.000004623327051949449 -0.000004470124395826666 -0.00000462219437452006
          -0.000004623446582096533 -0.00000447020265933541 -0.000004622239340515718 -0.0000033057030042861966 -0.0000034840309187394807 -0.000003313467536087665
          -0.000003305728453905097 -0.000003484062055927632 -0.00000331349719483381 -0.0000033058079529455694 -0.000003484153226027153 -0.0000033135843321832952
          -0.000003361315047843825 -0.0000033613334039816553 -0.0000033613880893713515 -0.0000031584570113274557 -0.0000031584822513078774 -0.000003158566141720032
          -0.0000031637568856960107 -0.0000033130408253726463 -0.000003163786212002107 -0.0000033130742335191026 -0.0000031638776432618893 -0.0000033131743781089876
          -0.000004165601073896731 -0.0000040134652196583825 -0.000004165625216895019 -0.0000040134964956864705 -0.000004165706123235498 -0.000004013588418145524
          -0.000003917318855858171 -0.000003917331586740837 -0.0000039173701969605166 -0.000002542639715502053 -0.0000025862999630131524 -0.0000025426554269884456
          -0.000002586315449777945 -0.0000025427012030363746 -0.0000025863643281499025 -0.000002194506975254945 -0.0000021945168621860494 -0.0000021945450727342293
          -0.0000035261370065910505 -0.000003623540159300403 -0.0000036846668592952323 -0.000003566411746036671 -0.0000035261481858669253 -0.0000036235510606280875
          -0.0000036846772949067908 -0.0000035664239579780637 -0.0000035261830770642357 -0.0000036235813372249883 -0.0000036847093405482955 -0.0000035664596957285014
          -0.000004620291670189106 -0.000004620303176152035 -0.000004620343131596152 -0.000003843866337474529 -0.0000038442299990756016 -0.000003843890760199067
          -0.000003844257484810259 -0.000003843964076788738 -0.0000038443421860660585 -0.000003473199000590514 -0.000003473234566489884 -0.0000034733443102117784
          -0.0000025214950276387 -0.0000026244280421662396 -0.0000025215095643905303 -0.000002624443540800327 -0.000002521550796697094 -0.0000026244919396730555
          -0.000002927480451658362 -0.0000029274919318889373 -0.0000029275219526549576 -0.000004611444884426806 -0.000004409098682542784 -0.00000460759344590443
          -0.000004611452090440319 -0.000004409106374496196 -0.0000046076023246473366 -0.000004611477508485754 -0.0000044091278570307765 -0.000004607632707162364
          -0.0000031454030672823997 -0.0000032765757791068253 -0.000003145421078354021 -0.0000032765929949053002 -0.000003145475875488238 -0.000003276644230478373
          -0.00000363815507474543 -0.0000037788703893775687 -0.0000036381680659554217 -0.000003778880957079149 -0.000003638208818586871 -0.0000037789104643394288
          -0.0000034118697594854875 -0.000003499479143779523 -0.000003411885311437877 -0.0000034994973182349033 -0.0000034119335817336975 -0.000003499547923230577
          -0.0000032453542032394845 -0.0000032093239073647586 -0.000003245369508530205 -0.0000032093393170645174 -0.0000032454135922458408 -0.0000032093895087001636
          -0.000003888384478385156 -0.000003888393413209482 -0.000003888418284388612 -0.000004131787976288101 -0.000004131799632925317 -0.000004131837371050193
          -0.000003971846489861495 -0.00000397185539215841 -0.000003971884733420304 -0.0000035544518437169964 -0.0000035544722570144475 -0.000003554530504972702
          -0.0000040243077588147256 -0.000004024318853829118 -0.000004024352908056394 -0.0000024256737815538808 -0.000002425686837671367 -0.0000024257283642932804
          -0.000004467558997554598 -0.000004310956031068035 -0.000004467569966774722 -0.000004310967842376897 -0.00000446760180665346 -0.000004311003339346876
          -0.0000029837686216146894 -0.0000031034765474220182 -0.0000029837819561599324 -0.0000031034901539541015 -0.0000029838162281865418 -0.0000031035357563516946
          -0.0000033044361366527506 -0.0000033044508251619206 -0.0000033044938805622974 -0.000004178592333954273 -0.000004178602299974591 -0.000004178640934472107
          -0.000002737625013890187 -0.0000026307929494603357 -0.0000028600393359452826 -0.000002737641613792322 -0.000002630806728840344 -0.0000028600565826367322
          -0.00000273769457185287 -0.000002630846767183038 -0.0000028601103364876104 -0.0000030749522268311273 -0.0000032461765837846534 -0.000003074964932756725
          -0.000003246190405103071 -0.0000030750055299742537 -0.0000032462329630726976 -0.0000025316958795699107 -0.000002531709375324664 -0.000002531745786199469
          -0.0000046178481456327104 -0.0000046178587918822725 -0.000004617891708730409 -0.0000034176373763513846 -0.0000034176497354447154 -0.000003417687192250045
          -0.0000030031325989019317 -0.0000030031493982622566 -0.0000030032011489510327 -0.00000231627076215802 -0.0000023162824210703552 -0.000002316318724259407
          -0.0000036710846592392684 -0.0000036711062261013198 -0.0000036711809057343684 -0.0000038305075705743656 -0.00000383052919449786 -0.000003830595653797959
          -0.0000030403047277409233 -0.0000030403334916446166 -0.0000030404209437226686 -0.0000031979939305832304 -0.0000031980284532308113 -0.000003198133767570865
          -0.0000024604416662593665 -0.0000024604534464481193 -0.0000024604932374140555 -0.00000334756666522119 -0.0000033476079021148327 -0.00000334773358039144
          -0.0000025081097100455484 -0.000002508121916596498 -0.0000025081624129227247 -0.000003493097896155328 -0.0000034931411824826175 -0.000003493280821899771
          -0.000004015189072820464 -0.000004015214905213502 -0.000004015293170216949 -0.0000036429264260375717 -0.0000036429447469273323 -0.000003643002349415883
          -0.000004173115853748278 -0.0000041731370133898285 -0.000004173205415731194 -0.0000040093005315624885 -0.00000400932233774744 -0.000004009389752053596
          -0.0000041736247648688404 -0.0000041736432970588374 -0.0000041737021231506725 -0.0000034284667635602485 -0.00000342848124885279 -0.000003428525335653088
          -0.000003481255129338669 -0.000003481269013506997 -0.000003481312642808123 -0.0000033238734781188563 -0.0000034686090068222623 -0.000003323910829241783
          -0.0000034686482421554784 -0.0000033240251236141942 -0.000003468777701935944 -0.000003173927347299529 -0.0000031739579040183084 -0.000003174052145370541
          -0.000004469531905928978 -0.00000462282478715069 -0.000004469565014427027 -0.000004622840273287171 -0.000004469670458483091 -0.000004622855379046312
          -0.000004289958689076839 -0.0000042899667307845116 -0.0000042899868617965 -0.000004614888944762568 -0.000004614897899965793 -0.000004614924415921841
          -0.000004317914911805984 -0.000004317932436043593 -0.000004317985264900724 -0.000004290817069442077 -0.000004164468187743225 -0.000004290824563564495
          -0.000004164476021202194 -0.000004290847666190447 -0.000004164498636954763 -0.0000028249777175367423 -0.0000028021806992557514 -0.000002739238033314285
          -0.0000028249889125805548 -0.0000028021919011730655 -0.0000027392490432752515 -0.000002825022744270597 -0.0000028022239428462476 -0.000002739282524026404
          -0.0000037732614028299584 -0.0000037732707939983026 -0.0000037732980435019874 -0.0000038486572065175355 -0.000003848666285112704 -0.000003848695223577956
          -0.0000044429087991465084 -0.000004603319202113869 -0.000004442917519153643 -0.000004603328961826829 -0.000004442944999589379 -0.000004603359218296608
          -0.000003934628924756317 -0.000004052891040293583 -0.0000039346371747308945 -0.000004052898646549967 -0.000003934662095523902 -0.000004052919267798802
          -0.0000032085111164765724 -0.000003377884395925417 -0.0000032085229788350576 -0.000003377896461190164 -0.000003208557282481131 -0.0000033779341215180008
          -0.0000033698527060660015 -0.0000035284090313452475 -0.0000033698638383123214 -0.000003528419469207583 -0.000003369897192987336 -0.0000035284517060332466
          -0.0000030340199652492386 -0.0000030340312876650994 -0.0000030340655281729148 -0.0000020458615972198636 -0.0000021062280934792665 -0.000002045869717788097
          -0.0000021062376019934944 -0.000002045892360798878 -0.000002106266870657332 -0.000002646539810043149 -0.0000026465516022028587 -0.000002646584694011106
          -0.000002365238823799412 -0.0000022203055290811184 -0.0000023652502364233576 -0.000002220315595854215 -0.0000023652833286723202 -0.000002220343689765384
          -0.0000025743430022048198 -0.000002574354898988574 -0.0000025743885816987567 -0.000003660186158843011 -0.000003660196051522222 -0.0000036602252258480833
          -0.000002423645741142825 -0.0000024236569360769773 -0.0000024236941515382495
        </DataArray>
        <DataArray type="Float64" Name="disp_z" format="ascii" RangeMin="-1.0926124507854313e-7" RangeMax="0">
          0 -5.241807223021137e-8 -1.0484051670990689e-7 0 -5.2328882816022165e-8 -1.0465421759094409e-7
          0 -5.222773397026959e-8 -1.0446063135355954e-7 0 -5.4121526786825324e-8 -1.0824074113696931e-7
          0 -5.34219794073844e-8 -1.0684463672793484e-7 0 -5.2897037343962645e-8 -1.0579454166574134e-7
          0 -5.251762883944627e-8 -1.0503448085657919e-7 0 -5.22499592348205e-8 -1.0450409470915392e-7
          0 -5.2068513232547656e-8 -1.0413079984994084e-7 0 -5.2004180610403194e-8 -1.0401383129597272e-7
          0 -5.3857436184373e-8 -1.0770917393371321e-7 0 -5.305742979630035e-8 -1.0611531230418847e-7
          0 -5.2503835217755126e-8 -1.0500762137607389e-7 0 -5.2136296991788925e-8 -1.0427135671834247e-7
          0 -5.189735577680532e-8 -1.0379870579138629e-7 0 -5.1754584042714616e-8 -1.0350086115804057e-7
          0 -5.1734191050345544e-8 -1.0347952363915108e-7 0 -5.461846787046874e-8 -1.0926124507854313e-7
          0 -5.33273950855272e-8 -1.0664601940254046e-7 0 -5.2474924876290703e-8 -1.0495101906591194e-7
          0 -5.195100865347727e-8 -1.039014483096983e-7 0 -5.163965211247888e-8 -1.0327873340923529e-7
          0 -5.1467644689225786e-8 -1.0293624041083026e-7 0 -5.1384500848615184e-8 -1.0276831745157187e-7
          0 -5.138982669241381e-8 -1.0277706771780288e-7 0 -5.3651223682530814e-8 -1.0734451336423042e-7
          0 -5.236497104872823e-8 -1.0474004446940422e-7 0 -5.162248254692594e-8 -1.0324105129484349e-7
          0 -5.1210814968446995e-8 -1.0242415082355001e-7 0 -5.102104016061375e-8 -1.0204266572731802e-7
          0 -5.095933288261748e-8 -1.0191791937754974e-7 0 -5.096612954002669e-8 -1.0193702674643113e-7
          0 -5.1010991393140105e-8 -1.0201308311985839e-7 0 -5.174386453694385e-8 -1.0340350021443881e-7
          0 -5.097249159506776e-8 -1.019738702661773e-7 0 -5.046736728714194e-8 -1.009107797952306e-7
          0 -5.02882846356656e-8 -1.0057738063995104e-7 0 -5.029791818463162e-8 -1.0059363729671824e-7
          0 -5.0385168704517435e-8 -1.0076609155113484e-7 0 -5.051806742625297e-8 -1.0104033741648408e-7
          0 -5.063705855075173e-8 -1.0127063191303475e-7 0 -4.979547257861994e-8 -9.946453579905031e-8
          0 -4.910320666866938e-8 -9.820910388795108e-8 0 -4.897816544672023e-8 -9.797870838451432e-8
          0 -4.92434912763958e-8 -9.849272526684042e-8 0 -4.9494593517980334e-8 -9.898683499457897e-8
          0 -4.97825548484449e-8 -9.95668379013101e-8 0 -5.005109638811558e-8 -1.00106146249929e-7
          0 -5.026685843862159e-8 -1.0053210039092318e-7 0 -4.6319748409115954e-8 -9.261935060510937e-8
          0 -4.67867361234521e-8 -9.359731028462106e-8 0 -4.723450663832444e-8 -9.442486978314178e-8
          0 -4.805150919971342e-8 -9.612750165833878e-8 0 -4.8637513924842746e-8 -9.726404124743499e-8
          0 -4.9152100749315714e-8 -9.830224006630894e-8 0 -4.960929345269649e-8 -9.921994415038389e-8
          0 -4.9937127019904146e-8 -9.986050534107246e-8 0 0 0
          0 -4.8196588697484747e-8 -4.8802516017419333e-8 -4.859614420540558e-8 -4.793210896532803e-8 -9.64113194354936e-8
          -9.760352807121134e-8 -9.722453738219846e-8 -9.582313040327771e-8 0 0 0
          0 -4.554543044051073e-8 -4.400237942544965e-8 -4.177724895130051e-8 -4.4374423498988674e-8 -9.115952678042527e-8
          -8.789088844406195e-8 -8.368455821624314e-8 -8.862617503005587e-8 0 0 -4.654309436703736e-8
          -4.601612945182747e-8 -9.313152080495866e-8 -9.198562915047277e-8 0 0 -4.720613443627439e-8
          -4.7391172368386566e-8 -9.44466384348145e-8 -9.475804667836456e-8 0 0 -4.924836750904341e-8
          -4.889522848748986e-8 -9.850060512269954e-8 -9.775048910521842e-8 0 0 -4.26992733428325e-8
          -3.9146525345816564e-8 -8.53919532127639e-8 -7.819128783258393e-8 0 0 -4.8768896234428695e-8
          -4.8157875734129136e-8 -9.755824864797955e-8 -9.631965779926587e-8 0 -4.966768844972173e-8 -9.93370301480568e-8
          0 -3.7044136140834296e-8 -7.378671546902935e-8 0 -4.154736425339588e-8 -8.31382770686855e-8
          0 0 -4.447424622865311e-8 -4.5976686023165293e-8 -8.912801300987914e-8 -9.19365533100881e-8
          0 -4.722645424214077e-8 -9.445046841465744e-8 0 -4.935592635336757e-8 -9.871201023814372e-8
          0 -5.246185543190538e-8 -1.0492411928521729e-7 0 0 0
          0 -5.0496304955420245e-8 -5.076560497547925e-8 -5.0873322479077764e-8 -5.0639864309460534e-8 -1.0099086331722219e-7
          -1.0153558672885909e-7 -1.0174501535349687e-7 -1.0127485232123014e-7 0 -5.252334967061714e-8 -1.0504379711400049e-7
          0 0 -5.0429961027788014e-8 -5.021875987913727e-8 -1.0087279686809573e-7 -1.0045191839899226e-7
          0 0 0 0 -5.224612986600054e-8 -5.2223524042785426e-8
          -5.226795448003937e-8 -5.235474216675942e-8 -1.0448796535794237e-7 -1.0445574356882157e-7 -1.0453251603397045e-7 -1.0471112103605126e-7
          0 0 -5.113032632985288e-8 -5.108560474293778e-8 -1.0225550407020498e-7 -1.0217290341155597e-7
          0 0 -5.242472159653447e-8 -5.230226787427201e-8 -1.0485078498209933e-7 -1.0460386223171246e-7
          0 0 0 -5.079778235308225e-8 -5.066634060352973e-8 -5.065791906440683e-8
          -1.0159249261030643e-7 -1.013484708300125e-7 -1.0128692585143199e-7 0 0 0
          0 -5.179680756764489e-8 -5.188193318169904e-8 -5.179554329287472e-8 -5.171998077212017e-8 -1.0359181928810339e-7
          -1.0376252742492425e-7 -1.0359189757852164e-7 -1.0343990985325608e-7 0 0 0
          -5.2208605445191925e-8 -5.212257662610795e-8 -5.209642587650203e-8 -1.044297036799484e-7 -1.0424339839141639e-7 -1.041886358853352e-7
          0 0 0 0 -5.231560426218074e-8 -5.232597467832421e-8
          -5.2231565403585614e-8 -5.218962897369985e-8 -1.0462905112906577e-7 -1.046611206033492e-7 -1.044603629908211e-7 -1.0437666752886706e-7
          0 0 -5.128768955777026e-8 -5.1353824010889986e-8 -1.025906903450336e-7 -1.027112726033433e-7
          0 0 0 0 -5.142953763674472e-8 -5.152310427724214e-8
          -5.162543184522785e-8 -5.1522302728339187e-8 -1.0285909264850974e-7 -1.0304506872367969e-7 -1.0325167462956581e-7 -1.0304530589328479e-7
          0 0 0 -5.148416623208919e-8 -5.1501230796967086e-8 -5.156979528414368e-8
          -1.0296992946940161e-7 -1.0299119323670415e-7 -1.0314142570362032e-7 0 0 -5.1315330550163966e-8
          -5.142823465617071e-8 -1.0263090583159461e-7 -1.0285742644213492e-7 0 0 0
          0 -5.137199176707991e-8 -5.1446739602385517e-8 -5.152391892546941e-8 -5.148651134531527e-8 -1.0274234249035151e-7
          -1.0289291894174756e-7 -1.0305201182016225e-7 -1.029736469344236e-7 0 0 -5.169909667128532e-8
          -5.1769259691442886e-8 -1.0339922384317331e-7 -1.0353607266729297e-7 0 0 -5.211962900699925e-8
          -5.209590048577661e-8 -1.0423944895852311e-7 -1.0419580297143176e-7 0 0 -5.2223171832665974e-8
          -5.213867951383165e-8 -1.0444307316590442e-7 -1.0427496826172604e-7 0 0 0
          0 -5.162696192216058e-8 -5.158140789415245e-8 -5.176923478088132e-8 -5.1814989197085764e-8 -1.0325337562507147e-7
          -1.0316248707847124e-7 -1.0353710851986601e-7 -1.0362800930189126e-7 0 -5.163229519881062e-8 -1.032649024016588e-7
          0 -5.230400761022659e-8 -1.0461155855815569e-7 0 0 -5.263328989262511e-8
          -5.2599588382054054e-8 -1.0526658377800292e-7 -1.0520130773970811e-7 0 0 -5.09923366690923e-8
          -5.0764252631989696e-8 -1.0198883357164273e-7 -1.0153135561347407e-7 0 0 -5.0230676167807435e-8
          -5.003624594768101e-8 -1.0047902846782966e-7 -1.0001173496279111e-7 0 -5.1197682271886675e-8 -1.0239247589654882e-7
          0 0 -5.155568253649814e-8 -5.130680065861618e-8 -1.0311413042055695e-7 -1.0261398803025644e-7
          0 0 0 0 -5.121328168205594e-8 -5.111739871576294e-8
          -5.094723071696121e-8 -5.107498620439681e-8 -1.0242608762511066e-7 -1.0223424015348453e-7 -1.0189655250554202e-7 -1.021500651112146e-7
          0 0 -5.1993466854039145e-8 -5.202469454456918e-8 -1.0399012011608596e-7 -1.0404924297617645e-7
          0 0 0 -5.048340089323958e-8 -5.078668491255034e-8 -5.078040944624959e-8
          -1.0093770467640548e-7 -1.0156629904223205e-7 -1.0156968983430343e-7 0 0 0
          -5.1959308638573256e-8 -5.17632804461177e-8 -5.1946024073480064e-8 -1.0391825651539492e-7 -1.0352614228522451e-7 -1.0389346048879888e-7
          0 -5.191121671780014e-8 -1.0381840277748332e-7 0 -5.2109005894792376e-8 -1.0421788434440938e-7
          0 0 -5.212701606549105e-8 -5.195484208466912e-8 -1.0425095428878642e-7 -1.0390830311013291e-7
          0 0 -5.0940041727850854e-8 -5.111232796503545e-8 -1.0188610740100587e-7 -1.0222546766847434e-7
          0 -5.171835389321936e-8 -1.0343648405360985e-7 0 0 -5.256370037424594e-8
          -5.251281688060968e-8 -1.0512680307667371e-7 -1.0502614689372847e-7 0 -5.266466990279882e-8 -1.0533013447311901e-7
          0 0 0 0 -5.198595503684886e-8 -5.194741224514358e-8
          -5.190607560220902e-8 -5.1939863393366806e-8 -1.0397182348640326e-7 -1.0389178773971167e-7 -1.0381436187857471e-7 -1.0388068655374021e-7
          0 -5.0991703673066686e-8 -1.0197779464896824e-7 0 0 -5.146973708564771e-8
          -5.139623568147876e-8 -1.0293945902646078e-7 -1.0279178535268481e-7 0 -5.1749892693249366e-8 -1.0349757033222302e-7
          0 0 -5.252744235451918e-8 -5.244963247333081e-8 -1.0505486162661901e-7 -1.0489964829773159e-7
          0 -5.223474537604449e-8 -1.0447105571133811e-7 0 0 0
          -5.1422548783679057e-8 -5.159431976805288e-8 -5.150505701728306e-8 -1.028433796292085e-7 -1.03190114081013e-7 -1.0300697982220159e-7
          0 0 -5.2070742305220554e-8 -5.198327494961671e-8 -1.0414307286929025e-7 -1.0397092744694921e-7
          0 0 -5.186503063444241e-8 -5.182763307996694e-8 -1.0373037757019828e-7 -1.0365373965980317e-7
          0 0 -5.191300885366459e-8 -5.1838191505329244e-8 -1.0382599289967545e-7 -1.0367577335272775e-7
          0 0 -5.202073069484429e-8 -5.2021670899130835e-8 -1.0403991184578226e-7 -1.0403931276440192e-7
          0 -5.1834722048968806e-8 -1.0366829432330342e-7 0 -5.1581061368280377e-8 -1.0316090709761318e-7
          0 -5.18418292481294e-8 -1.0368357543010554e-7 0 -5.180117732014005e-8 -1.0361301443303176e-7
          0 -5.175992310158583e-8 -1.0352157961152457e-7 0 -5.2538543662835926e-8 -1.050758095891481e-7
          0 0 -5.12550778819181e-8 -5.133827830208354e-8 -1.0251065556688996e-7 -1.0267573161593953e-7
          0 0 -5.221151652575666e-8 -5.215327585620767e-8 -1.0442553432744303e-7 -1.0430752330187889e-7
          0 -5.2031127672080564e-8 -1.040607115271798e-7 0 -5.164209705384284e-8 -1.032858037494226e-7
          0 0 0 -5.2355946616473946e-8 -5.239503258603267e-8 -5.226451379457198e-8
          -1.0471102203063822e-7 -1.047911721691604e-7 -1.0453175774205054e-7 0 0 -5.216799417752512e-8
          -5.207579372789295e-8 -1.043344074338081e-7 -1.0415120815418877e-7 0 -5.2462180062385315e-8 -1.0492564576773104e-7
          0 -5.1158054489521785e-8 -1.0231567366588781e-7 0 -5.1996598166614474e-8 -1.0399385526746737e-7
          0 -5.216517997661429e-8 -1.0433201246012217e-7 0 -5.255966767828348e-8 -1.0512065183143076e-7
          0 -5.169205899745054e-8 -1.033810465467005e-7 0 -5.154793868738607e-8 -1.0309636573106757e-7
          0 -5.23430805045179e-8 -1.0468289225355806e-7 0 -5.216636992679141e-8 -1.0432761433066567e-7
          0 -5.24708154928144e-8 -1.0493538128085601e-7 0 -5.195927663397113e-8 -1.0390892736291393e-7
          0 -5.244184737614064e-8 -1.0488577915875998e-7 0 -5.171920414481867e-8 -1.034364026561893e-7
          0 -5.1224112263445384e-8 -1.0244774489993791e-7 0 -5.174228203794161e-8 -1.0348371047746948e-7
          0 -5.1075367138087586e-8 -1.0215111730847184e-7 0 -5.1328404151531347e-8 -1.0265666339799041e-7
          0 -5.119611497465732e-8 -1.023926079377473e-7 0 -5.1955599748087555e-8 -1.0391789334293345e-7
          0 -5.194391402960163e-8 -1.038875114758335e-7 0 0 -5.1964040485098655e-8
          -5.1735748408933776e-8 -1.039356271998384e-7 -1.0347799027795909e-7 0 -5.214573433815572e-8 -1.0429449109984712e-7
          0 0 -4.9911001470319365e-8 -4.9868043552922174e-8 -9.983038265883668e-8 -9.975003786922604e-8
          0 -5.155989125726624e-8 -1.0311131517826348e-7 0 -5.1297007113646594e-8 -1.02593079491012e-7
          0 -5.0932797922046365e-8 -1.0185926625057159e-7 0 0 -5.173670485727047e-8
          -5.179615081711022e-8 -1.0347228428778897e-7 -1.035931400906485e-7 0 0 0
          -5.227828427026939e-8 -5.227225128992504e-8 -5.229743718876068e-8 -1.0455721143473901e-7 -1.0454098664067542e-7 -1.0459440460029692e-7
          0 -5.1900843056077196e-8 -1.0380185094871559e-7 0 -5.191386756522001e-8 -1.0382857787722884e-7
          0 0 -5.1670715042662315e-8 -5.1578948702116275e-8 -1.0334031306863486e-7 -1.031572188423592e-7
          0 0 -5.1916140400492184e-8 -5.185704577363595e-8 -1.0383070901519178e-7 -1.0371470852942098e-7
          0 0 -5.212443559266446e-8 -5.205088473637406e-8 -1.0425025576923162e-7 -1.0410193916534456e-7
          0 0 -5.2087570925472465e-8 -5.2022405676957196e-8 -1.0417475667553373e-7 -1.0404561086677222e-7
          0 -5.21882701705727e-8 -1.043758966538679e-7 0 0 -5.268798421087616e-8
          -5.262094498019402e-8 -1.0537601055983422e-7 -1.0524041334103698e-7 0 -5.2356021419147404e-8 -1.047113462616712e-7
          0 0 -5.250847142534452e-8 -5.25463403714447e-8 -1.0501980684438632e-7 -1.050912510419904e-7
          0 -5.239169710836227e-8 -1.0478040715899809e-7 0 -5.196182174036973e-8 -1.0392396191293346e-7
          0 -5.245617105453228e-8 -1.0491184089369985e-7
        </DataArray>
      </PointData>
      <CellData>
        <DataArray type="Int32" Name="libmesh_elem_id" format="ascii" RangeMin="1184" RangeMax="3139">
          1184 1185 1192 1193 1194 1195
          1196 1197 1198 1199 1200 1201
          1202 1203 1210 1211 1212 1213
          1214 1215 1216 1217 1218 1219
          1220 1221 1226 1227 1228 1229
          1230 1231 1232 1233 1234 1235
          1236 1237 1238 1239 1244 1245
          1246 1247 1248 1249 1250 1251
          1252 1253 1254 1255 1256 1257
          1262 1263 1264 1265 1266 1267
          1268 1269 1270 1271 1272 1273
          1274 1275 1280 1281 1282 1283
          1284 1285 1286 1287 1288 1289
          1290 1291 1292 1293 1294 1295
          1296 1297 1298 1299 1302 1303
          1308 1309 1310 1311 1312 1313
          1318 1319 1320 1321 1322 1323
          1324 1325 1332 1333 1334 1335
          1336 1337 1340 1341 1342 1343
          1346 1347 1350 1351 1352 1353
          1354 1355 1362 1363 1364 1365
          1368 1369 1370 1371 1382 1383
          1396 1397 1408 1409 1452 1453
          1456 1457 1468 1469 1476 1477
          1486 1487 1510 1511 1518 1519
          1532 1533 1558 1559 1560 1561
          1564 1565 1566 1567 1570 1571
          1586 1587 1602 1603 1618 1619
          1622 1623 1628 1629 1634 1635
          1680 1681 1686 1687 1696 1697
          1700 1701 1708 1709 1710 1711
          1728 1729 1740 1741 1750 1751
          1754 1755 1764 1765 1766 1767
          1782 1783 1804 1805 1814 1815
          1836 1837 1868 1869 1880 1881
          1884 1885 1890 1891 1900 1901
          1908 1909 1918 1919 1928 1929
          1948 1949 1952 1953 1968 1969
          1970 1971 1972 1973 1986 1987
          2004 2005 2006 2007 2008 2009
          2014 2015 2018 2019 2020 2021
          2030 2031 2040 2041 2044 2045
          2050 2051 2062 2063 2064 2065
          2068 2069 2082 2083 2092 2093
          2120 2121 2128 2129 2130 2131
          2134 2135 2146 2147 2160 2161
          2180 2181 2184 2185 2186 2187
          2208 2209 2214 2215 2216 2217
          2230 2231 2234 2235 2248 2249
          2262 2263 2270 2271 2276 2277
          2286 2287 2292 2293 2294 2295
          2296 2297 2302 2303 2304 2305
          2314 2315 2316 2317 2320 2321
          2330 2331 2332 2333 2344 2345
          2354 2355 2362 2363 2366 2367
          2374 2375 2382 2383 2390 2391
          2400 2401 2404 2405 2408 2409
          2410 2411 2412 2413 2414 2415
          2430 2431 2440 2441 2448 2449
          2456 2457 2460 2461 2474 2475
          2486 2487 2494 2495 2498 2499
          2500 2501 2506 2507 2520 2521
          2522 2523 2564 2565 2572 2573
          2578 2579 2586 2587 2592 2593
          2596 2597 2600 2601 2620 2621
          2624 2625 2658 2659 2660 2661
          2670 2671 2688 2689 2694 2695
          2722 2723 2754 2755 2764 2765
          2778 2779 2780 2781 2796 2797
          2824 2825 2832 2833 2846 2847
          2848 2849 2862 2863 2870 2871
          2878 2879 2880 2881 2886 2887
          2902 2903 2930 2931 2940 2941
          2958 2959 2968 2969 2988 2989
          3062 3063 3064 3065 3090 3091
          3106 3107 3132 3133 3138 3139
        </DataArray>
        <DataArray type="Int32" Name="subdomain_id" format="ascii" RangeMin="105" RangeMax="143">
          105 105 105 105 105 105
          105 105 105 105 105 105
          105 105 105 105 105 105
          105 105 105 105 105 105
          105 105 105 105 105 105
          105 105 105 105 105 105
          105 105 105 105 105 105
          105 105 105 105 105 105
          105 105 105 105 105 105
          105 105 105 105 105 105
          105 105 105 105 105 105
          105 105 105 105 105 105
          105 105 105 105 105 105
          105 105 105 105 106 106
          106 106 106 106 106 106
          106 106 106 106 106 106
          106 106 106 106 106 106
          106 106 106 106 106 106
          106 106 106 106 106 106
          106 106 106 106 106 106
          106 106 143 143 143 143
          143 143 143 143 107 107
          107 107 107 107 107 107
          107 107 107 107 107 107
          107 107 107 107 107 107
          107 107 107 107 107 107
          107 107 107 107 107 107
          107 107 107 107 107 107
          107 107 107 107 107 107
          107 107 107 107 107 107
          107 107 107 107 107 107
          107 107 107 107 107 107
          107 107 107 107 107 107
          107 107 107 107 107 107
          107 107 107 107 107 107
          107 107 107 107 107 107
          107 107 107 107 107 107
          107 107 107 107 107 107
          107 107 107 107 107 107
          107 107 107 107 107 107
          107 107 107 107 107 107
          107 107 107 107 107 107
          107 107 107 107 107 107
          107 107 107 107 107 107
          107 107 107 107 107 107
          107 107 107 107 107 107
          107 107 107 107 107 107
          107 107 107 107 107 107
          107 107 107 107 107 107
          107 107 107 107 107 107
          107 107 107 107 107 107
          107 107 107 107 107 107
          107 107 107 107 107 107
          107 107 107 107 107 107
          107 107 107 107 107 107
          107 107 107 107 107 107
          107 107 107 107 107 107
          107 107 107 107 107 107
          107 107 107 107 107 107
          107 107 107 107 107 107
          107 107 107 107 107 107
          107 107 107 107 107 107
          107 107 107 107 107 107
          107 107 107 107 107 107
          107 107 107 107 107 107
          107 107 107 107 107 107
          107 107 107 107 107 107
          107 107 107 107 107 107
          107 107 107 107 107 107
          107 107 107 107 107 107
          107 107 107 107 107 107
          107 107 107 107 107 107
          107 107 107 107 107 107
          107 107 107 107 107 107
          107 107 107 107 107 107
          107 107 107 107 107 107
        </DataArray>
        <DataArray type="Int32" Name="processor_id" format="ascii" RangeMin="4" RangeMax="4">
          4 4 4 4 4 4
          4 4 4 4 4 4
          4 4 4 4 4 4
          4 4 4 4 4 4
          4 4 4 4 4 4
          4 4 4 4 4 4
          4 4 4 4 4 4
          4 4 4 4 4 4
          4 4 4 4 4 4
          4 4 4 4 4 4
          4 4 4 4 4 4
          4 4 4 4 4 4
          4 4 4 4 4 4
          4 4 4 4 4 4
          4 4 4 4 4 4
          4 4 4 4 4 4
          4 4 4 4 4 4
          4 4 4 4 4 4
          4 4 4 4 4 4
          4 4 4 4 4 4
          4 4 4 4 4 4
          4 4 4 4 4 4
          4 4 4 4 4 4
          4 4 4 4 4 4
          4 4 4 4 4 4
          4 4 4 4 4 4
          4 4 4 4 4 4
          4 4 4 4 4 4
          4 4 4 4 4 4
          4 4 4 4 4 4
          4 4 4 4 4 4
          4 4 4 4 4 4
          4 4 4 4 4 4
          4 4 4 4 4 4
          4 4 4 4 4 4
          4 4 4 4 4 4
          4 4 4 4 4 4
          4 4 4 4 4 4
          4 4 4 4 4 4
          4 4 4 4 4 4
          4 4 4 4 4 4
          4 4 4 4 4 4
          4 4 4 4 4 4
          4 4 4 4 4 4
          4 4 4 4 4 4
          4 4 4 4 4 4
          4 4 4 4 4 4
          4 4 4 4 4 4
          4 4 4 4 4 4
          4 4 4 4 4 4
          4 4 4 4 4 4
          4 4 4 4 4 4
          4 4 4 4 4 4
          4 4 4 4 4 4
          4 4 4 4 4 4
          4 4 4 4 4 4
          4 4 4 4 4 4
          4 4 4 4 4 4
          4 4 4 4 4 4
          4 4 4 4 4 4
          4 4 4 4 4 4
          4 4 4 4 4 4
          4 4 4 4 4 4
          4 4 4 4 4 4
          4 4 4 4 4 4
          4 4 4 4 4 4
          4 4 4 4 4 4
          4 4 4 4 4 4
          4 4 4 4 4 4
          4 4 4 4 4 4
          4 4 4 4 4 4
          4 4 4 4 4 4
          4 4 4 4 4 4
          4 4 4 4 4 4
          4 4 4 4 4 4
          4 4 4 4 4 4
        </DataArray>
      </CellData>
      <Points>
        <DataArray type="Float64" Name="Points" NumberOfComponents="3" format="ascii" RangeMin="0.009206309225653747" RangeMax="0.01648243122598367">
          0.005 0.0086896551724064 0 0.005 0.0086896551724064 0.00015
          0.005 0.0086896551724064 0.0003 0.0045555555555561 0.0091034482758539 0
          0.0045555555555561 0.0091034482758539 0.00015 0.0045555555555561 0.0091034482758539 0.0003
          0.005 0.0091034482758539 0 0.005 0.0091034482758539 0.00015
          0.005 0.0091034482758539 0.0003 0.0023333333333353 0.0095172413793029 0
          0.0023333333333353 0.0095172413793029 0.00015 0.0023333333333353 0.0095172413793029 0.0003
          0.0027777777777802 0.0095172413793029 0 0.0027777777777802 0.0095172413793029 0.00015
          0.0027777777777802 0.0095172413793029 0.0003 0.0032222222222248 0.0095172413793029 0
          0.0032222222222248 0.0095172413793029 0.00015 0.0032222222222248 0.0095172413793029 0.0003
          0.0036666666666675 0.0095172413793029 0 0.0036666666666675 0.0095172413793029 0.00015
          0.0036666666666675 0.0095172413793029 0.0003 0.0041111111111126 0.0095172413793029 0
          0.0041111111111126 0.0095172413793029 0.00015 0.0041111111111126 0.0095172413793029 0.0003
          0.0045555555555561 0.0095172413793029 0 0.0045555555555561 0.0095172413793029 0.00015
          0.0045555555555561 0.0095172413793029 0.0003 0.005 0.0095172413793029 0
          0.005 0.0095172413793029 0.00015 0.005 0.0095172413793029 0.0003
          0.0023333333333355 0.0099310344827529 0 0.0023333333333355 0.0099310344827529 0.00015
          0.0023333333333355 0.0099310344827529 0.0003 0.0027777777777806 0.0099310344827529 0
          0.0027777777777806 0.0099310344827529 0.00015 0.0027777777777806 0.0099310344827529 0.0003
          0.0032222222222251 0.0099310344827529 0 0.0032222222222251 0.0099310344827529 0.00015
          0.0032222222222251 0.0099310344827529 0.0003 0.0036666666666677 0.0099310344827529 0
          0.0036666666666677 0.0099310344827529 0.00015 0.0036666666666677 0.0099310344827529 0.0003
          0.0041111111111127 0.0099310344827529 0 0.0041111111111127 0.0099310344827529 0.00015
          0.0041111111111127 0.0099310344827529 0.0003 0.0045555555555561 0.0099310344827529 0
          0.0045555555555561 0.0099310344827529 0.00015 0.0045555555555561 0.0099310344827529 0.0003
          0.005 0.0099310344827529 0 0.005 0.0099310344827529 0.00015
          0.005 0.0099310344827529 0.0003 0.0018888888888904 0.010344827586203 0
          0.0018888888888904 0.010344827586203 0.00015 0.0018888888888904 0.010344827586203 0.0003
          0.0023333333333357 0.010344827586203 0 0.0023333333333357 0.010344827586203 0.00015
          0.0023333333333357 0.010344827586203 0.0003 0.0027777777777809 0.010344827586203 0
          0.0027777777777809 0.010344827586203 0.00015 0.0027777777777809 0.010344827586203 0.0003
          0.0032222222222255 0.010344827586203 0 0.0032222222222255 0.010344827586203 0.00015
          0.0032222222222255 0.010344827586203 0.0003 0.0036666666666679 0.010344827586203 0
          0.0036666666666679 0.010344827586203 0.00015 0.0036666666666679 0.010344827586203 0.0003
          0.0041111111111129 0.010344827586203 0 0.0041111111111129 0.010344827586203 0.00015
          0.0041111111111129 0.010344827586203 0.0003 0.0045555555555562 0.010344827586203 0
          0.0045555555555562 0.010344827586203 0.00015 0.0045555555555562 0.010344827586203 0.0003
          0.005 0.010344827586203 0 0.005 0.010344827586203 0.00015
          0.005 0.010344827586203 0.0003 0.0018888888888905 0.010758620689653 0
          0.0018888888888905 0.010758620689653 0.00015 0.0018888888888905 0.010758620689653 0.0003
          0.0023333333333359 0.010758620689653 0 0.0023333333333359 0.010758620689653 0.00015
          0.0023333333333359 0.010758620689653 0.0003 0.0027777777777812 0.010758620689653 0
          0.0027777777777812 0.010758620689653 0.00015 0.0027777777777812 0.010758620689653 0.0003
          0.0032222222222258 0.010758620689653 0 0.0032222222222258 0.010758620689653 0.00015
          0.0032222222222258 0.010758620689653 0.0003 0.0036666666666681 0.010758620689653 0
          0.0036666666666681 0.010758620689653 0.00015 0.0036666666666681 0.010758620689653 0.0003
          0.004111111111113 0.010758620689653 0 0.004111111111113 0.010758620689653 0.00015
          0.004111111111113 0.010758620689653 0.0003 0.0045555555555562 0.010758620689653 0
          0.0045555555555562 0.010758620689653 0.00015 0.0045555555555562 0.010758620689653 0.0003
          0.005 0.010758620689653 0 0.005 0.010758620689653 0.00015
          0.005 0.010758620689653 0.0003 0.0018888888888907 0.0111724137931 0
          0.0018888888888907 0.0111724137931 0.00015 0.0018888888888907 0.0111724137931 0.0003
          0.002333333333336 0.0111724137931 0 0.002333333333336 0.0111724137931 0.00015
          0.002333333333336 0.0111724137931 0.0003 0.0027777777777815 0.0111724137931 0
          0.0027777777777815 0.0111724137931 0.00015 0.0027777777777815 0.0111724137931 0.0003
          0.0032222222222261 0.0111724137931 0 0.0032222222222261 0.0111724137931 0.00015
          0.0032222222222261 0.0111724137931 0.0003 0.0036666666666682 0.0111724137931 0
          0.0036666666666682 0.0111724137931 0.00015 0.0036666666666682 0.0111724137931 0.0003
          0.0041111111111132 0.0111724137931 0 0.0041111111111132 0.0111724137931 0.00015
          0.0041111111111132 0.0111724137931 0.0003 0.0045555555555562 0.0111724137931 0
          0.0045555555555562 0.0111724137931 0.00015 0.0045555555555562 0.0111724137931 0.0003
          0.005 0.0111724137931 0 0.005 0.0111724137931 0.00015
          0.005 0.0111724137931 0.0003 0.0018888888888908 0.01158620689655 0
          0.0018888888888908 0.01158620689655 0.00015 0.0018888888888908 0.01158620689655 0.0003
          0.0023333333333362 0.01158620689655 0 0.0023333333333362 0.01158620689655 0.00015
          0.0023333333333362 0.01158620689655 0.0003 0.0027777777777818 0.01158620689655 0
          0.0027777777777818 0.01158620689655 0.00015 0.0027777777777818 0.01158620689655 0.0003
          0.0032222222222264 0.01158620689655 0 0.0032222222222264 0.01158620689655 0.00015
          0.0032222222222264 0.01158620689655 0.0003 0.0036666666666684 0.01158620689655 0
          0.0036666666666684 0.01158620689655 0.00015 0.0036666666666684 0.01158620689655 0.0003
          0.0041111111111133 0.01158620689655 0 0.0041111111111133 0.01158620689655 0.00015
          0.0041111111111133 0.01158620689655 0.0003 0.0045555555555563 0.01158620689655 0
          0.0045555555555563 0.01158620689655 0.00015 0.0045555555555563 0.01158620689655 0.0003
          0.005 0.01158620689655 0 0.005 0.01158620689655 0.00015
          0.005 0.01158620689655 0.0003 0.0018888888888909 0.012 0
          0.0018888888888909 0.012 0.00015 0.0018888888888909 0.012 0.0003
          0.0023333333333364 0.012 0 0.0023333333333364 0.012 0.00015
          0.0023333333333364 0.012 0.0003 0.0027777777777821 0.012 0
          0.0027777777777821 0.012 0.00015 0.0027777777777821 0.012 0.0003
          0.0032222222222267 0.012 0 0.0032222222222267 0.012 0.00015
          0.0032222222222267 0.012 0.0003 0.0036666666666686 0.012 0
          0.0036666666666686 0.012 0.00015 0.0036666666666686 0.012 0.0003
          0.0041111111111135 0.012 0 0.0041111111111135 0.012 0.00015
          0.0041111111111135 0.012 0.0003 0.0045555555555563 0.012 0
          0.0045555555555563 0.012 0.00015 0.0045555555555563 0.012 0.0003
          0.005 0.012 0 0.005 0.012 0.00015
          0.005 0.012 0.0003 0.0037820013226837 0.012336480560236 0
          0.004185794034024 0.012345264070133 0 0.0042342826387353 0.012652901224832 0
          0.0038676442772706 0.012640465852933 0 0.0037820013226837 0.012336480560236 0.00015
          0.004185794034024 0.012345264070133 0.00015 0.0042342826387353 0.012652901224832 0.00015
          0.0038676442772706 0.012640465852933 0.00015 0.0037820013226837 0.012336480560236 0.0003
          0.004185794034024 0.012345264070133 0.0003 0.0042342826387353 0.012652901224832 0.0003
          0.0038676442772706 0.012640465852933 0.0003 0.0025889714655165 0.012382221976315 0
          0.0025681692138844 0.01272809974993 0 0.0020604062010233 0.012679406151259 0
          0.0021948734460593 0.012348192846391 0 0.0025889714655165 0.012382221976315 0.00015
          0.0025681692138844 0.01272809974993 0.00015 0.0020604062010233 0.012679406151259 0.00015
          0.0021948734460593 0.012348192846391 0.00015 0.0025889714655165 0.012382221976315 0.0003
          0.0025681692138844 0.01272809974993 0.0003 0.0020604062010233 0.012679406151259 0.0003
          0.0021948734460593 0.012348192846391 0.0003 0.0029921846324185 0.012381457466683 0
          0.0030781171064664 0.012687491868191 0 0.0029921846324185 0.012381457466683 0.00015
          0.0030781171064664 0.012687491868191 0.00015 0.0029921846324185 0.012381457466683 0.0003
          0.0030781171064664 0.012687491868191 0.0003 0.0035064061826528 0.012674722493539 0
          0.0033673902656471 0.012343623774248 0 0.0035064061826528 0.012674722493539 0.00015
          0.0033673902656471 0.012343623774248 0.00015 0.0035064061826528 0.012674722493539 0.0003
          0.0033673902656471 0.012343623774248 0.0003 0.0045893247731344 0.012399526217393 0
          0.004557077400537 0.01272310643902 0 0.0045893247731344 0.012399526217393 0.00015
          0.004557077400537 0.01272310643902 0.00015 0.0045893247731344 0.012399526217393 0.0003
          0.004557077400537 0.01272310643902 0.0003 0.0017386847932316 0.012348636106575 0
          0.001702980389272 0.012655949584096 0 0.0017386847932316 0.012348636106575 0.00015
          0.001702980389272 0.012655949584096 0.00015 0.0017386847932316 0.012348636106575 0.0003
          0.001702980389272 0.012655949584096 0.0003 0.0045555555555563 0.013 0
          0.0041111111111135 0.013 0 0.0045555555555563 0.013 0.00015
          0.0041111111111135 0.013 0.00015 0.0045555555555563 0.013 0.0003
          0.0041111111111135 0.013 0.0003 0.005 0.012499999999989 0
          0.005 0.012499999999989 0.00015 0.005 0.012499999999989 0.0003
          0.0018888888888909 0.013 0 0.0018888888888909 0.013 0.00015
          0.0018888888888909 0.013 0.0003 0.0023333333333364 0.013 0
          0.0023333333333364 0.013 0.00015 0.0023333333333364 0.013 0.0003
          0.0027777777777821 0.013 0 0.0032222222222267 0.013 0
          0.0027777777777821 0.013 0.00015 0.0032222222222267 0.013 0.00015
          0.0027777777777821 0.013 0.0003 0.0032222222222267 0.013 0.0003
          0.0036666666666686 0.013 0 0.0036666666666686 0.013 0.00015
          0.0036666666666686 0.013 0.0003 0.005 0.013 0
          0.005 0.013 0.00015 0.005 0.013 0.0003
          0.0058653844060618 0.0079194158644502 0 0.0058653844060618 0.0079194158644502 0.00015
          0.0058653844060618 0.0079194158644502 0.0003 0.0054092385319303 0.011645775400863 0
          0.0053833488776842 0.01122289251627 0 0.0057681451700529 0.011227839215398 0
          0.0058121034548515 0.011664867476358 0 0.0054092385319303 0.011645775400863 0.00015
          0.0053833488776842 0.01122289251627 0.00015 0.0057681451700529 0.011227839215398 0.00015
          0.0058121034548515 0.011664867476358 0.00015 0.0054092385319303 0.011645775400863 0.0003
          0.0053833488776842 0.01122289251627 0.0003 0.0057681451700529 0.011227839215398 0.0003
          0.0058121034548515 0.011664867476358 0.0003 0.0061750164335738 0.0074760206739226 0
          0.0061750164335738 0.0074760206739226 0.00015 0.0061750164335738 0.0074760206739226 0.0003
          0.0059117305299751 0.012157336766967 0 0.005424823391927 0.012092657417535 0
          0.0059117305299751 0.012157336766967 0.00015 0.005424823391927 0.012092657417535 0.00015
          0.0059117305299751 0.012157336766967 0.0003 0.005424823391927 0.012092657417535 0.0003
          0.0067343691031854 0.0082749920647978 0 0.0064165220606644 0.0085260954574503 0
          0.0061549788754448 0.0084621147205563 0 0.0063465715243025 0.0080645757596712 0
          0.0067343691031854 0.0082749920647978 0.00015 0.0064165220606644 0.0085260954574503 0.00015
          0.0061549788754448 0.0084621147205563 0.00015 0.0063465715243025 0.0080645757596712 0.00015
          0.0067343691031854 0.0082749920647978 0.0003 0.0064165220606644 0.0085260954574503 0.0003
          0.0061549788754448 0.0084621147205563 0.0003 0.0063465715243025 0.0080645757596712 0.0003
          0.0057156085606184 0.010806935576218 0 0.0053556270258422 0.010821833746382 0
          0.0057156085606184 0.010806935576218 0.00015 0.0053556270258422 0.010821833746382 0.00015
          0.0057156085606184 0.010806935576218 0.0003 0.0053556270258422 0.010821833746382 0.0003
          0.0066683322798844 0.007604545062767 0 0.0070645065688863 0.0079329639302151 0
          0.0066683322798844 0.007604545062767 0.00015 0.0070645065688863 0.0079329639302151 0.00015
          0.0066683322798844 0.007604545062767 0.0003 0.0070645065688863 0.0079329639302151 0.0003
          0.0064939459679252 0.012038015964773 0 0.0063228400853618 0.012437164584428 0
          0.0062168099714575 0.011953445524179 0 0.0064939459679252 0.012038015964773 0.00015
          0.0063228400853618 0.012437164584428 0.00015 0.0062168099714575 0.011953445524179 0.00015
          0.0064939459679252 0.012038015964773 0.0003 0.0063228400853618 0.012437164584428 0.0003
          0.0062168099714575 0.011953445524179 0.0003 0.0085394683783431 0.010062707851298 0
          0.0089610661825476 0.0099263712092025 0 0.0091044702108566 0.010399281799278 0
          0.0086466489465924 0.010543823526793 0 0.0085394683783431 0.010062707851298 0.00015
          0.0089610661825476 0.0099263712092025 0.00015 0.0091044702108566 0.010399281799278 0.00015
          0.0086466489465924 0.010543823526793 0.00015 0.0085394683783431 0.010062707851298 0.0003
          0.0089610661825476 0.0099263712092025 0.0003 0.0091044702108566 0.010399281799278 0.0003
          0.0086466489465924 0.010543823526793 0.0003 0.0070988195317831 0.0084027120924791 0
          0.0071605082668525 0.0086998196459927 0 0.0067922174506807 0.0087792626202703 0
          0.0070988195317831 0.0084027120924791 0.00015 0.0071605082668525 0.0086998196459927 0.00015
          0.0067922174506807 0.0087792626202703 0.00015 0.0070988195317831 0.0084027120924791 0.0003
          0.0071605082668525 0.0086998196459927 0.0003 0.0067922174506807 0.0087792626202703 0.0003
          0.0082212914374119 0.0076937845711927 0 0.0086800066977864 0.007743247126247 0
          0.0088477729813042 0.00814241905886 0 0.0083314775318771 0.0082316914297717 0
          0.0082212914374119 0.0076937845711927 0.00015 0.0086800066977864 0.007743247126247 0.00015
          0.0088477729813042 0.00814241905886 0.00015 0.0083314775318771 0.0082316914297717 0.00015
          0.0082212914374119 0.0076937845711927 0.0003 0.0086800066977864 0.007743247126247 0.0003
          0.0088477729813042 0.00814241905886 0.0003 0.0083314775318771 0.0082316914297717 0.0003
          0.0053430701544214 0.010541301697294 0 0.0055999206723275 0.01043253025418 0
          0.0053430701544214 0.010541301697294 0.00015 0.0055999206723275 0.01043253025418 0.00015
          0.0053430701544214 0.010541301697294 0.0003 0.0055999206723275 0.01043253025418 0.0003
          0.0082934157409751 0.011625007594535 0 0.0082561968973057 0.011128478524087 0
          0.0087259762319724 0.011059252375005 0 0.0087558560903097 0.01158375342748 0
          0.0082934157409751 0.011625007594535 0.00015 0.0082561968973057 0.011128478524087 0.00015
          0.0087259762319724 0.011059252375005 0.00015 0.0087558560903097 0.01158375342748 0.00015
          0.0082934157409751 0.011625007594535 0.0003 0.0082561968973057 0.011128478524087 0.0003
          0.0087259762319724 0.011059252375005 0.0003 0.0087558560903097 0.01158375342748 0.0003
          0.0059886023840467 0.010204624020488 0 0.005451541046517 0.010106162675601 0
          0.0057038380696848 0.0099786893665285 0 0.0059886023840467 0.010204624020488 0.00015
          0.005451541046517 0.010106162675601 0.00015 0.0057038380696848 0.0099786893665285 0.00015
          0.0059886023840467 0.010204624020488 0.0003 0.005451541046517 0.010106162675601 0.0003
          0.0057038380696848 0.0099786893665285 0.0003 0.0078369912454539 0.011665931946432 0
          0.0078144148304188 0.011182309200361 0 0.0078369912454539 0.011665931946432 0.00015
          0.0078144148304188 0.011182309200361 0.00015 0.0078369912454539 0.011665931946432 0.0003
          0.0078144148304188 0.011182309200361 0.0003 0.0086735759699153 0.012550377000034 0
          0.0087327775394086 0.012086203404192 0 0.0091819131238462 0.012082911785298 0
          0.0091730578335362 0.01253941989127 0 0.0086735759699153 0.012550377000034 0.00015
          0.0087327775394086 0.012086203404192 0.00015 0.0091819131238462 0.012082911785298 0.00015
          0.0091730578335362 0.01253941989127 0.00015 0.0086735759699153 0.012550377000034 0.0003
          0.0087327775394086 0.012086203404192 0.0003 0.0091819131238462 0.012082911785298 0.0003
          0.0091730578335362 0.01253941989127 0.0003 0.010056105947498 0.011950542930398 0
          0.010274327777913 0.011549885364188 0 0.010056105947498 0.011950542930398 0.00015
          0.010274327777913 0.011549885364188 0.00015 0.010056105947498 0.011950542930398 0.0003
          0.010274327777913 0.011549885364188 0.0003 0.0087795014641276 0.0086485955844896 0
          0.0083912374962093 0.008661976024637 0 0.0087795014641276 0.0086485955844896 0.00015
          0.0083912374962093 0.008661976024637 0.00015 0.0087795014641276 0.0086485955844896 0.0003
          0.0083912374962093 0.008661976024637 0.0003 0.0073407145553935 0.0082277946262138 0
          0.0075218701602762 0.0085641736532836 0 0.0073407145553935 0.0082277946262138 0.00015
          0.0075218701602762 0.0085641736532836 0.00015 0.0073407145553935 0.0082277946262138 0.0003
          0.0075218701602762 0.0085641736532836 0.0003 0.0073357310625303 0.010250124356937 0
          0.0069197896843151 0.010226005241683 0 0.0068905371289043 0.0097153304797672 0
          0.0074001182371208 0.0096888945892578 0 0.0073357310625303 0.010250124356937 0.00015
          0.0069197896843151 0.010226005241683 0.00015 0.0068905371289043 0.0097153304797672 0.00015
          0.0074001182371208 0.0096888945892578 0.00015 0.0073357310625303 0.010250124356937 0.0003
          0.0069197896843151 0.010226005241683 0.0003 0.0068905371289043 0.0097153304797672 0.0003
          0.0074001182371208 0.0096888945892578 0.0003 0.0081958803856553 0.010639401227375 0
          0.0081958803856553 0.010639401227375 0.00015 0.0081958803856553 0.010639401227375 0.0003
          0.0057785311780113 0.0084598603588589 0 0.0057785311780113 0.0084598603588589 0.00015
          0.0057785311780113 0.0084598603588589 0.0003 0.0068354780286894 0.0065149558629347 0
          0.0065694481807909 0.0068273110654121 0 0.0068354780286894 0.0065149558629347 0.00015
          0.0065694481807909 0.0068273110654121 0.00015 0.0068354780286894 0.0065149558629347 0.0003
          0.0065694481807909 0.0068273110654121 0.0003 0.0061608287914901 0.011213609336371 0
          0.0061928612734976 0.011646193292464 0 0.0061608287914901 0.011213609336371 0.00015
          0.0061928612734976 0.011646193292464 0.00015 0.0061608287914901 0.011213609336371 0.0003
          0.0061928612734976 0.011646193292464 0.0003 0.0060256410256453 0.013 0
          0.0057791181770977 0.012558961975135 0 0.0060256410256453 0.013 0.00015
          0.0057791181770977 0.012558961975135 0.00015 0.0060256410256453 0.013 0.0003
          0.0057791181770977 0.012558961975135 0.0003 0.0061071771839093 0.010748184383761 0
          0.0061071771839093 0.010748184383761 0.00015 0.0061071771839093 0.010748184383761 0.0003
          0.0064845320073614 0.010216336118065 0 0.0065278935143817 0.010725783571784 0
          0.0064845320073614 0.010216336118065 0.00015 0.0065278935143817 0.010725783571784 0.00015
          0.0064845320073614 0.010216336118065 0.0003 0.0065278935143817 0.010725783571784 0.0003
          0.0077968354342878 0.012121840026842 0 0.0077167513193965 0.012573751507337 0
          0.0072251022123942 0.012571145425366 0 0.0073422863282366 0.012132364188728 0
          0.0077968354342878 0.012121840026842 0.00015 0.0077167513193965 0.012573751507337 0.00015
          0.0072251022123942 0.012571145425366 0.00015 0.0073422863282366 0.012132364188728 0.00015
          0.0077968354342878 0.012121840026842 0.0003 0.0077167513193965 0.012573751507337 0.0003
          0.0072251022123942 0.012571145425366 0.0003 0.0073422863282366 0.012132364188728 0.0003
          0.0072550033809581 0.0091349332579085 0 0.0076541519095837 0.0089672912460138 0
          0.0072550033809581 0.0091349332579085 0.00015 0.0076541519095837 0.0089672912460138 0.00015
          0.0072550033809581 0.0091349332579085 0.0003 0.0076541519095837 0.0089672912460138 0.0003
          0.0065384615384679 0.013 0 0.0067552646820212 0.012548340065985 0
          0.007051282051287 0.013 0 0.0065384615384679 0.013 0.00015
          0.0067552646820212 0.012548340065985 0.00015 0.007051282051287 0.013 0.00015
          0.0065384615384679 0.013 0.0003 0.0067552646820212 0.012548340065985 0.0003
          0.007051282051287 0.013 0.0003 0.0068431084681841 0.0092248064360522 0
          0.0064629827835734 0.0097214310503871 0 0.0064401841603361 0.009249995775159 0
          0.0068431084681841 0.0092248064360522 0.00015 0.0064629827835734 0.0097214310503871 0.00015
          0.0064401841603361 0.009249995775159 0.00015 0.0068431084681841 0.0092248064360522 0.0003
          0.0064629827835734 0.0097214310503871 0.0003 0.0064401841603361 0.009249995775159 0.0003
          0.0078142698619037 0.0093821750433109 0 0.0078142698619037 0.0093821750433109 0.00015
          0.0078142698619037 0.0093821750433109 0.0003 0.0064227954769353 0.0088235452462607 0
          0.0064227954769353 0.0088235452462607 0.00015 0.0064227954769353 0.0088235452462607 0.0003
          0.0060749446210727 0.008846093909968 0 0.0060643722245677 0.0092551370126649 0
          0.0060749446210727 0.008846093909968 0.00015 0.0060643722245677 0.0092551370126649 0.00015
          0.0060749446210727 0.008846093909968 0.0003 0.0060643722245677 0.0092551370126649 0.0003
          0.0065702926001918 0.011654169374977 0 0.006566373886869 0.011214840249119 0
          0.0065702926001918 0.011654169374977 0.00015 0.006566373886869 0.011214840249119 0.00015
          0.0065702926001918 0.011654169374977 0.0003 0.006566373886869 0.011214840249119 0.0003
          0.0093206781870799 0.010991873758601 0 0.0093206781870799 0.010991873758601 0.00015
          0.0093206781870799 0.010991873758601 0.0003 0.0063586074578252 0.0071353312088165 0
          0.0066361392369192 0.0072470897144222 0 0.0063586074578252 0.0071353312088165 0.00015
          0.0066361392369192 0.0072470897144222 0.00015 0.0063586074578252 0.0071353312088165 0.0003
          0.0066361392369192 0.0072470897144222 0.0003 0.0070635342364542 0.0061542378287001 0
          0.0070635342364542 0.0061542378287001 0.00015 0.0070635342364542 0.0061542378287001 0.0003
          0.010295501843898 0.0098988447327244 0 0.010331968632679 0.010177975560165 0
          0.0100990439633 0.010345969653311 0 0.0099255608427027 0.010003443747144 0
          0.010295501843898 0.0098988447327244 0.00015 0.010331968632679 0.010177975560165 0.00015
          0.0100990439633 0.010345969653311 0.00015 0.0099255608427027 0.010003443747144 0.00015
          0.010295501843898 0.0098988447327244 0.0003 0.010331968632679 0.010177975560165 0.0003
          0.0100990439633 0.010345969653311 0.0003 0.0099255608427027 0.010003443747144 0.0003
          0.0075641025641077 0.013 0 0.0075641025641077 0.013 0.00015
          0.0075641025641077 0.013 0.0003 0.007358052416256 0.010740056955422 0
          0.0069470918478694 0.010735576046615 0 0.007358052416256 0.010740056955422 0.00015
          0.0069470918478694 0.010735576046615 0.00015 0.007358052416256 0.010740056955422 0.0003
          0.0069470918478694 0.010735576046615 0.0003 0.0060634003212644 0.00969554800092 0
          0.0060634003212644 0.00969554800092 0.00015 0.0060634003212644 0.00969554800092 0.0003
          0.0068797309840753 0.0070620910964483 0 0.0071475509773245 0.0073405239650904 0
          0.0068797309840753 0.0070620910964483 0.00015 0.0071475509773245 0.0073405239650904 0.00015
          0.0068797309840753 0.0070620910964483 0.0003 0.0071475509773245 0.0073405239650904 0.0003
          0.0094632087818517 0.0081862945076399 0 0.0094632087818517 0.0081862945076399 0.00015
          0.0094632087818517 0.0081862945076399 0.0003 0.0091025641025756 0.013 0
          0.0097400134531557 0.012425583162504 0 0.0096153846153981 0.013 0
          0.0091025641025756 0.013 0.00015 0.0097400134531557 0.012425583162504 0.00015
          0.0096153846153981 0.013 0.00015 0.0091025641025756 0.013 0.0003
          0.0097400134531557 0.012425583162504 0.0003 0.0096153846153981 0.013 0.0003
          0.0080231150782377 0.0087799001252051 0 0.0081700325353194 0.0091480386714452 0
          0.0080231150782377 0.0087799001252051 0.00015 0.0081700325353194 0.0091480386714452 0.00015
          0.0080231150782377 0.0087799001252051 0.0003 0.0081700325353194 0.0091480386714452 0.0003
          0.0095329104644106 0.010197774343332 0 0.0097620082938393 0.010606176712681 0
          0.0095329104644106 0.010197774343332 0.00015 0.0097620082938393 0.010606176712681 0.00015
          0.0095329104644106 0.010197774343332 0.0003 0.0097620082938393 0.010606176712681 0.0003
          0.008459458524824 0.0095324383395712 0 0.0079941048127097 0.0097727986382514 0
          0.008459458524824 0.0095324383395712 0.00015 0.0079941048127097 0.0097727986382514 0.00015
          0.008459458524824 0.0095324383395712 0.0003 0.0079941048127097 0.0097727986382514 0.0003
          0.0086852410268287 0.0090671784981495 0 0.0084121010432185 0.0089624922946051 0
          0.0086852410268287 0.0090671784981495 0.00015 0.0084121010432185 0.0089624922946051 0.00015
          0.0086852410268287 0.0090671784981495 0.0003 0.0084121010432185 0.0089624922946051 0.0003
          0.010101546658348 0.010930204106287 0 0.010101546658348 0.010930204106287 0.00015
          0.010101546658348 0.010930204106287 0.0003 0.009219770580739 0.01160836207586 0
          0.009219770580739 0.01160836207586 0.00015 0.009219770580739 0.01160836207586 0.0003
          0.010512959331867 0.011182607317474 0 0.010512959331867 0.011182607317474 0.00015
          0.010512959331867 0.011182607317474 0.0003 0.0077135351973544 0.0099243016659867 0
          0.0077135351973544 0.0099243016659867 0.00015 0.0077135351973544 0.0099243016659867 0.0003
          0.0098399724462143 0.011314297129672 0 0.0098399724462143 0.011314297129672 0.00015
          0.0098399724462143 0.011314297129672 0.0003 0.0071955324717728 0.0067909271139751 0
          0.0071955324717728 0.0067909271139751 0.00015 0.0071955324717728 0.0067909271139751 0.0003
          0.0081933420545987 0.012561933470251 0 0.0082754308174791 0.012106448253662 0
          0.0081933420545987 0.012561933470251 0.00015 0.0082754308174791 0.012106448253662 0.00015
          0.0081933420545987 0.012561933470251 0.0003 0.0082754308174791 0.012106448253662 0.0003
          0.0091885294783446 0.0083400759786555 0 0.009185366627384 0.008676208234384 0
          0.0091885294783446 0.0083400759786555 0.00015 0.009185366627384 0.008676208234384 0.00015
          0.0091885294783446 0.0083400759786555 0.0003 0.009185366627384 0.008676208234384 0.0003
          0.0091484396571168 0.0092413935725907 0 0.0091484396571168 0.0092413935725907 0.00015
          0.0091484396571168 0.0092413935725907 0.0003 0.0096530361744126 0.011754958706862 0
          0.0096530361744126 0.011754958706862 0.00015 0.0096530361744126 0.011754958706862 0.0003
          0.0074385983748104 0.0076487872335333 0 0.0078026145042184 0.0073499712891003 0
          0.0077209126941719 0.0079857422349365 0 0.0074385983748104 0.0076487872335333 0.00015
          0.0078026145042184 0.0073499712891003 0.00015 0.0077209126941719 0.0079857422349365 0.00015
          0.0074385983748104 0.0076487872335333 0.0003 0.0078026145042184 0.0073499712891003 0.0003
          0.0077209126941719 0.0079857422349365 0.0003 0.0096060866574151 0.0086034051599073 0
          0.0096917093907041 0.0090884547689663 0 0.0096060866574151 0.0086034051599073 0.00015
          0.0096917093907041 0.0090884547689663 0.00015 0.0096060866574151 0.0086034051599073 0.0003
          0.0096917093907041 0.0090884547689663 0.0003 0.0074956671905203 0.0070789212715492 0
          0.0074956671905203 0.0070789212715492 0.00015 0.0074956671905203 0.0070789212715492 0.0003
          0.0080769230769304 0.013 0 0.0080769230769304 0.013 0.00015
          0.0080769230769304 0.013 0.0003 0.0097960013481072 0.0095766790072516 0
          0.0097960013481072 0.0095766790072516 0.00015 0.0097960013481072 0.0095766790072516 0.0003
          0.0079025965714766 0.0083828176281282 0 0.0079025965714766 0.0083828176281282 0.00015
          0.0079025965714766 0.0083828176281282 0.0003 0.0075832963246375 0.0064815260672887 0
          0.0075832963246375 0.0064815260672887 0.00015 0.0075832963246375 0.0064815260672887 0.0003
          0.0077301559610225 0.010254379585944 0 0.0077301559610225 0.010254379585944 0.00015
          0.0077301559610225 0.010254379585944 0.0003 0.0077729216102883 0.010708725243031 0
          0.0077729216102883 0.010708725243031 0.00015 0.0077729216102883 0.010708725243031 0.0003
          0.0053754057810206 0.0085370600870078 0 0.0053754057810206 0.0085370600870078 0.00015
          0.0053754057810206 0.0085370600870078 0.0003 0.0053590367872451 0.0089652268696161 0
          0.0053590367872451 0.0089652268696161 0.00015 0.0053590367872451 0.0089652268696161 0.0003
          0.0077314143265107 0.0068791993815975 0 0.0077314143265107 0.0068791993815975 0.00015
          0.0077314143265107 0.0068791993815975 0.0003 0.0053527694027008 0.0093707431616054 0
          0.0053527694027008 0.0093707431616054 0.00015 0.0053527694027008 0.0093707431616054 0.0003
          0.0080272182678723 0.0070086219794164 0 0.0080272182678723 0.0070086219794164 0.00015
          0.0080272182678723 0.0070086219794164 0.0003 0.0053686841699875 0.0097656204902227 0
          0.0053686841699875 0.0097656204902227 0.00015 0.0053686841699875 0.0097656204902227 0.0003
          0.0069753270353201 0.011225035595701 0 0.0069753270353201 0.011225035595701 0.00015
          0.0069753270353201 0.011225035595701 0.0003 0.0081230348422786 0.010180774741819 0
          0.0081230348422786 0.010180774741819 0.00015 0.0081230348422786 0.010180774741819 0.0003
          0.0069714542407681 0.011681487349241 0 0.0069714542407681 0.011681487349241 0.00015
          0.0069714542407681 0.011681487349241 0.0003 0.0073877269320336 0.011214628569732 0
          0.0073877269320336 0.011214628569732 0.00015 0.0073877269320336 0.011214628569732 0.0003
          0.0073992085993983 0.011689991378362 0 0.0073992085993983 0.011689991378362 0.00015
          0.0073992085993983 0.011689991378362 0.0003 0.0088599825232994 0.0095868605102716 0
          0.0088599825232994 0.0095868605102716 0.00015 0.0088599825232994 0.0095868605102716 0.0003
          0.0093698999071837 0.0097470513643601 0 0.0093698999071837 0.0097470513643601 0.00015
          0.0093698999071837 0.0097470513643601 0.0003 0.005708830284701 0.0092938500467527 0
          0.005710003284826 0.0096895337898706 0 0.005708830284701 0.0092938500467527 0.00015
          0.005710003284826 0.0096895337898706 0.00015 0.005708830284701 0.0092938500467527 0.0003
          0.005710003284826 0.0096895337898706 0.0003 0.0057253261942579 0.008884797777202 0
          0.0057253261942579 0.008884797777202 0.00015 0.0057253261942579 0.008884797777202 0.0003
          0.0054465956081518 0.012540682824845 0 0.0055128205128226 0.013 0
          0.0054465956081518 0.012540682824845 0.00015 0.0055128205128226 0.013 0.00015
          0.0054465956081518 0.012540682824845 0.0003 0.0055128205128226 0.013 0.0003
          0.0095150035075373 0.012074113937236 0 0.0095150035075373 0.012074113937236 0.00015
          0.0095150035075373 0.012074113937236 0.0003 0.008589743589753 0.013 0
          0.008589743589753 0.013 0.00015 0.008589743589753 0.013 0.0003
          0.0068932543961937 0.012102712522565 0 0.0068932543961937 0.012102712522565 0.00015
          0.0068932543961937 0.012102712522565 0.0003 0.010475172867508 0.012102844227475 0
          0.010669582432454 0.011743114144408 0 0.010475172867508 0.012102844227475 0.00015
          0.010669582432454 0.011743114144408 0.00015 0.010475172867508 0.012102844227475 0.0003
          0.010669582432454 0.011743114144408 0.0003 0.0098857235699117 0.0079055319030787 0
          0.0092411258002763 0.0078319639415625 0 0.0095144479526816 0.0076594245921199 0
          0.0098857235699117 0.0079055319030787 0.00015 0.0092411258002763 0.0078319639415625 0.00015
          0.0095144479526816 0.0076594245921199 0.00015 0.0098857235699117 0.0079055319030787 0.0003
          0.0092411258002763 0.0078319639415625 0.0003 0.0095144479526816 0.0076594245921199 0.0003
          0.010385522435479 0.010608007769118 0 0.010385522435479 0.010608007769118 0.00015
          0.010385522435479 0.010608007769118 0.0003 0.010783127360108 0.010836567412064 0
          0.010783127360108 0.010836567412064 0.00015 0.010783127360108 0.010836567412064 0.0003
          0.010310686327751 0.012539165738252 0 0.010128205128219 0.013 0
          0.010310686327751 0.012539165738252 0.00015 0.010128205128219 0.013 0.00015
          0.010310686327751 0.012539165738252 0.0003 0.010128205128219 0.013 0.0003
          0.011222013645511 0.011097826594996 0 0.010925822172272 0.011428925131881 0
          0.011222013645511 0.011097826594996 0.00015 0.010925822172272 0.011428925131881 0.00015
          0.011222013645511 0.011097826594996 0.0003 0.010925822172272 0.011428925131881 0.0003
          0.010158980545183 0.0089928081418126 0 0.010234809282542 0.0094751596931164 0
          0.010158980545183 0.0089928081418126 0.00015 0.010234809282542 0.0094751596931164 0.00015
          0.010158980545183 0.0089928081418126 0.0003 0.010234809282542 0.0094751596931164 0.0003
          0.010689703280164 0.0094649590365737 0 0.010691300612525 0.0099168298135774 0
          0.010689703280164 0.0094649590365737 0.00015 0.010691300612525 0.0099168298135774 0.00015
          0.010689703280164 0.0094649590365737 0.0003 0.010691300612525 0.0099168298135774 0.0003
          0.010057653370411 0.0084974472595183 0 0.010057653370411 0.0084974472595183 0.00015
          0.010057653370411 0.0084974472595183 0.0003 0.0071984303565192 0.0057392272964834 0
          0.0077721363879251 0.0058968168784219 0 0.0071984303565192 0.0057392272964834 0.00015
          0.0077721363879251 0.0058968168784219 0.00015 0.0071984303565192 0.0057392272964834 0.0003
          0.0077721363879251 0.0058968168784219 0.0003 0.0089588909882048 0.0073942383853577 0
          0.0089588909882048 0.0073942383853577 0.00015 0.0089588909882048 0.0073942383853577 0.0003
          0.0081402125110085 0.0066115625704341 0 0.0082479601882269 0.0062087007836213 0
          0.0081402125110085 0.0066115625704341 0.00015 0.0082479601882269 0.0062087007836213 0.00015
          0.0081402125110085 0.0066115625704341 0.0003 0.0082479601882269 0.0062087007836213 0.0003
          0.0084364690699339 0.0071912877673881 0 0.0084364690699339 0.0071912877673881 0.00015
          0.0084364690699339 0.0071912877673881 0.0003 0.010601303654319 0.010290632654442 0
          0.010601303654319 0.010290632654442 0.00015 0.010601303654319 0.010290632654442 0.0003
          0.0085681017610313 0.0067725899286886 0 0.0085681017610313 0.0067725899286886 0.00015
          0.0085681017610313 0.0067725899286886 0.0003
          <InformationKey name="L2_NORM_RANGE" location="vtkDataArray" length="2">
            <Value index="0">
              0.0092063092257
            </Value>
            <Value index="1">
              0.016482431226
            </Value>
          </InformationKey>
        </DataArray>
      </Points>
      <Cells>
        <DataArray type="Int64" Name="connectivity" format="ascii" RangeMin="0" RangeMax="782">
          27 24 3 6 28 25
          4 7 28 25 4 7
          29 26 5 8 33 30
          9 12 34 31 10 13
          34 31 10 13 35 32
          11 14 36 33 12 15
          37 34 13 16 37 34
          13 16 38 35 14 17
          39 36 15 18 40 37
          16 19 40 37 16 19
          41 38 17 20 42 39
          18 21 43 40 19 22
          43 40 19 22 44 41
          20 23 45 42 21 24
          46 43 22 25 46 43
          22 25 47 44 23 26
          48 45 24 27 49 46
          25 28 49 46 25 28
          50 47 26 29 57 54
          30 33 58 55 31 34
          58 55 31 34 59 56
          32 35 60 57 33 36
          61 58 34 37 61 58
          34 37 62 59 35 38
          63 60 36 39 64 61
          37 40 64 61 37 40
          65 62 38 41 66 63
          39 42 67 64 40 43
          67 64 40 43 68 65
          41 44 69 66 42 45
          70 67 43 46 70 67
          43 46 71 68 44 47
          72 69 45 48 73 70
          46 49 73 70 46 49
          74 71 47 50 78 75
          51 54 79 76 52 55
          79 76 52 55 80 77
          53 56 81 78 54 57
          82 79 55 58 82 79
          55 58 83 80 56 59
          84 81 57 60 85 82
          58 61 85 82 58 61
          86 83 59 62 87 84
          60 63 88 85 61 64
          88 85 61 64 89 86
          62 65 90 87 63 66
          91 88 64 67 91 88
          64 67 92 89 65 68
          93 90 66 69 94 91
          67 70 94 91 67 70
          95 92 68 71 96 93
          69 72 97 94 70 73
          97 94 70 73 98 95
          71 74 102 99 75 78
          103 100 76 79 103 100
          76 79 104 101 77 80
          105 102 78 81 106 103
          79 82 106 103 79 82
          107 104 80 83 108 105
          81 84 109 106 82 85
          109 106 82 85 110 107
          83 86 111 108 84 87
          112 109 85 88 112 109
          85 88 113 110 86 89
          114 111 87 90 115 112
          88 91 115 112 88 91
          116 113 89 92 117 114
          90 93 118 115 91 94
          118 115 91 94 119 116
          92 95 120 117 93 96
          121 118 94 97 121 118
          94 97 122 119 95 98
          126 123 99 102 127 124
          100 103 127 124 100 103
          128 125 101 104 129 126
          102 105 130 127 103 106
          130 127 103 106 131 128
          104 107 132 129 105 108
          133 130 106 109 133 130
          106 109 134 131 107 110
          135 132 108 111 136 133
          109 112 136 133 109 112
          137 134 110 113 138 135
          111 114 139 136 112 115
          139 136 112 115 140 137
          113 116 141 138 114 117
          142 139 115 118 142 139
          115 118 143 140 116 119
          144 141 117 120 145 142
          118 121 145 142 118 121
          146 143 119 122 150 147
          123 126 151 148 124 127
          151 148 124 127 152 149
          125 128 153 150 126 129
          154 151 127 130 154 151
          127 130 155 152 128 131
          156 153 129 132 157 154
          130 133 157 154 130 133
          158 155 131 134 159 156
          132 135 160 157 133 136
          160 157 133 136 161 158
          134 137 162 159 135 138
          163 160 136 139 163 160
          136 139 164 161 137 140
          165 162 138 141 166 163
          139 142 166 163 139 142
          167 164 140 143 168 165
          141 144 169 166 142 145
          169 166 142 145 170 167
          143 146 171 172 173 174
          175 176 177 178 175 176
          177 178 179 180 181 182
          183 184 185 186 187 188
          189 190 187 188 189 190
          191 192 193 194 183 195
          196 184 187 197 198 188
          187 197 198 188 191 199
          200 192 201 202 171 174
          203 204 175 178 203 204
          175 178 205 206 179 182
          173 172 207 208 177 176
          209 210 177 176 209 210
          181 180 211 212 202 201
          196 195 204 203 198 197
          204 203 198 197 206 205
          200 199 213 186 185 214
          215 190 189 216 215 190
          189 216 217 194 193 218
          162 172 171 159 163 176
          175 160 163 176 175 160
          164 180 179 161 173 208
          219 220 177 210 221 222
          177 210 221 222 181 212
          223 224 159 171 202 156
          160 175 204 157 160 175
          204 157 161 179 206 158
          168 225 207 165 169 226
          209 166 169 226 209 166
          170 227 211 167 185 184
          231 228 189 188 232 229
          189 188 232 229 193 192
          233 230 234 184 196 235
          236 188 198 237 236 188
          198 237 238 192 200 239
          183 186 150 153 187 190
          151 154 187 190 151 154
          191 194 152 155 201 240
          235 196 203 241 237 198
          203 241 237 198 205 242
          239 200 174 220 240 201
          178 222 241 203 178 222
          241 203 182 224 242 205
          165 207 172 162 166 209
          176 163 166 209 176 163
          167 211 180 164 208 207
          225 243 210 209 226 244
          210 209 226 244 212 211
          227 245 195 153 156 202
          197 154 157 204 197 154
          157 204 199 155 158 206
          147 150 186 213 148 151
          190 215 148 151 190 215
          149 152 194 217 183 195
          153 187 197 154 187 197
          154 191 199 155 173 174
          220 177 178 222 177 178
          222 181 182 224 234 184
          231 236 188 232 236 188
          232 238 192 233 243 208
          219 244 210 221 244 210
          221 245 212 223 249 250
          251 252 253 254 255 256
          253 254 255 256 257 258
          259 260 264 265 249 252
          266 267 253 256 266 267
          253 256 268 269 257 260
          270 271 272 273 274 275
          276 277 274 275 276 277
          278 279 280 281 282 251
          250 283 284 255 254 285
          284 255 254 285 286 259
          258 287 273 288 289 270
          277 290 291 274 277 290
          291 274 281 292 293 278
          294 295 264 296 297 298
          266 299 297 298 266 299
          300 301 268 302 303 304
          305 306 307 308 309 310
          307 308 309 310 311 312
          313 314 270 315 316 317
          274 318 319 320 274 318
          319 320 278 321 322 323
          324 325 326 327 328 329
          330 331 328 329 330 331
          332 333 334 335 283 336
          337 282 285 338 339 284
          285 338 339 284 287 340
          341 286 342 343 344 345
          346 347 348 349 346 347
          348 349 350 351 352 353
          354 337 355 356 357 339
          358 359 357 339 358 359
          360 341 361 362 343 342
          363 364 347 346 365 366
          347 346 365 366 351 350
          367 368 369 370 371 372
          373 374 375 376 373 374
          375 376 377 378 379 380
          711 381 382 712 713 383
          384 714 713 383 384 714
          715 385 386 716 327 326
          387 388 331 330 389 390
          331 330 389 390 335 334
          391 392 393 394 316 315
          395 396 319 318 395 396
          319 318 397 398 322 321
          399 400 401 402 403 404
          405 406 403 404 405 406
          407 408 409 410 306 344
          343 411 310 348 347 412
          310 348 347 412 314 352
          351 413 414 246 273 272
          415 247 277 276 415 247
          277 276 416 248 281 280
          423 424 252 251 425 426
          256 255 425 426 256 255
          427 428 260 259 429 430
          264 295 431 432 266 298
          431 432 266 298 433 434
          268 301 282 337 354 435
          284 339 357 436 284 339
          357 436 286 341 360 437
          354 438 439 435 357 440
          441 436 357 440 441 436
          360 442 443 437 444 445
          446 447 448 449 450 451
          448 449 450 451 452 453
          454 455 456 316 394 457
          458 319 396 459 458 319
          396 459 460 322 398 461
          462 463 446 464 465 466
          450 467 465 466 450 467
          468 469 454 470 471 401
          472 473 474 405 475 476
          474 405 475 476 477 409
          478 479 402 456 457 480
          406 458 459 481 406 458
          459 481 410 460 461 482
          471 456 402 401 474 458
          406 405 474 458 406 405
          477 460 410 409 473 483
          317 471 476 484 320 474
          476 484 320 474 479 485
          323 477 486 483 473 487
          488 484 476 489 488 484
          476 489 490 485 479 491
          483 271 270 317 484 275
          274 320 484 275 274 320
          485 279 278 323 492 424
          423 493 494 426 425 495
          494 426 425 495 496 428
          427 497 498 344 306 305
          499 348 310 309 499 348
          310 309 500 352 314 313
          501 502 288 261 503 504
          290 262 503 504 290 262
          505 506 292 263 429 295
          463 462 431 298 466 465
          431 298 466 465 433 301
          469 468 510 511 512 513
          514 515 516 517 514 515
          516 517 518 519 520 521
          464 446 445 522 467 450
          449 523 467 450 449 523
          470 454 453 524 525 526
          400 399 527 528 404 403
          527 528 404 403 529 530
          408 407 487 473 472 531
          489 476 475 532 489 476
          475 532 491 479 478 533
          288 273 246 261 290 277
          247 262 290 277 247 262
          292 281 248 263 435 439
          493 423 436 441 495 425
          436 441 495 425 437 443
          497 427 288 502 534 535
          290 504 536 537 290 504
          536 537 292 506 538 539
          717 540 718 719 720 541
          721 722 720 541 721 722
          723 542 724 725 543 372
          544 545 546 376 547 548
          546 376 547 548 549 380
          550 551 480 457 552 553
          481 459 554 555 481 459
          554 555 482 461 556 557
          558 559 498 305 560 561
          499 309 560 561 499 309
          562 563 500 313 400 526
          439 438 404 528 441 440
          404 528 441 440 408 530
          443 442 564 565 480 553
          566 567 481 555 566 567
          481 555 568 569 482 557
          570 564 553 571 572 566
          555 573 572 566 555 573
          574 568 557 575 726 576
          559 512 727 577 561 516
          727 577 561 516 728 578
          563 520 579 345 344 498
          580 349 348 499 580 349
          348 499 581 353 352 500
          729 582 576 726 730 583
          577 727 730 583 577 727
          731 584 578 728 438 354
          531 472 440 357 532 475
          440 357 532 475 442 360
          533 478 438 472 401 400
          440 475 405 404 440 475
          405 404 442 478 409 408
          565 585 402 480 567 586
          406 481 567 586 406 481
          569 587 410 482 545 544
          732 733 548 547 734 735
          548 547 734 735 551 550
          736 737 534 502 501 418
          536 504 503 420 536 504
          503 420 538 506 505 422
          251 282 435 423 255 284
          436 425 255 284 436 425
          259 286 437 427 576 588
          498 559 577 589 499 561
          577 589 499 561 578 590
          500 563 591 534 418 417
          592 536 420 419 592 536
          420 419 593 538 422 421
          369 594 595 370 373 596
          597 374 373 596 597 374
          377 598 599 378 326 600
          601 387 330 602 603 389
          330 602 603 389 334 604
          605 391 606 570 387 601
          607 572 389 603 607 572
          389 603 608 574 391 605
          317 316 456 471 320 319
          458 474 320 319 458 474
          323 322 460 477 483 486
          272 271 484 488 276 275
          484 488 276 275 485 490
          280 279 582 729 738 739
          583 730 740 741 583 730
          740 741 584 731 742 743
          588 382 381 609 589 384
          383 610 589 384 383 610
          590 386 385 611 612 613
          324 614 615 616 328 617
          615 616 328 617 618 619
          332 620 382 582 739 712
          384 583 741 714 384 583
          741 714 386 584 743 716
          582 382 588 576 583 384
          589 577 583 384 589 577
          584 386 590 578 595 342
          345 370 597 346 349 374
          597 346 349 374 599 350
          353 378 621 622 606 601
          623 624 607 603 623 624
          607 603 625 626 608 605
          609 579 498 588 610 580
          499 589 610 580 499 589
          611 581 500 590 540 621
          601 600 541 623 603 602
          541 623 603 602 542 625
          605 604 591 627 535 534
          592 628 537 536 592 628
          537 536 593 629 539 538
          594 630 522 445 596 631
          523 449 596 631 523 449
          598 632 524 453 744 745
          633 622 746 747 634 624
          746 747 634 624 748 749
          635 626 324 327 636 614
          328 331 637 617 328 331
          637 617 332 335 638 620
          745 750 751 510 747 752
          753 514 747 752 753 514
          749 754 755 518 639 591
          417 507 640 592 419 508
          640 592 419 508 641 593
          421 509 371 370 345 579
          375 374 349 580 375 374
          349 580 379 378 353 581
          642 399 402 585 643 403
          406 586 643 403 406 586
          644 407 410 587 645 525
          399 642 646 527 403 643
          646 527 403 643 647 529
          407 644 326 718 540 600
          330 721 541 602 330 721
          541 602 334 724 542 604
          621 540 717 756 623 541
          720 757 623 541 720 757
          625 542 723 758 639 507
          759 760 640 508 761 762
          640 508 761 762 641 509
          763 764 388 387 570 571
          390 389 572 573 390 389
          572 573 392 391 574 575
          648 651 6 0 649 652
          7 1 649 652 7 1
          650 653 8 2 613 612
          535 627 616 615 537 628
          616 615 537 628 619 618
          539 629 627 591 639 654
          628 592 640 655 628 592
          640 655 629 593 641 656
          612 289 288 535 615 291
          290 537 615 291 290 537
          618 293 292 539 651 657
          27 6 652 658 28 7
          652 658 28 7 653 659
          29 8 756 744 622 621
          757 746 624 623 757 746
          624 623 758 748 626 625
          660 613 627 654 661 616
          628 655 661 616 628 655
          662 619 629 656 657 663
          48 27 658 664 49 28
          658 664 49 28 659 665
          50 29 666 493 439 526
          667 495 441 528 667 495
          441 528 668 497 443 530
          669 565 564 303 670 567
          566 307 670 567 566 307
          671 569 568 311 663 355
          72 48 664 358 73 49
          664 358 73 49 665 361
          74 50 672 492 493 666
          673 494 495 667 673 494
          495 667 674 496 497 668
          144 249 265 168 145 253
          267 169 145 253 267 169
          146 257 269 170 411 669
          303 306 412 670 307 310
          412 670 307 310 413 671
          311 314 765 718 326 325
          766 721 330 329 766 721
          330 329 767 724 334 333
          525 645 364 675 527 646
          366 676 527 646 366 676
          529 647 368 677 768 639
          760 769 770 640 762 771
          770 640 762 771 772 641
          764 773 669 411 645 642
          670 412 646 643 670 412
          646 643 671 413 647 644
          639 768 660 654 640 770
          661 655 640 770 661 655
          641 772 662 656 642 585
          565 669 643 586 567 670
          643 586 567 670 644 587
          569 671 393 315 270 289
          395 318 274 291 395 318
          274 291 397 321 278 293
          675 364 363 678 676 366
          365 679 676 366 365 679
          677 368 367 680 552 636
          327 388 554 637 331 390
          554 637 331 390 556 638
          335 392 675 678 672 666
          676 679 673 667 676 679
          673 667 677 680 674 668
          666 526 525 675 667 528
          527 676 667 528 527 676
          668 530 529 677 250 120
          96 283 254 121 97 285
          254 121 97 285 258 122
          98 287 444 447 678 363
          448 451 679 365 448 451
          679 365 452 455 680 367
          614 636 394 393 617 637
          396 395 617 637 396 395
          620 638 398 397 249 144
          120 250 253 145 121 254
          253 145 121 254 257 146
          122 258 564 681 304 303
          566 682 308 307 566 682
          308 307 568 683 312 311
          364 645 411 343 366 646
          412 347 366 646 412 347
          368 647 413 351 72 355
          337 336 73 358 339 338
          73 358 339 338 74 361
          341 340 304 681 606 684
          308 682 607 685 308 682
          607 685 312 683 608 686
          636 552 457 394 637 554
          459 396 637 554 459 396
          638 556 461 398 72 336
          283 96 73 338 285 97
          73 338 285 97 74 340
          287 98 289 612 614 393
          291 615 617 395 291 615
          617 395 293 618 620 397
          687 487 531 688 689 489
          532 690 689 489 532 690
          691 491 533 692 688 531
          354 356 690 532 357 359
          690 532 357 359 692 533
          360 362 388 571 553 552
          390 573 555 554 390 573
          555 554 392 575 557 556
          693 486 487 687 694 488
          489 689 694 488 489 689
          695 490 491 691 564 570
          606 681 566 572 607 682
          566 572 607 682 568 574
          608 683 414 272 486 693
          415 276 488 694 415 276
          488 694 416 280 490 695
          225 696 697 243 226 698
          699 244 226 698 699 244
          227 700 701 245 774 324
          613 660 775 328 616 661
          775 328 616 661 776 332
          619 662 544 702 609 381
          547 703 610 383 547 703
          610 383 550 704 611 385
          688 356 355 663 690 359
          358 664 690 359 358 664
          692 362 361 665 324 774
          765 325 328 775 766 329
          328 775 766 329 332 776
          767 333 684 558 305 304
          685 560 309 308 685 560
          309 308 686 562 313 312
          544 372 371 702 547 376
          375 703 547 376 375 703
          550 380 379 704 711 732
          544 381 713 734 547 383
          713 734 547 383 715 736
          550 385 513 512 559 558
          517 516 561 560 517 516
          561 560 521 520 563 562
          777 726 512 511 778 727
          516 515 778 727 516 515
          779 728 520 519 777 511
          510 751 778 515 514 753
          778 515 514 753 779 519
          518 755 294 296 424 492
          297 299 426 494 297 299
          426 494 300 302 428 496
          369 705 630 594 373 706
          631 596 373 706 631 596
          377 707 632 598 633 513
          558 684 634 517 560 685
          634 517 560 685 635 521
          562 686 684 606 622 633
          685 607 624 634 685 607
          624 634 686 608 626 635
          708 672 678 447 709 673
          679 451 709 673 679 451
          710 674 680 455 513 633
          745 510 517 634 747 514
          517 634 747 514 521 635
          749 518 774 660 768 780
          775 661 770 781 775 661
          770 781 776 662 772 782
          702 371 579 609 703 375
          580 610 703 375 580 610
          704 379 581 611 687 688
          663 657 689 690 664 658
          689 690 664 658 691 692
          665 659 696 265 264 430
          698 267 266 432 698 267
          266 432 700 269 268 434
          696 430 429 697 698 432
          431 699 698 432 431 699
          700 434 433 701 264 252
          424 296 266 256 426 299
          266 256 426 299 268 260
          428 302 708 294 492 672
          709 297 494 673 709 297
          494 673 710 300 496 674
          447 446 463 708 451 450
          466 709 451 450 466 709
          455 454 469 710 693 687
          657 651 694 689 658 652
          694 689 658 652 695 691
          659 653 595 594 445 444
          597 596 449 448 597 596
          449 448 599 598 453 452
          696 225 168 265 698 226
          169 267 698 226 169 267
          700 227 170 269 705 369
          372 543 706 373 376 546
          706 373 376 546 707 377
          380 549 414 693 651 648
          415 694 652 649 415 694
          652 649 416 695 653 650
          444 363 342 595 448 365
          346 597 448 365 346 597
          452 367 350 599 708 463
          295 294 709 466 298 297
          709 466 298 297 710 469
          301 300
        </DataArray>
        <DataArray type="Int64" Name="offsets" format="ascii" RangeMin="8" RangeMax="3632">
          8 16 24 32 40 48
          56 64 72 80 88 96
          104 112 120 128 136 144
          152 160 168 176 184 192
          200 208 216 224 232 240
          248 256 264 272 280 288
          296 304 312 320 328 336
          344 352 360 368 376 384
          392 400 408 416 424 432
          440 448 456 464 472 480
          488 496 504 512 520 528
          536 544 552 560 568 576
          584 592 600 608 616 624
          632 640 648 656 664 672
          680 688 696 704 712 720
          728 736 744 752 760 768
          776 784 792 800 808 816
          824 832 840 848 856 864
          872 880 888 896 904 912
          920 928 936 944 952 960
          968 976 982 988 994 1000
          1006 1012 1018 1024 1032 1040
          1048 1056 1064 1072 1080 1088
          1096 1104 1112 1120 1128 1136
          1144 1152 1160 1168 1176 1184
          1192 1200 1208 1216 1224 1232
          1240 1248 1256 1264 1272 1280
          1288 1296 1304 1312 1320 1328
          1336 1344 1352 1360 1368 1376
          1384 1392 1400 1408 1416 1424
          1432 1440 1448 1456 1464 1472
          1480 1488 1496 1504 1512 1520
          1528 1536 1544 1552 1560 1568
          1576 1584 1592 1600 1608 1616
          1624 1632 1640 1648 1656 1664
          1672 1680 1688 1696 1704 1712
          1720 1728 1736 1744 1752 1760
          1768 1776 1784 1792 1800 1808
          1816 1824 1832 1840 1848 1856
          1864 1872 1880 1888 1896 1904
          1912 1920 1928 1936 1944 1952
          1960 1968 1976 1984 1992 2000
          2008 2016 2024 2032 2040 2048
          2056 2064 2072 2080 2088 2096
          2104 2112 2120 2128 2136 2144
          2152 2160 2168 2176 2184 2192
          2200 2208 2216 2224 2232 2240
          2248 2256 2264 2272 2280 2288
          2296 2304 2312 2320 2328 2336
          2344 2352 2360 2368 2376 2384
          2392 2400 2408 2416 2424 2432
          2440 2448 2456 2464 2472 2480
          2488 2496 2504 2512 2520 2528
          2536 2544 2552 2560 2568 2576
          2584 2592 2600 2608 2616 2624
          2632 2640 2648 2656 2664 2672
          2680 2688 2696 2704 2712 2720
          2728 2736 2744 2752 2760 2768
          2776 2784 2792 2800 2808 2816
          2824 2832 2840 2848 2856 2864
          2872 2880 2888 2896 2904 2912
          2920 2928 2936 2944 2952 2960
          2968 2976 2984 2992 3000 3008
          3016 3024 3032 3040 3048 3056
          3064 3072 3080 3088 3096 3104
          3112 3120 3128 3136 3144 3152
          3160 3168 3176 3184 3192 3200
          3208 3216 3224 3232 3240 3248
          3256 3264 3272 3280 3288 3296
          3304 3312 3320 3328 3336 3344
          3352 3360 3368 3376 3384 3392
          3400 3408 3416 3424 3432 3440
          3448 3456 3464 3472 3480 3488
          3496 3504 3512 3520 3528 3536
          3544 3552 3560 3568 3576 3584
          3592 3600 3608 3616 3624 3632
        </DataArray>
        <DataArray type="UInt8" Name="types" format="ascii" RangeMin="12" RangeMax="13">
          12 12 12 12 12 12
          12 12 12 12 12 12
          12 12 12 12 12 12
          12 12 12 12 12 12
          12 12 12 12 12 12
          12 12 12 12 12 12
          12 12 12 12 12 12
          12 12 12 12 12 12
          12 12 12 12 12 12
          12 12 12 12 12 12
          12 12 12 12 12 12
          12 12 12 12 12 12
          12 12 12 12 12 12
          12 12 12 12 12 12
          12 12 12 12 12 12
          12 12 12 12 12 12
          12 12 12 12 12 12
          12 12 12 12 12 12
          12 12 12 12 12 12
          12 12 12 12 12 12
          12 12 13 13 13 13
          13 13 13 13 12 12
          12 12 12 12 12 12
          12 12 12 12 12 12
          12 12 12 12 12 12
          12 12 12 12 12 12
          12 12 12 12 12 12
          12 12 12 12 12 12
          12 12 12 12 12 12
          12 12 12 12 12 12
          12 12 12 12 12 12
          12 12 12 12 12 12
          12 12 12 12 12 12
          12 12 12 12 12 12
          12 12 12 12 12 12
          12 12 12 12 12 12
          12 12 12 12 12 12
          12 12 12 12 12 12
          12 12 12 12 12 12
          12 12 12 12 12 12
          12 12 12 12 12 12
          12 12 12 12 12 12
          12 12 12 12 12 12
          12 12 12 12 12 12
          12 12 12 12 12 12
          12 12 12 12 12 12
          12 12 12 12 12 12
          12 12 12 12 12 12
          12 12 12 12 12 12
          12 12 12 12 12 12
          12 12 12 12 12 12
          12 12 12 12 12 12
          12 12 12 12 12 12
          12 12 12 12 12 12
          12 12 12 12 12 12
          12 12 12 12 12 12
          12 12 12 12 12 12
          12 12 12 12 12 12
          12 12 12 12 12 12
          12 12 12 12 12 12
          12 12 12 12 12 12
          12 12 12 12 12 12
          12 12 12 12 12 12
          12 12 12 12 12 12
          12 12 12 12 12 12
          12 12 12 12 12 12
          12 12 12 12 12 12
          12 12 12 12 12 12
          12 12 12 12 12 12
          12 12 12 12 12 12
          12 12 12 12 12 12
          12 12 12 12 12 12
          12 12 12 12 12 12
          12 12 12 12 12 12
          12 12 12 12 12 12
          12 12 12 12 12 12
        </DataArray>
      </Cells>
    </Piece>
  </UnstructuredGrid>
</VTKFile>
