<?xml version="1.0"?>
<VTKFile type="UnstructuredGrid" version="0.1" byte_order="LittleEndian" header_type="UInt32" compressor="vtkZLibDataCompressor">
  <UnstructuredGrid>
    <Piece NumberOfPoints="780" NumberOfCells="454">
      <PointData>
        <DataArray type="Int32" Name="libmesh_node_id" format="ascii" RangeMin="1278" RangeMax="5063">
          1278 1279 1280 1281 1282 1283
          1284 1285 1286 1287 1288 1289
          1290 1291 1292 1293 1294 1295
          1296 1297 1298 1299 1300 1301
          1302 1303 1304 1305 1306 1307
          1308 1309 1310 1311 1312 1313
          1314 1315 1316 1317 1318 1319
          1320 1321 1322 1323 1324 1325
          1329 1330 1331 1332 1333 1334
          1335 1336 1337 1338 1339 1340
          1341 1342 1343 1344 1345 1346
          1347 1348 1349 1350 1351 1352
          1356 1357 1358 1359 1360 1361
          1362 1363 1364 1365 1366 1367
          1368 1369 1370 1371 1372 1373
          1374 1375 1376 1377 1378 1379
          1383 1384 1385 1386 1387 1388
          1389 1390 1391 1392 1393 1394
          1395 1396 1397 1398 1399 1400
          1401 1402 1403 1404 1405 1406
          1410 1411 1412 1413 1414 1415
          1416 1417 1418 1419 1420 1421
          1422 1423 1424 1425 1426 1427
          1428 1429 1430 1431 1432 1433
          1437 1438 1439 1440 1441 1442
          1443 1444 1445 1446 1447 1448
          1449 1450 1451 1452 1453 1454
          1455 1456 1457 1458 1459 1460
          1461 1462 1463 1464 1465 1466
          1467 1468 1469 1470 1471 1472
          1473 1474 1475 1476 1477 1478
          1479 1480 1481 1482 1483 1484
          1485 1486 1487 1488 1489 1490
          1491 1492 1493 1494 1495 1496
          1497 1498 1499 1500 1501 1502
          1503 1504 1505 1506 1507 1508
          1509 1510 1511 1512 1513 1514
          1515 1516 1517 1518 1519 1520
          1521 1522 1523 1524 1525 1526
          1527 1528 1529 1530 1531 1532
          1533 1534 1535 1536 1537 1538
          1539 1540 1541 1542 1543 1544
          1545 1546 1547 1548 1549 1550
          1551 1552 1553 1554 1555 1556
          1557 1558 1559 1560 1561 1562
          1563 1564 1565 1566 1567 1568
          1569 1570 1571 1572 1573 1574
          1575 1576 1577 1578 1579 1580
          1581 1582 1583 1584 1585 1586
          1587 1588 1589 1590 1591 1592
          1593 1594 1595 1596 1597 1598
          1599 1600 1601 1602 1603 1604
          1605 1606 1607 1608 1609 1610
          1611 1612 1613 1614 1615 1616
          1617 1618 1619 1620 1621 1622
          1623 1624 1625 1626 1627 1628
          1629 1630 1631 1632 1633 1634
          1635 1636 1637 1638 1639 1640
          1641 1642 1643 1644 1645 1646
          1647 1648 1649 1650 1651 1652
          1653 1654 1655 1656 1657 1658
          1659 1660 1661 1662 1663 1664
          1665 1666 1667 1668 1669 1670
          1671 1672 1673 1674 1675 1676
          1680 1681 1682 1683 1684 1685
          1686 1687 1688 1689 1690 1691
          1692 1693 1694 1695 1696 1697
          1698 1699 1700 1701 1702 1703
          1707 1708 1709 1710 1711 1712
          1713 1714 1715 1716 1717 1718
          1719 1720 1721 1722 1723 1724
          1725 1726 1727 1728 1729 1730
          1734 1735 1736 1737 1738 1739
          1740 1741 1742 1743 1744 1745
          1746 1747 1748 1749 1750 1751
          1752 1753 1754 1755 1756 1757
          1761 1762 1763 1764 1765 1766
          1767 1768 1769 1770 1771 1772
          1773 1774 1775 1776 1777 1778
          1779 1780 1781 1782 1783 1784
          1791 1792 1793 1794 1795 1796
          1797 1798 1799 1800 1801 1802
          1803 1804 1805 1806 1807 1808
          1809 1810 1811 1818 1819 1820
          1821 1822 1823 1824 1825 1826
          1827 1828 1829 1830 1831 1832
          1833 1834 1835 1836 1837 1838
          1845 1846 1847 1848 1849 1850
          1851 1852 1853 1854 1855 1856
          1857 1858 1859 1860 1861 1862
          1872 1873 1874 1875 1876 1877
          1878 1879 1880 1881 1882 1883
          1884 1885 1886 2184 2185 2186
          2187 2188 2189 2190 2191 2192
          2193 2194 2195 2196 2197 2198
          2199 2200 2201 2202 2203 2204
          2205 2206 2207 2208 2210 2211
          2212 2214 2215 2216 2218 2219
          2244 2246 2248 2262 2263 2264
          2265 2266 2267 2268 2269 2270
          2271 2272 2273 2592 2593 2594
          2595 2596 2597 2913 2914 2915
          2916 2917 2918 2919 2920 2921
          3336 3337 3338 3339 3340 3341
          3582 3583 3584 3585 3586 3587
          3688 3690 3692 3699 3700 3701
          3702 3703 3704 4161 4162 4163
          4164 4165 4166 4527 4528 4529
          4530 4531 4532 4536 4537 4538
          4539 4540 4541 4671 4672 4673
          4698 4699 4700 4701 4702 4703
          4725 4726 4727 4770 4771 4772
          4884 4885 4886 4905 4906 4907
          4983 4984 4985 5034 5035 5036
          5061 5062 5063 1863 1864 1865
          1887 1888 1889 1890 1891 1892
          1902 1899 1903 1900 1904 1901
          1905 1906 1907 1908 1909 1910
          1911 1912 1913 1914 1915 1916
          2209 2213 2217 2245 2247 2249
          2526 2525 2530 2529 2534 2533
          3234 3235 3236 3237 3238 3239
          3300 3301 3302 3303 3304 3305
          3366 3367 3368 3663 3665 3667
          3687 3386 3689 3389 3691 3392
          3705 3706 3707 3939 3940 3941
          3942 3943 3944 4467 4468 4469
          3455 3458 3461 3210 3120 3212
          3124 3214 3128 4441 4443 4445
          3119 3123 3127 3231 3232 3233
        </DataArray>
        <DataArray type="Float64" Name="resid_x" format="ascii" RangeMin="-0.3676397145494903" RangeMax="0.16425005902652856">
          -0.2341012661575288 -0.04304791423098564 -0.3676397145494903 -0.060137845296516446 -0.09109863167109111 -0.00473254217887753
          0.000022466208651650277 -0.000009496285914067926 0.00001885465169237932 -0.000028388490617814455 0.000046994134216937766 0.00002003221723168025
          0.00007197314339091321 0.00003685829383659467 0.000049560803866199876 0.000011919129899951031 0.0002218296838387701 0.00011684873176687205
          0.00013122023100997637 0.00005914024703468357 0.000009554155854019086 -0.0000031024001430068893 0.00022978972418474797 0.00012365678869308283
          0.00014849452533116647 0.00007464822894842627 0.000012018247773859514 0.000006625585966979486 0.0002541570948793037 0.00015335080361023046
          0.0027536084214858647 0.00004700991701778179 0.009854513090821193 -0.000007598591033719515 0.005585705831006038 0.00021859792420997337
          0.04763161720569542 0.053285533561401976 0.06347287307948779 0.08502195183416816 0.014587725707054133 0.027388135871794006
          -0.048815344734120636 -0.05244939429557238 -0.0716497924283761 -0.08455938715604105 -0.019435070310474423 -0.02806211430757788
          -0.022910579795166086 -0.043561676998649546 -0.021129627160968667 0.000038073953719575115 0.00003921110416715834 0.0001324166211302824
          0.00009661188558318656 0.00004540542078768084 0.0001658021626900208 0.00014840400946170007 0.00005378966652269668 0.0002277552964597973
          0.00017597786765222168 0.000025531493091257573 0.0002612012848821621 0.02765409560152765 0.07391277055430834 0.04998204558022401
          -0.02439866075032615 -0.07010249269084134 -0.049322934768339266 -0.002139742534136513 -0.0027280532063223006 -0.0016303782440920678
          -0.000004502391885097268 -0.000007260130857389413 -0.00003541638123394364 0.000016601946971839254 0.000013395236805102684 0.00009934393171562306
          0.00005610501119779343 0.00003482947358524058 0.00012771509457110142 0.00008567732350517332 0.000013850469607668003 0.000161024885969141
          0.00013342998320808874 -0.0000023392271488731353 0.00019995500088043627 0.02092131727799007 0.03694559627466809 0.018215220385389586
          -0.020763470133811524 -0.03735163113975393 -0.019297963387995054 -0.0003717680432582249 -0.0007442609617043239 -0.002197550031771911
          -0.00021787592536348654 -0.00041188824391369394 -0.00010974631815230396 -4.460650417925649e-7 -0.0000013773974023578717 0.00007308971134278863
          0.00005677474251264414 0.00008137647590356067 0.00010632378523656172 0.00005615292627236812 0.000023380408194384472 0.0001226865317596193
          0.00007800914617739352 -0.000005126743554129121 0.000034202004298933275 0.0002792667941502458 0.00038560558076650153 -0.00035830147105109234
          -0.0004959126340011721 -0.0010428394839827604 -0.002012188873888654 -0.0001862534399945659 -0.00023513297972144187 -0.0024053791881817332
          -0.0003018725692314206 -0.0006537041689611556 -0.00022592170095592223 0.000008296301634125314 -0.000008214474548573492 0.00003490122361959891
          0.00004797489415331313 0.00008576092626277898 0.00006424629475620947 0.00002584678959394182 0.000003297294423276753 0.00006484357478164782
          0.012695942151712103 0.027994972371892857 0.01661410296858179 -0.013074457492613156 -0.028526311270387517 -0.018766853013608475
          -0.0002067647972605613 -0.00029080855303398323 -0.0023021778126004477 -0.00019757320910818166 -0.00013768287594739803 -0.003006296191537139
          -0.00013579762156368247 -0.00040587545209902487 -0.00016755747368435436 0.000012988956752835179 -0.000022186780357813518 -0.000024075915849408602
          0.000014880680906159682 0.000040950532426364816 0.00000985434555733633 -0.000017420623585451267 0.00010621919334585783 0.000267795402301374
          0.03884039234765435 0.08212008249646452 0.044790314646254714 -0.039065428548473946 -0.08233458124798432 -0.04778067223925575
          -0.00022471999402284837 -0.0001914317791582576 -0.002721617237417817 -0.00020691492787960897 -0.00007133748309096077 -0.003595223097885736
          -0.00007193806804473013 -0.00006706659553756822 -0.000050336517462667985 -0.000029609465974189675 -0.00012923819837240558 -0.0001321247350576371
          -0.000010042429228640515 -0.00005003314585128038 -0.00008507413364977623 -0.000014932994636396302 0.000043809425056551277 -0.000015938426853878696
          0.009985778879526563 0.025176141967099497 0.01717416892869572 -0.005815948910686153 -0.01629614191453932 -0.014228256011051599
          -0.004721124857700154 -0.009377160459534295 -0.00783243752409124 -0.000349382128108644 -0.00032098804304503403 -0.003358009936837103
          -0.00019348817421738218 0.00006011054164156704 -0.003974928092738583 0.000037827375233945304 0.00003803772416333118 -0.00003966913970643304
          -0.000045793256312265385 -0.000047334156302980546 -0.00009419425467971365 -0.00007998033447087494 -0.00008392805554091609 -0.00010931369352107367
          0.000012249066438485556 0.0015063827822263676 0.0015028785173489823 0.057588303710213395 0.12203089230862929 0.06725821837956936
          -0.06077016632614196 -0.1288280789231102 -0.07386080516792415 -0.0003259315251549211 0.0000019376515290048246 -0.003181459036560419
          -0.0002986503178803446 -0.00016195681237007875 -0.003747155943345959 -0.00032078007529490193 0.000007295796968342927 -0.0042330900311498
          0.0001049112259874363 0.0001786533432053261 -0.000026212885700260813 -0.00005179534193100466 -0.000028981559042406957 -0.00010964023842685577
          -0.00006997095826211108 -0.00000900218695676358 -0.00010143865856804268 0.02237646477877764 0.05727017650801969 0.03563282298313464
          0.01709914813238278 0.025797847031375554 0.007912875447884105 -0.039749971955719055 -0.08175711473899927 -0.046107384544987084
          -0.00015455709138745277 0.00023504686338959857 -0.0037801674257273987 -0.00031777673536481643 -0.00009510190417483244 -0.003924346470914664
          -0.000544116230398739 -0.00019774732489041824 -0.004245976463108647 0.00013816049808745845 0.00023833614820745197 -0.000008062821400756093
          -0.00006477953815142712 -0.000026497274337344834 -0.0000806474717087724 0.0017915294802532955 0.0052470796618120374 0.004563738559030028
          0.07179576700542434 0.12059711960923813 0.06165866859188096 -0.07378057295591312 -0.1269937579040361 -0.06874974706978954
          -0.00020401328207331204 0.00017331975822010293 -0.003617102813174178 -0.0003440708490360933 -0.00013644388383227124 -0.004394850689561913
          -0.0006396859660178222 -0.00047746127968562035 -0.004147007126441338 -0.0007067305222330234 -0.0002549575212413835 -0.004130262447326505
          0.0000989472809660441 0.00021073634318469203 -0.000014815785064570264 -0.0000444089692193117 -0.000028242673919542938 -0.00010157954988265772
          0.04124208542599295 0.09019924258989054 0.051402051785851555 -0.029390943286565552 -0.07291871545282103 -0.04556512415511893
          -0.011129252129777889 -0.014441902486378666 -0.01032052511609649 -0.00017738568784864128 0.00009867599381685466 -0.004443011789136975
          -0.00043025295563925425 -0.00011724587807560027 -0.004434868440633899 -0.0008480735480107526 -0.0006228023783965142 -0.0042412607180013495
          -0.0009002982136676607 -0.00022233450670938737 -0.004425757608473191 0.000050816236541351145 0.00017442510920773202 0.000015948902301943235
          0.008051868191938816 0.021969365552606313 0.013778685472955132 0.0018529278018100115 -0.0008906024262103074 -0.005824265875718382
          -0.009342191610897999 -0.019211492501895577 -0.013820449343154628 -0.00048578746650473903 -0.0003902245252334069 -0.004488500162248776
          -0.00036309771461962015 -0.00006224851118563635 -0.004732084933526615 -0.0005420811747374188 -0.00013086882205648465 -0.004485828703381323
          -0.0011759756248164166 -0.0008699303823753723 -0.00411280304566386 -0.0009478746409379291 -0.00021830895070973355 -0.002907983482628662
          0.000027089881406539007 0.00011188391567529266 0.000013474373851352084 0.0021837290943640397 0.005961612697439556 0.002842504927082601
          -0.00216381866022175 -0.005648455104067196 -0.006585311577750552 -0.00024378755187903778 -0.0001449658725398706 -0.004231213928875377
          -0.000426076887485749 -0.0002654241734107998 -0.004928794434420958 -0.0005048121068220723 -0.0002101501206990264 -0.0048605131951129366
          -0.0008017695390174495 -0.0003516355088049039 -0.004367320679812714 -0.0013851703291782869 -0.001014752557784604 -0.003797804461108889
          -0.0011203017438914387 -0.0002246024982266448 -0.0026194585708161355 0.00403339166708605 0.0033343908261045385 -0.000023432855948968268
          -0.004344714595834631 -0.0035500171777869127 -0.0021104912970928424 -0.00017003213306310272 -0.00012088195479620367 -0.0036926027329853284
          -0.0002493969195631607 -0.00013722143082084415 -0.004908213370466541 -0.00042048067539646183 -0.00016899422842264755 -0.00513348491127541
          -0.0006423837274116551 -0.00025328924260747954 -0.004751246834688416 -0.0010681517622570524 -0.00047811732078528735 -0.004005298469389906
          -0.0016042697478555468 -0.0009971934106367542 -0.003287548538480678 -0.0015093715822915854 -0.0004214003058828908 -0.0021923304030266877
          -0.0010627172886472636 -0.0007602145407048511 -0.002878078023716313 0.000024713382300589615 0.00013692865180914282 -0.004574863150972774
          -0.00022781217579037616 -0.00003542736665895774 -0.005319343301654733 -0.0005620698145802905 -0.0002733621725852231 -0.005186222419819586
          -0.0009025184592887925 -0.00039025397145131535 -0.004457264909500935 -0.0013236966965806118 -0.0005171028727595228 -0.003459261677051906
          -0.0019004663900892282 -0.0009995776098303821 -0.002657009372122765 -0.0018317382138284266 -0.0004037326612524872 -0.0016902423085829454
          0.00032357010670303055 0.0006167469179025886 -0.003911668985908889 0.00010102880732354436 0.0002936165610041286 -0.005259388831709622
          -0.000333236075613641 -0.00014209202394788178 -0.005557160438370623 -0.0008159841757793274 -0.0004236118990164073 -0.004942471484020494
          -0.0011878223453249959 -0.0004948061501623968 -0.003914025375310715 -0.0016641068683185267 -0.0006197516860364516 -0.0028409777393445523
          -0.00227421412899087 -0.0011376648517265053 -0.0021026733002047493 -0.0017497862789594976 0.0002486010749276346 -0.0009381725981985056
          0.00036095650554912595 0.0006622204291133471 -0.005078729352680611 -0.00005243108333985447 0.000039855993972715 -0.00581236074765723
          -0.0005855444729148118 -0.00029881986263280425 -0.005479334168438044 -0.001071726330314604 -0.0005481174094157382 -0.004423468690688104
          -0.001558005905284432 -0.0006580967072871147 -0.0031864205867284667 -0.0019653006423530073 -0.0005916725296648551 -0.0020585074668648673
          -0.0026974383589566386 -0.0013794033309793008 -0.0019013902061733035 -0.0023984868783224478 -0.00042750422383885933 -0.0009574381354076067
          0.00025954014346485366 0.0003388171017650876 -0.005970695687869565 -0.0003739766974826253 -0.0005179647805988452 -0.006105585947567604
          -0.0008204897306862691 -0.0004261223149990556 -0.005060107847906892 -0.001436780017635364 -0.0007009955661816392 -0.003717320392035539
          -0.0019846028824810347 -0.0008159168813861584 -0.002355966230651596 -0.0023512944537609215 -0.0007333224861501009 -0.001346704592416259
          -0.0029583708918607954 -0.0014148483033373793 -0.0016186787222451926 -0.002191201459016412 0.00017305132020162262 -0.0002880302541274915
          -0.0007366525564140858 -0.001863775411727886 -0.006385893423443534 -0.0006554544057326694 -0.0005458539857619016 -0.004172565310015308
          -0.0018500402943315564 -0.0008727047683141365 -0.0029132030451028967 -0.0023156175800052026 -0.0007934637387796428 -0.001442220928299598
          -0.002769184776549416 -0.0008522372063231032 -0.0007273067690416468 -0.003582377595456876 -0.002156879680129009 -0.001465948330458211
          -0.002509458673597642 -0.00019402852005834248 0.0005919432876364539 -0.0012829810719434676 -0.0029574601847954796 -0.005975080573607627
          -0.0006691323280954009 -0.0004883178452264048 -0.0029808636081725126 -0.0020913379501683593 -0.0008215714260293439 -0.0018639642279412172
          -0.002542147404905215 -0.0005848469197538009 -0.00041672979294471446 -0.003066901257298582 -0.0007725296695433315 0.000014136831459232724
          -0.004737200248209561 -0.0036570850026302892 -0.0011889550750172617 -0.0046048156532423334 -0.0032449184651541785 0.0010069148737015254
          -0.0020896608420439833 -0.004488602302103573 -0.005313499247403541 -0.0006185037353176881 -0.0000254817053191303 -0.0013687282424239555
          -0.002454696262734757 -0.000817790218035519 -0.0006444888572927354 -0.0029364914078779947 -0.0006847708634118987 0.0004732006763630281
          -0.004006169850115704 -0.0019920518367051443 0.00027167986782927755 -0.007567639854209496 -0.008792043842908548 -0.0015000601439947303
          -0.0030603884081497057 -0.006042474979043533 -0.003700289411341373 -0.0022602912263423036 -0.002891054677305327 -0.00039990300616832286
          -0.003765489740620964 -0.0037212952383702813 0.00011576611109198609 -0.00432430311213583 -0.0037135355528308267 0.0009421676953955682
          -0.008157114525521258 -0.011063424620145312 -0.0015219113792381833 -0.00020914378530356714 -0.002315640844208655 -0.0020875498789321156
          -0.001022806976815005 -0.000408450757622969 -0.003668233369075846 -0.0023192800431228733 -0.002645531741568341 0.0006883492981639705
          -0.0033743789823836856 -0.003189782411796571 -0.0014266279599910447 -0.002196348287538896 -0.0019572909747989087 -0.0009718165589767125
          -0.0005660590683396194 -0.004469026720538949 -0.0038952588919345388 -0.0007249665519575288 0.00005739913123825602 -0.005730458983898679
          -0.0045137331514504275 -0.0039091875846288815 -0.004244321758521963 -0.0017528197397700396 -0.007525500459897749 -0.004554852028714862
          -0.0032943015856563562 -0.012266891269011815 -0.006762097843915349 0.0018468964680433686 -0.0016975113247603701 -0.0012115349244972151
          -0.0083566029440858 -0.013783356005962588 -0.005267335970808418 -0.0023870079873984373 -0.0013628667282175044 -0.00482336380774262
          -0.005428895293259295 -0.002036110896138865 -0.0009020635274845645 -0.009604403040413434 -0.009151702966690323 -0.0025192945066114802
          -0.0019105328212472017 -0.00516659875483283 -0.004060423748538433 -0.0019027634303543373 -0.00038263862084342293 -0.0037414705939524673
          0.00013854523789902373 -0.006011323885997122 -0.004443001403315883 -0.0031861046529888526 -0.004989007493209741 -0.003984256947848763
          -0.0025387777354142216 -0.00904623201953303 -0.008098861952706038 -0.0009661421587949803 -0.003068087685978327 -0.002494420957348531
          -0.0004279476428155071 -0.0012210010613440403 -0.00017219345301366928 -0.002510902684110139 -0.004259273145195586 -0.005555967680504814
          -0.0025336996811306522 -0.005616705708372249 -0.00040549024471248085 -0.008174802440273132 0.0018815590396913384 -0.0009315518450421223
          -0.001937995622225408 -0.0038525702994105515 -0.0037112469997344633 -0.007151574222924673 -0.007643964870228004 -0.0076242936873827105
          -0.012099721631718463 -0.001825897145105948 -0.002752572007379772 -0.004743603197666868 -0.004536004748439293 -0.002285125117576392
          -0.002361023801995543 -0.0007601815701625547 0.00041869344296463495 -0.0013963975591180233 -0.0036458011050970462 -0.0002418325169171176
          -0.00652477687868247 -0.0014048831330164546 -0.004710338030035732 -0.001424371876195707 -0.0024899993218635563 -0.0007770166666998257
          -0.002333591422707948 -0.0033432554685073335 -0.0036554624628430954 -0.00037326448712793336 -0.0002263838192244627 -0.0038135152637472913
          -0.0004228340460050717 -0.0002959066734187221 -0.0007146804257165407 -0.0002785404663299129 -0.00254457646991213 -0.003000409685301797
          -0.001800744034914814 -0.0018400808042065009 -0.002163117238758616 -0.00041632184793050087 -0.0007456739913194177 -0.003039923279746226
          -0.006386215074242418 -0.005528525375277482 -0.0022034467556828474 -0.000004048611889739817 -0.0001415268497488853 -0.0020114849132202295
          -0.0011709847201615275 -0.001973427961050156 -0.00535058728653226 -0.0009547688686968314 -0.001499041927916167 -0.004136296174296561
          -0.0007293763405162856 -0.0010975001817041807 -0.002143928934458472 -0.006180935581251212 -0.010837238026244478 -0.001128958759561982
          -0.0032465229907847615 -0.008364144837088361 -0.0026962966696171264 0.0001770092258226441 -0.0021607744627250014 -0.0006219230901267636
          -0.0011751648220315047 -0.0034861359742679454 -0.002976051315240813 -0.008326193965277895 0.0006382817810619557 -0.0032490673806586656
          -0.004395647803468794 -0.0046419297065312115 0.00033862525147121403 -0.004647547789383477 -0.004416894693477502 0.0007076433899277923
          -0.007436464312150282 -0.003946843912079778 0.0013031437320738526 -0.0006482454062091136 -0.00473306137582874 -0.002906929748429654
          0.0032391603917041323 0.01110970930770705 0.007692440417438107 -0.007853537171052416 -0.012667125628270881 -0.0065069002829876155
          -0.004857343958386551 -0.004797440055324564 -0.013447717057299968 -0.011647998592016151 -0.00770471141897211 -0.004069958144156338
          -0.0038516157616461655 -0.005461371601493958 -0.005215281306655939 -0.0070358277669626546 -0.002023379782803758 -0.0026958252734008425
          -0.002593046559113077 -0.0024550997153465204 -0.007280261953354739 -0.007475934068128964 -0.007984783885223834 -0.007503292381093374
          -0.001764586343877994 -0.005482472679297246 -0.007086705819428829 -0.004621493687111844 -0.009397691764746696 -0.003488031528791957
          -0.005151357541005375 -0.0016828909005841552 -0.007892100928621915 -0.005179417252673346 -0.004752816122024939 -0.004753503934251668
          -0.009810294690242749 -0.015411705361289663 -0.0042675388441857365 -0.007742806272091229 -0.007365438919925804 -0.011316638301426707
          -0.009506447148057262 -0.004172104063495219 -0.002930266699443962 -0.003951697246179275 -0.002394412690549963 0.001607884269695159
          -0.001180953596325196 -0.0037341017330874138 -0.006748604001765912 -0.000029038814279402914 -0.0006369401364718641 -0.0001021795078219867
          -0.0013715748138452 -0.004146993489444029 -0.0071963632678855305 -0.0009365144195641051 -0.002491747235541908 -0.006290245930511418
          -0.0007781803637207929 -0.0016370435042354359 -0.005612589450752381 0.07616159919067655 0.16425005902652856 0.0870060749807493
        </DataArray>
        <DataArray type="Float64" Name="resid_y" format="ascii" RangeMin="-0.7668157417439121" RangeMax="0.5157663159372436">
          0.035000529225947236 -0.39142792280151695 0.03152379573437333 -0.7668157417439121 -0.010819363170897656 -0.3426924720262491
          -0.00001840089038235293 -0.35150329858492146 -0.00003608346316080757 -0.6978806597449339 -0.000028716634667580454 -0.35202813381583387
          0.000010466454725355234 -0.27174931123398705 -0.000003951124403281381 -0.5437966531625072 -0.000013401302011967209 -0.27422495437496686
          0.000020523890968446312 -0.2007386791970653 0.000002802480239191829 -0.40212362378090194 0.000017913421094611914 -0.2019322657722064
          0.00003364829410749948 -0.11944743844563155 0.000009994270109225933 -0.23892860332922494 0.000022567006983373328 -0.11935489553968984
          -0.0013998390684179986 -0.02544787288466377 -0.005417208454419247 -0.049383406962613126 -0.0028616375369589176 -0.02463542179285727
          0.02073937960214378 0.12040503888499188 0.024170386181836978 0.22855879859998823 0.005649992337851455 0.08723888486862894
          0.022201729124328738 0.2884933931485827 0.03292198224147563 0.5157663159372436 0.008763389695663641 0.18875381209603287
          0.008366029831972405 0.016891024057589854 0.008008050225241037 -0.000037874720244329696 -0.00005994895169708636 -0.00005515757471641347
          0.000011480271862179814 -0.00004497756425703159 -0.00001653520241742812 0.00000450510801086601 -0.00007075295537400939 0.0000044273869245908815
          -0.000004189081032057729 -0.00006582971974662677 0.000020081850139935797 -0.008126265467107159 -0.014056834077026499 -0.012549445009873449
          -0.0012209896585601843 0.005143848232509934 0.0006014402855768364 0.0015364296682058992 0.0018677473315634931 0.0004653677582639182
          0.000026604546551262098 0.000036708263751378256 -0.00008979090304817028 -0.000029714309031814157 -0.000008894752011462392 -0.00005187243232943062
          -0.000008081069587384526 -0.000016971971437143574 -0.000019713176614061245 0.000034378723642425335 0.000003985136872844408 0.00004775247474879396
          0.00005358108846754278 -0.000007655950900166408 0.00006562185341040666 0.009852696274873021 0.019966005787470157 0.016008143376773344
          0.011846438836601764 0.021321054107113272 0.011044025650110423 0.0004166026244485886 0.0005072955125363515 0.0005305592642180154
          0.00006990045176505366 0.00010590179797298482 0.00005436639531944398 -0.000030818074423732966 -0.000012713304616357446 -0.00003124387252234628
          2.854941856811344e-7 -0.000009022658252227922 -0.000015089477554630637 0.0000414865570992351 0.000002760433248080729 0.00005513594018029255
          0.00009887580215329692 0.00001548256127337222 0.00010708385604332737 0.0006932391972496246 0.0010915036444226686 0.0007458680838889897
          0.0007132885742939729 0.0010446447386737723 0.0008514793991395014 0.00039015130292145705 0.0003505842811240417 0.0005830961346879188
          -0.00019326376190115235 -0.000043628819828556153 0.0000651601381592426 -0.00003755127363172517 -0.0000035344265237879924 0.000015648632695514086
          0.00003808099147740995 -0.0000015284243277680076 0.000015050844221556336 0.00006966438833218291 0.000016487182042945747 0.00007919297643972645
          -0.006768150582858814 -0.014999856270788413 -0.008854465369359896 -0.011488342467092627 -0.025169853574500634 -0.01386454962083869
          0.0006705307985776926 0.0008040269998663419 0.0007704219292713754 0.0004546752465347942 0.00036422073566363955 0.0006706667068516192
          -0.00020340603168472748 -0.000053808040412633984 -0.00005124342685788874 0.00001648425794167907 0.00000620489444971839 0.000055536234816466745
          0.00009026411124225808 0.00004641507725546001 0.00008275013404171472 0.00011150506604695742 0.0000024873189826135622 -0.00005989093708060056
          -0.002610838366010261 -0.005127847794355017 -0.0019484076832930464 0.011203316871352925 0.023298101894238754 0.012950331143141897
          0.0005884719869741761 0.0005124344932319891 0.0006544796653037976 0.0005108738896971443 0.0003738423926454293 0.0007553248464954587
          -0.000016968952023549422 0.00012586425775734655 0.00008662682403415278 -0.0000038026456956608 -0.000014754762545421407 0.0000378165698587396
          0.00007914579099296826 0.000044434278640648195 0.00010229897098593121 0.0001396268322139127 0.00008098508755896572 0.0001356197221532296
          -0.004539045013107881 -0.011736209977888656 -0.007668104377662632 -0.00017495277787943353 -0.0022968106854913406 -0.0017281066907218479
          0.0029271296610869912 0.0054709019823357685 0.003218484470266597 0.0007102466399774854 0.0006932855362808688 0.0008534632332251046
          0.0005241817062245357 0.0003285588460345268 0.0008235429603631605 0.000028615642855583934 0.00002413322204633528 0.00006680982634993393
          0.00007495204455626459 0.00004640465576569164 0.00008432075389044891 0.00013274959551495824 0.00008003941491302458 0.00015714197630389837
          0.0001427337144048746 -0.0006858600099751699 -0.0007023708690750974 -0.02189297629854793 -0.04621536540145568 -0.02414060510082508
          -0.006901025271947164 -0.01335020443440732 -0.0055049037090061925 0.0004723110252689011 0.0003904357109918988 0.000608129979544958
          0.0007806872577053869 0.0007868811605884485 0.0009251524719932069 0.0005396343852663299 0.00030005163882554364 0.0008873796249400379
          0.00016167447462012152 0.00004618761570596153 0.0001383049972905337 0.0000973253942631036 0.00005382616618734848 0.00016190903489021746
          0.000132049380833138 0.000056863113054000936 0.00016602530631762424 -0.012212207543310163 -0.02721072045446532 -0.014791685316104697
          0.007806114058320379 0.01682876830677635 0.01009698270840198 0.019850124714935635 0.040614480951254806 0.02190546126503018
          0.0006082221916054453 0.000551467576126563 0.0007813829706336262 0.0007052115564805395 0.0005071428966227087 0.0008195561705788001
          0.0005387807360065222 0.00021156509956421488 0.0009101131369952942 0.00022946923622099713 0.0001543903499649224 0.00014289442915399464
          0.00014085004744887608 0.00006783691758288635 0.00016623037464680301 -0.0008509462774186072 -0.004045150334512582 -0.003665691035893537
          -0.008288591482569413 -0.012068070638098533 -0.00549564000899766 0.006908718664323299 0.03131593942457844 0.018977263836946368
          0.0003708500197331377 0.0002744703852406438 0.0006204448083898528 0.0005982781131393389 0.00038971035533408305 0.0007060076567297902
          0.0007497314217749518 0.00046861341974083204 0.0009362509080510228 0.000560800490103458 0.00014414735797857459 0.001043010415004847
          0.0003351645446555418 0.00019223066155191204 0.00017041969666301005 0.00017580831714072986 0.00007355730572405905 0.00019817077507094938
          -0.009054783257432919 -0.017017644166468837 -0.00688564865830929 0.00740493185497948 0.011539566229742837 0.007342025914042205
          0.012569750028299576 0.009826794569112507 0.004250152988653111 0.00031838713021331566 -0.00009051997599168748 0.0003427978202372173
          0.0004923374888092802 0.00008325858888169613 0.0006270789687776723 0.0009198899502208258 0.0006226897518730734 0.0011816251737020167
          0.0008074116764900732 0.00042042833009790434 0.0015517280883763224 0.00033338561011639345 0.00021357251725609427 0.00019050957015986913
          -0.0009822051395774745 -0.0030388439713588677 -0.001714069772183885 0.006158545008772748 0.009716534742098215 0.004263566251676287
          0.013067038946619702 0.026658800495766077 0.014479776818458967 0.00020115959899602576 -0.00004735392007504391 0.0002587886085754221
          0.00019586202109400652 -0.00034593934853449637 0.00026439565493935335 0.0004488071458830234 -0.00019171522416250308 0.0006224306092353082
          0.0008913812024936851 0.0002502024522147428 0.001143481307442129 0.0009020697675563016 0.0002625717508782724 0.0013417000410617004
          0.00033684160121205675 0.00022716669259043032 0.00018234011493359348 0.00130669947920517 0.002961676532046764 0.0019371515046869847
          0.004225497031907333 0.010887111690294882 0.007266452469657014 0.00009971993422841496 -0.00018110606977495003 0.00016567094059510845
          0.00019998305787444215 -0.00015356085674078646 0.0003214755178464479 0.00024294289763532317 -0.0003729165394844025 0.00038730535950437517
          0.0004714555518698371 -0.0003593922554748219 0.0006872790498425041 0.0010098212214001978 0.00024665151895433834 0.0013496274558868343
          0.0011096178389725375 0.000592755791399141 0.00175547626205972 -0.001755604568408009 -0.0012689755874930597 0.00036530876847507
          -0.0003155245540097662 -0.00043023043903533953 0.00027439743170881714 0.00019655778362320797 -0.000023240428880910713 0.00023350723853321487
          0.0001947396924431577 -0.00005474375964575895 0.00028095019909540886 0.00017312892165538551 -0.00032921917667294576 0.0003183181277460201
          0.00030236744597145204 -0.00046047470537952107 0.0005206712746448905 0.0005856228800054653 -0.00045562328622650305 0.0008302719531013691
          0.001130569722379765 0.00008587503004287012 0.0014821526999543155 0.0012082554605227186 0.00040213461191127876 0.0019272291233346645
          0.0007745896847132505 0.00043911206784141843 0.00019041653523296787 0.00022500840044736847 0.00007082079094034022 0.0003059939521311006
          0.0002446564008402041 -0.00009971066988057053 0.00036957933351389194 0.0002610643812391844 -0.0003825603060017002 0.0004413475252719179
          0.0004173322958063441 -0.0005433550628018424 0.000670214634641314 0.0007341495976051216 -0.0005246920209320965 0.0010192237720794833
          0.0013290508298787404 0.00006159374833363679 0.0016786821690312898 0.001371278368013762 0.0002990514588559756 0.0020547690930201035
          0.00036181365504106555 0.0003969129251397696 0.00037986171450807293 0.00023275435851893844 -0.000002861696524802948 0.00033459823751313955
          0.0002625369803357924 -0.000261180291607932 0.0004257396078057307 0.0003747304392529016 -0.0004442586867500764 0.0006015600564932555
          0.0006271430724416605 -0.0005077921636364446 0.0009068982080540772 0.0009688810402100744 -0.000497910634281111 0.0012660415346123916
          0.001471040422888939 -0.00007724455618816906 0.0018613788225963074 0.0016360267674586926 0.0005104816737182549 0.0024579796512617935
          0.0005084561892969575 0.0005296526244552568 0.0004560160166023064 0.000228211806940104 -0.00014341251897159735 0.0003672184888181551
          0.00030023548597102323 -0.0004612017689448189 0.0004907003469861171 0.0005050284914128178 -0.0005567845376013569 0.0007488492839402561
          0.0008794003266964778 -0.0004375324720884699 0.0011706101169225644 0.001298343832990309 -0.0003040993880263354 0.0015888067470753164
          0.0016700476288727395 -0.00011155399544221511 0.0020722951111736554 0.0016412279998600787 0.0001271315368264747 0.002428239159951634
          0.0010578589226684088 0.0016657643724977689 0.000872500275191257 0.0004374902895538657 0.0001278903497698436 0.0005759025528957323
          0.000402355088226225 -0.0006121705064799365 0.0006278529335508876 0.0006738250965439008 -0.0006324107846573945 0.000943412198654639
          0.001100382558360244 -0.0004676301054701293 0.0013879133835909274 0.0015792262447192618 -0.0002314420731407696 0.0018589858547865823
          0.0020752920393396768 0.0003499213395814216 0.0025375478060190026 0.0019805336551824704 0.000906185904284304 0.002592520342680621
          0.000501390755993536 -0.00018596634938594647 0.0006072053022504464 0.00035764049057401825 -0.0006692260899971159 0.0007984386171285274
          0.0009037375040362172 -0.0006183332946641008 0.0012598154359443198 0.0013351284266534397 -0.0004926571192028217 0.0016341889222430128
          0.0017855141600591762 -0.00028679271849244015 0.002061348484519221 0.0024938539205669463 0.0009638999782043967 0.0031446064685465847
          0.00149765620147152 0.0004068343241056538 0.002842865005573847 0.0009446019806652606 0.0002833859168511754 0.0009117856551301706
          0.0006835908996953299 -0.00047081722389055725 0.0011779280162420858 0.0012234091231387162 -0.0005063561422233576 0.0016570070878256793
          0.0016181985086188844 -0.00041077681610934835 0.0019366771654224513 0.001973210023567873 -0.00033790161008245834 0.0022674358281394857
          0.0026107141933084943 0.000937026171924149 0.0032865267160725464 0.003414466878814415 0.004038065162976834 0.004407222883567152
          0.0013575785679536545 0.0006730031680883819 0.0012826265278492177 0.0010268202649309707 -0.00022289312603977762 0.001558040747637851
          0.0015600115870894327 -0.00035007980566151287 0.0020332743606001347 0.0018997177170712587 -0.00031559255710345013 0.002296440817835088
          0.0019497228024095703 -0.0007153502808108225 0.002300647083824492 0.004105880931317585 0.003949706959805344 0.0037471031436572266
          0.0035483211727996566 0.004467455168823076 0.002205818720188768 0.005038503938874894 0.007238793080420469 0.004086067773806296
          0.005995451718667111 0.008104502055791774 0.004946029922431705 0.006665222312153829 0.009041794670581638 0.005481765630209023
          0.005622973898703643 0.007103087160237609 0.004372856891799559 0.00033928784415988844 0.0005148925399488802 0.0006821263347661262
          0.0016399186864249626 0.0009744998376423758 0.0005343149359188781 0.0017442483202862388 0.005199536315905917 0.0034351945518747706
          0.002861255393039386 0.003252375969516129 0.004944760835763451 0.0007212788856169605 0.00044230498721235106 0.00036801146048906497
          0.00043098248948358897 0.0018258622268598756 0.0010408547620039954 0.00044085960226484915 0.0008836112783267847 0.001707515713073593
          0.0011034592145049878 0.0009915468880161184 0.0013216240123560818 -0.0002511613690470704 0.004178942629722182 0.0003405021733655922
          -0.00032879074871930425 0.009042509318661157 0.000434191843070586 0.001159146406127104 0.006040768935629798 0.002081732000973127
          0.0038000263262405465 0.005954498979899192 0.004036116329887873 0.0018994739308870051 0.0006952647389014133 0.001670232674272517
          0.004458132292260886 0.0012533633988991988 0.0006471839222256456 0.0033922105956350757 0.005160029590887322 0.001758332949207242
          0.0009651711875696758 0.002124998197278169 0.0032921417592427227 0.0013484658831255936 0.0009296541935081004 0.0014719765112381489
          0.0007519307930248242 0.0012549464383461162 0.0009983962469680974 0.002100174504271579 0.0012887864320236808 0.000664451310308678
          0.002600584482880225 0.0033436629108969385 0.00401234351792204 0.0026308414943674585 0.0038618782553462294 0.004870316406979103
          0.0006886205634212272 0.0009572883592336434 0.00042967363983781315 0.0009887312771834633 0.0006934290503392282 0.0008430572366734945
          0.0020046801512298984 0.0036568340166941993 0.0009591268772488615 0.0020364311164426663 0.0033271772493659313 0.003143471590799418
          0.0011008344657892771 0.0018452771646939592 0.0014417750324980383 0.007267193172332764 0.008736912694897653 0.011724420600324123
          0.013632729648092253 0.007079898825295701 0.0072741017063280775 0.004974889040924191 0.005176762845223934 0.004281692164837536
          0.004812567634602652 0.003656210352679823 0.003591428993239526 0.0016796097545226825 0.001967146225940731 0.0016585948662513842
          0.0018898988796886666 0.0011754488725001164 0.0014942637205711436 0.0011645630439011123 0.0009578713614935425 0.0008062934109754616
          -0.0004418448463952701 0.000976398677080409 0.0004836785337249405 0.0006093875378873626 0.00046224760568081 0.0006822855285098794
          0.00043055682419022856 0.0005186955347713101 0.0006951281862233732 0.0005041655193956662 0.0005648288992425865 0.0006076859631315018
          0.0017347201566230153 0.001364512156705605 0.0009823569812709987 0.0004723877846868011 0.0005748471883608511 0.0004141424375450897
          0.003898414497979369 0.004185025812706605 0.0030473960040908465 0.0007173771424977271 0.0011989008889740915 0.0006209339051403556
          0.0010476157613423243 0.0011974102080520854 0.0008756606516577836 0.0008932667904363034 0.001230045981410799 0.0008355579887852904
          0.000717900992230347 0.0011035785168557188 0.000685686912814093 0.0045796649786283145 0.005534148795154681 0.003631303679555456
          0.0005726716684821831 0.003794409477352434 0.005220535386119218 -0.0006738072190412558 0.001198703320036687 0.003660590122802454
          0.0032967591525370765 0.0028647195584323715 0.00918039020799477 0.007608744653231192 0.006556859813439564 0.005173074129729838
          0.004868971217418472 0.010910434117821444 0.007735768883111893 0.005297990024199839 0.01149297253392656 0.007816924322724184
          0.004337663685099802 0.007580328105546652 0.006003127364475835 -0.0010691278646077773 -0.0012961298387387243 0.0025878901173204127
          -0.0049499915740141565 -0.009178525739305138 -0.0008863201115823782 0.0031938907593358767 0.005443953592239925 0.005045218434944709
          0.0023657792069093457 0.00489227792062874 0.00500162854579566 0.012152337069826213 0.0032899854684354524 0.007416545583700973
          0.002731033393552601 0.0037200440640449417 0.00141269578339559 0.0038634033283405644 0.003236806065742781 0.004010490050833926
          0.002186165197539086 0.0004026867199119488 0.0024085434198205524 0.0010550392331837855 0.0024960986156960796 0.0024055107376420026
          0.0006988862867405854 0.002126427669722597 0.0019740998581810887 0.001823271589576514 0.0033150940281845287 0.0027784233983023654
          0.003380611940780598 0.0013144363580021856 0.004633635893728741 0.0016254410730605628 0.003293669598783605 0.00295200141050965
          0.009582325654443682 0.013754975754525167 0.00815075749654462 0.011714218105264018 0.010284327721921227 0.016994627590958156
          0.015592155564852161 0.009345075330615571 0.008675123931085271 0.004543347192745906 0.005498138580523726 0.0033208427426481
          0.0004191127033508213 0.0013093964631603061 0.0013462099476537204 -0.14422266136238943 0.0004012522449349243 -0.3532719711194709
          0.0009994491715658027 -0.3041811754224186 0.0007176414118585939 0.000935992414679454 0.0009451934204493528 0.0008013373632379528
          0.000562873392391583 0.0011463889232802837 0.0007769542293784293 -0.01756308352246065 -0.03871068741495354 -0.018407829973727086
        </DataArray>
        <DataArray type="Float64" Name="resid_z" format="ascii" RangeMin="0" RangeMax="0">
          0 0 0 0 0 0
          0 0 0 0 0 0
          0 0 0 0 0 0
          0 0 0 0 0 0
          0 0 0 0 0 0
          0 0 0 0 0 0
          0 0 0 0 0 0
          0 0 0 0 0 0
          0 0 0 0 0 0
          0 0 0 0 0 0
          0 0 0 0 0 0
          0 0 0 0 0 0
          0 0 0 0 0 0
          0 0 0 0 0 0
          0 0 0 0 0 0
          0 0 0 0 0 0
          0 0 0 0 0 0
          0 0 0 0 0 0
          0 0 0 0 0 0
          0 0 0 0 0 0
          0 0 0 0 0 0
          0 0 0 0 0 0
          0 0 0 0 0 0
          0 0 0 0 0 0
          0 0 0 0 0 0
          0 0 0 0 0 0
          0 0 0 0 0 0
          0 0 0 0 0 0
          0 0 0 0 0 0
          0 0 0 0 0 0
          0 0 0 0 0 0
          0 0 0 0 0 0
          0 0 0 0 0 0
          0 0 0 0 0 0
          0 0 0 0 0 0
          0 0 0 0 0 0
          0 0 0 0 0 0
          0 0 0 0 0 0
          0 0 0 0 0 0
          0 0 0 0 0 0
          0 0 0 0 0 0
          0 0 0 0 0 0
          0 0 0 0 0 0
          0 0 0 0 0 0
          0 0 0 0 0 0
          0 0 0 0 0 0
          0 0 0 0 0 0
          0 0 0 0 0 0
          0 0 0 0 0 0
          0 0 0 0 0 0
          0 0 0 0 0 0
          0 0 0 0 0 0
          0 0 0 0 0 0
          0 0 0 0 0 0
          0 0 0 0 0 0
          0 0 0 0 0 0
          0 0 0 0 0 0
          0 0 0 0 0 0
          0 0 0 0 0 0
          0 0 0 0 0 0
          0 0 0 0 0 0
          0 0 0 0 0 0
          0 0 0 0 0 0
          0 0 0 0 0 0
          0 0 0 0 0 0
          0 0 0 0 0 0
          0 0 0 0 0 0
          0 0 0 0 0 0
          0 0 0 0 0 0
          0 0 0 0 0 0
          0 0 0 0 0 0
          0 0 0 0 0 0
          0 0 0 0 0 0
          0 0 0 0 0 0
          0 0 0 0 0 0
          0 0 0 0 0 0
          0 0 0 0 0 0
          0 0 0 0 0 0
          0 0 0 0 0 0
          0 0 0 0 0 0
          0 0 0 0 0 0
          0 0 0 0 0 0
          0 0 0 0 0 0
          0 0 0 0 0 0
          0 0 0 0 0 0
          0 0 0 0 0 0
          0 0 0 0 0 0
          0 0 0 0 0 0
          0 0 0 0 0 0
          0 0 0 0 0 0
          0 0 0 0 0 0
          0 0 0 0 0 0
          0 0 0 0 0 0
          0 0 0 0 0 0
          0 0 0 0 0 0
          0 0 0 0 0 0
          0 0 0 0 0 0
          0 0 0 0 0 0
          0 0 0 0 0 0
          0 0 0 0 0 0
          0 0 0 0 0 0
          0 0 0 0 0 0
          0 0 0 0 0 0
          0 0 0 0 0 0
          0 0 0 0 0 0
          0 0 0 0 0 0
          0 0 0 0 0 0
          0 0 0 0 0 0
          0 0 0 0 0 0
          0 0 0 0 0 0
          0 0 0 0 0 0
          0 0 0 0 0 0
          0 0 0 0 0 0
          0 0 0 0 0 0
          0 0 0 0 0 0
          0 0 0 0 0 0
          0 0 0 0 0 0
          0 0 0 0 0 0
          0 0 0 0 0 0
          0 0 0 0 0 0
          0 0 0 0 0 0
          0 0 0 0 0 0
          0 0 0 0 0 0
          0 0 0 0 0 0
          0 0 0 0 0 0
          0 0 0 0 0 0
          0 0 0 0 0 0
          0 0 0 0 0 0
          0 0 0 0 0 0
          0 0 0 0 0 0
        </DataArray>
        <DataArray type="Float64" Name="stress_zz" format="ascii" RangeMin="-3680867.4543097406" RangeMax="5099550.792270902">
          1458365.0780885066 1080043.0700496421 1067770.165990243 642587.1099893792 677175.2538919796 205131.14992911616
          292899.68139144033 468266.2775848252 178996.5806895312 337604.3779683791 65093.479987622006 206942.47835193304
          -126897.0588399875 -113236.09094956527 -75534.10573613188 -59431.861718037755 -24171.152632276237 -5627.632486510243
          4926.914196374306 9145.540905651656 7.750398353149421 9956.721347291368 -4911.413399668005 10767.90178893108
          -31284.858123891576 -97282.24402419773 -20463.090002776706 -79977.67015699678 -9641.32188166184 -62673.09628979582
          326034.4813006172 472749.95133948827 261611.08277027766 378384.7803982003 197187.68423993813 284019.6094569124
          71111.1764702923 377227.5174631807 -129698.41112170136 89347.98752367578 -330507.998713695 -198531.54241582914
          -1710403.504097036 -2365836.915040772 -1508517.8666445194 -2312550.6361001288 -1306632.2291920024 -2259264.357159486
          1343295.3355499816 1131302.6933859144 919310.0512218475 -51378.02198242274 -92865.55834802141 -134353.09471362008
          -83021.18349032823 -48374.348586192486 -13727.513682056751 -15235.621800002758 -31426.090721074557 -47616.559642146356
          141818.46757668135 141746.41303997586 141674.35850327037 -105610.43028848403 -128800.63601594426 -151990.84174340448
          -475105.0434651002 -541303.1393735512 -607501.2352820022 -388899.52197620884 -211395.3085712791 -33891.09516634945
          411243.6055927144 371302.12616604194 331360.6467393696 -101226.45007788469 -87884.38266612025 -74542.31525435578
          -22678.216744450787 -9017.173621489232 4643.869501472325 8809.848756247051 -15861.243785623004 -40532.33632749305
          160253.43854869873 144766.15424256813 129278.86993643754 -863220.432914477 -872673.7669417073 -882127.1009689379
          -854416.6871647442 -869188.9565349423 -883961.2259051402 601534.7504157557 597721.1894991427 593907.6285825298
          -29740.219591356275 -28240.523033863337 -26740.8264763704 -522.1889424828987 6309.786542595677 13141.762027674253
          -16383.270346651818 -14373.79672860173 -12364.323110551646 160854.10185655707 120140.12162300914 79426.1413894612
          -292547.3111220186 -305628.6276839899 -318709.9442459612 -1627595.122780376 -1629857.3572996752 -1632119.5918189744
          -667305.7641190845 -683961.6016376428 -700617.4391562013 991177.6209130096 1066218.3744476715 1141259.1279823333
          -20450.102922060774 -20444.652016742286 -20439.201111423798 -26413.246272406657 -21246.021188532453 -16078.796104658248
          -5263.085412104589 -20433.77083528064 -35604.456258456696 328256.6518881227 258455.53982276504 188654.42775740733
          -1068656.9542365405 -1002049.4798411919 -935442.0054458439 -2064313.4015178327 -2020863.962575038 -1977414.5236322433
          4764.526811211195 -44827.87365799848 -94420.27412720822 1212730.642052449 1381461.498941743 1550192.3558310368
          -12549.821063314708 -11402.083397920715 -10254.34573252672 -33877.54916460701 -30347.251322775846 -26816.953480944692
          117464.85555620835 78534.19572578001 39603.535895351684 5765.314183967595 -75034.76384573332 -155834.84187543415
          -1867758.9760950473 -1726434.2918272433 -1585109.6075594388 -1996769.2406843877 -1943457.2193989006 -1890145.1981134135
          465552.9439772858 374297.7033570345 283042.46273678297 1436622.7664072574 1628117.0426096953 1819611.3188121328
          -10422.03830698391 -10860.01591650737 -11297.993526030827 -21476.140192203304 -13826.838748918237 -6177.537305633172
          -5196.918516781483 -20637.55922930543 -36078.19994182938 305276.5471491729 234398.4432713859 163520.33939359896
          -1016181.897717917 -1010427.2887542456 -1004672.6797905742 -2488174.952324283 -2289260.8485921016 -2090346.7448599203
          -1245819.9074364502 -1279795.1830723349 -1313770.4587082195 660739.1533310534 557816.5972826886 454894.0412343237
          1430887.7266063916 1665285.3868438439 1899683.0470812966 -18744.697435913 -16954.050888349077 -15163.40434078515
          -31037.126413876336 -26851.51161518217 -22665.89681648801 149508.84802877327 100841.04104129729 52173.234053821296
          -25593.56224220866 -95140.70788995728 -164687.85353770593 -2045038.5058986682 -1908317.3579136415 -1771596.2099286148
          -2300120.039025629 -2071202.9908290792 -1842285.9426325294 -290969.59390278946 -407825.91136472765 -524682.2288266659
          952996.0689942513 861275.9820531036 769555.8951119564 1480178.2000276754 1740002.6964865103 1999827.1929453453
          -29005.13595914148 -22113.73032458681 -15222.324690032143 14030.65255716943 -4225.278086897134 -22481.2087309637
          295729.113778235 208518.3821078544 121307.65043747381 -1069439.7214521286 -1038784.4051996485 -1008129.0889471681
          -2551113.822094057 -2348721.7115187556 -2146329.600943454 -1395601.5258725644 -1273189.8598100215 -1150778.193747479
          221868.27641646308 65768.99537734377 -90330.28566177553 1458798.069494594 1381431.6121526342 1304065.1548106745
          1945434.7255909059 2197138.8912885142 2448843.056986123 -34421.616758907694 -38942.9054223823 -43464.1940858569
          232439.97246871734 172787.14993438683 113134.32740005633 -297835.5519005052 -348458.9334483637 -399082.3149962223
          -2262603.958849927 -2118478.261366996 -1974352.5638840655 -2214466.602000191 -2076565.254856488 -1938663.9077127855
          -564788.2334804754 -574608.7330183098 -584429.2325561442 517677.59056251997 395745.0172738143 273812.4439851085
          1816183.3460853635 1773883.6159573852 1731583.8858294073 2538323.0984923216 2692767.479035499 2847211.8595786765
          74548.7434217196 43968.05599116605 13387.368560612507 181675.80178225273 103407.20269314706 25138.60360404142
          -1586265.9524138658 -1522576.9509883136 -1458887.9495627617 -2793588.257979306 -2618861.2677305033 -2444134.2774817008
          -1347839.2741982774 -1329467.5172133818 -1311095.7602284863 -15689.770146411829 -55142.05323748158 -94594.3363285514
          953735.1627182632 902204.8127495842 850674.462780905 1707380.942299582 1684541.1803300784 1661701.4183605746
          2744954.8241780507 2819598.051137743 2894241.2780974354 250616.19648386346 185703.12823779345 120790.05999172344
          -839865.3567401468 -861017.7775133098 -882170.1982864728 -2812765.099619616 -2668348.354052237 -2523931.6084848577
          -2370984.8128732974 -2258537.085311923 -2146089.3577505485 -646375.1095986951 -673600.3204891908 -700825.5313796862
          478865.38210664154 462739.14396708645 446612.9058275315 1326608.5293990532 1291433.422166631 1256258.3149342088
          1957044.0660378893 1906410.2436563158 1855776.4212747426 2859903.380253478 2928288.7449143576 2996674.1095752376
          -94679.00124193975 -189555.5658731868 -284432.1305044338 -2262230.164326317 -2211684.998478827 -2161139.8326313365
          -3206900.3483325355 -3055550.195365785 -2904200.042399035 -1543167.7305007637 -1517864.996069096 -1492562.2616374283
          16418.72786008509 -14295.535880727693 -45009.79962154053 1098386.527601507 1083360.0440986787 1068333.5605958505
          1765052.0288050845 1731516.940368743 1697981.851932401 2355112.4297781726 2308395.7750772503 2261679.120376328
          2131870.923125661 2149501.433376088 2167131.9436265146 -1279704.9419790343 -1320893.3612688323 -1362081.78055863
          -3378558.932228488 -3247542.8605592726 -3116526.7888900577 -2569908.657586012 -2473581.6582416613 -2377254.6588973096
          -685091.9218013128 -704261.834904383 -723431.7480074533 775636.0018380189 747286.5800468168 718937.1582556148
          1770150.8738281038 1745298.3703678276 1720445.8669075514 2315390.193437436 2290954.8207341516 2266519.4480308676
          2334318.304257224 2301149.1618300346 2267980.0194028453 2027459.7206328008 2041222.5405361296 2054985.360439458
          -3680867.4543097406 -3506099.8512421735 -3331332.248174607 -1579780.9170793723 -1559012.5420486901 -1538244.1670180077
          257118.99540554828 220566.78168759597 184014.56796964366 1558827.7038509287 1527822.368208779 1496817.0325666294
          2350265.1686625853 2319049.841670041 2287834.5146774957 2717669.6669398206 2689853.882711896 2662038.0984839713
          2506290.235863888 2483950.441429235 2461610.6469945824 1244337.9268463938 1327291.5079086334 1410245.0889708726
          -2939365.7659696094 -2819459.6293988815 -2699553.4928281535 -472240.9678855257 -508235.6806163278 -544230.3933471298
          1308162.4599673857 1267082.1713026299 1226001.8826378738 2341903.0468893773 2308812.5421518963 2275722.0374144157
          2767997.7994926716 2730251.5930381184 2692505.386583566 2756713.7872499498 2728130.156848261 2699546.5264465734
          2315117.9099120274 2320298.444730184 2325478.9795483407 1255337.5794213556 1377137.386127707 1498937.1928340583
          -1779220.860241069 -1711496.9089654842 -1643772.957689899 824287.5902245694 750369.3715619579 676451.1528993464
          2361292.1040822715 2315151.5400182097 2269010.975954147 3039188.8779124124 3006698.9344939035 2974208.9910753947
          3075153.4238443747 3027506.8330930406 2979860.2423417065 2450544.8707600846 2462007.973944653 2473471.0771292225
          1050595.9460202893 1130846.9462794203 1211097.9465385512 635779.6340215558 577482.5655735261 519185.4971254964
          -466434.6426321651 -378949.00290281966 -291463.3631734742 2216413.7696848046 2106333.5103926267 1996253.251100449
          3295059.3756391415 3247670.71875948 3200282.061879819 3503855.8033865006 3476345.3819650216 3448834.9605435417
          3127680.596731323 3068834.88782893 3009989.178926537 1943759.0260366532 2020073.4825554907 2096387.9390743282
          -452215.65733489377 -294938.46637489257 -137661.2754148912 -1578870.2909123444 -1885757.3106428531 -2192644.3303733617
          3494804.6015743124 3345870.53196522 3196936.462356128 3970794.488696356 3928791.3246971285 3886788.1606979007
          3626352.100328901 3608550.9807408983 3590749.8611528957 2790853.515385339 2724920.142296479 2658986.769207619
          1241213.640132317 1352826.4259067744 1464439.2116812314 -1067157.2463293525 -966368.7441843435 -865580.2420393343
          -1909869.4835943002 -2343258.562897034 -2776647.642199768 4485626.788678815 4303278.893484462 4120930.99829011
          4279114.765345383 4242944.9926866535 4206775.220027923 3380837.912362348 3371788.2245917874 3362738.5368212275
          2191295.695986051 2119910.0425104345 2048524.3890348177 604315.0567491979 734632.7363837119 864950.416018226
          -1108396.3602217848 -1090864.325548177 -1073332.290874569 -1565181.8463113343 -1969039.7510697613 -2372897.655828188
          5062769.450525308 4851269.070978319 4639768.691431332 4182717.8638167833 4139830.4506711955 4096943.0375256077
          2824398.1543567767 2813238.898617491 2802079.6428782064 1480661.5626314734 1403830.318606317 1326999.0745811607
          29759.4158263055 172318.74534861255 314878.0748709196 -1435874.158854694 -1459748.2633865194 -1483622.3679183447
          5099550.792270902 4872522.355928416 4645493.919585931 3615372.093855112 3564112.8452088167 3512853.596562521
          1928357.0252384772 1917625.1764055712 1906893.3275726647 553527.4254409669 488891.788328291 424256.1512156152
          -739293.6309409895 -606122.1698963332 -472950.70885167684 2149107.7589092245 1052687.2203467975 1670359.1461734015
          1455828.8531792215 2008140.9060166702 1041039.8004493051 1714408.919182469 1383641.0652218473 1867174.053124116
          1029392.3805518127 1758458.6921915365 1311453.2772644735 244702.4374424142 -402658.4062285927 1102553.2871112144
          821297.735529199 12611.14802787266 -669665.2417609582 1012638.7532760713 760744.6069625218 -219480.14138666895
          -936672.0772933238 922724.2194409282 700191.4783958445 1641843.812172492 -899033.3099389592 -1816808.6007446512
          1884481.2069113078 -842668.1128722908 -2125939.2983128405 2127118.601650123 -786302.9158056224 -2435069.995881031
          4017795.2447043643 4356651.620724641 4695507.996744916 1582326.7680141295 2936986.1384022343 1704664.233411786
          2120605.9275959623 1606656.911928588 3033097.3035013657 1611894.8091539363 2017068.4219346975 1630987.0558430469
          3129208.4686004966 1519125.3848960872 1913530.916273433 677424.0241388667 1128970.4399024257 490483.43361488555
          1091780.2883851493 303542.8430909044 1054590.136867873 3741735.6693469738 3755447.845396172 1100958.896496224
          3789527.0632946617 3907228.0540777813 1206544.888839392 3837318.457242349 4059008.262759391 1312130.8811825598
          1034268.3175989822 -127029.61899701689 1015465.3203389253 -276618.5562375365 996662.3230788681 -426207.493478056
          332139.11153829115 152875.5595958326 185363.29100623456 174338.25034381918 38587.4704741776 195800.941091806
          230145.42095841572 185770.79320784536 141396.16545727506 2633446.095842411 3457956.6496398235 2523740.942391104
          3493668.061910969 2414035.788939798 3529379.4741821154 -541636.2853480076 -591570.1622895364 -628340.1971247445
          -978902.4006600777 -715044.1089014814 -1366234.639030619 3120777.319905674 1282666.2289941572 3237407.37762682
          1276348.303360751 3354037.4353479655 1270030.3777273449 1885956.5976193275 1507623.1354966832 1751044.7517737465
          1435573.612841703 1616132.9059281657 1363524.0901867223 616146.3121146089 669294.1965615336 722442.0810084579
          -547109.6308351626 165123.76246531628 -449085.29445588245 332359.3752620817 -351060.9580766022 499594.988058847
          203168.3624321226 -88390.94591407319 -379950.2542602688 -1823264.7085476452 -1637688.7998732643 -1452112.8911988833
          -1214796.2860437704 -1758795.754405747 -2302795.2227677237 -3179754.88851471 -2758129.477841481 -2336504.0671682525
          -1151117.1076290575 -1219695.8450111004 -1288274.5823931438 -1611385.3830205982 -1413940.0140252758 -1216494.6450299532
          -1935990.8283454198 -1677161.800742809 -1418332.7731401986 -1987090.651221594 -2331031.1976518165 -2674971.7440820383
          -1899825.771804133 -1961566.3608751507 -2023306.9499461683 -2516430.7886623144 -2769819.632712699 -3023208.4767630836
          2470983.317344436 4454869.377516416 2410015.589654714 4225772.377316428 2349047.8619649922 3996675.3771164403
          616198.4788797126 608984.111461876 601769.744044039 -630763.303805745 -667918.6942721324 -705074.0847385196
          -1530705.3964135097 -1421866.3873970956 -1313027.3783806814 -2007585.2169259465 -2061523.5165665206 -2115461.8162070946
          299682.38972609694 561547.3484390838 823412.3071520708 961092.1658871396 1045586.0817725821 1130079.9976580245
          1128645.404951565 2901098.964209557 961464.0876912791 2846658.5887016254 794282.770430993 2792218.213193694
          -654742.1518904568 -2513979.0478874044 -673183.001146758 -2557513.362518529 -691623.8504030593 -2601047.6771496534
          316539.1629044813 -97148.63323197285 381584.1043423113 -57286.7433228517 446629.04578014126 -17424.853413730347
          -164340.288901207 -135741.0937767415 -107141.89865227608 -2333851.333479112 -2382846.8095650785 -2431842.285651044
          891107.6891832751 587662.2213690066 805063.1610858778 527248.9625417886 719018.6329884805 466835.70371457085
          1789233.481295666 1834260.7416018818 1879288.0019080974 1493113.523116902 3232170.325325115 1535853.2144064328
          3337811.232334514 1578592.9056959632 3443452.1393439127 -793206.1229822977 -562377.6917928376 -331549.2606033775
          -1152044.9460324633 -1136737.9398899304 -1121430.933747397 -2976253.1893095444 -2921447.3514804034 -2919872.736032424
          -2985455.0876059025 -2863492.2827553037 -3049462.8237314015 -2141237.399340271 -2152430.928717639 -2163624.4580950066
          -3121895.199554594 -3147309.994427178 -3172724.789299762 -517192.6797881131 -260316.0474161083 -3439.4150441035163
        </DataArray>
        <DataArray type="Float64" Name="peeq" format="ascii" RangeMin="0" RangeMax="0.0038979351604212765">
          0 0 0 0 0 0
          0 0 0 0 0 0
          0 0 0 0 0 0
          0 0 0 0 0 0
          0 0 0 0 0 0
          0 0 0 0 0 0
          0.000002714516508556457 0 0.000003443845819451308 2.6200892838437362e-8 0.000004173175130346158 5.2401785676874725e-8
          0.0000533824942038422 0.00004670815250134272 0.00005817492931661101 0.00005055859149294237 0.00006296736442937982 0.00005440903048454203
          0 0 0 0 0 0
          0 0 0 0 0 0
          0 0 0 0 1.2163325479912101e-9 2.4326650959824203e-9
          0.000021199611113261403 0.000022803149936020327 0.00002440668875877925 0.00010342985246405162 0.00010905924361646741 0.00011468863476888319
          0 0 0 0 0 0
          0 0 0 0 0 0
          0 0 0 0.0000056275064966384474 0.000006107528421476029 0.000006587550346313611
          0.00006662359054583842 0.0000688241908868783 0.00007102479122791818 0.000201868886122453 0.00020708810364392408 0.00021230732116539523
          0 0 0 0 0 0
          0 0 0 0 0 0
          0 1.7926048889048948e-10 3.5852097778097896e-10 0.000028664417266467928 0.00002967408646994428 0.00003068375567342064
          0.0001467727120187727 0.00014944002294260447 0.00015210733386643627 0.00033536156103729226 0.00034019017894318295 0.00034501879684907375
          0 0 0 0 0 0
          0 0 0 0 0 0
          0.000004113239705706015 0.000004649035050299742 0.000005184830394893468 0.00007800427162029109 0.0000795469091167835 0.0000810895466132759
          0.00027128128679500805 0.00027394358686613876 0.0002766058869372695 0.0005228576017380973 0.0005273925491767392 0.0005319274966153812
          0 0 0 0 0 0
          0 0 0 0 2.5316906012245146e-8 5.063381202449029e-8
          0.000028259676860844606 0.000029645022905007486 0.00003103036894917037 0.00017129699348475077 0.00017345405183407243 0.0001756111101833941
          0.00044442048805400097 0.0004468382501588912 0.00044925601226378144 0.000762660115097112 0.0007665919313027436 0.0007705237475083755
          0 0 0 0 0 0
          0 0 0 0 0 0
          0.000005776298371744108 0.000006670947993387599 0.000007565597615031089 0.00009056888812344408 0.00009302338673207431 0.00009547788534070452
          0.0003250365021301887 0.0003269855633260048 0.00032893462452182094 0.0006660947676378372 0.0006679810526245833 0.0006698673376113293
          0.0010353740899771919 0.001038481136582323 0.0010415881831874548 0 0 0
          0 0 0 0 0 0
          2.5203990611486808e-8 2.0848414111643943e-7 3.9176429162139206e-7 0.000036181917133612413 0.000038323606265097416 0.00004046529539658241
          0.00020890897389656018 0.00021206989732507186 0.00021523082075358354 0.0005366565994220761 0.0005377216610959858 0.0005387867227698957
          0.0009299568308235135 0.0009310839569417664 0.0009322110830600192 0.0013233237989299469 0.001325588279302645 0.001327852759675343
          0 0 0 0 0 0
          0 0 0 0.000010510384004923035 0.000011718557558361196 0.000012926731111799356
          0.0001157959722458513 0.00011907455022854292 0.00012235312821123456 0.00039393045616788983 0.00039662147435062475 0.00039931249253335967
          0.0007953931253786348 0.0007954329765322582 0.0007954728276858814 0.001223449672071561 0.0012236858429814398 0.0012239220138913188
          0.001613449626027389 0.0016146883415699956 0.001615927057112602 0 0 0
          0 0 0 9.296651554284262e-7 0.0000013632954560694052 0.0000017969257567103845
          0.00005424864853178555 0.00005692468909279829 0.000059600729653811037 0.0002627006176269999 0.0002665846582210035 0.0002704686988150072
          0.0006359584294661133 0.0006376096156164845 0.0006392608017668557 0.001086607779350619 0.001085717158551374 0.001084826537752129
          0.0015306940412151148 0.0015299448767684427 0.0015291957123217707 0.0019047408537469673 0.0019045319196029035 0.0019043229854588395
          0 0 0 0 0 0
          0.000020037516867583677 0.000021601276093255136 0.00002316503531892659 0.00015662361761262299 0.00016039640585851605 0.00016416919410440915
          0.000476268200503176 0.0004794152482110993 0.00048256229591902265 0.0009205367636729829 0.0009209862417804646 0.0009214357198879465
          0.0014012570309420893 0.0013995274501655767 0.0013977978693890639 0.0018465269209259456 0.0018446425590843115 0.0018427581972426778
          0.0022601078727845724 0.0022582043565967766 0.0022563008404089804 0 0 0
          0.000004346053530581236 0.000005098877090871751 0.000005851700651162265 0.0000811197166907415 0.00008421439366519036 0.00008730907063963923
          0.00032931581740701377 0.0003332781338567974 0.000337240450306581 0.0007440595181236838 0.0007458986174205079 0.000747737716717332
          0.001239991363554343 0.001239302562037316 0.001238613760520289 0.0017346036290842603 0.0017320776102915307 0.0017295515914988009
          0.0021603295238080355 0.002157365352832718 0.0021544011818574 0.002469499421037745 0.002467037697737458 0.0024645759744371712
          0 0 0 0.0000321548819278227 0.000034199188616002885 0.000036243495304183076
          0.0002026750819806595 0.0002069124936212796 0.00021114990526189972 0.0005669142780162866 0.0005699633049826298 0.000573012331948973
          0.0010593377394308946 0.0010597323766021768 0.001060127013773459 0.0015875729165105493 0.001585712580369275 0.0015838522442280006
          0.0020703190350924022 0.0020669611154380562 0.0020636031957837106 0.002443606827480633 0.002439869419945877 0.002436132012411121
          0.0026664390218119833 0.0026631439039800503 0.0026598487861481173 0.0000061862010604982606 0.000007241777756260105 0.00000829735445202195
          0.00010359262149897947 0.00010724467453645351 0.00011089672757392751 0.0003954485884974807 0.0003996229658700947 0.0004037973432427087
          0.0008642408665942537 0.0008658552405472268 0.0008674696145001998 0.0014152476902396078 0.0014141211748545028 0.001412994659469398
          0.0019494283630922759 0.0019463346418668768 0.0019432409206414781 0.002386681996071526 0.0023825387537542925 0.0023783955114370595
          0.002675050296720589 0.0026709083002346232 0.0026667663037486574 0.0027958853818327335 0.0027921350873897316 0.002788384792946729
          0.00023930050998222191 0.0002442457990977493 0.0002491910882132767 0.0006598381630103427 0.0006629010620683138 0.0006659639611262851
          0.0012166577300401272 0.0012165202759129266 0.001216382821785726 0.001797944558295114 0.0017952704038798916 0.0017925962494646692
          0.0023048893162567895 0.0023006877193101224 0.002296486122363455 0.002665807969211965 0.002661094572683901 0.002656381176155837
          0.0028431060161702446 0.0028389258117201524 0.0028347456072700594 0.0028455221544013264 0.0028418961100194107 0.002838270065637494
          0.00045552394799947823 0.00046022987620429373 0.00046493580440910924 0.0009957989941501316 0.0009970970613634755 0.0009983951285768196
          0.0016144435340823275 0.0016123479426700237 0.00161025235125772 0.0021890406688774415 0.0021848581480913187 0.0021806756273051965
          0.002630145863625248 0.0026251588449734443 0.0026201718263216406 0.0028868010268117764 0.0028821223655508686 0.002877443704289961
          0.002945028833207076 0.0029411255691392853 0.0029372223050714947 0.002831926420385225 0.002828188027297696 0.0028244496342101667
          0.0007550077616553657 0.0007583671749999632 0.0007617265883445608 0.0013973231035035668 0.0013964392099011548 0.0013955553162987426
          0.0020419902757416227 0.002037905814776282 0.0020338213538109414 0.002567940156193426 0.0025624237403320555 0.0025569073244706853
          0.0029044818488489442 0.0028991011707003387 0.0028937204925517327 0.0030303557063945693 0.003026438446586767 0.003022521186778964
          0.002972301560026957 0.002968984331454161 0.002965667102881365 0.002788430504230776 0.002783689093993021 0.0027789476837552663
          0.0011403369319790046 0.001141660069733175 0.0011429832074873452 0.001850616751674379 0.00184749033192838 0.001844363912182381
          0.002476850136560874 0.0024709687090454604 0.002465087281530048 0.002911689579840144 0.0029052490574467005 0.0028988085350532553
          0.003112562665508512 0.0031072565396970254 0.003101950413885538 0.0030907498706735717 0.0030878980985792883 0.003085046326485004
          0.0029116844267847598 0.0029089407843415132 0.0029061971418982667 0.002669752968797844 0.0026635783938598707 0.0026574038189218973
          0.0023352694050023147 0.0023302084678937353 0.0023251475307851563 0.0028911586333139967 0.0028839372807332605 0.0028767159281525246
          0.003194677029064321 0.0031879026187458435 0.0031811282084273657 0.0032373815115614756 0.003232657840897252 0.003227934170233028
          0.0030610049845403143 0.0030591716347835897 0.003057338285026865 0.002748914819159902 0.0027463963370819963 0.0027438778550040906
          0.0023875609161646038 0.0023815193318688743 0.0023754777475731457 0.0028231756388960847 0.002816817798203056 0.0028104599575100274
          0.0032533023921895786 0.0032453926477646246 0.0032374829033396707 0.003388020215958882 0.003381523960556153 0.003375027705153424
          0.0032532161915082695 0.0032494328244453714 0.003245649457382473 0.002914011948193232 0.0029130751050249442 0.002912138261856657
          0.0024594411027208728 0.002457249247656412 0.002455057392591952 0.0019681676437361597 0.0019643820064110975 0.001960596369086036
          0.0032779401956138134 0.0032711742392955044 0.003264408282977196 0.003526366475477475 0.0035185221068827844 0.003510677738288093
          0.0034573904373740682 0.0034517678024825298 0.003446145167590991 0.0031286073598052917 0.0031260863667154264 0.00312356537362556
          0.002625591303733377 0.0026257139061637035 0.002625836508594029 0.0020493697408391597 0.002048260759856347 0.0020471517788735343
          0.003654600010957616 0.0036483281592822737 0.0036420563076069315 0.0036669543232239806 0.0036599879501823945 0.0036530215771408085
          0.0033662661906393 0.003362173951374675 0.0033580817121100495 0.0028424449197329317 0.002841631694369664 0.0028408184690063964
          0.002204479837718227 0.0022059777755023256 0.0022074757132864247 0.0024085861301148636 0.0027238044023658987 0.002761556843338116
          0.0026106969899272097 0.002405709799802519 0.002719423885229974 0.00275730346438328 0.002606174506779923 0.002402833469490175
          0.0027150433680940486 0.0027530500854284446 0.0026016520236326365 0.0019994231717044 0.0022111567663976868 0.0019411429546338241
          0.001685349541313282 0.0019945529019837547 0.002205512407157182 0.0019386941508514964 0.0016838429366915638 0.001989682632263109
          0.002199868047916677 0.0019362453470691686 0.0016823363320698451 0.00173301028855911 0.0014893762542805451 0.002030264980870753
          0.0017356978340157666 0.0014910923819263628 0.002026992934764771 0.0017383853794724236 0.001492808509572181 0.0020237208886587886
          0.0015507159568115328 0.0015548684070339613 0.0015590208572563897 0.0027424585220699625 0.002651382535909973 0.0027098985395050228
          0.002693555633497199 0.0027384441334308016 0.002647721750417203 0.0027041004623885576 0.0026883276313219504 0.0027344297447916407
          0.002644060964924432 0.0026983023852720917 0.002683099629146702 0.001695808332323965 0.001384938058157004 0.0016924156861035898
          0.0013850293777995018 0.0016890230398832146 0.0013851206974419997 0.0022228866017111825 0.0018082413021717901 0.0018223809062811339
          0.0022218328735754923 0.0018093707317224646 0.0018237915600873226 0.0022207791454398017 0.0018105001612731386 0.0018252022138935111
          0.0010701250845853616 0.001363244100550669 0.001072242324117726 0.0013619600171921233 0.0010743595636500906 0.0013606759338335777
          0.0023620422408830812 0.0018807004769382449 0.002358730559581781 0.00188180582413144 0.00235541887828048 0.0018829111713246356
          0.002483422528963206 0.002477624489397085 0.002471826449830963 0.0023434911505932168 0.0018838068019902776 0.0023415626785421423
          0.0018851072390974719 0.0023396342064910688 0.0018864076762046661 0.0026127359559599043 0.002391190223549999 0.0026085331643862474
          0.002388138060143308 0.002604330372812591 0.002385085896736617 0.0025535552054832627 0.0026108252103063333 0.0025501214008539436
          0.0026056148137451078 0.0025466875962246245 0.0026004044171838827 0.002173866784466149 0.002409575954615596 0.0021704222017302744
          0.0024052333740527125 0.002166977618994399 0.002400890793489829 0.0007756368558340383 0.0007797664967744656 0.000783896137714893
          0.00037235319754559096 0.0005313251924395398 0.00037880074372505354 0.0005369615098137367 0.0003852482899045163 0.0005425978271879336
          0.002314920591712821 0.002308782847867436 0.0023026451040220504 0.0002754188174211318 0.0002823201070180108 0.00028922139661488984
          0.0024266071863041794 0.00241993859009877 0.002413269993893361 0.0001855510141633277 0.00019282090818796872 0.00020009080221260967
          0.001039205642770434 0.0010403471919441614 0.001041488741117889 0.0007487222777855607 0.0007520995047536889 0.0007554767317218173
          0.000549441912049291 0.0005543009875730052 0.0005591600630967195 0.001494159823390946 0.0014930524133621058 0.0014919450033332655
          0.001566197768483117 0.0015666805356613198 0.0015671633028395222 0.001021576213601161 0.0010226800113789384 0.0010237838091567157
          0.0036283111133642246 0.0038979351604212765 0.003623203957966315 0.003892987735287205 0.003618096802568405 0.003888040310153134
          0.0030874880250303183 0.00308569987527107 0.003083911725511822 0.0024000361225007356 0.00240131740299359 0.0024025986834864442
          0.0016928767475070002 0.0016957490117757521 0.0016986212760445045 0.0010720828305593431 0.0010739128244619616 0.00107574281836458
          0.001023278478150516 0.001028784606163065 0.0010342907341756142 0.0010762111398122907 0.0010800989294036509 0.001083986718995011
          0.002669876799875516 0.0024769576845569646 0.0026646190786478513 0.00247454224902491 0.002659361357420186 0.002472126813492856
          0.001203101198562185 0.0012113429735710738 0.0012054995887807191 0.0012139188686874033 0.0012078979789992533 0.0012164947638037325
          0.0022449602227534856 0.002472424676518406 0.002241611493788002 0.0024682541214428684 0.0022382627648225182 0.0024640835663673312
          0.001971216561702889 0.0019684295452296165 0.0019656425287563443 0.0011814415093283842 0.0011843115942486565 0.0011871816791689288
          0.0026468065886365876 0.002644446177095236 0.002641193417265001 0.0026407823956457635 0.0026355802458934144 0.00263711861419629
          0.0012742295091987472 0.0012766894102935432 0.0012791493113883392 0.001465327693967864 0.0020072104793975266 0.0014668229608835227
          0.0020089298657712945 0.0014683182277991814 0.002010649252145063 0.0010147416510387537 0.0010191797399433714 0.001023617828847989
          0.001672845052459885 0.0016708762873693713 0.0016689075222788576 0.00039923707987342215 0.0006646709738247831 0.00040438198605454784
          0.0006681778397882019 0.00040952689223567365 0.0006716847057516206 0.001370072158795009 0.0013693326647022802 0.0013685931706095516
          0.001060447041870138 0.0010613891503125157 0.0010623312587548935 0.0006278670910123952 0.0006340096220440337 0.0006401521530756721
        </DataArray>
        <DataArray type="Float64" Name="pe11" format="ascii" RangeMin="0" RangeMax="0.003894796236276077">
          0 0 0 0 0 0
          0 0 0 0 0 0
          0 0 0 0 0 0
          0 0 0 0 0 0
          0 0 0 0 0 0
          0 0 0 0 0 0
          0.0000027138384299743138 0 0.0000034431573357163708 2.6192820720159486e-8 0.000004172476241458428 5.238564144031897e-8
          0.00005336377394338431 0.00004669849513541776 0.00005815599856693063 0.00005054690071986499 0.00006294822319047696 0.00005439530630431221
          0 0 0 0 0 0
          0 0 0 0 0 0
          0 0 0 0 1.2163267494638427e-9 2.4326534989276854e-9
          0.000021192891500277574 0.000022796910662910786 0.000024400929825544 0.00010338752011545847 0.00010901979543732394 0.00011465207075918941
          0 0 0 0 0 0
          0 0 0 0 0 0
          0 0 0 0.000005626610422242139 0.0000061066482423865126 0.000006586686062530886
          0.00006659401500054492 0.00006879640817457325 0.00007099880134860161 0.00020176379465273463 0.00020698925155904565 0.0002122147084653567
          0 0 0 0 0 0
          0 0 0 0 0 0
          0 1.7923789137789622e-10 3.5847578275579244e-10 0.000028653856374368132 0.000029663801655608615 0.00003067374693684909
          0.00014667461913131757 0.00014934577282152964 0.00015201692651174172 0.0003351145450139667 0.00033995403825783137 0.0003447935315016961
          0 0 0 0 0 0
          0 0 0 0 0 0
          0.000004111742963240418 0.000004647348181284494 0.000005182953399328571 0.0000779521931402031 0.00007949578368201746 0.00008103937422383181
          0.00027103177942153814 0.00027370055226802784 0.0002763693251145176 0.0005223791472691464 0.0005269267404637136 0.0005314743336582808
          0 0 0 0 0 0
          0 0 0 0 2.5305951136742672e-8 5.0611902273485345e-8
          0.000028240398963916287 0.000029625283698559384 0.000031010168433202474 0.00017113312194946218 0.00017329179412245262 0.00017545046629544305
          0.00044392937548906863 0.0004463542034371052 0.00044877903138514183 0.0007618865842340275 0.0007658263807377978 0.0007697661772415681
          0 0 0 0 0 0
          0 0 0 0 0 0
          0.0000057725133641971876 0.000006666465808340356 0.000007560418252483523 0.00009047839400137006 0.00009293243515142883 0.00009538647630148759
          0.0003246491968783135 0.00032660099669321106 0.0003285527965081087 0.0006652979731526258 0.0006671879572448267 0.0006690779413370274
          0.001034322602819904 0.0010374274492062454 0.0010405322955925867 0 0 0
          0 0 0 0 0 0
          2.518470463948083e-8 2.0831070875989863e-7 3.914367128803164e-7 0.00003614440328159721 0.00003828413358099687 0.000040423863880396514
          0.00020864137043816657 0.0002118023338092324 0.00021496329718029825 0.000535937949250178 0.0005370075548646825 0.0005380771604791869
          0.0009288560433482792 0.0009299816523454066 0.0009311072613425342 0.0013221077853394138 0.0013243566753515178 0.0013266055653636214
          0 0 0 0 0 0
          0 0 0 0.0000104994216986253 0.000011706122009252137 0.000012912822319878977
          0.00011563930155857704 0.0001189146052222632 0.0001221899088859494 0.00039334217878746853 0.00039603510776230633 0.0003987280367371441
          0.0007942785752287936 0.000794324098596833 0.0007943696219648722 0.0012221010221997817 0.0012223316918843806 0.0012225623615689796
          0.0016121891812557148 0.0016134009411403508 0.0016146127010249866 0 0 0
          0 0 0 9.285513282398097e-7 0.0000013615879299835136 0.0000017946245317272177
          0.000054169502550333815 0.00005684175885101094 0.00005951401515168807 0.00026227053009361966 0.0002661503277320468 0.00027003012537047386
          0.000634915898026959 0.0006365701175371375 0.000638224337047316 0.0010850954123053026 0.0010842095150361242 0.0010833236177669459
          0.0015291789456847414 0.0015284222004295512 0.001527665455174361 0.0019035088449065993 0.0019032649411410605 0.0019030210373755213
          0 0 0 0 0 0
          0.000020006490327202073 0.00002156739874639327 0.00002312830716558446 0.00015634414469307533 0.00016011060170816396 0.00016387705872325254
          0.0004753736841992643 0.00047851749617674176 0.00048166130815421925 0.0009189630052348892 0.0009194159642375863 0.0009198689232402834
          0.0013994577558519305 0.0013977316691777826 0.0013960055825036344 0.0018450836394800396 0.0018431917253585739 0.0018412998112371079
          0.002259272069779768 0.0022573356673625056 0.0022553992649452423 0 0 0
          0.000004338581813354683 0.000005089958043220138 0.000005841334273085592 0.00008096158741466388 0.00008404991522467707 0.00008713824303469029
          0.0003286136016436915 0.0003325693393910628 0.00033652507713843405 0.0007425255653671776 0.0007443645932184572 0.0007462036210697367
          0.0012379301627321298 0.0012372445765093441 0.0012365589902865585 0.0017327412944787139 0.0017302154899427962 0.0017276896854068785
          0.0021591661925461072 0.0021561927992343735 0.00215321940592264 0.0024689228128742615 0.002466437098628227 0.0024639513843821917
          0 0 0 0.000032088225365728685 0.000034127151643352566 0.000036166077920976446
          0.00020219078911164318 0.00020641783060674755 0.00021064487210185187 0.0005655221849230794 0.0005685673321932397 0.0005716124794633999
          0.0010570863557450938 0.0010574837235988732 0.0010578810914526526 0.0015852183641205558 0.0015833579182105697 0.0015814974723005841
          0.0020686439304552122 0.0020652792172354897 0.0020619145040157673 0.0024427888653181995 0.0024390384136163635 0.0024352879619145267
          0.0026661178404317463 0.00266280692797076 0.002659496015509773 0.0000061722423975546 0.000007224926280832595 0.00000827761016411059
          0.00010331984925546657 0.00010696019128973852 0.0001106005333240105 0.0003943159134729226 0.000398478775391242 0.0004026416373095614
          0.0008619293917049696 0.0008635433796109524 0.0008651573675169354 0.0014123764037575301 0.0014112516796384827 0.001410126955519436
          0.0019470772652474995 0.0019439776989030719 0.0019408781325586444 0.0023854054371503786 0.0023812498411649244 0.0023770942451794693
          0.0026745924285405927 0.002670436911436123 0.0026662813943316545 0.002795617938129146 0.002791857165454131 0.002788096392779116
          0.00023851544607904153 0.0002434412843925578 0.00024836712270607413 0.000657673127898934 0.0006607272624503329 0.0006637813970017318
          0.0012133578856099048 0.0012132216498578626 0.0012130854141058202 0.0017947561364234088 0.0017920766918379562 0.0017893972472525035
          0.002302873526046368 0.002298657279285892 0.0022944410325254168 0.002665014181886849 0.0026602861296012655 0.0026555580773156813
          0.0028427886088752685 0.002838603385879496 0.002834418162883724 0.0028449150572883854 0.002841287081972237 0.0028376591066560887
          0.000453719026020172 0.00045840223627570756 0.0004630854465312431 0.000992273739969964 0.0009935684801095314 0.0009948632202490988
          0.0016103657915628837 0.0016082685435623563 0.0016061712955618287 0.0021860126543085056 0.0021818139836952436 0.002177615313081982
          0.002628738131717722 0.0026237276797426096 0.0026187172277674963 0.0028863532647491613 0.0028816584610084784 0.0028769636572677955
          0.0029443400760436147 0.00294043587479832 0.002936531673553025 0.002830108569632566 0.0028263950411937058 0.0028226815127548447
          0.0007515696606549763 0.0007549055823226939 0.0007582415039904115 0.0013923771268767669 0.0013914925516739646 0.0013906079764711623
          0.0020376495875835815 0.0020335566704383495 0.0020294637532931176 0.0025655634497156773 0.0025600231688751385 0.002554482888034599
          0.0029036953675514307 0.002898293423029835 0.002892891478508238 0.003029739476608223 0.003025816107155737 0.003021892737703251
          0.0029705249935384993 0.002967200586113817 0.0029638761786891336 0.002785065534451807 0.0027803395754981333 0.00277561361654446
          0.00113473193830451 0.0011360241806676235 0.001137316423030737 0.0018446686032960909 0.0018415298016763919 0.0018383910000566933
          0.0024729805351452554 0.0024670805048357925 0.0024611804745263296 0.0029102135163067725 0.002903749205212508 0.002897284894118244
          0.0031118991079710865 0.003106588358164759 0.0031012776083584317 0.0030888949649494997 0.0030860609536269333 0.0030832269423043675
          0.002907645136124822 0.002904909969728395 0.0029021748033319678 0.002664412317821691 0.002658250536902273 0.0026520887559828544
          0.0023292378260023074 0.0023241366187800082 0.0023190354115577095 0.002888405776709342 0.0028811568977317207 0.0028739080187540995
          0.003193791739134905 0.003187003290690425 0.0031802148422459464 0.0032357135232204477 0.003231009574982355 0.0032263056267442624
          0.003056636482160733 0.003054846596422034 0.0030530567106833353 0.002742104429428056 0.0027396236499415832 0.0027371428704551105
          0.002380511069637975 0.002374497187371285 0.0023684833051045937 0.002818213994435369 0.0028117827513578835 0.002805351508280398
          0.0032517327308547892 0.0032437963764217832 0.0032358600219887777 0.0033865883588508642 0.0033800988754360416 0.0033736093920212194
          0.003249024921131248 0.0032452883252383296 0.00324155172934541 0.0029064541914147314 0.0029055785059790566 0.0029047028205433823
          0.002450661485319988 0.00244850661215096 0.0024463517389819323 0.0019608146884557676 0.0019570163032063743 0.001953217917956981
          0.003274782087143505 0.003267925044377455 0.0032610680016114044 0.0035249792470391987 0.003517125917968448 0.003509272588897697
          0.003453516335987685 0.003447929822031164 0.0034423433080746427 0.0031205930929233084 0.0031181390423457946 0.003115684991768281
          0.0026151311719122125 0.0026153107710776015 0.00261549037024299 0.0020398815693681753 0.0020387779424566924 0.0020376743155452086
          0.0036527030184380356 0.003646363189060236 0.003640023359682436 0.0036634661688497916 0.0036565297312547663 0.0036495932936597406
          0.003357831928886814 0.0033538053004212192 0.0033497786719556243 0.0028302182999955503 0.0028294688724720056 0.0028287194449484604
          0.0021924174733432738 0.002193936631618889 0.002195455789894503 0.002405013039517786 0.0027223646255302766 0.0027608611230651833
          0.0026090404206542926 0.0024021302365274944 0.0027179753363623413 0.002756606722296882 0.0026045277692178254 0.0023992474335372033
          0.002713586047194407 0.002752352321528582 0.0026000151177813587 0.001998175220535795 0.002210147745507004 0.0019399823175119397
          0.0016840692911120076 0.001993285072384375 0.0022044943713034897 0.001937507204702174 0.0016825454364297722 0.001988394924232955
          0.002198840997099975 0.0019350320918924083 0.0016810215817475366 0.001726638284014037 0.001483730820499953 0.002023112005367308
          0.0017293519247780086 0.0014853928769307432 0.00201985268198672 0.0017320655655419796 0.001487054933361533 0.002016593358606132
          0.0015456293129508516 0.0015497941636237163 0.0015539590142965808 0.0027421830955741363 0.002651088234335182 0.0027096160969899558
          0.0026929988304828624 0.002738161884362073 0.002647406873210733 0.0027038086019862324 0.002687764846994003 0.0027341406731500096
          0.0026437255120862835 0.0026980011069825086 0.002682530863505144 0.0016943735190567558 0.001383680322692885 0.001690957731529903
          0.0013837633556757958 0.00168754194400305 0.0013838463886587066 0.002218769463236315 0.0018034554316072942 0.001817256459763124
          0.002217741174550921 0.0018045883354671115 0.0018186285669113374 0.0022167128858655272 0.0018057212393269289 0.0018200006740595506
          0.0010690929245006364 0.0013618661787206466 0.0010712108138350382 0.0013605618149079193 0.00107332870316944 0.001359257451095192
          0.0023560958249226396 0.0018750335305141187 0.0023528546450841178 0.0018761374592167258 0.002349613465245597 0.0018772413879193334
          0.002482933124512908 0.0024771234730124464 0.002471313821511984 0.002340530198639867 0.0018796256311399977 0.0023386145467520518
          0.0018809463413429798 0.0023366988948642356 0.001882267051545962 0.0026090405588313206 0.0023859882973553724 0.002604880195738526
          0.0023829456003095022 0.0026007198326457315 0.0023799029032636316 0.002553207173103386 0.002610594971244792 0.0025497417068905404
          0.0026053654216028196 0.002546276240677695 0.0026001358719608472 0.0021729045496735586 0.0024090192432058084 0.002169424106067046
          0.0024046463957877943 0.002165943662460533 0.002400273548369779 0.0007749038818113234 0.0007790407381744221 0.000783177594537521
          0.000372139908160885 0.0005308801935074666 0.00037858528365912453 0.000536521292108854 0.0003850306591573641 0.0005421623907102414
          0.0023140930152044607 0.0023079465051214607 0.0023017999950384603 0.0002752710990234931 0.00028216895893170597 0.0002890668188399189
          0.002419928977875197 0.0024133045027410027 0.002406680027606809 0.00018542571995824202 0.00019269268681583265 0.00019995965367342324
          0.0010380728696131178 0.0010391948159513592 0.0010403167622896007 0.0007477960035185945 0.000751151561777053 0.0007545071200355112
          0.000548808210346119 0.0005536469712576341 0.0005584857321691493 0.0014876225728925087 0.0014864504686546154 0.001485278364416722
          0.0015576505501835758 0.0015580951455786982 0.0015585397409738203 0.0010169459656804837 0.0010179581274170802 0.0010189702891536764
          0.003619590671874153 0.003894796236276077 0.0036145641204311987 0.003889858157978211 0.003609537568988245 0.003884920079680345
          0.0030732638133956006 0.003071547010691866 0.0030698302079881314 0.002384924259254236 0.0023862244286403885 0.002387524598026541
          0.0016815846723735846 0.0016844177171184288 0.0016872507618632732 0.0010660504164896898 0.001067809905522067 0.001069569394554444
          0.0010194239537160304 0.0010249010374754966 0.0010303781212349628 0.001072379500404305 0.0010762416248345336 0.0010801037492647622
          0.0026693590990680216 0.0024754486073341087 0.002664085529407948 0.002473023437789252 0.0026588119597478746 0.002470598268244395
          0.0011987450435652525 0.001207088266237434 0.001201140997084159 0.0012096243146954228 0.0012035369506030657 0.0012121603631534117
          0.0022440207591570495 0.002471859063639563 0.0022406417456158362 0.0024676736870492925 0.0022372627320746226 0.0024634883104590216
          0.001969923648122044 0.0019670976503347467 0.001964271652547449 0.0011774230448027946 0.001180235191253684 0.0011830473377045735
          0.002646545675966021 0.0026439845168603456 0.002640914682600429 0.002640301935513289 0.002635283689234837 0.0026366193541662317
          0.0012702728577427594 0.0012727582295587773 0.0012752436013747956 0.001461484218431209 0.002003877567421963 0.001463001136866299
          0.0020056223687659252 0.0014645180553013888 0.002007367170109888 0.0010107368119581018 0.0010150917412217694 0.001019446670485437
          0.0016713740933940826 0.0016693659846120329 0.0016673578758299825 0.00039889916693543496 0.0006638996149074677 0.0004040311328802615
          0.0006673877115088139 0.00040916309882508786 0.00067087580811016 0.0013686669165008244 0.0013678899040481937 0.0013671128915955634
          0.0010591082498266806 0.001060021367018017 0.001060934484209354 0.0006256656174481584 0.0006317667131770614 0.0006378678089059644
        </DataArray>
        <DataArray type="Float64" Name="pe22" format="ascii" RangeMin="-0.0019962777266756527" RangeMax="0">
          0 0 0 0 0 0
          0 0 0 0 0 0
          0 0 0 0 0 0
          0 0 0 0 0 0
          0 0 0 0 0 0
          0 0 0 0 0 0
          -0.000001396954478367699 0 -0.000001763447046392975 -1.3603157763768062e-8 -0.0000021299396144182505 -2.7206315527536123e-8
          -0.000027431415641266002 -0.000023679713724894928 -0.000029731846474997064 -0.00002551544739300213 -0.00003203227730872812 -0.000027351181061109336
          0 0 0 0 0 0
          0 0 0 0 0 0
          0 0 0 0 -6.080595454302001e-10 -1.2161190908604002e-9
          -0.0000108268398432812 -0.000011602940296600626 -0.000012379040749920051 -0.000053068386186536086 -0.00005564428219493214 -0.0000582201782033282
          0 0 0 0 0 0
          0 0 0 0 0 0
          0 0 0 -0.0000028028389930178643 -0.0000030325838950249723 -0.0000032623287970320804
          -0.000033632243166766365 -0.0000346249195308177 -0.000035617595894869034 -0.0001019562202643712 -0.00010409112899614416 -0.00010622603772791713
          0 0 0 0 0 0
          0 0 0 0 0 0
          0 -8.785793544331488e-11 -1.7571587088662977e-10 -0.000014156918259130381 -0.000014608875844939388 -0.000015060833430748397
          -0.0000731955762966606 -0.00007427660611957736 -0.0000753576359424941 -0.00016743223930123407 -0.00016916965867636981 -0.0001709070780515056
          0 0 0 0 0 0
          0 0 0 0 0 0
          -0.0000019981458903994398 -0.0000022519090655146553 -0.0000025056722406298703 -0.00003813711086287218 -0.00003876057362405331 -0.00003938403638523444
          -0.00013399103863746684 -0.00013487399017146883 -0.00013575694170547082 -0.0002592113292900223 -0.0002606286307898634 -0.0002620459322897044
          0 0 0 0 0 0
          0 0 0 0 -1.2099784622483831e-8 -2.4199569244967662e-8
          -0.000013632415127053917 -0.000014255737020508654 -0.000014879058913963391 -0.00008296448495903936 -0.00008373804318911682 -0.00008451160141919428
          -0.00021786979246405286 -0.0002184454310821386 -0.0002190210697002244 -0.0003761389688797143 -0.0003772173400104965 -0.00037829571114127874
          0 0 0 0 0 0
          0 0 0 0 0 0
          -0.0000027564031008297473 -0.000003170718580441178 -0.0000035850340600526087 -0.00004338935727073625 -0.000044420767387756765 -0.00004545217750477727
          -0.00015628165207683567 -0.00015677653344853208 -0.00015727141482022852 -0.00032462430366789045 -0.00032483399215880163 -0.0003250436806497128
          -0.0005087296656658834 -0.0005095501917868609 -0.0005103707179078384 0 0 0
          0 0 0 0 0 0
          -1.1927622618801615e-8 -9.789289854183554e-8 -1.8385817446486947e-7 -0.000017190427991045128 -0.000018136154628075925 -0.00001908188126510672
          -0.00009946831321750655 -0.00010067200325966957 -0.00010187569330183258 -0.0002566878889531756 -0.00025665467038985494 -0.00025662145182653426
          -0.00045134567526415093 -0.00045124238814184866 -0.0004511391010195464 -0.0006486448513014678 -0.000649335189965621 -0.0006500255286297744
          0 0 0 0 0 0
          0 0 0 -0.0000049508810285795185 -0.000005496152247366994 -0.000006041423466154472
          -0.0000547815288523956 -0.00005611416236692907 -0.00005744679588146254 -0.00018674119537892097 -0.0001875491430406764 -0.00018835709070243176
          -0.00037931726431646704 -0.000378844829939026 -0.000378372395561585 -0.0005925089478791835 -0.0005922290450255355 -0.0005919491421718874
          -0.0007897938547018477 -0.0007903823266583805 -0.0007909707986149133 0 0 0
          0 0 0 -4.324380345809584e-7 -6.309832220016755e-7 -8.295284094223928e-7
          -0.000025456562210024685 -0.000026589200062812703 -0.00002772183791560072 -0.00012371002337659392 -0.0001250908358849723 -0.00012647164839335066
          -0.0003005683354363571 -0.00030078152693429564 -0.00030099471843223423 -0.0005179373574628718 -0.0005172001339572652 -0.0005164629104516585
          -0.0007412341215620555 -0.000740880910440934 -0.0007405276993198124 -0.0009327034918886063 -0.0009331090499356979 -0.0009335146079827896
          0 0 0 0 0 0
          -0.000009303532897860537 -0.000009980482257843991 -0.000010657431617827443 -0.00007315752712044131 -0.00007459621009018024 -0.00007603489305991916
          -0.0002233900944325649 -0.00022420433206878792 -0.00022501856970501093 -0.0004345612977599333 -0.0004342417703155899 -0.00043392224287124644
          -0.0006691608157369705 -0.0006683504180613183 -0.0006675400203856662 -0.0008974722468267952 -0.0008971233550446767 -0.0008967744632625583
          -0.0011168974067363197 -0.0011172398432279117 -0.0011175822797195038 0 0 0
          -0.000001990802682020216 -0.0000023244455371910818 -0.0000026580883923619476 -0.00003750821190896258 -0.000038749513917158915 -0.00003999081592535526
          -0.00015308001703710617 -0.00015433850621820476 -0.00015559699539930335 -0.0003481120911297928 -0.00034822780949366307 -0.0003483435278575334
          -0.0005861476259879628 -0.0005855361164190546 -0.0005849246068501465 -0.0008321960380415711 -0.0008315594432815562 -0.0008309228485215412
          -0.0010559177936115879 -0.0010558101067130517 -0.0010557024198145151 -0.0012258040038141207 -0.0012264446652917819 -0.0012270853267694435
          0 0 0 -0.000014694654840851097 -0.00001554382413800748 -0.00001639299343516386
          -0.00009320051882107375 -0.00009470553293012362 -0.00009621054703917346 -0.0002624764886998241 -0.0002630788458428953 -0.00026368120298596656
          -0.0004955300980965011 -0.0004951018651360897 -0.0004946736321756781 -0.0007535586675946434 -0.0007528894680929689 -0.0007522202685912943
          -0.0010001425644283047 -0.0009998116162696798 -0.000999480668111055 -0.0012019678848766801 -0.0012022748832203232 -0.0012025818815639665
          -0.0013310063838310009 -0.0013319240154400845 -0.0013328416470491681 -0.0000027805698058276166 -0.0000032369365713057112 -0.0000036933033367838054
          -0.000047018557788024526 -0.000048405643814171505 -0.00004979272984031848 -0.0001807854777676401 -0.00018193547617742197 -0.0001830854745872038
          -0.00039928474416793113 -0.00039916595823825816 -0.0003990471723085852 -0.0006638861079496971 -0.0006631684296463338 -0.0006624507513429706
          -0.0009316887887903069 -0.0009311643459157273 -0.0009306399030411479 -0.0011628444269239915 -0.0011628645652145254 -0.0011628847035050592
          -0.001326559534714133 -0.0013271868430310243 -0.0013278141513479158 -0.0014061910612775041 -0.0014071497202524173 -0.0014081083792273309
          -0.00010773256626064968 -0.00010937650648442676 -0.00011102044670820382 -0.00030024887598871486 -0.00030063949859293246 -0.00030103012119715006
          -0.0005624948381749307 -0.0005618058800022789 -0.0005611169218296271 -0.000848425088719071 -0.0008476867147707378 -0.0008469483408224045
          -0.0011118361340974828 -0.001111652818424921 -0.0011114695027523596 -0.001312422200767253 -0.001312853031454115 -0.0013132838621409764
          -0.0014235709635417259 -0.0014243537278144165 -0.0014251364920871072 -0.001444029505134602 -0.0014449148124959222 -0.0014458001198572423
          -0.00020351099588944473 -0.0002046514516575668 -0.00020579190742568885 -0.0004522907429182363 -0.00045187565951597793 -0.00045146057611371944
          -0.0007496554682430057 -0.0007486702213894419 -0.0007476849745358784 -0.001042284834976398 -0.0010417532435771876 -0.0010412216521779771
          -0.0012833206642600518 -0.0012835716691287089 -0.0012838226739973657 -0.0014387932801373546 -0.0014396930549826718 -0.0014405928298279885
          -0.0014911218840193822 -0.0014921020328492395 -0.0014930821816790973 -0.0014507670215184948 -0.0014516153263460434 -0.0014524636311735917
          -0.0003353948581232641 -0.0003356370855227017 -0.0003358793129221393 -0.0006361477055929975 -0.0006351365203434691 -0.0006341253350939404
          -0.000956264551732933 -0.0009553397542926422 -0.0009544149568523514 -0.0012373591973621843 -0.0012372284382443164 -0.0012370976791264486
          -0.0014362640061228113 -0.0014369190850801318 -0.0014375741640374519 -0.0015313228896107628 -0.0015326230276767648 -0.0015339231657427663
          -0.0015235038195252474 -0.0015248891502570299 -0.0015262744809888128 -0.0014438752012129927 -0.0014446774847981633 -0.001445479768383334
          -0.0005057638058555281 -0.000505114709078106 -0.0005044656123006836 -0.0008489129792972976 -0.0008477138274349978 -0.0008465146755726983
          -0.0011747246806149477 -0.0011742099743271021 -0.0011736952680392564 -0.0014237614148204366 -0.001424207006015349 -0.0014246525972102617
          -0.001562456945605387 -0.0015635487486405806 -0.0015646405516757747 -0.0015845860558352776 -0.0015862791565657694 -0.001587972257296261
          -0.0015101050801857726 -0.001511836855255864 -0.0015135686303259556 -0.0013933105680384824 -0.0013937306489004216 -0.0013941507297623613
          -0.0010854752515718615 -0.0010845969468312397 -0.0010837186420906179 -0.0013940156451546673 -0.0013942051261680015 -0.0013943946071813353
          -0.0015888033580526391 -0.0015899577726993595 -0.0015911121873460798 -0.0016512596591159439 -0.0016529178032005881 -0.0016545759472852317
          -0.0015912963705972298 -0.0015934932237452993 -0.0015956900768933691 -0.0014392429346425212 -0.001440935473516628 -0.0014426280123907352
          -0.001248608881395304 -0.0012484294507249722 -0.0012482500200546405 -0.0013367329545106096 -0.001336684639239596 -0.0013366363239685822
          -0.0015993771523456594 -0.0016004978268246894 -0.0016016185013037196 -0.001715814737616344 -0.0017177408339001158 -0.001719666930183888
          -0.0016856679289809294 -0.0016878685652242367 -0.0016900692014675436 -0.001533480705475564 -0.0015359014792670244 -0.0015383222530584843
          -0.001296912738555893 -0.0012980300478330432 -0.0012991473571101935 -0.0010326629191622328 -0.0010319010696966079 -0.0010311392202309831
          -0.0015876760427415396 -0.001588859378896819 -0.0015900427150520985 -0.0017707131686295337 -0.0017728605622779157 -0.0017750079559262983
          -0.0017830735522597588 -0.0017856647440067134 -0.001788255935753668 -0.0016445779140609029 -0.001646998737652125 -0.0016494195612433466
          -0.0013952241529494329 -0.0013973021002167355 -0.001399380047484038 -0.001086303591419965 -0.0010866003647001482 -0.001086897137980331
          -0.0018157657643662027 -0.001818355137219515 -0.0018209445100728274 -0.0018818585560300533 -0.0018848795199601569 -0.0018879004838902608
          -0.0017664050380256403 -0.0017692802822788028 -0.0017721555265319652 -0.0015126563169152781 -0.0015147980749816213 -0.0015169398330479643
          -0.0011794452278083034 -0.0011808087409482214 -0.0011821722540881396 -0.001265422838840746 -0.0013990401763632444 -0.0014033698685522347
          -0.0013423621498591942 -0.0012658791447120361 -0.001399591136344548 -0.0014039951097774201 -0.0013425275259631667 -0.001266335450583326
          -0.0014001420963258514 -0.001404620351002605 -0.001342692902067139 -0.0009731570375339795 -0.0010756051829572666 -0.0009462494733932597
          -0.0008220838353326371 -0.0009722293421370705 -0.0010750137260197514 -0.0009461539348242834 -0.000821862510347126 -0.0009713016467401617
          -0.0010744222690822357 -0.0009460583962553073 -0.0008216411853616151 -0.0009285609014790044 -0.0007889913770225162 -0.0010728146421651874
          -0.0009297267785004372 -0.0007894907949361013 -0.001072742670652879 -0.0009308926555218698 -0.0007899902128496865 -0.0010726706991405703
          -0.0008359227124074007 -0.0008370555598027103 -0.0008381884071980199 -0.0013802446560510781 -0.001326200282744682 -0.0013622755132632527
          -0.0013658979809265126 -0.001381070515187169 -0.0013269095841354833 -0.0013624062133791499 -0.0013661229568926773 -0.0013818963743232598
          -0.001327618885526284 -0.001362536913495047 -0.001366347932858842 -0.0008221402028911011 -0.0006760396235859461 -0.0008211629341190075
          -0.0006759462068263368 -0.0008201856653469138 -0.0006758527900667279 -0.0011829515037296999 -0.0009719597908842631 -0.000976292310909617
          -0.0011833722251557296 -0.0009724647952226046 -0.00097739940139207 -0.0011837929465817595 -0.0009729697995609457 -0.000978506491874523
          -0.0005233797752003458 -0.0006590317250926429 -0.0005237282365805656 -0.000658340082548364 -0.0005240766979607851 -0.0006576484400040851
          -0.0012433626714883185 -0.0010036899626388184 -0.0012437736895309149 -0.0010047387672203925 -0.0012441847075735112 -0.0010057875718019664
          -0.0012235144933980275 -0.0012232508296551043 -0.0012229871659121814 -0.0012297685164203644 -0.0010080756129975392 -0.0012302711469143633
          -0.0010087754479451054 -0.0012307737774083622 -0.0010094752828926717 -0.0013565249509026266 -0.0012610254674424181 -0.0013571554518902375
          -0.001261738291269125 -0.001357785952877849 -0.0012624511150958319 -0.0012743586972048804 -0.0013037267834599825 -0.0012748091696904204
          -0.0013038053126102507 -0.0012752596421759601 -0.0013038838417605187 -0.0010627837572922338 -0.0011907602662340972 -0.0010625552580215427
          -0.00119055387112444 -0.0010623267587508514 -0.001190347476014783 -0.0003809698208155476 -0.00038199035304541774 -0.0003830108852752878
          -0.00018502955465579736 -0.0002624084254378936 -0.0001873594230550266 -0.0002641514415741121 -0.00018968929145425582 -0.00026589445771033055
          -0.0011266829393640132 -0.001125991545257115 -0.001125300151150217 -0.00013784517110887446 -0.00014061704226428227 -0.00014338891341969005
          -0.001278857881904837 -0.001278460962816842 -0.0012780640437288471 -0.00009342119730314915 -0.00009660890304031147 -0.00009979660877747379
          -0.0005020484887226068 -0.0005018574394480264 -0.000501666390173446 -0.00036157005329843486 -0.0003621884607993273 -0.0003628068683002197
          -0.00026652592142254914 -0.0002679458750426478 -0.00026936582866274637 -0.0007871543154815574 -0.0007861399704126772 -0.0007851256253437972
          -0.0008321652194860132 -0.0008319374820437815 -0.0008317097446015496 -0.0005376132952639558 -0.0005370419411221533 -0.0005364705869803509
          -0.00190161020466091 -0.0019883301094112014 -0.0019051693420191044 -0.001992303918043427 -0.0019087284793772993 -0.0019962777266756527
          -0.0016452853693705366 -0.0016479448592805254 -0.0016506043491905141 -0.0012892594228009649 -0.0012907507309611356 -0.0012922420391213059
          -0.0009085376601414449 -0.0009092045619183431 -0.0009098714636952411 -0.0005686774706554145 -0.0005684075256336975 -0.0005681375806119806
          -0.0005505693130004737 -0.0005521492206438533 -0.0005537291282872328 -0.0005803403883264552 -0.0005810715463366364 -0.0005818027043468176
          -0.0013532502706777587 -0.0012803126628112493 -0.0013532480145750762 -0.0012808975561975767 -0.0013532457584723937 -0.0012814824495839046
          -0.0006450689942036235 -0.0006451550975021033 -0.0006456500692024175 -0.0006459791416268338 -0.0006462311442012113 -0.0006468031857515644
          -0.0011005309025076478 -0.0012239850709756766 -0.0011003662149637779 -0.0012242447544136097 -0.0011002015274199075 -0.0012245044378515427
          -0.0009568352214361786 -0.0009563812578700205 -0.0009559272943038624 -0.0006318348827253465 -0.0006325158587261777 -0.0006331968347270088
          -0.001325572952667911 -0.0013382572225667823 -0.001325639030573962 -0.0013389048073321288 -0.001325705108480013 -0.0013395523920974755
          -0.0006850205343781913 -0.0006855484496284048 -0.0006860763648786184 -0.0007799296885641325 -0.0010634731733223672 -0.0007804183412200552
          -0.0010647854880286543 -0.0007809069938759778 -0.0010660978027349412 -0.0005396857133968642 -0.0005406153757497223 -0.0005415450381025804
          -0.0008050136673008507 -0.0008043720779821522 -0.0008037304886634538 -0.00019494690579366578 -0.0003200327678608146 -0.00019670078965919988
          -0.0003207960019971846 -0.00019845467352473399 -0.0003215592361335548 -0.0006552143737762338 -0.0006544983497825444 -0.0006537823257888552
          -0.0005052249686475913 -0.0005049157807903074 -0.0005046065929330235 -0.0003369570037893312 -0.0003389144755957617 -0.0003408719474021923
        </DataArray>
        <DataArray type="Float64" Name="pe33" format="ascii" RangeMin="-0.0019064661268648748" RangeMax="0">
          0 0 0 0 0 0
          0 0 0 0 0 0
          0 0 0 0 0 0
          0 0 0 0 0 0
          0 0 0 0 0 0
          0 0 0 0 0 0
          -0.0000013168839516066138 0 -0.0000016797102893233956 -1.2589662956391413e-8 -0.0000020425366270401772 -2.5179325912782825e-8
          -0.000025932358302118303 -0.000023018781410522824 -0.000028424152091933565 -0.000025031453326862842 -0.00003091594588174882 -0.00002704412524320286
          0 0 0 0 0 0
          0 0 0 0 0 0
          0 0 0 0 -6.08267204033642e-10 -1.216534408067284e-9
          -0.000010366051656996362 -0.000011193970366310151 -0.000012021889075623943 -0.000050319133928922345 -0.00005337551324239176 -0.000056431892555861186
          0 0 0 0 0 0
          0 0 0 0 0 0
          0 0 0 -0.0000028237714292242744 -0.0000030740643473615394 -0.0000033243572654988043
          -0.000032961771833778536 -0.000034171488643755554 -0.00003538120545373257 -0.00009980757438836339 -0.00010289812256290147 -0.00010598867073743955
          0 0 0 0 0 0
          0 0 0 0 0 0
          0 -9.137995593458133e-11 -1.8275991186916267e-10 -0.000014496938115237749 -0.000015054925810669222 -0.000015612913506100695
          -0.00007347904283465697 -0.00007506916670195229 -0.00007665929056924762 -0.00016768230571273263 -0.00017078437958146153 -0.00017388645345019048
          0 0 0 0 0 0
          0 0 0 0 0 0
          -0.000002113597072840978 -0.000002395439115769839 -0.0000026772811586987 -0.00003981508227733091 -0.000040735210057964135 -0.000041655337838597355
          -0.0001370407407840713 -0.000138826562096559 -0.00014061238340904673 -0.0002631678179791241 -0.0002662981096738502 -0.00026942840136857634
          0 0 0 0 0 0
          0 0 0 0 -1.3206166514258848e-8 -2.6412333028517696e-8
          -0.000014607983836862367 -0.000015369546678050723 -0.000016131109519239078 -0.00008816863699042278 -0.00008955375093333577 -0.00009093886487624877
          -0.00022605958302501566 -0.00022790877235496647 -0.0002297579616849173 -0.0003857476153543132 -0.00038860904072730124 -0.0003914704661002892
          0 0 0 0 0 0
          0 0 0 0 0 0
          -0.0000030161102633674394 -0.0000034957472278991765 -0.000003975384192430914 -0.00004708903673063381 -0.000048511667763672066 -0.000049934298796710315
          -0.00016836754480147783 -0.000169824463244679 -0.00017128138168788016 -0.00034067366948473533 -0.0003423539650860249 -0.0003440342606873145
          -0.0005255929371540206 -0.0005278772574193843 -0.0005301615776847479 0 0 0
          0 0 0 0 0 0
          -1.3257082020679211e-8 -1.1041781021806301e-7 -2.0757853841544682e-7 -0.00001895397529055208 -0.000020147978952920937 -0.000021341982615289792
          -0.00010917305722066 -0.00011113033054956282 -0.00011308760387846562 -0.0002792500602970025 -0.00028035288447482746 -0.0002814557086526524
          -0.0004775103680841282 -0.00047873926420355796 -0.00047996816032298763 -0.000673462934037946 -0.0006750214853858962 -0.0006765800367338466
          0 0 0 0 0 0
          0 0 0 -0.000005548540670045781 -0.000006209969761885145 -0.000006871398853724508
          -0.00006085777270618142 -0.00006280044285533413 -0.00006474311300448684 -0.00020660098340854758 -0.00020848596472162993 -0.00021037094603471224
          -0.0004149613109123265 -0.0004154792686578069 -0.00041599722640328727 -0.0006295920743205981 -0.0006301026468588451 -0.0006306132193970921
          -0.000822395326553867 -0.00082301861448197 -0.0008236419024100731 0 0 0
          0 0 0 -4.961132936588512e-7 -7.306047079818379e-7 -9.650961223048245e-7
          -0.000028712940340309124 -0.000030252558788198233 -0.00003179217723608734 -0.00013856050671702568 -0.00014105949184707445 -0.00014355847697712323
          -0.00033434756259060185 -0.00033578859060284176 -0.00033722961861508167 -0.000567158054842431 -0.0005670093810788593 -0.0005668607073152875
          -0.000787944824122686 -0.0007875412899886173 -0.0007871377558545484 -0.0009708053530179931 -0.0009701558912053622 -0.0009695064293927312
          0 0 0 0 0 0
          -0.000010702957429341538 -0.000011586916488549276 -0.000012470875547757013 -0.00008318661757263404 -0.0000855143916179837 -0.00008784216566333337
          -0.0002519835897666994 -0.00025431316410795383 -0.0002566427384492082 -0.0004844017074749558 -0.0004851741939219963 -0.0004859466803690369
          -0.0007302969401149599 -0.0007293812511164641 -0.0007284655621179682 -0.0009476113926532445 -0.0009460683703138967 -0.0009445253479745491
          -0.001142374663043448 -0.0011400958241345935 -0.0011378169852257387 0 0 0
          -0.0000023477791313344654 -0.0000027655125060290544 -0.0000031832458807236434 -0.00004345337550570129 -0.00004530040130751815 -0.000047147427109335015
          -0.00017553358460658535 -0.00017823083317285802 -0.00018092808173913072 -0.00039441347423738486 -0.00039613678372479405 -0.00039786009321220324
          -0.0006517825367441669 -0.0006517084600902893 -0.000651634383436412 -0.0009005452564371426 -0.00089865604666124 -0.0008967668368853374
          -0.001103248398934519 -0.0011003826925213218 -0.0010975169861081246 -0.0012431188090601406 -0.0012399924333364443 -0.001236866057612748
          0 0 0 -0.000017393570524877583 -0.000018583327505345084 -0.000019773084485812584
          -0.0001089902702905694 -0.00011171229767662389 -0.00011443432506267843 -0.0003030456962232553 -0.00030548848635034436 -0.0003079312764774334
          -0.0005615562576485927 -0.0005623818584627835 -0.0005632074592769743 -0.0008316596965259125 -0.0008304684501176012 -0.0008292772037092897
          -0.0010685013660269077 -0.00106546760096581 -0.0010624338359047118 -0.0012408209804415185 -0.0012367635303960395 -0.00123270608035056
          -0.001335111456600745 -0.001330882912530675 -0.0013266543684606047 -0.0000033916725917269815 -0.000003987989709526882 -0.000004584306827326783
          -0.000056301291467442035 -0.00005855454747556703 -0.00006080780348369202 -0.00021353043570528242 -0.00021654329921382 -0.0002195561627223576
          -0.00046264464753703843 -0.0004643774213726942 -0.00046611019520834997 -0.0007484902958078326 -0.0007480832499921489 -0.0007476762041764653
          -0.0010153884764571922 -0.0010128133529873442 -0.0010102382295174963 -0.001222561010226387 -0.0012183852759503984 -0.00121420954167441
          -0.0013480328938264587 -0.0013432500684050983 -0.001338467242983738 -0.0013894268768516408 -0.001384707445201713 -0.001379988013551785
          -0.0001307828798183918 -0.00013406477790813104 -0.00013734667599787025 -0.000357424251910219 -0.0003600877638574004 -0.0003627512758045818
          -0.0006508630474349742 -0.0006514157698555836 -0.0006519684922761928 -0.0009463310477043372 -0.0009443899770672182 -0.000942448906430099
          -0.0011910373919488846 -0.0011870044608609709 -0.0011829715297730573 -0.0013525919811195955 -0.0013474330981471504 -0.0013422742151747047
          -0.0014192176453335424 -0.0014142496580650794 -0.0014092816707966165 -0.0014008855521537825 -0.0013963722694763142 -0.0013918589867988464
          -0.00025020803013072726 -0.0002537507846181407 -0.00025729353910555416 -0.0005399829970517276 -0.0005416928205935535 -0.0005434026441353794
          -0.0008607103233198781 -0.0008595983221729143 -0.0008584863210259504 -0.0011437278193321076 -0.0011400607401180563 -0.001136393660904005
          -0.00134541746745767 -0.0013401560106138998 -0.0013348945537701303 -0.0014475599846118068 -0.0014419654060258066 -0.0014363708274398065
          -0.001453218192024232 -0.00144833384194908 -0.0014434494918739273 -0.0013793415481140707 -0.0013747797148476616 -0.0013702178815812526
          -0.00041617480253171215 -0.0004192684967999922 -0.00042236219106827217 -0.0007562294212837691 -0.0007563560313304954 -0.0007564826413772218
          -0.0010813850358506482 -0.0010782169161457074 -0.0010750487964407665 -0.0013282042523534935 -0.0013227947306308214 -0.0013173852089081498
          -0.0014674313614286192 -0.0014613743379497026 -0.001455317314470786 -0.00149841658699746 -0.0014931930794789723 -0.0014879695719604848
          -0.001447021174013252 -0.0014423114358567862 -0.0014376016977003202 -0.0013411903332388132 -0.0013356620906999695 -0.0013301338481611256
          -0.0006289681324489816 -0.0006309094715895175 -0.0006328508107300533 -0.0009957556239987928 -0.0009938159742413938 -0.0009918763244839948
          -0.0012982558545303077 -0.0012928705305086904 -0.0012874852064870732 -0.0014864521014863357 -0.0014795421991971585 -0.0014726322969079815
          -0.0015494421623656988 -0.0015430396095241778 -0.0015366370566826566 -0.0015043089091142216 -0.001499781797061164 -0.0014952546850081066
          -0.0013975400559390492 -0.0013930731144725305 -0.0013886061730060116 -0.0012711017497832088 -0.0012645198880018506 -0.0012579380262204925
          -0.001243762574430446 -0.0012395396719487688 -0.0012353167694670914 -0.0014943901315546747 -0.0014869517715637192 -0.0014795134115727635
          -0.001604988381082265 -0.0015970455179910655 -0.001589102654899866 -0.0015844538641045034 -0.0015780917717817667 -0.0015717296794590305
          -0.0014653401115635027 -0.0014613533726767346 -0.0014573666337899663 -0.0013028614947855352 -0.001298688176424955 -0.0012945148580643748
          -0.0011319021882426708 -0.0011260677366463118 -0.0011202332850499528 -0.0014814810399247594 -0.0014750981121182875 -0.0014687151843118158
          -0.00165235557850913 -0.001643298549597094 -0.0016342415206850583 -0.0016707736212345193 -0.0016623580415359252 -0.0016539424618373308
          -0.0015633569921503186 -0.001557419760014092 -0.0015514825278778658 -0.001372973485939167 -0.0013696770267120325 -0.0013663805674848976
          -0.0011537487467640942 -0.0011504765643179165 -0.0011472043818717384 -0.0009281517692935341 -0.000925115233509766 -0.0009220786977259976
          -0.0016871060444019646 -0.001679065665480635 -0.0016710252865593058 -0.0017542660784096642 -0.0017442653556905311 -0.0017342646329713983
          -0.0016704427837279253 -0.0016622650780244498 -0.0016540873723209738 -0.0014760151788624047 -0.0014711403046936697 -0.0014662654305249343
          -0.0012199070189627794 -0.0012180086708608658 -0.001216110322758952 -0.0009535779779482101 -0.0009521775777565436 -0.0009507771775648772
          -0.001836937254071832 -0.00182800805184072 -0.001819078849609608 -0.0017816076128197374 -0.0017716502112946086 -0.0017616928097694798
          -0.001591426890861173 -0.001584525018142416 -0.001577623145423659 -0.0013175619830802716 -0.0013146707974903838 -0.0013117796119004959
          -0.00101297224553497 -0.001013127890670667 -0.0010132835358063637 -0.001139590200677039 -0.0013233244491670315 -0.0013574912545129482
          -0.001266678270795098 -0.0011362510918154578 -0.0013183842000177935 -0.0013526116125194625 -0.0012620002432546587 -0.0011329119829538766
          -0.0013134439508685554 -0.0013477319705259767 -0.0012573222157142192 -0.0010250181830018152 -0.001134542562549737 -0.0009937328441186795
          -0.0008619854557793705 -0.0010210557302473041 -0.001129480645283738 -0.0009913532698778904 -0.000860682926082646 -0.0010170932774927932
          -0.001124418728017739 -0.000988973695637101 -0.0008593803963859212 -0.0007980773825350326 -0.0006947394434774364 -0.0009502973632021203
          -0.0007996251462775712 -0.0006959020819946413 -0.0009471100113338409 -0.0008011729100201098 -0.0006970647205118462 -0.0009439226594655614
          -0.000709706600543451 -0.0007127386038210055 -0.0007157706070985603 -0.0013619384395230577 -0.0013248879515904996 -0.0013473405837267026
          -0.0013271008495563499 -0.0013570913691749037 -0.0013204972890752493 -0.0013414023886070818 -0.0013216418901013257 -0.0013522442988267499
          -0.0013161066265599988 -0.0013354641934874606 -0.0013161829306463015 -0.0008722333161656545 -0.0007076406991069391 -0.0008697947974108952
          -0.0007078171488494587 -0.000867356278656136 -0.0007079935985919784 -0.001035817959506615 -0.0008314956407230308 -0.0008409641488535068
          -0.001034368949395191 -0.0008321235402445067 -0.000841229165519267 -0.001032919939283767 -0.0008327514397659827 -0.0008414941821850272
          -0.0005457131493002904 -0.0007028344536280036 -0.0005474825772544724 -0.0007022217323595551 -0.0005492520052086544 -0.0007016090110911067
          -0.0011127331534343207 -0.0008713435678753001 -0.0011090809555532027 -0.0008713986919963335 -0.001105428757672085 -0.0008714538161173669
          -0.0012594186311148802 -0.0012538726433573412 -0.001248326655599802 -0.0011107616822195027 -0.000871550018142458 -0.0011083433998376878
          -0.000872170893397874 -0.001105925117455873 -0.0008727917686532898 -0.0012525156079286931 -0.0011249628299129536 -0.001247724743848288
          -0.0011212073090403766 -0.0012429338797678828 -0.0011174517881677992 -0.0012788484758985052 -0.001306868187784809 -0.0012749325372001198
          -0.0013015601089925687 -0.0012710165985017345 -0.0012962520302003283 -0.0011101207923813246 -0.0012182589769717113 -0.001106868848045503
          -0.0012140925246633537 -0.0011036169037096813 -0.001209926072354996 -0.0003939340609957757 -0.0003970503851290044 -0.0004001667092622332
          -0.00018711035350508758 -0.00026847176806957295 -0.00019122586060409794 -0.0002723698505347419 -0.00019534136770310833 -0.0002762679329999108
          -0.0011874100758404468 -0.001181954959864345 -0.001176499843888243 -0.0001374259279146186 -0.0001415519166674237 -0.00014567790542022882
          -0.00114107109597036 -0.0011348435399241605 -0.0011286159838779612 -0.0000920045226550929 -0.00009608378377552116 -0.00010016304489594942
          -0.0005360243808905108 -0.0005373373765033328 -0.0005386503721161544 -0.00038622595022015963 -0.00038896310097772557 -0.0003917002517352914
          -0.0002822822889235699 -0.0002857010962149863 -0.0002891199035064028 -0.0007004682574109512 -0.0007003104982419379 -0.0007001527390729247
          -0.0007254853306975624 -0.0007261576635349164 -0.0007268299963722705 -0.0004793326704165275 -0.0004809161862949265 -0.0004824997021733256
          -0.0017179804672132425 -0.0019064661268648748 -0.0017093947784120938 -0.0018975542399347835 -0.0017008090896109451 -0.0018886423530046922
          -0.0014279784440250638 -0.0014236021514113404 -0.0014192258587976173 -0.001095664836453271 -0.001095473697679253 -0.0010952825589052345
          -0.0007730470122321393 -0.0007752131552000856 -0.0007773792981680322 -0.0004973729458342753 -0.0004994023798883694 -0.0005014318139424633
          -0.0004688546407155566 -0.0004727518168316434 -0.0004766489929477301 -0.0004920391120778497 -0.0004951700784978971 -0.0004983010449179444
          -0.001316108828390262 -0.0011951359445228592 -0.001310837514832871 -0.0011921258815916745 -0.0013055662012754802 -0.00118911581866049
          -0.0005536760493616288 -0.0005619331687353306 -0.0005554909278817416 -0.000563645173068589 -0.0005573058064018545 -0.0005653571774018473
          -0.0011434898566494009 -0.0012478739926638865 -0.001140275530652058 -0.0012434289326356824 -0.001137061204654715 -0.0012389838726074784
          -0.0010130884266858651 -0.001010716392464726 -0.0010083443582435865 -0.0005455881620774481 -0.0005477193325275062 -0.0005498505029775645
          -0.0013209727232981097 -0.001305727294293563 -0.0013152756520264665 -0.0013013971281811596 -0.0013095785807548236 -0.0012970669620687562
          -0.0005852523233645681 -0.0005872097799303727 -0.0005891672364961773 -0.0006815545298670762 -0.0009404043940995956 -0.0006825827956462437
          -0.0009408368807372711 -0.000683611061425411 -0.0009412693673749468 -0.00047105109856123746 -0.00047447636547204704 -0.0004779016323828566
          -0.0008663604260932321 -0.0008649939066298803 -0.0008636273871665285 -0.0002039522611417692 -0.00034386684704665305 -0.00020733034322106153
          -0.00034659170951162907 -0.00021070842530035384 -0.00034931657197660504 -0.0007134525427245906 -0.0007133915542656493 -0.000713330565806708
          -0.0005538832811790891 -0.0005551055862277098 -0.0005563278912763302 -0.00028870861365882725 -0.0002928522375812996 -0.000296995861503772
        </DataArray>
        <DataArray type="Float64" Name="disp_x" format="ascii" RangeMin="0.0000018074260001035063" RangeMax="0.000019467380195190097">
          0.0000023180606818800074 0.000002325045252300429 0.0000023192928462540773 0.0000023253302261584855 0.0000023219914935029117 0.0000023257605165684368
          0.0000028727853041400077 0.000002872339385090508 0.000002872953332900793 0.000002872466161202855 0.0000028730876796670867 0.0000028726228901528188
          0.0000034271167971416036 0.0000034252691431172713 0.00000342695891251956 0.0000034251640296104665 0.000003426531000043708 0.000003424910057980177
          0.000003981702062245877 0.000003979706298039036 0.00000398164095478137 0.000003979629061408861 0.00000398144611799421 0.0000039793738040602205
          0.00000453792862658935 0.0000045354583219137215 0.000004537830962591076 0.0000045353996779717046 0.0000045376295100864635 0.000004535237475982858
          0.00000509611004974385 0.000005093571017987772 0.000005095904156514415 0.0000050932321202980635 0.0000050951770456444925 0.000005092534179995591
          0.000005655806234504299 0.000005652269246090405 0.000005655483122228933 0.000005651911314029532 0.0000056548718532716665 0.000005650135599456723
          0.000006216667801371682 0.0000062061842360421695 0.000006218676078326508 0.00000620804815132647 0.000006222805692155796 0.000006214005162117452
          0.000002323362965437511 0.000002323546641711642 0.0000023241584072234982 0.0000028780117952971272 0.0000028779717609338977 0.000002877512349030417
          0.000003432026289630507 0.000003431937500235701 0.000003431798190403142 0.000003987449524438116 0.0000039873735848875466 0.000003987170874449894
          0.000004544946773284808 0.000004544838869916534 0.0000045444804566222614 0.000005104184007402714 0.000005104313081429238 0.000005104197476597226
          0.0000056646640162989925 0.000005664637347350823 0.000005664994366388381 0.000006246102490513299 0.000006248389214930826 0.000006254556718409076
          0.0000023326347027080562 0.0000023327439074120187 0.0000023329698450656007 0.0000028857365343519235 0.0000028856870230405833 0.0000028855505075227977
          0.000003440049099591745 0.0000034400011747784397 0.0000034398239514570893 0.000003996112520468597 0.000003996015830944835 0.000003995862240370216
          0.00000455471040421286 0.000004554640338844764 0.000004554145902704247 0.000005115283107469937 0.000005115381939869215 0.000005115794180229071
          0.00000568209656004081 0.0000056832097902336255 0.000005686381330459622 0.000006303062966794847 0.000006305816614246781 0.000006314587375320677
          0.000002341965397922659 0.00000234194977425233 0.0000023419146334461793 0.0000028950047873483727 0.0000028949843714378745 0.0000028948974551315063
          0.000003450169667286353 0.000003450121192972443 0.000003450003482874874 0.000004007373021259704 0.000004007254158976932 0.00000400694728532086
          0.000004566121595320284 0.000004566205213890521 0.0000045660173525489886 0.000005127938572854468 0.000005128582931317166 0.000005130819606104737
          0.000005718595314128259 0.000005720493461496519 0.000005726060849724398 0.000006388598240200271 0.00000639232390025585 0.000006403249777920234
          0.000002349586658759544 0.0000023495686614681797 0.0000023495292174478137 0.0000029047869461215674 0.000002904772168643415 0.0000029046946447102007
          0.0000034615881041861063 0.0000034615253654337667 0.0000034614430877356275 0.000004020865380303012 0.000004020731579959921 0.000004020235481345496
          0.000004581065112445888 0.000004581500342496583 0.0000045820521761863285 0.0000051471990990869605 0.000005148627563535594 0.000005153689425494063
          0.000005777946006431318 0.000005780767654824729 0.000005789046580144397 0.000006518450911210045 0.000006523142958634606 0.0000065369371463426374
          0.00000235747971432944 0.00000235746022297588 0.0000023574101511990237 0.000002914805653814538 0.0000029147910875886887 0.0000029147242812660498
          0.0000034737847794318547 0.0000034736901252333563 0.0000034735493549571463 0.00000403479119997959 0.000004034804052295334 0.000004034418798699793
          0.000004597748645383664 0.000004598656410684924 0.000004600858690988472 0.0000051838508035417944 0.000005186452522447311 0.000005195243926343739
          0.000005876592836954098 0.000005880366332377016 0.000005891384584334565 0.000006711734699320417 0.000006717231020207327 0.000006733503238840078
          0.0000018074871653784556 0.0000018074715829656424 0.0000018074260001035063 0.000002365605192899436 0.000002365602386318169 0.000002365557855478241
          0.0000029250877177555385 0.0000029250378109540785 0.0000029250147914390954 0.000003486504165155731 0.000003486408654087426 0.0000034859578094722563
          0.000004048497069812787 0.000004048881245373189 0.000004049466508341542 0.000004616180599013634 0.000004618093340994996 0.000004623961218490546
          0.000005255627619268391 0.000005259424488455187 0.000005271684302296865 0.000006035285710175784 0.00000603976266715413 0.000006052608188771981
          0.00000698219972537699 0.00000698817335594255 0.000007006075973502353 0.0000018135761981146846 0.0000018135664541402968 0.0000018135328416032775
          0.0000023736784510292266 0.0000023736740430839852 0.000002373652615864732 0.0000029354017176999377 0.0000029353227709568752 0.0000029352144425473814
          0.000003498683009190602 0.0000034987296081392047 0.0000034984033114303657 0.0000040631672576080625 0.000004064185958531058 0.0000040668736129469
          0.00000465551758220011 0.0000046589515537117776 0.00000466956181497137 0.000005375273820803965 0.00000538004926026034 0.000005395386617028122
          0.000006268456453872043 0.000006273326180870143 0.00000628711919844803 0.000007341611666265448 0.00000734772942336176 0.000007366000981480055
          0.0000018192873341014177 0.0000018192919920547739 0.0000018192710855007273 0.0000023812399927121798 0.000002381207256479754 0.00000238121899730057
          0.0000029451406016120103 0.0000029450418740771726 0.0000029446616118967022 0.000003509586068380881 0.000003510190888428263 0.0000035109709536266535
          0.000004081474921671104 0.000004083623066763557 0.000004090683130508196 0.000004737624372340577 0.0000047424256659630374 0.000004757298891723319
          0.00000556311855155653 0.0000055686135424985565 0.0000055856948318338406 0.000006586004060699721 0.000006590972459940961 0.000006605276493421378
          0.000007796127662029022 0.00000780196600081163 0.000007819140726405104 0.0000018242749945950008 0.0000018242746870465002 0.0000018242742143246539
          0.0000023881309795966643 0.0000023880449240973467 0.0000023879186881279186 0.000002952790404444863 0.0000029530088475071804 0.0000029528747111616317
          0.0000035192550636373373 0.0000035202790929902154 0.0000035239394071741883 0.0000041258700550699955 0.000004130011546895952 0.000004142428905506143
          0.000004880179769794671 0.000004886046990323199 0.000004903714528819837 0.0000058301736849863855 0.0000058358619337958105 0.000005853718347965705
          0.000006991779509100884 0.000006996824792914486 0.000007011100926187374 0.000008342038137488228 0.000008347096267168863 0.000008362252997126772
          0.000001828327108162564 0.0000018282752417478562 0.0000018282979339637028 0.000002393261178869996 0.00000239323972489625 0.000002392829402209447
          0.0000029587932128230842 0.000002959515814077981 0.000002961041290597928 0.0000035366284583698254 0.0000035394012314514015 0.0000035483471227551502
          0.000004224466141743359 0.0000042298245003252895 0.000004246304743072958 0.000005095375629533727 0.00000510173302627294 0.000005120720864559821
          0.000006183933951602969 0.000006189754109713392 0.000006207455784127218 0.000007485855305107689 0.000007490614860860647 0.000007504655144223563
          0.000008970740138965436 0.000008974806501242997 0.00000898738536919303 0.0000018314437771614864 0.0000018313675840516924 0.0000018310440281933236
          0.0000023959796633617623 0.0000023963919134286836 0.000002396859281896943 0.0000029627016412509665 0.000002964362126582793 0.0000029697216930373948
          0.0000035953287541359158 0.0000035998759355913265 0.000003613897651716733 0.0000043864763067064234 0.0000043927730711407506 0.000004411849673382823
          0.00000539358154902258 0.000005400157945595553 0.000005419915207898138 0.000006632217502371585 0.0000066379075668605754 0.000006655408577198458
          0.000008087335724736203 0.000008091434890987487 0.000008103756258828362 0.00000971637726215052 0.000009719151818235861 0.000009726547164811249
          0.0000018327560632615295 0.0000018328473525936889 0.000001832665367129214 0.00000239685438926666 0.0000023977320129842307 0.0000024002518047008276
          0.0000029886627645790507 0.0000029922072522131007 0.0000030030573906484045 0.0000037053573538719255 0.0000037113001332032526 0.0000037295103148007383
          0.000004626103190991724 0.000004633011513591328 0.000004653868461274918 0.000005787311969923064 0.00000579380726744389 0.000005813454257731838
          0.0000071859566526171145 0.000007191086226959281 0.000007206560757793458 0.000008785802322145389 0.000008788990222509234 0.000008798530467142905
          0.000010521537836840046 0.000010522970150570903 0.000010527275641525322 0.0000018341961036316173 0.0000018346429925143913 0.0000018353640173069788
          0.000002402769069551065 0.0000024050473036566356 0.0000024121035627486862 0.000003053530891931453 0.000003058775811258274 0.000003074962715709428
          0.000003884419240179292 0.000003891459216352986 0.0000039127982160894 0.000004957897798832513 0.000004965023958451154 0.000004986625246755184
          0.000006287919174616465 0.0000062939296583842936 0.0000063120285111546645 0.000007845865083673865 0.000007849971355208942 0.000007862367471655693
          0.000009572523169791669 0.000009574429386356366 0.000009580201512007796 0.000011393703422404932 0.000011393669592792672 0.000011392929183370548
          0.000002432369861272592 0.0000024366123555118067 0.0000024495320524402062 0.0000031745910839644554 0.0000031814316623622286 0.0000032024067444197696
          0.000004150505846678899 0.000004158167381380895 0.0000041813915444030455 0.000005396818863358214 0.000005403707287044994 0.000005424548114737837
          0.000006900582489782654 0.000006905647806992691 0.000006920924996271207 0.000008608280104776065 0.000008610997138561825 0.000008619038492366035
          0.000010438525945885883 0.000010438885547103749 0.000010439929207682825 0.000012302981662032778 0.000012301645999261316 0.000012297278934507813
          0.000002502256059612664 0.0000025084061546847775 0.0000025274101381020326 0.0000033734636437490676 0.0000033815055422937516 0.0000034059467810518677
          0.000004522396543299489 0.000004530158459790027 0.000004553683315124361 0.00000595501813443142 0.000005961099743138892 0.000005979440776126204
          0.0000076268435916661506 0.00000763051832308294 0.000007641589598874928 0.000009461620528802551 0.000009462737483287235 0.000009466009254722242
          0.0000113670780418944 0.000011365894306091736 0.000011362028437014578 0.000013245077267330014 0.000013242707813035649 0.000013233963021235451
          0.000002633820022273181 0.000002641735489990686 0.000002666330314537856 0.000003670845015992145 0.00000367953596463472 0.000003705872773454585
          0.000005016828871054921 0.00000502408213020903 0.000005045993203701693 0.000006640444152937703 0.000006645165613043187 0.000006659345233893112
          0.000008465427634607827 0.000008467208917692381 0.000008472635277640673 0.000010393723567486482 0.000010393194352184949 0.000010391093438755135
          0.000012329685087054494 0.000012327650324866636 0.000012321611420174394 0.000014204860399961106 0.000014200776530813372 0.000014188966319096721
          0.000002853920750639235 0.0000028628569433066292 0.000002891157705885089 0.000004089410885179403 0.000004098144150860322 0.00000412435845314602
          0.000005647014375282185 0.0000056531083214597866 0.000005671445834196364 0.0000074547710473644316 0.000007457672614710016 0.000007466321260695414
          0.00000940822081812622 0.000009407895448624414 0.000009407087832720724 0.00001139500500763899 0.00001139278976067428 0.000011385088119766733
          0.000013319835483190673 0.000013316948120557775 0.00001330793260938577 0.000015135875902214503 0.000015130530498129538 0.000015117228591575093
          0.000004651298072942954 0.00000465926667755284 0.000004682809396253282 0.000006422570773162787 0.000006426873835428992 0.000006439806167175431
          0.000008394030920358809 0.000008394779146586726 0.000008396920921601903 0.000010440692515394893 0.000010438261157999847 0.000010431189775346154
          0.000012445824322740205 0.000012442188406309924 0.000012429791793254735 0.000014326001196383722 0.000014321722901896022 0.000014310155465233494
          0.00001605146454669756 0.000016044702646698042 0.000016025445517349727 0.000005374808783687849 0.0000053811916454971045 0.000005399512783669705
          0.000007347292290338998 0.000007349299739051899 0.000007355299581587605 0.000009447977550098196 0.000009446375721388012 0.000009441464337007168
          0.000011541096137412552 0.000011536643195547747 0.000011523565478584813 0.000013514245130757084 0.000013509158248844752 0.000013492160416732687
          0.000015294789657490936 0.000015289048308966235 0.00001527332191009142 0.000016852253707229467 0.00001684427660564646 0.00001681978493959403
          0.000006272355322572027 0.000006276358308269916 0.000006287147177023404 0.000008416258477533248 0.000008415590570788783 0.000008413513112588862
          0.000010595497448137054 0.000010591455381942869 0.000010579211601433771 0.000012672977807077838 0.000012666611978538118 0.000012647688689937277
          0.00001454630718206791 0.000014539906661568867 0.000014518731371102153 0.000016158523629128884 0.000016151811346610554 0.00001613338841727297
          0.000007346233394667647 0.000007347156858406515 0.000007348452377486756 0.000009610485010034421 0.000009606917083372007 0.000009596017291230726
          0.00001179776762632979 0.000011791338813003137 0.00001177193065421468 0.000013780940700305773 0.00001377305759166586 0.00001374936478390387
          0.000015480897956706764 0.000015473642287211815 0.000015450152341330414 0.000015988340837238644 0.000014041567447167823 0.000013088107484128025
          0.00001470127663511899 0.000015982319332119467 0.00001403824230959501 0.00001308627854045565 0.000014697365641926935 0.00001596344428128509
          0.000014028788878007701 0.000013080622047613551 0.000014686812505889917 0.000009304379037383746 0.000009832806250914095 0.000008730006924008924
          0.000008229315823676417 0.000009309361757855937 0.000009837137174504285 0.000008735967124374568 0.000008235983762599313 0.000009323390081383016
          0.000009848839676826184 0.000008756028902667319 0.000008257738339815755 0.00001758261442468655 0.000017714826057329785 0.000016877292112434662
          0.000017573687111698362 0.00001770590805420965 0.00001686842803269164 0.000017545507569683785 0.00001767679539710134 0.000016838254663515306
          0.000018001346012846792 0.000017994669618293588 0.00001797473463024412 0.000012086715027270388 0.000011130035554079715 0.000012425254604109799
          0.000013615736469984929 0.000012086649539589165 0.00001113179198966654 0.000012425095839397566 0.000013613441519680242 0.000012086493624675736
          0.000011137137003925864 0.000012426284648558592 0.000013606152971326122 0.000008666341181864168 0.00000776143618343809 0.000008672645325393494
          0.000007768419454989116 0.000008690550663665387 0.000007790860005653861 0.000016776703599352473 0.000017946800256222644 0.000017803362973730583
          0.00001677046973295908 0.000017940574516760033 0.000017796914965310633 0.000016749666861356888 0.00001792277778137222 0.00001777595213927027
          0.000007370062983294181 0.000008121794838108734 0.000007376948126877286 0.000008128954526766956 0.000007399078413082525 0.000008149565773027018
          0.000016108442206477405 0.000017507739008284082 0.000016101242117935635 0.000017500347820341964 0.000016078551429319972 0.000017476774303247174
          0.000010933929521409191 0.000010936260709418358 0.000010942167134106759 0.000016226380521008017 0.000017851007894482027 0.000016220847755396787
          0.000017845002005313033 0.00001620423195851243 0.000017826300442516645 0.000014937999927387687 0.000016120886294424358 0.000014933420344269838
          0.0000161147446562855 0.000014922837410862096 0.000016095989111168514 0.000010539310310358725 0.000011232444850936275 0.000010542104084345614
          0.000011234422062253434 0.000010550789136073557 0.000011239930363314614 0.000009303551298044937 0.000010130426565722562 0.000009308482981260622
          0.000010134225666951117 0.000009325366391851144 0.000010145218397225513 0.0000070773581378229665 0.00000708372336984244 0.00000710420313798898
          0.000006787729285475769 0.000006880468652195445 0.0000067932302489735425 0.000006886106835605169 0.0000068080567730920605 0.00000690320757753994
          0.000010049053563465092 0.000010053486908390546 0.000010064882449814964 0.0000066855743446815186 0.000006690557198303433 0.000006707804463341127
          0.000016036208514387577 0.000016029612451643567 0.000016007293182403652 0.0000065749792717979826 0.0000065792919413692786 0.000006593343755620211
          0.000007699054398871284 0.000007706703122538063 0.00000772886594217297 0.000007395978463820766 0.000007403324849786093 0.000007426381495307718
          0.000007149798890493813 0.00000715692895701946 0.0000071777183692295925 0.000017502860299026275 0.000017494830671890182 0.00001746956290422531
          0.00001687374887006702 0.000016866875246891684 0.00001684780104869109 0.000017989134269395434 0.000017982026227495007 0.000017959685779405124
          0.000010891155760474112 0.000008582648680443282 0.000010884574977208169 0.000008579890791547737 0.00001086462198864087 0.000008570127585848436
          0.000012995885578558642 0.000012987474624083412 0.00001296195475101899 0.000014798925173571362 0.00001479025357250344 0.000014763933467607218
          0.000016264344955410118 0.00001625721681640793 0.00001623416408872331 0.0000174162601872304 0.000017410104716531098 0.00001739279849045939
          0.000018700855402775662 0.000018694822744115516 0.00001867749332849206 0.000018893297215822036 0.000018888316556495036 0.000018873994104730108
          0.000013537463240876247 0.00001535658937917833 0.000013535276801252395 0.000015351637993489892 0.000013527799370706641 0.000015336592377969184
          0.000019338065014882963 0.000019073988166245064 0.00001933271373726595 0.000019068434222806384 0.000019316803421819612 0.000019052579265301192
          0.000010582386854119276 0.000011541058545337391 0.000010585398240940153 0.000011542294053998472 0.000010593785926804476 0.000011546153333126494
          0.000009698454395737721 0.0000097031744684884 0.000009717640306638359 0.000018938379061569376 0.000018932634088939444 0.000018916680839975574
          0.000012164642959087493 0.000013168099218928868 0.00001216484888337408 0.000013167146164833764 0.000012166766524306571 0.000013164744374836523
          0.000019467380195190097 0.000019462677045423917 0.00001944803959345849 0.000019271081934192503 0.000017543831306745458 0.000019267060137489386
          0.000017538761273392314 0.000019255660752464968 0.00001752222158998046 0.000018246980525535038 0.000018239263259740518 0.00001821372005996555
          0.000008973596331001676 0.000008979914460373034 0.000008999287783661998 0.000006908633528788943 0.000007324998709004769 0.000006914715706418607
          0.000007332525466633349 0.000006933571335186667 0.000007355397962085691 0.000008410805130666473 0.000008418379791757534 0.00000844153635536498
          0.00000792978146598868 0.000007937882710576862 0.000007963401783582414 0.00001898707103058102 0.000018982301947148876 0.00001896942730195081
        </DataArray>
        <DataArray type="Float64" Name="disp_y" format="ascii" RangeMin="-0.000011273860574710924" RangeMax="0">
          -1.3087552200272647e-7 0 -1.310968145945069e-7 0 -1.3102105381935972e-7 0
          -1.3608944055605148e-7 0 -1.3600033638485482e-7 0 -1.3586162688104137e-7 0
          -1.4004732516647665e-7 0 -1.4005453842111928e-7 0 -1.4004911401779296e-7 0
          -1.441049186993929e-7 0 -1.440901187545945e-7 0 -1.4404831271416224e-7 0
          -1.4877347730193282e-7 0 -1.487602322768366e-7 0 -1.48709643261633e-7 0
          -1.546937120830817e-7 0 -1.546819087690377e-7 0 -1.5470072942044113e-7 0
          -1.6094418426143348e-7 0 -1.607971059516054e-7 0 -1.602435858642856e-7 0
          -1.7989329700300673e-7 0 -1.7929307191419936e-7 0 -1.7761220044615052e-7 0
          -2.659045548760615e-7 -2.656904155836828e-7 -2.651408604781519e-7 -2.7310566140815037e-7 -2.7309048821136796e-7 -2.7316692492585817e-7
          -2.8025179509183376e-7 -2.8024592907711344e-7 -2.80211605127718e-7 -2.883893038521837e-7 -2.8836614476671296e-7 -2.8830652838904935e-7
          -2.9776855571461205e-7 -2.97760780494411e-7 -2.976511421101632e-7 -3.093512781905478e-7 -3.09276545361429e-7 -3.0940047026522424e-7
          -3.2424247019612726e-7 -3.236321752166788e-7 -3.221566486346127e-7 -3.61713194820389e-7 -3.6055892144219863e-7 -3.567211701977989e-7
          -4.011670959382045e-7 -4.0112505078132504e-7 -4.013661596127143e-7 -4.100386270197571e-7 -4.10051244678273e-7 -4.100171405749706e-7
          -4.2048293679335443e-7 -4.2045929569460453e-7 -4.2040014624737315e-7 -4.3272003871380176e-7 -4.3269539211560837e-7 -4.326100743174168e-7
          -4.472590804568888e-7 -4.472498245922259e-7 -4.4726003517915754e-7 -4.638009937962737e-7 -4.635001923403105e-7 -4.6280011745445805e-7
          -4.913447457049729e-7 -4.903981748274672e-7 -4.874701580670197e-7 -5.624732529582013e-7 -5.607476280144206e-7 -5.554991316009887e-7
          -5.350891902880874e-7 -5.350838714387821e-7 -5.34951533279954e-7 -5.469803190400593e-7 -5.469499524934612e-7 -5.4687959241152e-7
          -5.605786797659094e-7 -5.605428115531794e-7 -5.604308189565653e-7 -5.76814777438642e-7 -5.767865409661488e-7 -5.76671252168418e-7
          -5.966583263119957e-7 -5.965959928944332e-7 -5.965985332234161e-7 -6.201812470953968e-7 -6.1960753317804e-7 -6.181045446818386e-7
          -6.690324117589702e-7 -6.675569878025325e-7 -6.629821742135394e-7 -7.842145558281809e-7 -7.818648589081457e-7 -7.751368544778694e-7
          -6.699458136864139e-7 -6.698883023315166e-7 -6.69757629177268e-7 -6.83868634338309e-7 -6.83826342328703e-7 -6.836870481877439e-7
          -7.007442952852536e-7 -7.006963956929021e-7 -7.005583510654918e-7 -7.208383767677912e-7 -7.208158022614312e-7 -7.206806315740563e-7
          -7.454462069569641e-7 -7.451780781092751e-7 -7.448126868698805e-7 -7.814651125475207e-7 -7.80396956807617e-7 -7.774610904512279e-7
          -8.638351512764538e-7 -8.617390927096821e-7 -8.551716830264832e-7 -0.0000010352845991086608 -0.000001032320569697126 -0.0000010233282277140257
          -8.052084928498403e-7 -8.051581573784927e-7 -8.050040642570507e-7 -8.211215280586277e-7 -8.210659235877486e-7 -8.209048373246135e-7
          -8.40925361777101e-7 -8.408849641364382e-7 -8.40720653844319e-7 -8.652370729342066e-7 -8.651600014467819e-7 -8.651624268326446e-7
          -8.944561663967833e-7 -8.937744374794868e-7 -8.920194279038937e-7 -9.516073198655725e-7 -9.498237729724585e-7 -9.442920370416244e-7
          -0.000001085700163102448 -0.0000010829010831046637 -0.0000010743146560493704 -0.0000013297806648205112 -0.0000013263006794545208 -0.0000013155775943046174
          -9.269276017366554e-7 -9.268740497502485e-7 -9.267151173169985e-7 -9.405556224985895e-7 -9.404987901516084e-7 -9.403272530796791e-7
          -9.585528881088507e-7 -9.584928489223396e-7 -9.58313318261343e-7 -9.811308613350386e-7 -9.811072881077093e-7 -9.809766635075163e-7
          -0.0000010092413560142095 -0.0000010089206017785699 -0.0000010084855739249477 -0.0000010488141568775061 -0.0000010474512415771907 -0.000001043585114130273
          -0.0000011434609743784196 -0.0000011408745158217725 -0.0000011325587685124006 -0.000001345025517176712 -0.0000013415711314111917 -0.0000013310372468574394
          -0.0000016767395885537177 -0.0000016729201382690584 -0.000001661228651670118 -0.0000010605386554433643 -0.0000010604825454725776 -0.0000010603167056866316
          -0.0000010758397962062731 -0.0000010757815299682361 -0.0000010755999510670374 -0.0000010958750720649763 -0.0000010958242121336852 -0.000001095634764356032
          -0.0000011213746757217664 -0.0000011212875456056199 -0.0000011212508604520109 -0.0000011535714681455972 -0.0000011527380519613562 -0.0000011507544976463078
          -0.0000012173556647839536 -0.0000012151860163469291 -0.0000012084354000883051 -0.0000013702373042602761 -0.0000013668910933024246 -0.0000013564402184511124
          -0.0000016524113836389828 -0.0000016484485668435884 -0.0000016363047610524552 -0.0000020804999499011494 -0.0000020765585328589584 -0.000002064386104314528
          -0.0000011939119403849318 -0.0000011938576461011362 -0.0000011936804461516734 -0.0000012108767735602594 -0.000001210809637196125 -0.000001210629810908005
          -0.0000012329972103999627 -0.0000012329924013271071 -0.0000012328985718627296 -0.0000012611645121426491 -0.000001260714146877403 -0.0000012600580539934218
          -0.0000013041420011537358 -0.000001302466349683148 -0.0000012975582242768626 -0.0000014133006850392076 -0.0000014102849876081126 -0.0000014004742672902402
          -0.000001643486894252053 -0.000001639573956547851 -0.0000016275938180823423 -0.0000020167617499351514 -0.0000020125853125038026 -0.0000019995850739893504
          -0.0000025433985900541087 -0.000002539402642321447 -0.0000025273291767927575 -0.0000013269203368899555 -0.0000013268610183258387 -0.000001326695171305257
          -0.0000013453097703257131 -0.0000013452913052711985 -0.0000013451135311956495 -0.0000013697268011325974 -0.0000013695717008499362 -0.0000013695637040926155
          -0.0000014018989210282986 -0.0000014007684119808687 -0.0000013979160916806742 -0.0000014748089009107325 -0.0000014721221570213398 -0.0000014636914842190612
          -0.0000016521979089767665 -0.0000016484692702442418 -0.0000016368465494058767 -0.0000019714423138591806 -0.0000019672008033306165 -0.0000019542590600621877
          -0.0000024438181004957394 -0.000002439486285545402 -0.000002426739444718706 -0.0000030657390644012247 -0.0000030620458483841946 -0.0000030500039287465192
          -0.0000014591554189847827 -0.0000014591101233217094 -0.0000014589369774110326 -0.0000014793219310573515 -0.0000014792875142435796 -0.0000014793458230198911
          -0.000001505125095025399 -0.0000015044377254474999 -0.0000015030900704487392 -0.000001552867902143532 -0.0000015508513659143082 -0.0000015445186416661837
          -0.0000016805550721914874 -0.000001677228174227011 -0.0000016663808871259585 -0.0000019425601304749274 -0.000001938266413667606 -0.000001925217688960766
          -0.0000023607011467583815 -0.0000023562289577199313 -0.000002342626377429822 -0.000002936075465410395 -0.0000029318496868820544 -0.000002918875767647603
          -0.0000036473778212772025 -0.0000036439609289104087 -0.0000036334917151472073 -0.0000015904006587136118 -0.0000015903984562911133 -0.0000015903177641277475
          -0.000001611972362975997 -0.0000016116682892469127 -0.0000016112962598620725 -0.000001644009261276239 -0.0000016426073941517094 -0.0000016385662375186183
          -0.0000017292863517582663 -0.0000017263372647665622 -0.0000017169359593699083 -0.000001932864329581491 -0.000001928705430797953 -0.0000019159641091718254
          -0.0000022923645388618613 -0.0000022877213113549115 -0.00000227345751945045 -0.000002818184221970368 -0.0000028136461291344165 -0.000002799734818944153
          -0.000003495581536469893 -0.0000034916659337005555 -0.0000034795266672765403 -0.00000430255007389537 -0.000004299733037455424 -0.0000042908470724869145
          -0.0000017203711607511324 -0.0000017203037838794774 -0.0000017203836835369823 -0.000001743689394261506 -0.0000017428784217989192 -0.0000017409225108069438
          -0.0000017974208081264987 -0.0000017950990889529737 -0.0000017879616163914685 -0.0000019445345338142888 -0.000001940708019505361 -0.000001928798698551626
          -0.000002240787039048864 -0.000002236062963974706 -0.000002221417345730998 -0.000002710853033382653 -0.0000027059876490848532 -0.0000026910652648051147
          -0.0000033486502451681336 -0.0000033443497048723535 -0.00000333119450681577 -0.000004126416914486563 -0.000004123111755766838 -0.000004113300427384922
          -0.000005002790820639729 -0.000005000862239859134 -0.000004994710451443489 -0.0000018483132747740285 -0.0000018479042204143734 -0.000001847232313322549
          -0.0000018812670208128572 -0.0000018796208249152563 -0.000001875035268714687 -0.0000019783555490910806 -0.000001975078535963849 -0.0000019647125584959247
          -0.0000022092601894816493 -0.000002204624204208783 -0.0000021902058751893797 -0.000002616052149216401 -0.0000026109091177876502 -0.000002595061205549919
          -0.0000032054470247373267 -0.0000032006480945794888 -0.000003185918904403026 -0.000003953532464050391 -0.0000039497473068659115 -0.0000039382441750989475
          -0.000004817185834973053 -0.000004814855732504641 -0.000004807741911714367 -0.000005743896128474081 -0.00000574315144604186 -0.000005740667674266426
          -0.0000020333608053328288 -0.0000020307526925616176 -0.0000020226584845767645 -0.0000021996668485051504 -0.0000021953332140785707 -0.000002181780456935183
          -0.000002536391463304256 -0.0000025310902066382334 -0.0000025146378949265016 -0.0000030683726678520887 -0.0000030630984822626024 -0.0000030469034327325905
          -0.000003780539217260304 -0.00000377614299171918 -0.000003762713056363062 -0.0000046292899338524045 -0.000004626335031329255 -0.0000046172286645528536
          -0.000005557709071156669 -0.000005556361394718944 -0.000005552423062103698 -0.000006511300560900179 -0.000006511499523719729 -0.000006512732179027583
          -0.0000022137027068411706 -0.0000022099488296792037 -0.000002198032184274161 -0.000002475538400162327 -0.0000024702423501283125 -0.000002453689319546472
          -0.000002938932214329213 -0.0000029332003479786392 -0.000002915487794210772 -0.000003604793845947137 -0.000003599715981942527 -0.0000035841636739389248
          -0.000004435286060400002 -0.000004431634258063867 -0.000004420555905810993 -0.000005369035773790563 -0.0000053671416004480406 -0.00000536147946681743
          -0.000006337198440251756 -0.0000063369861803060575 -0.000006336162835853093 -0.000007283530059378416 -0.0000072845124194633725 -0.0000072872751124710986
          -0.0000024374934210722393 -0.000002432501938642208 -0.0000024167967934109342 -0.0000028221941452706737 -0.0000028161453076697885 -0.0000027973160975425087
          -0.0000034284861704773894 -0.00000342267070179064 -0.000003404761837806827 -0.000004228971814973433 -0.000004224439550813823 -0.0000042105814517780266
          -0.00000516398932894748 -0.000005161336699834472 -0.000005153329831657503 -0.000006159651222130454 -0.000006158988017276788 -0.000006157168503338865
          -0.0000071429661983588265 -0.000007143794473038202 -0.000007146978737693068 -0.000008057649648207382 -0.000008059552191439228 -0.000008063618648321533
          -0.000002721625432370643 -0.0000027154638289568467 -0.000002696146809564765 -0.0000032556978637189353 -0.000003249222343895183 -0.000003229234924744097
          -0.000004014065639187897 -0.000004008597972793322 -0.000003991843132245755 -0.00000494046329223814 -0.000004936833698132432 -0.000004925784894307494
          -0.0000059574074665853825 -0.000005955933412929255 -0.000005951508435872554 -0.00000698507679356042 -0.000006985672224594369 -0.000006987425049953439
          -0.000007955469699752011 -0.000007957498445027737 -0.000007963843116388393 -0.000008823620310587447 -0.000008826995574610262 -0.000008835866438426537
          -0.0000037903276349731587 -0.0000037838774797371817 -0.0000037641204833259306 -0.000004700150606654726 -0.000004695487889470159 -0.000004681292929404309
          -0.000005733722039059133 -0.000005731354072303049 -0.0000057241596254061385 -0.000006802604918341325 -0.000006802532660844944 -0.000006802299322108659
          -0.000007828762072717973 -0.00000783070959846559 -0.000007836273098247686 -0.000008755026410583015 -0.000008758471029003541 -0.00000876851355083708
          -0.000009551287711823057 -0.000009556225660816611 -0.000009570423936821415 -0.00000443716236799273 -0.000004431268588827458 -0.000004413393578858683
          -0.000005485220701303027 -0.0000054818477236071365 -0.000005471583997147179 -0.000006596890798866911 -0.000006596141850321287 -0.00000659381268427527
          -0.000007681051986405267 -0.000007682674009936863 -0.00000768743727749772 -0.00000866855536737143 -0.000008672056980898542 -0.00000868243468400784
          -0.000009516097381849975 -0.000009520987246103893 -0.000009535835971422358 -0.000010198842513477603 -0.000010204596438206762 -0.000010222700737097156
          -0.000005201531502110818 -0.000005196817848122666 -0.00000518263139742689 -0.000006360162789259678 -0.000006358586473267686 -0.000006353703074546536
          -0.000007509883098153033 -0.000007511130095051236 -0.000007514767203302611 -0.000008565411518123994 -0.000008568944500434516 -0.000008579487471022294
          -0.00000947212522160301 -0.000009477191763063346 -0.000009492578431000734 -0.000010202135640742861 -0.000010208046427582396 -0.000010226120641750416
          -0.000006080106342078941 -0.000006077230661865762 -0.000006068666894195727 -0.000007305642062449947 -0.0000073063195030996364 -0.000007308317631923339
          -0.000008442016094901873 -0.000008445493652391918 -0.000008456029684786108 -0.00000941851033491178 -0.000009423872475472714 -0.000009440228193152936
          -0.00001020125795109474 -0.000010207473478345634 -0.000010226597604249288 -0.000008422129902517171 -0.000007421183784323817 -0.000006636820026590201
          -0.000007451935532103612 -0.000008425408598777803 -0.000007422688014497076 -0.000006637381085593518 -0.00000745382046914467 -0.000008433988755119045
          -0.000007426736612312771 -0.000006639465223616082 -0.000007459811410420734 -0.000002786761493345968 -0.000003367468480868948 -0.0000028924812628234306
          -0.000002374560694344009 -0.0000027834262302807833 -0.0000033647606023702944 -0.0000028890320128690396 -0.0000023708124575615053 -0.0000027730727910371405
          -0.000003356459196744172 -0.000002878568148004303 -0.000002359285776735408 -0.000009970525714966115 -0.000010434438023303559 -0.000009820261387608292
          -0.000009975602921693378 -0.00001044020421324186 -0.000009825102741400873 -0.00000999119393133128 -0.000010459291033252608 -0.000009841999946653674
          -0.000010056400525559472 -0.000010061263142635448 -0.00001007778013735275 -0.0000058297421910291546 -0.000005060960033718494 -0.000005691428269462235
          -0.000006587690368792683 -0.000005829260044915898 -0.000005059596506414029 -0.000005691054624489112 -0.000006588602007199562 -0.000005827987105692983
          -0.000005054581250952761 -0.00000569013113334834 -0.000006591599985632361 -0.0000021548373154808132 -0.0000018822178636039835 -0.000002151304090686608
          -0.0000018783410519228829 -0.0000021402643071236108 -0.0000018663326969554187 -0.000008685128336620786 -0.000009353492375360947 -0.000009491827930722672
          -0.000008688321029942342 -0.00000935745157620968 -0.000009495945812920736 -0.000008699922797986688 -0.00000937009389237538 -0.000009508011833279309
          -0.0000014440808995094161 -0.000001615338439329515 -0.0000014403570034858054 -0.0000016117990357862128 -0.0000014286632045963416 -0.0000016006813412764995
          -0.000009041732487426967 -0.00000960012044119168 -0.00000904610364095626 -0.00000960471240505174 -0.00000905872424998666 -0.00000962155144308584
          -0.000004266943211713383 -0.000004265039420584545 -0.000004260109453972622 -0.000008218761925164769 -0.000009071372747636956 -0.000008221944956167305
          -0.000009075303995440654 -0.000008231110887882182 -0.000009088764104386089 -0.000008165219850478526 -0.00000872748004179807 -0.000008167738405689387
          -0.000008731440505066892 -0.000008174848431783423 -0.000008743192627350393 -0.000004568790793561705 -0.000004819478735940529 -0.0000045666634624831294
          -0.00000481792005792399 -0.0000045605023664527816 -0.00000481373699927711 -0.000003416572076531759 -0.000004048579195087177 -0.0000034136570319182478
          -0.000004046170821828661 -0.000003404531922690027 -0.000004039278355271723 -0.0000010803041585670065 -0.0000010770690437524537 -0.000001066617846781982
          -5.475207775260388e-7 -7.901369886398404e-7 -5.455976266981715e-7 -7.875132761975998e-7 -5.396473758890853e-7 -7.791663730175742e-7
          -0.000003692878397609562 -0.0000036905646859032073 -0.0000036844587778230334 -3.379671216081978e-7 -3.371152223962193e-7 -3.331606099046526e-7
          -0.000009243576619053986 -0.000009247957235501315 -0.00000926096400741423 -1.8840619211395855e-7 -1.8783271372917424e-7 -1.8687090903398687e-7
          -0.000001166956138328815 -0.0000011637405780233434 -0.0000011533457395572825 -7.813290884611444e-7 -7.792923644302829e-7 -7.716333288535951e-7
          -5.955292497449754e-7 -5.936105942437382e-7 -5.897412648721481e-7 -0.000010742353230041247 -0.000010748380149852902 -0.00001076717269188287
          -0.000010784702826292816 -0.000010790817871795252 -0.000010809724360791852 -0.000011178905025110152 -0.000011184234435066717 -0.00001120154738505353
          -0.000008289626503210087 -0.000007057493834349051 -0.00000829283624192717 -0.000007057069306661813 -0.000008302757720226005 -0.000007056009236669952
          -0.000009351771781537375 -0.000009357393028482188 -0.000009374774149231631 -0.000010198218781524315 -0.000010204897267289827 -0.000010225690623742511
          -0.000010823782199020175 -0.000010830319890486585 -0.000010850711827642386 -0.000011250746797009305 -0.000011256374304537052 -0.000011273860574710924
          -0.000010696157336573126 -0.000010700862660866161 -0.000010714830860565611 -0.000010510057496935235 -0.000010514698393292535 -0.000010528480402464567
          -0.000006130007066834328 -0.000007417879569252839 -0.0000061305906383900235 -0.00000741997856532052 -0.00000613256937193943 -0.000007426166560604436
          -0.000010076410047365464 -0.000010158242711263487 -0.00001008027644972193 -0.000010162487010943597 -0.000010091084220016712 -0.00001017498889375809
          -0.0000033172265700217084 -0.000004264881286175428 -0.000003314980428907975 -0.000004263278494944054 -0.000003308107977126823 -0.00000425824289086537
          -0.000002513699366971672 -0.0000025110660153694225 -0.0000025033212168844838 -0.000010306563759170102 -0.000010311420345177658 -0.00001032537979399328
          -0.000005135103433869994 -0.0000054580937690280114 -0.000005134720279575838 -0.000005458396531749155 -0.0000051318088143548345 -0.000005458985123841904
          -0.000009905549772265777 -0.000009909685527521308 -0.000009920759919956392 -0.000009547363842460347 -0.000008661445443270896 -0.000009551875748108377
          -0.000008665213293601132 -0.000009566837961108657 -0.000008675534902505408 -0.00001091026830088937 -0.000010915500120532037 -0.000010931734655019095
          -0.000001839590511249259 -0.0000018368233333280541 -0.0000018281936962959598 0 -4.266693026870556e-7 0
          -4.2522428739577475e-7 0 -4.21376196579567e-7 -0.0000012968373477659222 -0.0000012942976730735339 -0.0000012865554463827304
          -8.497609121494182e-7 -8.476696726725586e-7 -8.421167962612971e-7 -0.000011101883452468881 -0.000011105839709778254 -0.000011118064934573602
        </DataArray>
        <DataArray type="Float64" Name="disp_z" format="ascii" RangeMin="-6.968498571703424e-7" RangeMax="0">
          0 0 -5.6632856142543405e-8 -5.80965169766189e-8 -1.1470861006896735e-7 -1.1651393633941715e-7
          0 0 -5.949887369570339e-8 -5.8648669906184396e-8 -1.184401715561373e-7 -1.1712560031770167e-7
          0 0 -5.82372233995176e-8 -5.833360842186192e-8 -1.165374200490226e-7 -1.1664847248236683e-7
          0 0 -5.785885320872802e-8 -5.7813659917095156e-8 -1.157474821669959e-7 -1.156558450553984e-7
          0 0 -5.7410356084344745e-8 -5.7346599161297214e-8 -1.1475625263207817e-7 -1.1467853222983502e-7
          0 0 -5.691447938711778e-8 -5.7051035360980786e-8 -1.1383025578665674e-7 -1.1388192339173049e-7
          0 0 -5.4730453225940245e-8 -5.4099281248984985e-8 -1.0983950490435387e-7 -1.088862825044318e-7
          0 0 -5.5727951131125705e-8 -5.334602733131833e-8 -1.1352303543799618e-7 -1.0804276757936589e-7
          0 -6.006268144918149e-8 -1.2007838289815277e-7 0 -5.869562718914959e-8 -1.1722687947561445e-7
          0 -5.8355606666278244e-8 -1.1677855918735034e-7 0 -5.799969031286196e-8 -1.1593920773906825e-7
          0 -5.7536847379243665e-8 -1.1518898289369527e-7 0 -5.6639661246528924e-8 -1.1312852102919121e-7
          0 -5.615567676925995e-8 -1.127073151540865e-7 0 -6.055440708094618e-8 -1.226699168818837e-7
          0 -5.887585274257759e-8 -1.176036118488429e-7 0 -5.879555948635604e-8 -1.175753929821772e-7
          0 -5.842990257858269e-8 -1.1688154184272896e-7 0 -5.813882679927451e-8 -1.1621979782488727e-7
          0 -5.7701732319484486e-8 -1.1553284923642721e-7 0 -5.633637054608896e-8 -1.1277297946367913e-7
          0 -5.978869380597908e-8 -1.2054164865926813e-7 0 -7.011042615216228e-8 -1.4127706189841083e-7
          0 -5.893595149257733e-8 -1.179380044771764e-7 0 -5.8817196950463644e-8 -1.1762941707040811e-7
          0 -5.8626174510706526e-8 -1.1723726135472656e-7 0 -5.831501107749121e-8 -1.1661878424007545e-7
          0 -5.741871647070928e-8 -1.1506382377888685e-7 0 -5.805427562338991e-8 -1.1636936968196735e-7
          0 -6.663055534177352e-8 -1.3443829224913087e-7 0 -8.055247310370898e-8 -1.6198224971454154e-7
          0 -5.9171221495403864e-8 -1.183293087601456e-7 0 -5.903065683612481e-8 -1.1808102330327001e-7
          0 -5.8886484801649535e-8 -1.1770544838312144e-7 0 -5.858662379401554e-8 -1.1726283780579795e-7
          0 -5.709807621306553e-8 -1.1462428048329089e-7 0 -6.141159620724913e-8 -1.2315809699509775e-7
          0 -7.702521115940837e-8 -1.5549965303013883e-7 0 -9.482219124938456e-8 -1.9043638850356697e-7
          0 -5.94267945290816e-8 -1.188604228762062e-7 0 -5.931172256056045e-8 -1.1862306701294879e-7
          0 -5.917444807279922e-8 -1.182858514265677e-7 0 -5.8641527355358526e-8 -1.1754660049941639e-7
          0 -5.7928578127814704e-8 -1.1648514799102994e-7 0 -6.869690625784462e-8 -1.3802754965256858e-7
          0 -9.142151221037829e-8 -1.842425405228427e-7 0 -1.1347852168330581e-7 -2.2765408843190306e-7
          0 -5.981327806955198e-8 -1.196218513680527e-7 0 -5.971706665031965e-8 -1.194520625784856e-7
          0 -5.966383677821443e-8 -1.1925802417897293e-7 0 -5.948973390338912e-8 -1.1908280580613345e-7
          0 -5.80444423933914e-8 -1.1644510921612201e-7 0 -6.262448499557889e-8 -1.263439431787405e-7
          0 -8.219859600066199e-8 -1.6515172340951022e-7 0 -1.092980762516072e-7 -2.1965029475587195e-7
          0 -1.3465799358031219e-7 -2.6993166252898084e-7 0 -6.010726253564106e-8 -1.2021408657991043e-7
          0 -6.00534756737639e-8 -1.2010515574482663e-7 0 -6.002343603509341e-8 -1.199839525814925e-7
          0 -5.9495245727108586e-8 -1.1926877382610496e-7 0 -5.904622342885818e-8 -1.1890406893486222e-7
          0 -7.173202663700827e-8 -1.4466991179627067e-7 0 -1.0052424812193646e-7 -2.0147182450792721e-7
          0 -1.308266798177453e-7 -2.6243633070826374e-7 0 -1.571101629255863e-7 -3.1465558419476946e-7
          0 -6.040971036959429e-8 -1.208296000294332e-7 0 -6.042485166245477e-8 -1.2078972376861523e-7
          0 -6.03477409085156e-8 -1.2078336730330634e-7 0 -5.897869995233095e-8 -1.1854905492396349e-7
          0 -6.436446508744407e-8 -1.2965408670078066e-7 0 -8.810174464693202e-8 -1.7771031955675522e-7
          0 -1.2204455015825592e-7 -2.4393503415612923e-7 0 -1.547528064005143e-7 -3.0988390258411735e-7
          0 -1.801868721717535e-7 -3.606673088341134e-7 0 -6.075674262029615e-8 -1.2149842474911056e-7
          0 -6.077575694327437e-8 -1.2149165017302108e-7 0 -6.010797185392429e-8 -1.206041466886003e-7
          0 -6.059271799906748e-8 -1.2202876216380267e-7 0 -7.671179187819185e-8 -1.5516001586937468e-7
          0 -1.0916361449233205e-7 -2.1915279946123892e-7 0 -1.4557068343393867e-7 -2.906970442874615e-7
          0 -1.79421669085234e-7 -3.591586205294205e-7 0 -2.0290746408047866e-7 -4.051800357237684e-7
          0 -6.108771408881328e-8 -1.2206534385317026e-7 0 -6.097439017381418e-8 -1.222367321548735e-7
          0 -5.958725424257379e-8 -1.1973745630605044e-7 0 -6.842686323965356e-8 -1.381714857284627e-7
          0 -9.602293268964088e-8 -1.9352231419016888e-7 0 -1.3256385598130196e-7 -2.653850452726201e-7
          0 -1.703474345341131e-7 -3.402871123620454e-7 0 -2.0209337501198297e-7 -4.035236274949834e-7
          0 -2.2714553399003388e-7 -4.537834351901181e-7 0 -6.139795844931503e-8 -1.228987886020485e-7
          0 -6.020695325302368e-8 -1.2069019446452318e-7 0 -6.365369594781433e-8 -1.2835809401688056e-7
          0 -8.370157672120043e-8 -1.691316683150127e-7 0 -1.1845422227314577e-7 -2.3766881892979358e-7
          0 -1.5836454929128606e-7 -3.1680423007472056e-7 0 -1.9631441266707098e-7 -3.918087541991139e-7
          0 -2.2781924662754562e-7 -4.546581449286119e-7 0 -2.453434032800478e-7 -4.895017017769191e-7
          0 -6.122475125596435e-8 -1.2265540246356582e-7 0 -6.11649453523015e-8 -1.2322289682351112e-7
          0 -7.341102902550629e-8 -1.4844174617748657e-7 0 -1.0416073730338084e-7 -2.0961007755447758e-7
          0 -1.4463587100653185e-7 -2.8968019456690756e-7 0 -1.8616313313454333e-7 -3.718989376134937e-7
          0 -2.223002142783157e-7 -4.4344508459791375e-7 0 -2.476387364474379e-7 -4.936054024532068e-7
          0 -2.6087076414845025e-7 -5.202999753464366e-7 0 -6.056959297851576e-8 -1.2161087377726415e-7
          0 -6.598368115116032e-8 -1.3324330844903191e-7 0 -9.006758913839138e-8 -1.8192409818405382e-7
          0 -1.2937320063157782e-7 -2.595990298933638e-7 0 -1.73833393214408e-7 -3.4754359189848046e-7
          0 -2.1459486601869684e-7 -4.2821645121226296e-7 0 -2.455559469564457e-7 -4.895252315677709e-7
          0 -2.6410329570498905e-7 -5.264395950800958e-7 0 -2.689643646887021e-7 -5.360934322831607e-7
          0 -7.70470301838802e-8 -1.5601663100934793e-7 0 -1.1303135459097268e-7 -2.2749017087855934e-7
          0 -1.590769871558242e-7 -3.18451795881954e-7 0 -2.0455041565833175e-7 -4.0837432626791696e-7
          0 -2.416172031268639e-7 -4.816788363729523e-7 0 -2.653182373540791e-7 -5.286775294147163e-7
          0 -2.737690586916169e-7 -5.456674058873735e-7 0 -2.699042738442002e-7 -5.38611014447646e-7
          0 -9.61138177209051e-8 -1.9432593204396533e-7 0 -1.4204986620869825e-7 -2.849620649506947e-7
          0 -1.919621570106562e-7 -3.835239753395594e-7 0 -2.349900991665354e-7 -4.685909767991975e-7
          0 -2.6494178652910253e-7 -5.278977434678033e-7 0 -2.7946380622309554e-7 -5.567773686681859e-7
          0 -2.782852582332805e-7 -5.54703784370116e-7 0 -2.6325134419621585e-7 -5.255730099475512e-7
          0 -1.2266504684607474e-7 -2.470729010128765e-7 0 -1.763879484341326e-7 -3.528782111407649e-7
          0 -2.263565628755505e-7 -4.5149580213760056e-7 0 -2.632347970454933e-7 -5.244317231577876e-7
          0 -2.8297593640184835e-7 -5.636400604767217e-7 0 -2.854728995307597e-7 -5.691833604383413e-7
          0 -2.754581768796689e-7 -5.494291829430318e-7 0 -2.6133927439008884e-7 -5.206679973685233e-7
          0 -1.5630195190523533e-7 -3.140008663904557e-7 0 -2.14032018026744e-7 -4.2721226255868416e-7
          0 -2.5983319286138306e-7 -5.176028685876371e-7 0 -2.87089328765718e-7 -5.716263284922299e-7
          0 -2.94657083637644e-7 -5.868390549116079e-7 0 -2.846305433144362e-7 -5.679902812200765e-7
          0 -2.644978939546127e-7 -5.276234353597427e-7 0 -2.4905612143083896e-7 -4.95104174846366e-7
          0 -2.525472589826376e-7 -5.032321269795042e-7 0 -2.8959359995903767e-7 -5.763998746640906e-7
          0 -3.04409745696924e-7 -6.059428070334608e-7 0 -2.9882893729092987e-7 -5.951953522704953e-7
          0 -2.774474117711611e-7 -5.540146128738001e-7 0 -2.5064961563329553e-7 -4.995535395789556e-7
          0 -2.3085370147717883e-7 -4.5958937264040085e-7 0 -2.888643291332395e-7 -5.749477230623279e-7
          0 -3.130296395621655e-7 -6.227313340461203e-7 0 -3.133734149995872e-7 -6.237475397335169e-7
          0 -2.945219370191388e-7 -5.867102890044128e-7 0 -2.6274951016747156e-7 -5.248390277569191e-7
          0 -2.2758431850846877e-7 -4.5316229865462427e-7 0 -1.9748502826031095e-7 -3.9377786378934566e-7
          0 -3.1961469572245327e-7 -6.35767731943932e-7 0 -3.2758714119231787e-7 -6.515038514558069e-7
          0 -3.12155473498964e-7 -6.213527430701054e-7 0 -2.8000369375164287e-7 -5.579739622564113e-7
          0 -2.3794849993761626e-7 -4.7568941798385645e-7 0 -1.9581216794234226e-7 -3.9024653701321803e-7
          0 -3.4132807355972e-7 -6.788645966148462e-7 0 -3.3044413594834815e-7 -6.571794506141249e-7
          0 -2.98545800270372e-7 -5.945394448990668e-7 0 -2.5391848598579055e-7 -5.06540477287619e-7
          0 -2.044561411826071e-7 -4.0945108624211513e-7 0 0 0
          0 -2.3006679443360465e-7 -2.5730247052564845e-7 -2.6179388740177407e-7 -2.488408275208762e-7 -4.5827175552112236e-7
          -5.12680012269064e-7 -5.218450084892536e-7 -4.961132355057322e-7 0 0 0
          0 -2.163149967580124e-7 -2.3466830774563098e-7 -2.0992107647847586e-7 -1.8982498529308184e-7 -4.305377333906725e-7
          -4.670158815845344e-7 -4.1921358058472116e-7 -3.7939709725984914e-7 0 0 0
          -1.6725842890375733e-7 -1.5343516753704398e-7 -1.9998816624706956e-7 -3.3633398797224184e-7 -3.075786301276507e-7 -3.973120514765458e-7
          0 -1.4971054702595823e-7 -3.0030236068705213e-7 0 0 0
          0 -2.6523564564685883e-7 -2.568703276244488e-7 -2.633937464474494e-7 -2.606080241588869e-7 -5.28733476501882e-7
          -5.125360167471988e-7 -5.241653425173086e-7 -5.188505811387104e-7 0 0 -1.91059551987386e-7
          -1.6545572190210527e-7 -3.8071843742334916e-7 -3.3150624064753805e-7 0 0 0
          -2.068247905427563e-7 -1.7242263513933505e-7 -1.752319391101403e-7 -4.1378868785961885e-7 -3.45192148493677e-7 -3.502391554147788e-7
          0 0 -1.396359134449062e-7 -1.6424190902171928e-7 -2.807039447557085e-7 -3.276926584932856e-7
          0 0 -2.2632256298758412e-7 -1.8315813669519885e-7 -4.506751208666058e-7 -3.6675189345835394e-7
          0 -2.481111570687229e-7 -4.938052863811905e-7 0 0 -2.2372614516239247e-7
          -1.8283980702881506e-7 -4.461087820302595e-7 -3.660034018388406e-7 0 0 -2.453636363232608e-7
          -2.3326784548256824e-7 -4.878513575911097e-7 -4.6600828356784283e-7 0 0 -2.49088095152759e-7
          -2.552776752626705e-7 -4.965087860971149e-7 -5.084141693353484e-7 0 0 -2.2668946929832898e-7
          -2.4427543267469765e-7 -4.525621183712855e-7 -4.874874133477704e-7 0 -1.1543068273605261e-7 -2.3311310542446376e-7
          0 0 -8.387718851940447e-8 -9.566544544382072e-8 -1.7097477897186202e-7 -1.9378912329226958e-7
          0 -2.3974000541261555e-7 -4.771228889249747e-7 0 -7.359247340464165e-8 -1.4976289171546876e-7
          0 -2.3170163110543766e-7 -4.612070646867167e-7 0 -6.466834469344602e-8 -1.2951240189497925e-7
          0 -1.3789978464576973e-7 -2.759572380720811e-7 0 -1.1319308291746167e-7 -2.2739625975911434e-7
          0 -9.732537430906236e-8 -1.9356176663336692e-7 0 -1.6078705683754767e-7 -3.221261783554575e-7
          0 -1.5974284677140175e-7 -3.189720359140354e-7 0 -1.2481699809754873e-7 -2.512357948163517e-7
          0 0 -3.187905378132809e-7 -3.503632356051595e-7 -6.342324333985387e-7 -6.968498571703424e-7
          0 -2.7115539271597955e-7 -5.405950906109728e-7 0 -2.1732159648736688e-7 -4.3446335539358925e-7
          0 -1.6586291801748827e-7 -3.3300438285258e-7 0 -1.2447379241202787e-7 -2.494340362223657e-7
          0 -1.1664524194587925e-7 -2.3574886405103105e-7 0 -1.2300090353113929e-7 -2.4708792647537047e-7
          0 0 -2.6231661629092833e-7 -2.3735691468928135e-7 -5.229267387994667e-7 -4.7342563117015034e-7
          0 0 -1.3438971024644866e-7 -1.351661858464028e-7 -2.697391194773061e-7 -2.705850597369845e-7
          0 0 -2.3050542808225365e-7 -2.484886171553489e-7 -4.6013348645529283e-7 -4.956008544228116e-7
          0 -2.1203531757380097e-7 -4.232304065483814e-7 0 -1.323249723519446e-7 -2.655174923819807e-7
          0 0 -2.574249919593513e-7 -2.5650277446964457e-7 -5.125693430625284e-7 -5.11214081218505e-7
          0 -1.32174124959089e-7 -2.651926179923213e-7 0 0 -1.4927074474790845e-7
          -1.9520739331386814e-7 -2.988161856821729e-7 -3.912689837797905e-7 0 -1.1721188560388252e-7 -2.3567325597747292e-7
          0 -1.8928356873510354e-7 -3.781560662678398e-7 0 0 -8.396685120580728e-8
          -1.112307267463126e-7 -1.7032884774753457e-7 -2.2418439529862834e-7 0 -1.6605070908744018e-7 -3.3221735498868177e-7
          0 -1.4396663102657343e-7 -2.890655741080787e-7 0 -9.03887649860443e-8 -1.8305997008996556e-7
        </DataArray>
      </PointData>
      <CellData>
        <DataArray type="Int32" Name="libmesh_elem_id" format="ascii" RangeMin="776" RangeMax="3207">
          776 777 778 779 780 781
          782 783 784 785 786 787
          788 789 794 795 796 797
          798 799 800 801 802 803
          804 805 806 807 812 813
          814 815 816 817 818 819
          820 821 822 823 824 825
          830 831 832 833 834 835
          836 837 838 839 840 841
          842 843 848 849 850 851
          852 853 854 855 856 857
          858 859 860 861 866 867
          868 869 870 871 872 873
          874 875 876 877 878 879
          884 885 886 887 888 889
          890 891 892 893 894 895
          896 897 900 901 902 903
          904 905 906 907 908 909
          910 911 912 913 914 915
          918 919 920 921 922 923
          924 925 926 927 928 929
          930 931 932 933 936 937
          938 939 940 941 942 943
          944 945 946 947 948 949
          950 951 954 955 956 957
          958 959 960 961 962 963
          964 965 966 967 968 969
          972 973 974 975 976 977
          978 979 980 981 982 983
          984 985 986 987 990 991
          992 993 994 995 996 997
          998 999 1000 1001 1002 1003
          1004 1005 1008 1009 1010 1011
          1012 1013 1014 1015 1016 1017
          1018 1019 1020 1021 1022 1023
          1028 1029 1030 1031 1032 1033
          1034 1035 1036 1037 1038 1039
          1040 1041 1046 1047 1048 1049
          1050 1051 1052 1053 1054 1055
          1056 1057 1058 1059 1064 1065
          1066 1067 1068 1069 1070 1071
          1072 1073 1074 1075 1076 1077
          1082 1083 1084 1085 1086 1087
          1088 1089 1090 1091 1092 1093
          1094 1095 1102 1103 1104 1105
          1106 1107 1108 1109 1110 1111
          1112 1113 1120 1121 1122 1123
          1124 1125 1126 1127 1128 1129
          1130 1131 1138 1139 1140 1141
          1142 1143 1144 1145 1146 1147
          1148 1149 1156 1157 1158 1159
          1160 1161 1162 1163 1164 1165
          1166 1167 1174 1175 1176 1177
          1178 1179 1180 1181 1182 1183
          1374 1375 1376 1377 1378 1379
          1384 1385 1388 1389 1404 1405
          1458 1459 1536 1537 1542 1543
          1624 1625 1648 1649 1658 1659
          1672 1673 1770 1771 1810 1811
          1818 1819 1828 1829 1830 1831
          1866 1867 2074 2075 2078 2079
          2116 2117 2124 2125 2288 2289
          2290 2291 2336 2337 2342 2343
          2348 2349 2352 2353 2356 2357
          2358 2359 2424 2425 2452 2453
          2464 2465 2496 2497 2526 2527
          2530 2531 2532 2533 2554 2555
          2560 2561 2590 2591 2594 2595
          2622 2623 2736 2737 2740 2741
          2762 2763 2768 2769 2794 2795
          2800 2801 2864 2865 2890 2891
          2904 2905 2920 2921 2956 2957
          2986 2987 3018 3019 3036 3037
          3088 3089 3114 3115 3144 3145
          3156 3157 3176 3177 3184 3185
          3190 3191 3206 3207
        </DataArray>
        <DataArray type="Int32" Name="subdomain_id" format="ascii" RangeMin="105" RangeMax="107">
          105 105 105 105 105 105
          105 105 105 105 105 105
          105 105 105 105 105 105
          105 105 105 105 105 105
          105 105 105 105 105 105
          105 105 105 105 105 105
          105 105 105 105 105 105
          105 105 105 105 105 105
          105 105 105 105 105 105
          105 105 105 105 105 105
          105 105 105 105 105 105
          105 105 105 105 105 105
          105 105 105 105 105 105
          105 105 105 105 105 105
          105 105 105 105 105 105
          105 105 105 105 105 105
          105 105 105 105 105 105
          105 105 105 105 105 105
          105 105 105 105 105 105
          105 105 105 105 105 105
          105 105 105 105 105 105
          105 105 105 105 105 105
          105 105 105 105 105 105
          105 105 105 105 105 105
          105 105 105 105 105 105
          105 105 105 105 105 105
          105 105 105 105 105 105
          105 105 105 105 105 105
          105 105 105 105 105 105
          105 105 105 105 105 105
          105 105 105 105 105 105
          105 105 105 105 105 105
          105 105 105 105 105 105
          105 105 105 105 105 105
          105 105 105 105 105 105
          105 105 105 105 105 105
          105 105 105 105 105 105
          105 105 105 105 105 105
          105 105 105 105 105 105
          105 105 105 105 105 105
          105 105 105 105 105 105
          105 105 105 105 105 105
          105 105 105 105 105 105
          105 105 105 105 105 105
          105 105 105 105 105 105
          105 105 105 105 105 105
          105 105 105 105 105 105
          105 105 105 105 105 105
          105 105 105 105 105 105
          105 105 105 105 105 105
          105 105 105 105 105 105
          105 105 105 105 105 105
          105 105 105 105 105 105
          105 105 105 105 105 105
          107 107 107 107 107 107
          107 107 107 107 107 107
          107 107 107 107 107 107
          107 107 107 107 107 107
          107 107 107 107 107 107
          107 107 107 107 107 107
          107 107 107 107 107 107
          107 107 107 107 107 107
          107 107 107 107 107 107
          107 107 107 107 107 107
          107 107 107 107 107 107
          107 107 107 107 107 107
          107 107 107 107 107 107
          107 107 107 107 107 107
          107 107 107 107 107 107
          107 107 107 107 107 107
          107 107 107 107 107 107
          107 107 107 107 107 107
          107 107 107 107 107 107
          107 107 107 107 107 107
          107 107 107 107 107 107
          107 107 107 107
        </DataArray>
        <DataArray type="Int32" Name="processor_id" format="ascii" RangeMin="6" RangeMax="6">
          6 6 6 6 6 6
          6 6 6 6 6 6
          6 6 6 6 6 6
          6 6 6 6 6 6
          6 6 6 6 6 6
          6 6 6 6 6 6
          6 6 6 6 6 6
          6 6 6 6 6 6
          6 6 6 6 6 6
          6 6 6 6 6 6
          6 6 6 6 6 6
          6 6 6 6 6 6
          6 6 6 6 6 6
          6 6 6 6 6 6
          6 6 6 6 6 6
          6 6 6 6 6 6
          6 6 6 6 6 6
          6 6 6 6 6 6
          6 6 6 6 6 6
          6 6 6 6 6 6
          6 6 6 6 6 6
          6 6 6 6 6 6
          6 6 6 6 6 6
          6 6 6 6 6 6
          6 6 6 6 6 6
          6 6 6 6 6 6
          6 6 6 6 6 6
          6 6 6 6 6 6
          6 6 6 6 6 6
          6 6 6 6 6 6
          6 6 6 6 6 6
          6 6 6 6 6 6
          6 6 6 6 6 6
          6 6 6 6 6 6
          6 6 6 6 6 6
          6 6 6 6 6 6
          6 6 6 6 6 6
          6 6 6 6 6 6
          6 6 6 6 6 6
          6 6 6 6 6 6
          6 6 6 6 6 6
          6 6 6 6 6 6
          6 6 6 6 6 6
          6 6 6 6 6 6
          6 6 6 6 6 6
          6 6 6 6 6 6
          6 6 6 6 6 6
          6 6 6 6 6 6
          6 6 6 6 6 6
          6 6 6 6 6 6
          6 6 6 6 6 6
          6 6 6 6 6 6
          6 6 6 6 6 6
          6 6 6 6 6 6
          6 6 6 6 6 6
          6 6 6 6 6 6
          6 6 6 6 6 6
          6 6 6 6 6 6
          6 6 6 6 6 6
          6 6 6 6 6 6
          6 6 6 6 6 6
          6 6 6 6 6 6
          6 6 6 6 6 6
          6 6 6 6 6 6
          6 6 6 6 6 6
          6 6 6 6 6 6
          6 6 6 6 6 6
          6 6 6 6 6 6
          6 6 6 6 6 6
          6 6 6 6 6 6
          6 6 6 6 6 6
          6 6 6 6 6 6
          6 6 6 6 6 6
          6 6 6 6 6 6
          6 6 6 6 6 6
          6 6 6 6
        </DataArray>
      </CellData>
      <Points>
        <DataArray type="Float64" Name="Points" NumberOfComponents="3" format="ascii" RangeMin="0.0018888888888872" RangeMax="0.010555613193541787">
          0.0018888888888873 0.00041379310344749 0 0.0018888888888872 0 0
          0.0018888888888873 0.00041379310344749 0.00015 0.0018888888888872 0 0.00015
          0.0018888888888873 0.00041379310344749 0.0003 0.0018888888888872 0 0.0003
          0.0023333333333313 0.00041379310344749 0 0.0023333333333311 0 0
          0.0023333333333313 0.00041379310344749 0.00015 0.0023333333333311 0 0.00015
          0.0023333333333313 0.00041379310344749 0.0003 0.0023333333333311 0 0.0003
          0.0027777777777734 0.00041379310344749 0 0.0027777777777731 0 0
          0.0027777777777734 0.00041379310344749 0.00015 0.0027777777777731 0 0.00015
          0.0027777777777734 0.00041379310344749 0.0003 0.0027777777777731 0 0.0003
          0.003222222222218 0.00041379310344749 0 0.0032222222222177 0 0
          0.003222222222218 0.00041379310344749 0.00015 0.0032222222222177 0 0.00015
          0.003222222222218 0.00041379310344749 0.0003 0.0032222222222177 0 0.0003
          0.0036666666666636 0.00041379310344749 0 0.0036666666666634 0 0
          0.0036666666666636 0.00041379310344749 0.00015 0.0036666666666634 0 0.00015
          0.0036666666666636 0.00041379310344749 0.0003 0.0036666666666634 0 0.0003
          0.0041111111111091 0.00041379310344749 0 0.004111111111109 0 0
          0.0041111111111091 0.00041379310344749 0.00015 0.004111111111109 0 0.00015
          0.0041111111111091 0.00041379310344749 0.0003 0.004111111111109 0 0.0003
          0.0045555555555554 0.00041379310344749 0 0.0045555555555553 0 0
          0.0045555555555554 0.00041379310344749 0.00015 0.0045555555555553 0 0.00015
          0.0045555555555554 0.00041379310344749 0.0003 0.0045555555555553 0 0.0003
          0.005 0.00041379310344749 0 0.005 0 0
          0.005 0.00041379310344749 0.00015 0.005 0 0.00015
          0.005 0.00041379310344749 0.0003 0.005 0 0.0003
          0.0018888888888875 0.00082758620689497 0 0.0018888888888875 0.00082758620689497 0.00015
          0.0018888888888875 0.00082758620689497 0.0003 0.0023333333333315 0.00082758620689497 0
          0.0023333333333315 0.00082758620689497 0.00015 0.0023333333333315 0.00082758620689497 0.0003
          0.0027777777777737 0.00082758620689497 0 0.0027777777777737 0.00082758620689497 0.00015
          0.0027777777777737 0.00082758620689497 0.0003 0.0032222222222183 0.00082758620689497 0
          0.0032222222222183 0.00082758620689497 0.00015 0.0032222222222183 0.00082758620689497 0.0003
          0.0036666666666638 0.00082758620689497 0 0.0036666666666638 0.00082758620689497 0.00015
          0.0036666666666638 0.00082758620689497 0.0003 0.0041111111111093 0.00082758620689497 0
          0.0041111111111093 0.00082758620689497 0.00015 0.0041111111111093 0.00082758620689497 0.0003
          0.0045555555555554 0.00082758620689497 0 0.0045555555555554 0.00082758620689497 0.00015
          0.0045555555555554 0.00082758620689497 0.0003 0.005 0.00082758620689497 0
          0.005 0.00082758620689497 0.00015 0.005 0.00082758620689497 0.0003
          0.0018888888888876 0.0012413793103426 0 0.0018888888888876 0.0012413793103426 0.00015
          0.0018888888888876 0.0012413793103426 0.0003 0.0023333333333317 0.0012413793103426 0
          0.0023333333333317 0.0012413793103426 0.00015 0.0023333333333317 0.0012413793103426 0.0003
          0.002777777777774 0.0012413793103426 0 0.002777777777774 0.0012413793103426 0.00015
          0.002777777777774 0.0012413793103426 0.0003 0.0032222222222186 0.0012413793103426 0
          0.0032222222222186 0.0012413793103426 0.00015 0.0032222222222186 0.0012413793103426 0.0003
          0.003666666666664 0.0012413793103426 0 0.003666666666664 0.0012413793103426 0.00015
          0.003666666666664 0.0012413793103426 0.0003 0.0041111111111095 0.0012413793103426 0
          0.0041111111111095 0.0012413793103426 0.00015 0.0041111111111095 0.0012413793103426 0.0003
          0.0045555555555554 0.0012413793103426 0 0.0045555555555554 0.0012413793103426 0.00015
          0.0045555555555554 0.0012413793103426 0.0003 0.005 0.0012413793103426 0
          0.005 0.0012413793103426 0.00015 0.005 0.0012413793103426 0.0003
          0.0018888888888877 0.0016551724137901 0 0.0018888888888877 0.0016551724137901 0.00015
          0.0018888888888877 0.0016551724137901 0.0003 0.0023333333333319 0.0016551724137901 0
          0.0023333333333319 0.0016551724137901 0.00015 0.0023333333333319 0.0016551724137901 0.0003
          0.0027777777777743 0.0016551724137901 0 0.0027777777777743 0.0016551724137901 0.00015
          0.0027777777777743 0.0016551724137901 0.0003 0.0032222222222189 0.0016551724137901 0
          0.0032222222222189 0.0016551724137901 0.00015 0.0032222222222189 0.0016551724137901 0.0003
          0.0036666666666642 0.0016551724137901 0 0.0036666666666642 0.0016551724137901 0.00015
          0.0036666666666642 0.0016551724137901 0.0003 0.0041111111111096 0.0016551724137901 0
          0.0041111111111096 0.0016551724137901 0.00015 0.0041111111111096 0.0016551724137901 0.0003
          0.0045555555555555 0.0016551724137901 0 0.0045555555555555 0.0016551724137901 0.00015
          0.0045555555555555 0.0016551724137901 0.0003 0.005 0.0016551724137901 0
          0.005 0.0016551724137901 0.00015 0.005 0.0016551724137901 0.0003
          0.0018888888888879 0.0020689655172371 0 0.0018888888888879 0.0020689655172371 0.00015
          0.0018888888888879 0.0020689655172371 0.0003 0.002333333333332 0.0020689655172371 0
          0.002333333333332 0.0020689655172371 0.00015 0.002333333333332 0.0020689655172371 0.0003
          0.0027777777777746 0.0020689655172371 0 0.0027777777777746 0.0020689655172371 0.00015
          0.0027777777777746 0.0020689655172371 0.0003 0.0032222222222192 0.0020689655172371 0
          0.0032222222222192 0.0020689655172371 0.00015 0.0032222222222192 0.0020689655172371 0.0003
          0.0036666666666643 0.0020689655172371 0 0.0036666666666643 0.0020689655172371 0.00015
          0.0036666666666643 0.0020689655172371 0.0003 0.0041111111111098 0.0020689655172371 0
          0.0041111111111098 0.0020689655172371 0.00015 0.0041111111111098 0.0020689655172371 0.0003
          0.0045555555555555 0.0020689655172371 0 0.0045555555555555 0.0020689655172371 0.00015
          0.0045555555555555 0.0020689655172371 0.0003 0.005 0.0020689655172371 0
          0.005 0.0020689655172371 0.00015 0.005 0.0020689655172371 0.0003
          0.001888888888888 0.0024827586206843 0 0.001888888888888 0.0024827586206843 0.00015
          0.001888888888888 0.0024827586206843 0.0003 0.0023333333333322 0.0024827586206843 0
          0.0023333333333322 0.0024827586206843 0.00015 0.0023333333333322 0.0024827586206843 0.0003
          0.0027777777777749 0.0024827586206843 0 0.0027777777777749 0.0024827586206843 0.00015
          0.0027777777777749 0.0024827586206843 0.0003 0.0032222222222196 0.0024827586206843 0
          0.0032222222222196 0.0024827586206843 0.00015 0.0032222222222196 0.0024827586206843 0.0003
          0.0036666666666645 0.0024827586206843 0 0.0036666666666645 0.0024827586206843 0.00015
          0.0036666666666645 0.0024827586206843 0.0003 0.0041111111111099 0.0024827586206843 0
          0.0041111111111099 0.0024827586206843 0.00015 0.0041111111111099 0.0024827586206843 0.0003
          0.0045555555555555 0.0024827586206843 0 0.0045555555555555 0.0024827586206843 0.00015
          0.0045555555555555 0.0024827586206843 0.0003 0.005 0.0024827586206843 0
          0.005 0.0024827586206843 0.00015 0.005 0.0024827586206843 0.0003
          0.0014444444444442 0.0028965517241314 0 0.0014444444444442 0.0028965517241314 0.00015
          0.0014444444444442 0.0028965517241314 0.0003 0.0018888888888881 0.0028965517241314 0
          0.0018888888888881 0.0028965517241314 0.00015 0.0018888888888881 0.0028965517241314 0.0003
          0.0023333333333324 0.0028965517241314 0 0.0023333333333324 0.0028965517241314 0.00015
          0.0023333333333324 0.0028965517241314 0.0003 0.0027777777777753 0.0028965517241314 0
          0.0027777777777753 0.0028965517241314 0.00015 0.0027777777777753 0.0028965517241314 0.0003
          0.0032222222222199 0.0028965517241314 0 0.0032222222222199 0.0028965517241314 0.00015
          0.0032222222222199 0.0028965517241314 0.0003 0.0036666666666647 0.0028965517241314 0
          0.0036666666666647 0.0028965517241314 0.00015 0.0036666666666647 0.0028965517241314 0.0003
          0.0041111111111101 0.0028965517241314 0 0.0041111111111101 0.0028965517241314 0.00015
          0.0041111111111101 0.0028965517241314 0.0003 0.0045555555555556 0.0028965517241314 0
          0.0045555555555556 0.0028965517241314 0.00015 0.0045555555555556 0.0028965517241314 0.0003
          0.005 0.0028965517241314 0 0.005 0.0028965517241314 0.00015
          0.005 0.0028965517241314 0.0003 0.0014444444444442 0.0033103448275785 0
          0.0014444444444442 0.0033103448275785 0.00015 0.0014444444444442 0.0033103448275785 0.0003
          0.0018888888888882 0.0033103448275785 0 0.0018888888888882 0.0033103448275785 0.00015
          0.0018888888888882 0.0033103448275785 0.0003 0.0023333333333326 0.0033103448275785 0
          0.0023333333333326 0.0033103448275785 0.00015 0.0023333333333326 0.0033103448275785 0.0003
          0.0027777777777756 0.0033103448275785 0 0.0027777777777756 0.0033103448275785 0.00015
          0.0027777777777756 0.0033103448275785 0.0003 0.0032222222222202 0.0033103448275785 0
          0.0032222222222202 0.0033103448275785 0.00015 0.0032222222222202 0.0033103448275785 0.0003
          0.0036666666666649 0.0033103448275785 0 0.0036666666666649 0.0033103448275785 0.00015
          0.0036666666666649 0.0033103448275785 0.0003 0.0041111111111102 0.0033103448275785 0
          0.0041111111111102 0.0033103448275785 0.00015 0.0041111111111102 0.0033103448275785 0.0003
          0.0045555555555556 0.0033103448275785 0 0.0045555555555556 0.0033103448275785 0.00015
          0.0045555555555556 0.0033103448275785 0.0003 0.005 0.0033103448275785 0
          0.005 0.0033103448275785 0.00015 0.005 0.0033103448275785 0.0003
          0.0014444444444443 0.0037241379310256 0 0.0014444444444443 0.0037241379310256 0.00015
          0.0014444444444443 0.0037241379310256 0.0003 0.0018888888888884 0.0037241379310256 0
          0.0018888888888884 0.0037241379310256 0.00015 0.0018888888888884 0.0037241379310256 0.0003
          0.0023333333333328 0.0037241379310256 0 0.0023333333333328 0.0037241379310256 0.00015
          0.0023333333333328 0.0037241379310256 0.0003 0.0027777777777759 0.0037241379310256 0
          0.0027777777777759 0.0037241379310256 0.00015 0.0027777777777759 0.0037241379310256 0.0003
          0.0032222222222205 0.0037241379310256 0 0.0032222222222205 0.0037241379310256 0.00015
          0.0032222222222205 0.0037241379310256 0.0003 0.003666666666665 0.0037241379310256 0
          0.003666666666665 0.0037241379310256 0.00015 0.003666666666665 0.0037241379310256 0.0003
          0.0041111111111104 0.0037241379310256 0 0.0041111111111104 0.0037241379310256 0.00015
          0.0041111111111104 0.0037241379310256 0.0003 0.0045555555555556 0.0037241379310256 0
          0.0045555555555556 0.0037241379310256 0.00015 0.0045555555555556 0.0037241379310256 0.0003
          0.005 0.0037241379310256 0 0.005 0.0037241379310256 0.00015
          0.005 0.0037241379310256 0.0003 0.0014444444444444 0.0041379310344727 0
          0.0014444444444444 0.0041379310344727 0.00015 0.0014444444444444 0.0041379310344727 0.0003
          0.0018888888888885 0.0041379310344727 0 0.0018888888888885 0.0041379310344727 0.00015
          0.0018888888888885 0.0041379310344727 0.0003 0.002333333333333 0.0041379310344727 0
          0.002333333333333 0.0041379310344727 0.00015 0.002333333333333 0.0041379310344727 0.0003
          0.0027777777777762 0.0041379310344727 0 0.0027777777777762 0.0041379310344727 0.00015
          0.0027777777777762 0.0041379310344727 0.0003 0.0032222222222208 0.0041379310344727 0
          0.0032222222222208 0.0041379310344727 0.00015 0.0032222222222208 0.0041379310344727 0.0003
          0.0036666666666652 0.0041379310344727 0 0.0036666666666652 0.0041379310344727 0.00015
          0.0036666666666652 0.0041379310344727 0.0003 0.0041111111111105 0.0041379310344727 0
          0.0041111111111105 0.0041379310344727 0.00015 0.0041111111111105 0.0041379310344727 0.0003
          0.0045555555555557 0.0041379310344727 0 0.0045555555555557 0.0041379310344727 0.00015
          0.0045555555555557 0.0041379310344727 0.0003 0.005 0.0041379310344727 0
          0.005 0.0041379310344727 0.00015 0.005 0.0041379310344727 0.0003
          0.0014444444444444 0.0045517241379199 0 0.0014444444444444 0.0045517241379199 0.00015
          0.0014444444444444 0.0045517241379199 0.0003 0.0018888888888886 0.0045517241379199 0
          0.0018888888888886 0.0045517241379199 0.00015 0.0018888888888886 0.0045517241379199 0.0003
          0.0023333333333331 0.0045517241379199 0 0.0023333333333331 0.0045517241379199 0.00015
          0.0023333333333331 0.0045517241379199 0.0003 0.0027777777777765 0.0045517241379199 0
          0.0027777777777765 0.0045517241379199 0.00015 0.0027777777777765 0.0045517241379199 0.0003
          0.0032222222222211 0.0045517241379199 0 0.0032222222222211 0.0045517241379199 0.00015
          0.0032222222222211 0.0045517241379199 0.0003 0.0036666666666654 0.0045517241379199 0
          0.0036666666666654 0.0045517241379199 0.00015 0.0036666666666654 0.0045517241379199 0.0003
          0.0041111111111107 0.0045517241379199 0 0.0041111111111107 0.0045517241379199 0.00015
          0.0041111111111107 0.0045517241379199 0.0003 0.0045555555555557 0.0045517241379199 0
          0.0045555555555557 0.0045517241379199 0.00015 0.0045555555555557 0.0045517241379199 0.0003
          0.005 0.0045517241379199 0 0.005 0.0045517241379199 0.00015
          0.005 0.0045517241379199 0.0003 0.0014444444444445 0.0049655172413669 0
          0.0014444444444445 0.0049655172413669 0.00015 0.0014444444444445 0.0049655172413669 0.0003
          0.0018888888888888 0.0049655172413669 0 0.0018888888888888 0.0049655172413669 0.00015
          0.0018888888888888 0.0049655172413669 0.0003 0.0023333333333333 0.0049655172413669 0
          0.0023333333333333 0.0049655172413669 0.00015 0.0023333333333333 0.0049655172413669 0.0003
          0.0027777777777768 0.0049655172413669 0 0.0027777777777768 0.0049655172413669 0.00015
          0.0027777777777768 0.0049655172413669 0.0003 0.0032222222222214 0.0049655172413669 0
          0.0032222222222214 0.0049655172413669 0.00015 0.0032222222222214 0.0049655172413669 0.0003
          0.0036666666666656 0.0049655172413669 0 0.0036666666666656 0.0049655172413669 0.00015
          0.0036666666666656 0.0049655172413669 0.0003 0.0041111111111108 0.0049655172413669 0
          0.0041111111111108 0.0049655172413669 0.00015 0.0041111111111108 0.0049655172413669 0.0003
          0.0045555555555557 0.0049655172413669 0 0.0045555555555557 0.0049655172413669 0.00015
          0.0045555555555557 0.0049655172413669 0.0003 0.005 0.0049655172413669 0
          0.005 0.0049655172413669 0.00015 0.005 0.0049655172413669 0.0003
          0.0014444444444445 0.0053793103448139 0 0.0014444444444445 0.0053793103448139 0.00015
          0.0014444444444445 0.0053793103448139 0.0003 0.0018888888888889 0.0053793103448139 0
          0.0018888888888889 0.0053793103448139 0.00015 0.0018888888888889 0.0053793103448139 0.0003
          0.0023333333333335 0.0053793103448139 0 0.0023333333333335 0.0053793103448139 0.00015
          0.0023333333333335 0.0053793103448139 0.0003 0.0027777777777771 0.0053793103448139 0
          0.0027777777777771 0.0053793103448139 0.00015 0.0027777777777771 0.0053793103448139 0.0003
          0.0032222222222217 0.0053793103448139 0 0.0032222222222217 0.0053793103448139 0.00015
          0.0032222222222217 0.0053793103448139 0.0003 0.0036666666666658 0.0053793103448139 0
          0.0036666666666658 0.0053793103448139 0.00015 0.0036666666666658 0.0053793103448139 0.0003
          0.004111111111111 0.0053793103448139 0 0.004111111111111 0.0053793103448139 0.00015
          0.004111111111111 0.0053793103448139 0.0003 0.0045555555555558 0.0053793103448139 0
          0.0045555555555558 0.0053793103448139 0.00015 0.0045555555555558 0.0053793103448139 0.0003
          0.005 0.0053793103448139 0 0.005 0.0053793103448139 0.00015
          0.005 0.0053793103448139 0.0003 0.0014444444444446 0.0057931034482612 0
          0.0014444444444446 0.0057931034482612 0.00015 0.0014444444444446 0.0057931034482612 0.0003
          0.001888888888889 0.0057931034482612 0 0.001888888888889 0.0057931034482612 0.00015
          0.001888888888889 0.0057931034482612 0.0003 0.0023333333333337 0.0057931034482612 0
          0.0023333333333337 0.0057931034482612 0.00015 0.0023333333333337 0.0057931034482612 0.0003
          0.0027777777777774 0.0057931034482612 0 0.0027777777777774 0.0057931034482612 0.00015
          0.0027777777777774 0.0057931034482612 0.0003 0.003222222222222 0.0057931034482612 0
          0.003222222222222 0.0057931034482612 0.00015 0.003222222222222 0.0057931034482612 0.0003
          0.0036666666666659 0.0057931034482612 0 0.0036666666666659 0.0057931034482612 0.00015
          0.0036666666666659 0.0057931034482612 0.0003 0.0041111111111112 0.0057931034482612 0
          0.0041111111111112 0.0057931034482612 0.00015 0.0041111111111112 0.0057931034482612 0.0003
          0.0045555555555558 0.0057931034482612 0 0.0045555555555558 0.0057931034482612 0.00015
          0.0045555555555558 0.0057931034482612 0.0003 0.005 0.0057931034482612 0
          0.005 0.0057931034482612 0.00015 0.005 0.0057931034482612 0.0003
          0.0018888888888891 0.0062068965517097 0 0.0018888888888891 0.0062068965517097 0.00015
          0.0018888888888891 0.0062068965517097 0.0003 0.0023333333333339 0.0062068965517097 0
          0.0023333333333339 0.0062068965517097 0.00015 0.0023333333333339 0.0062068965517097 0.0003
          0.0027777777777778 0.0062068965517097 0 0.0027777777777778 0.0062068965517097 0.00015
          0.0027777777777778 0.0062068965517097 0.0003 0.0032222222222224 0.0062068965517097 0
          0.0032222222222224 0.0062068965517097 0.00015 0.0032222222222224 0.0062068965517097 0.0003
          0.0036666666666661 0.0062068965517097 0 0.0036666666666661 0.0062068965517097 0.00015
          0.0036666666666661 0.0062068965517097 0.0003 0.0041111111111113 0.0062068965517097 0
          0.0041111111111113 0.0062068965517097 0.00015 0.0041111111111113 0.0062068965517097 0.0003
          0.0045555555555558 0.0062068965517097 0 0.0045555555555558 0.0062068965517097 0.00015
          0.0045555555555558 0.0062068965517097 0.0003 0.005 0.0062068965517097 0
          0.005 0.0062068965517097 0.00015 0.005 0.0062068965517097 0.0003
          0.0018888888888893 0.0066206896551586 0 0.0018888888888893 0.0066206896551586 0.00015
          0.0018888888888893 0.0066206896551586 0.0003 0.002333333333334 0.0066206896551586 0
          0.002333333333334 0.0066206896551586 0.00015 0.002333333333334 0.0066206896551586 0.0003
          0.0027777777777781 0.0066206896551586 0 0.0027777777777781 0.0066206896551586 0.00015
          0.0027777777777781 0.0066206896551586 0.0003 0.0032222222222227 0.0066206896551586 0
          0.0032222222222227 0.0066206896551586 0.00015 0.0032222222222227 0.0066206896551586 0.0003
          0.0036666666666663 0.0066206896551586 0 0.0036666666666663 0.0066206896551586 0.00015
          0.0036666666666663 0.0066206896551586 0.0003 0.0041111111111115 0.0066206896551586 0
          0.0041111111111115 0.0066206896551586 0.00015 0.0041111111111115 0.0066206896551586 0.0003
          0.0045555555555559 0.0066206896551586 0 0.0045555555555559 0.0066206896551586 0.00015
          0.0045555555555559 0.0066206896551586 0.0003 0.005 0.0066206896551586 0
          0.005 0.0066206896551586 0.00015 0.005 0.0066206896551586 0.0003
          0.0018888888888894 0.0070344827586082 0 0.0018888888888894 0.0070344827586082 0.00015
          0.0018888888888894 0.0070344827586082 0.0003 0.0023333333333342 0.0070344827586082 0
          0.0023333333333342 0.0070344827586082 0.00015 0.0023333333333342 0.0070344827586082 0.0003
          0.0027777777777784 0.0070344827586082 0 0.0027777777777784 0.0070344827586082 0.00015
          0.0027777777777784 0.0070344827586082 0.0003 0.003222222222223 0.0070344827586082 0
          0.003222222222223 0.0070344827586082 0.00015 0.003222222222223 0.0070344827586082 0.0003
          0.0036666666666665 0.0070344827586082 0 0.0036666666666665 0.0070344827586082 0.00015
          0.0036666666666665 0.0070344827586082 0.0003 0.0041111111111116 0.0070344827586082 0
          0.0041111111111116 0.0070344827586082 0.00015 0.0041111111111116 0.0070344827586082 0.0003
          0.0045555555555559 0.0070344827586082 0 0.0045555555555559 0.0070344827586082 0.00015
          0.0045555555555559 0.0070344827586082 0.0003 0.005 0.0070344827586082 0
          0.005 0.0070344827586082 0.00015 0.005 0.0070344827586082 0.0003
          0.0018888888888895 0.0074482758620575 0 0.0018888888888895 0.0074482758620575 0.00015
          0.0018888888888895 0.0074482758620575 0.0003 0.0023333333333344 0.0074482758620575 0
          0.0023333333333344 0.0074482758620575 0.00015 0.0023333333333344 0.0074482758620575 0.0003
          0.0027777777777787 0.0074482758620575 0 0.0027777777777787 0.0074482758620575 0.00015
          0.0027777777777787 0.0074482758620575 0.0003 0.0032222222222233 0.0074482758620575 0
          0.0032222222222233 0.0074482758620575 0.00015 0.0032222222222233 0.0074482758620575 0.0003
          0.0036666666666666 0.0074482758620576 0 0.0036666666666666 0.0074482758620576 0.00015
          0.0036666666666666 0.0074482758620576 0.0003 0.0041111111111118 0.0074482758620576 0
          0.0041111111111118 0.0074482758620576 0.00015 0.0041111111111118 0.0074482758620576 0.0003
          0.0045555555555559 0.0074482758620576 0 0.0045555555555559 0.0074482758620576 0.00015
          0.0045555555555559 0.0074482758620576 0.0003 0.005 0.0074482758620575 0
          0.005 0.0074482758620575 0.00015 0.005 0.0074482758620575 0.0003
          0.0023333333333346 0.0078620689655065 0 0.0023333333333346 0.0078620689655065 0.00015
          0.0023333333333346 0.0078620689655065 0.0003 0.002777777777779 0.0078620689655065 0
          0.002777777777779 0.0078620689655065 0.00015 0.002777777777779 0.0078620689655065 0.0003
          0.0032222222222236 0.0078620689655065 0 0.0032222222222236 0.0078620689655065 0.00015
          0.0032222222222236 0.0078620689655065 0.0003 0.0036666666666668 0.0078620689655065 0
          0.0036666666666668 0.0078620689655065 0.00015 0.0036666666666668 0.0078620689655065 0.0003
          0.0041111111111119 0.0078620689655065 0 0.0041111111111119 0.0078620689655065 0.00015
          0.0041111111111119 0.0078620689655065 0.0003 0.004555555555556 0.0078620689655065 0
          0.004555555555556 0.0078620689655065 0.00015 0.004555555555556 0.0078620689655065 0.0003
          0.005 0.0078620689655065 0 0.005 0.0078620689655065 0.00015
          0.005 0.0078620689655065 0.0003 0.0023333333333348 0.0082758620689564 0
          0.0023333333333348 0.0082758620689564 0.00015 0.0023333333333348 0.0082758620689564 0.0003
          0.0027777777777793 0.0082758620689564 0 0.0027777777777793 0.0082758620689564 0.00015
          0.0027777777777793 0.0082758620689564 0.0003 0.0032222222222239 0.0082758620689564 0
          0.0032222222222239 0.0082758620689564 0.00015 0.0032222222222239 0.0082758620689564 0.0003
          0.003666666666667 0.0082758620689564 0 0.003666666666667 0.0082758620689564 0.00015
          0.003666666666667 0.0082758620689564 0.0003 0.0041111111111121 0.0082758620689564 0
          0.0041111111111121 0.0082758620689564 0.00015 0.0041111111111121 0.0082758620689564 0.0003
          0.004555555555556 0.0082758620689564 0 0.004555555555556 0.0082758620689564 0.00015
          0.004555555555556 0.0082758620689564 0.0003 0.005 0.0082758620689564 0
          0.005 0.0082758620689564 0.00015 0.005 0.0082758620689564 0.0003
          0.002333333333335 0.0086896551724064 0 0.002333333333335 0.0086896551724064 0.00015
          0.002333333333335 0.0086896551724064 0.0003 0.0027777777777796 0.0086896551724064 0
          0.0027777777777796 0.0086896551724064 0.00015 0.0027777777777796 0.0086896551724064 0.0003
          0.0032222222222242 0.0086896551724064 0 0.0032222222222242 0.0086896551724064 0.00015
          0.0032222222222242 0.0086896551724064 0.0003 0.0036666666666672 0.0086896551724064 0
          0.0036666666666672 0.0086896551724064 0.00015 0.0036666666666672 0.0086896551724064 0.0003
          0.0041111111111122 0.0086896551724064 0 0.0041111111111122 0.0086896551724064 0.00015
          0.0041111111111122 0.0086896551724064 0.0003 0.004555555555556 0.0086896551724064 0
          0.004555555555556 0.0086896551724064 0.00015 0.004555555555556 0.0086896551724064 0.0003
          0.0023333333333351 0.0091034482758539 0 0.0023333333333351 0.0091034482758539 0.00015
          0.0023333333333351 0.0091034482758539 0.0003 0.0027777777777799 0.0091034482758539 0
          0.0027777777777799 0.0091034482758539 0.00015 0.0027777777777799 0.0091034482758539 0.0003
          0.0032222222222245 0.0091034482758539 0 0.0032222222222245 0.0091034482758539 0.00015
          0.0032222222222245 0.0091034482758539 0.0003 0.0036666666666673 0.0091034482758539 0
          0.0036666666666673 0.0091034482758539 0.00015 0.0036666666666673 0.0091034482758539 0.0003
          0.0041111111111124 0.0091034482758539 0 0.0041111111111124 0.0091034482758539 0.00015
          0.0041111111111124 0.0091034482758539 0.0003 0.0058597010152523 0.0063127004857001 0
          0.0053951839928307 0.0062556571299739 0 0.0053921082338215 0.005828945826549 0
          0.0057916174309905 0.0058352682535246 0 0.0058597010152523 0.0063127004857001 0.00015
          0.0053951839928307 0.0062556571299739 0.00015 0.0053921082338215 0.005828945826549 0.00015
          0.0057916174309905 0.0058352682535246 0.00015 0.0058597010152523 0.0063127004857001 0.0003
          0.0053951839928307 0.0062556571299739 0.0003 0.0053921082338215 0.005828945826549 0.0003
          0.0057916174309905 0.0058352682535246 0.0003 0.0057558905586118 0.0030553709280972 0
          0.0057130501801562 0.0035159257865852 0 0.005360618756523 0.0035837068269911 0
          0.0053739732009329 0.0031599138809835 0 0.0057558905586118 0.0030553709280972 0.00015
          0.0057130501801562 0.0035159257865852 0.00015 0.005360618756523 0.0035837068269911 0.00015
          0.0053739732009329 0.0031599138809835 0.00015 0.0057558905586118 0.0030553709280972 0.0003
          0.0057130501801562 0.0035159257865852 0.0003 0.005360618756523 0.0035837068269911 0.0003
          0.0053739732009329 0.0031599138809835 0.0003 0.0056439388514995 0.0075162532529611 0
          0.0053753336003136 0.0081134227852172 0 0.0053162760057692 0.0077147827843445 0
          0.0056439388514995 0.0075162532529611 0.00015 0.0053753336003136 0.0081134227852172 0.00015
          0.0053162760057692 0.0077147827843445 0.00015 0.0056439388514995 0.0075162532529611 0.0003
          0.0053753336003136 0.0081134227852172 0.0003 0.0053162760057692 0.0077147827843445 0.0003
          0.0059025575310583 0.0073410103875386 0 0.0059025575310583 0.0073410103875386 0.00015
          0.0059025575310583 0.0073410103875386 0.0003 0.005369078903807 0.0054112957512825 0
          0.0053441966179727 0.0050059769161847 0 0.0056930202847481 0.0049554676612008 0
          0.0057606246390047 0.0053811345728149 0 0.005369078903807 0.0054112957512825 0.00015
          0.0053441966179727 0.0050059769161847 0.00015 0.0056930202847481 0.0049554676612008 0.00015
          0.0057606246390047 0.0053811345728149 0.00015 0.005369078903807 0.0054112957512825 0.0003
          0.0053441966179727 0.0050059769161847 0.0003 0.0056930202847481 0.0049554676612008 0.0003
          0.0057606246390047 0.0053811345728149 0.0003 0.0057438065986578 0.0025718646608386 0
          0.0053684283361675 0.002728434685479 0 0.0057438065986578 0.0025718646608386 0.00015
          0.0053684283361675 0.002728434685479 0.00015 0.0057438065986578 0.0025718646608386 0.0003
          0.0053684283361675 0.002728434685479 0.0003 0.0061712548385041 0.0061513410385421 0
          0.006445117357903 0.0062971891343806 0 0.0062246515840748 0.0066057171706914 0
          0.0061712548385041 0.0061513410385421 0.00015 0.006445117357903 0.0062971891343806 0.00015
          0.0062246515840748 0.0066057171706914 0.00015 0.0061712548385041 0.0061513410385421 0.0003
          0.006445117357903 0.0062971891343806 0.0003 0.0062246515840748 0.0066057171706914 0.0003
          0.0053553835295756 0.0022900157905326 0 0.0057116151882083 0.0021168511926722 0
          0.0053553835295756 0.0022900157905326 0.00015 0.0057116151882083 0.0021168511926722 0.00015
          0.0053553835295756 0.0022900157905326 0.0003 0.0057116151882083 0.0021168511926722 0.0003
          0.0054233068561349 0.007134337670225 0 0.0059254586078826 0.006969673542248 0
          0.0054233068561349 0.007134337670225 0.00015 0.0059254586078826 0.006969673542248 0.00015
          0.0054233068561349 0.007134337670225 0.0003 0.0059254586078826 0.006969673542248 0.0003
          0.0057792643598707 0.0040250905144168 0 0.0057792643598707 0.0040250905144168 0.00015
          0.0057792643598707 0.0040250905144168 0.0003 0.0061880810420103 0.0058441905555885 0
          0.0066005814160285 0.0059502230786403 0 0.0061880810420103 0.0058441905555885 0.00015
          0.0066005814160285 0.0059502230786403 0.00015 0.0061880810420103 0.0058441905555885 0.0003
          0.0066005814160285 0.0059502230786403 0.0003 0.0054017220983371 0.0066575347525889 0
          0.0057115805714605 0.0066548075405697 0 0.0054017220983371 0.0066575347525889 0.00015
          0.0057115805714605 0.0066548075405697 0.00015 0.0054017220983371 0.0066575347525889 0.0003
          0.0057115805714605 0.0066548075405697 0.0003 0.005332609719228 0.0047287620137874 0
          0.0055816175545808 0.004587255111362 0 0.005332609719228 0.0047287620137874 0.00015
          0.0055816175545808 0.004587255111362 0.00015 0.005332609719228 0.0047287620137874 0.0003
          0.0055816175545808 0.004587255111362 0.0003 0.0053693194142364 0.0039518184911864 0
          0.0054474185858658 0.0042751360204936 0 0.0053693194142364 0.0039518184911864 0.00015
          0.0054474185858658 0.0042751360204936 0.00015 0.0053693194142364 0.0039518184911864 0.0003
          0.0054474185858658 0.0042751360204936 0.0003 0.0053395672611724 0.0018614292474742 0
          0.0053395672611724 0.0018614292474742 0.00015 0.0053395672611724 0.0018614292474742 0.0003
          0.0053367365074525 0.0010378216876611 0 0.0053236825500972 0.0014543115259673 0
          0.0053367365074525 0.0010378216876611 0.00015 0.0053236825500972 0.0014543115259673 0.00015
          0.0053367365074525 0.0010378216876611 0.0003 0.0053236825500972 0.0014543115259673 0.0003
          0.0056326688189693 0.0038271453778623 0 0.0056326688189693 0.0038271453778623 0.00015
          0.0056326688189693 0.0038271453778623 0.0003 0.0053236477572007 0.00066751117045644 0
          0.0053236477572007 0.00066751117045644 0.00015 0.0053236477572007 0.00066751117045644 0.0003
          0.0052365987891119 0.0074441888076402 0 0.0052365987891119 0.0074441888076402 0.00015
          0.0052365987891119 0.0074441888076402 0.0003 0.0052651323069134 0.00040272801788152 0
          0.0052651323069134 0.00040272801788152 0.00015 0.0052651323069134 0.00040272801788152 0.0003
          0.005675081773805 0.0016743369040255 0 0.005675081773805 0.0016743369040255 0.00015
          0.005675081773805 0.0016743369040255 0.0003 0.0056481668838523 0.0012062671985027 0
          0.0056481668838523 0.0012062671985027 0.00015 0.0056481668838523 0.0012062671985027 0.0003
          0.0055517738097912 0.00099492145317098 0 0.0055517738097912 0.00099492145317098 0.00015
          0.0055517738097912 0.00099492145317098 0.0003 0.005 0.0086896551724064 0
          0.005 0.0086896551724064 0.00015 0.005 0.0086896551724064 0.0003
          0.0045555555555561 0.0091034482758539 0 0.0045555555555561 0.0091034482758539 0.00015
          0.0045555555555561 0.0091034482758539 0.0003 0.005 0.0091034482758539 0
          0.005 0.0091034482758539 0.00015 0.005 0.0091034482758539 0.0003
          0.0027777777777802 0.0095172413793029 0 0.0023333333333353 0.0095172413793029 0
          0.0027777777777802 0.0095172413793029 0.00015 0.0023333333333353 0.0095172413793029 0.00015
          0.0027777777777802 0.0095172413793029 0.0003 0.0023333333333353 0.0095172413793029 0.0003
          0.0032222222222248 0.0095172413793029 0 0.0032222222222248 0.0095172413793029 0.00015
          0.0032222222222248 0.0095172413793029 0.0003 0.0036666666666675 0.0095172413793029 0
          0.0036666666666675 0.0095172413793029 0.00015 0.0036666666666675 0.0095172413793029 0.0003
          0.0041111111111126 0.0095172413793029 0 0.0041111111111126 0.0095172413793029 0.00015
          0.0041111111111126 0.0095172413793029 0.0003 0.0045555555555561 0.0095172413793029 0
          0.0045555555555561 0.0095172413793029 0.00015 0.0045555555555561 0.0095172413793029 0.0003
          0.0058653844060618 0.0079194158644502 0 0.0058653844060618 0.0079194158644502 0.00015
          0.0058653844060618 0.0079194158644502 0.0003 0.0061750164335738 0.0074760206739226 0
          0.0061750164335738 0.0074760206739226 0.00015 0.0061750164335738 0.0074760206739226 0.0003
          0.0060512178389602 0.0047929387822649 0 0.0062389906493372 0.0053128670028646 0
          0.0060512178389602 0.0047929387822649 0.00015 0.0062389906493372 0.0053128670028646 0.00015
          0.0060512178389602 0.0047929387822649 0.0003 0.0062389906493372 0.0053128670028646 0.0003
          0.0068354780286894 0.0065149558629347 0 0.0065694481807909 0.0068273110654121 0
          0.0068354780286894 0.0065149558629347 0.00015 0.0065694481807909 0.0068273110654121 0.00015
          0.0068354780286894 0.0065149558629347 0.0003 0.0065694481807909 0.0068273110654121 0.0003
          0.0061614658010566 0.0029736343202522 0 0.0061372854142827 0.0036106222238676 0
          0.0061614658010566 0.0029736343202522 0.00015 0.0061372854142827 0.0036106222238676 0.00015
          0.0061614658010566 0.0029736343202522 0.0003 0.0061372854142827 0.0036106222238676 0.0003
          0.0061231952422177 0.002444135475079 0 0.0061231952422177 0.002444135475079 0.00015
          0.0061231952422177 0.002444135475079 0.0003 0.0063586074578252 0.0071353312088165 0
          0.0063586074578252 0.0071353312088165 0.00015 0.0063586074578252 0.0071353312088165 0.0003
          0.005927800859391 0.0043689372395662 0 0.0063054236008776 0.0041223407032968 0
          0.005927800859391 0.0043689372395662 0.00015 0.0063054236008776 0.0041223407032968 0.00015
          0.005927800859391 0.0043689372395662 0.0003 0.0063054236008776 0.0041223407032968 0.0003
          0.0070635342364542 0.0061542378287001 0 0.0070635342364542 0.0061542378287001 0.00015
          0.0070635342364542 0.0061542378287001 0.0003 0.0071984303565192 0.0057392272964834 0
          0.0067200519522164 0.0055550541115669 0 0.0071984303565192 0.0057392272964834 0.00015
          0.0067200519522164 0.0055550541115669 0.00015 0.0071984303565192 0.0057392272964834 0.0003
          0.0067200519522164 0.0055550541115669 0.0003 0.0053754057810206 0.0085370600870078 0
          0.0053754057810206 0.0085370600870078 0.00015 0.0053754057810206 0.0085370600870078 0.0003
          0.0060722038988066 0.0019538017587265 0 0.0060722038988066 0.0019538017587265 0.00015
          0.0060722038988066 0.0019538017587265 0.0003 0.0055128205128194 0 0
          0.0057061681768373 0.00065177476244477 0 0.0055128205128194 0 0.00015
          0.0057061681768373 0.00065177476244477 0.00015 0.0055128205128194 0 0.0003
          0.0057061681768373 0.00065177476244477 0.0003 0.0060137569775388 0.0015029488511318 0
          0.0060137569775388 0.0015029488511318 0.00015 0.0060137569775388 0.0015029488511318 0.0003
          0.0059245902968253 0.0010856763727913 0 0.0059245902968253 0.0010856763727913 0.00015
          0.0059245902968253 0.0010856763727913 0.0003 0.0057785311780113 0.0084598603588589 0
          0.0057785311780113 0.0084598603588589 0.00015 0.0057785311780113 0.0084598603588589 0.0003
          <InformationKey name="L2_NORM_RANGE" location="vtkDataArray" length="2">
            <Value index="0">
              0.0018888888889
            </Value>
            <Value index="1">
              0.010555613194
            </Value>
          </InformationKey>
        </DataArray>
      </Points>
      <Cells>
        <DataArray type="Int64" Name="connectivity" format="ascii" RangeMin="0" RangeMax="779">
          6 0 1 7 8 2
          3 9 8 2 3 9
          10 4 5 11 12 6
          7 13 14 8 9 15
          14 8 9 15 16 10
          11 17 18 12 13 19
          20 14 15 21 20 14
          15 21 22 16 17 23
          24 18 19 25 26 20
          21 27 26 20 21 27
          28 22 23 29 30 24
          25 31 32 26 27 33
          32 26 27 33 34 28
          29 35 36 30 31 37
          38 32 33 39 38 32
          33 39 40 34 35 41
          42 36 37 43 44 38
          39 45 44 38 39 45
          46 40 41 47 51 48
          0 6 52 49 2 8
          52 49 2 8 53 50
          4 10 54 51 6 12
          55 52 8 14 55 52
          8 14 56 53 10 16
          57 54 12 18 58 55
          14 20 58 55 14 20
          59 56 16 22 60 57
          18 24 61 58 20 26
          61 58 20 26 62 59
          22 28 63 60 24 30
          64 61 26 32 64 61
          26 32 65 62 28 34
          66 63 30 36 67 64
          32 38 67 64 32 38
          68 65 34 40 69 66
          36 42 70 67 38 44
          70 67 38 44 71 68
          40 46 75 72 48 51
          76 73 49 52 76 73
          49 52 77 74 50 53
          78 75 51 54 79 76
          52 55 79 76 52 55
          80 77 53 56 81 78
          54 57 82 79 55 58
          82 79 55 58 83 80
          56 59 84 81 57 60
          85 82 58 61 85 82
          58 61 86 83 59 62
          87 84 60 63 88 85
          61 64 88 85 61 64
          89 86 62 65 90 87
          63 66 91 88 64 67
          91 88 64 67 92 89
          65 68 93 90 66 69
          94 91 67 70 94 91
          67 70 95 92 68 71
          99 96 72 75 100 97
          73 76 100 97 73 76
          101 98 74 77 102 99
          75 78 103 100 76 79
          103 100 76 79 104 101
          77 80 105 102 78 81
          106 103 79 82 106 103
          79 82 107 104 80 83
          108 105 81 84 109 106
          82 85 109 106 82 85
          110 107 83 86 111 108
          84 87 112 109 85 88
          112 109 85 88 113 110
          86 89 114 111 87 90
          115 112 88 91 115 112
          88 91 116 113 89 92
          117 114 90 93 118 115
          91 94 118 115 91 94
          119 116 92 95 123 120
          96 99 124 121 97 100
          124 121 97 100 125 122
          98 101 126 123 99 102
          127 124 100 103 127 124
          100 103 128 125 101 104
          129 126 102 105 130 127
          103 106 130 127 103 106
          131 128 104 107 132 129
          105 108 133 130 106 109
          133 130 106 109 134 131
          107 110 135 132 108 111
          136 133 109 112 136 133
          109 112 137 134 110 113
          138 135 111 114 139 136
          112 115 139 136 112 115
          140 137 113 116 141 138
          114 117 142 139 115 118
          142 139 115 118 143 140
          116 119 147 144 120 123
          148 145 121 124 148 145
          121 124 149 146 122 125
          150 147 123 126 151 148
          124 127 151 148 124 127
          152 149 125 128 153 150
          126 129 154 151 127 130
          154 151 127 130 155 152
          128 131 156 153 129 132
          157 154 130 133 157 154
          130 133 158 155 131 134
          159 156 132 135 160 157
          133 136 160 157 133 136
          161 158 134 137 162 159
          135 138 163 160 136 139
          163 160 136 139 164 161
          137 140 165 162 138 141
          166 163 139 142 166 163
          139 142 167 164 140 143
          174 171 144 147 175 172
          145 148 175 172 145 148
          176 173 146 149 177 174
          147 150 178 175 148 151
          178 175 148 151 179 176
          149 152 180 177 150 153
          181 178 151 154 181 178
          151 154 182 179 152 155
          183 180 153 156 184 181
          154 157 184 181 154 157
          185 182 155 158 186 183
          156 159 187 184 157 160
          187 184 157 160 188 185
          158 161 189 186 159 162
          190 187 160 163 190 187
          160 163 191 188 161 164
          192 189 162 165 193 190
          163 166 193 190 163 166
          194 191 164 167 198 195
          168 171 199 196 169 172
          199 196 169 172 200 197
          170 173 201 198 171 174
          202 199 172 175 202 199
          172 175 203 200 173 176
          204 201 174 177 205 202
          175 178 205 202 175 178
          206 203 176 179 207 204
          177 180 208 205 178 181
          208 205 178 181 209 206
          179 182 210 207 180 183
          211 208 181 184 211 208
          181 184 212 209 182 185
          213 210 183 186 214 211
          184 187 214 211 184 187
          215 212 185 188 216 213
          186 189 217 214 187 190
          217 214 187 190 218 215
          188 191 219 216 189 192
          220 217 190 193 220 217
          190 193 221 218 191 194
          225 222 195 198 226 223
          196 199 226 223 196 199
          227 224 197 200 228 225
          198 201 229 226 199 202
          229 226 199 202 230 227
          200 203 231 228 201 204
          232 229 202 205 232 229
          202 205 233 230 203 206
          234 231 204 207 235 232
          205 208 235 232 205 208
          236 233 206 209 237 234
          207 210 238 235 208 211
          238 235 208 211 239 236
          209 212 240 237 210 213
          241 238 211 214 241 238
          211 214 242 239 212 215
          243 240 213 216 244 241
          214 217 244 241 214 217
          245 242 215 218 246 243
          216 219 247 244 217 220
          247 244 217 220 248 245
          218 221 252 249 222 225
          253 250 223 226 253 250
          223 226 254 251 224 227
          255 252 225 228 256 253
          226 229 256 253 226 229
          257 254 227 230 258 255
          228 231 259 256 229 232
          259 256 229 232 260 257
          230 233 261 258 231 234
          262 259 232 235 262 259
          232 235 263 260 233 236
          264 261 234 237 265 262
          235 238 265 262 235 238
          266 263 236 239 267 264
          237 240 268 265 238 241
          268 265 238 241 269 266
          239 242 270 267 240 243
          271 268 241 244 271 268
          241 244 272 269 242 245
          273 270 243 246 274 271
          244 247 274 271 244 247
          275 272 245 248 279 276
          249 252 280 277 250 253
          280 277 250 253 281 278
          251 254 282 279 252 255
          283 280 253 256 283 280
          253 256 284 281 254 257
          285 282 255 258 286 283
          256 259 286 283 256 259
          287 284 257 260 288 285
          258 261 289 286 259 262
          289 286 259 262 290 287
          260 263 291 288 261 264
          292 289 262 265 292 289
          262 265 293 290 263 266
          294 291 264 267 295 292
          265 268 295 292 265 268
          296 293 266 269 297 294
          267 270 298 295 268 271
          298 295 268 271 299 296
          269 272 300 297 270 273
          301 298 271 274 301 298
          271 274 302 299 272 275
          306 303 276 279 307 304
          277 280 307 304 277 280
          308 305 278 281 309 306
          279 282 310 307 280 283
          310 307 280 283 311 308
          281 284 312 309 282 285
          313 310 283 286 313 310
          283 286 314 311 284 287
          315 312 285 288 316 313
          286 289 316 313 286 289
          317 314 287 290 318 315
          288 291 319 316 289 292
          319 316 289 292 320 317
          290 293 321 318 291 294
          322 319 292 295 322 319
          292 295 323 320 293 296
          324 321 294 297 325 322
          295 298 325 322 295 298
          326 323 296 299 327 324
          297 300 328 325 298 301
          328 325 298 301 329 326
          299 302 333 330 303 306
          334 331 304 307 334 331
          304 307 335 332 305 308
          336 333 306 309 337 334
          307 310 337 334 307 310
          338 335 308 311 339 336
          309 312 340 337 310 313
          340 337 310 313 341 338
          311 314 342 339 312 315
          343 340 313 316 343 340
          313 316 344 341 314 317
          345 342 315 318 346 343
          316 319 346 343 316 319
          347 344 317 320 348 345
          318 321 349 346 319 322
          349 346 319 322 350 347
          320 323 351 348 321 324
          352 349 322 325 352 349
          322 325 353 350 323 326
          354 351 324 327 355 352
          325 328 355 352 325 328
          356 353 326 329 360 357
          330 333 361 358 331 334
          361 358 331 334 362 359
          332 335 363 360 333 336
          364 361 334 337 364 361
          334 337 365 362 335 338
          366 363 336 339 367 364
          337 340 367 364 337 340
          368 365 338 341 369 366
          339 342 370 367 340 343
          370 367 340 343 371 368
          341 344 372 369 342 345
          373 370 343 346 373 370
          343 346 374 371 344 347
          375 372 345 348 376 373
          346 349 376 373 346 349
          377 374 347 350 378 375
          348 351 379 376 349 352
          379 376 349 352 380 377
          350 353 381 378 351 354
          382 379 352 355 382 379
          352 355 383 380 353 356
          387 384 360 363 388 385
          361 364 388 385 361 364
          389 386 362 365 390 387
          363 366 391 388 364 367
          391 388 364 367 392 389
          365 368 393 390 366 369
          394 391 367 370 394 391
          367 370 395 392 368 371
          396 393 369 372 397 394
          370 373 397 394 370 373
          398 395 371 374 399 396
          372 375 400 397 373 376
          400 397 373 376 401 398
          374 377 402 399 375 378
          403 400 376 379 403 400
          376 379 404 401 377 380
          405 402 378 381 406 403
          379 382 406 403 379 382
          407 404 380 383 411 408
          384 387 412 409 385 388
          412 409 385 388 413 410
          386 389 414 411 387 390
          415 412 388 391 415 412
          388 391 416 413 389 392
          417 414 390 393 418 415
          391 394 418 415 391 394
          419 416 392 395 420 417
          393 396 421 418 394 397
          421 418 394 397 422 419
          395 398 423 420 396 399
          424 421 397 400 424 421
          397 400 425 422 398 401
          426 423 399 402 427 424
          400 403 427 424 400 403
          428 425 401 404 429 426
          402 405 430 427 403 406
          430 427 403 406 431 428
          404 407 435 432 408 411
          436 433 409 412 436 433
          409 412 437 434 410 413
          438 435 411 414 439 436
          412 415 439 436 412 415
          440 437 413 416 441 438
          414 417 442 439 415 418
          442 439 415 418 443 440
          416 419 444 441 417 420
          445 442 418 421 445 442
          418 421 446 443 419 422
          447 444 420 423 448 445
          421 424 448 445 421 424
          449 446 422 425 450 447
          423 426 451 448 424 427
          451 448 424 427 452 449
          425 428 453 450 426 429
          454 451 427 430 454 451
          427 430 455 452 428 431
          459 456 432 435 460 457
          433 436 460 457 433 436
          461 458 434 437 462 459
          435 438 463 460 436 439
          463 460 436 439 464 461
          437 440 465 462 438 441
          466 463 439 442 466 463
          439 442 467 464 440 443
          468 465 441 444 469 466
          442 445 469 466 442 445
          470 467 443 446 471 468
          444 447 472 469 445 448
          472 469 445 448 473 470
          446 449 474 471 447 450
          475 472 448 451 475 472
          448 451 476 473 449 452
          477 474 450 453 478 475
          451 454 478 475 451 454
          479 476 452 455 483 480
          459 462 484 481 460 463
          484 481 460 463 485 482
          461 464 486 483 462 465
          487 484 463 466 487 484
          463 466 488 485 464 467
          489 486 465 468 490 487
          466 469 490 487 466 469
          491 488 467 470 492 489
          468 471 493 490 469 472
          493 490 469 472 494 491
          470 473 495 492 471 474
          496 493 472 475 496 493
          472 475 497 494 473 476
          498 495 474 477 499 496
          475 478 499 496 475 478
          500 497 476 479 504 501
          480 483 505 502 481 484
          505 502 481 484 506 503
          482 485 507 504 483 486
          508 505 484 487 508 505
          484 487 509 506 485 488
          510 507 486 489 511 508
          487 490 511 508 487 490
          512 509 488 491 513 510
          489 492 514 511 490 493
          514 511 490 493 515 512
          491 494 516 513 492 495
          517 514 493 496 517 514
          493 496 518 515 494 497
          519 516 495 498 520 517
          496 499 520 517 496 499
          521 518 497 500 525 522
          501 504 526 523 502 505
          526 523 502 505 527 524
          503 506 528 525 504 507
          529 526 505 508 529 526
          505 508 530 527 506 509
          531 528 507 510 532 529
          508 511 532 529 508 511
          533 530 509 512 534 531
          510 513 535 532 511 514
          535 532 511 514 536 533
          512 515 537 534 513 516
          538 535 514 517 538 535
          514 517 539 536 515 518
          687 537 516 519 688 538
          517 520 688 538 517 520
          689 539 518 521 543 540
          522 525 544 541 523 526
          544 541 523 526 545 542
          524 527 546 543 525 528
          547 544 526 529 547 544
          526 529 548 545 527 530
          549 546 528 531 550 547
          529 532 550 547 529 532
          551 548 530 533 552 549
          531 534 553 550 532 535
          553 550 532 535 554 551
          533 536 690 552 534 537
          691 553 535 538 691 553
          535 538 692 554 536 539
          693 690 537 687 694 691
          538 688 694 691 538 688
          695 692 539 689 696 697
          540 543 698 699 541 544
          698 699 541 544 700 701
          542 545 702 696 543 546
          703 698 544 547 703 698
          544 547 704 700 545 548
          705 702 546 549 706 703
          547 550 706 703 547 550
          707 704 548 551 708 705
          549 552 709 706 550 553
          709 706 550 553 710 707
          551 554 711 708 552 690
          712 709 553 691 712 709
          553 691 713 710 554 692
          555 556 557 558 559 560
          561 562 559 560 561 562
          563 564 565 566 567 568
          569 570 571 572 573 574
          571 572 573 574 575 576
          577 578 579 714 580 581
          582 715 583 584 582 715
          583 584 585 716 586 587
          579 588 717 714 582 589
          718 715 582 589 718 715
          585 590 719 716 591 592
          593 594 595 596 597 598
          595 596 597 598 599 600
          601 602 594 558 557 591
          598 562 561 595 598 562
          561 595 602 566 565 599
          603 567 570 604 605 571
          574 606 605 571 574 606
          607 575 578 608 555 609
          610 611 559 612 613 614
          559 612 613 614 563 615
          616 617 594 593 720 721
          598 597 722 723 598 597
          722 723 602 601 724 725
          726 727 611 610 728 729
          614 613 728 729 614 613
          730 731 617 616 567 732
          733 568 571 734 735 572
          571 734 735 572 575 736
          737 576 604 618 619 603
          606 620 621 605 606 620
          621 605 608 622 623 607
          567 603 738 732 571 605
          739 734 571 605 739 734
          575 607 740 736 579 624
          625 588 582 626 627 589
          582 626 627 589 585 628
          629 590 625 741 717 588
          627 742 718 589 627 742
          718 589 629 743 719 590
          744 630 733 745 746 631
          735 747 746 631 735 747
          748 632 737 749 633 634
          610 609 635 636 613 612
          635 636 613 612 637 638
          616 615 634 750 726 610
          636 751 728 613 636 751
          728 613 638 752 730 616
          555 558 633 609 559 562
          635 612 559 562 635 612
          563 566 637 615 753 750
          634 754 755 751 636 756
          755 751 636 756 757 752
          638 758 639 640 625 624
          641 642 627 626 641 642
          627 626 643 644 629 628
          625 611 727 741 627 614
          729 742 627 614 729 742
          629 617 731 743 634 633
          721 754 636 635 723 756
          636 635 723 756 638 637
          725 758 580 759 687 519
          583 760 688 520 583 760
          688 520 586 761 689 521
          581 580 519 498 584 583
          520 499 584 583 520 499
          587 586 521 500 592 645
          646 593 596 647 648 597
          596 647 648 597 600 649
          650 601 651 652 300 273
          653 654 301 274 653 654
          301 274 655 656 302 275
          569 651 273 246 573 653
          274 247 573 653 274 247
          577 655 275 248 556 405
          381 557 560 406 382 561
          560 406 382 561 564 407
          383 565 570 569 246 219
          574 573 247 220 574 573
          247 220 578 577 248 221
          557 381 354 591 561 382
          355 595 561 382 355 595
          565 383 356 599 604 570
          219 192 606 574 220 193
          606 574 220 193 608 578
          221 194 640 555 611 625
          642 559 614 627 642 559
          614 627 644 563 617 629
          618 604 192 165 620 606
          193 166 620 606 193 166
          622 608 194 167 657 618
          165 141 658 620 166 142
          658 620 166 142 659 622
          167 143 660 661 117 93
          662 663 118 94 662 663
          118 94 664 665 119 95
          661 657 141 117 663 658
          142 118 663 658 142 118
          665 659 143 119 762 738
          603 619 763 739 605 621
          763 739 605 621 764 740
          607 623 429 639 624 453
          430 641 626 454 430 641
          626 454 431 643 628 455
          666 568 733 630 667 572
          735 631 667 572 735 631
          668 576 737 632 669 660
          93 69 670 662 94 70
          670 662 94 70 671 664
          95 71 592 327 300 645
          596 328 301 647 596 328
          301 647 600 329 302 649
          721 633 558 594 723 635
          562 598 723 635 562 598
          725 637 566 602 744 720
          593 646 746 722 597 648
          746 722 597 648 748 724
          601 650 477 453 624 672
          478 454 626 673 478 454
          626 673 479 455 628 674
          327 592 591 354 328 596
          595 355 328 596 595 355
          329 600 599 356 669 675
          765 766 670 676 767 768
          670 676 767 768 671 677
          769 770 639 429 405 556
          641 430 406 560 641 430
          406 560 643 431 407 564
          581 672 624 579 584 673
          626 582 584 673 626 582
          587 674 628 585 678 619
          618 657 679 621 620 658
          679 621 620 658 680 623
          622 659 42 43 765 675
          44 45 767 676 44 45
          767 676 46 47 769 677
          646 645 300 652 648 647
          301 654 648 647 301 654
          650 649 302 656 619 678
          771 762 621 679 772 763
          621 679 772 763 623 680
          773 764 744 646 652 630
          746 648 654 631 746 648
          654 631 748 650 656 632
          678 681 774 771 679 682
          775 772 679 682 775 772
          680 683 776 773 681 678
          657 661 682 679 658 663
          682 679 658 663 683 680
          659 665 666 630 652 651
          667 631 654 653 667 631
          654 653 668 632 656 655
          651 569 568 666 653 573
          572 667 653 573 572 667
          655 577 576 668 681 684
          766 774 682 685 768 775
          682 685 768 775 683 686
          770 776 759 580 714 777
          760 583 715 778 760 583
          715 778 761 586 716 779
          672 581 498 477 673 584
          499 478 673 584 499 478
          674 587 500 479 639 556
          555 640 641 560 559 642
          641 560 559 642 643 564
          563 644 675 669 69 42
          676 670 70 44 676 670
          70 44 677 671 71 46
          684 681 661 660 685 682
          663 662 685 682 663 662
          686 683 665 664 660 669
          766 684 662 670 768 685
          662 670 768 685 664 671
          770 686
        </DataArray>
        <DataArray type="Int64" Name="offsets" format="ascii" RangeMin="8" RangeMax="3632">
          8 16 24 32 40 48
          56 64 72 80 88 96
          104 112 120 128 136 144
          152 160 168 176 184 192
          200 208 216 224 232 240
          248 256 264 272 280 288
          296 304 312 320 328 336
          344 352 360 368 376 384
          392 400 408 416 424 432
          440 448 456 464 472 480
          488 496 504 512 520 528
          536 544 552 560 568 576
          584 592 600 608 616 624
          632 640 648 656 664 672
          680 688 696 704 712 720
          728 736 744 752 760 768
          776 784 792 800 808 816
          824 832 840 848 856 864
          872 880 888 896 904 912
          920 928 936 944 952 960
          968 976 984 992 1000 1008
          1016 1024 1032 1040 1048 1056
          1064 1072 1080 1088 1096 1104
          1112 1120 1128 1136 1144 1152
          1160 1168 1176 1184 1192 1200
          1208 1216 1224 1232 1240 1248
          1256 1264 1272 1280 1288 1296
          1304 1312 1320 1328 1336 1344
          1352 1360 1368 1376 1384 1392
          1400 1408 1416 1424 1432 1440
          1448 1456 1464 1472 1480 1488
          1496 1504 1512 1520 1528 1536
          1544 1552 1560 1568 1576 1584
          1592 1600 1608 1616 1624 1632
          1640 1648 1656 1664 1672 1680
          1688 1696 1704 1712 1720 1728
          1736 1744 1752 1760 1768 1776
          1784 1792 1800 1808 1816 1824
          1832 1840 1848 1856 1864 1872
          1880 1888 1896 1904 1912 1920
          1928 1936 1944 1952 1960 1968
          1976 1984 1992 2000 2008 2016
          2024 2032 2040 2048 2056 2064
          2072 2080 2088 2096 2104 2112
          2120 2128 2136 2144 2152 2160
          2168 2176 2184 2192 2200 2208
          2216 2224 2232 2240 2248 2256
          2264 2272 2280 2288 2296 2304
          2312 2320 2328 2336 2344 2352
          2360 2368 2376 2384 2392 2400
          2408 2416 2424 2432 2440 2448
          2456 2464 2472 2480 2488 2496
          2504 2512 2520 2528 2536 2544
          2552 2560 2568 2576 2584 2592
          2600 2608 2616 2624 2632 2640
          2648 2656 2664 2672 2680 2688
          2696 2704 2712 2720 2728 2736
          2744 2752 2760 2768 2776 2784
          2792 2800 2808 2816 2824 2832
          2840 2848 2856 2864 2872 2880
          2888 2896 2904 2912 2920 2928
          2936 2944 2952 2960 2968 2976
          2984 2992 3000 3008 3016 3024
          3032 3040 3048 3056 3064 3072
          3080 3088 3096 3104 3112 3120
          3128 3136 3144 3152 3160 3168
          3176 3184 3192 3200 3208 3216
          3224 3232 3240 3248 3256 3264
          3272 3280 3288 3296 3304 3312
          3320 3328 3336 3344 3352 3360
          3368 3376 3384 3392 3400 3408
          3416 3424 3432 3440 3448 3456
          3464 3472 3480 3488 3496 3504
          3512 3520 3528 3536 3544 3552
          3560 3568 3576 3584 3592 3600
          3608 3616 3624 3632
        </DataArray>
        <DataArray type="UInt8" Name="types" format="ascii" RangeMin="12" RangeMax="12">
          12 12 12 12 12 12
          12 12 12 12 12 12
          12 12 12 12 12 12
          12 12 12 12 12 12
          12 12 12 12 12 12
          12 12 12 12 12 12
          12 12 12 12 12 12
          12 12 12 12 12 12
          12 12 12 12 12 12
          12 12 12 12 12 12
          12 12 12 12 12 12
          12 12 12 12 12 12
          12 12 12 12 12 12
          12 12 12 12 12 12
          12 12 12 12 12 12
          12 12 12 12 12 12
          12 12 12 12 12 12
          12 12 12 12 12 12
          12 12 12 12 12 12
          12 12 12 12 12 12
          12 12 12 12 12 12
          12 12 12 12 12 12
          12 12 12 12 12 12
          12 12 12 12 12 12
          12 12 12 12 12 12
          12 12 12 12 12 12
          12 12 12 12 12 12
          12 12 12 12 12 12
          12 12 12 12 12 12
          12 12 12 12 12 12
          12 12 12 12 12 12
          12 12 12 12 12 12
          12 12 12 12 12 12
          12 12 12 12 12 12
          12 12 12 12 12 12
          12 12 12 12 12 12
          12 12 12 12 12 12
          12 12 12 12 12 12
          12 12 12 12 12 12
          12 12 12 12 12 12
          12 12 12 12 12 12
          12 12 12 12 12 12
          12 12 12 12 12 12
          12 12 12 12 12 12
          12 12 12 12 12 12
          12 12 12 12 12 12
          12 12 12 12 12 12
          12 12 12 12 12 12
          12 12 12 12 12 12
          12 12 12 12 12 12
          12 12 12 12 12 12
          12 12 12 12 12 12
          12 12 12 12 12 12
          12 12 12 12 12 12
          12 12 12 12 12 12
          12 12 12 12 12 12
          12 12 12 12 12 12
          12 12 12 12 12 12
          12 12 12 12 12 12
          12 12 12 12 12 12
          12 12 12 12 12 12
          12 12 12 12 12 12
          12 12 12 12 12 12
          12 12 12 12 12 12
          12 12 12 12 12 12
          12 12 12 12 12 12
          12 12 12 12 12 12
          12 12 12 12 12 12
          12 12 12 12 12 12
          12 12 12 12 12 12
          12 12 12 12 12 12
          12 12 12 12 12 12
          12 12 12 12 12 12
          12 12 12 12 12 12
          12 12 12 12 12 12
          12 12 12 12
        </DataArray>
      </Cells>
    </Piece>
  </UnstructuredGrid>
</VTKFile>
