<?xml version="1.0"?>
<VTKFile type="UnstructuredGrid" version="0.1" byte_order="LittleEndian" header_type="UInt32" compressor="vtkZLibDataCompressor">
  <UnstructuredGrid>
    <Piece NumberOfPoints="774" NumberOfCells="452">
      <PointData>
        <DataArray type="Int32" Name="libmesh_node_id" format="ascii" RangeMin="2286" RangeMax="4991">
          2286 2287 2288 2289 2290 2291
          2292 2293 2294 2295 2296 2297
          2340 2341 2342 2343 2344 2345
          2346 2347 2348 2349 2350 2351
          2400 2401 2403 2404 2406 2407
          2412 2413 2414 2415 2416 2417
          2418 2419 2420 2421 2422 2423
          2487 2488 2489 2490 2491 2492
          2523 2524 2525 2526 2527 2528
          2529 2530 2531 2532 2533 2534
          2550 2551 2552 2553 2554 2555
          2556 2557 2558 2559 2560 2561
          2580 2581 2582 2583 2584 2585
          2685 2686 2687 2688 2689 2690
          2691 2692 2693 2694 2695 2696
          2698 2699 2700 2702 2703 2704
          2706 2707 2708 2796 2797 2798
          2799 2800 2801 2802 2803 2804
          2805 2806 2807 2838 2839 2840
          2841 2842 2843 2844 2845 2846
          2847 2848 2849 2881 2883 2885
          2949 2950 2951 2952 2953 2954
          2955 2956 2957 3054 3055 3056
          3057 3058 3059 3093 3094 3095
          3096 3097 3098 3099 3100 3101
          3102 3103 3104 3117 3118 3119
          3120 3121 3122 3123 3124 3125
          3126 3127 3128 3195 3196 3197
          3198 3199 3200 3201 3202 3203
          3210 3211 3212 3213 3214 3215
          3216 3217 3218 3219 3220 3221
          3222 3223 3224 3225 3226 3227
          3252 3253 3254 3255 3256 3257
          3300 3301 3302 3303 3304 3305
          3306 3307 3308 3309 3310 3311
          3318 3319 3320 3321 3322 3323
          3324 3325 3326 3327 3328 3329
          3330 3331 3332 3333 3334 3335
          3366 3367 3368 3378 3379 3380
          3381 3382 3383 3384 3385 3386
          3387 3388 3389 3390 3391 3392
          3453 3454 3455 3456 3457 3458
          3459 3460 3461 3483 3484 3485
          3492 3493 3494 3525 3526 3528
          3529 3531 3532 3543 3544 3545
          3564 3565 3566 3567 3568 3569
          3570 3571 3572 3588 3589 3590
          3591 3592 3593 3609 3610 3611
          3612 3613 3614 3615 3616 3617
          3618 3619 3620 3630 3631 3632
          3633 3634 3635 3636 3637 3638
          3639 3640 3641 3654 3655 3656
          3657 3658 3659 3660 3661 3662
          3684 3685 3686 3687 3689 3691
          3693 3694 3695 3696 3697 3698
          3708 3709 3710 3711 3712 3713
          3735 3736 3737 3738 3739 3740
          3741 3742 3743 3744 3745 3746
          3747 3748 3749 3762 3763 3764
          3771 3772 3773 3774 3775 3776
          3777 3778 3779 3786 3787 3788
          3795 3796 3797 3798 3799 3800
          3801 3802 3803 3804 3805 3806
          3807 3808 3809 3816 3817 3818
          3834 3835 3836 3837 3838 3839
          3846 3847 3848 3849 3850 3851
          3861 3862 3863 3882 3884 3885
          3887 3888 3890 3900 3901 3902
          3903 3904 3905 3906 3907 3908
          3924 3925 3926 3927 3928 3929
          3930 3931 3932 3939 3940 3941
          3942 3943 3944 3954 3955 3956
          3958 3959 3960 3962 3963 3964
          3969 3970 3971 3972 3973 3974
          3993 3994 3995 4032 4033 4034
          4035 4036 4037 4053 4054 4055
          4056 4057 4058 4059 4060 4061
          4062 4063 4064 4089 4090 4091
          4104 4105 4106 4107 4108 4109
          4116 4117 4118 4128 4129 4130
          4167 4168 4169 4170 4171 4172
          4185 4186 4187 4208 4209 4212
          4213 4216 4217 4233 4234 4235
          4236 4237 4238 4254 4255 4256
          4257 4258 4259 4269 4270 4271
          4272 4273 4274 4284 4285 4286
          4287 4288 4289 4290 4291 4292
          4293 4294 4295 4302 4303 4304
          4314 4315 4316 4317 4318 4319
          4320 4321 4322 4323 4324 4325
          4326 4327 4328 4338 4339 4340
          4344 4345 4346 4350 4351 4352
          4353 4354 4355 4365 4366 4367
          4368 4369 4370 4371 4372 4373
          4374 4375 4376 4377 4378 4379
          4380 4381 4382 4383 4384 4385
          4386 4387 4388 4389 4390 4391
          4398 4399 4400 4416 4417 4418
          4422 4423 4424 4425 4426 4427
          4428 4429 4430 4434 4435 4436
          4437 4438 4439 4440 4441 4442
          4443 4444 4445 4458 4459 4460
          4482 4483 4484 4485 4486 4487
          4488 4489 4490 4491 4492 4493
          4494 4495 4496 4497 4498 4499
          4500 4501 4502 4506 4507 4508
          4509 4510 4511 4518 4519 4520
          4521 4522 4523 4545 4546 4547
          4566 4567 4568 4569 4570 4571
          4572 4573 4574 4599 4600 4601
          4602 4603 4604 4605 4606 4607
          4611 4612 4613 4647 4648 4649
          4650 4651 4652 4653 4654 4655
          4656 4657 4658 4677 4678 4679
          4689 4690 4691 4692 4693 4694
          4695 4696 4697 4716 4717 4718
          4743 4744 4745 4746 4747 4748
          4749 4750 4751 4779 4780 4781
          4788 4789 4790 4800 4801 4802
          4803 4804 4805 4806 4807 4808
          4809 4810 4811 4830 4831 4832
          4872 4873 4874 4902 4903 4904
          4923 4924 4925 4968 4969 4970
          4986 4987 4988 4989 4990 4991
          2880 2882 2884 3883 3873 3886
          3876 3889 3879 3957 3961 3965
          3875 3878 3881 4119 4120 4121
          4206 4207 4210 4211 4214 4215
          4347 4348 4349 4251 4252 4253
        </DataArray>
        <DataArray type="Float64" Name="resid_x" format="ascii" RangeMin="-0.02992091807436026" RangeMax="0.0016430942160852169">
          -0.0002266950791214306 0.00037960664819447487 0.00040104463095413934 0.0009671537455337997 -0.0025796203215193714 -0.0009561706979885898
          -0.004679574207105297 -0.0032212789408614384 -0.01285570763805266 -0.014319242804140764 -0.014731672413980768 -0.012465776038917298
          -0.004730240870161495 0.0004454926652055491 0.00035074736777346294 0.0016430942160852169 -0.01238834480240758 -0.0019200569502864084
          -0.0030294172713357104 -0.0017621754723471383 -0.023108345364532212 -0.013195919893910002 -0.011378379515127879 -0.014065234985807251
          -0.01687543559603366 -0.003500305166528328 -0.023717224846659946 -0.005267509634420797 -0.018395781312984028 -0.00942412095942835
          -0.0017259936817959343 0.00044266892785405076 0.0006020503216550566 -0.0014386371943571064 -0.005518220304494115 -0.0014045263349009574
          -0.003689659560544456 -0.008631487214864286 -0.006906514841379163 -0.005039836463415881 -0.006274332989618436 -0.009012287446497957
          -0.005910163368433974 -0.0037939660690264887 -0.0039266288648724945 -0.003120756893234322 -0.009213743618276427 -0.009922761129951496
          0.00021396884600033417 0.0006984091375787926 -0.0028179829781880272 -0.00290779836431021 0.0003828520339332897 0.0007961685123356599
          -0.007372027792657221 -0.008995654075377502 0.001067907209412411 0.0013911450170884798 -0.00056449820881177 -0.0045383418402451525
          0.00028229147435876456 0.0005057012489984025 0.0006532527773268626 0.00029551277387973585 -0.00008662624959843157 0.00032316285296474234
          0.0003800683535910565 -0.002634563266046719 -0.008946055934901498 -0.004795768823810054 -0.0055096664442162435 -0.00836757801607213
          -0.001450429174525425 -0.0017466287895731014 -0.002435366799486083 -0.0037439020275620294 -0.008205020353269532 -0.010659069874765947
          -0.00008096839528626276 0.0001555710226535112 0.00013580290345949209 -0.00009733120029054021 -0.0004693902113146464 0.00008416955945200755
          0.0003337544397563619 -0.00022708621760703096 -0.008452177367985314 -0.009588849865865612 -0.008124921470973767 -0.0075198632298079104
          -0.007928980324694024 -0.00999389463852296 -0.004242043443089649 -0.015233305867717206 -0.006289278721558489 -0.0013924659076156587
          -0.015076168403332701 -0.01339796080977873 -0.008183960150497605 0.0003364309098659035 0.0005334789302566811 0.0005387529306455363
          0.0008669404002370484 -0.0006521400332095695 -0.0005423180988026743 -0.0002623261100058727 -0.001663691953600388 -0.00609196985891014
          -0.004761386959608149 -0.004338172676018992 -0.006419552427815223 0.00011403320854874721 0.0001997853417572415 0.00017261380887312328
          0.0000959400772009289 -0.0007139226706991408 -0.0015839654509930412 -0.0009142913535562514 -0.0023568622703757924 -0.004209678374762049
          -0.005466328919125019 -0.004597911338514393 -0.004311990181181002 -0.00916389253790495 -0.014691635728778962 -0.011186086516128846
          -0.0016745766232117987 -0.0012596156307935757 -0.0022900054846082263 -0.0017298810031709522 -0.0018509137561988354 -0.002848505221312525
          -0.0018135477838656655 -0.0016408670470671183 -0.0026250998788222013 -0.0010622085702447492 -0.0020540071214556477 -0.0007588782019061213
          -0.003058216357286092 -0.005256106310614683 -0.006852397266450261 -0.006492585959297692 -0.0055623378198550455 0.0002430042632530771
          0.0006563292714840685 -0.004888800255464787 -0.0031264015982106486 -0.0001967124935013942 0.0008981435960064843 -0.005173062922064098
          -0.004823562948731208 -0.0016062485319201514 -0.0009959808523154479 0.00021317463247427781 -0.00015214998323953566 0.0006051476466719663
          0.0002523768999012077 -0.00010676000761034032 -0.00034633868161737524 0.000995694084828358 0.0005626928491189176 -0.010252712694622801
          -0.008122359207624275 -0.006914424603509772 -0.010083266990763562 -0.0004323781379405034 -0.0015024030250669895 -0.003143005949485911
          -0.002400024114778354 -0.004114717665618883 -0.0028890366673985923 -0.006626520584378071 -0.011096940883798645 -0.0059577501519774145
          -0.0002380579689393869 0.0003729451983183196 -0.00034018974626981446 0.0003563717865935345 -0.006704349003639365 -0.005374932384927256
          0.0003712660876011853 -0.001428110893161083 -0.0026246117933155233 0.0008588141719130249 0.0005032559597690778 -0.002250597314505498
          -0.0029839448022608295 0.0006477710775740775 -0.005653301006883993 -0.007198575741384161 -0.007580377801565064 -0.004218911518139912
          -0.004361594389324708 -0.008227424900392855 -0.002142445519436542 -0.012194459552905101 -0.005764114451508817 -0.011905650231025078
          -0.0030060438763186426 -0.0025283389601185036 -0.0074630562713799975 -0.007334383784691312 -0.008699591652661098 -0.00766742429597933
          -0.003819922940931697 -0.004391816346025479 -0.0012524039654882024 -0.001719127002528964 -0.003719422757848534 -0.004759568333131625
          -0.0015198772892337509 -0.0030678518813971323 -0.0007558098655735535 0.00008857793674521552 -0.003296855988719427 -0.006139984029722267
          -0.0035006365701715225 -0.002881592694792934 -0.008254686755650997 -0.0071551881327192035 -0.0062561366499203075 -0.008306109590300315
          -0.0029396347201208206 -0.00116596234936317 -0.0022342194975835117 -0.0013551348857818724 -0.0021159409952822283 -0.0022413524205155966
          -0.001166652328349116 -0.0038187691397517654 -0.007348808557088304 -0.0023040540539942533 -0.0026706459590055687 -0.002191756632731412
          -0.00294477753719935 -0.0037237481819940577 -0.006154376216106705 -0.0009788085879369746 -0.0005641739889652442 -0.0013381631922513293
          -0.00084030392393597 -0.00019726402013819921 -0.004165709820478369 -0.0036767389566021436 -0.001307306654663165 -0.003630714743568575
          -0.00008546455447167034 -0.00027279303511829056 -0.00020004484516888965 -0.00022945777565386294 -0.0006201126566089954 -0.0013627903712638556
          -0.006184829814024795 -0.005624042997976808 -0.007034418959291244 -0.00481566752028062 -0.002960721465667504 -0.0013969288929702728
          0.0002190188681217009 0.0002033136617161091 -0.005121368139182181 -0.009485844762997075 -0.014796326762050782 -0.02158915212148571
          -0.023796877573648345 -0.017834692679604913 -0.016879735973493126 -0.0006336115211809101 -0.0003581638618754823 -0.004806534251379446
          -0.000022310977062733883 -0.00265152030244753 -0.0030810298477996767 -0.00019640251599861713 -0.002191574512774075 -0.0016320187794827135
          -0.004448063078442033 -0.004807027120849572 -0.006518523928349396 -0.0015418608280715063 -0.0010349812847105788 -0.0020444890898225765
          -0.0007246865750265563 -0.005721955952075142 -0.0032013336265599435 -0.006640858515529757 -0.0005676197584586484 0.00008649108619618318
          -0.00033815652220159365 -0.013838497263463978 -0.0034790083367932656 -0.0018201694202710783 -0.00601797699463269 -0.019450557974344918
          -0.0075447377821424855 -0.011033475121875469 -0.015459804959884416 0.000012014523948167266 -0.002273155731502108 -0.0026162819481569954
          -0.00018642181702421823 -0.0012199669815942116 -0.005364738343286213 -0.003795223703712658 -0.0024423971952218793 -0.01257018386086095
          -0.015007514014745205 -0.015480411054388021 -0.015525579142478207 -0.007320420099608427 0.00006115680402762891 0.00058473709209661
          -0.01615209079124824 -0.0009927182142206448 -0.0019514236928532824 -0.01539857641767739 -0.012723482666979091 -0.008102714588871684
          -0.004240314292864866 -0.0024136368674563258 -0.002358879374270373 -0.003509482095482852 -0.0054173626992657375 -0.0032595558044690165
          -0.015037225238398566 -0.011999800622334078 -0.02175345628280656 -0.016292702588941665 -0.01429140338229784 -0.01564292377724641
          -0.009622501403012684 -0.010609082719692964 -0.0059763309475497906 -0.005299390660524317 -0.014123247084403268 -0.014323205244529014
          -0.008761299183424498 -0.0037769729377390426 -0.0026422441279492226 -0.009031374300273898 -0.0023614130050287063 -0.005567404904249784
          -0.00786316785795016 -0.005361094508156805 -0.0010380644985611975 -0.0021205676403051044 -0.007185305732445357 -0.01787956548068914
          -0.005531681908771735 -0.0103887818630497 -0.015784231833303686 -0.010379924960210118 -0.004955900285882109 -0.013228714011823683
          -0.009736492121294793 -0.006080147688050763 -0.015932515448093376 -0.002291296639885365 -0.002905556504693596 -0.0003870973315689419
          -0.0022187057496414475 -0.004879946915968825 -0.006612393372995129 -0.005747677465072876 -0.0038584291699343964 -0.0037026411254998948
          -0.00598305282035394 -0.004732261774934798 -0.004655333050241239 -0.0030190648140928644 -0.007009555818195068 -0.007080536924449987
          -0.0041141605496815 -0.0021044343117582187 -0.0013594654951978313 -0.005652999641385381 -0.004397777289280036 -0.004863643883651458
          -0.003457262064117117 -0.010502381222151191 -0.00988485832317565 -0.009404594630306407 -0.004697777132371073 -0.012117718346636996
          -0.00842712964574055 -0.005011503067962053 -0.014504995941473808 -0.006558604763206466 -0.0030238335033828667 -0.00792347022961537
          -0.0011286312545761845 -0.0023029384679671416 -0.0001814297533115905 -0.0022756733578874755 -0.0004630621952399494 -0.002858376821781361
          -0.0074495997189170104 -0.0017630231650538897 -0.005765002687826093 -0.01452068390004424 -0.01845030040311002 -0.02903106968137603
          -0.02810335623026461 -0.016616658884727187 -0.020996630068294664 -0.0018910135021350527 -0.0021918891145649155 -0.0018633315254792393
          -0.000956969235877736 -0.0022481630456034907 -0.001953941303682427 -0.005454709621749654 -0.005011230375581377 -0.004100286690968957
          -0.005194230544945944 -0.0012397259840843944 -0.006035210159977211 -0.00292091835280317 0.0009039977382911957 -0.0037232288551694026
          -0.005042099103987452 -0.002853480516890272 -0.0042776654745253495 -0.007321687082658013 -0.00624801081555848 -0.010736257411116945
          -0.00782430698080816 -0.00327197708437188 -0.0009961871770962638 -0.011643857601082885 -0.007151064188345657 -0.021164920382893193
          -0.0254372686984361 -0.011073580227041191 -0.027124924796807726 -0.017490993087079687 -0.012367095497356928 -0.019776067394764674
          -0.016536050679618164 -0.01614210200764532 -0.012205235986427532 -0.006038567501087666 -0.007438012715271114 -0.008780461932984096
          -0.009462019048618764 -0.009452052999328053 -0.011809004319993655 -0.0017061034785648133 -0.0025469201161492094 0.00013108056364519172
          -0.0017614672225514383 -0.0012075460225453583 -0.0032427688533225307 -0.002449741750344181 -0.0010513016648339146 -0.0008446571768736533
          -0.0006026084999888326 -0.0021263843323353626 -0.002713703269982659 -0.0028112561421251847 -0.0004712030013380719 -0.003075659652723939
          -0.0003219980643698328 -0.005890701920696184 -0.0030230705504248334 -0.005089051237135767 -0.003571395946055489 -0.006389693612617542
          -0.0045248694782396015 -0.012634407794914537 -0.002333281922199504 -0.006534402521199745 -0.0012847942148219715 -0.004953371355228775
          -0.004520925958093613 -0.0014784952724022915 -0.0017881689245893284 -0.009018803803584774 -0.0007110958227736219 -0.012402121195282945
          -0.003356928733809106 -0.0007423765101366442 -0.0022782798851146424 -0.00825140208786923 -0.0006471541486154919 -0.011983127264109328
          -0.007909352479014142 -0.0009621151697583041 -0.010883922784498345 -0.017492988454705483 -0.009731344466160863 -0.023742736813058052
          -0.013418658729285049 -0.00990353212438766 -0.005574586400328485 -0.009841466290603451 -0.011037238970392771 -0.003845044011175913
          -0.005320936639126472 -0.007079556437678325 -0.010040426913442424 -0.005317583567707729 -0.0026239929458222733 -0.006593204407324471
          -0.00615761522990077 -0.0006930040608281729 -0.012064869275079104 -0.013948312244994376 -0.003993637997699473 -0.011036600109608052
          -0.006041082849894686 -0.0028256148447596274 -0.0032557788015656897 -0.003823290623309994 -0.003131642140124846 -0.0023864690783392817
          -0.005886286416502351 -0.007735571631535265 -0.004461220678318334 -0.004211052478271249 -0.004215728120284368 -0.0011876988288923584
          -0.0006398796219144742 -0.002904762919879289 -0.0034332044161464736 -0.00502248198935451 -0.0019382723481813358 -0.0032284006691432054
          -0.0020666595007861055 -0.004150206041011906 -0.00021521619347009135 -0.005132319709196587 -0.00480271286555789 -0.005116264574885232
          -0.0063723613529074186 -0.009093832220560927 -0.00043477209083153667 -0.002330824699972922 -0.020192587445350796 0.00001807763408834262
          -0.010524304003041607 -0.018893212120222103 -0.009576718247684468 -0.0034339248092045693 -0.003717339394396113 -0.010372820038131003
          -0.00502692292862239 -0.0018437868208618369 -0.0033604904512651856 -0.006770398386349186 -0.006390370597978645 -0.0012280936878212856
          -0.0007408623061673225 -0.012530589444907037 -0.00995026209658878 -0.00894108320718967 -0.00466858452142116 -0.0030320966992452014
          -0.0002798448667502562 -0.0035161236459577694 -0.0020492801640972225 -0.0044285967724586595 0.00009411864720143548 -0.0023105058789605337
          -0.009166236155954799 -0.008282414583264508 -0.003531250023433685 -0.004193770778623485 -0.0034779103368016706 -0.0036205719186126473
          -0.004356522263750051 -0.0013416608257457163 -0.0002838016852666492 0.0003143546819712739 -0.008800966970992974 -0.001987931891306527
          -0.0031668276332381673 -0.0015841795971245354 -0.008012757809241933 -0.004568861425343407 -0.007631163986225875 -0.006048209395472792
          -0.008464140744320225 -0.0026305206587311503 -0.012289874781131083 -0.0064334527951972476 -0.0038856583983331028 -0.0060781842921677764
          -0.0036901011784289395 -0.004396701394185243 -0.002677710975468983 -0.0030002717017163505 -0.004648356041086821 -0.0027657100163382964
          -0.009068633204762533 -0.0013407777250660224 -0.004580730954297174 -0.01310606961725469 -0.003138104752933746 -0.02663490256696832
          -0.00022142585584639107 -0.020008712758944114 -0.006684475465708495 -0.00010884887160234058 0.0002128173775801656 0.0000958130599606477
          -0.00005744831072007628 -0.006737111994507217 -0.006923673073956138 -0.010874653151628166 -0.021842844415814966 -0.01858847852828749
          -0.005847010699596922 -0.005708577371664636 -0.0006694656881407468 -0.0032400221284935027 -0.0016388167703365042 -0.002700972797693213
          -0.00019827514117398692 -0.005727613423077038 -0.008392540908875645 -0.0035546048162977684 -0.00003445840153748492 -0.007165096431881679
          -0.00508604646493005 -0.0032828742861221727 -0.005640325228759124 -0.011505482999332628 -0.01149772933291704 -0.008581707408991335
          -0.0037597108993638884 -0.002500505380897522 -0.006393108792032365 -0.011239547544159123 -0.002908278762187244 -0.004979127745072809
          -0.0020226310562057037 -0.012809119762548171 -0.0038895777377723206 -0.0013417231869432555 -0.001944972036029391 -0.0010063741036052676
          -0.0004798337569393851 -0.007423875486804121 -0.007131418878770113 -0.0012953083335620619 -0.0001872283833259658 -0.007574632051670527
          -0.0071715404927814586 0.000041123115008590005 -0.010056978764013902 -0.002150863990876495 -0.0014557773491441495 -0.006755033285929635
          -0.009730341285770994 -0.007430898196745694 -0.009366916674304449 -0.01095865161726195 -0.01859714278860558 -0.010528367058902255
          -0.0015122737589496893 -0.003676501820029543 -0.0007864698763917488 -0.002168209070777749 -0.007187328124581782 -0.006471355078109475
          -0.008684650902790025 -0.001916172657954185 -0.010344689070510782 -0.006164890548380875 -0.004293857572643667 -0.002846928342782107
          -0.009058609681742436 0.0005304961040581979 -0.011724754540858306 -0.006894691288480637 -0.001968470990748372 -0.0030678627297016092
          -0.00674111343991779 -0.008942287447277764 -0.00823667693501573 -0.010145523061012351 -0.002343126325954792 -0.003796174607088254
          -0.0014926463295044101 -0.003620108706643421 -0.0005925593036169019 -0.0008412811293769806 -0.0016919899330192223 -0.00020721557632885634
          -0.003258618248430878 -0.006671085163846513 -0.003927622705059974 -0.006283036331936387 -0.00016423967793777194 -0.003627463494800587
          -0.006785005765833851 -0.007299850542834108 0.00009934051582138892 -0.004884998471877289 -0.0058310400766412585 -0.007028416985881414
          -0.007824453210041327 -0.0018342080432018903 -0.0061590719745217015 -0.0091785362948964 -0.007434487273059176 -0.009057306605599447
          -0.00045314151178477147 -0.00030407205710236695 -0.004833104483756401 -0.00852035541738827 -0.0014756219241678359 -0.006858328013346959
          -0.00897678386531009 -0.009478240574019914 -0.0029556246479938153 -0.006072740686082767 -0.010003034582238612 -0.012283791650088638
          -0.008891685635389557 -0.003377445080866792 -0.0061505846216936 -0.011565034034264343 -0.014402909149261234 -0.01003508654977292
          -0.017250182714460216 -0.022785740459185133 -0.010480384408489751 -0.02013216444245458 -0.02634141493744835 -0.01691814988309126
          -0.007446065022155501 -0.003269359435248642 -0.0030841442479179193 -0.01536158848101632 -0.020973636208312385 -0.013898716875495598
          -0.014465311881702636 -0.017517473731976985 -0.003385879515113821 -0.005058193046337589 -0.006994131038064122 -0.010875544102060264
          -0.012577842276493278 -0.02362638440777154 -0.008945842316927965 -0.016693974671122547 -0.015211841219246125 -0.025891678485443492
          -0.02462976242426862 -0.013437788599295786 -0.013439994575255909 -0.01661843576025923 -0.02404431540972407 -0.013134193872524236
          -0.014470930841143925 -0.01362314881748361 -0.011713625100274072 -0.011527622930001868 -0.013736407614544532 -0.007583081016151461
          -0.006726720378911644 -0.017369526269606084 -0.014911312483924632 -0.02992091807436026 -0.008784530248255429 -0.018176553195466738
          -0.016638179235997086 -0.016926633971696248 -0.009342748261671474 -0.01965299116107655 -0.025257805164040192 -0.011683604458527341
        </DataArray>
        <DataArray type="Float64" Name="resid_y" format="ascii" RangeMin="-0.9289327950378795" RangeMax="1.1361508173340948">
          0.00015493757314982703 -0.0002747736005742629 0.00005789816374124346 -0.0007611332411049943 0.0018001929429900532 0.0007996854214040172
          0.0031657763012065687 0.001363180804360764 0.005646594154348816 0.006259801215710126 0.006894904881119296 0.005806543116294222
          0.003484123403487978 0.0004760250822701678 0.00007697499823014486 -0.0004081024433528757 0.0076522606387090224 0.0018949276110173524
          0.000663260862348608 0.0025163689160204727 0.00867117913521212 0.0039027978254888157 0.00436875251644489 0.006263641130766995
          0.008905917514704348 0.004673462198003589 0.011117586315372685 0.009491159529313398 0.007331570681608973 0.006225795718266702
          -0.0015904348905835045 -0.00021065796078320598 0.0001943584940740095 -0.002613908941072468 -0.0026579632545286613 0.0007323482670503374
          0.0014740941784979755 -0.005641648993013504 0.0001001968502675199 0.001794817742059314 0.001662579993314206 -0.001449200161695835
          -0.0004807413059843141 -0.001282274013364046 0.001374921710080107 0.002159118117971398 0.0043025956865416215 0.00464494181605013
          0.0001510802688668017 -0.000023477104566516083 0.004083183229101173 0.001777317488960234 0.0004140336234173675 0.0007174190972811245
          0.009803060488433046 0.0036195603975290314 0.0010765720958654107 0.0012663031171789574 0.0057570753470734815 0.002082077263484
          -0.000224991535132113 -0.00008915634271303152 -0.00034218228246524207 -0.0004190429306080157 -0.0002012707900065358 0.00039940309934849427
          0.00046802509581411744 0.0003906578393230442 0.0015142971953462647 0.0015870729452369392 0.0020221907857653765 0.001975065832047318
          0.0020474202725150326 0.003916835945736345 0.0023694297045828427 0.0037410025553601617 0.004230205812691595 0.004747648745354275
          -0.00036236990178595274 -0.0002611937976254586 -0.00013084868148938167 -0.00021632559748882563 -0.0006379511295873941 -0.0002590772215091963
          0.00011649931201884733 -0.0003496868488921945 0.00008288205076242838 0.00010365221430130855 0.0004524058842075851 0.0006033619036289739
          -0.0009598558114359279 0.008683081608824639 0.006359860756594837 -0.00008400381713993821 0.005508320443209758 0.005199096174718837
          0.0051810702203598236 0.0058423153077152845 0.003914715796772383 -0.00006701983262050182 -0.00011936724887659077 -0.00026682192588614595
          0.000023198911976607395 -0.000045256927365705524 -0.0001457489553819205 -0.0005104369565826078 -0.00002982382223346014 0.0004922798981690235
          0.00037221833076064165 0.0006867272279396514 0.0005231628923948739 -0.00025155823225211926 -0.0003731709173701303 -0.0004949247747738361
          -0.00044096132072392324 0.000028415802796166734 0.00023299664881516746 0.0003126201385904026 0.0002708734213429931 0.001436284909062141
          0.0024594491342738722 0.00266231602005515 0.0015899613208954222 0.0021832695986649525 0.002397120004073855 0.0023771898312393708
          0.0011073723668548752 -0.00002701087623879772 0.0005925878852273692 0.0006037851375279846 0.0000963736058706699 0.0027282489295445966
          0.0011808806271428468 0.0017681817495975305 0.0037663380349808873 0.001354648979564943 0.00414976234697903 0.0003794895877861637
          0.0030912798207923427 0.0011343395333542061 0.002520295113477327 0.0008067571639503446 0.002081244628420631 0.0004874486534619804
          0.00008378023427546566 0.0018462734329301456 0.0014737714554128867 0.0007342481333585948 0.0002121820850949918 0.002026982468957106
          0.0014081798321770589 0.0008833291293053325 0.00140220531280566 -0.0003393213359484948 -0.00012970379876810906 -0.0003635147798906613
          -0.00048553042440913075 -0.0005634634201754363 -0.0003595606521921424 -0.0006745279202752252 -0.0008223382186354211 -0.00019940741358481784
          -0.00001893145412909525 -0.00011834288570766738 -0.000205872093547943 0.00006413249869990922 0.0022479155229815917 0.00023254375028949892
          0.001130437099986864 0.0008809573433000706 0.0034970751381294685 0.0024256479107331863 0.003187552783033454 0.0033539509701333847
          -0.3961793087744701 -0.3946203573470213 -0.8572793429107953 -0.8352769279780061 -0.5456572017823247 -0.6021422234457527
          -0.00009799592582165895 -0.0006235074965840054 0.0003308188223940037 -0.0005187742771443279 0.00019956491370731744 -0.0005490275508592962
          0.0019076383225146779 0.0008866631653002138 0.0055764186648075975 0.0038740465342538832 0.004734211668739136 0.003974013857643205
          0.0012334522958121208 0.006026759587708673 -0.0008054897033636932 0.0067612331530118586 0.000992810204728578 0.003931926426515964
          0.0006786323546681128 -0.00008289107182396505 0.001056068747091743 -0.00010046120349482823 0.001140584183980553 0.0009031356264555535
          0.002777021656631906 0.0018980314283529864 0.001897549895854611 0.0009295609338420274 0.003546204829810218 0.0043812886344659074
          0.00150381127274328 0.0017871562301304822 -0.00003179878683087778 0.00019139532552893412 0.0005321702867486233 0.003934863468151972
          0.0017022578700576496 0.002709490023983671 0.00223123179780213 0.003997120646315633 0.0037560114287657487 0.004250773719221987
          0.00005238837937265872 -0.00021992878341764444 0.0009068860908996168 0.0017501069828172178 0.003233266133962409 0.0033075855240166097
          0.00008891766679991475 0.0006090655347740226 0.0007066319484568262 0.0027218145039559216 0.003357440168023751 0.0016018313767981601
          0.0019316023625173262 0.00290100474265971 0.003947382351272732 -0.00017657680741470227 0.0006917044517994186 0.0003203202661502258
          -0.0007463840073754432 0.0003469092116853978 0.00011686829411372557 0.0005798979629063573 0.0015454393453986637 0.0013969914114045634
          -0.0003246730078317328 -0.0003831844451617772 -0.0004075545476412423 -0.0005838086216248817 -0.0006638347658343702 -0.0008237074983602488
          0.00007086487527291352 0.00033614661599884466 -0.000128349369272307 0.0029178277980901335 0.002006377156916872 0.0028192305255780314
          -0.4548425803633924 -0.9289327950378795 -0.5815977302667978 -0.00009008227168701838 0.0061545859834263306 0.001196437843971207
          0.0053029841233982605 0.003922196499601183 0.004958346908341585 0.00023551973696395168 -0.0009331435873415894 0.0004444628250182825
          0.00021172122940688043 0.003129998856904015 0.0033731678882671923 0.000020217572569258824 -0.00013217657186082032 0.0047343527930810425
          0.0026687139452251096 0.0027279017742971035 0.006413914300718998 0.0018616130870158232 0.0023436116578052224 0.0005172676112931429
          0.0007017616921448366 0.002348531291985867 0.0022001845420086263 0.005644228607694375 0.0026971833764853625 -0.00026841806150440517
          -0.000031303708317664825 0.012004944480984797 0.006488479687991849 -0.0004622307742416232 0.0011235321527163777 0.010078721986314772
          0.005538546521616061 0.003970361369126818 0.004099425135748458 0.000027988943917811593 0.002234356355090783 0.004998440742795374
          0.001602494748609462 0.00027878944695897134 0.0012308711345214995 0.004113062187824673 0.003598838990655051 0.004377494968856754
          0.0037545620667602253 0.006384304608952979 0.007832004798962233 -0.0005713615312716996 -0.00016005928815812642 0.00031226804044408307
          0.0002615766376486209 0.000881011829629269 0.003580735626812881 0.002955040176227497 0.005795546549193231 0.005110807426670666
          0.0024999862104619353 0.001074228691844148 0.0017754424658429357 0.001980604972614229 0.0026315195489322873 0.002135390354684699
          0.009481186340931938 0.008316108379269743 0.014176387746009503 0.014517774411838852 0.00795863383849682 0.010489230533798952
          0.00826721277546233 0.007577694776615185 0.004306646793133001 0.0039588558148938024 0.005498033907840261 0.005791139377714555
          0.005911579912410807 0.002535684821789702 0.00270660311956291 0.0023196781814180667 -0.00034129079923558153 0.0010510573760544872
          0.0023978414650114577 0.001415836073505733 0.0010738652604767793 0.0008304257173341878 0.00436338098261585 0.006431055515910028
          0.003720251801903971 0.005553639068452576 0.008454473576278598 0.003091727945810835 0.0025289852254998246 0.005913617398347296
          0.00456879212243802 0.0022232219027210898 0.00589163763861994 0.0010277394641083348 0.001566808934818753 0.0018033532595655988
          0.0033184364470684735 0.00482777204398005 0.005432697101443368 0.0034011333108711073 0.0016267680774457172 0.004201598343210433
          0.0003700809139391692 0.000271952759955868 0.0017514531986187465 0.0034598336950176223 0.005108319995919042 0.005907410871794222
          0.0022634608672744416 0.0012517071705971383 0.0018350533051992024 0.0036590907754194407 0.004314392466214664 0.002266759105956931
          0.002622153149233211 0.003997004289437105 0.003878269281773261 0.004622837101722857 0.0012353600372815507 0.004256761529162961
          0.004578219516757354 0.002084265832415777 0.005701723334047032 0.0034722382995794054 0.0011763965188974768 0.0034188102145313315
          0.0013121149093464901 0.0027362230394202686 0.000015817081825714174 0.0010667821942330624 0.0021678903082276435 0.002809605174151214
          0.0037434467108652114 0.0015231938968035263 0.004068991117004844 0.003928960164779838 0.009806163141781787 0.007716781914507337
          0.01054837313283305 0.004171140715077792 0.005414781258222104 0.000977102228809923 0.0027203644658272685 0.0016164791907311293
          0.0007905466801989003 0.0019574071208874055 0.0010319339490736379 0.0007862686590845158 0.0013572681926111163 0.0006857031313849682
          -0.0016279667004235054 -0.0003670401555174174 0.00041293830809648047 -0.0007875417127672091 0.0008440971616821558 0.0008374349004883833
          0.001388450310418149 0.0019390666516885258 0.0017417924167130918 0.009854131659393306 0.008608797897884046 0.014368804299776272
          0.012998977100276088 0.00753253134448173 0.006914544915650689 0.004447131751674896 0.0026791658091451925 0.003900669120262934
          0.00932442450318896 0.007079263170599995 0.009892856867179944 0.007007869635753783 0.006586991424906027 0.010063054698925697
          0.005360909155043933 0.004969686938256522 0.009814041867958936 0.0012434431340351479 0.005111144261954068 0.002890134868924775
          0.00874204251421945 0.011964247739434997 0.007199574513178486 0.4787592910128635 0.37030059250311576 0.9733475490994226
          0.7526583786640225 0.5312402725150167 0.4304828285543839 0.13971308013988223 -0.052878939411810266 0.29632816864280953
          -0.08446712597792597 0.23238165403101327 0.047513366121637896 0.0006499557627782093 0.0012465098817951714 -0.0001225907959044037
          -0.00022582093915311796 0.0018399868414390244 0.001268938470910877 0.004007190568342256 0.0018961829165726057 0.0024201757156228354
          0.549830083488221 -0.0004073321854269757 1.1079648070267905 0.0010099040222504227 0.5567888579714984 0.0017158575880992372
          0.5383212474202885 1.0760789117707095 0.4829569953333649 0.004426801319120488 0.0016236817081523025 0.004532417191419488
          0.46836006527100604 0.9132350123817148 0.3139027882999128 0.003848417547757027 0.00020114243405348897 0.0034804616910518726
          0.005178481173847079 0.0005040725264031784 0.0029195834000257243 -0.0028388396039522312 0.6008439852325537 -0.003705642090052863
          1.1361508173340948 -0.0010644912881481727 0.3454420530290585 0.00618448397575333 0.0084870917114509 0.0018357050530763142
          0.0025907235165776032 0.002607799211665124 0.0030334926097802667 0.003177817756914836 0.0010771415160702458 0.003560576732520193
          0.0054965023376610245 0.0023741899039860237 0.00628870207586163 0.008657606292894124 0.0024518283639080735 0.0035280221085252084
          0.003357404723502294 0.0010152534290321091 0.0015504923670781878 0.002489848267439143 0.001235393774384197 0.0024860216899466048
          0.008069455015425775 0.01201852747545673 0.008127130857512488 0.0022223342655487144 0.0024972459869547214 0.0004425758982540273
          0.0005653976945435846 0.0018200993766681328 0.002839296134717728 0.001846164311528925 -0.0006182923894965525 0.0016050365480646117
          0.000998785173118813 0.0013664296351879237 -0.0005794960390151718 0.0015345451238380405 0.0006849726869080225 0.0016038733543608588
          0.0034209408457852586 0.0020806862791850345 0.000056312153124571385 0.0011913651995670294 0.0071626763621496226 0.0017713859407100518
          0.006475790022638539 0.008761675904799981 0.006019777059335096 0.008862655379408044 0.01047930825206686 0.007394292086654292
          0.0026031445517286367 0.0007302088514742899 0.0013652032016420422 0.003958324917840983 0.002922627357283332 -0.000846344980070704
          0.00013614549933335662 0.0017231376359028439 0.0028490147395167503 0.003361365143418449 0.0026725774527191493 0.0013173915664821956
          0.0004359242079036152 0.000803998294823291 0.0007700633234784537 0.0020315631709192095 0.00014577813361738023 0.0014938509488395535
          0.002095309547387861 0.0013792056736754432 -0.0004665745047918446 0.0006647343523880911 0.00100406645205868 0.0011839801485312856
          0.001555496708055576 0.00021353164099745248 0.000056976943285481224 -0.00016655867029320703 0.0047013201126758775 0.0016494779500316956
          0.0018396637658455554 0.002931653013388047 0.005561031226139157 0.0034287645825908653 0.004655271081349083 0.005219414672890093
          0.004879066883733657 0.0008423819755740969 0.00483224784441301 0.004793064783110368 0.0027814978486020436 0.0044011152858311475
          0.000959652352273882 0.0013720660978474748 0.000261247685688637 0.0008106658472040902 0.00088756438494908 0.001177171964023952
          0.002555394246516407 -0.0003203395132852782 0.0027469806644977446 0.0010100215195678053 0.0028670122946183943 0.0011484619551263564
          0.0005575474569728261 0.003562442184520412 0.00287897396836697 0.00038290369752952413 -0.00024943433203455934 -0.00014645127847634498
          -0.0009511054865583013 0.00014891338937378373 -0.0001974761373332301 0.008602856184540653 0.014952063340627653 0.009089233438335537
          0.002919728268529126 0.0015860149569323634 0.0008910668381707509 0.0018964269718927118 0.001476918731709076 0.0013640304952471927
          0.00039216881644243973 0.0010620288540471035 0.004435220407296173 0.002099075393461991 0.0009733188313981456 0.0019457519346907093
          0.004245748173289043 0.00550750104063466 0.0037382347487168177 0.004575578850950668 0.006529635611772999 0.0068412570944293705
          0.0008598638870918329 -0.0002903392318345521 0.0008535603583590123 0.004339680575011631 0.0009580573052133945 0.0020132154481184057
          0.0013495667785192456 0.006276903450839533 0.0021067867244474875 0.00009313146700601349 0.0005258550149953578 -0.00024300497734808246
          -0.00036448188648380286 0.0010764703446363155 0.0007019239674729283 0.00039653438547226916 -0.00007596790994268687 0.00034318093713670006
          0.003384615082391809 0.00020240244302044408 0.0029794297393389013 0.0007687932223722771 -0.0002691798910972043 0.0005583414281047916
          0.006576119091753124 0.006563649118636758 0.0060658407454112495 0.010591598438792316 0.015329839702428405 0.00842027046928967
          0.0010853379279552322 0.0015992764536871817 0.00014521709933479343 0.00013410856965279105 0.0004666814663012997 0.001107539587493045
          0.006787676255192693 0.0014433046327244625 0.004364159652724575 0.003595074294041156 0.0016979913140077185 0.002161714772517198
          0.004739563449514497 0.0028290685728815795 0.00591117689559581 0.0018433582773037735 -0.0003814417255673455 0.0005374546523167767
          0.006498933305527879 0.007805558809653362 0.006023883606722763 0.00336588785621178 0.0013171131650715068 0.002041481053974503
          -0.13056201656611108 0.0006091621614964238 -0.2029156742836235 -0.23701049715013905 0.00017080619666748342 -0.3844349169811674
          -0.04871283704972995 0.0004678775390547507 -0.15130711266912583 0.004256989379221809 -0.000041015014402900896 0.0018752896131506436
          0.0053625693333787805 0.0031438421726981067 -0.0001284540389988459 -0.00013300743566189294 0.001423272183346494 0.0006286507728058693
          0.0040117156120828 -0.0012147031705326827 0.0023535069172620493 0.008405034054745922 0.008455698353049726 0.005994687644067062
          -0.3443587461169159 -0.6830265779585487 -0.3632671398562339 0.005589152873672298 -0.0009668060087198102 0.002225292110269797
          0.004458058684768423 0.0036495511561723537 0.0007145057785597209 0.0015149098413951012 0.003952258369273126 0.004923035549066118
          0.00858261756564533 0.006753813484025982 0.005591823938838905 0.0070054005951128255 0.009105313690721852 0.005789202304040921
          -0.0008742459039288164 -0.0019732050805262025 -0.0010167731615664533 0.0049561424473657835 -0.0008777126560138987 0.0013255771479357553
          0.000803217723766736 0.0007007489454587679 0.0006546511347437223 0.007549094535294176 0.010092386109007756 0.005723327676975747
          0.00431462695280669 0.0045228579509905276 -0.0008259004297168013 -0.0002399019544412906 0.0008281406333148639 0.0016954144044087696
          0.0033336822532251107 0.004483568107601345 0.0014303067863018215 0.004535753014384782 0.005774462332916563 0.0073909042944182435
          0.009911990798463777 0.003551447285613671 0.005122032092854056 0.008035958125170335 0.010248968115432674 0.006249018664390538
          0.006788115980333853 0.005851911422875222 0.0045251459554975365 0.009343787351176525 0.01408713938871875 0.006742738211309718
          0.5095158685009886 -0.006779846066209148 0.9920011343172315 -0.010438034878741002 0.3930210224437697 -0.0021441463478857614
          0.005929419945181091 0.008502603375355522 0.004406276008427752 -0.006270436204552976 -0.013035937393386932 -0.004841168326098988
        </DataArray>
        <DataArray type="Float64" Name="resid_z" format="ascii" RangeMin="0" RangeMax="0">
          0 0 0 0 0 0
          0 0 0 0 0 0
          0 0 0 0 0 0
          0 0 0 0 0 0
          0 0 0 0 0 0
          0 0 0 0 0 0
          0 0 0 0 0 0
          0 0 0 0 0 0
          0 0 0 0 0 0
          0 0 0 0 0 0
          0 0 0 0 0 0
          0 0 0 0 0 0
          0 0 0 0 0 0
          0 0 0 0 0 0
          0 0 0 0 0 0
          0 0 0 0 0 0
          0 0 0 0 0 0
          0 0 0 0 0 0
          0 0 0 0 0 0
          0 0 0 0 0 0
          0 0 0 0 0 0
          0 0 0 0 0 0
          0 0 0 0 0 0
          0 0 0 0 0 0
          0 0 0 0 0 0
          0 0 0 0 0 0
          0 0 0 0 0 0
          0 0 0 0 0 0
          0 0 0 0 0 0
          0 0 0 0 0 0
          0 0 0 0 0 0
          0 0 0 0 0 0
          0 0 0 0 0 0
          0 0 0 0 0 0
          0 0 0 0 0 0
          0 0 0 0 0 0
          0 0 0 0 0 0
          0 0 0 0 0 0
          0 0 0 0 0 0
          0 0 0 0 0 0
          0 0 0 0 0 0
          0 0 0 0 0 0
          0 0 0 0 0 0
          0 0 0 0 0 0
          0 0 0 0 0 0
          0 0 0 0 0 0
          0 0 0 0 0 0
          0 0 0 0 0 0
          0 0 0 0 0 0
          0 0 0 0 0 0
          0 0 0 0 0 0
          0 0 0 0 0 0
          0 0 0 0 0 0
          0 0 0 0 0 0
          0 0 0 0 0 0
          0 0 0 0 0 0
          0 0 0 0 0 0
          0 0 0 0 0 0
          0 0 0 0 0 0
          0 0 0 0 0 0
          0 0 0 0 0 0
          0 0 0 0 0 0
          0 0 0 0 0 0
          0 0 0 0 0 0
          0 0 0 0 0 0
          0 0 0 0 0 0
          0 0 0 0 0 0
          0 0 0 0 0 0
          0 0 0 0 0 0
          0 0 0 0 0 0
          0 0 0 0 0 0
          0 0 0 0 0 0
          0 0 0 0 0 0
          0 0 0 0 0 0
          0 0 0 0 0 0
          0 0 0 0 0 0
          0 0 0 0 0 0
          0 0 0 0 0 0
          0 0 0 0 0 0
          0 0 0 0 0 0
          0 0 0 0 0 0
          0 0 0 0 0 0
          0 0 0 0 0 0
          0 0 0 0 0 0
          0 0 0 0 0 0
          0 0 0 0 0 0
          0 0 0 0 0 0
          0 0 0 0 0 0
          0 0 0 0 0 0
          0 0 0 0 0 0
          0 0 0 0 0 0
          0 0 0 0 0 0
          0 0 0 0 0 0
          0 0 0 0 0 0
          0 0 0 0 0 0
          0 0 0 0 0 0
          0 0 0 0 0 0
          0 0 0 0 0 0
          0 0 0 0 0 0
          0 0 0 0 0 0
          0 0 0 0 0 0
          0 0 0 0 0 0
          0 0 0 0 0 0
          0 0 0 0 0 0
          0 0 0 0 0 0
          0 0 0 0 0 0
          0 0 0 0 0 0
          0 0 0 0 0 0
          0 0 0 0 0 0
          0 0 0 0 0 0
          0 0 0 0 0 0
          0 0 0 0 0 0
          0 0 0 0 0 0
          0 0 0 0 0 0
          0 0 0 0 0 0
          0 0 0 0 0 0
          0 0 0 0 0 0
          0 0 0 0 0 0
          0 0 0 0 0 0
          0 0 0 0 0 0
          0 0 0 0 0 0
          0 0 0 0 0 0
          0 0 0 0 0 0
          0 0 0 0 0 0
          0 0 0 0 0 0
          0 0 0 0 0 0
          0 0 0 0 0 0
          0 0 0 0 0 0
          0 0 0 0 0 0
        </DataArray>
        <DataArray type="Float64" Name="stress_zz" format="ascii" RangeMin="-5187059.36957058" RangeMax="4958733.961049194">
          -1153493.4574861464 -541802.4980411667 -989073.8005946777 -1852060.5920923927 -1235018.5020318406 -613915.6789988911
          -1014329.8547142292 -1861559.9907524404 -1316543.5465775349 -686028.8599566156 -1039585.9088337803 -1871059.3894124879
          224229.40498244794 156356.3499824993 192009.74727983942 625710.6575043735 231274.01643215586 109056.68962014653
          169612.29351732685 633066.733552748 238318.62788186377 61757.02925779378 147214.83975481425 640422.8096011226
          -953712.8328655858 -610422.7025427886 -1012330.9194650166 -574934.5610589968 -1070949.0060644473 -539446.4195752051
          -1599187.3151253858 -285577.5071646933 -476019.02396518877 -2859916.7802527826 -1554380.1877276914 -266213.2286681904
          -659200.0065746343 -3124440.923921728 -1509573.0603299967 -246848.95017168752 -842380.9891840803 -3388965.067590674
          701286.8606774178 1809295.3854645113 661361.4811643949 1766591.9844712615 621436.1016513719 1723888.5834780117
          1897293.9774414182 3701368.467652881 3520832.7992944666 1258569.9722187105 1940943.2880279776 3954095.4426926826
          3452868.9041738673 1047670.4591959801 1984592.5986145367 4206822.417732484 3384905.009053269 836770.9461732495
          1921803.3907199968 2090060.3954349407 1258014.734716042 1591655.2051745178 2023244.8535830888 2070008.0242217598
          1345576.1798429117 1739458.4692870677 2124686.316446181 2049955.6530085783 1433137.6249697814 1887261.7333996173
          -2676826.1825697934 -1651363.394705027 -2691606.1624162504 -1725846.9919134337 -2706386.142262708 -1800330.5891218404
          -1071279.4680709331 1327249.3236403146 3269944.3795498926 1789799.910244748 -1123849.9686339137 1381126.855790595
          3173013.059533054 1745651.3061604144 -1176420.4691968944 1435004.3879408757 3076081.7395162145 1701502.7020760803
          993801.4419820051 1075141.7022786844 2134515.563646692 955453.6304215437 1016858.1953876996 2250533.55987039
          917105.8188610824 958574.6884967148 2366551.5560940886 2712954.0097079943 2331089.708023233 1267686.6570869603
          2685015.825411274 2634912.141666995 2365494.5314174327 1339755.7785571555 2559974.900494031 2556870.273625996
          2399899.354811632 1411824.9000273505 2434933.9755767873 325443.95794606296 474014.4290604243 1153959.925985645
          827078.0887742339 268608.69214625563 569279.4649319535 1246241.3375121043 785698.743439566 211773.42634644837
          664544.5008034825 1338522.7490385638 744319.3981048979 329970.9041705513 426150.3793667446 522329.8545629379
          2174874.6407843945 3284913.2089421498 1777820.1623702298 2205627.411033321 3329544.0922927656 1898164.2649574361
          2236380.181282248 3374174.9756433815 2018508.3675446429 843520.8984857071 401099.74993561633 787245.194108784
          495123.0973372945 730969.4897318608 589146.4447389726 945770.046948375 1817033.7710118345 2561855.4433423127
          2414012.105571425 952234.1447253108 1849324.6877386714 2552771.704998628 2416029.546968265 958698.242502247
          1881615.6044655081 2543687.9666549424 2418046.9883651044 -1735329.9212318442 -3832974.2221076693 -4381543.446673259
          -3680953.2078131684 -1842721.280811457 -3991922.8808655236 -4482018.695578282 -3836512.7345908433 -1950112.64039107
          -4150871.539623378 -4582493.944483306 -3992072.261368519 3676327.117942742 2023921.343855649 3479039.683662616
          3710884.825997982 2057575.597565842 3540150.3623983194 3745442.5340532213 2091229.851276035 3601261.041134024
          -3578311.0492308005 1351196.8874194953 -3512866.4312278167 1389728.8783492458 -3447421.8132248335 1428260.8692789963
          299868.74219523044 1285605.2579604161 -768036.2635254462 -873040.30413373 263738.2480073774 1320348.351276285
          -770919.6744839662 -1000245.2310374485 227607.75381952414 1355091.4445921537 -773803.0854424865 -1127450.157941167
          2634843.1177269453 1737798.7992125584 2634143.066026547 1809115.5017387127 2633443.0143261496 1880432.204264867
          112193.7442649582 -336559.93403195846 193086.46680782072 -295241.15031339834 273979.18935068324 -253922.3665948382
          924994.1161118043 1498648.4321203888 855045.1771907841 1535799.937822679 785096.2382697639 1572951.44352497
          -2098555.2186636874 -2942789.8405529945 -3217331.9807565534 -2052680.8316772236 -2140312.5500390567 -2985144.0524836313
          -3204301.978475522 -2010660.0866769322 -2182069.881414426 -3027498.2644142676 -3191271.9761944907 -1968639.3416766408
          1867164.038571058 -2250299.1411069282 1873798.7176678665 -2632157.0793807213 1880433.3967646745 -3014015.017654515
          -465417.5618892381 -430991.08764734375 -396564.61340544955 1702883.4365104025 2278330.452293476 1732961.2573119
          2286363.734873939 1763039.0781133978 2294397.017454401 717872.8781308958 1062988.5004596603 486794.3026998674
          706777.9673447661 1033280.176276437 409173.556618272 695683.0565586364 1003571.8520932137 331552.8105366765
          -1450700.543548566 -1006442.8856676844 -1747971.1915319841 -1417365.0275395678 -935664.2175260952 -1720940.8098692764
          -1384029.5115305695 -864885.549384506 -1693910.4282065688 2822110.375783747 3061374.768850194 3300639.16191664
          2861690.935517412 3082710.609512358 3303730.2835073043 211981.2051773743 510434.7873140683 154440.5833789987
          513962.95738295506 96899.96158062323 517491.1274518417 -263847.4221941338 -156385.38894343024 -48923.35569272662
          -2067547.2022681863 1134137.4724674493 570.6174056159798 -2089945.166957397 1208165.6722300535 -50597.95098048044
          -2112343.131646607 1282193.871992658 -101766.51936657677 -558612.0148899826 406971.09835244354 -700790.662503623
          290436.78832351684 -842969.3101172632 173902.47829459002 -1008061.283933637 -1115266.342411552 -1383378.8638150236
          -1346106.979714577 -1072359.3657207997 -1132202.8543855993 -1412958.8275362707 -1399732.2603779717 -1136657.4475079621
          -1149139.3663596462 -1442538.7912575183 -1453357.5410413663 428070.1757879766 -523871.83215820655 -368480.60495047516
          529711.3629394162 400132.32835268206 -508760.2390320791 -377127.1558550499 463714.5572719 372194.4809173875
          -493648.6459059515 -385773.7067596247 397717.75160438387 1428812.453686833 589066.5488206733 -53801.54595331064
          1469140.5625392601 580439.3419567698 -124521.05312962121 1509468.6713916876 571812.1350928666 -195240.56030593175
          2814647.3120108424 2832960.372144883 2851273.432278923 858057.735402506 751398.1246172902 644738.5138320746
          -539173.5131739955 -1012742.1164194804 -501865.24450553313 -955107.3747676716 -464556.9758370706 -897472.6331158627
          -705341.4709307798 -675149.496253539 -700480.4875292475 -638134.5115091865 -695619.504127715 -601119.5267648338
          3847556.569181026 3946079.8829790694 4044603.1967771132 152408.1086890727 -275680.67331195576 804815.4456109586
          989245.9686663141 195927.40814524423 -323654.8165663478 787177.9060728505 1055818.0219701505 239446.70760141575
          -371628.95982073975 769540.3665347423 1122390.075273987 -213227.6514534125 -255450.4002045418 -297673.14895567123
          -84734.0299344227 -48057.11528686628 -11380.200639309827 -1964228.458738855 -3617323.9961490924 -1968267.3190107157
          -3670293.433402821 -1972306.1792825772 -3723262.870656549 -671234.157585053 -693167.4044622375 -715100.6513394214
          -3838779.710543165 -2525012.0657060253 -3822281.0621526763 -2460094.424658134 -3805782.413762188 -2395176.783610243
          -3861528.3608512324 -4523906.467892008 -5186284.574932783 -972308.3991695973 -932031.9748588502 -942770.0128502273
          -885761.1309478718 -913231.6265308574 -839490.2870368934 -644723.1368687052 -646625.3778856577 -648527.6189026105
          532098.5448531772 521854.2288798759 511609.91290657467 -1043301.6716791135 -1019208.5788846995 -995115.4860902856
          -2822032.193497504 -1801292.609424352 -3203889.316905961 -2108753.3753681723 -3585746.4403144177 -2416214.141311993
          80438.83259572793 132287.67525617342 184136.5179166189 -2402709.8980312934 -508564.7925571901 -2552356.738871356
          -524878.0275565097 -2702003.5797114186 -541191.2625558294 3501555.9940193174 1552876.1921605568 2220292.2730133245
          3434886.572832611 1420285.9797901157 2025347.0941229572 3368217.1516459044 1287695.7674196744 1830401.9152325902
          1913510.915403527 1856552.875256529 2021156.4858955909 1920445.73879571 1821387.5556517956 1997189.9651383006
          1927380.5621878933 1786222.2360470619 1973223.4443810105 1919897.5255777799 3811187.7267136713 1968533.4501287108
          3965715.5908069503 2017169.3746796413 4120243.454900229 717237.9684959749 501536.25322959037 299292.50380377186
          774575.908405272 502700.1400627263 289638.1338119803 831913.848314569 503864.0268958623 279983.7638201887
          -720178.3628051123 219573.35924815034 -763142.7595394863 266554.31616082205 -806107.1562738604 313535.2730734936
          42746.55253965282 39494.18911208641 36241.82568452001 1309600.0688557532 2014134.5384269522 1268990.300702109
          2039714.1682254598 1228380.5325484644 2065293.7980239675 2473149.622027533 2106109.0689237667 2452012.2903665705
          2001382.6948193046 2430874.9587056087 1896656.3207148425 -390605.05476207077 183829.4165017811 -579998.0238084146
          64898.59761507722 -769390.9928547583 -54032.22127162659 -824726.8584259723 -765544.672613844 -706362.486801716
          1293208.2775795953 751717.2535232233 1355072.0233126478 754188.1295468549 1416935.7690457008 756659.0055704864
          1486962.4575851117 1586477.3521466134 1685992.246708115 772340.1761251454 843456.8961011858 914573.6160772262
          1939411.7476203614 2021307.305005204 2103202.862390047 1133319.2580871668 1242627.7504018932 1351936.242716619
          117197.18396994883 144663.58540572712 172129.9868415055 -1502989.7733348182 1912040.18343072 -1638211.4135804777
          2210579.917192785 -1773433.053826137 2509119.65095485 -125910.96838230499 -367949.7052223903 -143300.7290152268
          -350071.18931940576 -160690.4896481486 -332192.6734164213 -3364192.0150738605 -3390985.786736724 -3417779.558399587
          62316.11104979916 79714.14449552714 97112.17794125516 -317813.2861799986 -305689.91710779065 -293566.5480355826
          1868061.5808454426 1843309.1171872658 1818556.653529089 851620.6617093496 1224634.248516755 1597647.8353241603
          -929459.8204408841 -939253.9286672438 -949048.0368936034 2315154.1071029287 1893018.004847709 2336953.709848797
          1951925.9736263715 2358753.312594665 2010833.9424050332 1728396.6363677243 1747713.2916520739 1767029.9469364232
          865669.0412831614 871201.0035199057 842705.6742077016 703489.4816092178 819742.3071322417 535777.9596985296
          694981.6268927373 422579.61401616374 494781.2405334799 660033.4844958264 427948.2674685749 469732.58223109425
          625085.3420989155 433316.9209209861 444683.92392870854 250984.73007678526 226819.6701716876 202654.61026658997
          1615013.5921970326 1649729.973854252 1684446.3555114712 856236.3756997376 1550809.604939654 852742.6546064015
          1602104.5805990908 849248.9335130653 1653399.5562585278 2256655.886631181 2863898.338589372 2286930.9400080396
          2882097.984559183 2317205.993384898 2900297.630528995 3533874.7914622906 3598125.1547934134 3662375.518124535
          3069253.265763953 4152778.1677602576 3033583.7997931084 4247510.556328512 2997914.333822264 4342242.944896764
          -3614954.3464828515 1346890.264648817 -2064932.924527808 -3794679.3981344732 -3681383.1822076803 1680329.7083596317
          -2036478.9373136018 -3722144.0394493337 -3747812.017932508 2013769.1520704469 -2008024.950099396 -3649608.680764195
          -1083218.2817004507 -1025596.3585280633 -967974.4353556759 -1596954.575979739 -1550171.6906778922 -1503388.805376046
          -330744.196977319 137852.72489788465 -431339.5252734849 -16000.554608179393 -531934.8535696507 -169853.8341142433
          600633.995831319 622082.85672305 643531.7176147811 110872.34565854495 82760.30287594482 177697.9197930628
          -29243.38908727192 244523.49392758065 -141247.0810504887 -2266793.552960532 -2879370.306589221 -2269480.4082596875
          -2918846.113070799 -2272167.2635588436 -2958321.919552377 508277.9082411446 564602.8909707528 620927.873700361
          3335552.935159944 4549909.023938482 3445470.9609710565 4754321.492493838 3555388.986782168 4958733.961049194
          -3653440.7592841894 -2925534.7415835094 -2167635.898284266 -2931164.9486441207 -3647859.7267231653 -2868697.5255181757
          -2117502.345865614 -2977204.071371879 -3642278.6941621425 -2811860.3094528415 -2067368.7934469625 -3023243.1940996367
          -215774.31184346063 -232283.01935112537 -248791.7268587901 -2470953.410088794 -3521712.7779089734 -2485661.1477205553
          -3421017.074332468 -2500368.885352316 -3320321.3707559626 222578.35724118195 3019343.4436973725 199475.24228343373
          3183199.988183286 176372.12732568558 3347056.5326692015 3204766.3781250804 3290404.234604038 3376042.0910829953
          1545580.4708195017 1543618.7842402144 1541657.0976609264 -549491.4904250097 -597229.2088336155 -644966.9272422213
          -1519535.036476173 -1596659.6780724116 -1673784.3196686497 -3202989.2473965734 -3296170.882239052 -3389352.5170815308
          -1313252.4804099903 297317.6367589009 -1350541.0550537594 211289.4538519592 -1387829.6296975287 125261.27094501746
          -1445975.2912565132 -1502653.8348342762 -1559332.3784120393 2511918.0747236693 3113839.083931871 3715760.093140073
          951079.9536982824 917969.4375540798 884858.9214098772 1183761.791511335 1143416.4163309108 1103071.0411504863
          -3383010.662976034 -3388716.6264133705 -3394422.5898507074 1982179.1192513858 2001809.4742487413 2021439.8292460965
          2821340.826074619 2765823.4010977373 3805936.454234006 2773059.3155610724 2779376.256509246 3813950.7643957017
          2724777.8050475265 2792929.1119207554 3821965.0745573984 1395909.3243030114 1723591.5187528129 2051273.7132026139
          194287.85856382508 924714.5512708839 37944.98974704205 707340.4957686005 -118397.87906974101 489966.4402663172
          -3043938.487248886 -3106021.2961514415 -3168104.1050539976 -3360415.763485952 -3336621.2786203795 -3312826.7937548077
          3931620.7917226236 3885966.533714052 3840312.27570548 -2906038.5082748467 -2863914.0701326113 -2821789.631990376
          -310565.95775895385 145255.47653060066 -257585.7735839406 174552.30776790268 -204605.5894089273 203849.13900520478
          -4133048.740101375 -4135155.1930841953 -4137261.646067015 -1690882.5760054016 -1780146.3742976128 -1869410.1725898243
          -4190712.2497683503 -4688885.809669466 -5187059.36957058 200251.41617211825 226605.38537755175 252959.35458298528
          843126.9352747379 822539.1349763147 801951.3346778917 2564077.1400981057 2787660.277244953 3011243.4143917994
          963606.2909802377 754588.954222034 841836.6314712659 734378.5135969025 720066.9719622942 714168.072971771
          -934739.4055400317 -1020972.1459450496 -1107204.8863500678 -998145.5981361207 -149878.72999983217 -1020145.0844576975
          -178506.4913250078 -1042144.5707792742 -207134.25265018348 703417.7192975132 673476.0060334943 643534.2927694754
          466409.248582744 433074.2600533081 399739.27152387216 -1111380.8488077526 -1200889.9695867326 -1290399.090365713
          -403368.2327551651 -2188366.151473414 -237601.25159845175 -2103864.342291631 -71834.27044173889 -2019362.5331098475
          -794655.5086451382 -780996.747633058 -767337.9866209779 -1968479.8607795795 -2044572.5552056895 -2120665.249631799
        </DataArray>
        <DataArray type="Float64" Name="peeq" format="ascii" RangeMin="0.0006363855685410506" RangeMax="0.006331294280731977">
          0.0025928449492030785 0.0024936613552072303 0.002085213202883898 0.002252422847718257 0.0025923471000083953 0.0024931035706978926
          0.002085378943936515 0.0022528157599253063 0.002591849250813712 0.0024925457861885553 0.002085544684989132 0.0022532086721323554
          0.0038187149160027753 0.0036581014360087217 0.00372395882119431 0.003915773403448849 0.0038178122934997933 0.0036578874478788125
          0.0037241630040040427 0.003915564290439651 0.0038169096709968118 0.0036576734597489023 0.0037243671868137755 0.003915355177430453
          0.0013430341051546728 0.0016574784573081913 0.001343304980243386 0.001658201257185814 0.0013435758553320995 0.0016589240570634366
          0.004984335454857207 0.005083538263183409 0.004490567545304044 0.004530430876539042 0.004984371561732511 0.005082741714781638
          0.004489121949983372 0.0045283454015956175 0.004984407668607816 0.005081945166379867 0.004487676354662698 0.004526259926652193
          0.0038666716242802 0.004092644315904409 0.003867870635333535 0.004093166586556903 0.00386906964638687 0.004093688857209399
          0.0037665812454809786 0.0035796555984738687 0.003659155514683686 0.0039035147410891122 0.0037649504770466504 0.0035805040041967974
          0.003656259594561918 0.0038966888367901707 0.0037633197086123227 0.003581352409919726 0.0036533636744401515 0.0038898629324912288
          0.005015623765172801 0.0054492172606652855 0.005148692387928923 0.0047908898555215785 0.005014082659576239 0.005444673693055045
          0.00514588075870921 0.0047904439977127485 0.005012541553979675 0.005440130125444804 0.0051430691294894965 0.004789998139903919
          0.0024204001363833587 0.0026888873353644225 0.0024214151350990306 0.002688860461511582 0.002422430133814703 0.002688833587658742
          0.003438624044065287 0.003188743811111699 0.0041333589002079014 0.004229466433311509 0.0034353881664775923 0.003186609049067272
          0.004130163111971633 0.004226790657074886 0.003432152288889897 0.0031844742870228452 0.004126967323735366 0.004224114880838263
          0.003059307751868172 0.0031385811915882298 0.003466995268861955 0.0030581075164182745 0.003137412434539728 0.0034663191687853553
          0.003056907280968377 0.0031362436774912267 0.0034656430687087557 0.0060508851750582845 0.006286929438532875 0.006157303206236162
          0.005952456745421165 0.006044018312217299 0.006281306477548959 0.006151014161883989 0.00594525127004758 0.006037151449376314
          0.006275683516565044 0.0061447251175318135 0.005938045794673993 0.004211407602139099 0.004391628013711707 0.004096143605310602
          0.004074797785721345 0.00421048150559711 0.0043918511584647 0.004096910290692691 0.004074391891314401 0.00420955540905512
          0.004392074303217694 0.00409767697607478 0.0040739859969074555 0.004783025012503827 0.004783341798898765 0.004783658585293701
          0.003783973953740519 0.003586285783839882 0.003439259150170762 0.003783308885448722 0.003585834488807015 0.003440017694596454
          0.003782643817156926 0.003585383193774147 0.0034407762390221463 0.00429863813786804 0.004622793294343666 0.004296965766734584
          0.004622596108168907 0.004295293395601127 0.0046223989219941475 0.00544568280890851 0.005161219371360362 0.00547601622475533
          0.00581563401510359 0.0054458888373385955 0.005162308307548651 0.005476133842597546 0.005814428675218282 0.005446094865768679
          0.0051633972437369405 0.005476251460439761 0.0058132233353329725 0.0022477648815653795 0.002640616275059092 0.0019491422910061593
          0.0013795468327986453 0.002247134110060342 0.0026381339861247023 0.0019487488739568903 0.0013832007187170726 0.002246503338555304
          0.0026356516971903126 0.001948355456907621 0.0013868546046355 0.004544765941448283 0.004298154472244571 0.004301571241239451
          0.004546162767199852 0.0042988032386063095 0.00430330513603008 0.00454755959295142 0.004299452004968047 0.00430503903082071
          0.0009519121443537336 0.002049866529404004 0.0009585737563462677 0.0020500296184482627 0.0009652353683388019 0.0020501927074925213
          0.003897334048010119 0.004052136054534718 0.004505881871416325 0.004611519835237943 0.003895271128694399 0.004051458925707551
          0.004504016031679472 0.004606908135390455 0.0038932082093786798 0.004050781796880383 0.004502150191942618 0.004602296435542968
          0.0048415970329466745 0.004534029777606275 0.004843095660163701 0.004534753769533894 0.004844594287380727 0.0045354777614615115
          0.003397329582723361 0.0036692853328820782 0.003393018419917834 0.0036639743818750363 0.0033887072571123066 0.0036586634308679957
          0.0047253807126628345 0.004143669604436805 0.0047218356528492995 0.004142955138503102 0.004718290593035765 0.004142240672569398
          0.002757670928651457 0.0025463324435679256 0.0025304024837915014 0.002821835154902357 0.0027587070704433044 0.002547990371585379
          0.0025327499273278646 0.00282396177737507 0.0027597432122351516 0.0025496482996028333 0.0025350973708642274 0.0028260883998477825
          0.0032189542473969415 0.0030425956276722006 0.0032190544319346003 0.003041519304012386 0.0032191546164722588 0.0030404429803525725
          0.003069365921003955 0.0030655412985041604 0.003061716676004366 0.0037625244070597207 0.0035621683423611955 0.003763979570554637
          0.003563245960851576 0.0037654347340495544 0.003564323579341956 0.003863180725663768 0.0038550593364595253 0.00388416387783045
          0.0038611537569976442 0.0038532513272617483 0.0038796034072456818 0.003859126788331521 0.003851443318063971 0.003875042936660913
          0.0032337237714765888 0.003466082977484899 0.0027092075650237994 0.003230806040424569 0.0034638795147852734 0.002706015479510172
          0.003227888309372551 0.0034616760520856473 0.0027028233939965446 0.0032464271307980786 0.0032489314785318227 0.003251435826265567
          0.00306546543465244 0.003063780365661928 0.0030620952966714157 0.004093561426213116 0.004168453287116369 0.004090755584752588
          0.004165034913188551 0.00408794974329206 0.0041616165392607315 0.003677173953814533 0.003675106878132372 0.0036730398024502104
          0.0026929344208376977 0.0030650868916660915 0.003257957281198417 0.002695281849351267 0.0030678537221711425 0.003257920724235428
          0.002697629277864837 0.0030706205526761935 0.003257884167272439 0.005093706090184872 0.005244041151012186 0.0050873854220598955
          0.005237971455471322 0.005081064753934919 0.00523190175993046 0.0012719315093771377 0.0010314162589901623 0.0010394746129601842
          0.0013587653443599722 0.0012722696578129314 0.0010324177204571723 0.0010409536326544083 0.0013594645948398964 0.0012726078062487247
          0.0010334191819241824 0.0010424326523486324 0.0013601638453198204 0.0022856875168342076 0.001825908855950977 0.0019404677088212113
          0.0023929232102802385 0.0022857651731751005 0.0018266306689199634 0.0019407839911943082 0.0023925042337624275 0.002285842829515994
          0.0018273524818889497 0.001941100273567405 0.002392085257244616 0.003904353392185694 0.0036252913341565662 0.00392853442274226
          0.0039027219639878635 0.003624180881233697 0.003926395202928877 0.003901090535790034 0.003623070428310828 0.003924255983115495
          0.0037216715965898263 0.0037213852504434752 0.0037210989042971237 0.0038776529999348212 0.003870338615390465 0.0038630242308461088
          0.00085024900858094 0.0007537262305714485 0.0008522786474145146 0.0007561813984670318 0.0008543082862480893 0.0007586365663626152
          0.0014147162004347273 0.0017376789320598651 0.0014158574040419915 0.0017386893393811626 0.0014169986076492556 0.0017396997467024602
          0.0034440803446318512 0.003445591993794366 0.00344710364295688 0.0029647764481412608 0.0032291899305019246 0.003186351549409363
          0.0028056289626319925 0.0029654587571585657 0.0032295233642205805 0.003185869819130862 0.0028055825809514172 0.0029661410661758706
          0.0032298567979392365 0.0031853880888523616 0.002805536199270842 0.0035386764699385873 0.003537885162587563 0.003537093855236539
          0.002956638199709431 0.0029571967695297555 0.00295775533935008 0.0033045309546037935 0.0028873795349941478 0.003304967435836834
          0.002887753356018386 0.0033054039170698746 0.0028881271770426235 0.0025827559997885956 0.002586252597234402 0.0025897491946802087
          0.0026220435299357295 0.0029680121166272893 0.002623876362750914 0.002970293267960909 0.0026257091955660997 0.0029725744192945283
          0.0026447905210932134 0.002644879442170385 0.0026449683632475567 0.003061227358421034 0.003136520421102145 0.0030619644576849116
          0.0031381584324226683 0.0030627015569487893 0.003139796443743191 0.003008502259996975 0.0030087580271237605 0.0030090137942505447
          0.0027349799181671424 0.00273433563242852 0.002733691346689899 0.0032938254083603067 0.0032962591809869903 0.003298692953613673
          0.002311873331438863 0.002751995637957014 0.00231199420204674 0.0027519285501166396 0.0023121150726546154 0.002751861462276265
          0.0036230649655340213 0.0036247346639998795 0.0036264043624657377 0.003927887272555037 0.0038815684056770806 0.003925986983005327
          0.0038802635882336065 0.003924086693455616 0.0038789587707901314 0.00553082319367874 0.005760909157813653 0.005499513125282215
          0.005525967605374649 0.005754290595574394 0.00549526222725781 0.005521112017070558 0.005747672033335137 0.005491011329233404
          0.006255577125357738 0.006035852151496275 0.006011954774843399 0.006251748503631823 0.006033703002949145 0.006009010941273879
          0.006247919881905912 0.006031553854402015 0.006006067107704358 0.0023941257232935453 0.0030681770293882983 0.0023962963335508545
          0.003070902077921223 0.0023984669438081633 0.003073627126454148 0.003970142219550939 0.003910952772677261 0.003830283125085199
          0.003968502563679865 0.003908618434555941 0.0038286668200042066 0.003966862907808793 0.003906284096434618 0.0038270505149232137
          0.0042131814856702235 0.004057636801698775 0.00421183829264727 0.004057242555816287 0.0042104950996243165 0.004056848309933799
          0.00201710843446964 0.002017634146782514 0.0020181598590953884 0.006102885795190366 0.006331294280731977 0.006100440488051502
          0.006327804675308376 0.006097995180912639 0.006324315069884774 0.006329049434060838 0.006088807181323619 0.006323803808436232
          0.006082226438119776 0.006318558182811625 0.006075645694915934 0.005441241786776334 0.005654057782605541 0.005434135339606298
          0.005646703317214355 0.0054270288924362624 0.00563934885182317 0.004878108894752015 0.00487570607329827 0.004873303251844528
          0.005678514502880773 0.005625167297629304 0.005677105122064305 0.005624327270026314 0.005675695741247836 0.0056234872424233235
          0.005097661082084986 0.005096066194529016 0.005094471306973046 0.003408446801463569 0.0034089664032597236 0.0034094860050558787
          0.004429697514475087 0.004428197066314799 0.004426696618154512 0.0033303438124199433 0.003331528623695702 0.00333271343497146
          0.003345257076985582 0.0033458853879484163 0.0033465136989112494 0.0038834227823907096 0.0037434996147403844 0.0038847773255673993
          0.003745643186858902 0.0038861318687440894 0.0037477867589774195 0.0035992008582773818 0.0034511077665165366 0.0036012232214905917
          0.003452179039723491 0.0036032455847038016 0.003453250312930444 0.0024013565511420525 0.0024029044905408267 0.0024044524299396005
          0.0021825010145378435 0.0021830609331942408 0.0021836208518506385 0.0033816111369515843 0.0033820561099191394 0.0033825010828866953
          0.0038948148323104696 0.003894736879530317 0.0038946589267501637 0.0019735534315873785 0.001978507391294289 0.0019834613510011996
          0.0017220298471799192 0.0017238711193619805 0.0017257123915440417 0.004804772359321217 0.00429659667532503 0.004804509970365358
          0.004298411938975982 0.004804247581409499 0.0043002272026269345 0.005302137696587167 0.0052996541738306955 0.005297170651074224
          0.005910644320581 0.005640655888626653 0.005903347968236039 0.0056331436091708 0.005896051615891078 0.005625631329714949
          0.002641927837136221 0.002951289118058508 0.0025269367288398856 0.0026412529874605267 0.002950513181688366 0.0025267333287481587
          0.002640578137784833 0.002949737245318224 0.0025265299286564313 0.0024059632133633106 0.0024063969725080197 0.0024068307316527284
          0.005736019793122004 0.00573179289291389 0.005727565992705775 0.0036422966031770883 0.0036599056165833622 0.003642218869771385
          0.003659697269356963 0.003642141136365682 0.003659488922130564 0.005672684441890829 0.005256181939118955 0.005671267294648032
          0.005256501589189311 0.005669850147405236 0.005256821239259669 0.004820139235692538 0.00482202215792832 0.004823905080164103
          0.005095186151675468 0.004733818516575601 0.005096542238045615 0.004736038668917855 0.005097898324415763 0.004738258821260109
          0.0011114990270378086 0.0013363808655241535 0.0011565608862144344 0.0009174192776654586 0.0011158585267937726 0.0013423507694206248
          0.0011611246062519192 0.0009222521777950725 0.0011202180265497367 0.0013483206733170962 0.0011656883262894041 0.0009270850779246867
          0.0015266034018433852 0.0015280194636084175 0.00152943552537345 0.0021600118156948674 0.0021646762779569213 0.0021693407402189756
          0.003959682935795776 0.003992510511243857 0.003957648319542481 0.003990736078945383 0.0039556137032891875 0.003988961646646911
          0.003873545879950274 0.0038761151306154432 0.0038786843812806124 0.004080151397514227 0.0040020958561356864 0.004078165062746225
          0.003998649559394374 0.004076178727978224 0.003995203262653061 0.002972593058065539 0.0023426739079882635 0.0029691734897024312
          0.002340466060356993 0.0029657539213393236 0.0023382582127257235 0.0028109522104693687 0.0028111769008569046 0.0028114015912444404
          0.004416066461401245 0.004479981944773369 0.004418968582053649 0.0044826953420066895 0.004421870702706051 0.00448540873924001
          0.001854483128694236 0.0019821525934682663 0.0017235039057037413 0.001507137270222677 0.0018562559908164556 0.001983867238238914
          0.0017251067366232853 0.0015089760818759155 0.0018580288529386753 0.0019855818830095615 0.001726709567542829 0.001510814893529154
          0.00389469585234278 0.0038922384535559577 0.0038897810547691355 0.0011758892429798037 0.0009098957712616328 0.0011781598340183783
          0.0009135387649767984 0.001180430425056953 0.0009171817586919638 0.0043117800351642034 0.004933509997746263 0.004309470381642134
          0.0049313636724399295 0.004307160728120063 0.004929217347133598 0.004954463113399514 0.004950849926156779 0.004947236738914044
          0.0037540370093358134 0.003752346110828537 0.0037506552123212607 0.003801290378012144 0.0037980926608248877 0.003794894943637631
          0.001499440182306076 0.0015027776869688042 0.0015061151916315326 0.000906853667267841 0.00090945362830782 0.0009120535893477988
          0.0036552311770779045 0.004339098060987473 0.003651487652364693 0.0043369854316157655 0.0036477441276514815 0.004334872802244058
          0.0010757051267262852 0.0010774627307571095 0.0010792203347879338 0.0016403873759069556 0.001644724384374853 0.00164906139284275
          0.0039289938330237945 0.003926062929305642 0.003923132025587491 0.006043108575847009 0.006038001131861272 0.006032893687875536
          0.0007691650500626101 0.0007724400241174586 0.0007757149981723074 0.0040920373952218255 0.004094538485522194 0.004097039575822562
          0.00563703737542324 0.0055999908891687655 0.004967267817867337 0.005631429434963535 0.00559453694699248 0.004962962679499169
          0.00562582149450383 0.005589083004816194 0.004958657541131001 0.0016860419557690634 0.0016921917663224944 0.001698341576875925
          0.004048734485295954 0.003931804334735448 0.004044700152529958 0.003928167061441711 0.004040665819763962 0.003924529788147973
          0.0019187631426730275 0.0019213162220626454 0.0019238693014522635 0.0022559883799493233 0.0022579818362762306 0.0022599752926031388
          0.004085826693133101 0.004082345517094309 0.004078864341055517 0.0008408197305100013 0.0008439782454104948 0.0008471367603109883
          0.0016794101872605847 0.00208887643734951 0.00168038923481282 0.0020896148982396637 0.0016813682823650555 0.002090353359129818
          0.00224192855222418 0.0022436534849506733 0.0022453784176771664 0.0006363855685410506 0.0006382005708404066 0.0006400155731397626
          0.004126143476730763 0.004125033575371296 0.004123923674011828 0.004157921931698843 0.004155086231083221 0.004152250530467597
          0.006202200759843569 0.006197084127126283 0.006191967494408995 0.0037041723629243 0.003703408654857514 0.003702644946790729
          0.0038778085503794885 0.003820780895604854 0.0038750368315670952 0.003819144906024136 0.003872265112754701 0.003817508916443418
          0.004304367307506418 0.004301970837190813 0.004299574366875208 0.0036736096786937115 0.0036977326829731273 0.0036739371129937562
          0.003696949461728701 0.0036742645472938014 0.0036961662404842747 0.0038377637772387956 0.0038363357969721187 0.0038349078167054422
          0.0036384606712521338 0.0036380424308905465 0.0036376241905289597 0.003852295929396875 0.0038513764003570237 0.0038504568713171724
          0.0031684292930324476 0.003250823030342617 0.0031724725319348668 0.003255006843056999 0.003176515770837286 0.003259190655771381
          0.0036436170769173558 0.003645304018711893 0.0036469909605064306 0.003821548185050476 0.0038220307635004284 0.0038225133419503812
        </DataArray>
        <DataArray type="Float64" Name="pe11" format="ascii" RangeMin="0.000636171747376788" RangeMax="0.006329554852105651">
          0.0025922836384654115 0.002493198986371972 0.0020847279743729996 0.00225165733017836 0.002591771289182618 0.002492632396267728
          0.002084883442250616 0.0022520262966205266 0.002591258939899825 0.002492065806163484 0.0020850389101282328 0.002252395263062693
          0.0038177390336481985 0.0036569530431105135 0.0037218020066011152 0.003913618849852046 0.0038168021158189536 0.003656690477621931
          0.003721943973410258 0.003913358243842619 0.0038158651979897096 0.0036564279121333483 0.0037220859402194 0.003913097637833192
          0.0013428790051580783 0.0016572966184211645 0.0013431456000273002 0.0016580139877377738 0.001343412194896522 0.0016587313570543827
          0.0049802531149574945 0.005079440706038693 0.00448707957570115 0.004527158616136542 0.00498017996899244 0.005078540751659932
          0.004485595193407242 0.004524954784663879 0.004980106823027385 0.005077640797281171 0.004484110811113335 0.004522750953191215
          0.003862973999474247 0.004088977600335959 0.0038641095985728693 0.0040894436014193986 0.0038652451976714914 0.0040899096025028385
          0.003764885180236362 0.0035770725440375066 0.00365685178732965 0.003902779177103611 0.0037632185211904576 0.0035779095100757163
          0.003653922584349008 0.0038959004778754682 0.0037615518621445534 0.0035787464761139246 0.0036509933813683657 0.0038890217786473253
          0.005014216527994904 0.005447160560840515 0.005146071027059973 0.004789488688078956 0.005012701379401852 0.005442627501875669
          0.00514330720367106 0.004789089601268991 0.005011186230808799 0.00543809444291082 0.005140543380282146 0.0047886905144590266
          0.0024191456388407066 0.0026879902453887843 0.0024201137296684058 0.0026879353882372737 0.0024210818204961054 0.002687880531085763
          0.003436058203854565 0.00318607265698438 0.0041315116629406755 0.004227921865927744 0.0034328382105523513 0.0031839158874899486
          0.004128323302366097 0.004225260905609697 0.0034296182172501386 0.0031817591179955167 0.004125134941791519 0.004222599945291649
          0.0030589771045834205 0.0031382022574164745 0.003466513689296622 0.0030577817092454617 0.0031370372433155436 0.0034658366170942033
          0.0030565863139075033 0.003135872229214612 0.0034651595448917847 0.006050339020306811 0.006286016308006719 0.006155741557845953
          0.00595133324256979 0.006043482613509576 0.00628035668717337 0.0061494211863928755 0.005944123803976563 0.00603662620671234
          0.006274697066340021 0.006143100814939799 0.005936914365383335 0.0042103467980327955 0.0043891371506518465 0.004092874001381128
          0.004073321727713432 0.004209456943455395 0.004389421211128018 0.004093713046125626 0.004072944686598716 0.004208567088877994
          0.004389705271604188 0.004094552090870122 0.004072567645484 0.004778734602760702 0.0047789758614346055 0.004779217120108509
          0.0037821387060672125 0.0035834870534890173 0.003435844057779678 0.003781438757584582 0.0035830168968955627 0.003436567152900353
          0.003780738809101953 0.003582546740302108 0.0034372902480210286 0.004297914467704129 0.004621126539404999 0.004296265695276141
          0.0046209751937178155 0.004294616922848151 0.004620823848030633 0.0054410538330807385 0.005156036840797809 0.0054705982927533685
          0.00581107015614562 0.005441160781804612 0.005157055311243443 0.005470641657593174 0.005809773658731951 0.005441267730528485
          0.005158073781689076 0.005470685022432982 0.005808477161318283 0.002244970390885417 0.0026375439268863754 0.0019458450057436134
          0.0013772646463641367 0.002244307917960724 0.002635060266274809 0.0019453768653005085 0.0013808531050621138 0.0022436454450360313
          0.0026325766056632415 0.0019449087248574037 0.0013844415637600904 0.004539405458874179 0.004294328112688771 0.004296304150375287
          0.004540749496867842 0.004294931793503386 0.004297987309921035 0.0045420935348615046 0.004295535474318002 0.004299670469466783
          0.0009507123084199174 0.002047601638947147 0.0009573205577954459 0.0020476911903584295 0.0009639288071709743 0.0020477807417697124
          0.0038906107817083453 0.004047148296744714 0.0045015684253860225 0.0046049942088748075 0.0038885259866951274 0.004046535940874942
          0.00449976487058 0.004600393171330378 0.0038864411916819117 0.004045923585005169 0.004497961315773978 0.004595792133785949
          0.00483618479027819 0.004529988875226869 0.004837625053291305 0.004530667727916569 0.004839065316304421 0.004531346580606271
          0.0033956615871027526 0.003668269786874145 0.00339127932405139 0.0036629127957322127 0.0033868970610000278 0.003657555804590282
          0.004717903289588139 0.004136305684185266 0.004714295640251766 0.004135511480478357 0.004710687990915395 0.004134717276771449
          0.0027560514832361267 0.002544571767706628 0.0025275146128768363 0.0028188118534165827 0.002757039113835103 0.0025461645743173455
          0.0025297710013612645 0.002820864739301363 0.002758026744434079 0.002547757380928063 0.002532027389845693 0.0028229176251861423
          0.0032139542477039535 0.0030367213067678984 0.003214104162090492 0.0030355914978280746 0.003214254076477032 0.0030344616888882507
          0.0030670420167833124 0.0030631292470090863 0.0030592164772348606 0.0037587387862922307 0.0035569136595878558 0.003760283050251841
          0.0035580754022572813 0.0037618273142114513 0.0035592371449267067 0.0038624348438262486 0.003853778888406589 0.0038834249555376957
          0.0038603874110718617 0.00385194581564247 0.0038788103831155843 0.0038583399783174758 0.0038501127428783506 0.0038741958106934733
          0.003231711642433541 0.003464673819548955 0.0027064105352032435 0.0032287400736558773 0.0034624120546604725 0.002703127809754658
          0.003225768504878214 0.0034601502897719898 0.0026998450843060723 0.0032420796308839576 0.003244598870874158 0.0032471181108643583
          0.003063057302069464 0.003061312850678689 0.0030595683992879147 0.00409314337230759 0.004168066065053471 0.004090344090124742
          0.0041646504605948155 0.004087544807941896 0.004161234856136161 0.003676328167666006 0.0036742194303581678 0.00367211069305033
          0.0026866598205694085 0.0030593112307855195 0.003251657743791011 0.00268907235142969 0.0030622094048466412 0.0032516352119328308
          0.002691484882289971 0.003065107578907763 0.003251612680074651 0.0050887022045379565 0.00523833918021315 0.005082413013239794
          0.005232238184782665 0.005076123821941632 0.005226137189352182 0.0012717509418202623 0.0010312669665449874 0.001039341451145114
          0.001358562216930645 0.0012720847736810766 0.0010322680083004918 0.0010408196811881384 0.00135925509386543 0.0012724186055418907
          0.0010332690500559963 0.0010422979112311628 0.0013599479708002152 0.0022853219741360725 0.0018256071359076087 0.001940110780480542
          0.002392483588197859 0.0022853976870460305 0.0018263255758154673 0.0019404227929855267 0.0023920586075482572 0.0022854733999559886
          0.001827044015723326 0.001940734805490512 0.0023916336268986556 0.003903842101744268 0.0036247952284346936 0.003928109085293298
          0.003902209739551892 0.0036236849376023875 0.003925967389006239 0.0039005773773595153 0.0036225746467700806 0.00392382569271918
          0.0037192027508538266 0.0037189460160218634 0.0037186892811899 0.0038771914136305407 0.0038698199266183854 0.003862448439606231
          0.0008500952702412339 0.0007536149938751583 0.0008521244661768336 0.000756073237559533 0.0008541536621124333 0.000758531481243908
          0.001414487657032713 0.0017374094814638938 0.0014156233930273311 0.001738414070269443 0.0014167591290219492 0.0017394186590749929
          0.0034399770360226496 0.003441590417287369 0.0034432037985520888 0.0029642729274217726 0.003228687195275934 0.003185876164670911
          0.0028051477332445684 0.0029649468740126045 0.0032290176201382006 0.0031853940245920582 0.0028050938083633748 0.002965620820603437
          0.0032293480450004686 0.003184911884513205 0.0028050398834821807 0.0035382032064910844 0.003537410421020359 0.003536617635549633
          0.002956076172409076 0.002956624775101006 0.0029571733777929367 0.003298395854026742 0.0028812549449695924 0.003298753015197928
          0.0028815589820861878 0.0032991101763691147 0.0028818630192027823 0.0025767172114172835 0.0025803242446158746 0.002583931277814466
          0.0026174923113738806 0.0029631447735269474 0.0026192160973750747 0.002965334210825744 0.0026209398833762685 0.0029675236481245407
          0.0026385405305156743 0.002638598430731283 0.002638656330946891 0.0030597951843587944 0.0031338379650349486 0.0030605039044067687
          0.00313542620815296 0.0030612126244547425 0.0031370144512709707 0.0030076609694169583 0.003007902221162728 0.003008143472908497
          0.0027346126528684372 0.002733968094914611 0.002733323536960785 0.0032892542991295203 0.00329162000763704 0.0032939857161445605
          0.0023049957501159193 0.0027453843811936023 0.002305036194458182 0.0027452772843593698 0.002305076638800445 0.002745170187525137
          0.0036171570312403334 0.0036187537089771658 0.0036203503867139972 0.003926326338632085 0.0038803006805895367 0.0039243542114030935
          0.0038789483414748355 0.003922382084174102 0.003877596002360133 0.005529640145204436 0.005759267811938736 0.005497954285283595
          0.005524800027761571 0.005752637479682108 0.005493710855492718 0.0055199599103187055 0.005746007147425481 0.005489467425701843
          0.006253280618679441 0.006032279151780296 0.006007994399230875 0.006249373693741757 0.006030011359078834 0.006004979508349949
          0.006245466768804072 0.0060277435663773716 0.0060019646174690215 0.0023869121949263617 0.0030625573863620748 0.002389148586840749
          0.0030653335567981657 0.0023913849787551367 0.003068109727234256 0.0039694740982948815 0.003910506284414428 0.0038295920502296505
          0.003967828329534925 0.0039081637179498654 0.0038279658710256314 0.003966182560774968 0.0039058211514853038 0.003826339691821613
          0.004210750974263708 0.004055376815762447 0.004209349117960089 0.004054938455770954 0.004207947261656471 0.0040545000957794616
          0.002016881394222683 0.002017398077892885 0.0020179147615630873 0.006099795702450353 0.006329554852105651 0.006097214817584361
          0.006325968142146221 0.00609463393271837 0.0063223814321867935 0.006328396535819554 0.006088420043509544 0.006323112024223433
          0.006081858513294372 0.006317827512627312 0.0060752969830792005 0.0054376101361561045 0.005649799513292783 0.005430517369571768
          0.005642425053027049 0.005423424602987432 0.005635050592761317 0.004874701636626571 0.0048723604967509885 0.004870019356875406
          0.005674218672768546 0.005620901699142707 0.0056726729106279655 0.005619935212896686 0.005671127148487385 0.005618968726650665
          0.005093163093871389 0.005091478577918103 0.005089794061964817 0.003407933027789788 0.003408446582999569 0.0034089601382093493
          0.004425347618964726 0.004423874304416821 0.004422400989868918 0.0033297503395239613 0.0033309222488482554 0.0033320941581725504
          0.0033444807633576734 0.00334509005606219 0.0033456993487667053 0.003879813281615956 0.003739036983987097 0.0038812011170539845
          0.0037413186756541403 0.0038825889524920125 0.0037436003673211836 0.0035952414060271038 0.0034488386920842433 0.0035972023598944986
          0.003449859181104657 0.0035991633137618935 0.0034508796701250696 0.002396030858505805 0.002397535862389044 0.0023990408662722834
          0.002182188623102932 0.0021827465436329288 0.0021833044641629256 0.003380403605791591 0.003380814693372442 0.003381225780953293
          0.003892872283285486 0.0038928275799670125 0.0038927828766485376 0.001967961206926962 0.001972959530030939 0.001977957853134916
          0.001716396721104283 0.001718202820290784 0.0017200089194772845 0.004797562946288186 0.004289606752411442 0.004797226117424055
          0.004291337626289842 0.004796889288559923 0.004293068500168243 0.005295955771842632 0.005293419600687551 0.005290883429532472
          0.005908030236115268 0.005638063905919851 0.005900711673298345 0.005630539994757724 0.005893393110481425 0.005623016083595595
          0.0026415874921370047 0.0029509889144213406 0.002526626993030813 0.0026409153024774036 0.0029502175030949296 0.0025264226858473376
          0.002640243112817802 0.002949446091768519 0.002526218378663862 0.0024057083559316855 0.0024061360306577738 0.002406563705383862
          0.005731118612924045 0.005726849626514855 0.005722580640105664 0.003641617968469207 0.003659354694304575 0.0036415078611556494
          0.0036591218829788255 0.0036413977538420905 0.003658889071653076 0.0056673682366148274 0.005249744639375699 0.005665887399348524
          0.005250016437320643 0.005664406562082221 0.005250288235265586 0.004813015035388236 0.004814856048594575 0.0048166970618009125
          0.005089076692403194 0.004727311081393817 0.005090374184534366 0.00472948962649414 0.005091671676665535 0.004731668171594463
          0.0011095108098109854 0.0013337860936157456 0.0011549717567765844 0.0009165457989216924 0.0011138547106033744 0.0013398221140886915
          0.0011595800793469115 0.0009213925194178624 0.0011181986113957634 0.0013458581345616376 0.0011641884019172389 0.0009262392399140326
          0.0015262269036159458 0.0015276370773154467 0.0015290472510149475 0.002154167461808884 0.002158937585039948 0.002163707708271012
          0.003959209305007805 0.003991922845920457 0.003957180632029126 0.003990154046980987 0.003955151959050447 0.003988385248041516
          0.0038678662037495743 0.003870364013837291 0.0038728618239250072 0.00407969490353797 0.0040017005150884445 0.004077704108025842
          0.003998248610492679 0.0040757133125137145 0.003994796705896912 0.002970033345329988 0.0023397543260912845 0.002966583764086085
          0.0023374575034023296 0.002963134182842181 0.0023351606807133747 0.002810696386453012 0.002810921476366042 0.002811146566279072
          0.004409386957046993 0.004473596143969846 0.004412236162151311 0.004476271108354766 0.004415085367255629 0.004478946072739686
          0.0018518958779071793 0.0019807809941823113 0.0017227685511034838 0.0015057435547330227 0.0018536234513914325 0.0019824622670239155
          0.0017243589069470108 0.0015075692248158973 0.0018553510248756852 0.00198414353986552 0.0017259492627905377 0.0015093948948987715
          0.003894030042019908 0.003891564126362386 0.003889098210704864 0.0011752973376200435 0.0009095250468039033 0.0011775675586096833
          0.0009131737024486822 0.0011798377795993232 0.0009168223580934609 0.004310646524939822 0.004932371865392121 0.004308358147894158
          0.004930240096180963 0.004306069770848493 0.004928108326969803 0.004953428576501728 0.004949845734853274 0.004946262893204821
          0.0037535161731500834 0.0037518082680633538 0.0037501003629766246 0.003800153045505502 0.003796948994556218 0.003793744943606934
          0.0014967559666438717 0.0015001322293455275 0.0015035084920471836 0.000905246422139562 0.0009078210724459115 0.0009103957227522611
          0.0036534167259777927 0.004338268011209135 0.0036496808809487586 0.004336177999724945 0.0036459450359197236 0.004334087988240756
          0.001075559537210757 0.0010773145953878824 0.0010790696535650079 0.001635604266571062 0.001639934367468476 0.0016442644683658898
          0.003928546108164869 0.003925607768900314 0.003922669429635759 0.006039730327752608 0.006034584009604817 0.0060294376914570265
          0.0007687996548003526 0.0007720771401926148 0.0007753546255848772 0.004086699431672238 0.0040891393225478585 0.004091579213423481
          0.005636401104400567 0.005599312246644429 0.004966193854931611 0.005630840198150227 0.005593891365486501 0.004961930553867218
          0.005625279291899887 0.0055884704843285685 0.004957667252802826 0.0016817342153763622 0.0016880048989226719 0.0016942755824689815
          0.004048348781204939 0.003931357825354455 0.004044305227905767 0.003927698552397075 0.004040261674606595 0.003924039279439695
          0.0019146021035286037 0.0019171479754080307 0.0019196938472874577 0.002253748475851931 0.0022556704971519897 0.002257592518452048
          0.004083981258584087 0.004080498200681019 0.0040770151427779525 0.0008406798261450343 0.0008438443451945284 0.0008470088642440227
          0.0016791926252815558 0.00208860602339832 0.0016801649887148715 0.002089338306106222 0.0016811373521481872 0.0020900705888141245
          0.002238104786199541 0.002239741256965351 0.002241377727731161 0.000636171747376788 0.0006379904161102002 0.0006398090848436125
          0.004123073068871323 0.004121866896326596 0.00412066072378187 0.0041575397002039756 0.004154703650569443 0.004151867600934911
          0.006200046764175227 0.006194884648738216 0.0061897225333012035 0.003703644653304154 0.003702870812341884 0.003702096971379613
          0.0038773614106054942 0.003820273601565616 0.003874568379370744 0.0038186135592024697 0.0038717753481359936 0.003816953516839324
          0.004301355757074283 0.004298880316102224 0.004296404875130166 0.0036719875086286035 0.003696496285637736 0.003672288013452579
          0.0036956993184213555 0.003672588518276554 0.0036949023512049756 0.0038366609434678997 0.0038352350306696424 0.003833809117871384
          0.0036368733812946943 0.003636467172710405 0.0036360609641261157 0.003850191109917705 0.003849244512617245 0.0038482979153167847
          0.0031648522249692218 0.0032480883470578014 0.0031690270398503292 0.0032523386424194944 0.0031732018547314363 0.0032565889377811864
          0.003641479943634923 0.0036431651576338334 0.003644850371632744 0.0038187777766150698 0.0038192275363190553 0.0038196772960230403
        </DataArray>
        <DataArray type="Float64" Name="pe22" format="ascii" RangeMin="-0.0032787312022774726" RangeMax="-0.00032672251145097553">
          -0.0012932301838013683 -0.0012420025191683909 -0.0010420895155138544 -0.0011294422282463231 -0.0012927727633600867 -0.0012415890147310373
          -0.0010416806345342506 -0.001129099016636185 -0.001292315342918805 -0.0012411755102936838 -0.001041271753554647 -0.0011287558050260469
          -0.001958894673214847 -0.0018741350472908174 -0.0019249670150667667 -0.0020323785576441228 -0.001958783978793262 -0.0018743384645945225
          -0.0019250646505820622 -0.0020322332275570635 -0.0019586732843716774 -0.0018745418818982278 -0.0019251622860973578 -0.0020320878974700043
          -0.0006677927441746587 -0.0008223580035385109 -0.0006675779134767035 -0.0008222156363025092 -0.0006673630827787483 -0.0008220732690665076
          -0.002644553796015262 -0.0027052201574528493 -0.0023806665083334665 -0.002396147360024445 -0.00264627715631739 -0.0027065328224236437
          -0.0023805664652600126 -0.0023972162748674224 -0.002648000516619517 -0.0027078454873944373 -0.0023804664221865595 -0.0023982851897103997
          -0.002018198968970641 -0.002147010611764341 -0.0020183929659824177 -0.0021469336968131724 -0.002018586962994194 -0.002146856781862004
          -0.0019537404626059547 -0.0018779672955333397 -0.0019029851908313779 -0.0019874081064997595 -0.001955053941518157 -0.0018796212315464872
          -0.0019041829565366463 -0.001987836153875188 -0.001956367420430359 -0.0018812751675596345 -0.0019053807222419148 -0.001988264201250617
          -0.002487035415729447 -0.0027270261057066904 -0.0025830912277765837 -0.002395111665010437 -0.002487797100375709 -0.002727799119023171
          -0.002584174129320626 -0.002396121662114997 -0.0024885587850219707 -0.0027285721323396517 -0.002585257030864669 -0.002397131659219558
          -0.0012169911899706485 -0.001347548560278837 -0.001216750293087596 -0.0013470805205420655 -0.0012165093962045433 -0.0013466124808052943
          -0.0016308367546725665 -0.0015075034807295901 -0.001983505459764625 -0.0020394797617405737 -0.001630235532300123 -0.0015060795415144264
          -0.001982875974723965 -0.0020392201857648714 -0.00162963430992768 -0.0015046556022992627 -0.0019822464896833043 -0.0020389606097891695
          -0.0015190710625842783 -0.0015593261602290008 -0.0017149618567107003 -0.0015192622876089665 -0.0015592594689660256 -0.0017147871507945745
          -0.0015194535126336547 -0.0015591927777030502 -0.0017146124448784487 -0.0030036027988789246 -0.003179485319782471 -0.0031096922955904075
          -0.0029690316181267503 -0.0030044763578815745 -0.0031808120310981725 -0.003110906192765264 -0.0029697404296812635 -0.0030053499168842235
          -0.003182138742413873 -0.003112120089940121 -0.002970449241235777 -0.0021318528153371112 -0.0022440599427954043 -0.002119950736235175
          -0.0020895363596597906 -0.0021326928802779506 -0.002245512215226821 -0.0021211664143984377 -0.0020905913394268397 -0.00213353294521879
          -0.002246964487658238 -0.0021223820925617004 -0.002091646319193889 -0.0025366394873769936 -0.0025375817874524033 -0.002538524087527814
          -0.001972355745570298 -0.0018863387560412094 -0.0018182102713992178 -0.0019739867536469834 -0.0018871685566661783 -0.0018197338508851091
          -0.0019756177617236688 -0.0018879983572911469 -0.0018212574303710007 -0.0021479415917978603 -0.002337239836644374 -0.0021484362909478644
          -0.002338537815580741 -0.002148930990097868 -0.0023398357945171077 -0.0028863746804040965 -0.0027345966712927034 -0.002883614894337202
          -0.0030579922890528496 -0.0028882669824336136 -0.00273585973735446 -0.0028851497868588325 -0.0030599357544054554 -0.002890159284463131
          -0.0027371228034162158 -0.002886684679380462 -0.0030618792197580616 -0.0010579083888288352 -0.0012419964119372738 -0.0009162039328564748
          -0.0006552946547559908 -0.0010564224406384463 -0.0012410609303528375 -0.0009150074123670966 -0.0006552670263433474 -0.0010549364924480574
          -0.0012401254487684013 -0.0009138108918777185 -0.000655239397930704 -0.0024089462934621005 -0.002263503349165368 -0.0022768842107858305
          -0.002408946030283072 -0.002263424045008666 -0.002276886423686857 -0.0024089457671040444 -0.0022633447408519644 -0.002276888636587883
          -0.0004604504628294358 -0.0009716179687410242 -0.0004617621402061146 -0.0009694776681310485 -0.0004630738175827934 -0.0009673373675210729
          -0.002008195505461634 -0.0020980569367066238 -0.002299686967422934 -0.00234984664801256 -0.0020075414860962412 -0.002098418477624452
          -0.002300648776959041 -0.002349925556720391 -0.0020068874667308486 -0.00209878001854228 -0.0023016105864951484 -0.0023500044654282226
          -0.002565350835165859 -0.002397300950941857 -0.002565993542526626 -0.002397603763353177 -0.0025666362498873926 -0.002397906575764497
          -0.001667764123666207 -0.0018220067517318267 -0.0016678345588828592 -0.0018228149058596124 -0.0016679049940995115 -0.001823623059987398
          -0.002426059684667631 -0.0021451694145666915 -0.0024262703960331758 -0.0021447282911886997 -0.00242648110739872 -0.002144287167810708
          -0.0013896966336703648 -0.001281887621732527 -0.00128041132330154 -0.0014321355179552412 -0.0013891879577106801 -0.0012816608020025425
          -0.0012801678519610573 -0.0014316571155369327 -0.0013886792817509957 -0.001281433982272558 -0.0012799243806205745 -0.0014311787131186244
          -0.0017060987711727676 -0.0016121232774256777 -0.0017063760709639616 -0.001613019159998202 -0.0017066533707551556 -0.0016139150425707265
          -0.0014886181175161363 -0.0014881543017378211 -0.001487690485959506 -0.0019683442557955296 -0.0018676677609747543 -0.0019691355461035997
          -0.0018678304301835507 -0.0019699268364116694 -0.001867993099392347 -0.001956864227078195 -0.0019859947322047973 -0.0019749436114220786
          -0.0019579348780080228 -0.0019875882940648265 -0.0019762334073984205 -0.001959005528937851 -0.001989181855924855 -0.001977523203374763
          -0.001556297466421289 -0.0016910137706737471 -0.001298304067226578 -0.0015557409629868826 -0.0016910452493981902 -0.0012973548257589132
          -0.0015551844595524762 -0.001691076728122633 -0.0012964055842912482 -0.001723889703039053 -0.0017260953430939183 -0.0017283009831487836
          -0.0014551668509813747 -0.001452998762896427 -0.0014508306748114794 -0.0020383919533091058 -0.002078485054699331 -0.002039029424381688
          -0.002079020038459154 -0.0020396668954542705 -0.002079555022218976 -0.001821305737838897 -0.001821779438639731 -0.0018222531394405652
          -0.0014025030104745388 -0.001615896518245274 -0.0016889176751202252 -0.001402799901313725 -0.001616396038088722 -0.0016886566299964283
          -0.0014030967921529114 -0.0016168955579321702 -0.0016883955848726313 -0.002570248079828947 -0.002666767394853046 -0.0025710038055664322
          -0.0026677117015323154 -0.002571759531303918 -0.0026686560082115848 -0.000632021545330363 -0.0005146962040297352 -0.0005199699060777875
          -0.0006739592228836041 -0.0006317308491985741 -0.0005146319415476864 -0.0005199238335516585 -0.0006735923317598964 -0.0006314401530667852
          -0.0005145676790656376 -0.0005198777610255296 -0.0006732254406361888 -0.00113845248959184 -0.0009065673328315065 -0.0009665771331953076
          -0.0011932158325330473 -0.0011384578153206273 -0.0009063063189302162 -0.0009661970978530685 -0.001192969797326564 -0.0011384631410494147
          -0.000906045305028926 -0.0009658170625108296 -0.0011927237621200805 -0.0019397567421875965 -0.0018019986957779955 -0.0019616399073987163
          -0.0019399290391124984 -0.0018021983409070724 -0.0019622377133465597 -0.0019401013360374002 -0.0018023979860361489 -0.0019628355192944026
          -0.0019413584121167496 -0.0019422169249741761 -0.0019430754378316024 -0.0019502488617400794 -0.0019508253238008564 -0.001951401785861633
          -0.0004254297355057841 -0.00038131411648494485 -0.0004257994686062684 -0.00038176427990441766 -0.00042616920170675265 -0.00038221444332389053
          -0.0007030537487028258 -0.0008616063778968725 -0.00070267677143359 -0.000861423026645331 -0.0007022997941643545 -0.0008612396753937894
          -0.0018159536657142536 -0.0018163124012420062 -0.0018166711367697593 -0.0014787231664038759 -0.001604924251408327 -0.0015803382579130144
          -0.0013982718518354528 -0.0014787690110469101 -0.0016050695110270392 -0.0015803440631661126 -0.0013983847493896004 -0.0014788148556899449
          -0.001605214770645752 -0.0015803498684192102 -0.0013984976469437478 -0.0017677361524055875 -0.001767942597486671 -0.0017681490425677546
          -0.0014800240382834699 -0.001479865910571467 -0.0014797077828594643 -0.0016905860258790268 -0.0014752546333022965 -0.0016901088184003263
          -0.0014748899281045212 -0.0016896316109216254 -0.001474525222906746 -0.0013656281890557086 -0.0013664795222669182 -0.001367330855478128
          -0.0013320441241977446 -0.0015117280558479274 -0.0013317104836164208 -0.0015115324079704399 -0.0013313768430350968 -0.0015113367600929524
          -0.001391579892569177 -0.0013922489474652688 -0.0013929180023613608 -0.001551792011464902 -0.0016020069457848317 -0.0015513212443705267
          -0.0016015593320240892 -0.0015508504772761512 -0.0016011117182633465 -0.0015150039264829052 -0.001514632972402979 -0.0015142620183230527
          -0.0013635920403626306 -0.0013638222621890892 -0.0013640524840155474 -0.0016912495698603708 -0.0016911605750899057 -0.001691071580319441
          -0.001227343478172809 -0.0014609696496525255 -0.0012273932238026693 -0.0014620723071748416 -0.0012274429694325297 -0.0014631749646971583
          -0.0018713728091184839 -0.0018711181425040886 -0.0018708634758896935 -0.0020453565899334817 -0.002007233072652932 -0.0020455176398183044
          -0.002007180246104262 -0.002045678689703127 -0.0020071274195555926 -0.0027323204223125095 -0.0028846878436419496 -0.002737139744003541
          -0.002733010696906254 -0.0028853401459982735 -0.0027378560331528124 -0.002733700971499999 -0.002885992448354598 -0.002738572322302083
          -0.003225950070458194 -0.0031712104957078765 -0.003118884454721999 -0.003227885977857784 -0.003173534919340069 -0.003120846144317094
          -0.003229821885257374 -0.0031758593429722626 -0.0031228078339121876 -0.0012879047898308527 -0.001640402690783872 -0.0012884696372560313
          -0.0016423935823109107 -0.0012890344846812095 -0.001644384473837949 -0.002007934736241875 -0.0019756062465773835 -0.0019551964271555342
          -0.002008306242795877 -0.001975503088310552 -0.001955155612890635 -0.0020086777493498794 -0.0019753999300437205 -0.0019551147986257363
          -0.0022075364765508174 -0.0021132031863468088 -0.002207524534737816 -0.0021130736280260635 -0.0022075125929248147 -0.002112944069705319
          -0.0010000964598557262 -0.000999755070652997 -0.0009994136814502677 -0.0032070601612285503 -0.0032743908157090154 -0.003209519400608144
          -0.0032765610089932435 -0.003211978639987738 -0.0032787312022774726 -0.003202105235442369 -0.0030145302662967764 -0.003203687179849646
          -0.003015683471578815 -0.003205269124256923 -0.003016836676860854 -0.002731548077204795 -0.0028630236822921565 -0.00273250903958181
          -0.00286426558522184 -0.0027334700019588255 -0.0028655074881515246 -0.002468225029170658 -0.002469434671091959 -0.0024706443130132595
          -0.0030210736709221113 -0.002987391672887076 -0.0030231969478669816 -0.0029895905877687697 -0.003025320224811852 -0.0029917895026504633
          -0.0027218424495364857 -0.002722344615126313 -0.0027228467807161403 -0.0017112817650007243 -0.001711391148708536 -0.0017115005324163481
          -0.0023664145337825397 -0.0023646031211316896 -0.002362791708480839 -0.0016799117482544828 -0.0016799885135075087 -0.0016800652787605347
          -0.001696690979233243 -0.0016967281580002813 -0.0016967653367673191 -0.0020643547626040407 -0.0020091557860745764 -0.0020646254717153084
          -0.002007546833311279 -0.0020648961808265756 -0.0020059378805479824 -0.0018654011369820787 -0.0017741397803834082 -0.0018655408123646863
          -0.0017741564654484858 -0.001865680487747294 -0.0017741731505135634 -0.0012331927775242005 -0.0012328378562556396 -0.0012324829349870787
          -0.0010848073401028466 -0.0010847818350224869 -0.0010847563299421275 -0.0017246700194051012 -0.0017247022021066273 -0.0017247343848081533
          -0.0020142083258737342 -0.0020153500924513052 -0.0020164918590288763 -0.0010567882773181102 -0.0010574145420534102 -0.00105804080678871
          -0.0009257755039334167 -0.0009255494069498462 -0.0009253233099662757 -0.002500769367583403 -0.0022475609965854127 -0.0025013329034781354
          -0.002247739795215168 -0.002501896439372868 -0.002247918593844923 -0.002739274174962094 -0.00274045228946298 -0.0027416304039638655
          -0.0029802894558723 -0.002824080641204141 -0.0029813795633524542 -0.00282485418307073 -0.002982469670832609 -0.002825627724937319
          -0.0013138381021471752 -0.0014661446418243297 -0.0012554999035736345 -0.0013139475072095539 -0.0014665808855252745 -0.001255449165431737
          -0.001314056912271933 -0.0014670171292262188 -0.0012553984272898398 -0.0011964899978628445 -0.001196288373638744 -0.001196086749414644
          -0.0029485121784160384 -0.0029500589334451326 -0.0029516056884742272 -0.0018536748613062657 -0.0018520225880856631 -0.0018539994207552662
          -0.001852297572991989 -0.0018543239802042667 -0.0018525725578983155 -0.0029568555848721104 -0.0027521408248399395 -0.00295857532160121
          -0.0027533140363462097 -0.0029602950583303097 -0.0027544872478524798 -0.002539344568556116 -0.002539805924268475 -0.0025402672799808342
          -0.0026888334288656212 -0.002509188940941822 -0.0026898491987062205 -0.0025094717559922377 -0.002690864968546819 -0.0025097545710426536
          -0.000584755847674399 -0.0007105587877882549 -0.0005983309479278311 -0.0004725614775648196 -0.0005854747913410498 -0.0007111703454564196
          -0.0005985163070010347 -0.00047341000180780316 -0.0005861937350077005 -0.0007117819031245841 -0.0005987016660742384 -0.00047425852605078667
          -0.0007632050048669986 -0.0007628255811094545 -0.0007624461573519103 -0.0011362529247205405 -0.0011366549229618736 -0.0011370569212032064
          -0.001979615207134594 -0.0020232808859565387 -0.001979993001955404 -0.0020238921909913367 -0.001980370796776214 -0.002024503496026135
          -0.002021635230050259 -0.0020217935786090322 -0.0020219519271678058 -0.002051798754672689 -0.0020080574292115775 -0.0020522936697852908
          -0.0020081979292327365 -0.0020527885848978925 -0.002008338429253896 -0.0014130460759612887 -0.0011111154384987592 -0.00141209216688796
          -0.0011096516316039672 -0.0014111382578146318 -0.0011081878247091751 -0.0013999781185462799 -0.0014002767515587985 -0.0014005753845713173
          -0.002334194584470731 -0.0023802457961711126 -0.002334454960116251 -0.0023803152585372914 -0.00233471533576177 -0.00238038472090347
          -0.0009436212796729427 -0.0010015261451802268 -0.0008665647521310794 -0.0007651954273029948 -0.0009428449869425856 -0.0010011785560574524
          -0.0008662188839934481 -0.000764489993206932 -0.0009420686942122282 -0.001000830966934678 -0.0008658730158558166 -0.0007637845591108689
          -0.0019192965713784357 -0.0019193744627562879 -0.0019194523541341399 -0.0005931875451148884 -0.00046060719956090705 -0.0005928734910317959
          -0.0004609867836129937 -0.0005925594369487036 -0.00046136636766508046 -0.0021019161201248165 -0.0024171772885350244 -0.002101915412402646
          -0.0024177676079848442 -0.0021019147046804757 -0.002418357927434665 -0.0024138797614432824 -0.0024145676907615377 -0.002415255620079793
          -0.0018904985913569712 -0.0018905034977181412 -0.0018905084040793116 -0.0018492789511397034 -0.0018490461688380924 -0.0018488133865364814
          -0.0007788343054021913 -0.0007781301564024328 -0.0007774260074026743 -0.00047625402435733035 -0.00047637885939932597 -0.0004765036944413216
          -0.001755944789161025 -0.0021419162848265788 -0.0017555020446216594 -0.0021421630884226606 -0.0017550593000822939 -0.0021424098920187437
          -0.0005377524899618784 -0.0005375505673644317 -0.000537348644766985 -0.0008883886417709678 -0.000888650952903327 -0.0008889132640356867
          -0.001967488430692169 -0.0019676608689096786 -0.001967833307127188 -0.0030890118176662754 -0.0030906609669371856 -0.0030923101162080953
          -0.0003972816672469755 -0.00039777227292373636 -0.0003982628786004972 -0.0021538882182838472 -0.0021542345469607667 -0.002154580875637686
          -0.002759473622356131 -0.0027506347706749263 -0.00241267824032226 -0.002760701127467616 -0.002751567502110139 -0.0024134860279579123
          -0.0027619286325791005 -0.0027525002335453516 -0.0024142938155935646 -0.0008981881690948209 -0.0008984485985878527 -0.0008987090280808845
          -0.002028945575969769 -0.0019758125928881053 -0.0020290983554211396 -0.0019758741373920516 -0.00202925113487251 -0.001975935681895998
          -0.0009918089058231438 -0.000991096679097841 -0.0009903844523725383 -0.0011416689915199336 -0.00114138359830742 -0.0011410982050949069
          -0.001960485843852667 -0.00195955624731465 -0.0019586266507766324 -0.00042646525468302223 -0.0004269202028216354 -0.00042737515096024866
          -0.0008331633838263028 -0.0010364872974512047 -0.0008329746009368013 -0.0010362574513501687 -0.0008327858180472998 -0.0010360276052491326
          -0.0011404556915315116 -0.0011398759407978275 -0.0011392961900641432 -0.00032672251145097553 -0.0003267787226423756 -0.00032683493383377563
          -0.0021820038401771415 -0.0021834159189673898 -0.0021848279977576385 -0.0020820247890831313 -0.002082541706743162 -0.002083058624403193
          -0.0031588385536521356 -0.003160422212756944 -0.0031620058718617515 -0.0018309276566476943 -0.0018307301656286512 -0.0018305326746096077
          -0.0019529283315464431 -0.0019375608017613158 -0.0019531164657512659 -0.0019376210883980415 -0.0019533045999560886 -0.0019376813750347675
          -0.002273975732439218 -0.0022738453511558037 -0.002273714969872389 -0.0019213191574376717 -0.0019122489075568392 -0.001922016380906446
          -0.0019125360910558688 -0.0019227136043752204 -0.0019128232745548983 -0.0019573686487811487 -0.0019577108684098385 -0.001958053088038529
          -0.0018727172726951983 -0.0018729541594114645 -0.0018731910461277307 -0.0020233592665959213 -0.0020229990562762685 -0.0020226388459566157
          -0.0016993170099116007 -0.0017239286488674882 -0.001698892487991497 -0.0017245215544563013 -0.0016984679660713934 -0.0017251144600451142
          -0.0019200642718597667 -0.0019205663251627425 -0.0019210683784657186 -0.002019975760256399 -0.0020204714196405855 -0.0020209670790247722
        </DataArray>
        <DataArray type="Float64" Name="pe33" format="ascii" RangeMin="-0.003126291300377184" RangeMax="-0.0003094492359258124">
          -0.001299053454664043 -0.0012511964672035807 -0.001042638458859145 -0.0011222151019320366 -0.0012989985258225313 -0.0012510433815366903
          -0.0010432028077163652 -0.001122927279984341 -0.0012989435969810196 -0.0012508902958698002 -0.0010437671565735856 -0.0011236394580366458
          -0.0018588443604333504 -0.001782817995819696 -0.001796834991534348 -0.001881240292207923 -0.001858018137025691 -0.001782352013027408
          -0.001796879322828195 -0.001881125016285555 -0.0018571919136180313 -0.0017818860302351203 -0.001796923654122042 -0.0018810097403631869
          -0.0006750862609834196 -0.0008349386148826536 -0.0006755676865505967 -0.0008357983514352644 -0.0006760491121177738 -0.0008366580879878751
          -0.002335699318942232 -0.002374220548585843 -0.0021064130673676823 -0.0021310112561120963 -0.0023339028126750498 -0.002372007929236288
          -0.0021050287281472284 -0.0021277385097964556 -0.0023321063064078674 -0.0023697953098867335 -0.002103644388926774 -0.002124465763480815
          -0.0018447750305036056 -0.0019419669885716172 -0.001845716632590451 -0.0019425099046062257 -0.0018466582346772962 -0.0019430528206408342
          -0.0018111447176304065 -0.001699105248504166 -0.001753866596498272 -0.0019153710706038517 -0.0018081645796723007 -0.0016982882785292282
          -0.0017497396278123613 -0.00190806432400028 -0.0018051844417141948 -0.0016974713085542903 -0.0017456126591264506 -0.0019007575773967087
          -0.002527181112265457 -0.0027201344551338238 -0.0025629797992833886 -0.002394377023068518 -0.002524904279026143 -0.002714828382852496
          -0.002559133074350433 -0.002392967939153993 -0.0025226274457868284 -0.002709522310571168 -0.0025552863494174767 -0.0023915588552394684
          -0.0012021544488700574 -0.0013404416851099464 -0.0012033634365808095 -0.0013408548676952076 -0.0012045724242915618 -0.0013412680502804684
          -0.001805221449181998 -0.0016785691762547896 -0.002148006203176051 -0.0021884421041871707 -0.0018026026782522284 -0.0016778363459755217
          -0.0021454473276421326 -0.002186040719844825 -0.0017999839073224587 -0.0016771035156962536 -0.002142888452108214 -0.0021836393355024793
          -0.001539906041999142 -0.0015788760971874728 -0.0017515518325859213 -0.001538519421636495 -0.001577777774349517 -0.0017510494662996284
          -0.0015371328012738481 -0.001576679451511561 -0.0017505471000133354 -0.003046736221427885 -0.003106530988224247 -0.003046049262255544
          -0.002982301624443039 -0.0030390062556280005 -0.003099544656075197 -0.0030385149936276107 -0.0029743833742952985 -0.0030312762898281158
          -0.0030925583239261476 -0.0030309807249996783 -0.0029664651241475583 -0.002078493982695683 -0.0021450772078564417 -0.001972923265145953
          -0.0019837853680536397 -0.002076764063177443 -0.002143908995901195 -0.0019725466317271866 -0.0019823533471718746 -0.0020750341436592034
          -0.002142740783945949 -0.0019721699983084205 -0.0019809213262901096 -0.0022420951153837086 -0.0022413940739822013 -0.0022406930325806944
          -0.0018097829604969147 -0.0016971482974478078 -0.0016176337863804597 -0.0018074520039375996 -0.0016958483402293842 -0.001616833302015244
          -0.0018051210473782845 -0.0016945483830109612 -0.0016160328176500279 -0.0021499728759062676 -0.0022838867027606233 -0.0021478294043282757
          -0.0022824373781370737 -0.0021456859327502837 -0.002280988053513524 -0.0025546791526766424 -0.002421440169505105 -0.002586983398416166
          -0.002753077867092769 -0.0025528937993709983 -0.0024211955738889825 -0.0025854918707343424 -0.0027498379043264954 -0.0025511084460653538
          -0.0024209509782728597 -0.0025840003430525195 -0.002746597941560221 -0.0011870620020565815 -0.0013955475149491014 -0.0010296410728871384
          -0.0007219699916081459 -0.0011878854773222775 -0.0013939993359219712 -0.0010303694529334116 -0.0007255860787187662 -0.0011887089525879735
          -0.0013924511568948405 -0.0010310978329796851 -0.0007292021658293863 -0.0021304591654120793 -0.002030824763523402 -0.002019419939589456
          -0.0021318034665847698 -0.00203150774849472 -0.002021100886234178 -0.00213314776775746 -0.002032190733466037 -0.0020227818328789
          -0.0004902618455904815 -0.0010759836702061223 -0.0004955584175893312 -0.0010782135222273807 -0.0005008549895881808 -0.001080443374248639
          -0.0018824152762467107 -0.001949091360038091 -0.0022018814579630877 -0.002255147560862247 -0.0018809845005988864 -0.00194811746325049
          -0.002199116093620959 -0.002250467614609986 -0.0018795537249510622 -0.0019471435664628889 -0.0021963507292788297 -0.002245787668357726
          -0.0022708339551123316 -0.002132687924285011 -0.0022716315107646793 -0.0021330639645633915 -0.0022724290664170275 -0.0021334400048417727
          -0.0017278974634365452 -0.0018462630351423176 -0.0017234447651685305 -0.0018400978898726003 -0.0017189920669005159 -0.0018339327446028827
          -0.0022918436049205074 -0.0019911362696185732 -0.0022880252442185906 -0.001990783189289657 -0.002284206883516674 -0.0019904301089607415
          -0.0013663548495657615 -0.0012626841459741002 -0.0012471032895752959 -0.0013866763354613413 -0.0013678511561244222 -0.0012645037723148023
          -0.0012496031494002072 -0.0013892076237644296 -0.0013693474626830827 -0.0012663233986555042 -0.0012521030092251186 -0.001391738912067518
          -0.0015078554765311854 -0.0014245980293422203 -0.0015077280911265306 -0.0014225723378298726 -0.0015076007057218757 -0.0014205466463175246
          -0.001578423899267176 -0.0015749749452712652 -0.001571525991275354 -0.001790394530496701 -0.0016892458986131013 -0.001791147504148241
          -0.0016902449720737304 -0.0017919004777997808 -0.0016912440455343597 -0.001905570616748053 -0.0018677841562017915 -0.0019084813441156167
          -0.001902452533063838 -0.0018643575215776434 -0.001902576975717163 -0.001899334449379624 -0.001860930886953495 -0.0018966726073187093
          -0.0016754141760122513 -0.001773660048875207 -0.0014081064679766656 -0.0016729991106689943 -0.0017713668052622815 -0.0014057729839957447
          -0.0016705840453257372 -0.0017690735616493563 -0.0014034395000148236 -0.0015181899278449043 -0.00151850352778024 -0.0015188171277155753
          -0.001607890451088089 -0.001608314087782262 -0.0016087377244764348 -0.002054751418998483 -0.0020895810103541386 -0.0020513146657430534
          -0.0020856304221356613 -0.002047877912487624 -0.002081679833917184 -0.001855022429827108 -0.0018524399917184359 -0.0018498575536097638
          -0.001284156810094869 -0.0014434147125402452 -0.001562740068670785 -0.0012862724501159647 -0.001445813366757919 -0.0015629785819364025
          -0.00128838809013706 -0.0014482120209755925 -0.00156321709520202 -0.0025184541247090086 -0.0025715717853601024 -0.002511409207673361
          -0.0025645264832503496 -0.002504364290637714 -0.002557481181140597 -0.0006397293964898993 -0.0005165707625152519 -0.0005193715450673264
          -0.0006846029940470407 -0.0006403539244825024 -0.0005176360667528052 -0.0005208958476364797 -0.0006856627621055334 -0.0006409784524751053
          -0.0005187013709903585 -0.000522420150205633 -0.0006867225301640262 -0.001146869484544232 -0.000919039803076102 -0.000973533647285234
          -0.0011992677556648106 -0.001146939871725403 -0.0009200192568852509 -0.0009742256951324579 -0.0011990888102216928 -0.0011470102589065739
          -0.0009209987106943999 -0.000974917742979682 -0.0011989098647785747 -0.0019640853595566717 -0.0018227965326566974 -0.001966469177894581
          -0.0019622807004393934 -0.0018214865966953142 -0.0019637296756596797 -0.001960476041322114 -0.0018201766607339308 -0.0019609901734247777
          -0.0017778443387370768 -0.0017767290910476869 -0.0017756138433582974 -0.001926942551890461 -0.001918994602817529 -0.001911046653744597
          -0.0004246655347354498 -0.0003723008773902133 -0.00042632499757056506 -0.00037430895765511537 -0.0004279844604056804 -0.0003763170379200174
          -0.0007114339083298872 -0.0008758031035670209 -0.0007129466215937409 -0.0008769910436241122 -0.0007144593348575947 -0.0008781789836812034
          -0.0016240233703083958 -0.0016252780160453623 -0.0016265326617823292 -0.001485549761017896 -0.0016237629438676073 -0.001605537906757896
          -0.0014068758814091158 -0.001486177862965694 -0.0016239481091111611 -0.0016050499614259453 -0.0014067090589737741 -0.0014868059649134923
          -0.0016241332743547152 -0.0016045620160939943 -0.0014065422365384323 -0.0017704670540854965 -0.0017694678235336873 -0.0017684685929818783
          -0.001476052134125606 -0.001476758864529539 -0.0014774655949334717 -0.0016078098281477144 -0.0014060003116672958 -0.0016086441967976017
          -0.0014066690539816659 -0.0016094785654474893 -0.0014073377962960363 -0.0012110890223615744 -0.0012138447223489564 -0.0012166004223363382
          -0.001285448187176136 -0.0014514167176790202 -0.0012875056137586537 -0.0014538018028553042 -0.0012895630403411715 -0.0014561868880315879
          -0.0012469606379464971 -0.0012463494832660133 -0.0012457383285855298 -0.0015080031728938923 -0.0015318310192501167 -0.0015091826600362418
          -0.0015338668761288705 -0.001510362147178591 -0.0015359027330076242 -0.001492657042934053 -0.0014932692487597485 -0.0014938814545854442
          -0.0013710206125058062 -0.0013701458327255217 -0.001369271052945237 -0.001598004729269149 -0.0016004594325471342 -0.0016029141358251192
          -0.00107765227194311 -0.001284414731541077 -0.0010776429706555123 -0.0012832049771845282 -0.001077633669367915 -0.0012819952228279791
          -0.001745784222121849 -0.0017476355664730765 -0.0017494869108243042 -0.0018809697486986032 -0.0018730676079366042 -0.0018788365715847887
          -0.0018717680953705721 -0.001876703394470974 -0.00187046858280454 -0.0027973197228919264 -0.002874579968296785 -0.0027608145412800524
          -0.0027917893308553165 -0.0028672973336838336 -0.002755854822339906 -0.0027862589388187066 -0.002860014699070882 -0.0027508951033997594
          -0.003027330548221247 -0.0028610686560724204 -0.002889109944508876 -0.0030214877158839734 -0.0028564764397387647 -0.0028841333640328556
          -0.0030156448835466994 -0.0028518842234051094 -0.002879156783556835 -0.0010990074050955087 -0.0014221546955782022 -0.001100678949584718
          -0.001422939974487255 -0.0011023504940739272 -0.0014237252533963072 -0.0019615393620530056 -0.0019349000378370432 -0.0018743956230741162
          -0.0019595220867390474 -0.0019326606296393128 -0.0018728102581349964 -0.0019575048114250882 -0.0019304212214415817 -0.0018712248931958759
          -0.0020032144977128906 -0.0019421736294156372 -0.002001824583222273 -0.0019418648277448897 -0.0020004346687316557 -0.001941556026074142
          -0.0010167849343669564 -0.0010176430072398879 -0.0010185010801128198 -0.002892735541221803 -0.0030551640363966352 -0.0028876954169762175
          -0.003049407133152978 -0.002882655292730632 -0.003043650229909321 -0.003126291300377184 -0.003073889777212766 -0.003119424844373786
          -0.003066175041715556 -0.0031125583883703884 -0.0030584603062183456 -0.0027060620589513078 -0.0027867758310006264 -0.0026980083299899564
          -0.002778159467805209 -0.002689954601028605 -0.0027695431046097924 -0.0024064766074559127 -0.002402925825659029 -0.0023993750438621453
          -0.0026531450018464344 -0.00263351002625563 -0.002649475962760984 -0.002630344625127916 -0.0026458069236755324 -0.0026271792240002024
          -0.0023713206443349046 -0.0023691339627917906 -0.002366947281248676 -0.0016966512627890641 -0.0016970554342910327 -0.0016974596057930014
          -0.0020589330851821866 -0.002059271183285132 -0.0020596092813880773 -0.0016498385912694785 -0.0016509337353407469 -0.0016520288794120148
          -0.0016477897841244305 -0.0016483618980619081 -0.0016489340119993858 -0.0018154585190119142 -0.0017298811979125199 -0.001816575645338675
          -0.0017337718423428598 -0.001817692771665436 -0.0017376624867731997 -0.0017298402690450246 -0.0016746989117008345 -0.001731661547529812
          -0.0016757027156561704 -0.0017334828260145991 -0.001676706519611506 -0.0011628380809816045 -0.0011646980061334044 -0.0011665579312852047
          -0.0010973812830000853 -0.0010979647086104415 -0.0010985481342207983 -0.0016557335863864897 -0.0016561124912658147 -0.0016564913961451396
          -0.0018786639574117515 -0.001877477487515706 -0.001876291017619661 -0.000911172929608851 -0.0009155449879775284 -0.0009199170463462056
          -0.0007906212171708662 -0.0007926534133409376 -0.0007946856095110089 -0.0022967935787047825 -0.0020420457558260286 -0.0022958932139459185
          -0.0020435978310746747 -0.002294992849187055 -0.0020451499063233207 -0.002556681596880537 -0.002552967311224571 -0.002549253025568605
          -0.0029277407802429664 -0.002813983264715709 -0.0029193321099458902 -0.0028056858116869924 -0.0029109234396488145 -0.0027973883586582746
          -0.0013277493899898295 -0.0014848442725970106 -0.0012711270894571781 -0.001326967795267849 -0.0014836366175696551 -0.0012709735204156
          -0.0013261862005458686 -0.0014824289625423 -0.0012708199513740224 -0.0012092183580688402 -0.001209847657019029 -0.001210476955969218
          -0.0027826064345080064 -0.0027767906930697217 -0.0027709749516314367 -0.0017879431071629408 -0.0018073321062189117 -0.0017875084404003821
          -0.0018068243099868357 -0.0017870737736378234 -0.00180631651375476 -0.002710512651742717 -0.002497603814535759 -0.0027073120777473146
          -0.0024967024009744324 -0.002704111503751912 -0.002495800987413107 -0.00227367046683212 -0.0022750501243260996 -0.002276429781820079
          -0.002400243263537573 -0.0022181221404519945 -0.0024005249858281446 -0.0022200178705019022 -0.0024008067081187157 -0.00222191360055181
          -0.0005247549621365863 -0.0006232273058274904 -0.0005566408088487533 -0.00044398432135687283 -0.0005283799192623245 -0.0006286517686322717
          -0.0005610637723458768 -0.0004479825176100594 -0.0005320048763880628 -0.000634076231437053 -0.0005654867358430003 -0.000451980713863246
          -0.0007630218987489469 -0.0007648114962059921 -0.0007666010936630371 -0.0010179145370883427 -0.001022282662078074 -0.0010266507870678057
          -0.00197959409787321 -0.001968641959963919 -0.001977187630073721 -0.0019662618559896494 -0.001974781162274233 -0.00196388175201538
          -0.0018462309736993155 -0.0018485704352282585 -0.0018509098967572015 -0.0020278961488652807 -0.0019936430858768658 -0.0020254104382405515
          -0.001990050681259941 -0.002022924727615822 -0.001986458276643016 -0.0015569872693686996 -0.001228638887592525 -0.0015544915971981244
          -0.0012278058717983624 -0.0015519959250275494 -0.0012269728560041996 -0.0014107182679067318 -0.0014106447248072433 -0.0014105711817077547
          -0.0020751923725762624 -0.0020933503477987333 -0.0020777812020350605 -0.002095955849817474 -0.002080370031493858 -0.002098561351836214
          -0.0009082745982342362 -0.0009792548490020843 -0.0008562037989724041 -0.0007405481274300276 -0.0009107784644488467 -0.0009812837109664631
          -0.0008581400229535624 -0.000743079231608965 -0.0009132823306634573 -0.0009833125729308417 -0.0008600762469347207 -0.0007456103357879022
          -0.0019747334706414713 -0.0019721896636060977 -0.001969645856570724 -0.0005821097925051553 -0.00044891784724299637 -0.0005846940675778875
          -0.0004521869188356884 -0.0005872783426506196 -0.00045545599042838043 -0.002208730404815005 -0.002515194576857098 -0.002206442735491511
          -0.002512472488196118 -0.0022041550661680166 -0.0025097503995351383 -0.0025395488150584443 -0.0025352780440917357 -0.002531007273125027
          -0.0018630175817931122 -0.0018613047703452124 -0.0018595919588973125 -0.001950874094365798 -0.0019479028257181257 -0.0019449315570704531
          -0.0007179216612416802 -0.0007220020729430947 -0.0007260824846445092 -0.00042899239778223163 -0.00043144221304658545 -0.0004338920283109394
          -0.001897471936816767 -0.0021963517263825557 -0.0018941788363270988 -0.002194014911302284 -0.0018908857358374302 -0.0021916780962220124
          -0.0005378070472488785 -0.0005397640280234506 -0.0005417210087980226 -0.0007472156248000943 -0.0007512834145651485 -0.0007553512043302028
          -0.0019610576774726995 -0.0019579468999906353 -0.0019548361225085716 -0.002950718510086332 -0.0029439230426676318 -0.0029371275752489313
          -0.0003715179875533771 -0.00037430486726887846 -0.0003770917469843799 -0.0019328112133883903 -0.0019349047755870923 -0.001936998337785794
          -0.0028769274820444357 -0.0028486774759695025 -0.0025535156146093497 -0.00287013907068261 -0.00284232386337636 -0.0025484445259093052
          -0.0028633506593207843 -0.0028359702507832164 -0.002543373437209261 -0.000783546046281541 -0.0007895563003348189 -0.000795566554388097
          -0.0020194032052351686 -0.001955545232466349 -0.0020152068724846274 -0.001951824415005023 -0.0020110105397340857 -0.001948103597543697
          -0.0009227931977054598 -0.0009260512963101896 -0.0009293093949149194 -0.0011120794843319977 -0.0011142868988445692 -0.0011164943133571412
          -0.0021234954147314193 -0.0021209419533663697 -0.00211838849200132 -0.00041421457146201203 -0.000416924142372893 -0.00041963371328377404
          -0.0008460292414552529 -0.0010521187259471148 -0.0008471903877780701 -0.0010530808547560536 -0.0008483515341008874 -0.0010540429835649923
          -0.0010976490946680293 -0.0010998653161675236 -0.0011020815376670177 -0.0003094492359258124 -0.0003112116934678245 -0.0003129741510098366
          -0.0019410692286941811 -0.0019384509773592064 -0.0019358327260242316 -0.0020755149111208434 -0.0020721619438262805 -0.0020688089765317184
          -0.0030412082105230917 -0.0030344624359812714 -0.0030277166614394516 -0.0018727169966564594 -0.001872140646713232 -0.0018715642967700047
          -0.0019244330790590502 -0.0018827127998042987 -0.0019214519136194772 -0.0018809924708044273 -0.0019184707481799037 -0.0018792721418045555
          -0.0020273800246350645 -0.0020250349649464207 -0.002022689905257777 -0.0017506683511909315 -0.0017842473780808963 -0.0017502716325461325
          -0.0017831632273654862 -0.0017498749139013335 -0.0017820790766500763 -0.0018792922946867501 -0.0018775241622598026 -0.0018757560298328546
          -0.0017641561085994955 -0.00176351301329894 -0.0017628699179983844 -0.0018268318433217836 -0.0018262454563409759 -0.001825659069360168
          -0.0014655352150576202 -0.001524159698190313 -0.0014701345518588313 -0.0015278170879631924 -0.0014747338886600425 -0.0015314744777360715
          -0.0017214156717751557 -0.0017225988324710909 -0.0017237819931670256 -0.0017988020163586713 -0.0017987561166784693 -0.0017987102169982673
        </DataArray>
        <DataArray type="Float64" Name="disp_x" format="ascii" RangeMin="0.000007147104215885291" RangeMax="0.000050420492432100286">
          0.000035358123498589064 0.00003538389374652174 0.00003363685714582923 0.00003365468667969496 0.0000353618934247503 0.000035388324104079865
          0.00003364158843983491 0.00003365887191225728 0.000035373393923595364 0.000035400954043154895 0.00003365681063560006 0.00003367222245480953
          0.00004348153017562324 0.000040494072142594045 0.00003916266565729027 0.000040959443537207876 0.0000434819038845327 0.00004049575880373613
          0.000039163650595512405 0.00004095926320457182 0.00004348315586818787 0.00004050108801291277 0.00003916689420803353 0.00004095885732877944
          0.000033558411963073815 0.00003489095438561187 0.00003356196614095367 0.000034894678435037975 0.00003357190254995411 0.00003490577998892561
          0.000041095601258164186 0.00004139122706439115 0.00004436442527287734 0.00004390109491378915 0.00004109105488897096 0.000041385042434355784
          0.00004435734429157506 0.000043895281502542595 0.00004107628253138268 0.000041367749375309424 0.00004433685653857986 0.000043881341745837096
          0.0000373673735776851 0.00003892109669176295 0.00003736772455530042 0.000038920752538171284 0.00003736854079736509 0.00003891895679105871
          0.000017954728285373853 0.000019841281913416665 0.00001940584955019415 0.00001688667547054594 0.000017950913936727465 0.00001983598977400388
          0.00001939937615633689 0.000016883831803322636 0.000017937872280384036 0.000019819038089319484 0.000019379517052514965 0.000016873925998400845
          0.00001800555122040508 0.000021211610426071812 0.000021437163136055698 0.000018658206855546323 0.00001801189187909951 0.000021216606289588804
          0.00002144164586119262 0.00001866325133853943 0.000018032120431320016 0.00002123385019786569 0.000021457350274839876 0.00001867639650873523
          0.0000336950891533369 0.00003518946302356191 0.00003369853113273886 0.000035192880874140805 0.000033709233090694944 0.000035203123380173335
          0.000011668673042659856 0.000010954151451307484 0.000013314855127179494 0.000013973408567086518 0.000011678390336072532 0.000010965465745652859
          0.000013325011479607641 0.000013981811891167793 0.000011708796773691515 0.000011001353274588294 0.000013354879951459283 0.000014006116732580824
          0.000039314208063479135 0.00003924700946385169 0.00004141217444508334 0.00003931864085233372 0.00003925139226780887 0.00004141646547011473
          0.00003933213885037974 0.00003926420633142064 0.000041426112987003406 0.000022439369707301262 0.000025956108077046926 0.00002516809172181167
          0.000022092310386905513 0.000022442453576356534 0.00002595578963548426 0.000025168571644277734 0.000022096084929912658 0.000022451361758303122
          0.000025955110577265644 0.000025170175650297304 0.000022106489028985937 0.000018094759604781222 0.000020579771696241086 0.000021414617090465158
          0.000018939645596626532 0.000018097408810698347 0.000020582117438698354 0.000021415237555148866 0.00001894048407719767 0.00001810443901235802
          0.000020588917981534446 0.000021417651891315422 0.000018942110979224538 0.00004092431330039452 0.000040920733643276346 0.00004091015165251105
          0.00001893140607771561 0.000020683920216203705 0.00002114237312353021 0.000018928402763506556 0.000020680740646954844 0.000021138812160430806
          0.000018919784934419857 0.00002067073897817908 0.000021128744420111852 0.000016983907760027784 0.000019573489240633934 0.000016988090343194166
          0.000019577265611447315 0.000017000672790298733 0.000019588518528690247 0.000037981433673170143 0.000037896597796178496 0.0000350090218054748
          0.00003461917367193152 0.000037976367725146425 0.000037892414313743824 0.00003500429170161569 0.000034614158548547295 0.000037960347658010056
          0.000037879187652962784 0.000034990263434420784 0.000034599687646868136 0.000009117178662680114 0.000009877561545731947 0.000008640053307186444
          0.000007756635977369273 0.00000912940343581427 0.000009889576720614256 0.000008652404841679074 0.000007769009898674582 0.000009164700106156146
          0.000009923627648900213 0.000008691464637009535 0.00000780666749845229 0.00003763834038936072 0.00003993544012162428 0.000036939162534005934
          0.00003763602524079154 0.00003993384401042385 0.00003693780858527256 0.000037629732652894904 0.000039929018128529944 0.000036934758558069523
          0.000007147104215885291 0.000008544073490065038 0.000007157898217506724 0.000008556622919404225 0.000007191576137454966 0.000008591553796800184
          0.000027643194917207943 0.00002419541989998746 0.000023356196425830663 0.00002616686252361581 0.00002764224617808833 0.000024196050420307195
          0.00002335821658692997 0.000026166615272843348 0.00002763935087464053 0.000024198041425896402 0.00002336501290242566 0.00002616634182867604
          0.000037874964863920135 0.00004055083746899001 0.00003787164474504951 0.00004054842311340054 0.00003786064793156594 0.000040540636854512324
          0.000012568461578859399 0.000013974249802602124 0.000012572560724345462 0.000013975875014809366 0.000012583678018153094 0.000013980907968357403
          0.0000287768746536838 0.000030207837450101884 0.000028774139161413668 0.000030205318678689445 0.00002876450941974673 0.000030197028945691332
          0.00003471273762789668 0.000033698284360654145 0.00003273993263405046 0.00003368564649934322 0.0000347155472408981 0.00003370110228737276
          0.00003274166530810153 0.000033687215566889125 0.000034723911839088135 0.000033709610414852825 0.00003274737247348417 0.000033692576712849136
          0.000023039991933935294 0.000023387599570160455 0.000023035982095498552 0.000023383147049117213 0.000023022665669076885 0.000023372430378100565
          0.000011279945195243891 0.000011286488851163527 0.000011306437216678113 0.000022072498292205405 0.000024693128978066677 0.000022071495343060266
          0.00002469281658576844 0.000022068090748340475 0.000024691360725623035 0.000016549849399359988 0.000017961594890151642 0.00001623700130802159
          0.000016550323435774585 0.000017959563877313046 0.000016235805642055113 0.000016552650285261752 0.000017952713172587087 0.000016232806240064006
          0.000011631517788318267 0.000012795203578875066 0.000010210760943412587 0.000011640022124311217 0.000012801294076837062 0.000010219731530561365
          0.000011665339075283983 0.000012819319077877462 0.00001024715267475607 0.00002173994637389578 0.00002173565881486643 0.000021723649411657085
          0.000010448697666464248 0.000010460642296397222 0.000010498554525878229 0.00004518569373355268 0.000046183406783200645 0.000045188757635150474
          0.000046185296486854544 0.00004519717663331414 0.000046190994595167696 0.000014260528258549733 0.000014264290319388322 0.00001427621258834788
          0.0000273495907735332 0.000025078155010753432 0.00002724068520634619 0.000027349075965223995 0.000025076401042068378 0.000027240571353405824
          0.000027346986244565015 0.000025072652433263173 0.000027240579741823677 0.00002502024836780792 0.000027636812362319508 0.00002502153781307916
          0.000027634689898585834 0.00002502534842009349 0.000027628263695740554 0.00003276268523200597 0.000031764720402328065 0.00003152873152924493
          0.00003267119179645793 0.00003276650950520536 0.00003176872387872675 0.000031532738107776494 0.000032675435466764395 0.00003277819049080312
          0.000031780998151387347 0.00003154532587576842 0.00003268827361239261 0.00003540034459875806 0.00003381073390124838 0.000033665040868759776
          0.00003534101022957493 0.00003540570073264656 0.00003381578470375971 0.000033670256189967354 0.000035345982358340664 0.00003542183469567476
          0.000033831563385198325 0.0000336871355853728 0.00003536035260249015 0.00004397383874219636 0.000041724707663818186 0.00004350437677745299
          0.000043977381923644575 0.000041728831330550356 0.00004350809255904646 0.00004398954856022818 0.00004174192640754582 0.000043518903637364574
          0.00002015276701417153 0.00002015009131753856 0.00002014135279067738 0.000014978629748671255 0.000014978786541220504 0.000014981135870874421
          0.00003123291599727266 0.000030450855957489324 0.00003123654174380676 0.000030453316280110983 0.00003124708625676021 0.00003046095015532585
          0.00003241413669534009 0.00003403742638629811 0.000032418865897359626 0.000034042314630944105 0.00003243262146850834 0.000034056225795970036
          0.000022606782313835803 0.000022604183352801396 0.000022596113784556032 0.00003775627592947293 0.0000392973992953612 0.000039203116974972545
          0.00003722291648535752 0.000037760531441615735 0.00003930221236268672 0.000039207980349324383 0.00003722771320255456 0.00003777372509124981
          0.0000393173000018264 0.000039222927337837486 0.000037241301593798165 0.000040879250435329436 0.000040884500310642155 0.00004089838738330204
          0.00003739272352962286 0.00003739623630408067 0.00003740549735497579 0.000030360248466546004 0.00002949023287085815 0.00003035883194800134
          0.000029489888229123795 0.0000303539661913979 0.000029488759246387802 0.00002566806902736135 0.00002566415471158134 0.000025650875061555253
          0.000031333845233138654 0.00003220789684534136 0.00003133430646731853 0.00003220801201956683 0.000031334817761792644 0.000032207712817541516
          0.000024907303168345036 0.000024902538091602325 0.00002488520096290744 0.00003640301078050109 0.00003526520646802109 0.00003640565908693297
          0.00003526693726198512 0.00003641330168390034 0.000035271792439537615 0.000037061078724245035 0.00003706427068584356 0.00003707318751987855
          0.00003719478081681857 0.0000372000681632926 0.00003721601321737112 0.000033714742469317184 0.00003371517109140442 0.0000337162558761116
          0.000025668444647357107 0.00002396804475832997 0.00002566293359925585 0.000023963777880929945 0.000025643946489027536 0.00002395346336577598
          0.00003194044468502293 0.00003193901008207371 0.000031934539658279316 0.00004551286975552388 0.0000448258998277391 0.00004550973288107951
          0.00004482479154315518 0.00004550069339967657 0.000044821572683208205 0.000019237224611663472 0.00002164206763953278 0.00001964712382642497
          0.000019243448926916388 0.000021647121388363795 0.00001965334442232437 0.000019265231185454304 0.000021659014164839068 0.00001967325699256387
          0.000029970085532214103 0.00003444696943108751 0.00003134757026955966 0.000029967392759261962 0.00003444225614322456 0.00003134393852873639
          0.000029959275190782036 0.00003442881686780538 0.00003133149461482762 0.00002469803110773585 0.000022351443897824738 0.000024693170552763904
          0.000022345128942266028 0.0000246797543372673 0.000022324418574866382 0.00004842228749366256 0.000046082520091604444 0.000046737180205436975
          0.00004842213385640979 0.000046083147932811724 0.00004673727130384447 0.0000484215445455655 0.00004608509478978615 0.000046737360922124534
          0.00004310501267180218 0.000042303991274868706 0.00004310303866300209 0.000042303344341537595 0.000043097580682538414 0.000042300211325517827
          0.00003641792138277837 0.00003642235962325203 0.00003643569544730993 0.00003487011651911077 0.00003096407710446267 0.00003486538787729347
          0.0000309610709970442 0.000034851046158764245 0.00003095207786726577 0.000027007658627716745 0.000023106047401787243 0.000027006962332161944
          0.000023108470146634402 0.000027003443651878515 0.000023115830063977224 0.000024012535813284566 0.000026533460970103 0.000024015223650211726
          0.000026532789452589597 0.000024024117610925192 0.0000265291476735327 0.00002233448961660537 0.000022338052239550625 0.000022348506361050146
          0.00003858927441602899 0.000038135899318312656 0.00003858354242891661 0.00003813070401784846 0.00003856441687238758 0.00003811328995982236
          0.00004202680676400507 0.000042020208623385054 0.00004199988840624185 0.000040086531892843885 0.00004009144609636601 0.00004010590364793668
          0.00004510743851440825 0.00004509981356241441 0.000045074656623051514 0.00003954052237387812 0.00003954446042062508 0.00003955603178201485
          0.000039110715239600826 0.00003911380430081097 0.000039122918348325156 0.000046830281013608796 0.000047798522128506655 0.00004682272844313705
          0.000047791779383691086 0.00004679701708533737 0.000047771461494322155 0.000035572853046827326 0.00003718438772605106 0.00003557345739665603
          0.00003718617475322419 0.0000355746793664881 0.00003719094409367559 0.000029282207897294078 0.00002928256435538358 0.0000292834347234937
          0.000035598812471438225 0.00003560423939086694 0.00003562079019162843 0.00003832839186270673 0.00003833107698488362 0.00003833898816416046
          0.00001950761240297552 0.00001950687529996369 0.000019504054363497666 0.000026940525705242108 0.000026936010531837932 0.000026920292219416772
          0.000026863317560037267 0.0000268594255052741 0.000026847375206292036 0.00003116827375105529 0.00003237351963558879 0.00003116428927815282
          0.00003237054413245786 0.00003115148903977891 0.000032362047475188067 0.000030181193412723484 0.00003017718596418306 0.00003016463903268563
          0.000024852113628373253 0.00002326891081691646 0.000024852875745784055 0.000023272370297260967 0.00002485579193978366 0.00002328137695259186
          0.00003735170198975397 0.000039497356941586746 0.000037625602870480635 0.00003735718723240575 0.00003950216212468604 0.00003763073482982075
          0.000037372916077485164 0.00003951694359932803 0.00003764604122594461 0.000038042876111549884 0.00003804740762300887 0.00003806099268388063
          0.00002923469902145169 0.000029231266657805735 0.00002922014534170759 0.000041297118610372156 0.00004162209104981746 0.00004130002974085066
          0.000041626248428009566 0.00004130800493903648 0.00004163872624758794 0.00003207567120960091 0.00003273040313632356 0.000032071408597268086
          0.00003272610040022022 0.000032058476497312375 0.00003271278040774383 0.00003339706912149202 0.00003339325856365315 0.00003338129898595525
          0.00003528409597626709 0.00003550726273863082 0.000035280278753335845 0.00003550449957159286 0.00003526794255001432 0.00003549493814912553
          0.000028422665007884 0.000028412537704558743 0.000029526436190273437 0.000029467845096823305 0.00002842064589016889 0.000028410963897222714
          0.00002952831533298899 0.000029468806550077204 0.000028413602459021622 0.000028407967750984154 0.00002953416232015734 0.00002947060164110936
          0.00003220497489497673 0.00003220969853206891 0.00003222300577660102 0.000027758020902977212 0.00002775690907428323 0.000027754393065546446
          0.000016013173900461123 0.000017157752881708923 0.000016016534705179345 0.00001715945621343948 0.00001602804302345827 0.00001716371495000552
          0.00003390592431443479 0.000033904950768707646 0.00003390143655027784 0.000047806573447853326 0.00004562817845818611 0.000047806578517686856
          0.0000456295845273143 0.00004780685104191651 0.000045632825691199854 0.000010685281512787004 0.000009366495852677774 0.00001069561389534498
          0.000009377597996242405 0.000010726500588167019 0.000009411359570803908 0.00003979761200863718 0.00003980234291103201 0.00003981655219856213
          0.000034323907215168796 0.00003560824555139684 0.000034321787802074815 0.000035606382368624736 0.00003431348246238475 0.000035599745163118604
          0.000030789938233533894 0.000032175999905596536 0.0000321401984856662 0.00003079071326396584 0.00003079220568523064 0.00003217962523700526
          0.000032144571171608724 0.000030793692950743005 0.00003079950293223771 0.00003219031473798808 0.000032157095621159805 0.00003080270756315772
          0.000014684568492047776 0.000014689998481549133 0.000014705988934926112 0.000030742305795340985 0.000030150140497357974 0.00003074583382146201
          0.000030152720869804132 0.000030756587233399706 0.000030161543691026013 0.000014848976097751486 0.000016575630623485624 0.000014856143860078816
          0.000016583510678948914 0.000014876145874304551 0.000016606049761247335 0.000016077754063128144 0.00001608603440834085 0.00001611046821459368
          0.00004212466438624709 0.00004212931108700971 0.00004214329022850334 0.000013484046086326128 0.000013491178924119236 0.00001351353383383885
          0.000029503066596692003 0.00002950519808190112 0.000029511186570812086 0.00002846808154870119 0.000028467202527051943 0.00002846442446022239
          0.000012520236585797279 0.000015866060336679372 0.000012528732338812652 0.000015871562747699393 0.000012554783711614941 0.00001588773424816259
          0.00003123956945708153 0.000031243554058143636 0.00003125508855701354 0.000027492727689088217 0.00002748938982840534 0.000027476278091455092
          0.00004343641948800363 0.000043440259455794195 0.0000434521838442866 0.000028290485964834216 0.000028288474284526615 0.00002828213503513787
          0.00002942717394205522 0.000029427841727309718 0.00002943002090235693 0.000035661660457099936 0.000035661013448606964 0.00003565821707376632
          0.000019376794910267685 0.00001916910797493401 0.000015940606167222838 0.00001938277428701671 0.000019175554603648778 0.00001594937007667
          0.000019401261238193542 0.00001919426652958054 0.00001597573206920395 0.000028189214375816626 0.000028188269387473732 0.0000281871170666182
          0.000044919751880672673 0.0000435317895701036 0.00004492231043194384 0.00004353518038912321 0.00004492788294534558 0.00004354648754859147
          0.000029372045128942513 0.00002937350015232721 0.000029376821058586227 0.00003234784071361476 0.00003235071991916422 0.00003235861323603929
          0.000012926748202442684 0.000012937969223730411 0.000012971540341286738 0.00003028960120242134 0.000030292441381849595 0.000030300662168522933
          0.00003437241317539008 0.00003593024133857397 0.00003437673609315567 0.00003593521186321435 0.0000343889396538147 0.00003595042089430303
          0.00003092698310983063 0.00003092854148921869 0.00003093287767200965 0.00002935271792475589 0.00002935387113237885 0.00002935644680175426
          0.00004598746971965991 0.00004598066114383512 0.00004595935600361056 0.00004707180914803577 0.00004707269364308316 0.000047074220844802735
          0.000027631726286819406 0.000027630432320301013 0.000027626370383888788 0.00004311354910464179 0.00004311750718751173 0.00004313025814208915
          0.00004358800661405773 0.000043631787280575567 0.000043591438569737625 0.00004363408960060614 0.000043601042381211555 0.0000436397514853446
          0.00004430600367692766 0.00004430136111320925 0.000044287910668296026 0.000047700643985190736 0.000048051431004299414 0.00004769708318486747
          0.00004804936139753015 0.000047685674686326686 0.00004804352888274514 0.000049195597232614355 0.000049194924612985484 0.0000491929118029999
          0.000050420492432100286 0.000050418675118708344 0.00005041236582072166 0.00004647913925507388 0.00004647387547798556 0.00004645663903181087
          0.000050132016897533395 0.00004943553947631305 0.00005012817160564585 0.00004943011102668657 0.00005011929542656462 0.000049413817227382896
          0.00004775107233960979 0.00004774690318732144 0.000047731464695758043 0.000047058696773072605 0.00004705179687480855 0.00004702729064893088
        </DataArray>
        <DataArray type="Float64" Name="disp_y" format="ascii" RangeMin="-0.00001885835762384183" RangeMax="0">
          -0.000014212726041050462 -0.000014948431022732659 -0.000015217098791584529 -0.000014586798750883032 -0.000014214569536643119 -0.000014950135197504268
          -0.000015219281466790028 -0.000014589366767879378 -0.00001422018071028059 -0.000014955151930336604 -0.00001522598959617691 -0.000014597182367640687
          -0.0000084904758610632 -0.000010146512540845981 -0.000009811563244000724 -0.000008463771652364645 -0.00000849062692086366 -0.000010147800943446836
          -0.000009813584152372914 -0.000008465378193297327 -0.000008490806690843528 -0.000010151580178236706 -0.000009819677128774711 -0.000008469941762244962
          -0.000018171225489348218 -0.000018419076515011467 -0.00001817178381677004 -0.000018419789067902433 -0.000018173264728184087 -0.000018421708699582406
          -0.0000028856646248722624 -0.0000014273784779622564 -0.0000012381699240632772 -0.0000024740515505995117 -0.0000028872218463052155 -0.0000014280563909424206
          -0.0000012378886728711226 -0.0000024742428418544244 -0.0000028923738738823775 -0.0000014293808306720228 -0.0000012350408630932775 -0.0000024767832780999917
          -0.000009700745265968303 -0.00000847754422547038 -0.000009703675025134581 -0.000008479962590481199 -0.000009712881250733443 -0.000008487643815525963
          -0.000009028296957239537 -0.00001041625331891314 -0.000010395089301551523 -0.000008607394982748537 -0.000009029967965553058 -0.000010419165554813681
          -0.000010397796033640952 -0.00000860821633761845 -0.000009036895525679558 -0.000010427455049272438 -0.000010405641129894311 -0.000008610923596460343
          -0.00000413929523707295 -0.0000052494755481481775 -0.000006448084210370886 -0.000005606972503058011 -0.000004141237695301229 -0.000005252599732243404
          -0.000006451876869449749 -0.000005609436287523173 -0.000004147372426266989 -0.000005263007786047364 -0.000006463466196756711 -0.000005616499224566575
          -0.000013982534163553385 -0.000013571599495700574 -0.00001398541488370322 -0.000013573851851167415 -0.000013994187271788992 -0.000013580070331225768
          -0.0000017758545524873407 -8.313290481924584e-7 -0.0000010597324946681943 -0.000002182231471317062 -0.0000017746814354752183 -8.301686731073861e-7
          -0.0000010598867961501143 -0.0000021825657562142794 -0.000001772185252153748 -8.260928093373473e-7 -0.0000010594734811249547 -0.000002183971647747568
          -0.000017020348220267406 -0.000016109412400950786 -0.000015826187597342538 -0.000017021811001400563 -0.000016110822886252174 -0.000015827652407878544
          -0.000017027088981105512 -0.00001611417279481267 -0.000015831558787899908 -0.0000014915028316114318 -0.000001660471143095043 -0.000003202259499505559
          -0.000002923162840050701 -0.0000014925037226903904 -0.0000016613995998256583 -0.000003204092150895769 -0.0000029249540601441753 -0.0000014954449821597297
          -0.000001665147420682052 -0.0000032097566403151975 -0.000002930047645468249 -0.000007149211816305133 -0.00000817968877041105 -0.000009287420198417891
          -0.000008121617814729738 -0.000007151612509186877 -0.000008183693593998304 -0.000009292184685538223 -0.00000812443367902091 -0.000007159084847404749
          -0.000008196058497548655 -0.000009306155880416988 -0.000008133534682331308 -0.000004371904789057191 -0.000004374320922994786 -0.000004381628089637002
          -0.000009329737996951185 -0.000010347508571985734 -0.00001095256830346943 -0.000009331968839245312 -0.00001035122422666722 -0.00001095618402145096
          -0.00000933982051459857 -0.000010361227011338856 -0.00001096784942418413 -0.000005978168878816329 -0.000006940631570702466 -0.0000059800711881307885
          -0.000006943799958486325 -0.000005985918802101081 -0.000006952891234026822 -0.0000031836394963231016 -0.000004688575747285621 -0.000005076243221693403
          -0.000003478242806839245 -0.0000031860504049898664 -0.000004692062037463057 -0.0000050801706368645046 -0.000003481227978867768 -0.0000031945424202686266
          -0.000004702113830377834 -0.000005091858885615133 -0.0000034905755645882923 -6.788567453177916e-7 -0.0000014558356970412324 -0.0000012725053074876678
          -6.363134930120872e-7 -6.77367896787118e-7 -0.0000014541485318983995 -0.0000012701921854690782 -6.344048779408719e-7 -6.699451401127846e-7
          -0.000001448347840323749 -0.000001265012452442585 -6.296722394352973e-7 -0.000007381378049713117 -0.0000072109683869375295 -0.000008477515400421821
          -0.000007384951281676798 -0.000007213527294038185 -0.000008481038832037968 -0.000007396036944525924 -0.000007220212634690886 -0.000008491160405358511
          0 0 0 0 0 0
          -0.000011339688292309687 -0.000010387870327388667 -0.000009138368166622834 -0.000009617297276045692 -0.000011346580759244704 -0.000010394208575932715
          -0.000009143956564820892 -0.000009623860470101788 -0.000011367538567758629 -0.000010414090454946671 -0.000009161290565207904 -0.00000964447300112367
          -0.0000061042686231338265 -0.0000058560390858238875 -0.0000061080182616396664 -0.000005858513551042603 -0.000006119275173583932 -0.000005866315256561316
          -0.0000047783340753819785 -0.000006077846310296305 -0.000004775809595347207 -0.00000607603736795488 -0.000004768044323016233 -0.0000060702966074198905
          -0.000009529548538658074 -0.000010728058761669782 -0.000009536322962933493 -0.000010734506498037042 -0.000009557004086018233 -0.000010754573288615621
          -0.000013125347468739095 -0.00001357050134313698 -0.000013543615258130707 -0.000012885828206777425 -0.000013128099592338325 -0.000013573623303610394
          -0.00001354757462793155 -0.000012889493198095404 -0.000013135851539787829 -0.00001358299237392729 -0.000013559205924051648 -0.000012900260775032544
          -0.000011673882993837885 -0.000012214802843794534 -0.000011677854365553443 -0.000012219140157991847 -0.000011688422364684103 -0.00001223058629502239
          -0.000003658601490987887 -0.000003655681422961425 -0.000003647169518599226 -0.000010231379881470203 -0.00001142203224370532 -0.000010236358300676853
          -0.000011428414129150782 -0.000010251740704088812 -0.00001144725792061341 -0.0000072607164673670595 -0.000008526246352149922 -0.0000077343984429471
          -0.000007261262515565244 -0.000008527791613945174 -0.000007735078984065749 -0.000007262204428026809 -0.000008532931251436573 -0.000007736663350552622
          -0.000003208210019230606 -0.000004272850514030282 -0.000002706580623791817 -0.0000032068460043995636 -0.000004271577883634255 -0.000002703586045642506
          -0.0000032025603278148705 -0.000004268370745820624 -0.00000269418816479983 -0.00001158633896776557 -0.00001159025837961934 -0.000011601587830856666
          0 0 0 -0.000013684466163383682 -0.000012474857444942511 -0.000013685334179782112
          -0.000012474767490969913 -0.00001368795775249136 -0.000012474181363872101 -0.000005528862496569757 -0.000005528107468516966 -0.000005525997452620958
          -0.000013204799035189176 -0.000012273065508539503 -0.000012397633523740319 -0.000013211537349289325 -0.000012278663154438816 -0.000012404234886848644
          -0.000013232054599020929 -0.000012296145008302355 -0.000012423790727650359 -0.00000820702715429153 -0.000008135677596067159 -0.000008212716828889734
          -0.000008141568341730653 -0.000008229836431861799 -0.000008159092974253304 -0.0000174588036204397 -0.000017047332779289965 -0.000016738716042769465
          -0.000016901943631744 -0.00001745924575292248 -0.000017047790120197816 -0.000016739345650342102 -0.000016902668956650123 -0.000017460619628272613
          -0.00001704858689895327 -0.000016741504940962863 -0.000016904743067613665 -0.000016480249312457734 -0.00001648114701212159 -0.000015862033617559032
          -0.000015745229153387105 -0.000016481895009971467 -0.000016482721123012143 -0.00001586395462584749 -0.000015746823985445188 -0.000016487287112905004
          -0.000016487800339200085 -0.000015869734731672733 -0.000015751693699766177 -0.000014817492370606945 -0.000014688215965303802 -0.000013711490966314458
          -0.000014818776757739077 -0.000014689447376707584 -0.000013712248655771082 -0.00001482412340087342 -0.000014694079321629596 -0.000013714864497718314
          -0.000009686746121264317 -0.000009690080295116827 -0.000009700505042958718 -0.000007231659587546794 -0.000007231367537486702 -0.000007228059705931241
          -0.000017061940021354727 -0.000016584789611277814 -0.000017062177635327658 -0.000016585393277315307 -0.00001706263188143368 -0.000016587322690557925
          -0.000016396810282058413 -0.000017096119311686833 -0.000016398217503055874 -0.00001709755629689747 -0.000016401411539769132 -0.000017101772419554893
          -0.000011019346089790457 -0.0000110239122862155 -0.000011037958868874918 -0.000014392450881913686 -0.000014507214523600247 -0.000015210120233069106
          -0.000015502473163392847 -0.000014393579658411527 -0.000014508099684851156 -0.000015211085957949486 -0.000015503514693795553 -0.000014396841819254801
          -0.0000145108713327691 -0.00001521411524625236 -0.000015506192644218232 -0.000013858492502771738 -0.000013859440403274618 -0.000013861353533435642
          -0.000013505763812481588 -0.000013507258969448672 -0.00001351154937242885 -0.00001231254929590165 -0.000013063487187753813 -0.000012318443959635496
          -0.000013069710452858224 -0.000012335847070775932 -0.000013089210224093998 -0.000013130990328835918 -0.000013136777043186916 -0.000013153137556958292
          -0.00001341147438711948 -0.00001269150998120502 -0.000013416719298902569 -0.000012696341393599549 -0.000013432087516346058 -0.000012711524180713267
          -0.000012996556653649747 -0.000013002289445525084 -0.000013015659062333115 -0.000012320442807085367 -0.000012040069012681869 -0.000012323037965388544
          -0.000012043477118659486 -0.000012330192857956332 -0.000012053653729104828 -0.000012808176193887275 -0.000012810208865500205 -0.000012815914735354877
          -0.00001635134845223509 -0.000016352764751315004 -0.000016356247019464837 -0.000011845339945790004 -0.000011849721975279866 -0.000011863114647837959
          -0.000013611223930193914 -0.000012846266523177523 -0.000013616554178603626 -0.000012851755878738644 -0.000013635244631805138 -0.00001286999167497298
          -0.000011499412993774126 -0.000011504822378517454 -0.000011520195301805322 -0.000005376174724790632 -0.0000067096061270241896 -0.00000537584254172761
          -0.000006709865334157148 -0.000005375683182278509 -0.000006711034714598731 -0.000002698814618284213 -0.0000041789390364246 -0.000003652020167071745
          -0.0000027009114940579733 -0.000004181402042723642 -0.000003654219617279938 -0.0000027051591046456897 -0.000004189701353049439 -0.000003661338313770447
          -0.000002181006747740705 -0.0000017498862326085963 -0.000003990996097533325 -0.0000021825589612507567 -0.0000017515662163824154 -0.0000039940239994894145
          -0.000002186775895777695 -0.00000175717888838724 -0.00000400307988234768 -0.000013509914656886154 -0.000012190257790070918 -0.000013515845886904736
          -0.000012195154890032304 -0.000013535900540732254 -0.000012208315592441764 -0.000008775970393646285 -0.000009091245973199736 -0.000007783548571587322
          -0.000008774204264749232 -0.000009089941486667431 -0.000007782211820413355 -0.00000876916944381695 -0.000009085874106808675 -0.000007778461308829927
          -0.00000563397386848893 -0.000007033592956649604 -0.000005635301872362018 -0.000007035145246862453 -0.000005639945852281084 -0.000007039585628508983
          -0.000018675734424436817 -0.000018677119958179326 -0.000018680972890712474 0 0 0
          0 0 0 0 0 0
          0 0 0 -0.000006847876323601638 -0.000006661622504432039 -0.0000068519492674331935
          -0.0000066660624698878164 -0.000006865690623491152 -0.000006678625605205908 -0.0000077935301343742 -0.00000779824692973766 -0.00000781128706729675
          0 -0.0000015858957991572862 0 -0.0000015872526154370986 0 -0.0000015910242958920837
          0 0 0 -0.0000132090081042328 -0.000013209865034010424 -0.000013211673460934915
          0 0 0 -0.000012521750883383067 -0.00001252295420105302 -0.000012526477388801396
          -0.000011825764046288439 -0.000011827439973023626 -0.0000118327813412818 -0.0000011765671774542474 0 -0.0000011754971549929541
          0 -0.0000011670020956468016 0 -0.00001083036027713799 -0.000011003944133838785 -0.000010834249817344123
          -0.00001100686306766402 -0.000010845548557889209 -0.000011015501904831612 -0.000013785391664384582 -0.000013791836131782129 -0.000013811959935633651
          -0.000017192692589620316 -0.000017194522059453713 -0.00001719986681531455 -0.000011326291123062577 -0.00001132859838334788 -0.000011335198643069391
          -0.00000891608937556007 -0.000008919382271401696 -0.00000892885161428908 -0.000014095396513192998 -0.000014100677070999222 -0.000014118846497234464
          -0.000014564713450385973 -0.00001457003074255025 -0.00001458500761205331 -0.00000890208030618469 -0.000009925512398171162 -0.000008907880491065576
          -0.000009930980180204112 -0.000008925298067463403 -0.000009947682064681593 -0.00000759124558159802 -0.000007596689332924822 -0.000007612911581808378
          -0.000004970734274587547 -0.000005793629462767269 -0.000004973785631386831 -0.000005797175185328834 -0.000004981720091885759 -0.000005806317531305528
          -0.0000171649230273267 -0.000017924372375441266 -0.000017990675106994666 -0.000017166719489509547 -0.00001792650392716379 -0.00001799270194290698
          -0.00001717224026729941 -0.000017932697733418755 -0.000017998912419791955 -0.000018835052932446517 -0.000018837255471452084 -0.00001884374978463542
          -0.0000061325491237810785 -0.000006136999047348683 -0.0000061502298710088486 -0.000010746614067963059 -0.000011519639900829494 -0.00001074764077562147
          -0.000011520388908034125 -0.000010750915950376994 -0.000011522925944951943 -0.000005524576664542388 -0.000006948987487003476 -0.000005528840107971373
          -0.000006954053377782463 -0.000005541804182434135 -0.0000069692459407442314 -0.000008174204975522487 -0.00000817935271326107 -0.000008195345150943083
          -0.000006442822159916568 -0.000007640391089169 -0.000006447429920861789 -0.00000764483474170418 -0.00000646146944621398 -0.000007659432966587507
          -0.000015298677197848496 -0.000014992668888033057 -0.000015388251895330806 -0.00001567157619850087 -0.000015301937637790098 -0.000014996499751648023
          -0.000015391405662622718 -0.00001567399767463454 -0.000015311232565712158 -0.000015006568961486721 -0.000015401384962304913 -0.000015681135726989687
          -0.000015866976738297017 -0.0000158690724462952 -0.000015875190642033873 -0.000013942017897221294 -0.000013948658745060586 -0.000013969796513724087
          -0.000006254739363943201 -0.000007184287030575259 -0.000006255782187254291 -0.000007185657328325564 -0.000006258017786222787 -0.000007190236481679338
          -0.0000105234444008299 -0.000010528146664264719 -0.000010542164830432506 -0.000009981937930090951 -0.000010240130681823092 -0.000009980447800811654
          -0.000010239227980919358 -0.000009976047181396113 -0.00001023514591121359 -0.000002284420349482517 -0.0000019283210784486664 -0.0000022829320049954706
          -0.0000019256393432745534 -0.000002278903157769713 -0.0000019178348593748354 -0.00001884727989637818 -0.000018849792660953922 -0.00001885835762384183
          -0.000009046737597557242 -0.0000084167637284785 -0.000009051629070968235 -0.000008421067360196501 -0.00000906532125485428 -0.000008433737879750062
          -0.000014676858394674294 -0.000014735691394748801 -0.000015316530809223497 -0.000015224063943337482 -0.000014681230924567434 -0.000014739154149218737
          -0.00001531940993529387 -0.00001522752882148292 -0.000014694523788960166 -0.000014749397749828557 -0.000015328195564727393 -0.000015237734832201234
          -0.000005053078295697818 -0.000005053465494987027 -0.00000505441843291439 -0.000015781283946453098 -0.000015886565552302777 -0.000015783661435776706
          -0.00001588856623453923 -0.000015790901654919865 -0.000015894402061406328 -0.0000034300567706953883 -0.0000025507499995110702 -0.0000034308951499050993
          -0.000002552058573760563 -0.000003432548065548245 -0.0000025568840419071457 -0.0000012574811255971623 -0.0000012583160443257312 -0.0000012620337552468895
          -0.000012190713053617867 -0.000012191190102333442 -0.000012192864717063181 -0.0000038684456110221445 -0.000003868378185574847 -0.000003868698533765437
          -0.000014972114481938169 -0.000014976628001383078 -0.000014990496601527175 -0.00001560225753380103 -0.000015605404357865988 -0.00001561551670683188
          -0.0000027952617714543244 -0.000004713824621849774 -0.000002794930829609311 -0.000004715060950153958 -0.00000279358377895498 -0.000004719030410060705
          -0.00001630923122817468 -0.000016310586845427567 -0.000016314575096234306 -0.000014576152903665204 -0.000014581461687083871 -0.00001459360116024603
          -0.00001276714197241423 -0.000012767596110980922 -0.000012768831754872686 -0.000004576800315752688 -0.000004579852844033576 -0.000004590003780575154
          -0.000015941285297390142 -0.000015943006279130756 -0.0000159473971828918 -0.000009501860184286 -0.000009505864799299225 -0.000009517167660024138
          0 -0.0000013817006552853097 0 0 -0.00000138254109913664 0
          0 -0.0000013857883296833087 0 -0.000014571360542923404 -0.000014576609599332114 -0.000014593464119075746
          -0.00001135126345374194 -0.000011438265585690585 -0.000011351000737173335 -0.000011438444636961413 -0.000011350520091134754 -0.000011438777421620924
          -0.00001442899830124388 -0.000014434900312443347 -0.000014452196072650047 -0.000014129178808231935 -0.000014133061299344261 -0.000014144587845167126
          0 0 0 -0.000016164533873752196 -0.00001616603659864948 -0.000016169676537884946
          -0.00001774478735208922 -0.000017923009714478653 -0.000017745897219125056 -0.000017924591878302937 -0.0000177488188977496 -0.000017929612524781815
          -0.000014070039526998361 -0.000014075129499501146 -0.000014090515975134788 -0.000016196648641445374 -0.000016197731403093392 -0.000016200968069683986
          -0.0000020688323163280304 -0.0000020680502403338806 -0.0000020673752080757177 -0.000011216832309174871 -0.000011216138435586524 -0.000011213216145065754
          -0.0000034060168219600043 -0.0000034084798235313017 -0.000003414186460054753 -0.000015611514155098078 -0.00001561302415295563 -0.00001561728235762438
          -0.000010744370869982722 -0.000009774004868120389 -0.000010744342661649387 -0.000009773694383285356 -0.000010742859616422804 -0.000009772366281307926
          -0.000003900092533563239 -0.000003901155012626297 -0.000003903771844842031 -0.0000048928476976754144 -0.000006056376057972041 -0.000004891358420388249
          -0.00000605469073897674 -0.000004885960096028422 -0.0000060496585750773435 -0.000007545051720141811 -0.000007542907285127793 -0.000007536489015205512
          -0.000006301633385292449 -0.000006299151852420872 -0.000006290946720077584 -0.0000041678185074818225 -0.000004166889975095041 -0.000004163006572115408
          0 -0.000001328909238928777 0 -0.0000013279009858505914 0 -0.000001325259847493141
          -0.000004193687460131874 -0.000004192295854094258 -0.000004187304961406665 -0.000002541177375563598 -0.0000025407674041557992 -0.000002541657788818933
        </DataArray>
        <DataArray type="Float64" Name="disp_z" format="ascii" RangeMin="-0.000001063614368577465" RangeMax="0">
          0 0 0 0 -2.554613198625356e-7 -2.472343141810576e-7
          -2.1392224484149794e-7 -2.2502782751623927e-7 -5.10808795995101e-7 -4.943806910484963e-7 -4.278991779339749e-7 -4.501406008187536e-7
          0 0 0 0 -3.348077611854399e-7 -3.265394665640201e-7
          -3.254064071818481e-7 -3.362354888745758e-7 -6.695981294768254e-7 -6.52717504459718e-7 -6.507222415870226e-7 -6.724259802112344e-7
          0 0 -1.6076559917164477e-7 -1.823357477831133e-7 -3.21638838872884e-7 -3.6501776005081636e-7
          0 0 0 0 -4.0237685731835936e-7 -4.143219567398879e-7
          -3.8001198289659265e-7 -3.775309680860793e-7 -8.042317700142251e-7 -8.28195684812637e-7 -7.597563305523257e-7 -7.5297948354802e-7
          0 0 -3.308832209072931e-7 -3.4588784146103663e-7 -6.62101051057886e-7 -6.917061605070669e-7
          0 0 0 0 -3.3134682269087927e-7 -3.003717618319059e-7
          -3.2125091027406123e-7 -3.5522290333150585e-7 -6.618297203163e-7 -6.002102427726832e-7 -6.408560014237992e-7 -7.079714865436975e-7
          0 0 0 0 -4.3379256068560116e-7 -4.693365644680065e-7
          -4.3854397645564097e-7 -4.1452762737879145e-7 -8.671155016618317e-7 -9.372627131670533e-7 -8.761683348980192e-7 -8.289596916235236e-7
          0 0 -2.3783811775095275e-7 -2.6016624662288714e-7 -4.7601075492415574e-7 -5.203503057009837e-7
          0 0 0 0 -3.3438282187894435e-7 -3.1614686994383934e-7
          -3.872160055957257e-7 -3.916425740396562e-7 -6.672391665559853e-7 -6.329558019914402e-7 -7.733550279690146e-7 -7.826866107789346e-7
          0 0 0 -2.9042677685029846e-7 -2.993077320032793e-7 -3.1863004231382193e-7
          -5.80109118083227e-7 -5.981296685866976e-7 -6.376701630451084e-7 0 0 0
          0 -5.184488294217708e-7 -5.26099449575909e-7 -5.156196332565369e-7 -5.12051639207062e-7 -0.000001033972175971905
          -0.0000010499235447162972 -0.0000010288513961042705 -0.000001021646886628783 0 0 0
          0 -3.7168155813559715e-7 -3.7808621135669186e-7 -3.510772955662037e-7 -3.525189641437743e-7 -7.429405861894227e-7
          -7.558909374500593e-7 -7.022571258272161e-7 -7.041876920358706e-7 0 -3.9157838320901404e-7 -7.832859822398334e-7
          0 0 0 -3.2400298975196036e-7 -3.0864818378711016e-7 -2.973111456225804e-7
          -6.472340170508049e-7 -6.164132179469499e-7 -5.95719976582136e-7 0 0 -3.8180215691136645e-7
          -4.005793535937696e-7 -7.627363150590633e-7 -8.008115358350157e-7 0 0 0
          0 -4.3837980516977226e-7 -4.165324447176386e-7 -4.434275120686823e-7 -4.6827833688810177e-7 -8.761761624320661e-7
          -8.332136026326459e-7 -8.864614308990859e-7 -9.3546835107175e-7 0 0 0
          0 -2.3830576099907877e-7 -2.752711260106002e-7 -2.1974691452327858e-7 -1.7365198352038556e-7 -4.7632793246656003e-7
          -5.491007749632494e-7 -4.406144820726723e-7 -3.4934236507927067e-7 0 0 0
          -3.697408125962882e-7 -3.577333456977468e-7 -3.542881889262023e-7 -7.398453338637245e-7 -7.159372422791932e-7 -7.093270771840484e-7
          0 0 -1.2851654546473297e-7 -2.0215571415722773e-7 -2.604946843833623e-7 -4.044281520474415e-7
          0 0 0 0 -3.395297128427144e-7 -3.479058699115217e-7
          -3.8999773556172505e-7 -4.02947703602741e-7 -6.783954952714694e-7 -6.954304655509757e-7 -7.788675293257108e-7 -8.040471293907947e-7
          0 0 -3.933679933422497e-7 -3.694656991482882e-7 -7.87137248283742e-7 -7.392283560924158e-7
          0 0 -3.182565936430473e-7 -3.387984104847e-7 -6.354514614041407e-7 -6.758184859610333e-7
          0 0 -4.0419530933005233e-7 -3.49468239685289e-7 -8.070820984969658e-7 -6.987436987570412e-7
          0 0 0 0 -2.626337227622314e-7 -2.4708492603479806e-7
          -2.431456032944492e-7 -2.627609069640897e-7 -5.257883051874547e-7 -4.948321738001926e-7 -4.873966270370774e-7 -5.265107557201345e-7
          0 0 -2.7892123315452616e-7 -2.7164030225820693e-7 -5.576678736195013e-7 -5.40670016703061e-7
          0 -2.975904644517383e-7 -5.940405185286835e-7 0 0 -3.2247630048583844e-7
          -3.0488907796274417e-7 -6.453954850781026e-7 -6.102326417915164e-7 0 0 0
          -3.4563100252221237e-7 -3.3938916646613707e-7 -3.479997523959167e-7 -6.900353688646146e-7 -6.776316216832749e-7 -6.936113823759383e-7
          0 0 0 -3.1198807720496587e-7 -3.2650030387717086e-7 -2.7133350954057553e-7
          -6.232876353672295e-7 -6.525459338696974e-7 -5.420411214151253e-7 0 -2.77479038600368e-7 -5.559395156417329e-7
          0 -2.8918472727425783e-7 -5.790706596964814e-7 0 0 -3.678740248349905e-7
          -3.7651603318682344e-7 -7.338170926530014e-7 -7.516110836641887e-7 0 -3.3433798692775795e-7 -6.679671653811928e-7
          0 0 0 -2.4906743703988505e-7 -2.692011481208005e-7 -2.889630209379423e-7
          -4.986368548427489e-7 -5.3976809041217e-7 -5.778168669737932e-7 0 0 -4.3952292246632946e-7
          -4.4635567595691177e-7 -8.761680803829938e-7 -8.897898433170736e-7 0 0 0
          0 -1.5578059141364257e-7 -1.3484259336186515e-7 -1.3440510324158316e-7 -1.6290216281182728e-7 -3.117530667208488e-7
          -2.6947897586325367e-7 -2.693498245888359e-7 -3.2636981317726466e-7 0 0 0
          0 -2.3049114827657172e-7 -1.9574929709166255e-7 -2.0330628089600772e-7 -2.4045070818999345e-7 -4.609549159394394e-7
          -3.919265922323509e-7 -4.06824057556073e-7 -4.80792255238553e-7 0 0 0
          -3.5465482016456387e-7 -3.334086915196916e-7 -3.5752105282169845e-7 -7.092628160562922e-7 -6.661613497696346e-7 -7.147831707290215e-7
          0 -3.218650108330151e-7 -6.435008788173509e-7 0 -3.4841176652823143e-7 -6.938170828915032e-7
          0 0 -1.209226434624867e-7 -1.0959957589587162e-7 -2.4315304873736404e-7 -2.202971290583731e-7
          0 0 -1.6348294647791647e-7 -1.8805946499938767e-7 -3.2755676289497275e-7 -3.764244983028099e-7
          0 -2.9379753945613287e-7 -5.886386654877194e-7 0 0 0
          0 -2.7801148829675607e-7 -3.053456411552933e-7 -2.983203042881713e-7 -2.658680934068911e-7 -5.562050616242916e-7
          -6.118853206115845e-7 -5.963380550795406e-7 -5.315006133076678e-7 0 -3.2430576579010393e-7 -6.476387118381356e-7
          0 -2.7789005323429116e-7 -5.559630891408084e-7 0 0 -2.981960581456429e-7
          -2.6962459988582447e-7 -5.966612272927734e-7 -5.390146151127222e-7 0 -2.2997923804523086e-7 -4.6031523941693595e-7
          0 0 -2.4794588429191767e-7 -2.704498883624787e-7 -4.965312773832072e-7 -5.418139940109027e-7
          0 -2.53086754183994e-7 -5.083920180830183e-7 0 0 -2.827432398168329e-7
          -2.85141499012651e-7 -5.659577127855425e-7 -5.711037596555904e-7 0 -2.820913969361458e-7 -5.64334573574048e-7
          0 -2.6478677444199225e-7 -5.290823260335929e-7 0 -2.935909080046319e-7 -5.880754513516891e-7
          0 0 -2.2162730144164415e-7 -2.491553346483754e-7 -4.4317587357446636e-7 -4.962180022829088e-7
          0 -3.1328404136674325e-7 -6.27535185692232e-7 0 0 -3.421778432216849e-7
          -3.3691767010762786e-7 -6.830068053474264e-7 -6.734324380750731e-7 0 0 0
          -4.791500209359298e-7 -4.910548172074977e-7 -4.79437558131202e-7 -9.561523324197657e-7 -9.785681357628776e-7 -9.586118998700975e-7
          0 0 0 -5.136829872330816e-7 -4.899968649476621e-7 -4.914253989451289e-7
          -0.0000010254418756922912 -9.784705839703609e-7 -9.81123083647968e-7 0 0 -2.0943580867823978e-7
          -2.671618832525619e-7 -4.195269935397624e-7 -5.354444353693004e-7 0 0 0
          -3.5172783441251057e-7 -3.4835674291004623e-7 -3.387816517032154e-7 -7.029164962960686e-7 -6.960243875490453e-7 -6.770191498136095e-7
          0 0 -3.560654323355142e-7 -3.443379971311423e-7 -7.116190405659066e-7 -6.887260508974978e-7
          0 -2.101006123213426e-7 -4.206197635034093e-7 0 0 -4.914178311843499e-7
          -5.14602832626112e-7 -9.808539667333612e-7 -0.0000010275865796014241 0 0 -5.327945326447466e-7
          -5.294019528486438e-7 -0.000001063614368577465 -0.000001056344462594487 0 0 -4.7119052310871537e-7
          -4.821204877558096e-7 -9.392777873479461e-7 -9.60985171854673e-7 0 -4.2036484177351533e-7 -8.39769726247833e-7
          0 0 -4.4864230218498375e-7 -4.540369210303498e-7 -8.960089019032348e-7 -9.071221979764412e-7
          0 -4.0122258052274906e-7 -8.010767469270417e-7 0 -3.121156330394736e-7 -6.248965546953821e-7
          0 -3.512228837455822e-7 -7.025070909384059e-7 0 -3.0241471611126744e-7 -6.056402313721634e-7
          0 -3.0510976096643753e-7 -6.105298327448528e-7 0 0 -3.288728883567844e-7
          -2.8639299887018673e-7 -6.581516337141667e-7 -5.754538136110391e-7 0 0 -3.129624155825312e-7
          -3.0621399164856615e-7 -6.265193621115266e-7 -6.127746576722677e-7 0 -2.285923193930383e-7 -4.578065725537628e-7
          0 -2.2311069885479763e-7 -4.466869134109501e-7 0 -3.0468588426992786e-7 -6.093666353617095e-7
          0 -3.389506350607186e-7 -6.774114812018879e-7 0 -1.7924056929449555e-7 -3.6046784297297754e-7
          0 -1.7085847850410085e-7 -3.4295519461673827e-7 0 0 -3.978779650879753e-7
          -3.584696864951642e-7 -7.954410138618964e-7 -7.177005600555579e-7 0 -4.41088407167963e-7 -8.81070257769402e-7
          0 0 -4.99368338301809e-7 -4.841179359528939e-7 -9.95987460801508e-7 -9.653286493816433e-7
          0 0 0 -2.587362074909671e-7 -2.819870502370301e-7 -2.493420294537184e-7
          -5.168877106699992e-7 -5.634257934324128e-7 -4.985733957512455e-7 0 -2.3988452204760224e-7 -4.799283472802357e-7
          0 -4.748428660346601e-7 -9.478364797227105e-7 0 0 -3.268657672196758e-7
          -3.276782967595639e-7 -6.536502648813869e-7 -6.553380634523384e-7 0 0 -4.624075312889094e-7
          -4.296316264828176e-7 -9.238130668348719e-7 -8.591553867572044e-7 0 -3.926862310259007e-7 -7.860869003363789e-7
          0 0 -4.1398331361540676e-7 -3.828477445520151e-7 -8.278991832462671e-7 -7.668026281604606e-7
          0 0 0 0 -1.3162474736576976e-7 -1.3983538393448957e-7
          -1.3319031020358419e-7 -1.185212122636243e-7 -2.6499039966740295e-7 -2.8294298223891764e-7 -2.675888863355128e-7 -2.3930968834510814e-7
          0 -1.685409947174325e-7 -3.377158077100164e-7 0 -2.023359079517854e-7 -4.0672879625825634e-7
          0 0 -3.581916644301576e-7 -3.553522531799889e-7 -7.154530839918579e-7 -7.106667098974335e-7
          0 -3.287893986389779e-7 -6.585286470110521e-7 0 0 -3.6292205631876197e-7
          -3.5988159990194715e-7 -7.253491193696728e-7 -7.181861314052975e-7 0 0 -2.9600575316933334e-7
          -2.445775073581819e-7 -5.910063351361224e-7 -4.889839977445934e-7 0 -2.695770001071745e-7 -5.391765834262825e-7
          0 0 -3.6159262718248695e-7 -3.6130754814195314e-7 -7.245115423285707e-7 -7.230249592662128e-7
          0 0 0 0 -1.899063821776141e-7 -2.0191478249927036e-7
          -1.8336905995314705e-7 -1.6652231940887694e-7 -3.8070002781356917e-7 -4.046819279237951e-7 -3.67665970253474e-7 -3.3408575764570884e-7
          0 -3.558663882238307e-7 -7.109136502330899e-7 0 0 -1.4274494361063087e-7
          -1.227004696229985e-7 -2.8666139078287106e-7 -2.4646292611278855e-7 0 0 -3.928914236805125e-7
          -4.3035343618368646e-7 -7.853011984952034e-7 -8.598984113772248e-7 0 -4.423988997999352e-7 -8.835293418170946e-7
          0 -3.364835133995288e-7 -6.723014030078055e-7 0 -3.540374123497142e-7 -7.068302450605335e-7
          0 -1.5896325847834807e-7 -3.1926360571230597e-7 0 -1.1485258388820188e-7 -2.299633661134296e-7
          0 0 -3.4830762403159325e-7 -3.932690365740657e-7 -6.952234905072122e-7 -7.856872965025951e-7
          0 -1.3736127314880923e-7 -2.755208070634513e-7 0 -1.52343933248223e-7 -3.031428533504034e-7
          0 -3.5507972717115364e-7 -7.089526821359002e-7 0 -5.057670781329346e-7 -0.000001009156115210697
          0 -1.0876400161412322e-7 -2.18776537455113e-7 0 -3.4174647086564375e-7 -6.841625454131042e-7
          0 0 0 -4.982392701062525e-7 -4.892091678263621e-7 -4.4540847286473163e-7
          -9.941435055804546e-7 -9.765251285956302e-7 -8.886390305091695e-7 0 -1.6340334550044613e-7 -3.3066434206432834e-7
          0 0 -3.665930298662153e-7 -3.557101664890534e-7 -7.314987563991975e-7 -7.10338925187571e-7
          0 -1.899499947116144e-7 -3.8091302896039064e-7 0 -2.2293999191656387e-7 -4.4667892937306603e-7
          0 -3.7563488930032224e-7 -7.501167669483593e-7 0 -1.1736375732208316e-7 -2.359779813760156e-7
          0 0 -1.831715056050736e-7 -2.152220765846661e-7 -3.667424786216232e-7 -4.310138488622788e-7
          0 -2.2030455479795002e-7 -4.415422994650919e-7 0 -1.0153390211408445e-7 -2.0358310604851248e-7
          0 -3.621382758986637e-7 -7.228803439273392e-7 0 -3.7029800351725415e-7 -7.39356791828195e-7
          0 -5.179284456731784e-7 -0.0000010340195267634902 0 -3.3116284101476616e-7 -6.613199529847638e-7
          0 0 -3.491791643687114e-7 -3.403249412110308e-7 -6.969986908608265e-7 -6.800963395836858e-7
          0 -3.645293855083475e-7 -7.279244769444451e-7 0 0 -3.1782236514002855e-7
          -3.26246830075564e-7 -6.354577570463181e-7 -6.519344418395894e-7 0 -3.4145733896966433e-7 -6.821841813616619e-7
          0 -3.212363891852748e-7 -6.421791566627339e-7 0 -3.3351008387670103e-7 -6.663589108467102e-7
          0 0 -2.622594258598023e-7 -2.751308983119401e-7 -5.26069862063794e-7 -5.521429907413409e-7
          0 -3.123271209112088e-7 -6.25511756106541e-7 0 -3.254585464958467e-7 -6.502627423465778e-7
        </DataArray>
      </PointData>
      <CellData>
        <DataArray type="Int32" Name="libmesh_elem_id" format="ascii" RangeMin="1392" RangeMax="3231">
          1392 1393 1402 1403 1418 1419
          1434 1435 1442 1443 1448 1449
          1454 1455 1478 1479 1500 1501
          1512 1513 1522 1523 1546 1547
          1572 1573 1582 1583 1590 1591
          1608 1609 1614 1615 1616 1617
          1630 1631 1638 1639 1650 1651
          1654 1655 1656 1657 1678 1679
          1682 1683 1684 1685 1704 1705
          1714 1715 1718 1719 1746 1747
          1760 1761 1762 1763 1772 1773
          1790 1791 1794 1795 1802 1803
          1816 1817 1824 1825 1832 1833
          1838 1839 1840 1841 1846 1847
          1848 1849 1852 1853 1856 1857
          1858 1859 1862 1863 1864 1865
          1874 1875 1876 1877 1878 1879
          1882 1883 1888 1889 1904 1905
          1906 1907 1910 1911 1916 1917
          1924 1925 1926 1927 1930 1931
          1936 1937 1946 1947 1950 1951
          1956 1957 1960 1961 1982 1983
          1996 1997 1998 1999 2026 2027
          2028 2029 2038 2039 2046 2047
          2048 2049 2052 2053 2054 2055
          2058 2059 2060 2061 2084 2085
          2088 2089 2096 2097 2102 2103
          2106 2107 2110 2111 2126 2127
          2136 2137 2138 2139 2144 2145
          2148 2149 2154 2155 2158 2159
          2162 2163 2164 2165 2170 2171
          2176 2177 2178 2179 2196 2197
          2200 2201 2202 2203 2204 2205
          2212 2213 2220 2221 2222 2223
          2224 2225 2226 2227 2228 2229
          2232 2233 2236 2237 2246 2247
          2250 2251 2252 2253 2254 2255
          2260 2261 2264 2265 2266 2267
          2274 2275 2282 2283 2308 2309
          2310 2311 2312 2313 2318 2319
          2324 2325 2328 2329 2346 2347
          2350 2351 2364 2365 2368 2369
          2370 2371 2402 2403 2416 2417
          2420 2421 2444 2445 2458 2459
          2462 2463 2466 2467 2468 2469
          2470 2471 2478 2479 2484 2485
          2488 2489 2490 2491 2502 2503
          2504 2505 2510 2511 2512 2513
          2524 2525 2550 2551 2566 2567
          2570 2571 2580 2581 2582 2583
          2602 2603 2608 2609 2616 2617
          2628 2629 2634 2635 2636 2637
          2640 2641 2642 2643 2644 2645
          2650 2651 2666 2667 2668 2669
          2684 2685 2690 2691 2696 2697
          2700 2701 2710 2711 2714 2715
          2716 2717 2726 2727 2750 2751
          2760 2761 2766 2767 2772 2773
          2782 2783 2798 2799 2802 2803
          2810 2811 2826 2827 2830 2831
          2838 2839 2860 2861 2868 2869
          2874 2875 2884 2885 2922 2923
          2928 2929 2934 2935 2938 2939
          2946 2947 2948 2949 2960 2961
          2962 2963 2964 2965 2974 2975
          2978 2979 2994 2995 2998 2999
          3004 3005 3008 3009 3020 3021
          3028 3029 3034 3035 3038 3039
          3040 3041 3042 3043 3050 3051
          3052 3053 3054 3055 3060 3061
          3066 3067 3072 3073 3076 3077
          3082 3083 3086 3087 3096 3097
          3100 3101 3102 3103 3112 3113
          3116 3117 3148 3149 3154 3155
          3158 3159 3166 3167 3182 3183
          3230 3231
        </DataArray>
        <DataArray type="Int32" Name="subdomain_id" format="ascii" RangeMin="107" RangeMax="107">
          107 107 107 107 107 107
          107 107 107 107 107 107
          107 107 107 107 107 107
          107 107 107 107 107 107
          107 107 107 107 107 107
          107 107 107 107 107 107
          107 107 107 107 107 107
          107 107 107 107 107 107
          107 107 107 107 107 107
          107 107 107 107 107 107
          107 107 107 107 107 107
          107 107 107 107 107 107
          107 107 107 107 107 107
          107 107 107 107 107 107
          107 107 107 107 107 107
          107 107 107 107 107 107
          107 107 107 107 107 107
          107 107 107 107 107 107
          107 107 107 107 107 107
          107 107 107 107 107 107
          107 107 107 107 107 107
          107 107 107 107 107 107
          107 107 107 107 107 107
          107 107 107 107 107 107
          107 107 107 107 107 107
          107 107 107 107 107 107
          107 107 107 107 107 107
          107 107 107 107 107 107
          107 107 107 107 107 107
          107 107 107 107 107 107
          107 107 107 107 107 107
          107 107 107 107 107 107
          107 107 107 107 107 107
          107 107 107 107 107 107
          107 107 107 107 107 107
          107 107 107 107 107 107
          107 107 107 107 107 107
          107 107 107 107 107 107
          107 107 107 107 107 107
          107 107 107 107 107 107
          107 107 107 107 107 107
          107 107 107 107 107 107
          107 107 107 107 107 107
          107 107 107 107 107 107
          107 107 107 107 107 107
          107 107 107 107 107 107
          107 107 107 107 107 107
          107 107 107 107 107 107
          107 107 107 107 107 107
          107 107 107 107 107 107
          107 107 107 107 107 107
          107 107 107 107 107 107
          107 107 107 107 107 107
          107 107 107 107 107 107
          107 107 107 107 107 107
          107 107 107 107 107 107
          107 107 107 107 107 107
          107 107 107 107 107 107
          107 107 107 107 107 107
          107 107 107 107 107 107
          107 107 107 107 107 107
          107 107 107 107 107 107
          107 107 107 107 107 107
          107 107 107 107 107 107
          107 107 107 107 107 107
          107 107 107 107 107 107
          107 107 107 107 107 107
          107 107 107 107 107 107
          107 107 107 107 107 107
          107 107 107 107 107 107
          107 107 107 107 107 107
          107 107 107 107 107 107
          107 107 107 107 107 107
          107 107 107 107 107 107
          107 107 107 107 107 107
          107 107
        </DataArray>
        <DataArray type="Int32" Name="processor_id" format="ascii" RangeMin="2" RangeMax="2">
          2 2 2 2 2 2
          2 2 2 2 2 2
          2 2 2 2 2 2
          2 2 2 2 2 2
          2 2 2 2 2 2
          2 2 2 2 2 2
          2 2 2 2 2 2
          2 2 2 2 2 2
          2 2 2 2 2 2
          2 2 2 2 2 2
          2 2 2 2 2 2
          2 2 2 2 2 2
          2 2 2 2 2 2
          2 2 2 2 2 2
          2 2 2 2 2 2
          2 2 2 2 2 2
          2 2 2 2 2 2
          2 2 2 2 2 2
          2 2 2 2 2 2
          2 2 2 2 2 2
          2 2 2 2 2 2
          2 2 2 2 2 2
          2 2 2 2 2 2
          2 2 2 2 2 2
          2 2 2 2 2 2
          2 2 2 2 2 2
          2 2 2 2 2 2
          2 2 2 2 2 2
          2 2 2 2 2 2
          2 2 2 2 2 2
          2 2 2 2 2 2
          2 2 2 2 2 2
          2 2 2 2 2 2
          2 2 2 2 2 2
          2 2 2 2 2 2
          2 2 2 2 2 2
          2 2 2 2 2 2
          2 2 2 2 2 2
          2 2 2 2 2 2
          2 2 2 2 2 2
          2 2 2 2 2 2
          2 2 2 2 2 2
          2 2 2 2 2 2
          2 2 2 2 2 2
          2 2 2 2 2 2
          2 2 2 2 2 2
          2 2 2 2 2 2
          2 2 2 2 2 2
          2 2 2 2 2 2
          2 2 2 2 2 2
          2 2 2 2 2 2
          2 2 2 2 2 2
          2 2 2 2 2 2
          2 2 2 2 2 2
          2 2 2 2 2 2
          2 2 2 2 2 2
          2 2 2 2 2 2
          2 2 2 2 2 2
          2 2 2 2 2 2
          2 2 2 2 2 2
          2 2 2 2 2 2
          2 2 2 2 2 2
          2 2 2 2 2 2
          2 2 2 2 2 2
          2 2 2 2 2 2
          2 2 2 2 2 2
          2 2 2 2 2 2
          2 2 2 2 2 2
          2 2 2 2 2 2
          2 2 2 2 2 2
          2 2 2 2 2 2
          2 2 2 2 2 2
          2 2 2 2 2 2
          2 2 2 2 2 2
          2 2 2 2 2 2
          2 2
        </DataArray>
      </CellData>
      <Points>
        <DataArray type="Float64" Name="Points" NumberOfComponents="3" format="ascii" RangeMin="0.0055128205128194" RangeMax="0.014586579917196396">
          0.010655961336451 0.0054415469453289 0 0.010738296327413 0.0059250363170334 0
          0.010252884061106 0.0059462536680524 0 0.010205117478458 0.0054994523140404 0
          0.010655961336451 0.0054415469453289 0.00015 0.010738296327413 0.0059250363170334 0.00015
          0.010252884061106 0.0059462536680524 0.00015 0.010205117478458 0.0054994523140404 0.00015
          0.010655961336451 0.0054415469453289 0.0003 0.010738296327413 0.0059250363170334 0.0003
          0.010252884061106 0.0059462536680524 0.0003 0.010205117478458 0.0054994523140404 0.0003
          0.011940440807394 0.0034141066074527 0 0.011459595517011 0.003824326979063 0
          0.011102612382238 0.0034627190197861 0 0.011355953963772 0.0030463545109029 0
          0.011940440807394 0.0034141066074527 0.00015 0.011459595517011 0.003824326979063 0.00015
          0.011102612382238 0.0034627190197861 0.00015 0.011355953963772 0.0030463545109029 0.00015
          0.011940440807394 0.0034141066074527 0.0003 0.011459595517011 0.003824326979063 0.0003
          0.011102612382238 0.0034627190197861 0.0003 0.011355953963772 0.0030463545109029 0.0003
          0.010057653370411 0.0084974472595183 0 0.01054988842507 0.0084422245958245 0
          0.010057653370411 0.0084974472595183 0.00015 0.01054988842507 0.0084422245958245 0.00015
          0.010057653370411 0.0084974472595183 0.0003 0.01054988842507 0.0084422245958245 0.0003
          0.011046194733105 0.00090743319272295 0 0.011064186406242 0.00044456569898216 0
          0.011549090679959 0.00043919238601916 0 0.011507246232172 0.00087204304167501 0
          0.011046194733105 0.00090743319272295 0.00015 0.011064186406242 0.00044456569898216 0.00015
          0.011549090679959 0.00043919238601916 0.00015 0.011507246232172 0.00087204304167501 0.00015
          0.011046194733105 0.00090743319272295 0.0003 0.011064186406242 0.00044456569898216 0.0003
          0.011549090679959 0.00043919238601916 0.0003 0.011507246232172 0.00087204304167501 0.0003
          0.010695724673322 0.003201084864495 0 0.010922769205465 0.002821493997395 0
          0.010695724673322 0.003201084864495 0.00015 0.010922769205465 0.002821493997395 0.00015
          0.010695724673322 0.003201084864495 0.0003 0.010922769205465 0.002821493997395 0.0003
          0.0063972422249218 0.0045440807567198 0 0.0065062213292024 0.0050164807168814 0
          0.0062389906493372 0.0053128670028646 0 0.0060512178389602 0.0047929387822649 0
          0.0063972422249218 0.0045440807567198 0.00015 0.0065062213292024 0.0050164807168814 0.00015
          0.0062389906493372 0.0053128670028646 0.00015 0.0060512178389602 0.0047929387822649 0.00015
          0.0063972422249218 0.0045440807567198 0.0003 0.0065062213292024 0.0050164807168814 0.0003
          0.0062389906493372 0.0053128670028646 0.0003 0.0060512178389602 0.0047929387822649 0.0003
          0.0077450758336629 0.0014176167893871 0 0.0081853433575 0.0016343392489207 0
          0.0081296210030831 0.0020475545417094 0 0.0077097822266787 0.0019577759081516 0
          0.0077450758336629 0.0014176167893871 0.00015 0.0081853433575 0.0016343392489207 0.00015
          0.0081296210030831 0.0020475545417094 0.00015 0.0077097822266787 0.0019577759081516 0.00015
          0.0077450758336629 0.0014176167893871 0.0003 0.0081853433575 0.0016343392489207 0.0003
          0.0081296210030831 0.0020475545417094 0.0003 0.0077097822266787 0.0019577759081516 0.0003
          0.010163700921554 0.0050965322104848 0 0.010539876174215 0.0050107335132671 0
          0.010163700921554 0.0050965322104848 0.00015 0.010539876174215 0.0050107335132671 0.00015
          0.010163700921554 0.0050965322104848 0.0003 0.010539876174215 0.0050107335132671 0.0003
          0.0067145785472978 0.00092067788586619 0 0.0066311284750677 0.00045344715700039 0
          0.0071039644964018 0.00045254776362746 0 0.0071622170579096 0.00091220258976311 0
          0.0067145785472978 0.00092067788586619 0.00015 0.0066311284750677 0.00045344715700039 0.00015
          0.0071039644964018 0.00045254776362746 0.00015 0.0071622170579096 0.00091220258976311 0.00015
          0.0067145785472978 0.00092067788586619 0.0003 0.0066311284750677 0.00045344715700039 0.0003
          0.0071039644964018 0.00045254776362746 0.0003 0.0071622170579096 0.00091220258976311 0.0003
          0.011832021157187 0.0073476785459853 0 0.011779780861271 0.0068646395959748 0
          0.012243708910156 0.0068324173193727 0 0.011832021157187 0.0073476785459853 0.00015
          0.011779780861271 0.0068646395959748 0.00015 0.012243708910156 0.0068324173193727 0.00015
          0.011832021157187 0.0073476785459853 0.0003 0.011779780861271 0.0068646395959748 0.0003
          0.012243708910156 0.0068324173193727 0.0003 0.0084907788898463 0.00044286110481525 0
          0.0089555217282148 0.00046389179151574 0 0.0088246864415892 0.00090448805343066 0
          0.0084146790711037 0.00087434414493667 0 0.0084907788898463 0.00044286110481525 0.00015
          0.0089555217282148 0.00046389179151574 0.00015 0.0088246864415892 0.00090448805343066 0.00015
          0.0084146790711037 0.00087434414493667 0.00015 0.0084907788898463 0.00044286110481525 0.0003
          0.0089555217282148 0.00046389179151574 0.0003 0.0088246864415892 0.00090448805343066 0.0003
          0.0084146790711037 0.00087434414493667 0.0003 0.0073198391209489 0.002802975731369 0
          0.007729981097025 0.0028801564362105 0 0.0077015154526268 0.0033237594367458 0
          0.0072927827923603 0.0032114269239825 0 0.0073198391209489 0.002802975731369 0.00015
          0.007729981097025 0.0028801564362105 0.00015 0.0077015154526268 0.0033237594367458 0.00015
          0.0072927827923603 0.0032114269239825 0.00015 0.0073198391209489 0.002802975731369 0.0003
          0.007729981097025 0.0028801564362105 0.0003 0.0077015154526268 0.0033237594367458 0.0003
          0.0072927827923603 0.0032114269239825 0.0003 0.011061956134478 0.0014022262787872 0
          0.011061956134478 0.0014022262787872 0.00015 0.011061956134478 0.0014022262787872 0.0003
          0.0067262777673885 0.0043003855308917 0 0.0070184374453973 0.0044097475846897 0
          0.0069143452336461 0.0047780273607631 0 0.0067262777673885 0.0043003855308917 0.00015
          0.0070184374453973 0.0044097475846897 0.00015 0.0069143452336461 0.0047780273607631 0.00015
          0.0067262777673885 0.0043003855308917 0.0003 0.0070184374453973 0.0044097475846897 0.0003
          0.0069143452336461 0.0047780273607631 0.0003 0.0072966772765568 0.0023596996909359 0
          0.0077191611848381 0.0024307703640478 0 0.0072966772765568 0.0023596996909359 0.00015
          0.0077191611848381 0.0024307703640478 0.00015 0.0072966772765568 0.0023596996909359 0.0003
          0.0077191611848381 0.0024307703640478 0.0003 0.010569749843509 0.00092230265866691 0
          0.010578573679683 0.0013844170604281 0 0.010145320905195 0.0014335884987508 0
          0.01008894187929 0.00096115561381429 0 0.010569749843509 0.00092230265866691 0.00015
          0.010578573679683 0.0013844170604281 0.00015 0.010145320905195 0.0014335884987508 0.00015
          0.01008894187929 0.00096115561381429 0.00015 0.010569749843509 0.00092230265866691 0.0003
          0.010578573679683 0.0013844170604281 0.0003 0.010145320905195 0.0014335884987508 0.0003
          0.01008894187929 0.00096115561381429 0.0003 0.0061669869081239 0.00049673093518566 0
          0.0062913293509889 0.00097410606592609 0 0.0059245902968253 0.0010856763727913 0
          0.0057061681768373 0.00065177476244477 0 0.0061669869081239 0.00049673093518566 0.00015
          0.0062913293509889 0.00097410606592609 0.00015 0.0059245902968253 0.0010856763727913 0.00015
          0.0057061681768373 0.00065177476244477 0.00015 0.0061669869081239 0.00049673093518566 0.0003
          0.0062913293509889 0.00097410606592609 0.0003 0.0059245902968253 0.0010856763727913 0.0003
          0.0057061681768373 0.00065177476244477 0.0003 0.010613957240618 0.0022894151744625 0
          0.011031068838334 0.0023895404946521 0 0.01053554486979 0.0026566023779455 0
          0.010613957240618 0.0022894151744625 0.00015 0.011031068838334 0.0023895404946521 0.00015
          0.01053554486979 0.0026566023779455 0.00015 0.010613957240618 0.0022894151744625 0.0003
          0.011031068838334 0.0023895404946521 0.0003 0.01053554486979 0.0026566023779455 0.0003
          0.0055128205128194 0 0 0.0060256410256386 0 0
          0.0055128205128194 0 0.00015 0.0060256410256386 0 0.00015
          0.0055128205128194 0 0.0003 0.0060256410256386 0 0.0003
          0.0087932726011055 0.003543484648519 0 0.0081725565838686 0.0034418576035907 0
          0.0081844882448281 0.0029554535172717 0 0.0086653225286358 0.0029358056411338 0
          0.0087932726011055 0.003543484648519 0.00015 0.0081725565838686 0.0034418576035907 0.00015
          0.0081844882448281 0.0029554535172717 0.00015 0.0086653225286358 0.0029358056411338 0.00015
          0.0087932726011055 0.003543484648519 0.0003 0.0081725565838686 0.0034418576035907 0.0003
          0.0081844882448281 0.0029554535172717 0.0003 0.0086653225286358 0.0029358056411338 0.0003
          0.010609256891376 0.0018508518753275 0 0.011063963632424 0.0019108783312894 0
          0.010609256891376 0.0018508518753275 0.00015 0.011063963632424 0.0019108783312894 0.00015
          0.010609256891376 0.0018508518753275 0.0003 0.011063963632424 0.0019108783312894 0.0003
          0.0061614658010566 0.0029736343202522 0 0.0061372854142827 0.0036106222238676 0
          0.0061614658010566 0.0029736343202522 0.00015 0.0061372854142827 0.0036106222238676 0.00015
          0.0061614658010566 0.0029736343202522 0.0003 0.0061372854142827 0.0036106222238676 0.0003
          0.0091223832784702 0.0028108558594978 0 0.0093224708097351 0.0032450014434347 0
          0.0091223832784702 0.0028108558594978 0.00015 0.0093224708097351 0.0032450014434347 0.00015
          0.0091223832784702 0.0028108558594978 0.0003 0.0093224708097351 0.0032450014434347 0.0003
          0.010365654248251 0.0046741943492533 0 0.010130092133721 0.0048347586786618 0
          0.0098673679311407 0.0047157860708196 0 0.010078628200493 0.0044157313734999 0
          0.010365654248251 0.0046741943492533 0.00015 0.010130092133721 0.0048347586786618 0.00015
          0.0098673679311407 0.0047157860708196 0.00015 0.010078628200493 0.0044157313734999 0.00015
          0.010365654248251 0.0046741943492533 0.0003 0.010130092133721 0.0048347586786618 0.0003
          0.0098673679311407 0.0047157860708196 0.0003 0.010078628200493 0.0044157313734999 0.0003
          0.0074225055052033 0.0045889494028562 0 0.0073125071067115 0.0049521547682488 0
          0.0074225055052033 0.0045889494028562 0.00015 0.0073125071067115 0.0049521547682488 0.00015
          0.0074225055052033 0.0045889494028562 0.0003 0.0073125071067115 0.0049521547682488 0.0003
          0.0061231952422177 0.002444135475079 0 0.0061231952422177 0.002444135475079 0.00015
          0.0061231952422177 0.002444135475079 0.0003 0.007634491258567 0.0037589111207536 0
          0.0080978935956725 0.0039120786728548 0 0.007634491258567 0.0037589111207536 0.00015
          0.0080978935956725 0.0039120786728548 0.00015 0.007634491258567 0.0037589111207536 0.0003
          0.0080978935956725 0.0039120786728548 0.0003 0.0067400809843091 0.0034207975388345 0
          0.0067100713183769 0.0039836679330495 0 0.0063054236008776 0.0041223407032968 0
          0.0067400809843091 0.0034207975388345 0.00015 0.0067100713183769 0.0039836679330495 0.00015
          0.0063054236008776 0.0041223407032968 0.00015 0.0067400809843091 0.0034207975388345 0.0003
          0.0067100713183769 0.0039836679330495 0.0003 0.0063054236008776 0.0041223407032968 0.0003
          0.0064429727892239 0.0018594619814901 0 0.0065003657821779 0.0023397297588745 0
          0.0060722038988066 0.0019538017587265 0 0.0064429727892239 0.0018594619814901 0.00015
          0.0065003657821779 0.0023397297588745 0.00015 0.0060722038988066 0.0019538017587265 0.00015
          0.0064429727892239 0.0018594619814901 0.0003 0.0065003657821779 0.0023397297588745 0.0003
          0.0060722038988066 0.0019538017587265 0.0003 0.0068255396015086 0.0051581133306003 0
          0.0068255396015086 0.0051581133306003 0.00015 0.0068255396015086 0.0051581133306003 0.0003
          0.0065384615384579 0 0 0.0065384615384579 0 0.00015
          0.0065384615384579 0 0.0003 0.012879713087233 0.0060908484912964 0
          0.012982043505355 0.0056371881930815 0 0.012879713087233 0.0060908484912964 0.00015
          0.012982043505355 0.0056371881930815 0.00015 0.012879713087233 0.0060908484912964 0.0003
          0.012982043505355 0.0056371881930815 0.0003 0.0065699942646101 0.0028542668018424 0
          0.0065699942646101 0.0028542668018424 0.00015 0.0065699942646101 0.0028542668018424 0.0003
          0.0084683943974961 0.0045583446766593 0 0.0079943718437571 0.0043747262241866 0
          0.0085823759797054 0.0040943119694046 0 0.0084683943974961 0.0045583446766593 0.00015
          0.0079943718437571 0.0043747262241866 0.00015 0.0085823759797054 0.0040943119694046 0.00015
          0.0084683943974961 0.0045583446766593 0.0003 0.0079943718437571 0.0043747262241866 0.0003
          0.0085823759797054 0.0040943119694046 0.0003 0.0085830886495109 0.0024681574500846 0
          0.0090044137010858 0.0023542069269131 0 0.0085830886495109 0.0024681574500846 0.00015
          0.0090044137010858 0.0023542069269131 0.00015 0.0085830886495109 0.0024681574500846 0.0003
          0.0090044137010858 0.0023542069269131 0.0003 0.0098857235699117 0.0079055319030787 0
          0.0095144479526816 0.0076594245921199 0 0.0094715724969347 0.0073263583858313 0
          0.0099283521138692 0.0073475677072736 0 0.0098857235699117 0.0079055319030787 0.00015
          0.0095144479526816 0.0076594245921199 0.00015 0.0094715724969347 0.0073263583858313 0.00015
          0.0099283521138692 0.0073475677072736 0.00015 0.0098857235699117 0.0079055319030787 0.0003
          0.0095144479526816 0.0076594245921199 0.0003 0.0094715724969347 0.0073263583858313 0.0003
          0.0099283521138692 0.0073475677072736 0.0003 0.010833716827414 0.0069257207373803 0
          0.010357413059119 0.0069077241183533 0 0.010300982556592 0.0064274708783385 0
          0.010786080808085 0.0064391381968206 0 0.010833716827414 0.0069257207373803 0.00015
          0.010357413059119 0.0069077241183533 0.00015 0.010300982556592 0.0064274708783385 0.00015
          0.010786080808085 0.0064391381968206 0.00015 0.010833716827414 0.0069257207373803 0.0003
          0.010357413059119 0.0069077241183533 0.0003 0.010300982556592 0.0064274708783385 0.0003
          0.010786080808085 0.0064391381968206 0.0003 0.012723582323863 0.006509831652106 0
          0.012251440655851 0.0062918667587536 0 0.012542392069256 0.0059723735377719 0
          0.012723582323863 0.006509831652106 0.00015 0.012251440655851 0.0062918667587536 0.00015
          0.012542392069256 0.0059723735377719 0.00015 0.012723582323863 0.006509831652106 0.0003
          0.012251440655851 0.0062918667587536 0.0003 0.012542392069256 0.0059723735377719 0.0003
          0.0071151184692216 0.0040272738406853 0 0.0071151184692216 0.0040272738406853 0.00015
          0.0071151184692216 0.0040272738406853 0.0003 0.005927800859391 0.0043689372395662 0
          0.005927800859391 0.0043689372395662 0.00015 0.005927800859391 0.0043689372395662 0.0003
          0.0092411258002763 0.0078319639415625 0 0.0089588909882048 0.0073942383853577 0
          0.0092411258002763 0.0078319639415625 0.00015 0.0089588909882048 0.0073942383853577 0.00015
          0.0092411258002763 0.0078319639415625 0.0003 0.0089588909882048 0.0073942383853577 0.0003
          0.009874674666521 0.0068715373563056 0 0.010410157305432 0.007394545582291 0
          0.009874674666521 0.0068715373563056 0.00015 0.010410157305432 0.007394545582291 0.00015
          0.009874674666521 0.0068715373563056 0.0003 0.010410157305432 0.007394545582291 0.0003
          0.0075354000991736 0.004186248288406 0 0.0075354000991736 0.004186248288406 0.00015
          0.0075354000991736 0.004186248288406 0.0003 0.01131847387487 0.0058224977902188 0
          0.011696082283392 0.0060272916092408 0 0.011725204011411 0.0063910302275778 0
          0.011265055974573 0.0064250601080915 0 0.01131847387487 0.0058224977902188 0.00015
          0.011696082283392 0.0060272916092408 0.00015 0.011725204011411 0.0063910302275778 0.00015
          0.011265055974573 0.0064250601080915 0.00015 0.01131847387487 0.0058224977902188 0.0003
          0.011696082283392 0.0060272916092408 0.0003 0.011725204011411 0.0063910302275778 0.0003
          0.011265055974573 0.0064250601080915 0.0003 0.012000241143886 0.0058170880130831 0
          0.012000241143886 0.0058170880130831 0.00015 0.012000241143886 0.0058170880130831 0.0003
          0.011120492592586 0.0052514705902296 0 0.011120492592586 0.0052514705902296 0.00015
          0.011120492592586 0.0052514705902296 0.0003 0.0092910901193945 0.0039260363263486 0
          0.0090503465409481 0.0043132092761106 0 0.0092910901193945 0.0039260363263486 0.00015
          0.0090503465409481 0.0043132092761106 0.00015 0.0092910901193945 0.0039260363263486 0.0003
          0.0090503465409481 0.0043132092761106 0.0003 0.007889027184575 0.0048982243533992 0
          0.007889027184575 0.0048982243533992 0.00015 0.007889027184575 0.0048982243533992 0.0003
          0.0094935553236164 0.004533528646427 0 0.0097061514105808 0.0041851036755216 0
          0.0094935553236164 0.004533528646427 0.00015 0.0097061514105808 0.0041851036755216 0.00015
          0.0094935553236164 0.004533528646427 0.0003 0.0097061514105808 0.0041851036755216 0.0003
          0.007602124101561 0.0050930903063015 0 0.007602124101561 0.0050930903063015 0.00015
          0.007602124101561 0.0050930903063015 0.0003 0.010723762445737 0.0044202706845482 0
          0.010410164583979 0.0041181159817359 0 0.010723762445737 0.0044202706845482 0.00015
          0.010410164583979 0.0041181159817359 0.00015 0.010723762445737 0.0044202706845482 0.0003
          0.010410164583979 0.0041181159817359 0.0003 0.01095205032792 0.0047963590452232 0
          0.01095205032792 0.0047963590452232 0.00015 0.01095205032792 0.0047963590452232 0.0003
          0.011303178752756 0.0069106117689346 0 0.011303178752756 0.0069106117689346 0.00015
          0.011303178752756 0.0069106117689346 0.0003 0.01003253261535 0.0038623502872685 0
          0.01003253261535 0.0038623502872685 0.00015 0.01003253261535 0.0038623502872685 0.0003
          0.0076528923620256 0.0053996878686031 0 0.0072494384034052 0.005322441352826 0
          0.0076528923620256 0.0053996878686031 0.00015 0.0072494384034052 0.005322441352826 0.00015
          0.0076528923620256 0.0053996878686031 0.0003 0.0072494384034052 0.005322441352826 0.0003
          0.0096442187720765 0.0035928190702974 0 0.0096442187720765 0.0035928190702974 0.00015
          0.0096442187720765 0.0035928190702974 0.0003 0.012013949131265 0.002158444108951 0
          0.012018063243501 0.0027123142038817 0 0.012013949131265 0.002158444108951 0.00015
          0.012018063243501 0.0027123142038817 0.00015 0.012013949131265 0.002158444108951 0.0003
          0.012018063243501 0.0027123142038817 0.0003 0.0080144547016537 0.00086684480617367 0
          0.008304219624614 0.0012703006012415 0 0.0080327132462595 0.0011721512048422 0
          0.0080144547016537 0.00086684480617367 0.00015 0.008304219624614 0.0012703006012415 0.00015
          0.0080327132462595 0.0011721512048422 0.00015 0.0080144547016537 0.00086684480617367 0.0003
          0.008304219624614 0.0012703006012415 0.0003 0.0080327132462595 0.0011721512048422 0.0003
          0.0094736490244467 0.0005865877812969 0 0.010068957850501 0.00047856930843549 0
          0.0096358530086744 0.0010887425154837 0 0.0094736490244467 0.0005865877812969 0.00015
          0.010068957850501 0.00047856930843549 0.00015 0.0096358530086744 0.0010887425154837 0.00015
          0.0094736490244467 0.0005865877812969 0.0003 0.010068957850501 0.00047856930843549 0.0003
          0.0096358530086744 0.0010887425154837 0.0003 0.0071984303565192 0.0057392272964834 0
          0.0067200519522164 0.0055550541115669 0 0.0071984303565192 0.0057392272964834 0.00015
          0.0067200519522164 0.0055550541115669 0.00015 0.0071984303565192 0.0057392272964834 0.0003
          0.0067200519522164 0.0055550541115669 0.0003 0.013091675611077 0.0041736873632184 0
          0.012621380555602 0.004071395146678 0 0.012601464682814 0.0035037767307713 0
          0.013091675611077 0.0041736873632184 0.00015 0.012621380555602 0.004071395146678 0.00015
          0.012601464682814 0.0035037767307713 0.00015 0.013091675611077 0.0041736873632184 0.0003
          0.012621380555602 0.004071395146678 0.0003 0.012601464682814 0.0035037767307713 0.0003
          0.01153639784925 0.0020208067996516 0 0.011496246026306 0.0025480504488598 0
          0.01153639784925 0.0020208067996516 0.00015 0.011496246026306 0.0025480504488598 0.00015
          0.01153639784925 0.0020208067996516 0.0003 0.011496246026306 0.0025480504488598 0.0003
          0.011043213382792 0.0084269911709333 0 0.011043213382792 0.0084269911709333 0.00015
          0.011043213382792 0.0084269911709333 0.0003 0.010128205128191 0 0
          0.0096153846153732 0 0 0.010128205128191 0 0.00015
          0.0096153846153732 0 0.00015 0.010128205128191 0 0.0003
          0.0096153846153732 0 0.0003 0.0091025641025551 0 0
          0.0085897435897353 0 0 0.0091025641025551 0 0.00015
          0.0085897435897353 0 0.00015 0.0091025641025551 0 0.0003
          0.0085897435897353 0 0.0003 0.0085182476127008 0.0020437661198126 0
          0.0089029205554566 0.0019047336662455 0 0.0085182476127008 0.0020437661198126 0.00015
          0.0089029205554566 0.0019047336662455 0.00015 0.0085182476127008 0.0020437661198126 0.0003
          0.0089029205554566 0.0019047336662455 0.0003 0.0081522818828449 0.0024947087352937 0
          0.0081522818828449 0.0024947087352937 0.00015 0.0081522818828449 0.0024947087352937 0.0003
          0.010641025641009 0 0 0.010579843756946 0.00045349299099366 0
          0.010641025641009 0 0.00015 0.010579843756946 0.00045349299099366 0.00015
          0.010641025641009 0 0.0003 0.010579843756946 0.00045349299099366 0.0003
          0.011153846153828 0 0 0.011153846153828 0 0.00015
          0.011153846153828 0 0.0003 0.011760912133753 0.0054122119446059 0
          0.011760912133753 0.0054122119446059 0.00015 0.011760912133753 0.0054122119446059 0.0003
          0.011666666666648 0 0 0.011666666666648 0 0.00015
          0.011666666666648 0 0.0003 0.011547825504055 0.0049713459697514 0
          0.011547825504055 0.0049713459697514 0.00015 0.011547825504055 0.0049713459697514 0.0003
          0.011349632014182 0.0045239710214715 0 0.011349632014182 0.0045239710214715 0.00015
          0.011349632014182 0.0045239710214715 0.0003 0.011997463288521 0.00046572766410539 0
          0.012179487179468 0 0 0.011997463288521 0.00046572766410539 0.00015
          0.012179487179468 0 0.00015 0.011997463288521 0.00046572766410539 0.0003
          0.012179487179468 0 0.0003 0.01039056673058 0.0035410773695937 0
          0.010772622187787 0.0038062315725381 0 0.01039056673058 0.0035410773695937 0.00015
          0.010772622187787 0.0038062315725381 0.00015 0.01039056673058 0.0035410773695937 0.0003
          0.010772622187787 0.0038062315725381 0.0003 0.0089323359070786 0.0047421281357296 0
          0.0089323359070786 0.0047421281357296 0.00015 0.0089323359070786 0.0047421281357296 0.0003
          0.010891746765568 0.007407252260552 0 0.010891746765568 0.007407252260552 0.00015
          0.010891746765568 0.007407252260552 0.0003 0.011089383238376 0.0041358143249023 0
          0.011089383238376 0.0041358143249023 0.00015 0.011089383238376 0.0041358143249023 0.0003
          0.007205317033861 0.0036141963404016 0 0.007205317033861 0.0036141963404016 0.00015
          0.007205317033861 0.0036141963404016 0.0003 0.0080269839945158 0.0054023282425744 0
          0.0080269839945158 0.0054023282425744 0.00015 0.0080269839945158 0.0054023282425744 0.0003
          0.0077721363879251 0.0058968168784219 0 0.0077721363879251 0.0058968168784219 0.00015
          0.0077721363879251 0.0058968168784219 0.0003 0.0095370253310475 0.0025850582106885 0
          0.009732219723835 0.0029713438236062 0 0.0095370253310475 0.0025850582106885 0.00015
          0.009732219723835 0.0029713438236062 0.00015 0.0095370253310475 0.0025850582106885 0.0003
          0.009732219723835 0.0029713438236062 0.0003 0.0094100372761059 0.0021522308351028 0
          0.0094100372761059 0.0021522308351028 0.00015 0.0094100372761059 0.0021522308351028 0.0003
          0.0087313387484914 0.001424359608332 0 0.0084651319029022 0.0017289788972556 0
          0.0087313387484914 0.001424359608332 0.00015 0.0084651319029022 0.0017289788972556 0.00015
          0.0087313387484914 0.001424359608332 0.0003 0.0084651319029022 0.0017289788972556 0.0003
          0.011363196701121 0.0073867521895413 0 0.011894488312007 0.0078344841271679 0
          0.011431801070778 0.0078815011129823 0 0.011363196701121 0.0073867521895413 0.00015
          0.011894488312007 0.0078344841271679 0.00015 0.011431801070778 0.0078815011129823 0.00015
          0.011363196701121 0.0073867521895413 0.0003 0.011894488312007 0.0078344841271679 0.0003
          0.011431801070778 0.0078815011129823 0.0003 0.011511795106494 0.0083968566041475 0
          0.011511795106494 0.0083968566041475 0.00015 0.011511795106494 0.0083968566041475 0.0003
          0.0093066157528448 0.0017085494075796 0 0.0093066157528448 0.0017085494075796 0.00015
          0.0093066157528448 0.0017085494075796 0.0003 0.011737204813157 0.0042624504192267 0
          0.011920232844873 0.0047153506313134 0 0.011737204813157 0.0042624504192267 0.00015
          0.011920232844873 0.0047153506313134 0.00015 0.011737204813157 0.0042624504192267 0.0003
          0.011920232844873 0.0047153506313134 0.0003 0.0097199155871303 0.0015315099671301 0
          0.0098040259351994 0.0019696894002764 0 0.0097199155871303 0.0015315099671301 0.00015
          0.0098040259351994 0.0019696894002764 0.00015 0.0097199155871303 0.0015315099671301 0.0003
          0.0098040259351994 0.0019696894002764 0.0003 0.0099068743951204 0.0023814903757239 0
          0.0099068743951204 0.0023814903757239 0.00015 0.0099068743951204 0.0023814903757239 0.0003
          0.010196799496301 0.0018655242590307 0 0.010252080701677 0.0022738797315184 0
          0.010196799496301 0.0018655242590307 0.00015 0.010252080701677 0.0022738797315184 0.00015
          0.010196799496301 0.0018655242590307 0.0003 0.010252080701677 0.0022738797315184 0.0003
          0.0082479601882269 0.0062087007836213 0 0.0083721174281176 0.0058457654542534 0
          0.0087793359412623 0.006030240425184 0 0.0086690881028679 0.0063945203238097 0
          0.0082479601882269 0.0062087007836213 0.00015 0.0083721174281176 0.0058457654542534 0.00015
          0.0087793359412623 0.006030240425184 0.00015 0.0086690881028679 0.0063945203238097 0.00015
          0.0082479601882269 0.0062087007836213 0.0003 0.0083721174281176 0.0058457654542534 0.0003
          0.0087793359412623 0.006030240425184 0.0003 0.0086690881028679 0.0063945203238097 0.0003
          0.0098103305116681 0.0063862496116293 0 0.0098103305116681 0.0063862496116293 0.00015
          0.0098103305116681 0.0063862496116293 0.0003 0.0084248193747317 0.0050261658136402 0
          0.0084248193747317 0.0050261658136402 0.00015 0.0084248193747317 0.0050261658136402 0.0003
          0.0069463016830039 0.0027787422025108 0 0.0070048409545821 0.0031125297586922 0
          0.0069463016830039 0.0027787422025108 0.00015 0.0070048409545821 0.0031125297586922 0.00015
          0.0069463016830039 0.0027787422025108 0.0003 0.0070048409545821 0.0031125297586922 0.0003
          0.010028456835002 0.0032748409090605 0 0.010028456835002 0.0032748409090605 0.00015
          0.010028456835002 0.0032748409090605 0.0003 0.013084530633285 0.0046685927017207 0
          0.012657407202949 0.0045740785705039 0 0.013084530633285 0.0046685927017207 0.00015
          0.012657407202949 0.0045740785705039 0.00015 0.013084530633285 0.0046685927017207 0.0003
          0.012657407202949 0.0045740785705039 0.0003 0.0063788755008874 0.0014091508241809 0
          0.0060137569775388 0.0015029488511318 0 0.0063788755008874 0.0014091508241809 0.00015
          0.0060137569775388 0.0015029488511318 0.00015 0.0063788755008874 0.0014091508241809 0.0003
          0.0060137569775388 0.0015029488511318 0.0003 0.01196380743939 0.0083394019710021 0
          0.01196380743939 0.0083394019710021 0.00015 0.01196380743939 0.0083394019710021 0.0003
          0.010073855840534 0.0027196155419985 0 0.010289681297386 0.0025561678844121 0
          0.010073855840534 0.0027196155419985 0.00015 0.010289681297386 0.0025561678844121 0.00015
          0.010073855840534 0.0027196155419985 0.0003 0.010289681297386 0.0025561678844121 0.0003
          0.0093223919318803 0.0053434698815888 0 0.009764317340127 0.0054658727348424 0
          0.0097769212248058 0.0059119658621614 0 0.0093027527337708 0.0057939169389015 0
          0.0093223919318803 0.0053434698815888 0.00015 0.009764317340127 0.0054658727348424 0.00015
          0.0097769212248058 0.0059119658621614 0.00015 0.0093027527337708 0.0057939169389015 0.00015
          0.0093223919318803 0.0053434698815888 0.0003 0.009764317340127 0.0054658727348424 0.0003
          0.0097769212248058 0.0059119658621614 0.0003 0.0093027527337708 0.0057939169389015 0.0003
          0.0068882925124701 0.0023177669638962 0 0.0068882925124701 0.0023177669638962 0.00015
          0.0068882925124701 0.0023177669638962 0.0003 0.0092499592325966 0.0063238181416562 0
          0.0089620052424248 0.0065330227489775 0 0.0092499592325966 0.0063238181416562 0.00015
          0.0089620052424248 0.0065330227489775 0.00015 0.0092499592325966 0.0063238181416562 0.0003
          0.0089620052424248 0.0065330227489775 0.0003 0.0072168253422346 0.001397514094839 0
          0.0076041066380058 0.00089936619415626 0 0.0072168253422346 0.001397514094839 0.00015
          0.0076041066380058 0.00089936619415626 0.00015 0.0072168253422346 0.001397514094839 0.0003
          0.0076041066380058 0.00089936619415626 0.0003 0.0075718226613923 0.00044755222139025 0
          0.0075718226613923 0.00044755222139025 0.00015 0.0075718226613923 0.00044755222139025 0.0003
          0.012116660000204 0.0051206445675074 0 0.012116660000204 0.0051206445675074 0.00015
          0.012116660000204 0.0051206445675074 0.0003 0.0068338524094732 0.0018398489073113 0
          0.0068338524094732 0.0018398489073113 0.00015 0.0068338524094732 0.0018398489073113 0.0003
          0.0088473960481577 0.0056214227923259 0 0.0088473960481577 0.0056214227923259 0.00015
          0.0088473960481577 0.0056214227923259 0.0003 0.0081402125110085 0.0066115625704341 0
          0.0081402125110085 0.0066115625704341 0.00015 0.0081402125110085 0.0066115625704341 0.0003
          0.0067824993802385 0.0013824026215467 0 0.0072591856110724 0.0018865642034293 0
          0.0067824993802385 0.0013824026215467 0.00015 0.0072591856110724 0.0018865642034293 0.00015
          0.0067824993802385 0.0013824026215467 0.0003 0.0072591856110724 0.0018865642034293 0.0003
          0.0094035295411974 0.0068662830960629 0 0.0094035295411974 0.0068662830960629 0.00015
          0.0094035295411974 0.0068662830960629 0.0003 0.0080770297303238 0.0057078658228848 0
          0.0080770297303238 0.0057078658228848 0.00015 0.0080770297303238 0.0057078658228848 0.0003
          0.012455160230445 0.0055307966461266 0 0.012455160230445 0.0055307966461266 0.00015
          0.012455160230445 0.0055307966461266 0.0003 0.0092134396095011 0.0012639463069257 0
          0.0092134396095011 0.0012639463069257 0.00015 0.0092134396095011 0.0012639463069257 0.0003
          0.0085681017610313 0.0067725899286886 0 0.0085681017610313 0.0067725899286886 0.00015
          0.0085681017610313 0.0067725899286886 0.0003 0.010337781301114 0.0029713007827362 0
          0.010337781301114 0.0029713007827362 0.00015 0.010337781301114 0.0029713007827362 0.0003
          0.0080769230769162 0 0 0.0080362994401078 0.00044130282391618 0
          0.0075641025640979 0 0 0.0080769230769162 0 0.00015
          0.0080362994401078 0.00044130282391618 0.00015 0.0075641025640979 0 0.00015
          0.0080769230769162 0 0.0003 0.0080362994401078 0.00044130282391618 0.0003
          0.0075641025640979 0 0.0003 0.0084157309119158 0.0054663429893237 0
          0.0084157309119158 0.0054663429893237 0.00015 0.0084157309119158 0.0054663429893237 0.0003
          0.012625060394875 0.0050215313919928 0 0.012340535819996 0.0049145470001145 0
          0.012625060394875 0.0050215313919928 0.00015 0.012340535819996 0.0049145470001145 0.00015
          0.012625060394875 0.0050215313919928 0.0003 0.012340535819996 0.0049145470001145 0.0003
          0.0088807280393962 0.0051824777758032 0 0.0088807280393962 0.0051824777758032 0.00015
          0.0088807280393962 0.0051824777758032 0.0003 0.00978640191627 0.0050564284414982 0
          0.00978640191627 0.0050564284414982 0.00015 0.00978640191627 0.0050564284414982 0.0003
          0.007051282051278 0 0 0.007051282051278 0 0.00015
          0.007051282051278 0 0.0003 0.0089738769927721 0.0068608682916542 0
          0.0089738769927721 0.0068608682916542 0.00015 0.0089738769927721 0.0068608682916542 0.0003
          0.010464396561549 0.007914442793445 0 0.010959162019398 0.0079079830093058 0
          0.010464396561549 0.007914442793445 0.00015 0.010959162019398 0.0079079830093058 0.00015
          0.010464396561549 0.007914442793445 0.0003 0.010959162019398 0.0079079830093058 0.0003
          0.0093768424757788 0.0049206652486621 0 0.0093768424757788 0.0049206652486621 0.00015
          0.0093768424757788 0.0049206652486621 0.0003 0.0084364690699339 0.0071912877673881 0
          0.0084364690699339 0.0071912877673881 0.00015 0.0084364690699339 0.0071912877673881 0.0003
          0.011870414872976 0.00080294526771027 0 0.011870414872976 0.00080294526771027 0.00015
          0.011870414872976 0.00080294526771027 0.0003 0.013048655853798 0.0051555709380823 0
          0.013048655853798 0.0051555709380823 0.00015 0.013048655853798 0.0051555709380823 0.0003
          0.0091480378790118 0.00093783666102615 0 0.0091480378790118 0.00093783666102615 0.00015
          0.0091480378790118 0.00093783666102615 0.0003 0.012592651705639 0.0068198098450163 0
          0.012592651705639 0.0068198098450163 0.00015 0.012592651705639 0.0068198098450163 0.0003
          0.012272070002081 0.0045810549534562 0 0.012153081904124 0.0040944528080542 0
          0.012272070002081 0.0045810549534562 0.00015 0.012153081904124 0.0040944528080542 0.00015
          0.012272070002081 0.0045810549534562 0.0003 0.012153081904124 0.0040944528080542 0.0003
          0.011634800364854 0.0014122839921498 0 0.011634800364854 0.0014122839921498 0.00015
          0.011634800364854 0.0014122839921498 0.0003 0.012451479243686 0.0021914486022899 0
          0.012674188674928 0.0028095410694266 0 0.012451479243686 0.0021914486022899 0.00015
          0.012674188674928 0.0028095410694266 0.00015 0.012451479243686 0.0021914486022899 0.0003
          0.012674188674928 0.0028095410694266 0.0003 0.013121586466294 0.0036708577033715 0
          0.013121586466294 0.0036708577033715 0.00015 0.013121586466294 0.0036708577033715 0.0003
          0.013248150362312 0.0031919567697963 0 0.013248150362312 0.0031919567697963 0.00015
          0.013248150362312 0.0031919567697963 0.0003 0.012096711335481 0.0017058387426491 0
          0.012096711335481 0.0017058387426491 0.00015 0.012096711335481 0.0017058387426491 0.0003
          0.012692307692288 0 0 0.012542896420733 0.00061304595643839 0
          0.012692307692288 0 0.00015 0.012542896420733 0.00061304595643839 0.00015
          0.012692307692288 0 0.0003 0.012542896420733 0.00061304595643839 0.0003
          0.012384518900215 0.0018567382086698 0 0.012384518900215 0.0018567382086698 0.00015
          0.012384518900215 0.0018567382086698 0.0003 0.012087580163866 0.0010424427844857 0
          0.012087580163866 0.0010424427844857 0.00015 0.012087580163866 0.0010424427844857 0.0003
          <InformationKey name="L2_NORM_RANGE" location="vtkDataArray" length="2">
            <Value index="0">
              0.0055128205128
            </Value>
            <Value index="1">
              0.014586579917
            </Value>
          </InformationKey>
        </DataArray>
      </Points>
      <Cells>
        <DataArray type="Int64" Name="connectivity" format="ascii" RangeMin="0" RangeMax="773">
          0 1 2 3 4 5
          6 7 4 5 6 7
          8 9 10 11 12 13
          14 15 16 17 18 19
          16 17 18 19 20 21
          22 23 30 31 32 33
          34 35 36 37 34 35
          36 37 38 39 40 41
          15 14 42 43 19 18
          44 45 19 18 44 45
          23 22 46 47 48 49
          50 51 52 53 54 55
          52 53 54 55 56 57
          58 59 60 61 62 63
          64 65 66 67 64 65
          66 67 68 69 70 71
          3 72 73 0 7 74
          75 4 7 74 75 4
          11 76 77 8 78 79
          80 81 82 83 84 85
          82 83 84 85 86 87
          88 89 99 100 101 102
          103 104 105 106 103 104
          105 106 107 108 109 110
          111 112 113 114 115 116
          117 118 115 116 117 118
          119 120 121 122 744 123
          30 33 745 124 34 37
          745 124 34 37 746 125
          38 41 48 126 127 128
          52 129 130 131 52 129
          130 131 56 132 133 134
          135 136 112 111 137 138
          116 115 137 138 116 115
          139 140 120 119 141 142
          143 144 145 146 147 148
          145 146 147 148 149 150
          151 152 153 154 155 156
          157 158 159 160 157 158
          159 160 161 162 163 164
          165 166 43 167 168 169
          45 170 168 169 45 170
          171 172 47 173 174 175
          153 156 176 177 157 160
          176 177 157 160 178 179
          161 164 180 181 182 183
          184 185 186 187 184 185
          186 187 188 189 190 191
          166 165 192 193 169 168
          194 195 169 168 194 195
          172 171 196 197 112 182
          181 113 116 186 185 117
          116 186 185 117 120 190
          189 121 204 205 180 183
          206 207 184 187 206 207
          184 187 208 209 188 191
          210 211 212 213 214 215
          216 217 214 215 216 217
          218 219 220 221 222 223
          128 127 224 225 131 130
          224 225 131 130 226 227
          134 133 154 153 79 78
          158 157 83 82 158 157
          83 82 162 161 87 86
          231 113 181 232 233 117
          185 234 233 117 185 234
          235 121 189 236 237 238
          239 199 240 241 242 201
          240 241 242 201 243 244
          245 203 246 247 228 248
          249 250 229 251 249 250
          229 251 252 253 230 254
          255 49 48 128 256 53
          52 131 256 53 52 131
          257 57 56 134 175 258
          79 153 177 259 83 157
          177 259 83 157 179 260
          87 161 267 237 199 198
          268 240 201 200 268 240
          201 200 269 243 203 202
          270 271 232 272 273 274
          234 275 273 274 234 275
          276 277 236 278 267 198
          228 247 268 200 229 250
          268 200 229 250 269 202
          230 253 183 279 280 204
          187 281 282 206 187 281
          282 206 191 283 284 208
          285 286 287 288 289 290
          291 292 289 290 291 292
          293 294 295 296 297 298
          299 300 301 302 303 304
          301 302 303 304 305 306
          307 308 261 309 310 311
          263 312 313 314 263 312
          313 314 265 315 316 317
          238 318 127 126 241 319
          130 129 241 319 130 129
          244 320 133 132 324 325
          287 286 326 327 291 290
          326 327 291 290 328 329
          295 294 330 298 331 288
          332 302 333 292 332 302
          333 292 334 306 335 296
          318 336 222 127 319 337
          224 130 319 337 224 130
          320 338 226 133 339 340
          341 342 343 344 345 346
          343 344 345 346 347 348
          349 350 300 1 339 342
          304 5 343 346 304 5
          343 346 308 9 347 350
          351 310 341 340 352 313
          345 344 352 313 345 344
          353 316 349 348 354 339
          1 0 355 343 5 4
          355 343 5 4 356 347
          9 8 357 358 272 180
          359 360 275 184 359 360
          275 184 361 362 278 188
          48 239 238 126 52 242
          241 129 52 242 241 129
          56 245 244 132 336 271
          363 222 337 274 364 224
          337 274 364 224 338 277
          365 226 51 321 239 48
          55 322 242 52 55 322
          242 52 59 323 245 56
          366 367 213 212 368 369
          217 216 368 369 217 216
          370 371 221 220 223 222
          363 372 225 224 364 373
          225 224 364 373 227 226
          365 374 375 210 213 376
          377 214 217 378 377 214
          217 378 379 218 221 380
          375 381 73 210 377 382
          75 214 377 382 75 214
          379 383 77 218 381 354
          0 73 382 355 4 75
          382 355 4 75 383 356
          8 77 297 300 342 384
          301 304 346 385 301 304
          346 385 305 308 350 386
          376 213 367 387 378 217
          369 388 378 217 369 388
          380 221 371 389 223 372
          390 391 225 373 392 393
          225 373 392 393 227 374
          394 395 396 357 180 205
          397 359 184 207 397 359
          184 207 398 361 188 209
          387 367 357 396 388 369
          359 397 388 369 359 397
          389 371 361 398 399 747
          748 400 401 749 750 402
          401 749 750 402 403 751
          752 404 405 102 406 407
          408 106 409 410 408 106
          409 410 411 110 412 413
          180 272 232 181 184 275
          234 185 184 275 234 185
          188 278 236 189 414 415
          144 416 417 418 148 419
          417 418 148 419 420 421
          152 422 423 424 255 391
          425 426 256 393 425 426
          256 393 427 428 257 395
          429 430 431 753 432 433
          434 754 432 433 434 754
          435 436 437 755 438 399
          400 439 440 401 402 441
          440 401 402 441 442 403
          404 443 447 415 414 448
          449 418 417 450 449 418
          417 450 451 421 420 452
          453 100 99 454 455 104
          103 456 455 104 103 456
          457 108 107 458 279 459
          460 280 281 461 462 282
          281 461 462 282 283 463
          464 284 279 465 62 459
          281 466 66 461 281 466
          66 461 283 467 70 463
          448 414 100 453 450 417
          104 455 450 417 104 455
          452 420 108 457 468 469
          415 447 470 471 418 449
          470 471 418 449 472 473
          421 451 753 431 748 756
          754 434 750 757 754 434
          750 757 755 437 752 758
          400 748 431 12 402 750
          434 16 402 750 434 16
          404 752 437 20 474 31
          469 468 475 35 471 470
          475 35 471 470 476 39
          473 472 399 438 744 759
          401 440 745 760 401 440
          745 760 403 442 746 761
          339 477 351 340 343 478
          352 344 343 478 352 344
          347 479 353 348 367 366
          358 357 369 368 360 359
          369 368 360 359 371 370
          362 361 480 32 31 474
          481 36 35 475 481 36
          35 475 482 40 39 476
          483 477 339 354 484 478
          343 355 484 478 343 355
          485 479 347 356 486 483
          354 381 487 484 355 382
          487 484 355 382 488 485
          356 383 183 182 465 279
          187 186 466 281 187 186
          466 281 191 190 467 283
          762 763 489 490 764 765
          491 492 764 765 491 492
          766 767 493 494 490 489
          32 480 492 491 36 481
          492 491 36 481 494 493
          40 482 387 495 496 376
          388 497 498 378 388 497
          498 378 389 499 500 380
          501 270 272 358 502 273
          275 360 502 273 275 360
          503 276 278 362 504 331
          298 297 505 333 302 301
          505 333 302 301 506 335
          306 305 507 486 381 375
          508 487 382 377 508 487
          382 377 509 488 383 379
          318 238 237 510 319 241
          240 511 319 241 240 511
          320 244 243 512 50 49
          255 424 54 53 256 426
          54 53 256 426 58 57
          257 428 363 513 390 372
          364 514 392 373 364 514
          392 373 365 515 394 374
          516 423 391 390 517 425
          393 392 517 425 393 392
          518 427 395 394 519 520
          205 204 521 522 207 206
          521 522 207 206 523 524
          209 208 525 519 204 280
          526 521 206 282 526 521
          206 282 527 523 208 284
          528 460 459 529 530 462
          461 531 530 462 461 531
          532 464 463 533 534 90
          535 536 537 93 538 539
          537 93 538 539 540 96
          541 542 546 525 280 460
          547 526 282 462 547 526
          282 462 548 527 284 464
          759 768 747 399 760 769
          749 401 760 769 749 401
          761 770 751 403 507 375
          376 496 508 377 378 498
          508 377 378 498 509 379
          380 500 483 486 549 550
          484 487 551 552 484 487
          551 552 485 488 553 554
          231 232 271 336 233 234
          274 337 233 234 274 337
          235 236 277 338 391 255
          128 223 393 256 131 225
          393 256 131 225 395 257
          134 227 525 546 555 556
          526 547 557 558 526 547
          557 558 527 548 559 560
          519 525 556 561 521 526
          558 562 521 526 558 562
          523 527 560 563 561 556
          564 565 562 558 566 567
          562 558 566 567 563 560
          568 569 570 571 572 573
          574 575 576 577 574 575
          576 577 578 579 580 581
          2 1 300 299 6 5
          304 303 6 5 304 303
          10 9 308 307 582 299
          298 330 583 303 302 332
          583 303 302 332 584 307
          306 334 585 363 271 270
          586 364 274 273 586 364
          274 273 587 365 277 276
          555 416 144 143 557 419
          148 147 557 419 148 147
          559 422 152 151 588 589
          237 267 590 591 240 268
          590 591 240 268 592 593
          243 269 396 594 495 387
          397 595 497 388 397 595
          497 388 398 596 499 389
          594 396 205 520 595 397
          207 522 595 397 207 522
          596 398 209 524 597 598
          430 429 599 600 433 432
          599 600 433 432 601 602
          436 435 603 246 248 604
          605 249 251 606 605 249
          251 606 607 252 254 608
          72 211 210 73 74 215
          214 75 74 215 214 75
          76 219 218 77 536 535
          609 543 539 538 610 544
          539 538 610 544 542 541
          611 545 612 561 565 613
          614 562 567 615 614 562
          567 615 616 563 569 617
          618 619 620 621 622 623
          624 625 622 623 624 625
          626 627 628 629 630 588
          267 247 631 590 268 250
          631 590 268 250 632 592
          269 253 633 634 573 572
          635 636 577 576 635 636
          577 576 637 638 581 580
          60 639 81 640 64 641
          85 642 64 641 85 642
          68 643 89 644 561 612
          520 519 562 614 522 521
          562 614 522 521 563 616
          524 523 510 231 336 318
          511 233 337 319 511 233
          337 319 512 235 338 320
          640 81 80 645 642 85
          84 646 642 85 84 646
          644 89 88 647 550 648
          477 483 552 649 478 484
          552 649 478 484 554 650
          479 485 630 247 246 651
          631 250 249 652 631 250
          249 652 632 253 252 653
          633 572 654 621 635 576
          655 625 635 576 655 625
          637 580 656 629 15 43
          166 439 19 45 169 441
          19 45 169 441 23 47
          172 443 660 639 661 651
          662 641 663 652 662 641
          663 652 664 643 665 653
          666 330 288 287 667 332
          292 291 667 332 292 291
          668 334 296 295 603 660
          651 246 605 662 652 249
          605 662 652 249 607 664
          653 252 571 570 516 669
          575 574 517 670 575 574
          517 670 579 578 518 671
          672 262 261 311 673 264
          263 314 673 264 263 314
          674 266 265 317 416 555
          546 675 419 557 547 676
          419 557 547 676 422 559
          548 677 570 573 678 657
          574 577 679 658 574 577
          679 658 578 581 680 659
          495 42 14 496 497 44
          18 498 497 44 18 498
          499 46 22 500 61 529
          459 62 65 531 461 66
          65 531 461 66 69 533
          463 70 13 507 496 14
          17 508 498 18 17 508
          498 18 21 509 500 22
          114 510 237 589 118 511
          240 591 118 511 240 591
          122 512 243 593 513 669
          516 390 514 670 517 392
          514 670 517 392 515 671
          518 394 594 681 42 495
          595 682 44 497 595 682
          44 497 596 683 46 499
          114 589 588 111 118 591
          590 115 118 591 590 115
          122 593 592 119 510 114
          113 231 511 118 117 233
          511 118 117 233 512 122
          121 235 681 594 520 612
          682 595 522 614 682 595
          522 614 683 596 524 616
          684 685 645 686 687 688
          646 689 687 688 646 689
          690 691 647 692 693 654
          572 571 694 655 576 575
          694 655 576 575 695 656
          580 579 675 546 460 528
          676 547 462 530 676 547
          462 530 677 548 464 532
          439 400 12 15 441 402
          16 19 441 402 16 19
          443 404 20 23 696 672
          648 697 698 673 649 699
          698 673 649 699 700 674
          650 701 702 618 621 654
          703 622 625 655 703 622
          625 655 704 626 629 656
          72 705 212 211 74 706
          216 215 74 706 216 215
          76 707 220 219 182 112
          136 465 186 116 138 466
          186 116 138 466 190 120
          140 467 708 686 645 80
          709 689 646 84 709 689
          646 84 710 692 647 88
          91 341 310 92 94 345
          313 95 94 345 313 95
          97 349 316 98 135 630
          651 661 137 631 652 663
          137 631 652 663 139 632
          653 665 666 287 325 711
          667 291 327 712 667 291
          327 712 668 295 329 713
          444 25 714 715 445 27
          716 717 445 27 716 717
          446 29 718 719 705 720
          366 212 706 721 368 216
          706 721 368 216 707 722
          370 220 331 504 715 714
          333 505 717 716 333 505
          717 716 335 506 719 718
          13 549 486 507 17 551
          487 508 17 551 487 508
          21 553 488 509 571 669
          513 693 575 670 514 694
          575 670 514 694 579 671
          515 695 102 405 685 99
          106 408 688 103 106 408
          688 103 110 411 691 107
          672 351 477 648 673 352
          478 649 673 352 478 649
          674 353 479 650 693 513
          363 585 694 514 364 586
          694 514 364 586 695 515
          365 587 285 714 25 24
          289 716 27 26 289 716
          27 26 293 718 29 28
          143 142 192 564 147 146
          194 566 147 146 194 566
          151 150 196 568 726 489
          763 771 727 491 765 772
          727 491 765 772 728 493
          767 773 534 536 715 504
          537 539 717 505 537 539
          717 505 540 542 719 506
          165 565 564 192 168 567
          566 194 168 567 566 194
          171 569 568 196 78 81
          639 660 82 85 641 662
          82 85 641 662 86 89
          643 664 136 135 661 63
          138 137 663 67 138 137
          663 67 140 139 665 71
          729 262 672 696 730 264
          673 698 730 264 673 698
          731 266 674 700 630 135
          111 588 631 137 115 590
          631 137 115 590 632 139
          119 592 702 585 270 501
          703 586 273 502 703 586
          273 502 704 587 276 503
          585 702 654 693 586 703
          655 694 586 703 655 694
          587 704 656 695 61 406
          528 529 65 409 530 531
          65 409 530 531 69 412
          532 533 414 732 101 100
          417 733 105 104 417 733
          105 104 420 734 109 108
          63 62 465 136 67 66
          466 138 67 66 466 138
          71 70 467 140 501 720
          618 702 502 721 622 703
          502 721 622 703 503 722
          626 704 720 501 358 366
          721 502 360 368 721 502
          360 368 722 503 362 370
          685 684 454 99 688 687
          456 103 688 687 456 103
          691 690 458 107 685 405
          640 645 688 408 642 646
          688 408 642 646 691 411
          644 647 30 141 469 31
          34 145 471 35 34 145
          471 35 38 149 473 39
          598 738 739 430 600 740
          741 433 600 740 741 433
          602 742 743 436 43 42
          681 167 45 44 682 170
          45 44 682 170 47 46
          683 173 678 711 325 723
          679 712 327 724 679 712
          327 724 680 713 329 725
          619 618 720 705 623 622
          721 706 623 622 721 706
          627 626 722 707 102 101
          528 406 106 105 530 409
          106 105 530 409 110 109
          532 412 549 13 12 739
          551 17 16 741 551 17
          16 741 553 21 20 743
          711 678 573 634 712 679
          577 636 712 679 577 636
          713 680 581 638 80 79
          258 708 84 83 259 709
          84 83 259 709 88 87
          260 710 738 598 696 697
          740 600 698 699 740 600
          698 699 742 602 700 701
          714 285 288 331 716 289
          292 333 716 289 292 333
          718 293 296 335 672 311
          310 351 673 314 313 352
          673 314 313 352 674 317
          316 353 430 739 12 431
          433 741 16 434 433 741
          16 434 436 743 20 437
          193 438 439 166 195 440
          441 169 195 440 441 169
          197 442 443 172 489 726
          33 32 491 727 37 36
          491 727 37 36 493 728
          41 40 444 715 536 543
          445 717 539 544 445 717
          539 544 446 719 542 545
          3 619 705 72 7 623
          706 74 7 623 706 74
          11 627 707 76 633 666
          711 634 635 667 712 636
          635 667 712 636 637 668
          713 638 384 534 504 297
          385 537 505 301 385 537
          505 301 386 540 506 305
          726 771 744 33 727 772
          745 37 727 772 745 37
          728 773 746 41 167 613
          565 165 170 615 567 168
          170 615 567 168 173 617
          569 171 675 732 414 416
          676 733 417 419 676 733
          417 419 677 734 420 422
          550 549 739 738 552 551
          741 740 552 551 741 740
          554 553 743 742 732 675
          528 101 733 676 530 105
          733 676 530 105 734 677
          532 109 63 661 639 60
          67 663 641 64 67 663
          641 64 71 665 643 68
          384 91 90 534 385 94
          93 537 385 94 93 537
          386 97 96 540 123 744
          438 193 124 745 440 195
          124 745 440 195 125 746
          442 197 406 61 60 407
          409 65 64 410 409 65
          64 410 412 69 68 413
          154 78 660 603 158 82
          662 605 158 82 662 605
          162 86 664 607 91 384
          342 341 94 385 346 345
          94 385 346 345 97 386
          350 349 405 407 60 640
          408 410 64 642 408 410
          64 642 411 413 68 644
          648 550 738 697 649 552
          740 699 649 552 740 699
          650 554 742 701 735 92
          310 309 736 95 313 312
          736 95 313 312 737 98
          316 315 633 582 330 666
          635 583 332 667 635 583
          332 667 637 584 334 668
          167 681 612 613 170 682
          614 615 170 682 614 615
          173 683 616 617 620 2
          299 582 624 6 303 583
          624 6 303 583 628 10
          307 584 582 633 621 620
          583 635 625 624 583 635
          625 624 584 637 629 628
          141 144 415 469 145 148
          418 471 145 148 418 471
          149 152 421 473 143 564
          556 555 147 566 558 557
          147 566 558 557 151 568
          560 559 2 620 619 3
          6 624 623 7 6 624
          623 7 10 628 627 11
          729 696 598 597 730 698
          600 599 730 698 600 599
          731 700 602 601 141 30
          123 142 145 34 124 146
          145 34 124 146 149 38
          125 150 154 603 604 155
          158 605 606 159 158 605
          606 159 162 607 608 163
          193 192 142 123 195 194
          146 124 195 194 146 124
          197 196 150 125
        </DataArray>
        <DataArray type="Int64" Name="offsets" format="ascii" RangeMin="8" RangeMax="3616">
          8 16 24 32 40 48
          56 64 72 80 88 96
          104 112 120 128 136 144
          152 160 168 176 184 192
          200 208 216 224 232 240
          248 256 264 272 280 288
          296 304 312 320 328 336
          344 352 360 368 376 384
          392 400 408 416 424 432
          440 448 456 464 472 480
          488 496 504 512 520 528
          536 544 552 560 568 576
          584 592 600 608 616 624
          632 640 648 656 664 672
          680 688 696 704 712 720
          728 736 744 752 760 768
          776 784 792 800 808 816
          824 832 840 848 856 864
          872 880 888 896 904 912
          920 928 936 944 952 960
          968 976 984 992 1000 1008
          1016 1024 1032 1040 1048 1056
          1064 1072 1080 1088 1096 1104
          1112 1120 1128 1136 1144 1152
          1160 1168 1176 1184 1192 1200
          1208 1216 1224 1232 1240 1248
          1256 1264 1272 1280 1288 1296
          1304 1312 1320 1328 1336 1344
          1352 1360 1368 1376 1384 1392
          1400 1408 1416 1424 1432 1440
          1448 1456 1464 1472 1480 1488
          1496 1504 1512 1520 1528 1536
          1544 1552 1560 1568 1576 1584
          1592 1600 1608 1616 1624 1632
          1640 1648 1656 1664 1672 1680
          1688 1696 1704 1712 1720 1728
          1736 1744 1752 1760 1768 1776
          1784 1792 1800 1808 1816 1824
          1832 1840 1848 1856 1864 1872
          1880 1888 1896 1904 1912 1920
          1928 1936 1944 1952 1960 1968
          1976 1984 1992 2000 2008 2016
          2024 2032 2040 2048 2056 2064
          2072 2080 2088 2096 2104 2112
          2120 2128 2136 2144 2152 2160
          2168 2176 2184 2192 2200 2208
          2216 2224 2232 2240 2248 2256
          2264 2272 2280 2288 2296 2304
          2312 2320 2328 2336 2344 2352
          2360 2368 2376 2384 2392 2400
          2408 2416 2424 2432 2440 2448
          2456 2464 2472 2480 2488 2496
          2504 2512 2520 2528 2536 2544
          2552 2560 2568 2576 2584 2592
          2600 2608 2616 2624 2632 2640
          2648 2656 2664 2672 2680 2688
          2696 2704 2712 2720 2728 2736
          2744 2752 2760 2768 2776 2784
          2792 2800 2808 2816 2824 2832
          2840 2848 2856 2864 2872 2880
          2888 2896 2904 2912 2920 2928
          2936 2944 2952 2960 2968 2976
          2984 2992 3000 3008 3016 3024
          3032 3040 3048 3056 3064 3072
          3080 3088 3096 3104 3112 3120
          3128 3136 3144 3152 3160 3168
          3176 3184 3192 3200 3208 3216
          3224 3232 3240 3248 3256 3264
          3272 3280 3288 3296 3304 3312
          3320 3328 3336 3344 3352 3360
          3368 3376 3384 3392 3400 3408
          3416 3424 3432 3440 3448 3456
          3464 3472 3480 3488 3496 3504
          3512 3520 3528 3536 3544 3552
          3560 3568 3576 3584 3592 3600
          3608 3616
        </DataArray>
        <DataArray type="UInt8" Name="types" format="ascii" RangeMin="12" RangeMax="12">
          12 12 12 12 12 12
          12 12 12 12 12 12
          12 12 12 12 12 12
          12 12 12 12 12 12
          12 12 12 12 12 12
          12 12 12 12 12 12
          12 12 12 12 12 12
          12 12 12 12 12 12
          12 12 12 12 12 12
          12 12 12 12 12 12
          12 12 12 12 12 12
          12 12 12 12 12 12
          12 12 12 12 12 12
          12 12 12 12 12 12
          12 12 12 12 12 12
          12 12 12 12 12 12
          12 12 12 12 12 12
          12 12 12 12 12 12
          12 12 12 12 12 12
          12 12 12 12 12 12
          12 12 12 12 12 12
          12 12 12 12 12 12
          12 12 12 12 12 12
          12 12 12 12 12 12
          12 12 12 12 12 12
          12 12 12 12 12 12
          12 12 12 12 12 12
          12 12 12 12 12 12
          12 12 12 12 12 12
          12 12 12 12 12 12
          12 12 12 12 12 12
          12 12 12 12 12 12
          12 12 12 12 12 12
          12 12 12 12 12 12
          12 12 12 12 12 12
          12 12 12 12 12 12
          12 12 12 12 12 12
          12 12 12 12 12 12
          12 12 12 12 12 12
          12 12 12 12 12 12
          12 12 12 12 12 12
          12 12 12 12 12 12
          12 12 12 12 12 12
          12 12 12 12 12 12
          12 12 12 12 12 12
          12 12 12 12 12 12
          12 12 12 12 12 12
          12 12 12 12 12 12
          12 12 12 12 12 12
          12 12 12 12 12 12
          12 12 12 12 12 12
          12 12 12 12 12 12
          12 12 12 12 12 12
          12 12 12 12 12 12
          12 12 12 12 12 12
          12 12 12 12 12 12
          12 12 12 12 12 12
          12 12 12 12 12 12
          12 12 12 12 12 12
          12 12 12 12 12 12
          12 12 12 12 12 12
          12 12 12 12 12 12
          12 12 12 12 12 12
          12 12 12 12 12 12
          12 12 12 12 12 12
          12 12 12 12 12 12
          12 12 12 12 12 12
          12 12 12 12 12 12
          12 12 12 12 12 12
          12 12 12 12 12 12
          12 12 12 12 12 12
          12 12 12 12 12 12
          12 12 12 12 12 12
          12 12 12 12 12 12
          12 12 12 12 12 12
          12 12
        </DataArray>
      </Cells>
    </Piece>
  </UnstructuredGrid>
</VTKFile>
