<?xml version="1.0"?>
<VTKFile type="UnstructuredGrid" version="0.1" byte_order="LittleEndian" header_type="UInt32" compressor="vtkZLibDataCompressor">
  <UnstructuredGrid>
    <Piece NumberOfPoints="798" NumberOfCells="454">
      <PointData>
        <DataArray type="Int32" Name="libmesh_node_id" format="ascii" RangeMin="2250" RangeMax="5441">
          2250 2251 2252 2253 2254 2255
          2256 2257 2258 2259 2260 2261
          2274 2275 2276 2277 2278 2279
          2280 2281 2282 2283 2284 2285
          2298 2299 2300 2301 2302 2303
          2304 2305 2306 2307 2308 2309
          2328 2329 2330 2331 2332 2333
          2334 2335 2336 2337 2338 2339
          2352 2353 2354 2355 2356 2357
          2358 2359 2360 2361 2362 2363
          2376 2377 2378 2379 2380 2381
          2382 2383 2384 2385 2386 2387
          2424 2425 2426 2427 2428 2429
          2430 2431 2432 2445 2446 2447
          2448 2449 2450 2451 2452 2453
          2454 2455 2456 2457 2458 2459
          2460 2461 2462 2481 2482 2483
          2484 2485 2486 2493 2494 2495
          2496 2497 2498 2535 2536 2537
          2538 2539 2540 2541 2542 2543
          2544 2545 2546 2547 2548 2549
          2562 2563 2564 2565 2566 2567
          2568 2569 2570 2571 2572 2573
          2604 2605 2606 2607 2608 2609
          2610 2611 2612 2615 2619 2623
          2625 2626 2627 2628 2629 2630
          2631 2632 2633 2664 2665 2666
          2667 2668 2669 2670 2671 2672
          2787 2788 2789 2790 2791 2792
          2793 2794 2795 2820 2821 2822
          2823 2824 2825 2850 2851 2854
          2855 2858 2859 2880 2882 2884
          2886 2887 2888 2889 2890 2891
          2892 2893 2894 2895 2896 2897
          2898 2899 2900 2928 2929 2930
          2931 2932 2933 2934 2935 2936
          2937 2938 2939 2972 2975 2978
          2979 2980 2981 2982 2983 2984
          2985 2986 2987 2988 2989 2990
          3078 3079 3080 3111 3112 3113
          3114 3115 3116 3129 3130 3131
          3132 3133 3134 3135 3136 3137
          3138 3139 3140 3141 3142 3143
          3144 3145 3146 3147 3148 3149
          3150 3151 3152 3153 3154 3155
          3156 3157 3158 3159 3160 3161
          3162 3163 3164 3165 3166 3167
          3186 3188 3189 3191 3192 3194
          3259 3261 3263 3342 3343 3344
          3345 3346 3347 3435 3436 3437
          3438 3439 3440 3447 3448 3449
          3450 3451 3452 3513 3514 3515
          3519 3520 3521 3522 3523 3524
          3537 3538 3539 3540 3541 3542
          3714 3715 3716 3717 3718 3719
          3720 3721 3722 3792 3793 3794
          3822 3823 3824 3825 3826 3827
          3828 3829 3830 3831 3832 3833
          3855 3856 3857 3858 3859 3860
          3867 3868 3869 3870 3871 3872
          3873 3874 3875 3876 3877 3878
          3879 3880 3881 3883 3886 3889
          3921 3922 3923 3957 3961 3965
          4065 4066 4067 4077 4078 4079
          4086 4087 4088 4119 4120 4121
          4191 4192 4193 4206 4207 4210
          4211 4214 4215 4224 4225 4226
          4227 4228 4229 4251 4252 4253
          4260 4261 4262 4263 4264 4265
          4275 4276 4277 4278 4279 4280
          4296 4297 4298 4347 4348 4349
          4401 4402 4403 4404 4405 4406
          4407 4408 4409 4410 4411 4412
          4413 4414 4415 4431 4432 4433
          4452 4453 4454 4461 4462 4463
          4464 4465 4466 4533 4534 4535
          4551 4552 4553 4554 4555 4556
          4557 4558 4559 4560 4561 4562
          4590 4591 4592 4593 4594 4595
          4608 4609 4610 4617 4618 4619
          4620 4621 4622 4623 4624 4625
          4626 4627 4628 4629 4630 4631
          4665 4666 4667 4668 4669 4670
          4680 4681 4682 4683 4684 4685
          4719 4720 4721 4728 4729 4730
          4731 4732 4733 4734 4735 4736
          4752 4753 4754 4761 4762 4763
          4764 4765 4766 4767 4768 4769
          4773 4774 4775 4785 4786 4787
          4869 4870 4871 4881 4882 4883
          4887 4888 4889 4890 4891 4892
          4893 4894 4895 4917 4918 4919
          4920 4921 4922 4926 4927 4928
          4929 4930 4931 4962 4963 4964
          4965 4966 4967 4971 4972 4973
          4974 4975 4976 4995 4996 4997
          4998 4999 5000 5001 5002 5003
          5004 5005 5006 5022 5023 5024
          5031 5032 5033 5037 5038 5039
          5046 5047 5048 5049 5050 5051
          5052 5053 5054 5058 5059 5060
          5064 5065 5066 5067 5068 5069
          5070 5071 5072 5076 5077 5078
          5082 5083 5084 5085 5086 5087
          5091 5092 5093 5097 5098 5099
          5100 5101 5102 5106 5107 5108
          5109 5110 5111 5112 5113 5114
          5115 5116 5117 5118 5119 5120
          5121 5122 5123 5124 5125 5126
          5127 5128 5129 5130 5131 5132
          5133 5134 5135 5136 5137 5138
          5139 5140 5141 5142 5143 5144
          5145 5146 5147 5148 5149 5150
          5154 5155 5156 5157 5158 5159
          5163 5164 5165 5166 5167 5168
          5172 5173 5174 5175 5176 5177
          5181 5182 5183 5184 5185 5186
          5190 5191 5192 5193 5194 5195
          5196 5197 5198 5199 5200 5201
          5250 5251 5252 5277 5278 5279
          5304 5305 5306 5331 5332 5333
          2852 2853 2856 2857 2860 2861
          2970 2644 2971 2973 2647 2974
          2976 2650 2977 3187 3190 3193
          4662 4663 4664 3270 3271 3272
          5151 5152 5153 5160 5161 5162
          5169 5170 5171 5178 5179 5180
          5187 5188 5189 5202 5203 5204
          5205 5206 5207 5253 5254 5255
          5280 5281 5282 5307 5308 5309
          5334 5335 5336 5358 5359 5360
          5361 5362 5363 5385 5386 5387
          5412 5413 5414 5439 5440 5441
        </DataArray>
        <DataArray type="Float64" Name="resid_x" format="ascii" RangeMin="-0.6313067700715216" RangeMax="0.4644871235638668">
          -0.0000675860444365739 0.0004018145612256774 0.0004053243721102717 0.0014277086077618684 -0.003218770729447762 -0.004074782271735522
          -0.00500451193237561 -0.0020260561586731285 -0.007778822557647835 -0.007619084971462797 -0.008489682631073803 -0.009725736080716363
          0.0007033766697990274 0.002267836389525879 0.002171782280054657 0.003345033154472432 -0.0015557763351861098 -0.0028953287921211768
          -0.002268052382769614 -0.004504240311455909 -0.021641144901364484 -0.020222671289742866 -0.020219163097302095 -0.02510609000424635
          -0.01560097685822992 0.024456743899444078 0.010707750540447591 0.2533469573894749 -0.04782830568191887 0.0435320452567689
          0.0036173441872442424 0.24312305414143864 -0.04048648958054635 0.019242456337143388 0.0006431084082034744 -0.6313067700715216
          -0.004843442291155853 0.002275705946770401 0.0007302386563330376 -0.008583010950517611 -0.012283840264004198 0.0025768297728765432
          -0.003299716349272952 -0.02454739085882096 -0.013830715877153565 -0.008795415514726734 -0.014463008928994103 -0.021125074065145633
          0.0007042856709755796 0.0016743592108054983 0.001443886488532442 0.003875666538060152 -0.004456218739018247 -0.0020161051285869647
          -0.008216040011125969 -0.0033994454216763614 -0.022432642072315545 -0.022527853520511343 -0.02861110561520519 -0.02716785584432113
          0.00032237641295118635 0.0021700327266866992 0.0034776943880316935 0.002807263704957208 -0.0019356344189782604 -0.001987606709773715
          0.003284384511673011 -0.0016394732018207847 -0.014265513410064656 -0.02032161822652423 -0.01906691334927757 -0.01728846241447002
          -0.012292346623829165 -0.0028744175081163448 -0.003192327997982858 -0.00755533196043201 -0.004952702648246543 -0.004426130409681317
          -0.02614012779304664 -0.024200689761263217 -0.02507165654966581 -0.01167692007354404 -0.005877807478030128 -0.0036490559601851658
          0.001385053328664121 -0.02186226177732742 -0.018627620976056747 -0.004955502946695667 -0.004307307267560567 0.005981105406479337
          0.004709789205266102 -0.016659828622302975 -0.010587891753268242 0.01527280929231889 -0.0055355951874092035 -0.024183839426104914
          -0.020094352899150403 -0.008333518816122876 -0.015207466891808075 -0.005575556863233189 -0.008379882981444986 -0.001470760836839169
          -0.003602957640454818 -0.012916153375140738 -0.016945596028905108 -0.016467350259299796 -0.007493860958751153 -0.0022369419637011667
          0.0012812683390244217 -0.016117599730820054 -0.016230555414761483 -0.02205525975427669 0.0030242285574280103 0.009437551954137646
          -0.04470445615885765 -0.0012314563910917897 0.038398828639238936 -0.01567081436033746 0.0014046666855680456 0.04826168744680981
          -0.007659874646907205 -0.004935375530201291 -0.003872755748028256 -0.0026889922556359025 -0.01179608427004819 -0.011984936423972137
          -0.0014459714179508865 -0.004882582475246089 -0.0024122920881470833 -0.003885163381918133 -0.001392894411290868 -0.009628839755458252
          -0.009156478250345046 -0.013608808722252341 -0.009147688718861069 -0.019529976898987833 -0.021584780939871706 -0.019913741391379247
          -0.017442140685638208 -0.023824850239964057 -0.011216774336856972 -0.008870256065929283 -0.012105124854055127 -0.005814380955128762
          -0.023523322505644373 -0.025735922642767584 -0.02163408387816368 -0.012216585420487647 -0.012460010893015294 -0.020293822366721948
          -0.013509688209096815 -0.007894579877953056 -0.005439627829850746 -0.011062696650832038 -0.001423170680570962 -0.00611835238172298
          -0.020076960011592426 -0.014052508252500928 -0.015316076890913966 -0.021208454675024635 -0.008623849988933063 -0.01698704009295593
          -0.009272687150947423 -0.011217880269672076 -0.011094974983571593 -0.02277685194343748 -0.02178124832079753 -0.027248309296295403
          -0.006456962691355983 -0.002296293368938329 -0.006255334111440192 -0.0027775691453788554 -0.0016310614821373193 -0.003543854353520448
          -0.01038946542297392 -0.00659537572715152 -0.008143134624383652 -0.007628553691928053 -0.005883811102265213 -0.005719635993405747
          -0.002741301186345524 -0.008258096015978822 -0.009523468296942283 0.008930174019050163 0.003025180514351078 -0.01985238419076296
          -0.008783184755182916 -0.031509856940575176 -0.023313579693940767 -0.012027578258856586 -0.022615508364157932 -0.008973991812175619
          -0.003838999713952518 0.007703459172081928 -0.0015915999698687955 -0.0004485985167947959 -0.015877416519350263 -0.019065141873290337
          -0.007449630947679253 -0.017830656678342827 0.001408891484065311 -0.0037491891781966658 -0.014204215192338054 -0.016972454909254253
          -0.02357208321251214 -0.006145989322870804 -0.02069598612831136 -0.00013356345196235964 0.0010253591540569928 0.0011868957531939728
          0.0016186637322097575 -0.0027769317422485784 -0.003791678299634782 -0.0020567206718320463 -0.0038068984641430603 -0.013014793034320071
          -0.01606787180963032 -0.017533662554554574 -0.01612513436420615 -0.043662866689349045 -0.09061795814971418 -0.03877465734095509
          -0.021647182918727026 -0.036705702267646245 -0.042727065761345884 -0.07041256365528525 -0.02346416500843418 -0.04762574525127938
          -0.008168976144252937 -0.008304106365734754 -0.0056036397540844 -0.005459823527673713 -0.006420838445432064 -0.0056377104443914305
          -0.018939498774823704 -0.00389292935792529 -0.02117533100643154 -0.0263055597253814 0.0018933287049893721 -0.019660282249393646
          0.006366930525494752 -0.009531616061766002 -0.0075140273903091526 -0.011390243791566057 -0.0018726480185531358 0.008205310722917858
          -0.004284173710954242 0.003923339383149482 0.0006870921223658399 -0.01815843599108291 0.0025444644123187032 0.002645951845321015
          -0.0028270249674715586 -0.014094736022965293 0.00039780294553271034 -0.02237156857855549 -0.01975794012887494 -0.004002709873948795
          -0.0013961881950848576 -0.009848065226066183 -0.0045135516681928944 -0.005216331640468752 -0.004620538676063823 -0.007058789508630703
          -0.01216166981824962 -0.0007966289271728044 -0.0006522811080422741 -0.012799360439951002 -0.0016106493523171395 0.004931024911102533
          0.00557586990389769 -0.00014230942832504923 0.01354142966721028 -0.012184991773668052 -0.0029108451028090343 -0.01602153844258769
          -0.006587081351312918 -0.008449411196558287 -0.0040164264182571685 -0.008731095852323456 -0.009517440259211973 -0.01733721831752799
          -0.01899011469748224 -0.020304557521531486 -0.02062849094222763 -0.0423889678030811 -0.012593496708828589 -0.036780841626436356
          -0.020817168641528383 -0.02839109965561981 -0.01348649671947566 -0.015411286721589867 -0.0119880733328519 -0.004166539620932053
          -0.004400769572540542 -0.016730590130424883 -0.01426172852044516 -0.008017234532304351 -0.016697280739669473 -0.00032300856391093147
          -0.00967354582000901 -0.012424923487285383 -0.0115253114405105 -0.01093201529447363 -0.009339049895486173 -0.0003680090362241373
          -0.004602532923470903 -0.01241916707537083 -0.012382450237314657 -0.012811467625327921 -0.01379699475830165 -0.011945116935928368
          -0.017951148817167528 -0.01209236092027055 -0.0026531250120056526 -0.008401808143934986 -0.01876769343103657 -0.012869422745420245
          -0.020503091154910003 -0.016936877294035924 -0.025377780274263628 -0.01327761015454243 -0.014207000525618518 -0.00988369039463155
          -0.00410153845714023 -0.014303962573704254 -0.008163197334734251 -0.001439741897636626 -0.007475902735208706 -0.005126950370452521
          -0.006255665757119555 -0.014931631284466285 -0.01137335230531411 -0.008608228743188784 -0.0006096363958492113 -0.008136876304309482
          -0.019632095907990532 -0.014742177105265597 -0.006398262480343142 -0.004451660954341463 -0.018491574939644373 -0.016944096365870465
          -0.010250176173792536 -0.017841372372876307 -0.0032792732013553483 -0.0076061923231733886 -0.015213027080610786 -0.019428672092497212
          -0.007789532914259212 -0.004098043292804832 -0.004388340463097773 0.00753206662162853 0.013048423128832365 0.0011644986675847235
          -0.011912827473528065 -0.004873814918560981 -0.002972161678076901 -0.0023297817059741988 -0.008553285253888543 -0.003985821858909944
          -0.011531645435685078 -0.009818986323303358 -0.011273040097746545 -0.01830900462946161 -0.002348059795321711 -0.010069675255987676
          -0.010043828711289393 -0.005300563810432202 -0.009200189576072049 -0.013231244938884501 -0.020077477773956076 -0.010704487533255147
          -0.017068191030243263 -0.001955383783420306 -0.017288573525838125 -0.01371811246464727 -0.01964684705986386 -0.010555278475592456
          -0.00964995425874493 -0.004408101302546319 -0.005047811378958933 -0.021979181234791145 -0.004678648831871524 -0.01666978073464609
          -0.009063027775688237 -0.001996012382126988 -0.006960041510817305 -0.009158938716590015 -0.010446258925068008 -0.006030648977700892
          -0.009535416243196426 -0.0014204718866004384 -0.007473884050582136 -0.00586410266294024 -0.015296467113607548 -0.012683290183350238
          -0.02594051488069482 -0.006968170855587985 -0.01501881332172239 -0.00012463342106805442 -0.004866721578253852 -0.0004528589774501768
          -0.0028435750383430936 -0.0018541229882895749 -0.006360979327051375 -0.0182882093734964 -0.02385340922060486 -0.011458232063944251
          -0.00408884589048597 -0.009659625750705558 -0.0016208562829858053 -0.00258625799159784 -0.004461281257688299 -0.007996424927587675
          -0.007501350150160846 0.011799689634772292 -0.010666466794150509 0.030756608019631315 -0.018841547428865013 -0.0035173898015266047
          -0.00668244476928237 0.0022007903272811546 -0.0025478433400252243 -0.013513002980613642 -0.01341654402162007 -0.007600612748211333
          -0.005775481016923045 -0.0029443048114021764 -0.012493383887286491 -0.0031790924129380116 -0.016458707535725203 -0.014109232649899717
          -0.003279948035173952 -0.00230664142831305 -0.002525548913621556 -0.0021673273379132496 -0.007409493258441202 -0.00826374913836947
          -0.013595016038120633 -0.006408496861730839 -0.007209017359500969 -0.01260766994803486 -0.010376705361853311 -0.00826772350175542
          -0.011832077690998588 -0.0066276992673584 -0.006233604128957904 -0.008389789110362145 -0.0037516536975470416 -0.005428853131699718
          -0.002068067046787192 -0.01108946781378961 -0.005649532037716121 -0.023023837153632876 -0.013904301225409643 -0.02040850489782864
          -0.005797389955861654 -0.015002806501708044 0.00030943429310248405 0.001699555707887157 -0.005126652796354492 -0.009095630987423498
          0.00038222262873954804 0.0007049590297398822 -0.009525283974527454 -0.0210442614736035 -0.013013048020727336 -0.007956620810369408
          -0.013929879959597713 -0.0034651052154783812 -0.009324649963524223 0.000920639937719514 -0.01945183166804565 -0.010276098033773273
          -0.030761041425158453 -0.014150476650933719 -0.020216713982119217 -0.01216909185405246 -0.028506081828328256 -0.004061301328602163
          -0.016896909696970663 -0.01638698526330362 -0.0252240442191205 -0.016334829413800378 -0.008903325395015926 -0.011438015922143663
          -0.014045246907652853 -0.01948829086824233 -0.016641205533763248 -0.02171935372201439 -0.003225508887542361 -0.008691040773784131
          -0.02523202332148 -0.0030002795581653974 -0.010726123518101538 -0.02027941108783926 -0.012938926000540307 -0.01967981907372751
          -0.0121577311487715 -0.006346832101931987 -0.000387615812656783 -0.00029246394917770147 -0.004153173644064978 -0.002456941024877146
          -0.020144215749337335 -0.014637120267999348 -0.01789721981813519 0.008697065743653809 -0.0038946133897139745 0.009698464688258746
          -0.009623484548873407 -0.009389996633274666 -0.0021904324495203298 -0.02211280394404902 -0.018132318792069446 -0.0239731733332067
          -0.013561483394818774 -0.008406871351090417 -0.006242691311607151 -0.0028003390769786307 -0.0015914709769289104 -0.008450110687978185
          -0.0011751672916906486 -0.0025387166334582822 -0.005205192040748319 -0.008292261393711087 -0.008654404181933195 -0.014296916580522012
          -0.010414417851752233 -0.0069190361717765825 -0.01380453422621386 -0.025575390725639746 -0.012740603172423981 -0.018688690060401303
          -0.012836285822681148 -0.003822704582118419 0.008964591406504852 -0.011760095386692981 -0.008317620040211082 -0.009466476596023732
          -0.02191445791471036 -0.011747324687637839 -0.008010351171570118 -0.005208822044726169 -0.015091887542615812 -0.009015757736557273
          -0.011642607096300495 -0.011017689519864149 -0.01913822146266675 -0.011245468097309086 -0.013747891524289901 -0.0017222768560394286
          -0.007141092184824949 -0.004386649862992975 -0.009386938690451707 -0.019355978617417335 -0.01538627314134633 -0.006438927570830089
          -0.006893755338022167 -0.014359247343159964 -0.00887830743120599 -0.021927351130193173 -0.024814684330953796 -0.011755583947718584
          -0.02134640439247626 -0.009120307358044144 -0.011491924068252501 -0.007121269252849061 -0.005795792288468604 -0.007394723613332488
          -0.003231561815914219 -0.009753800484554986 -0.013102197682789196 -0.02756578950422206 -0.006132644415861144 -0.0030902851111900276
          -0.012994642685143276 -0.0030309765822851276 -0.0025541194835225767 -0.01683133589147534 -0.005690289404814308 -0.006093135210289091
          -0.015787073652749672 -0.01669421147707073 -0.019738390928102145 -0.0036650726403095746 -0.002635836946931036 -0.0042471379086075345
          -0.010356870835221521 -0.0016667961700402856 -0.007825633102892304 -0.01841968698546559 -0.0030574721308944675 -0.0037189097853467246
          0.004648996741543954 0.002117682523334885 0.0009722146265529474 0.0034183458688126223 0.0011219970957387915 -0.0023451830395933015
          0.0010456175647757249 0.0022916257260856554 0.003406675264454595 -0.0019832988634380655 0.00501060021121269 0.0036746451773002065
          -0.015728917388549313 -0.01563952403854163 -0.016314622359345776 -0.017661839967693105 -0.020700590309864708 -0.010765790004786169
          -0.012373283327921314 -0.008069068153091052 -0.009344805386207966 -0.0010854792975241168 -0.009106349708880579 -0.000195730859105403
          -0.0019696438855851817 -0.005457133022553684 0.0004433437964250775 0.03297330857791181 0.03471434054158529 0.009490819138735063
          -0.025782584437108902 -0.04184870407241892 -0.0008646116302255535 -0.01550996921725556 -0.06603394449562039 -0.043950392349388245
          0.07203519127363833 0.050599131170610434 -0.2807414449785295 -0.19457075802886514 -0.04497741237304176 -0.06972599713128602
          -0.01132543776740036 0.4644871235638668 0.12000440668189327 -0.00009013431445836773 0.000907552242187748 0.0017417933811412212
          -0.0003022187489367667 -0.0008455213761191516 -0.0007913052162074052 -0.004010828710573122 -0.003985078838198319 -0.007012458578278924
          -0.0033351973836381887 -0.0038349824929628795 -0.0012341250924539082 0.05822833037696462 0.03857577270230905 -0.022421825618154756
          -0.03539984153171183 -0.025438678252458047 0.008238732625912348 -0.0009405288089610053 -0.0028564077222448248 -0.0034707030637122216
          0.21413694400995276 0.17019046086740452 -0.07855907559111053 -0.25209186232346426 -0.20566811360351167 0.08488458297503598
          -0.004072759526462022 -0.0030581713854065384 -0.0008858800130209232 0.006413761185870115 0.023609484199679898 -0.022057761841381307
          0.013620791787465336 0.03396961457175962 0.02291229022604746 -0.00873086278209989 -0.01790961401325042 -0.0034687566781812507
          0.015687516063673357 0.030266189804358135 0.016886312810811432 0.17329366572917593 0.3505461932914944 0.18619126217384796
          -0.027762115858340763 -0.05509755671856276 -0.030659692940247396 0.03678250596072452 0.08149719584968373 0.04691395786976216
          -0.00614766109922904 -0.00890644657388151 -0.06037405873186685 -0.04173263460439358 -0.07209307350439431 0.008483585919137226
          0.05296434945689299 0.114638000073775 -0.0002995944155745889 -0.07665429798400147 -0.13091989228910883 0.002263696579703378
          -0.009481310446711078 -0.005129352346845195 0.01254289309804335 0.02282359156775904 0.07995306599012864 0.05446473165177679
          -0.0015467274994112046 -0.0007185291602826993 -0.00008273252131729691 -0.0003125573856568309 -0.00032927287275974493 -0.00009815251054234864
          -0.00071667377797624 -0.0024309722320854377 -0.0010324684478622004 -0.0031318820434744765 -0.002350789205102899 -0.0005624260260947977
          -0.015506139548760345 -0.03078922358428393 -0.01488018136965863 -0.15114951298762946 -0.3031483470465126 -0.15409808278428372
          -0.038109491473431234 -0.01193886797277699 -0.03610103835054801 -0.012802105311138234 -0.02098630478779029 -0.010816189736415183
          0.007589809740576214 0.011710398851745296 0.01009984717291168 0.04632470228254171 0.028126690210285687 0.03259019445260947
          0.02002355824697588 -0.0097874413524206 -0.008186233768537221 -0.02176728642496517 -0.04774859389374697 -0.024411234503323165
          0.005775746607731058 -0.0006862420239723832 0.0000058223604266771645 -0.014745541774573212 -0.02183213844313414 -0.010328309268247793
          -0.023553348348839265 -0.030492591487071508 -0.0243110175977872 -0.0117648625539708 0.00022791834742719175 0.004995040699594
          -0.013507521152227753 -0.0019713782663828283 0.035645387024707986 -0.04323512016271991 -0.05391785755810474 0.00988844844821557
          -0.009111841559761302 0.011337594095643055 0.006963249931930093 -0.0003335084027717983 0.00011370822632095212 0.000573729164557335
          0.00004094040576063662 0.0006280128495568249 0.00045515632685955154 0.0005637208732807153 -0.000722274705935888 0.0005221832334925125
          -0.0006150735590608747 0.0002486289437158007 0.00032204178284089835 -0.0009628610120060443 -0.0009744296320235435 -0.00006457933003645167
          -0.014838698745990087 -0.030666465419685096 -0.015155925130081016 0.0950676240221302 0.18897059506066327 0.09466233389538203
          -0.11810906754086758 -0.23808896544549896 -0.11777057015700088 0.02254610122565026 0.04401389334984884 -0.011808321643776765
          0.040786293530373996 0.07936762230345806 -0.04180867175855241 0.0027525441703382114 0.004882288811927538 -0.010756462457724325
        </DataArray>
        <DataArray type="Float64" Name="resid_y" format="ascii" RangeMin="-6.935844225201329" RangeMax="1.1691867453129656">
          0.00012669369064513547 0.00033452918008293475 -0.0004432963586184502 0.00011498118577640826 0.0007560943996560016 0.002006069129341613
          -0.002112276670940605 0.00039044678925059806 0.0007252981422328081 0.0014069189530313483 -0.00021575746595065004 0.0003515542412776407
          0.000228781476207085 0.00010099988853683184 -0.00006558577384933872 0.00043698967420173485 0.00017160311527458089 -0.0003743953884372542
          0.001723380516102907 0.0029235280021592397 0.0013769093442540792 0.0017797310185658083 0.0027763742003948585 0.0021868648646323346
          -0.0071830762827747585 0.006094632536744027 -0.013298788857193183 0.09179667040021024 -0.006912110225201884 0.01570134452188221
          -0.03671095673249031 0.037025456920063114 0.011055914882291462 0.012872183379681268 -0.021364980469557954 -0.4256526174420933
          0.008972966945429157 0.0017075518447127735 0.003761016431441111 0.00382227024914919 0.018953918964922725 0.002872547110657986
          0.0037985858309444454 0.009311392151644601 0.009931604054287196 0.0010155818967551855 0.0017984267260795217 0.006079376584607554
          0.0005833104453896454 0.0019835978400580545 0.0023595649330709206 0.0007013683491879502 0.0007158716357173189 0.0033999867988988575
          0.004701804561399223 -0.0006510174346479325 -0.0014705282221625648 0.00000651211957626574 0.001036688899028984 -0.00004995789526261729
          0.00028988563820019075 0.0007899969756403058 0.0003878446482162845 0.00003905136936477316 0.0011853013265479898 0.0006653238495814007
          0.0015336394235702933 0.0014580456460780156 0.0020003656910231316 0.0017778575466452645 0.00396252307762357 0.002235793170672351
          -0.004106293340537498 -0.0018598464407442727 0.0030359417866740457 0.00012867415525572024 0.001468282104985702 0.000005238767452259152
          0.002091065405159992 0.004077187582174346 0.002579536942150698 -0.0005446310811150767 -0.004086104493916151 0.0018750417322921376
          -0.000628253939974649 0.003990789199068007 0.004076097645914642 0.004001335786050497 0.00938109004138965 0.007407277718799565
          0.00529555421567246 0.009368268623600406 0.015566142813834921 0.01448107967840312 0.008882608759666039 0.0004442620356702731
          0.0006698430614153483 0.004061742503608412 -0.005919935425932915 0.007025796526545475 0.0065939478815381924 0.004312418693546705
          0.0003027783875104856 0.0034548323111543433 0.0016848948028545252 0.0007629261828830079 -0.004783557584109047 0.0022185130099395614
          -0.0017167070931233055 0.004276062139168912 0.003200769361773409 -0.011361333427786516 -0.014629345186905118 -0.003269435906595855
          -0.032722876838846775 -0.0350373544539907 -0.00874378825990152 -0.018900984144514743 -0.02042344845382535 -0.013529380935536961
          -0.002057115604521653 -0.0033028941974084236 0.0007558200275210314 0.00016734966439004018 0.001788523709089121 0.0015601174866144152
          0.001555702033663689 -0.005800413807480628 -0.0019531237356572168 -0.0002864894668197851 -0.0007885254616807336 -0.012088975990088582
          -0.005500024133940962 -0.00018160547214109146 -0.00517098978224427 -0.008350426206618036 -0.004075543640872134 -0.004741199252696962
          0.0013772282749208997 0.005437839422428925 0.010256210479170053 0.005336538278877895 0.0050826678915714685 0.010316236359050796
          0.0014409647401987802 0.0011745554470147523 0.0016845032130813897 -0.00046421222927663097 0.009552423214416253 0.0085000251693685
          -0.004595499392754165 0.001589504436207062 -0.002158265313319708 -0.0034804604543867967 -0.0025760547287314445 -0.0050422848306905235
          -0.0002087408365699095 -0.006717577040330394 -0.002532480330600436 0.003106131878573032 -0.0002217142800983729 0.00004907707841211861
          0.013918828912268949 0.005491400151117876 0.0029524355296774996 0.00278670354282623 0.0021494887810555308 0.0021168736271430233
          0.0027192767345878555 0.0007646263077720275 -0.0008002417880295515 0.0007353543124255096 -0.0007000938022761541 0.0025068855679794694
          -0.00038122018432457105 -0.0006896520127491895 0.0022156715106490116 -0.0001745323270349458 0.002566091801903418 -0.0002597863671404965
          0.0022840132302574777 -0.00007551293407218052 0.0010490516923443924 0.003984076677705339 0.004324201918029791 0.012769712912214001
          0.01332602853961573 -0.0021803827487330424 -0.008231680974715772 0.0012787282791739303 0.0007197257713167787 -0.0005186216511286618
          -0.001255335876680863 0.004875089829014693 0.0034895413940928266 0.009872539524639186 -0.00033571839167662043 0.000909454565727056
          -0.004846083426736116 0.004535901342862969 -0.004531345328155727 0.003803326265095275 -0.0004871526522739274 0.00336092013933062
          0.008346313546943693 0.002786143121282933 0.002251980435133416 0.00002979310607906238 0.00011596720631454338 -0.00020616204718774955
          0.00025943850390940104 0.00008696526523852346 0.00048415975176456516 -0.0014100216395143972 0.0010712423224682188 0.0003882830228151869
          0.0008715393865806054 0.0005521706944941751 0.0005315547994992342 0.028612010144678873 0.054636349351035285 0.009257927136230693
          0.00467371155708704 -0.03974042254049556 0.020791751835966515 -0.07866122041819146 0.030247877904805542 -0.030616937550458127
          -0.004135562250390273 -0.001707469520777584 -0.002365493650481637 0.001486245246495474 0.00032217480587129477 0.001983056824897647
          0.0010863075774835834 0.0033470485728115257 0.00020950045794940197 0.003707506877716135 -0.007951317120107763 0.005571415551451311
          0.000737196509252476 -0.0032682725373430477 -0.005518927910549087 -0.0006070027695272706 -0.008837115308826589 -0.010636025519148107
          -0.008008910764924493 0.00041338076116088397 -0.004745032621109452 -0.011701683895808501 -0.013170631408622846 -0.002287158332061612
          -0.0017614591870934448 -0.008701941024954418 -0.011950200389249599 0.0016515136445215406 0.002792961912381542 0.008880775770552893
          0.010700480587905403 0.002460204468173799 0.0035909684903285277 0.004801381727115195 0.0016242589597904866 -0.010488794591561351
          -0.010028737279605786 0.011276982631881372 0.0003518503951903673 -0.023051680490611633 -0.02115969301505349 0.008708231942347572
          -0.0022591280414281656 -0.013056421331396444 -0.014361740629350042 -0.0017079911116645585 -0.002782081385616142 -0.00018490047930290465
          0.00301709041756695 0.006288605359434762 0.0021704277784178154 0.0032398238577305144 0.00040136934662842426 0.00047260313560419653
          0.0034993323315436753 -0.001164009800107224 0.00856731348826939 -0.004029872399601231 -0.000644242884282803 -0.001339849896976275
          -0.0002745585391598637 -0.0013194625135962423 -0.0007708116115353603 0.009644652988869268 0.00865904146613651 0.00375813450867421
          0.0019247359675071962 0.0024464378347380383 0.0014250327874480023 0.004067839849307989 0.004827508725208138 0.0008846802368904783
          0.0006422235688148467 0.001969682319304125 0.001425095901582768 -0.0032554983793898484 0.002505554406030886 -0.004221665263170082
          0.013105023628837219 -0.0013054031152801293 0.009626829343153287 0.004305137866666114 0.007398848299323191 0.0037390924300869655
          0.0030950617432961847 -0.0006490834369449056 0.0007001376539133297 0.00007907248338349937 0.0015466790921967455 0.0006551195738462301
          -0.0002970551789868679 0.0006209214306047706 0.0039737060032540295 0.005039145399042544 0.0038593543255046187 0.004118477105221036
          -0.0001346381931304763 0.0003209247051315506 0.0006882648864751373 -0.0006779450488471617 0.0011947268679756706 -0.0035448316402365773
          0.0007138435293332634 0.003183913118939105 -0.0018050600649050855 0.0002776278236625851 -0.0016733137477959181 0.0001179200296867744
          0.00216211869589214 -0.001722297956822369 0.0002776871365824732 -0.0015938416688886445 0.002252453819469584 0.0009957054978337598
          -0.005629407464215559 0.0030107897894331437 -0.005410359126261737 0.004124358687301863 -0.00101655665707735 0.004417391641791488
          -0.012275717094173855 -0.0035015288409926265 -0.033882323395679315 -0.005694355630224253 -0.02263592202550324 -0.004433639879012116
          -0.001554156518164096 -0.0007104477465659925 0.0008297117838836354 0.00009625644289316948 0.0008154271178344719 -0.00010935725630581428
          0.003661891646500187 0.0020791919204513343 0.0047713096247343975 0.006260963635352335 0.002264046851334578 0.0044671678215785215
          0.0019632826190956743 0.00017393737764789807 0.0020276525866111464 0.0020999932100607688 0.004571397047439807 0.0016671202027821186
          -0.0015269406121016793 -0.0022441001780891534 0.0011333204106554473 0.0050896256343391025 0.0072247559792582156 0.004094988389389376
          -0.0008745354940697114 -0.0006788275093336793 -0.0010627037099990577 0.006669392440790123 0.00043895140339729466 0.0017938649703576753
          0.0008793837598900789 0.0012760032511104358 0.0007518848062317562 0.006681694393551152 0.010195660985889199 0.004672403264685154
          0.0007929191762932747 -0.00019060866760804707 0.0004860157207632887 0.599526372309274 -0.006825082292602727 1.1691867453129656
          -0.009743990622664362 0.4869544510359633 -0.002963032301342955 0.433924087964109 -0.0008720430458121486 0.846289217018874
          -0.00101363937624252 0.38907806168871517 0.00021955540555629316 -0.00730771989813267 -0.014055274007742868 -0.00630006474629391
          0.33134616301700026 -0.0009622981296266708 0.62590635840362 -0.00047588658299851927 0.22995403019294697 -0.000007675435649279194
          -0.03684992509035259 -0.010507013905681428 -0.06653157202245835 -0.01086456740602837 -0.04375633756642194 -0.008702139882978022
          -0.016659020914613923 -0.031233241474266562 -0.022094776430744645 0.003050650996287832 0.005471747309960584 0.0026278538515988603
          -0.0006932952400457576 -0.003196291005479718 0.0003116826305841064 0.000005132711739602724 -0.0033412558535659276 0.0007318461210185923
          0.05126128099565156 -0.041433292392225506 0.08611653301204292 -0.09533245426565891 0.018022335976716895 -0.06439941679936992
          -0.00029684843297597685 -0.0017805366440103165 -0.0005795456624871353 0.00470990977992284 0.009628023401896613 0.005498737103779988
          0.0014745305641084144 -0.0011358129482396534 -0.00009832373384911774 -0.0013454570254751858 0.17047178624406123 -0.00127653714102742
          0.3203038836287429 -0.0008113851165188687 0.12696250997155603 0.0010005825085406261 0.0008314768262273342 0.0012021583495398086
          -0.29371412840852207 -0.005490939844196206 -0.0006128689442005952 -0.2973581964402658 -0.578418308922644 -0.0044503777266896305
          -0.00040490578149326995 -0.5843103150226371 -0.26454765426160465 -0.002677836328253032 -0.00028855636605185087 -0.25757503697237044
          -0.0002405120325474075 0.0016104898112628552 0.0012392994902352197 0.0008391853840119257 0.001816433722097735 0.001004945074781688
          -0.0020667416636179214 0.0037792498724362328 0.00046040214230363974 0.007939868204633077 0.0008550783473496582 0.004044755672814843
          -0.003208487998843601 -0.00008267463233854744 -0.0037536568993390973 -0.00007293539192861076 -0.0015245100016071829 0.0005456157356211605
          0.0007355125268735108 -0.0002437586879923681 -0.001353184434462841 -0.004742466296648637 -0.005856940033209537 -0.0009747158686976287
          -0.00013061911560820205 -0.0014717344270537072 0.0021235744052058025 0.0029541736111577954 0.011609838521104782 0.00031585917924148443
          0.00031278393314172065 0.2594592920207629 -0.0001810762317522585 0.48713049990270807 -0.00018069113453985514 0.18424569846031458
          -0.0018076429040682074 0.006602301431401447 0.00032700100804380905 0.004277953985391297 0.000786573697518056 -0.008961708553929998
          0.011636281689218458 -0.0014619192225653055 0.013080989739420526 0.0027673114548024125 -0.011196852432553916 0.00567827831371695
          -0.0025277988517157235 0.0012501822399029472 -0.002247205173553035 -0.1184239294340387 -0.27776077370166613 0.0005658653539355185
          -0.23725042164263557 -0.5543060462618813 -0.0016154204972336772 -0.08625122040551594 -0.2422061026593699 0.00039623938827848537
          -0.2921711610912636 -0.5782358077274045 -0.2748361589562389 -0.002630105733968229 -0.0029808903953695287 -0.0008374857843805872
          -0.03125992948631932 -0.05318687237038461 -0.02733487016222093 -0.07350662075353324 -0.14966229202245843 -0.0710956569885048
          -0.006700938374167742 -0.30098550389382717 -0.0032618651299437668 -0.5925922205359253 -0.0008853728609781453 -0.256712776793368
          0.007211824854838261 0.020461371699348876 0.00442388312352493 -0.0001227517096096531 -0.00006373747207817637 -0.0011874767914112488
          -0.000188402254186551 -0.0006256557958179004 -0.00003192027306059275 0.0034851479333668153 0.00008540873103559873 0.002267371848711751
          -0.0012053156758660335 0.0011457078728120962 0.00043132618277614415 0.0018457157642523224 0.0034187044162438535 0.01056773250226448
          0.015351557350355302 0.001409730966649243 0.004035318264181936 -0.01790912427165385 -0.0005592608933497473 -0.0254462374973674
          0.009656502329063024 -0.019520352064310117 0.0004404471553336453 -0.0018236734446557823 -0.2752696359711465 -0.2968696803939899
          0.003240528515979002 -0.5413649506003317 -0.5900714659156706 0.0006559262758340928 -0.2631565695239314 -0.31054119148149806
          0.0006493606452706302 0.016452407281299014 0.0017839887388740039 -0.3091485403243035 -0.6275125264931375 -0.3565699563412936
          -0.28223014331934226 -0.5570473951848423 -0.2660639964925867 -0.04366099434766098 -0.07423129272924366 -0.040718089484384906
          -0.10345241070088368 -0.1000203928744727 -0.001922242808854801 -0.21625959171125206 -0.20399961387873602 -0.003776469857123689
          -0.12498126342528396 -0.1570245269761662 -0.0011916625434610084 -0.19357806371132483 -0.40473467393308005 -0.22435693336208698
          -0.003956554317710036 0.0038972242419330616 -0.0021566872580053263 -0.01022111456907876 -0.04115194618120063 -0.007177974437380247
          -0.0727441328291578 0.0004120174130340659 -0.03803768623092052 -0.06582927766146295 -0.135285637247892 -0.1091072046478902
          -0.0034253450687256604 -0.006740703957285821 -0.002710541813023215 -0.04293380044195667 -0.10100540628653727 -0.054897982162303426
          -0.12692753040123989 -0.2481706481969123 -0.18636205895355554 -0.08158390099656129 -0.20011502304014356 -0.3207050610251365
          -0.31019661092576356 -0.5591301520949166 -0.6074138523913957 0.01652223440381584 -1.8123332614185683 0.007601611399475017
          -3.595036594328583 -0.07373472770674883 -1.6796265811333684 -0.0005767300127414998 -2.8561495588261643 -0.0026412125221837446
          -5.717343527871833 -0.0011190538035583675 -2.871191272772017 -0.0011211132924215939 -3.378105317855413 -0.00007555233483902413
          -6.75662580736843 -0.0010306820463774624 -3.3911683452877313 -0.03120865492920888 -0.024911046675682558 0.006066685233616753
          -0.12524901406206768 -0.09543554647076125 0.03933935694925683 -0.0003561161837106752 0.00004775087234731856 -0.0007434888443040855
          0.038065584824291454 0.01600730780017745 -0.03614912735562781 0.07850379632109172 0.04664879438415559 -0.06278361766619422
          -0.005758474545800585 -0.01171807115795298 -0.009285279342990727 0.006978932459735465 0.02296125180047348 0.007765780932520339
          -0.009803198966021665 -0.013751680760639262 -0.014250294762638616 -0.038084696272710605 -0.07410736942232576 -0.044170799138424144
          0.018769400826626148 0.04494006125376626 0.011644799637174241 0.046268457485295844 0.09825385456715363 0.046852933286700704
          0.017578140970385348 0.044941408477140565 0.023547440713718837 0.05645977228347032 0.12237728199003928 0.05981122327844357
          -0.0017363558604863716 0.012436556925621733 -0.007656040044050627 0.04094520050533501 0.0989653033059914 0.048135634106136305
          -0.06194720899598982 -0.1091446823210932 -0.06025176244164038 -0.00985471229842072 -0.002050518983692018 -0.0031007148530048934
          -0.034233682274450894 -0.04985802945121151 -0.03497700026536241 0.011664027937679206 0.04968930174973196 0.018353829744391648
          -0.0006017666859241544 -3.4675249181557053 0.0000699227657197099 -6.935844225201329 -0.0004301159847024394 -3.4765437238179624
          -0.00028208793191053516 -0.0004557011421324475 -0.0013759527419336948 -0.0006436985460518407 -0.00030748305264749476 -0.0013835536668169723
          -0.012807865397566953 -0.02246446829982407 -0.013224875775569966 -0.0919191868074698 -0.18417262023551118 -0.08704828425457922
          -0.015993064068376944 -0.008859912044876812 -0.016394932716093602 -0.007528321318538603 0.00046342206411514875 -0.005089580528927731
          0.0059419377220521485 -0.017346892363790417 -0.03978391834372562 0.026571327652221977 -0.034399999335874454 -0.06447665436998527
          -0.01076974996504862 -0.03871298482119406 -0.042525254616891564 -0.00007799919471758454 0.006685305011183862 0.0004006393577530437
          -0.01374639603335319 -0.02042818401604754 -0.022768723054539586 -0.03407133706927573 -0.05122521405543223 -0.032587875005467976
          0.01280166138098554 0.024956703501957223 0.0033914722416614196 -0.008400605981786324 -0.010950726629025187 -0.012182837919096412
          -0.02500237327005239 -0.035774150824906314 -0.029243944189187798 -0.026960971752956392 -0.034563549048991615 -0.03173887143632578
          -0.01467230054313795 -0.0044537492109644194 -0.007425913067719447 -0.00023855149526319508 -3.2840433764390475 0.00009348185807356302
          -6.568484099943075 -0.0009243293055947177 -3.294008809501559 -0.0006529949725035955 0.0003299353290566742 -0.0017417799518397725
          -0.0007654527539864286 -0.000005861673681994972 -0.0009747842305181109 -0.0007788835796604943 0.0007657553141315887 -0.0011707490520616037
          -0.0189951722516033 -0.03948051512644257 -0.02103006148167319 0.07585807961223123 0.15310966083831534 0.07501692581912023
          -0.059033781129563145 -0.1166303441825125 -0.05780225849843745 -0.012524232023526594 -0.024224909779448467 -0.01371666427216267
          -0.03501484925621123 -0.059976994142441065 -0.03384304607895361 -0.02853182480705163 -0.04961871692277375 -0.02634260308673575
        </DataArray>
        <DataArray type="Float64" Name="resid_z" format="ascii" RangeMin="0" RangeMax="0">
          0 0 0 0 0 0
          0 0 0 0 0 0
          0 0 0 0 0 0
          0 0 0 0 0 0
          0 0 0 0 0 0
          0 0 0 0 0 0
          0 0 0 0 0 0
          0 0 0 0 0 0
          0 0 0 0 0 0
          0 0 0 0 0 0
          0 0 0 0 0 0
          0 0 0 0 0 0
          0 0 0 0 0 0
          0 0 0 0 0 0
          0 0 0 0 0 0
          0 0 0 0 0 0
          0 0 0 0 0 0
          0 0 0 0 0 0
          0 0 0 0 0 0
          0 0 0 0 0 0
          0 0 0 0 0 0
          0 0 0 0 0 0
          0 0 0 0 0 0
          0 0 0 0 0 0
          0 0 0 0 0 0
          0 0 0 0 0 0
          0 0 0 0 0 0
          0 0 0 0 0 0
          0 0 0 0 0 0
          0 0 0 0 0 0
          0 0 0 0 0 0
          0 0 0 0 0 0
          0 0 0 0 0 0
          0 0 0 0 0 0
          0 0 0 0 0 0
          0 0 0 0 0 0
          0 0 0 0 0 0
          0 0 0 0 0 0
          0 0 0 0 0 0
          0 0 0 0 0 0
          0 0 0 0 0 0
          0 0 0 0 0 0
          0 0 0 0 0 0
          0 0 0 0 0 0
          0 0 0 0 0 0
          0 0 0 0 0 0
          0 0 0 0 0 0
          0 0 0 0 0 0
          0 0 0 0 0 0
          0 0 0 0 0 0
          0 0 0 0 0 0
          0 0 0 0 0 0
          0 0 0 0 0 0
          0 0 0 0 0 0
          0 0 0 0 0 0
          0 0 0 0 0 0
          0 0 0 0 0 0
          0 0 0 0 0 0
          0 0 0 0 0 0
          0 0 0 0 0 0
          0 0 0 0 0 0
          0 0 0 0 0 0
          0 0 0 0 0 0
          0 0 0 0 0 0
          0 0 0 0 0 0
          0 0 0 0 0 0
          0 0 0 0 0 0
          0 0 0 0 0 0
          0 0 0 0 0 0
          0 0 0 0 0 0
          0 0 0 0 0 0
          0 0 0 0 0 0
          0 0 0 0 0 0
          0 0 0 0 0 0
          0 0 0 0 0 0
          0 0 0 0 0 0
          0 0 0 0 0 0
          0 0 0 0 0 0
          0 0 0 0 0 0
          0 0 0 0 0 0
          0 0 0 0 0 0
          0 0 0 0 0 0
          0 0 0 0 0 0
          0 0 0 0 0 0
          0 0 0 0 0 0
          0 0 0 0 0 0
          0 0 0 0 0 0
          0 0 0 0 0 0
          0 0 0 0 0 0
          0 0 0 0 0 0
          0 0 0 0 0 0
          0 0 0 0 0 0
          0 0 0 0 0 0
          0 0 0 0 0 0
          0 0 0 0 0 0
          0 0 0 0 0 0
          0 0 0 0 0 0
          0 0 0 0 0 0
          0 0 0 0 0 0
          0 0 0 0 0 0
          0 0 0 0 0 0
          0 0 0 0 0 0
          0 0 0 0 0 0
          0 0 0 0 0 0
          0 0 0 0 0 0
          0 0 0 0 0 0
          0 0 0 0 0 0
          0 0 0 0 0 0
          0 0 0 0 0 0
          0 0 0 0 0 0
          0 0 0 0 0 0
          0 0 0 0 0 0
          0 0 0 0 0 0
          0 0 0 0 0 0
          0 0 0 0 0 0
          0 0 0 0 0 0
          0 0 0 0 0 0
          0 0 0 0 0 0
          0 0 0 0 0 0
          0 0 0 0 0 0
          0 0 0 0 0 0
          0 0 0 0 0 0
          0 0 0 0 0 0
          0 0 0 0 0 0
          0 0 0 0 0 0
          0 0 0 0 0 0
          0 0 0 0 0 0
          0 0 0 0 0 0
          0 0 0 0 0 0
          0 0 0 0 0 0
          0 0 0 0 0 0
          0 0 0 0 0 0
          0 0 0 0 0 0
        </DataArray>
        <DataArray type="Float64" Name="stress_zz" format="ascii" RangeMin="-2324136.5833716765" RangeMax="2973882.698969296">
          -48486.93835916019 666844.1573488032 1090684.2629571988 -349372.73229085037 -26687.14822003289 703051.8845021966
          1222869.5760148494 -197336.11218035367 -4887.3580809056 739259.6116555897 1355054.8890725 -45299.49206985696
          125883.76283214419 -180250.18492121925 -98125.29447364261 -22410.086466913723 120067.17938104058 -203975.0567372493
          -149718.98181903549 -18717.21206101016 114250.59592993699 -227699.9285532794 -201312.66916442837 -15024.337655106585
          1657249.7519352876 -503086.56432930316 1093747.0094023542 466856.96858834085 1514828.2001472139 -609511.8839139998
          950637.586318503 -15849.729447018815 1372406.6483591404 -715937.2034986961 807528.1632346519 -498556.4274823785
          327285.7921716918 -377457.48400454334 -670662.8558406458 1190266.8098656856 298582.74592264724 -375529.2340347765
          -657067.7270804137 1176992.1888428396 269879.69967360265 -373600.9840650098 -643472.5983201814 1163717.5678199935
          444181.5452284285 574790.4502380926 473977.1160102344 397607.64238618675 446297.47534532467 571148.1908274295
          460002.17854580114 387166.2461198838 448413.4054622208 567505.9314167664 446027.2410813679 376724.8498535807
          -741382.9894982765 -416625.72956210474 -563487.6314557672 -696929.2733976316 -740516.709364893 -416604.7788242821
          -577896.8092365774 -711307.9488038726 -739650.4292315096 -416583.82808645937 -592305.9870173876 -725686.6242101133
          347422.2582456467 448219.3221502762 306042.57612360123 350525.88487711153 442700.045230431 291591.5288663124
          353629.51150857634 437180.768310586 277140.48160902364 -31599.004204576042 -369011.5136249372 -8974.470922629098
          -387910.9182585704 13650.062359317817 -406810.32289220364 1043743.0548593171 1794062.9020127803 1272986.7828137954
          984302.274764571 1042332.7861511419 1799498.2552997672 1325415.8603332085 970875.6692166526 1040922.5174429666
          1804933.608586754 1377844.937852622 957449.0636687346 -744476.0932744504 -1073643.573669665 -720972.9558657029
          -1040684.5593581274 -697469.8184569556 -1007725.5450465898 205661.82328604808 74741.8839042136 222859.39731150842
          72902.57870779457 240056.97133696874 71063.27351137556 2154861.114474789 2226448.273818063 2241179.756140603
          2187127.3335683513 2208096.5700693335 2169279.3594855526 2219393.552661914 2189744.8663206045 2097378.962830502
          -955073.6988223207 -767996.3154875922 -956187.677221194 -761109.392513101 -957301.6556200671 -754222.4695386097
          34425.31102867106 154608.42579390784 242951.03634882346 -164364.46153063996 43655.30449518726 170961.29083778523
          245318.19752973964 -163880.27437434887 52885.29796170342 187314.15588166262 247685.35871065574 -163396.0872180578
          604119.6704215239 253944.9776405105 421688.4261471613 604747.1068488004 262262.6253416068 421273.04790428857
          605374.5432760769 270580.27304270305 420857.6696614158 144672.94743805 160516.08649053166 176359.22554301345
          305747.1047824907 -105874.6214418716 -175833.3773865282 315577.6015723269 -101956.12824132844 -190966.07441199935
          325408.09836216306 -98037.63504078522 -206098.77143747048 857507.9724554869 375856.5182804689 700231.3623888474
          846870.3470343068 382644.5686759108 694380.2767925092 836232.721613127 389432.6190713528 688529.1911961709
          -1038543.480775228 -1675416.817331634 -1023627.1220013537 -977588.3726499999 -1598094.7930802791 -979119.5999711446
          -916633.2645247718 -1520772.7688289245 -934612.0779409355 -35942.76937867611 -836674.4560393973 -37123.36054873146
          -876228.4241338179 -38303.95171878679 -915782.3922282385 -725136.2728644839 675997.9940706263 -724381.7989713755
          662078.6648167666 -723627.3250782671 648159.3355629067 -511707.4563547301 -590868.0952826752 -670028.7342106208
          95333.36868234864 531479.8517214614 129124.62608194868 410081.27420653694 162915.88348154875 288682.69669161254
          320507.3996319936 322604.6967402279 314340.4143194881 317970.3775809645 308173.4290069826 313336.0584217011
          -78877.56869858889 -85559.26183824276 -92240.9549778967 -827438.1720834451 -462581.4007981454 -310066.42695229896
          -755174.0679980548 -825197.295156732 -478954.7046931634 -336032.4511707917 -765916.6062688654 -822956.4182300186
          -495328.0085881812 -361998.4753892843 -776659.1445396761 1265751.685331142 1259318.2166075213 1252884.7478839005
          1194085.53013346 1315549.9521737993 1236280.2512843804 1322253.3164489216 1278474.972435301 1328956.6807240439
          -1240524.0286201115 -866718.3660733402 -1251433.3190881049 -816384.5440516836 -1262342.609556098 -766050.7220300272
          606120.1257879045 587353.8528666323 568587.57994536 -448831.9070348506 -310333.1678097591 -467574.4818788131
          -306803.25332085695 -486317.05672277557 -303273.3388319548 -750867.0182161513 -1285294.8461421924 -1309535.741741377
          -582024.939144776 -762036.2900505912 -1295680.5563429946 -1315717.170654938 -591378.444795904 -773205.5618850313
          -1306066.2665437965 -1321898.5995684993 -600731.9504470318 1118554.216447346 1679397.4680138363 1104880.6109117994
          1645604.7406452324 1091207.005376253 1611812.0132766285 1158100.571697329 682405.0176273158 1070183.176928794
          1321015.429481489 1003012.5666930092 640950.8969899487 1136646.8246594334 1332305.8423774787 847924.5616886896
          599496.7763525817 1203110.4723900727 1343596.255273469 -1426.1247730798204 21434.38186464249 44294.888502364745
          -1019595.8613019112 -692084.6575316978 -965958.9213587157 -690630.1571751548 -912321.9814155204 -689175.6568186118
          114972.04414777787 272947.1082150118 118234.39329660704 283170.6201419001 121496.74244543619 293394.1320687884
          358531.2743660019 378832.7772819133 399134.2801978248 99911.64083022441 -722137.9515912593 100637.5850662497
          -742444.7674122395 101363.52930227497 -762751.5832332197 -153009.8425856685 -975767.2497077169 -145347.6553783843
          -1005450.9184121486 -137685.46817110002 -1035134.5871165808 485411.782705625 -433839.81338416704 478769.2498249133
          -445132.34223300556 472126.71694420156 -456424.87108184403 -47356.90460961616 -27670.40267170116 -7983.900733786184
          -340390.28656561684 -288674.8006706609 -330209.92664456007 -281230.25265742606 -320029.5667235032 -273785.70464419125
          -537086.939354223 -657801.9268410129 -523772.8103752044 -659502.4454470944 -510458.6813961859 -661202.9640531759
          434806.8638272719 -245644.3560959321 334894.65472512395 449557.0945994117 -246575.6741019237 328601.492384056
          464307.32537155144 -247506.99210791534 322308.33004298795 -59510.289161302484 -9541.348400256189 40427.59236079012
          -450690.5232093894 3127.4806414679015 -464058.6420774626 28864.334203740946 -477426.7609455356 54601.187766013994
          464026.53014944994 480484.53854439175 466623.60063557496 477761.2059737124 469220.67112169997 475037.8734030331
          1258742.9787432686 662564.506942614 1293827.1905411705 638382.3663245892 1328911.4023390722 614200.2257065646
          -582256.48127306 -1443679.6064983576 -596878.6970015188 -1393534.2363784404 -611500.9127299779 -1343388.8662585234
          -1587.3796842696843 -548731.2521617219 276941.31324620586 -41423.85038820072 -533618.8919644381 244785.36928740778
          -81260.32109213175 -518506.53176715435 212629.4253286097 -623399.4452938898 -661300.9369200113 -699202.428546133
          106908.15291630146 131969.9306572217 157031.708398142 148971.44169184405 109852.45692900725 70733.47216617051
          -197933.31100585952 -231576.70376763475 -265220.0965294099 396065.2857334297 377914.01650005276 359762.7472666758
          -1195594.7265671804 -1272625.2606502909 -1349655.794733401 -812187.4377141857 -901276.0810766083 -990364.7244390303
          846787.7504513059 858201.7995423265 869615.8486333472 -1438.596829616814 -1786670.168315772 112192.57661440037
          -1704071.6352082596 225823.75005841756 -1621473.1021007472 -2186380.6674932567 -2028579.9907790674 -2255258.6254324666
          -2092294.1462385575 -2324136.5833716765 -2156008.3016980477 -1424664.2897307882 -1474694.1290578172 -1524723.968384846
          -2060027.9281237845 -1770246.8224430787 -2004291.2117197518 -1793035.8265795202 -1948554.4953157194 -1815824.8307159622
          2973882.698969296 1051761.3542303103 2942247.455208759 914480.9916033878 2910612.2114482205 777200.6289764651
          1190121.8063608222 1160611.196534249 1131100.5867076758 -370328.1333335627 -374839.5167102849 -379350.9000870067
          413260.106462101 526550.3257338221 331743.61301027384 543055.422784881 250227.11955844666 559560.5198359399
          -851968.1072882053 -634236.3504154779 -844996.477181288 -643734.1381080864 -838024.8470743706 -653231.9258006949
          1037094.8921584511 1042440.0637135772 1047785.2352687033 448241.31135899056 442695.49011760263 437149.66887621465
          -633897.0483859858 -647123.002870102 -660348.9573542179 -1018313.3833993906 -793069.0135878186 -1017121.9679798131
          -805491.0805823435 -1015930.5525602358 -817913.1475768683 541306.0290181835 535593.3972351743 529880.765452165
          155142.51414654197 239684.1989446729 72603.3519009802 149719.11143075052 148714.40980967114 236809.0464762481
          82764.62648492344 132129.6737357551 142286.30547280028 233933.8940078233 92925.90106886667 114540.23604075964
          -12634.396278205193 244041.2403109819 -2540.4821737143866 297818.0488069831 7553.431930776409 351594.85730298434
          646685.9943496065 652308.6652124653 657931.3360753243 -11978.649718518762 258030.40114361947 10987.7497926421
          262387.9590861981 33954.149303802966 266745.51702877675 250860.29453350848 -440595.11097042466 250920.46860379155
          -434697.2650973278 250980.64267407462 -428799.419224231 -57076.49854483734 -81167.74827706121 -105258.99800928506
          416297.7768372579 405250.29150811746 394202.8061789769 723455.5351478755 707352.0407320305 691248.5463161858
          -1296154.397554129 -1149096.5674610545 -1273965.302325644 -1092636.1588732973 -1251776.2070971597 -1036175.75028554
          -106572.43282246435 -101481.61099213909 -96390.78916181385 1645809.5824805629 1391059.0083916825 815977.3972594012
          1624652.2254011652 1382567.3601473782 803343.995526302 1603494.868321768 1374075.7119030738 790710.5937932027
          -805976.7395389638 -828628.3396147629 -851279.9396905621 91900.8420428993 -131868.06357786543 155482.5607812201
          92765.76503758963 -144510.9885463656 149815.86629819046 93630.68803227997 -157153.91351486582 144149.1718151608
          307791.93403669324 305957.67153045384 304123.40902421443 468482.3821489889 470989.77800302696 473497.173857065
          1745511.4619180555 1775309.1593674351 1805106.8568168147 -39807.81179936111 -56855.874290265434 -73903.93678116973
          21818.092579712516 88085.3438010466 -9371.35773970207 55909.44735794376 -40560.80805911666 23733.55091484092
          503787.127559689 490623.3214808564 477459.5154020238 -1653290.1531807515 -1235739.907440365 -1634887.7654729662
          -1198128.2732503489 -1616485.3777651815 -1160516.6390603324 -212714.07729896303 33160.61144422319 -267856.97191963816
          -8745.136569185453 -322999.8665403133 -50650.88458259407 -88318.41770401411 217369.23440892503 -110342.16014310456
          197492.37264150975 -132365.90258219492 177615.51087409456 1832076.905041241 1649366.2916086207 1834584.905042062
          1662288.3266521024 1837092.905042883 1675210.361695584 606200.7261209659 820141.6977820548 1120833.8793267799
          606650.7352010638 825649.4703135029 1165516.6486679788 607100.7442811616 831157.2428449509 1210199.4180091778
          998973.3681777606 995876.1242873087 992778.8803968569 939347.3045194163 980753.4543253012 1022159.604131186
          423100.5035334424 424297.64461481746 425494.7856961925 2324892.612351029 2336382.3407124695 2347872.06907391
          2226682.3834286476 2514829.899273022 1529739.1979457447 2298856.0130720525 2492145.6911244066 1454921.0214139246
          2371029.642715458 2469461.4829757917 1380102.8448821045 998977.7271239476 1064257.4968626893 1129537.2666014312
          1904019.4405066378 1903456.6937273862 1902893.9469481343 1774994.0067787697 1512126.196199449 1784196.5726808896
          1498015.1208057355 1793399.13858301 1483904.045412022 2040369.671508628 2009964.3562895097 1979559.0410703917
          1530077.7989856203 1469127.4100883703 1408177.0211911201 1075220.8353734605 755566.7138829421 435912.59239242383
          1622443.3142202678 1591056.8668505803 1559670.4194808928 291257.764090739 53269.42170887452 -184718.92067298997
          -155400.00379129764 -771900.145932439 -1388400.2880735802 -595889.5673056964 101302.9421913291 -909888.7254854259
          -308307.9787822074 -1223887.8836651554 -717918.8997557439 -52795.64019744312 -4014.377403949773 -45288.9934736381
          5443.850889603422 -37782.34674983308 14902.07918315661 -52306.90674206786 -86575.41061198665 -51188.7982547345
          -84919.64774574665 -50070.689767401156 -83263.88487950663 -1080995.9203713322 -1226174.7364956383 -1371353.5526199443
          -534363.2075263816 -646178.0432753579 -757992.8790243343 148617.88868912734 108194.13451380694 67770.38033848658
          -192968.0441343375 -279848.48398573464 -366728.9238371318 -1043778.6337566151 -1232923.489048385 -1422068.3443401554
          -196852.16715645007 -264004.48839532456 -331156.809634199 681723.405715416 639117.7238426326 596512.0419698493
          -582432.9689189659 -639298.505843082 -696164.042767198 -818261.1016440757 -830752.4458897517 -843243.7901354277
          359640.88265885506 369836.7341787428 380032.58569863054 -316168.65562258894 -300067.3005231026 -283965.94542361615
          841233.7203403399 833057.2178700375 824880.7153997349 594892.2742253034 590956.1805870626 587020.0869488219
          976492.9029865235 972462.8080598093 968432.713133095 1490847.3478448133 1483160.867008361 1475474.386171909
          232619.8117250335 230759.96404419956 228900.11636336564 1088503.3715898772 1083285.8098381676 1078068.2480864583
          -569018.6895465383 -566049.0029518598 -563079.3163571814 89890.21846106474 82647.15068242545 75404.08290378621
          -57134.90929924026 -45758.92101326248 -58422.182164130725 -46597.76934524099 -59709.45502902119 -47436.6176772195
          -107277.65637659738 -96566.84864424868 -85856.04091189995 -78362.85063171764 -63361.44693894795 -48360.043246178255
          -181948.01142402252 -180170.18561329195 -178392.35980256146 -276070.92085862684 -266351.32528632367 -256631.7297140205
          91205.16704369563 -803163.1392028623 83267.0155764375 -799507.5961986005 75328.86410917934 -795852.0531943386
          1134295.4664006955 634181.6479924186 830838.5337204537 1138729.3853165987 625148.2203981959 819157.7117634062
          1143163.3042325017 616114.7928039731 807476.8898063586 49075.65040340963 57838.76062878684 66601.87085416405
          -911820.8594524486 -913235.024091457 -914649.1887304655 680159.0285820162 677667.1479813952 675175.2673807743
          906273.7267372768 912972.116632168 919670.5065270592 898160.088873287 897620.6921201267 897081.2953669662
          650897.0932163859 650471.7745438257 650046.4558712655 -158029.35258068884 -155741.9224067482 -153454.49223280756
          -753607.0315625644 -746077.8280711283 -738548.624579692 -47560.3069770265 -43807.55727611304 -47076.123172808395
          -42657.30487694782 -46591.939368590276 -41507.05247778261 -48595.22637632937 -51361.10797794387 -54126.98957955838
          -74246.61863161724 -77996.9439837749 -81747.26933593255 62540.49389708732 55616.923081261695 48693.352265436086
          89228.36860205187 89853.84168204087 90479.31476202988 317610.0921350581 321381.80821294815 325153.5242908383
          -108843.78621967154 -99848.8063906806 -90853.82656168967 1828547.449311532 1814538.5999651847 1800529.7506188375
          1649719.76640851 1639527.5312054632 1629335.2960024164 476491.923428739 468939.5498249354 461387.1762211318
        </DataArray>
        <DataArray type="Float64" Name="peeq" format="ascii" RangeMin="0" RangeMax="0.002600639498408915">
          0.001478924106073441 0.0017923869070759733 0.0019130955748418027 0.0015158092441846472 0.0014807083330332202 0.0017943504446544505
          0.0019148181554216 0.0015185909935445888 0.0014824925599929992 0.0017963139822329277 0.0019165407360013974 0.0015213727429045304
          0.0012157440047254236 0.0011147273897394918 0.0011697681854477811 0.0012712264702149103 0.0012153003439251903 0.0011146796508166683
          0.001169286532192569 0.0012706037767469197 0.0012148566831249573 0.001114631911893845 0.001168804878937357 0.0012699810832789288
          0.00041361987117542824 0.0004454470343269096 0.0003659912965348443 0.00014978473217273908 0.00041406820657780355 0.0004457369076383416
          0.00036640675865701633 0.0001508124468771504 0.0004145165419801788 0.00044602678094977374 0.0003668222207791884 0.00015184016158156167
          0.0019379180981495166 0.0016403158745599711 0.0016653263644876913 0.001972132239257297 0.001937409142605613 0.0016406420170236467
          0.001666021177878568 0.0019719223779499245 0.0019369001870617095 0.0016409681594873218 0.0016667159912694444 0.001971712516642552
          0.001439819742173853 0.0014229370380108059 0.0014290964086272815 0.0014525415977612373 0.0014391363147082388 0.0014221381957936837
          0.001428217494749595 0.0014517072213750502 0.001438452887242625 0.0014213393535765615 0.0014273385808719085 0.0014508728449888627
          0.0009514097775551286 0.0009791747248468015 0.0011491798948573017 0.0011154591803765668 0.0009524413412916504 0.0009798861826997476
          0.001149952255284022 0.0011163346039990605 0.000953472905028172 0.0009805976405526937 0.001150724615710743 0.0011172100276215543
          0.0012896570188921023 0.0012290380610707724 0.0011672007648001127 0.0012892070194160201 0.001228742945399951 0.0011670419873573846
          0.001288757019939938 0.0012284478297291293 0.0011668832099146567 0.001025614000186773 0.0011226863325036586 0.0010262415534890376
          0.001123309923690785 0.0010268691067913023 0.0011239335148779115 0.001049253958694113 0.0012284380575647627 0.0012451011801495062
          0.0010779892011970216 0.0010489122522285013 0.0012278529016563065 0.0012446009575012298 0.0010772920965870724 0.0010485705457628897
          0.0012272677457478502 0.0012441007348529538 0.0010765949919771232 0.0013916203532705292 0.0014079751133699852 0.0013924184133428728
          0.0014087532768910882 0.0013932164734152168 0.0014095314404121919 0.0010856941575980018 0.00114229320327446 0.0010861766871915284
          0.0011427789810214094 0.0010866592167850548 0.0011432647587683586 0.0005679298411987619 0.0005003783890312063 0.0003150003014347058
          0.0005681664462146148 0.0005007064946325709 0.00031514151797837055 0.0005684030512304676 0.0005010346002339355 0.00031528273452203527
          0.0011238037033982568 0.0009601902334394868 0.0011249763172317816 0.0009613915770036751 0.0011261489310653064 0.0009625929205678631
          0.000972109025089909 0.0010492411048882355 0.0010905253164359182 0.0010386836146373125 0.0009722515528262191 0.001049745611249698
          0.001090732013314583 0.0010387006108628254 0.0009723940805625291 0.0010502501176111604 0.0010909387101932472 0.001038717607088338
          0.0013269561331311157 0.001346052138091867 0.0013861319125645882 0.0013264584718340054 0.0013454971667747324 0.0013854249497840376
          0.0013259608105368951 0.0013449421954575972 0.001384717987003487 0.001689389624812718 0.001689787813396125 0.0016901860019795315
          0.001130683490600942 0.0010809971418663962 0.0011853635444859195 0.0011311916065305083 0.0010817398143904203 0.0011859235982339938
          0.0011316997224600743 0.0010824824869144444 0.0011864836519820678 0.0013155424454639956 0.0012355090267986125 0.001254959277794713
          0.0013148117037386727 0.0012351224735640076 0.0012546465695689234 0.0013140809620133496 0.0012347359203294026 0.001254333861343134
          0.0013460872533575217 0.0013978459940916163 0.0011844722539016963 0.00134748499989062 0.0013993781850006653 0.001186002614367359
          0.0013488827464237184 0.0014009103759097144 0.0011875329748330219 0.0012360712382083053 0.001216182763950902 0.001237334498659391
          0.001217726111551788 0.0012385977591104767 0.001219269459152674 0.0007385708636508263 0.0007638601628719866 0.0007389123475240193
          0.0007640221064390037 0.0007392538313972122 0.0007641840500060207 0.002600639498408915 0.0025989099456031873 0.0025971803927974596
          0.001281461663411611 0.0011791044794441817 0.0012809224941970896 0.0011779631254516558 0.0012803833249825682 0.0011768217714591299
          0.0011633981608615866 0.001144304206865389 0.0011636653590261753 0.001144445471521349 0.001163932557190764 0.0011445867361773096
          0.0010785896386400194 0.001078912343562832 0.0010792350484856445 0.0007264340039429124 0.0007912431635158795 0.0008227753670488869
          0.000764784984071392 0.0007273433468265781 0.0007918056779812058 0.0008233200232668665 0.0007657275160911038 0.0007282526897102438
          0.0007923681924465321 0.0008238646794848461 0.0007666700481108157 0.0004934814100166436 0.0004935078401608491 0.0004935342703050547
          0.0003583012938815895 0.00053714874613088 0.0003583815488118823 0.0005371995078995363 0.000358461803742175 0.0005372502696681925
          0.0014539229810909596 0.0012656826490762055 0.0014552181441549513 0.0012672426693664583 0.001456513307218943 0.0012688026896567116
          0.0013885352772833206 0.0013876956234649988 0.0013868559696466767 0.001002657195117264 0.0008805421823112251 0.0010023076619622103
          0.0008804984896084872 0.0010019581288071564 0.000880454796905749 0.0009311092504773574 0.0008441070768832174 0.0007749186829912881
          0.0009003135769569942 0.0009314633467079912 0.0008442724630774063 0.0007752838238375727 0.0009008245664626885 0.000931817442938625
          0.000844437849271595 0.0007756489646838571 0.0009013355559683827 0.0013435734613169777 0.0013174315110209389 0.0013429324217076205
          0.0013166088051013037 0.0013422913820982636 0.0013157860991816685 0.0010757694588326367 0.0010228182859267812 0.0008592257199141549
          0.0009048619691394211 0.0010750276136361485 0.00102244719714417 0.0008597099984558333 0.0009048709332858035 0.0010742857684396603
          0.001022076108361559 0.0008601942769975116 0.0009048798974321855 0.001399266448970058 0.0013997581444433831 0.0014002498399167081
          0.000835018841109951 0.000836587003620384 0.0008365592652086579 0.000837633888750315 0.0008380996893073648 0.0008386807738802462
          0.0010777134190639841 0.001105709333161585 0.0010785344968714272 0.0011066126274830623 0.0010793555746788702 0.0011075159218045401
          0.0012934230016835593 0.0012943504580291212 0.0012952779143746828 0.0012416494301328456 0.0012419158459271392 0.0012421117199025633
          0.0012426033719042265 0.0012425740096722808 0.0012432908978813142 0.0013582180067041535 0.0012501328300411326 0.0013589165147219954
          0.001250983221622992 0.0013596150227398374 0.0012518336132048516 0.0013545944275316617 0.0015154889962191664 0.0013547880428166432
          0.0015155430131338775 0.0013549816581016243 0.0015155970300485884 0.0012644225948978943 0.001265280266651195 0.0012661379384044957
          0.000967858153663664 0.0010259238705359022 0.0009685229956149031 0.001026452885755289 0.0009691878375661425 0.0010269819009746757
          0.001461666874634425 0.0013740426325398575 0.001462114899464391 0.0013743643936239944 0.001462562924294357 0.0013746861547081313
          0.0016072451229273436 0.001336803481112348 0.0016100143636959374 0.0016080380592227452 0.001337680088979962 0.0016103208088187925
          0.0016088309955181468 0.0013385566968475767 0.0016106272539416471 0.001645573646186408 0.001646395473460823 0.0016472173007352378
          0.0008807574930550144 0.0009073265274813372 0.0008813823416784482 0.0009080123302139803 0.0008820071903018821 0.0009086981329466234
          0.0011650988353408545 0.0011807923341544766 0.0011653348549095456 0.001180777056887586 0.0011655708744782367 0.001180761779620695
          0.0006887276716841343 0.0008882342651193807 0.000688851596899127 0.0008880985880754991 0.0006889755221141196 0.0008879629110316174
          0.0010310068127025913 0.000874066324686752 0.0010321143402305373 0.0008755369905939194 0.0010332218677584829 0.0008770076565010869
          0.0020401795767079857 0.0017127448919333598 0.0019242674669819537 0.002039287649076623 0.0017131757181885277 0.0019237622911666258
          0.0020383957214452604 0.001713606544443696 0.0019232571153512982 0.002043230637970502 0.0020431523984546134 0.002043074158938725
          0.0010388955898867369 0.0010392778968247355 0.001039660203762734 0.0020994844634038045 0.0020981996785377497 0.002096914893671695
          0.0017578050001720883 0.0017586462966175153 0.0017594875930629422 0.0012310752531315282 0.0012312925763310685 0.0012315098995306088
          0.0009977725873981998 0.0009988078365602744 0.0009998430857223492 0.0022132484800452996 0.002212535535057408 0.0022118225900695163
          0.0018570486470660483 0.0018571547058891958 0.0018572607647123428 0.001602483700545884 0.0016797157047780669 0.0016052382985501427
          0.0016826077927979653 0.001607992896554401 0.0016854998808178642 0.0012145786235876364 0.0012121308080858507 0.0012160382833073377
          0.0012137906393287704 0.001217497943027039 0.00121545047057169 0.002178275403293952 0.002178577931684013 0.002178880460074074
          0.0009316418269492053 0.000953820539602009 0.0009328552700847653 0.0009549954372959523 0.0009340687132203252 0.0009561703349898959
          0.0004484916520607374 0.00022194387375360406 0.00044880521122223245 0.0002224966404028788 0.00044911877038372755 0.0002230494070521535
          0.0008561771718758183 0.0008560422313640117 0.0008559072908522053 0.002025112573716718 0.00202611029637384 0.0020271080190309627
          0.0011720008962327485 0.0012965632897913258 0.001170846096163692 0.0012957613183586113 0.0011696912960946352 0.0012949593469258965
          0.0007150523975560424 0.0007826106564866534 0.0007159805959178027 0.0007832151160747693 0.000716908794279563 0.0007838195756628853
          0.0018071158439789813 0.0018071159903749173 0.0018071161367708532 0.002041451930589482 0.0020406434124471276 0.0020398348943047734
          0.0012665313838393403 0.0012671342966562669 0.0012677372094731935 0.0007210870981981896 0.0007077333416267358 0.0007225492100971841
          0.000709074599667282 0.0007240113219961786 0.0007104158577078282 0.0011847829322814583 0.001184735972726186 0.0011846890131709136
          0.001439276795542064 0.001425652678393592 0.00136154136548839 0.0013805027494157016 0.0014384981991659752 0.001424836045057553
          0.0013606888366459154 0.0013796151407882424 0.0014377196027898866 0.0014240194117215135 0.0013598363078034408 0.001378727532160783
          0.0008928835178500708 0.00101157157982056 0.0008935300918972434 0.0010121606109094643 0.0008941766659444161 0.0010127496419983686
          0.0013712904421222635 0.0013707866671475134 0.0013702828921727628 0.0013206173787089163 0.001392017385282485 0.001319883499903097
          0.0013912958944858763 0.0013191496210972777 0.0013905744036892677 0.0011581680079013155 0.0011141828605803995 0.0011580880776034417
          0.0011139357400202115 0.0011580081473055684 0.0011136886194600235 0.0012758624057398042 0.0012760754411162136 0.0012762884764926231
          0.0011957142629732318 0.0011959633594173973 0.0011962124558615626 0.001219148475953804 0.0012184225812266118 0.0012176966864994195
          0.0007924351554012398 0.0007718002134580508 0.0007940294649143448 0.0007733407624448746 0.00079562377442745 0.0007748813114316982
          0.0011795054832630205 0.0011788883946875937 0.001178271306112167 0.0008840409529454684 0.0007843552066669195 0.0008818539552635675
          0.0008840838973815451 0.0007844104445782543 0.0008817577102611153 0.0008841268418176216 0.000784465682489589 0.0008816614652586628
          0.0010750015999038507 0.0010744842010457236 0.0010739668021875967 0.0010190234691798343 0.001151045982987353 0.0011402471379229314
          0.0010195057759154877 0.0011508071340180176 0.001140007075615148 0.001019988082651141 0.001150568285048682 0.0011397670133073648
          0.0014597737966580591 0.0014590367409858846 0.00145829968531371 0.0011381488648242192 0.0011384268700466303 0.0011387048752690416
          0.0006520500796033151 0.0006521258096444356 0.0006522015396855563 0.0008925330058735697 0.0008931554108055509 0.0008937778157375319
          0.0012640963089758641 0.001280221180550214 0.0012631688825425866 0.0012793473180195464 0.0012622414561093095 0.0012784734554888786
          0.0011006465030203906 0.0011001730565294713 0.0010996996100385524 0.0008375246232497754 0.000760096987919098 0.000839102736059301
          0.000761725831374526 0.0008406808488688266 0.0007633546748299539 0.001223522355401888 0.0011336979888804664 0.0012226955702394388
          0.0011333821066159364 0.0012218687850769898 0.0011330662243514067 0.0010984213936262375 0.0009962167702928103 0.0010977070969959435
          0.0009957525591841594 0.0010969928003656492 0.0009952883480755087 0.0008149242271435866 0.0009257820254318361 0.0008147927791848407
          0.0009257231537741289 0.000814661331226095 0.0009256642821164219 0.0013882230309317151 0.0013922621571476768 0.0012933007151256306
          0.0013876119659204803 0.0013914850738115242 0.0012922577043272079 0.0013870009009092454 0.0013907079904753716 0.0012912146935287856
          0.0009834602224242034 0.000983267868614739 0.0009830755148052745 0.0011516260000988383 0.0011504748094543428 0.0011493236188098474
          0.0014446685682156448 0.0014439935543885903 0.0014433185405615364 0.0006563399677679786 0.000656253204289637 0.0006561664408112954
          0.0008339300054984804 0.0006600863689321468 0.000684259225291203 0.00083423120252628 0.0006602288747816236 0.0006845601991367492
          0.0008345323995540795 0.0006603713806311005 0.0006848611729822953 0.0009937693093863152 0.0009934282518796673 0.0009930871943730193
          0.0008682863440873339 0.0008684046267960908 0.0008685229095048478 0.0007904836726558113 0.0006793783326494045 0.0007904836125511576
          0.0006792568723203676 0.0007904835524465038 0.0006791354119913308 0.00047548100516728076 0.0004758469877103467 0.0004762129702534127
          0.0007125552376674319 0.0007129815913710712 0.0007134079450747103 0.00016410991007717826 0.00016489433265712438 0.00016567875523707055
          0.0002940501386265381 0.0002938935681445432 0.0002937369976625484 0.00012702171591741308 0.00012788625268115767 0.00012875078944490223
          0.000024816107547822686 0.000026160705062992704 0.000027505302578162726 0.00001196034287334622 0 0.000012229200273460082
          0 0.000012498057673573944 0 0 0 0
          0 0 0 0 0 0
          0 0 0 0.00006061197689611232 0.000060964128287287465 0.0000613162796784626
          0.0000030270731177722365 0.000003143816645444238 0.0000032605601731162396 0 0 0
          0.0001681544301612297 0.00016834896206159884 0.000168543493961968 0.00003824966810049575 0.00003847755120409818 0.00003870543430770062
          0.0000014430358504315023 0.000001458351182626329 0.0000014736665148211557 0.0003244958032703756 0.00032457905705323006 0.0003246623108360845
          0.00014669013686030216 0.00014677736789461964 0.00014686459892893718 0.000033553256148982764 0.00003359041641762054 0.000033627576686258305
          0.00031726872116042944 0.00031722045602451584 0.00031717219088860224 0.00014627070815255495 0.00014628734525326588 0.00014630398235397678
          0.0004992455162933986 0.000499192629840848 0.0004991397433882973 0.0003392809689978034 0.0003392394494330769 0.00033919792986835035
          0.0006590195244287685 0.0006589739920271211 0.0006589284596254739 0.0005666041951644148 0.000566487177990706 0.0005663701608169974
          0.0007843143993689944 0.0007843094448223324 0.0007843044902756703 0.000801595739084316 0.0008013799620625757 0.0008011641850408352
          0.0008374784239015476 0.000837502519895018 0.0008375266158884885 0.0009202240501274019 0.0009199539069733496 0.0009196837638192972
          0 0 0 0 0 0
          0 0 0 0 0 0
          0.0000011658111621177759 0.000001180600391157778 0.00000119538962019778 0.00003941913141527497 0.00003943736327469965 0.00003945559513412432
          0.0006669300740096136 0.0006335737810750969 0.0006670817910163597 0.0006341289531622636 0.0006672335080231056 0.0006346841252494303
          0.0005969013908446091 0.0006445546339106182 0.0006121981660437443 0.0005968123448812136 0.0006443391920470899 0.0006120794880977886
          0.0005967232989178181 0.0006441237501835615 0.0006119608101518328 0.0008878530837179916 0.0008884180024187921 0.0008889829211195928
          0.0006916743188800638 0.0006923040560290614 0.0006929337931780591 0.000687850384369695 0.0006877247752355306 0.0006875991661013663
          0.00048439892674646655 0.0004843443947732031 0.0004842898627999397 0.0006126210842374054 0.0006125639015858177 0.0006125067189342301
          0.0006943668972885387 0.0006943209472466632 0.0006942749972047876 0.0007276037898144883 0.0007276178455017 0.0007276319011889115
          0.0007329041142976008 0.00073296285614622 0.0007330215979948391 0 0 0
          0 0 0 0 0 0
          0 0 0 0 0 0
          0.0000047320705648877705 0.000004734092946936855 0.000004736115328985939 0.00017773653978769074 0.0001777016003803815 0.00017766666097307227
          0.00006043083757295615 0.00006043483458083866 0.00006043883158872117 0.00041815566821052855 0.0004179730052789424 0.0004177903423473563
          0.0007206349606996344 0.0007202407883091164 0.0007198466159185981 0.000883925024047279 0.000883425241054027 0.000882925458060775
        </DataArray>
        <DataArray type="Float64" Name="pe11" format="ascii" RangeMin="0" RangeMax="0.002598900851209481">
          0.001478315714804133 0.0017913643266017042 0.0019119642177850907 0.001515097364131349 0.001480122440214291 0.001793344057110306
          0.001913705488866173 0.0015179071115008435 0.0014819291656244492 0.0017953237876189073 0.0019154467599472552 0.0015207168588703384
          0.0012155845558031867 0.0011146107910571979 0.0011696377971575122 0.001271047851391487 0.0012151403629140692 0.0011145607194291388
          0.0011691562610907375 0.0012704277730388846 0.0012146961700249515 0.0011145106478010797 0.0011686747250239627 0.0012698076946862824
          0.00041343728664563985 0.0004452890614444921 0.00036590167426956246 0.00014971698491806303 0.00041388429959924553 0.00044557809102558146
          0.0003663178279039843 0.0001507447026462414 0.0004143313125528513 0.0004458671206066707 0.0003667339815384063 0.00015177242037441976
          0.0019371918974339167 0.001639528217087951 0.0016644539703322145 0.0019713540004115265 0.0019366793872627325 0.0016398472044565184
          0.0016651434334530434 0.0019711409781071865 0.0019361668770915476 0.0016401661918250857 0.001665832896573872 0.0019709279558028465
          0.0014394917419635921 0.0014226056699027756 0.0014287986545746482 0.0014522207467007717 0.0014388160738064454 0.001421814807105372
          0.0014279276890570573 0.001451394247745628 0.0014381404056492987 0.0014210239443079688 0.001427056723539467 0.001450567748790484
          0.000951127280182307 0.0009789156784141468 0.0011487451050324856 0.0011150369515442043 0.0009521591686360699 0.000979623038455189
          0.0011495127075159908 0.0011159122987755997 0.0009531910570898328 0.0009803303984962308 0.0011502803099994962 0.001116787646006995
          0.0012894735578542727 0.0012288755488758286 0.001167042507061435 0.0012890248934610913 0.0012285785275356663 0.0011668791664181367
          0.0012885762290679099 0.0012282815061955038 0.0011667158257748379 0.0010253972935075153 0.0011223086386609694 0.001026018991337806
          0.0011229259470395818 0.0010266406891680966 0.0011235432554181945 0.0010490250540062286 0.0012282295722268895 0.001244844676985304
          0.001077753417303987 0.0010486841067529101 0.001227647496558429 0.0012443486104824703 0.001077057267858455 0.0010483431594995912
          0.0012270654208899686 0.0012438525439796369 0.0010763611184129232 0.0013910811017907856 0.0014073497899839025 0.0013918707477685024
          0.0014081184714235925 0.0013926603937462192 0.001408887152863282 0.0010855060121053948 0.0011420103750628418 0.0010859807234045167
          0.00114248777614297 0.0010864554347036384 0.0011429651772230977 0.0005678057264868223 0.0005003340467750008 0.00031496387338296575
          0.0005680404300039388 0.0005006613244771171 0.000315104982105926 0.0005682751335210554 0.0005009886021792332 0.00031524609082888644
          0.0011234203325670052 0.0009598871376213171 0.0011245996351859479 0.0009610950507035555 0.0011257789378048906 0.0009623029637857939
          0.0009720308136419118 0.0010491143713685874 0.0010904276007110978 0.0010385764880824699 0.0009721705940319587 0.0010496138310865106
          0.001090631386168192 0.001038592762297634 0.0009723103744220057 0.0010501132908044338 0.001090835171625286 0.0010386090365127984
          0.0013267529627226306 0.001345836658783304 0.0013858758160918722 0.0013262585831032645 0.0013452856953920529 0.0013851752209386688
          0.0013257642034838982 0.0013447347320008015 0.0013844746257854652 0.0016884397795822628 0.0016888320938321856 0.0016892244080821087
          0.0011304916864714207 0.0010807398005368836 0.0011850437638874637 0.0011309913320924193 0.0010814772271917576 0.001185594894940921
          0.001131490977713418 0.001082214653846631 0.0011861460259943782 0.0013153208668968829 0.0012353404145390673 0.0012548020240578399
          0.0013145946527362926 0.001234955829311343 0.0012544896815033131 0.0013138684385757024 0.0012345712440836188 0.0012541773389487863
          0.0013455577012263698 0.001397306010408743 0.0011840582726615001 0.001346963032810811 0.0013988474023775448 0.0011855991152166713
          0.001348368364395252 0.0014003887943463472 0.0011871399577718421 0.001235608940073569 0.0012156720427605454 0.0012368869975235188
          0.0012172332355371257 0.0012381650549734685 0.0012187944283137062 0.0007385049804065243 0.0007637686482462363 0.000738845524689148
          0.0007639287344318996 0.0007391860689717718 0.0007640888206175628 0.002598900851209481 0.0025971252922195077 0.0025953497332295346
          0.0012811529865922194 0.0011787938986025995 0.0012806216996274079 0.0011776595908664497 0.0012800904126625962 0.0011765252831303
          0.0011631380033356156 0.0011441169148915485 0.001163394409220543 0.0011442495410799564 0.0011636508151054703 0.0011443821672683643
          0.001078459193341664 0.0010787764759455786 0.001079093758549493 0.0007263791700531384 0.000791209301930349 0.0008227024572046226
          0.0007646879566253248 0.0007272908560835894 0.0007917714898638263 0.00082324629601052 0.0007656325210612457 0.0007282025421140406
          0.0007923336777973036 0.0008237901348164174 0.0007665770854971666 0.0004932297366433244 0.0004932550143987586 0.0004932802921541928
          0.00035800649031976343 0.0005369068656767906 0.00035808621651811586 0.0005369555402840105 0.00035816594271646844 0.0005370042148912307
          0.0014533703441991321 0.0012652429140765818 0.0014546768274860784 0.0012668142097393158 0.0014559833107730253 0.00126838550540205
          0.0013882396121651353 0.0013874075391762085 0.0013865754661872814 0.0010025175980280783 0.000880460194233433 0.0010021696636803197
          0.0008804155318205056 0.0010018217293325613 0.0008803708694075779 0.0009310031184597595 0.0008440519867708184 0.0007748499258151566
          0.000900169515341981 0.0009313538995399953 0.0008442155416214259 0.0007752134937485339 0.0009006773090760196 0.0009317046806202312
          0.0008443790964720333 0.000775577061681911 0.0009011851028100581 0.0013432810425603242 0.001317194490133983 0.0013426456681307304
          0.001316376296357105 0.0013420102937011364 0.0013155581025802276 0.001075485758045703 0.0010225502379629166 0.0008590850616688698
          0.0009046589951581254 0.0010747459489727608 0.0010221810290290416 0.0008595678753574817 0.0009046665469597485 0.0010740061398998187
          0.0010218118200951668 0.0008600506890460934 0.0009046740987613715 0.0013986279314954398 0.0013991091652984697 0.0013995903991015001
          0.0008348154636627135 0.0008364166595604024 0.0008363611625068333 0.0008374646551684016 0.0008379068613509534 0.0008385126507764011
          0.0010774318383463453 0.0011054538395903043 0.0010782476727518014 0.0011063539152636583 0.0010790635071572575 0.0011072539909370125
          0.0012930343288714873 0.001293955594658326 0.0012948768604451643 0.0012412462761907028 0.001241458551388682 0.0012416994382241193
          0.0012421380249791657 0.0012421526002575358 0.0012428174985696496 0.0013576758654791038 0.0012496891564076342 0.001358369286298743
          0.0012505323671838208 0.0013590627071183822 0.0012513755779600072 0.0013540517738246636 0.0015146755633197507 0.001354231527550285
          0.0015147132853168478 0.0013544112812759065 0.0015147510073139448 0.0012640419979922613 0.0012648916594648514 0.0012657413209374413
          0.0009677512270872308 0.0010258382614951713 0.0009684119963104844 0.0010263639954400329 0.0009690727655337374 0.0010268897293848947
          0.0014611740704068411 0.001373554708099512 0.001461608066844319 0.0013738598944312026 0.0014620420632817967 0.0013741650807628932
          0.001606471135333705 0.0013362312417764934 0.0016092244047657927 0.0016072688003713827 0.0013371086700565528 0.0016095278609107868
          0.0016080664654090605 0.0013379860983366123 0.001609831317055781 0.0016448440019215605 0.001645673895539039 0.001646503789156518
          0.000880622320102168 0.0009072619600618244 0.0008812448514135157 0.000907945521981764 0.0008818673827248637 0.0009086290839017035
          0.0011648939979745977 0.0011806274469066673 0.0011651201845659016 0.0011806060423543284 0.0011653463711572055 0.0011805846378019898
          0.0006885250042012266 0.0008879959403759458 0.000688646653165841 0.0008878588674278167 0.0006887683021304554 0.0008877217944796876
          0.0010306357309622905 0.0008738039248006235 0.0010317534464828408 0.000875281788383719 0.0010328711620033913 0.0008767596519668144
          0.0020394890597328847 0.0017120037588358849 0.001923588128850006 0.002038581965515234 0.0017124384808489036 0.0019230849650609086
          0.0020376748712975833 0.0017128732028619227 0.001922581801271812 0.0020423126805623514 0.0020422103148448638 0.002042107949127376
          0.0010388151020039324 0.001039194953289446 0.0010395748045749597 0.0020990427048632157 0.002097753053020083 0.00209646340117695
          0.0017569686762444183 0.0017578142505277454 0.001758659824811072 0.001230709146958834 0.0012309148602630015 0.0012311205735671693
          0.0009973838362313213 0.0009984288223331222 0.000999473808434923 0.0022120433684243877 0.0022113089424187467 0.002210574516413106
          0.0018563061571090045 0.0018564160327674986 0.0018565259084259923 0.0016008140390931808 0.001678368399485216 0.001603622957666161
          0.0016812878603897033 0.0016064318762391413 0.0016842073212941899 0.0012136914297413578 0.0012114219015354648 0.0012151803177168925
          0.0012131058202037631 0.0012166692056924272 0.0012147897388720616 0.0021767099830302967 0.0021769944664778345 0.0021772789499253714
          0.0009312533653363223 0.000953431963696665 0.0009324837680546177 0.0009546205222149146 0.0009337141707729132 0.0009558090807331644
          0.0004482455129869406 0.0002217349643079376 0.0004485564963068939 0.0002222869392278065 0.00044886747962684707 0.00022283891414767541
          0.0008559660586479336 0.0008558284848328816 0.0008556909110178296 0.0020239433405061795 0.0020249296526390404 0.002025915964771901
          0.0011716325626611943 0.0012962342198740001 0.0011704848741982356 0.0012954405063440018 0.0011693371857352769 0.0012946467928140037
          0.000715010892826902 0.0007825891116020154 0.0007159414034776637 0.0007831935098159963 0.0007168719141284255 0.0007837979080299773
          0.0018063017304821257 0.0018063011937382702 0.001806300656994415 0.0020409112088177915 0.0020401023284745776 0.002039293448131364
          0.0012661420654603251 0.0012667344058230206 0.0012673267461857163 0.0007209729557466603 0.0007076354538289852 0.0007224410980384455
          0.0007089829417150556 0.0007239092403302308 0.0007103304296011261 0.0011846517211100249 0.0011846020936607919 0.0011845524662115593
          0.0014389577479030653 0.0014253544761992248 0.0013612752659711647 0.0013802007215366454 0.0014381871610343214 0.0014245452594875189
          0.0013604296994100444 0.0013793210846326314 0.0014374165741655779 0.0014237360427758123 0.0013595841328489238 0.0013784414477286174
          0.0008928485284291163 0.0010115071844860168 0.0008934937085647205 0.0010120945770618177 0.0008941388887003248 0.0010126819696376188
          0.0013709690506251673 0.001370471778119903 0.0013699745056146382 0.0013204056380708993 0.001391762332655011 0.001319676512663495
          0.0013910468291241569 0.001318947387256091 0.0013903313255933026 0.0011580456770618236 0.001114036897481643 0.0011579654755683342
          0.0011137916436415104 0.001157885274074845 0.001113546389801378 0.001275450310259532 0.0012756493669963532 0.001275848423733174
          0.0011954311468738528 0.0011956684582907367 0.0011959057697076211 0.001218946131134369 0.0012182239112184501 0.0012175016913025315
          0.0007922193556264234 0.000771606835075348 0.0007938227252817378 0.0007731586646740089 0.0007954260949370519 0.0007747104942726697
          0.001179316390920829 0.0011787027492814832 0.0011780891076421372 0.0008839375333941143 0.0007842560989455441 0.0008817444359827419
          0.0008839781867605325 0.0007843087134081721 0.0008816472247862007 0.0008840188401269508 0.0007843613278708 0.0008815500135896595
          0.0010748325566467844 0.001074319006898897 0.0010738054571510101 0.0010189548034544923 0.001150878902563953 0.001140107981410551
          0.0010194363475226303 0.0011506413171584657 0.00113986828876994 0.0010199178915907682 0.0011504037317529789 0.0011396285961293292
          0.0014594471917119527 0.0014587178305504492 0.0014579884693889456 0.0011380152529815743 0.0011382871538296714 0.0011385590546777687
          0.0006518570321193564 0.0006519292481325742 0.0006520014641457919 0.0008925067893010237 0.000893128110007538 0.0008937494307140523
          0.0012638791240524266 0.0012799610058669459 0.0012629562853021079 0.0012790923708868624 0.0012620334465517891 0.0012782237359067784
          0.001100435442626596 0.0010999646548280474 0.0010994938670294985 0.0008372655381780126 0.0007599429340133523 0.0008388507645656772
          0.0007615774168471621 0.0008404359909533417 0.0007632118996809717 0.0012233619556409042 0.0011335842366600117 0.0012225376177755634
          0.001133267598439349 0.0012217132799102232 0.0011329509602186864 0.0010982324920167865 0.0009960605466011044 0.0010975221977023817
          0.000995598071152064 0.0010968119033879769 0.0009951355957030234 0.0008147575466808182 0.0009256149969637254 0.0008146230255139471
          0.0009255546805604727 0.0008144885043470764 0.00092549436415722 0.0013879116412354264 0.0013919611086898437 0.0012929715275962366
          0.001387308112586038 0.00139119210568607 0.0012919345831427392 0.0013867045839366502 0.0013904231026822965 0.0012908976386892417
          0.000983292481202539 0.0009830998249471075 0.000982907168691676 0.0011512983490441406 0.001150149006423369 0.0011489996638025975
          0.0014443513417574509 0.0014436842168091685 0.0014430170918608865 0.0006561303829659914 0.0006560396787708737 0.000655948974575756
          0.0008338399623959245 0.0006600093935740128 0.0006841706208085942 0.0008341395527922187 0.0006601502595874165 0.0006844702071689438
          0.0008344391431885129 0.0006602911256008202 0.0006847697935292937 0.0009935841666552131 0.0009932425834450447 0.0009929010002348762
          0.000868187773649799 0.0008683034595650366 0.000868419145480274 0.0007903714854103532 0.0006791995111417728 0.0007903686881743559
          0.0006790748931775188 0.0007903658909383588 0.0006789502752132648 0.00047543975208823655 0.0004758049439750079 0.00047617013586177923
          0.0007124134962135866 0.0007128382606275816 0.0007132630250415766 0.0001640798205339235 0.00016486360969239416 0.00016564739885086487
          0.00029401354450527727 0.00029385564208503313 0.00029369773966478904 0.0001269948728558364 0.00012785757658950115 0.00012872028032316594
          0.000024810490031070078 0.00002615416921536103 0.00002749784839965198 0.00001194871807539674 0 0.000012217409514968487
          0 0.000012486100954540233 0 0 0 0
          0 0 0 0 0 0
          0 0 0 0.00006052024655042777 0.00006087184294384009 0.0000612234393372524
          0.000003017641073537934 0.000003133773212284268 0.0000032499053510306016 0 0 0
          0.00016786080843214765 0.0001680539727238889 0.00016824713701563018 0.000038111743610307514 0.00003833828419644162 0.000038564824782575725
          0.00000143370836417691 0.0000014489103069981325 0.000001464112249819355 0.0003240172712440112 0.0003240995037719135 0.0003241817362998159
          0.00014615170941745096 0.0001462383272584536 0.00014632494509945625 0.000033314992288844564 0.00003335191793977276 0.000033388843590700956
          0.00031632942174786847 0.00031628052576777686 0.0003162316297876853 0.00014529297624783799 0.00014530880938973942 0.00014532464253164088
          0.0004982794991561972 0.0004982249823897564 0.0004981704656233157 0.00033741534546025516 0.0003373718410456451 0.000337328336631035
          0.0006583387560596916 0.0006582910680495632 0.0006582433800394349 0.000564406894401808 0.0005642861620585976 0.000564165429715387
          0.0007839725900456952 0.0007839650635314388 0.0007839575370171825 0.000799581212458573 0.000799358761699494 0.0007991363109404149
          0.0008372830365500275 0.0008373045367563027 0.000837326036962578 0.0009183559423876998 0.0009180772778591534 0.0009177986133306073
          0 0 0 0 0 0
          0 0 0 0 0 0
          0.0000011532373041631352 0.0000011678471224678005 0.0000011824569407724659 0.00003895626571995547 0.000038974120667840056 0.000038991975615724655
          0.0006668592785629053 0.0006335274100188477 0.0006670096124553465 0.0006340816755755611 0.000667159946347788 0.0006346359411322745
          0.0005967524044710665 0.0006444646870643029 0.0006120315869192946 0.0005966626943274631 0.0006442480976788385 0.0006119110728003544
          0.0005965729841838596 0.0006440315082933737 0.0006117905586814141 0.0008877049410996065 0.0008882678332669573 0.0008888307254343081
          0.0006916076794184704 0.0006922362949970419 0.0006928649105756137 0.0006877278508089433 0.0006876001277624469 0.0006874724047159505
          0.00048394567717144376 0.00048389080187997253 0.0004838359265885013 0.0006123450010899345 0.0006122872816194526 0.0006122295621489707
          0.0006942522530325021 0.0006942058007492816 0.0006941593484660611 0.0007275705809206506 0.0007275842113133577 0.0007275978417060648
          0.000732891286187068 0.000732949709560905 0.000733008132934742 0 0 0
          0 0 0 0 0 0
          0 0 0 0 0 0
          0.000004656631010039702 0.000004658637784733688 0.000004660644559427673 0.0001757339767078089 0.00017569858383036452 0.0001756631909529201
          0.00005936370818422859 0.00005936805667984904 0.00005937240517546949 0.0004139404522049996 0.00041375606641650645 0.00041357168062801326
          0.0007140320237788867 0.0007136322207612156 0.0007132324177435445 0.0008760450397318075 0.0008755369292594028 0.0008750288187869982
        </DataArray>
        <DataArray type="Float64" Name="pe22" format="ascii" RangeMin="-0.001372125605070492" RangeMax="0">
          -0.0007727853192073361 -0.0009442769350627887 -0.0010064416434142054 -0.000793705795867124 -0.000772852347516626 -0.0009446809868489886
          -0.0010065936764094875 -0.0007941599245242124 -0.0007729193758259159 -0.0009450850386351886 -0.0010067457094047696 -0.0007946140531813009
          -0.0005969572918781956 -0.0005503980795624741 -0.0005746538563518729 -0.0006212653831714451 -0.0005968393066170532 -0.0005503751690809508
          -0.0005745121964193463 -0.000621163752902902 -0.0005967213213559108 -0.0005503522585994275 -0.0005743705364868196 -0.0006210621226343589
          -0.00020477789275384113 -0.0002188881965160647 -0.00018094186967302462 -0.00007433751424217585 -0.00020490633226007187 -0.0002189568895421931
          -0.0001810743126924604 -0.00007473994011539467 -0.0002050347717663026 -0.00021902558256832157 -0.00018120675571189616 -0.0000751423659886135
          -0.000993104339144992 -0.0008385768479528789 -0.0008482865588307184 -0.0010104895199104982 -0.0009932812483998184 -0.0008386667156883354
          -0.0008485104036497551 -0.0010106537198884703 -0.0009934581576546448 -0.0008387565834237919 -0.0008487342484687918 -0.0010108179198664428
          -0.0006943458812469512 -0.0006861513324933324 -0.0006910351252886026 -0.000701295575934014 -0.0006943356842072457 -0.0006860977795269894
          -0.0006909567737656914 -0.0007012218150710501 -0.0006943254871675402 -0.0006860442265606465 -0.0006908784222427801 -0.0007011480542080862
          -0.00048529799275126426 -0.0004959803198052999 -0.0005842615483043175 -0.0005698284458985137 -0.0004854659087387578 -0.0004960667557683176
          -0.0005843557370895731 -0.0005699165031823278 -0.00048563382472625134 -0.0004961531917313353 -0.0005844499258748288 -0.000570004560466142
          -0.0006306584911848507 -0.0006042878270500383 -0.0005763593197527471 -0.0006306024065249457 -0.0006042181005685824 -0.0005762543873512132
          -0.0006305463218650408 -0.0006041483740871266 -0.0005761494549496793 -0.0005161790121308329 -0.0005671319434823903 -0.0005162621743710433
          -0.0005672052242665669 -0.0005163453366112537 -0.0005672785050507435 -0.0005101282750185077 -0.0005966109404694479 -0.0006022572430646775
          -0.0005243047251965197 -0.0005100812214278718 -0.0005964903867205922 -0.0006022064794474554 -0.0005241270541309475 -0.0005100341678372358
          -0.0005963698329717365 -0.0006021557158302335 -0.0005239493830653753 -0.0007074221164590381 -0.0007126146835714308 -0.0007074992193005641
          -0.0007126641916899391 -0.00070757632214209 -0.0007127136998084476 -0.0005425803258432642 -0.0005728832638475218 -0.0005426188373000981
          -0.0005729326057729814 -0.000542657348756932 -0.0005729819476984412 -0.0002781240602990054 -0.0002483323368641014 -0.0001568737369848105
          -0.0002781792297574082 -0.00024843178044239975 -0.00015689294290608348 -0.00027823439921581094 -0.0002485312240206981 -0.0001569121488273565
          -0.0005772483204475175 -0.0004932521423418056 -0.0005773584851614796 -0.0004934443328695503 -0.0005774686498754417 -0.000493636523397295
          -0.0004812908778626106 -0.0005215684145699669 -0.0005387649446901781 -0.0005103306183422709 -0.00048121877905235664 -0.0005216106465572829
          -0.0005387620891167812 -0.0005103103876720436 -0.0004811466802421028 -0.0005216528785445989 -0.000538759233543384 -0.0005102901570018163
          -0.0006468703628554179 -0.0006552919897892552 -0.0006722629624750936 -0.0006468336835202314 -0.0006552512571137966 -0.0006722227091578648
          -0.000646797004185045 -0.0006552105244383378 -0.0006721824558406359 -0.0008575525639161399 -0.0008575804020226239 -0.0008576082401291077
          -0.0005643199460639079 -0.0005429951905637295 -0.0005961507990857595 -0.0005643809167255447 -0.0005431027080032974 -0.0005962468042049851
          -0.0005644418873871816 -0.0005432102254428655 -0.0005963428093242107 -0.0006393257220117721 -0.0006033282356196564 -0.0006152706490857318
          -0.0006391980739548569 -0.0006032566997456294 -0.0006152211237041984 -0.0006390704258979417 -0.0006031851638716024 -0.0006151715983226648
          -0.0006928009426308863 -0.0007234693510807637 -0.000612793527156954 -0.0006930036331437657 -0.0007237692328750105 -0.0006129972107847386
          -0.0006932063236566454 -0.0007240691146692574 -0.000613200894412523 -0.000643737978770204 -0.0006350093237825956 -0.0006437370691681913
          -0.0006351736702571618 -0.0006437361595661785 -0.0006353380167317279 -0.00036616088246042334 -0.00037841429773645716 -0.00036621457993135447
          -0.00037844044103912575 -0.0003662682774022856 -0.0003784665843417944 -0.001372125605070492 -0.0013718942515770903 -0.0013716628980836889
          -0.0006178331106431007 -0.0005688269226237614 -0.00061790883783577 -0.000568684252616564 -0.000617984565028439 -0.0005685415826093664
          -0.000580377577701506 -0.0005682285704559528 -0.0005803546491835595 -0.0005681747679784058 -0.0005803317206656129 -0.0005681209655008587
          -0.0005359546317879609 -0.0005359885998365943 -0.0005360225678852277 -0.0003687282136649766 -0.0003977668826225345 -0.00041449334659154186
          -0.000388762170181372 -0.000368879542397448 -0.0003978066149289151 -0.0004145209501541245 -0.00038890404059299953 -0.0003690308711299194
          -0.0003978463472352956 -0.0004145485537167072 -0.0003890459110046271 -0.0002414170194947146 -0.00024144984496412314 -0.0002414826704335316
          -0.00017471880334418106 -0.00026458222670705826 -0.0001747687296568393 -0.0002646294641117994 -0.0001748186559694975 -0.00026467670151654064
          -0.0007563778367235866 -0.0006569154704518441 -0.0007565133732384293 -0.0006570787674064178 -0.0007566489097532721 -0.0006572420643609915
          -0.0006713479631041493 -0.0006712799034083831 -0.0006712118437126171 -0.0004905483443668983 -0.00043468625714011616 -0.0004904461906177903
          -0.0004345894774673028 -0.0004903440368686825 -0.0004344926977944894 -0.0004645710011350203 -0.00041884572289334966 -0.0003860141400159973
          -0.0004519529343801471 -0.000464570869336445 -0.0004188016535702031 -0.00038602974969989513 -0.0004519958686993881 -0.0004645707375378696
          -0.0004187575842470566 -0.0003860453593837928 -0.000452038803018629 -0.0006491107089836039 -0.0006388120503938308 -0.0006490495251619649
          -0.0006386352972424294 -0.0006489883413403257 -0.0006384585440910279 -0.0005198436032456564 -0.0004945849745238792 -0.00042091622111325706
          -0.0004409249993948954 -0.0005198219914752067 -0.0004945656121352652 -0.00042118542253243675 -0.00044101537836818965 -0.0005198003797047571
          -0.0004945462497466513 -0.0004214546239516163 -0.0004411057573414839 -0.0007058604711483545 -0.0007058148836660224 -0.0007057692961836903
          -0.0004283219730267175 -0.00042613934469179504 -0.00042867633206218234 -0.0004263043014070875 -0.0004290306910976474 -0.00042646925812238
          -0.0005437624280518737 -0.0005593569422392749 -0.0005438850984342173 -0.0005595266850882358 -0.000544007768816561 -0.0005596964279371967
          -0.0006533376051875541 -0.0006534765032096543 -0.0006536154012317547 -0.0006247113693985598 -0.0006279832797237293 -0.0006247070023505701
          -0.0006280222840006544 -0.0006247026353025804 -0.0006280612882775794 -0.0006935548134858781 -0.0006341161747639558 -0.0006936080613806965
          -0.0006342033409444119 -0.0006936613092755146 -0.0006342905071248681 -0.0006822395317577008 -0.0007649243753678356 -0.0006821499464194511
          -0.0007648484764988412 -0.0006820603610812016 -0.0007647725776298467 -0.0006384332519523109 -0.0006385536145075686 -0.0006386739770628262
          -0.00048378962208776437 -0.0005088603225888559 -0.00048392824114268645 -0.0005090167938089852 -0.00048406686019760836 -0.0005091732650291143
          -0.0007363196307170959 -0.0006927821198056262 -0.0007363938923768102 -0.0006928257352513841 -0.0007364681540365245 -0.0006928693506971422
          -0.0008304895731047289 -0.0006857253198226535 -0.0008280242056349831 -0.0008306496415245462 -0.0006857843909988618 -0.0008280283528384566
          -0.0008308097099443634 -0.0006858434621750701 -0.00082803250004193 -0.0008516880003928381 -0.0008519202706641349 -0.0008521525409354318
          -0.000444586140431143 -0.0004534154140387134 -0.0004446399519697588 -0.00045353825431332275 -0.0004446937635083745 -0.0004536610945879321
          -0.0005796021262592045 -0.0005839736817201386 -0.0005795869652241718 -0.0005839238380804961 -0.0005795718041891392 -0.0005838739944408536
          -0.00033664602437119133 -0.00043377935090374255 -0.00033668053662676007 -0.0004337681433334802 -0.00033671504888232887 -0.00043375693576321777
          -0.0005345230383942352 -0.0004508813846914762 -0.0005346567294654333 -0.00045124505747036795 -0.0005347904205366313 -0.0004516087302492597
          -0.0010586162634372066 -0.0008908857608241308 -0.0009946004249278377 -0.0010586859731844776 -0.000891104644417556 -0.000994732651832745
          -0.001058755682931749 -0.0008913235280109811 -0.000994864878737652 -0.0010698154409072929 -0.0010702303249640575 -0.0010706452090208218
          -0.000514042912566025 -0.0005141220616740568 -0.0005142012107820889 -0.001076455743149466 -0.0010765351827280419 -0.0010766146223066182
          -0.0009214459150960715 -0.0009217763497734351 -0.0009221067844507986 -0.0006167237514654407 -0.0006166623862128684 -0.000616601020960296
          -0.0005191467470946666 -0.0005193235104322435 -0.0005195002737698204 -0.0011620562886853183 -0.0011618718977254427 -0.0011616875067655668
          -0.0009586861230998473 -0.0009589585859000521 -0.0009592310487002569 -0.0008557089421611475 -0.0008888321961481224 -0.000856020498963341
          -0.0008896403665017936 -0.0008563320557655343 -0.0008904485368554646 -0.0006426092583643732 -0.0006371613033102298 -0.0006426197759647223
          -0.0006373324984560605 -0.0006426302935650713 -0.0006375036936018913 -0.0011506365535506862 -0.0011509575418785919 -0.0011512785302064976
          -0.00048606346357156775 -0.0004969205227177472 -0.0004860845044336756 -0.0004970394725280715 -0.0004861055452957836 -0.0004971584223383958
          -0.00022158788309582363 -0.00010847949128021896 -0.0002217023768819899 -0.00010870165508401063 -0.00022181687066815618 -0.00010892381888780232
          -0.00041836989269864843 -0.00041835692889844177 -0.0004183439650982352 -0.0010665879779568554 -0.0010670971102760794 -0.0010676062425953035
          -0.0005626633425375924 -0.0006241896069027298 -0.000562420375878987 -0.0006241625061435857 -0.0005621774092203817 -0.0006241354053844416
          -0.00036276266121515466 -0.0003929964290228142 -0.00036293050852188755 -0.0003930560447265298 -0.00036309835582862054 -0.0003931156604302454
          -0.0009313356897386886 -0.0009314701853168445 -0.0009316046808950006 -0.0010458417431514454 -0.001046101053450565 -0.0010463603637496843
          -0.000639666336078046 -0.0006397662611415743 -0.0006398661862051027 -0.00037022320373973844 -0.0003632569408233391 -0.00037056661041872036
          -0.0003635490768024905 -0.0003709100170977023 -0.0003638412127816418 -0.0005840867264557463 -0.0005840568225616962 -0.0005840269186676463
          -0.0006953621142730701 -0.0006896470359166792 -0.0006603320636212016 -0.000668051311263194 -0.0006953218415137923 -0.0006895735046036774
          -0.0006602387309394377 -0.000667966870035525 -0.0006952815687545145 -0.0006894999732906757 -0.0006601453982576738 -0.000667882428807856
          -0.00044601300991155724 -0.0005012290011648115 -0.0004461401084418553 -0.0005014092312564388 -0.0004462672069721533 -0.0005015894613480662
          -0.0006610185521819728 -0.0006610385395862581 -0.0006610585269905436 -0.0006429985923641674 -0.0006753345562876853 -0.000642910651492742
          -0.0006752703566896457 -0.0006428227106213167 -0.0006752061570916059 -0.0005685299791594369 -0.00054390577705335 -0.000568510098416612
          -0.0005438772631314546 -0.0005684902176737873 -0.0005438487492095592 -0.0006417103617978254 -0.0006417012467234054 -0.0006416921316489856
          -0.0005977966563031124 -0.0005977770197999213 -0.0005977573832967303 -0.000592975605629446 -0.0005928153677897955 -0.0005926551299501449
          -0.00041011171405648994 -0.00039958021851237396 -0.0004104656241664731 -0.0003998438934734244 -0.0004108195342764563 -0.00040010756843447486
          -0.0005738003756182211 -0.000573668285173406 -0.000573536194728591 -0.0004358749818879067 -0.0003878530203913095 -0.0004349789099580199
          -0.0004358927949594166 -0.00038788111196324886 -0.0004349136717632661 -0.0004359106080309265 -0.00038790920353518835 -0.00043484843356851236
          -0.0005228853427212793 -0.0005228067625896054 -0.0005227281824579317 -0.000504731170899274 -0.0005632721763011899 -0.0005590722532329234
          -0.0005049114501213563 -0.000563237365303142 -0.0005590044075594134 -0.0005050917293434386 -0.0005632025543050942 -0.0005589365618859033
          -0.0007045109291220005 -0.0007044694015879013 -0.0007044278740538021 -0.0005648055915283525 -0.0005648133844829159 -0.0005648211774374792
          -0.0003211716246456971 -0.0003212114049816388 -0.00032125118531758034 -0.0004455913093404138 -0.00044573560348136086 -0.0004458798976223079
          -0.0006153373070657484 -0.0006213952645728194 -0.0006151232936036902 -0.000621219435421171 -0.0006149092801416318 -0.0006210436062695226
          -0.0005355956976869083 -0.0005355273581038365 -0.0005354590185207647 -0.00043325978683516535 -0.0003902716734059949 -0.0004336728972046119
          -0.00039066995834559056 -0.00043408600757405844 -0.00039106824328518627 -0.0005986404146583919 -0.0005573113662030233 -0.000598413460470872
          -0.0005571677774436349 -0.0005981865062833522 -0.0005570241886842462 -0.0005342425170744842 -0.0004872369056789366 -0.0005340940856620761
          -0.0004871189037455793 -0.000533945654249668 -0.0004870009018122219 -0.0003997587621186286 -0.00045250182403961964 -0.000399725504723723
          -0.00045249688649016945 -0.00039969224732881747 -0.0004524919489407193 -0.0006694626242372782 -0.0006718551750805547 -0.0006227544870949717
          -0.0006694848743697913 -0.0006718298221278988 -0.0006225297276844686 -0.0006695071245023044 -0.0006718044691752428 -0.0006223049682739657
          -0.0004808038478453375 -0.00048077065446724943 -0.00048073746108916133 -0.0005541941220570908 -0.000553697598275939 -0.0005532010744947872
          -0.0006970790424147854 -0.0006970813153903159 -0.0006970835883658463 -0.0003236863827595879 -0.00032366587395609564 -0.0003236453651526033
          -0.0004119948765557389 -0.00032790332016391106 -0.00033769256880804966 -0.0004120623822371382 -0.0003278923410008153 -0.00033778183014606994
          -0.0004121298879185374 -0.00032788136183771943 -0.0003378710914840903 -0.0004838918988423774 -0.00048364777589882666 -0.0004834036529552759
          -0.00042727653614332665 -0.00042732250327007595 -0.0004273684703968253 -0.00038920334184408496 -0.0003345987624465172 -0.0003892259869315789
          -0.0003345782479962691 -0.00038924863201907274 -0.00033455773354602105 -0.00023698699839300657 -0.0002370896138384639 -0.00023719222928392117
          -0.00034817226045740163 -0.0003483147505698182 -0.00034845724068223476 -0.00008162690702930054 -0.00008193361100394845 -0.00008224031497859635
          -0.00014623350684755436 -0.00014609954834080054 -0.0001459655898340467 -0.00006258413470336882 -0.00006295036757278488 -0.00006331660044220094
          -0.000012108320441806605 -0.000012729316486401322 -0.000013350312530996038 -0.0000057403925590120185 0 -0.000005862173291566526
          0 -0.000005983954024121034 0 0 0 0
          0 0 0 0 0 0
          0 0 0 -0.000028888251293978317 -0.000029048226658333744 -0.000029208202022689175
          -0.0000013550634581901985 -0.00000140452182963763 -0.0000014539802010850616 0 0 0
          -0.0000797473508734422 -0.00007982061359040839 -0.00007989387630737455 -0.00001730611553846032 -0.000017394327820408616 -0.000017482540102356915
          -6.141909154655692e-7 -6.203284256046816e-7 -6.26465935743794e-7 -0.00015451889632148527 -0.0001545547006223375 -0.0001545905049231897
          -0.00006676582792802491 -0.00006679711652464839 -0.00006682840512127186 -0.000014511221091383571 -0.000014524123751483496 -0.00001453702641158342
          -0.00014665354025242424 -0.0001466395752856973 -0.00014662561031897036 -0.00006412720400346091 -0.00006412681604341889 -0.00006412642808337687
          -0.00023574520150473232 -0.00023574222261415746 -0.0002357392437235826 -0.00015221580095732234 -0.0001522031622906603 -0.00015219052362399824
          -0.00031817542401073936 -0.0003181788609618452 -0.00031818229791295106 -0.00026272058152895263 -0.0002626836275476093 -0.000262646673566266
          -0.00038520830409344135 -0.0003852074348005379 -0.0003852065655076345 -0.0003832889992697731 -0.0003831800404701866 -0.0003830710816706001
          -0.0004138786343655297 -0.00041387706340206056 -0.0004138754924385914 -0.0004451080897412 -0.0004449531089913951 -0.00044479812824159025
          0 0 0 0 0 0
          0 0 0 0 0 0
          -4.7419379034987656e-7 -4.79892254823876e-7 -4.855907192978755e-7 -0.000016328649018500242 -0.00001633074819185293 -0.00001633284736520562
          -0.00033095793982555115 -0.00031565776031598346 -0.00033099394361197525 -0.00031579949449218024 -0.0003310299473983993 -0.000315941228668377
          -0.0002934461109030909 -0.00031845861625366467 -0.0003018631188669299 -0.00029344700168243225 -0.00031840687476128736 -0.0003018525163524373
          -0.0002934478924617736 -0.00031835513326891005 -0.0003018419138379446 -0.00044697964285027834 -0.0004470191970031099 -0.00044705875115594134
          -0.0003467504374479789 -0.0003468655323190265 -0.00034698062719007417 -0.00033989688690005905 -0.0003398738114424362 -0.0003398507359848135
          -0.0002332841399314156 -0.00023328814098709362 -0.0002332921420427716 -0.0002989818256878045 -0.0002989925921151261 -0.0002990033585424477
          -0.000342727718631369 -0.0003427421263698992 -0.0003427565341084294 -0.00036195537616552946 -0.0003619735091188935 -0.00036199164207225754
          -0.0003656894949471174 -0.00036571194855144617 -0.000365734402155775 0 0 0
          0 0 0 0 0 0
          0 0 0 0 0 0
          -0.000001874768653372008 -0.0000018747458232945738 -0.0000018747229932171395 -0.00007542539823656974 -0.00007540472097306158 -0.0000753840437095534
          -0.000024622091276878358 -0.000024618070321108993 -0.000024614049365339624 -0.00018492454790736997 -0.0001848473762972606 -0.00018477020468715124
          -0.00033260934478448567 -0.0003324179144257335 -0.00033222648406698124 -0.0004145114797710702 -0.0004142488063290107 -0.0004139861328869513
        </DataArray>
        <DataArray type="Float64" Name="pe33" format="ascii" RangeMin="-0.0012267752461389884" RangeMax="0">
          -0.0007055303955967964 -0.0008470873915389155 -0.0009055225743708855 -0.0007213915682642247 -0.0007072700926976649 -0.000848663070261317
          -0.0009071118124566854 -0.000723747186976631 -0.000709009789798533 -0.0008502387489837185 -0.0009087010505424854 -0.0007261028056890371
          -0.0006186272639249909 -0.0005642127114947237 -0.0005949839408056391 -0.0006497824682200417 -0.0006183010562970159 -0.000564185550348188
          -0.000594644064671391 -0.0006492640201359826 -0.0006179748486690408 -0.0005641583892016522 -0.0005943041885371431 -0.0006487455720519236
          -0.00020865939389179872 -0.00022640086492842746 -0.00018495980459653778 -0.00007537947067588718 -0.00020897796733917366 -0.00022662120148338825
          -0.00018524351521152392 -0.00007600476253084673 -0.0002092965407865486 -0.0002268415380383491 -0.00018552722582651005 -0.00007663005438580626
          -0.0009440875582889247 -0.0008009513691350721 -0.0008161674115014959 -0.0009608644805010281 -0.0009433981388629137 -0.000801180488768183
          -0.0008166330298032879 -0.0009604872582187156 -0.0009427087194369028 -0.0008014096084012936 -0.0008170986481050798 -0.0009601100359364031
          -0.000745145860716641 -0.000736454337409443 -0.0007377635292860454 -0.0007509251707667576 -0.0007444803895991996 -0.0007357170275783825
          -0.0007369709152913659 -0.0007501724326745777 -0.0007438149184817583 -0.000734979717747322 -0.0007361783012966866 -0.0007494196945823976
          -0.0004658292874310427 -0.00048293535860884687 -0.0005644835567281682 -0.0005452085056456907 -0.00046669325989731207 -0.0004835562826868711
          -0.0005651569704264176 -0.0005459957955932719 -0.00046755723236358146 -0.0004841772067648954 -0.0005658303841246671 -0.0005467830855408531
          -0.000658815066669422 -0.0006245877218257901 -0.0005906831873086879 -0.0006584224869361456 -0.0006243604269670836 -0.0005906247790669232
          -0.000658029907202869 -0.000624133132108377 -0.0005905663708251583 -0.0005092182813766827 -0.0005551766951785792 -0.0005097568169667628
          -0.0005557207227730153 -0.0005102953525568429 -0.0005562647503674512 -0.0005388967789877209 -0.0006316186317574413 -0.0006425874339206262
          -0.0005534486921074672 -0.0005386028853250379 -0.0006311571098378366 -0.0006421421310350147 -0.0005529302137275074 -0.0005383089916623554
          -0.0006306955879182318 -0.0006416968281494033 -0.0005524117353475478 -0.0006836589853317475 -0.0006947351064124719 -0.0006843715284679383
          -0.0006954542797336532 -0.0006850840716041293 -0.0006961734530548344 -0.0005429256862621305 -0.0005691271112153198 -0.0005433618861044186
          -0.0005695551703699883 -0.0005437980859467065 -0.0005699832295246565 -0.0002896816661878168 -0.0002520017099108993 -0.0001580901363981552
          -0.00028986120024653055 -0.00025222954403471715 -0.00015821203919984253 -0.00029004073430524425 -0.00025245737815853496 -0.00015833394200152987
          -0.0005461720121194875 -0.00046663499527951153 -0.0005472411500244683 -0.0004676507178340053 -0.0005483102879294491 -0.00046866644038849896
          -0.0004907399357793013 -0.0005275459567986204 -0.0005516626560209197 -0.000528245869740199 -0.0004909518149796019 -0.0005280031845292276
          -0.0005518692970514108 -0.0005282823746255904 -0.0004911636941799027 -0.0005284604122598349 -0.0005520759380819017 -0.0005283188795109819
          -0.0006798825998672127 -0.0006905446689940486 -0.0007136128536167786 -0.0006794248995830328 -0.0006900344382782561 -0.0007129525117808039
          -0.000678967199298853 -0.0006895242075624635 -0.0007122921699448293 -0.000830887215666123 -0.0008312516918095618 -0.0008316161679530005
          -0.0005661717404075126 -0.0005377446099731542 -0.000588892964801704 -0.0005666104153668744 -0.0005383745191884599 -0.0005893480907359355
          -0.0005670490903262362 -0.0005390044284037654 -0.0005898032166701673 -0.0006759951448851107 -0.0006320121789194109 -0.0006395313749721079
          -0.0006753965787814356 -0.0006316991295657136 -0.0006392685577991146 -0.0006747980126777606 -0.0006313860802120164 -0.0006390057406261213
          -0.0006527567585954837 -0.0006738366593279792 -0.0005712647455045462 -0.0006539593996670453 -0.0006750781695025344 -0.0005726019044319327
          -0.0006551620407386066 -0.0006763196796770897 -0.0005739390633593193 -0.0005918709613033647 -0.0005806627189779498 -0.0005931499283553274
          -0.0005820595652799639 -0.0005944288954072901 -0.000583456411581978 -0.0003723440979461008 -0.0003853543505097789 -0.00037263094475779347
          -0.00038548829339277364 -0.00037291779156948607 -0.0003856222362757684 -0.0012267752461389884 -0.0012252310406424172 -0.0012236868351458454
          -0.0006633198759491186 -0.000609966975978838 -0.0006627128617916378 -0.0006089753382498856 -0.0006621058476341572 -0.0006079837005209332
          -0.0005827604256341094 -0.0005758883444355954 -0.0005830397600369835 -0.0005760747731015505 -0.0005833190944398573 -0.0005762612017675055
          -0.0005425045615537029 -0.0005427878761089841 -0.0005430711906642654 -0.00035765095638816175 -0.00039344241930781447 -0.0004082091106130805
          -0.00037592578644395265 -0.0003584113136861414 -0.00039396487493491115 -0.00040872534585639536 -0.00037672848046824603 -0.00035917167098412106
          -0.00039448733056200784 -0.0004092415810997101 -0.0003775311744925393 -0.00025181271714860994 -0.0002518051694346355 -0.00025179762172066107
          -0.00018328768697558235 -0.00027232463896973227 -0.00018331748686127662 -0.00027232607617221115 -0.00018334728674697089 -0.00027232751337469003
          -0.0006969925074755452 -0.0006083274436247374 -0.0006981634542476491 -0.000609735442332898 -0.0006993344010197528 -0.0006111434410410584
          -0.000716891649060986 -0.000716127635767825 -0.0007153636224746642 -0.0005119692536611799 -0.00044577393709331674 -0.0005117234730625293
          -0.0004458260543532026 -0.0005114776924638788 -0.00044587817161308846 -0.00046643211732473914 -0.0004252062638774687 -0.00038883578579915917
          -0.00044821658096183396 -0.00046678303020355024 -0.0004254138880512226 -0.00038918374404863854 -0.0004486814403766314 -0.0004671339430823613
          -0.00042562151222497657 -0.00038953170229811797 -0.00044914629979142875 -0.00069417033357672 -0.0006783824397401519 -0.0006935961429687653
          -0.0006777409991146756 -0.0006930219523608104 -0.0006770995584891992 -0.0005556421548000464 -0.0005279652634390374 -0.0004381688405556126
          -0.0004637339957632298 -0.000554923957497554 -0.0005276154168937763 -0.00043838245282504484 -0.00046365116859155867 -0.0005542057601950616
          -0.0005272655703485152 -0.0004385960650944771 -0.0004635683414198876 -0.0006927674603470852 -0.0006932942816324475 -0.0006938211029178098
          -0.000406493490635996 -0.00041027731486860706 -0.00040768483044465093 -0.000411160353761314 -0.0004088761702533059 -0.000412043392654021
          -0.0005336694102944714 -0.0005460968973510294 -0.000534362574317584 -0.0005468272301754225 -0.0005350557383406963 -0.0005475575629998157
          -0.0006396967236839332 -0.0006404790914486716 -0.0006412614592134097 -0.0006165349067921426 -0.0006134752716649525 -0.000616992435873549
          -0.0006141157409785114 -0.0006174499649549553 -0.0006147562102920702 -0.0006641210519932256 -0.0006155729816436783 -0.0006647612249180465
          -0.0006163290262394089 -0.0006654013978428674 -0.0006170850708351392 -0.0006718122420669629 -0.000749751187951915 -0.0006720815811308337
          -0.0007498648088180064 -0.0006723509201947046 -0.000749978429684098 -0.0006256087460399505 -0.0006263380449572827 -0.0006270673438746149
          -0.0004839616049994664 -0.0005169779389063153 -0.0004844837551677977 -0.0005173472016310478 -0.00048500590533612903 -0.0005177164643557802
          -0.0007248544396897449 -0.0006807725882938857 -0.0007252141744675085 -0.0006810341591798183 -0.0007255739092452721 -0.000681295730065751
          -0.0007759815622289759 -0.0006505059219538401 -0.0007812001991308096 -0.0007766191588468364 -0.0006513242790576911 -0.0007814995080723304
          -0.0007772567554646968 -0.0006521426361615422 -0.0007817988170138509 -0.0007931560015287224 -0.0007937536248749042 -0.0007943512482210859
          -0.00043603617967102475 -0.00045384654602311094 -0.0004366048994437569 -0.0004544072676684411 -0.0004371736192164891 -0.00045496798931377134
          -0.0005852918717153932 -0.0005966537651865284 -0.0005855332193417297 -0.0005966822042738323 -0.0005857745669680663 -0.000596710643361136
          -0.00035187897983003506 -0.000454216589472203 -0.0003519661165390808 -0.0004540907240943363 -0.00035205325324812653 -0.0004539648587164696
          -0.0004961126925680553 -0.0004229225401091473 -0.0004970967170174076 -0.0004240367309133509 -0.00049808074146676 -0.00042515092171755456
          -0.000980872796295678 -0.0008211179980117538 -0.0009289877039221677 -0.0009798959923307561 -0.0008213338364313475 -0.0009283523132281637
          -0.0009789191883658342 -0.0008215496748509412 -0.0009277169225341598 -0.0009724972396550583 -0.0009719799898808062 -0.0009714627401065541
          -0.0005247721894379073 -0.0005250728916153891 -0.0005253735937928708 -0.0010225869617137492 -0.0010212178702920407 -0.001019848778870332
          -0.0008355227611483466 -0.0008360379007543098 -0.0008365530403602731 -0.0006139853954933931 -0.0006142524740501332 -0.000614519552606873
          -0.00047823708913665466 -0.00047910531190087857 -0.0004799735346651025 -0.001049987079739069 -0.001049437044693304 -0.0010488870096475394
          -0.000897620034009157 -0.0008974574468674462 -0.0008972948597257354 -0.0007451050969320332 -0.000789536203337093 -0.00074760245870282
          -0.0007916474938879092 -0.0007500998204736068 -0.0007937587844387254 -0.0005710821713769846 -0.000574260598225235 -0.0005725605417521702
          -0.0005757733217477026 -0.0005740389121273559 -0.0005772860452701701 -0.0010260734294796105 -0.001026036924599242 -0.0010260004197188738
          -0.00044518990176475447 -0.00045651144097891776 -0.00044639926362094196 -0.00045758104968684316 -0.00044760862547712946 -0.00045865065839476845
          -0.00022665762989111692 -0.00011325547302771862 -0.00022685411942490393 -0.00011358528414379584 -0.00022705060895869094 -0.00011391509525987307
          -0.00043759616594928513 -0.0004374715559344397 -0.0004373469459195943 -0.0009573553625493238 -0.0009578325423629606 -0.0009583097221765976
          -0.0006089692201236019 -0.0006720446129712702 -0.0006080644983192483 -0.0006712780002004162 -0.0006071597765148948 -0.0006705113874295618
          -0.00035224823161174735 -0.0003895926825792013 -0.0003530108949557761 -0.00039013746508946654 -0.0003537735582998048 -0.0003906822475997318
          -0.0008749660407434369 -0.0008748310084214257 -0.0008746959760994145 -0.0009950694656663457 -0.0009940012750240122 -0.000992933084381679
          -0.0006264757293822789 -0.0006269681446814461 -0.0006274605599806135 -0.0003507497520069216 -0.00034437851300564605 -0.00035187448761972516
          -0.00034543386491256515 -0.00035299922323252854 -0.0003464892168194843 -0.0006005649946542786 -0.0006005452710990957 -0.000600525547543913
          -0.0007435956336299949 -0.0007357074402825457 -0.0007009432023499628 -0.0007121494102734511 -0.0007428653195205288 -0.0007349717548838412
          -0.0007001909684706064 -0.0007113542145971061 -0.000742135005411063 -0.0007342360694851364 -0.0006994387345912497 -0.0007105590189207612
          -0.0004468355185175591 -0.0005102781833212051 -0.0004473536001228653 -0.0005106853458053789 -0.00044787168172817144 -0.0005110925082895527
          -0.0007099504984431944 -0.0007094332385336443 -0.0007089159786240943 -0.0006774070457067319 -0.0007164277763673254 -0.0006767658611707532
          -0.0007157764724345111 -0.0006761246766347742 -0.0007151251685016967 -0.0005895156979023866 -0.0005701311204282926 -0.0005894553771517222
          -0.0005699143805100558 -0.0005893950564010577 -0.0005696976405918189 -0.0006337399484617067 -0.0006339481202729475 -0.0006341562920841883
          -0.0005976344905707403 -0.0005978914384908154 -0.0005981483864108907 -0.0006259705255049228 -0.0006254085434286545 -0.0006248465613523864
          -0.0003821076415699334 -0.00037202661656297387 -0.0003833571011152645 -0.0003733147712005844 -0.00038460656066059565 -0.0003746029258381949
          -0.0006055160153026079 -0.0006050344641080771 -0.0006045529129135463 -0.00044806255150620734 -0.00039640307855423444 -0.00044676552602472184
          -0.0004480853918011158 -0.00039642760144492303 -0.00044673355302293446 -0.00044810823209602427 -0.0003964521243356116 -0.0004467015800211471
          -0.000551947213925505 -0.0005515122443092915 -0.0005510772746930781 -0.0005142236325552181 -0.0005876067262627629 -0.0005810357281776273
          -0.000514524897401274 -0.0005874039518553237 -0.0005808638812105267 -0.0005148261622473298 -0.0005872011774478846 -0.000580692034243426
          -0.0007549362625899522 -0.0007542484289625477 -0.0007535605953351433 -0.0005732096614532218 -0.0005734737693467556 -0.0005737378772402894
          -0.00033068540747365914 -0.00033071784315093526 -0.0003307502788282115 -0.00044691547996060987 -0.0004473925065261772 -0.00044786953309174446
          -0.0006485418169866782 -0.0006585657412941264 -0.0006478329916984177 -0.0006578729354656911 -0.0006471241664101573 -0.000657180129637256
          -0.0005648397449396878 -0.0005644372967242107 -0.0005640348485087337 -0.00040400575134284713 -0.00036967126060735733 -0.00040517786736106513
          -0.00037090745850157136 -0.0004063499833792832 -0.0003721436563957855 -0.0006247215409825121 -0.0005762728704569881 -0.0006241241573046915
          -0.0005760998209957142 -0.000623526773626871 -0.0005759267715344402 -0.0005639899749423022 -0.0005088236409221678 -0.0005634281120403056
          -0.0005084791674064846 -0.0005628662491383089 -0.0005081346938908014 -0.00041499878456218955 -0.0004731131729241056 -0.00041489752079022416
          -0.0004730577940703032 -0.0004147962570182587 -0.00047300241521650076 -0.000718449016998148 -0.0007201059336092888 -0.000670217040501265
          -0.0007178232382162466 -0.000719362283558171 -0.0006694048554582702 -0.0007171974594343452 -0.0007186186335070533 -0.0006685926704152755
          -0.0005024886333572015 -0.000502329170479858 -0.0005021697076025148 -0.0005971042269870495 -0.0005964514081474298 -0.0005957985893078102
          -0.0007472722993426655 -0.0007466029014188526 -0.00074593350349504 -0.0003324440002064034 -0.00033237380481477793 -0.0003323036094231525
          -0.00042184508584018545 -0.00033210607341010165 -0.00034647805200054444 -0.00042207717055508045 -0.00033225791858660123 -0.0003466883770228739
          -0.00042230925526997546 -0.00033240976376310076 -0.00034689870204520333 -0.0005096922678128356 -0.000509594807546218 -0.0005094973472796002
          -0.00044091123750647233 -0.0004409809562949604 -0.00044105067508344863 -0.00040116814356626817 -0.0003446007486952556 -0.00040114270124277706
          -0.0003444966451812497 -0.00040111725891928596 -0.0003443925416672437 -0.00023845275369522987 -0.00023871533013654394 -0.000238977906577858
          -0.0003642412357561849 -0.0003645235100577633 -0.00036480578435934175 -0.00008245291350462293 -0.00008292999868844572 -0.00008340708387226853
          -0.00014778003765772283 -0.00014775609374423254 -0.00014773214983074227 -0.00006441073815246754 -0.00006490720901671627 -0.00006540367988096499
          -0.000012702169589263471 -0.000013424852728959707 -0.000014147535868655942 -0.000006208325516384721 0 -0.00000635523622340196
          0 -0.0000065021469304192 0 0 0 0
          0 0 0 0 0 0
          0 0 0 -0.000031631995256449455 -0.00003182361628550634 -0.00003201523731456322
          -0.0000016625776153477347 -0.000001729251382646637 -0.0000017959251499455394 0 0 0
          -0.00008811345755870546 -0.00008823335913348053 -0.0000883532607082556 -0.000020805628071847194 -0.000020943956376032993 -0.000021082284680218796
          -8.195174487113407e-7 -8.285818813934506e-7 -8.376463140755606e-7 -0.00016949837492252594 -0.00016954480314957608 -0.00016959123137662616
          -0.00007938588148942606 -0.00007944121073380522 -0.00007949653997818437 -0.000018803771197460983 -0.000018827794188289258 -0.000018851817179117535
          -0.0001696758814954442 -0.00016964095048207955 -0.00016960601946871488 -0.0000811657722443771 -0.00008118199334632054 -0.000081198214448264
          -0.00026253429765146476 -0.00026248275977559885 -0.00026243122189973294 -0.00018519954450293272 -0.00018516867875498474 -0.0001851378130070368
          -0.0003401633320489521 -0.00034011220708771796 -0.0003400610821264838 -0.0003016863128728553 -0.00030160253451098814 -0.0003015187561491209
          -0.00039876428595225387 -0.00039875762873090086 -0.00039875097150954785 -0.0004162922131887999 -0.00041617872122930725 -0.0004160652292698146
          -0.0004234044021844978 -0.00042342747335424207 -0.0004234505445239864 -0.0004732478526464998 -0.0004731241688677583 -0.0004730004850890168
          0 0 0 0 0 0
          0 0 0 0 0 0
          -6.790435138132584e-7 -6.879548676439242e-7 -6.968662214745899e-7 -0.000022627616701455218 -0.000022643372475987123 -0.000022659128250519025
          -0.0003359013387373539 -0.0003178696497028641 -0.00033601566884337126 -0.00031828218108338074 -0.0003361299989493886 -0.0003186947124638974
          -0.0003033062935679758 -0.00032600607081063827 -0.00031016846805236476 -0.00030321569264503087 -0.00032584122291755095 -0.0003100585564479171
          -0.000303125091722086 -0.0003256763750244637 -0.0003099486448434694 -0.0004407252982493281 -0.00044124863626384737 -0.0004417719742783666
          -0.00034485724197049145 -0.0003453707626780154 -0.0003458842833855394 -0.00034783096390888417 -0.0003477263163200105 -0.00034762166873113687
          -0.0002506615372400281 -0.00025060266089287883 -0.0002505437845457296 -0.00031336317540212993 -0.00031329468950432645 -0.0003132262036065229
          -0.0003515245344011329 -0.0003514636743793823 -0.00035140281435763163 -0.00036561520475512113 -0.0003656107021944642 -0.00036560619963380724
          -0.0003672017912399505 -0.00036723776100945876 -0.00036727373077896706 0 0 0
          0 0 0 0 0 0
          0 0 0 0 0 0
          -0.0000027818623566676947 -0.0000027838919614391134 -0.0000027859215662105325 -0.00010030857847123915 -0.00010029386285730291 -0.00010027914724336669
          -0.000034741616907350235 -0.00003474998635874004 -0.000034758355810129856 -0.00022901590429762956 -0.00022890869011924574 -0.00022880147594086196
          -0.000381422678994401 -0.00038121430633548205 -0.0003810059336765631 -0.00046153355996073726 -0.000461288122930392 -0.00046104268590004677
        </DataArray>
        <DataArray type="Float64" Name="disp_x" format="ascii" RangeMin="0.00003366118589771814" RangeMax="0.00007670208465471549">
          0.000038000755033656015 0.000036880137828717155 0.000036322191218643915 0.00003768832276730404 0.00003799760796327739 0.00003687618914786833
          0.000036316669799548855 0.00003768473394370054 0.00003798853035176259 0.000036865109523694564 0.000036300160761396547 0.00003767448989094084
          0.00004860411374880765 0.00004730375394877476 0.000047777683078155075 0.00004905460734900376 0.0000486052872388997 0.00004730509636031904
          0.000047779224364843874 0.00004905549287020213 0.000048608706369042556 0.000047309486066240206 0.000047784299379310325 0.00004905851898527458
          0.00006330932066092644 0.0000629343533789947 0.0000634684940921573 0.00006533195742297258 0.00006330765133225813 0.000062932836281194
          0.00006346656032859073 0.00006533048989864685 0.00006330311616717393 0.00006292773799614622 0.00006346158546171767 0.00006532677115032219
          0.000039519686993768777 0.00004120440413832027 0.000042178301412441604 0.000040579983707300214 0.000039517689779056066 0.000041202486676728366
          0.000042176452454709635 0.00004057770427082468 0.00003951184870574396 0.00004119661723900231 0.00004217094012396967 0.00004057090805737946
          0.00005425803599960542 0.000053855158752001316 0.000052359584363647076 0.000052776606407995064 0.000054257457695060053 0.00005385469147172204
          0.00005235969679874411 0.00005277647041905912 0.00005425619886070091 0.00005385359692631026 0.000052360303937038007 0.000052776484224991956
          0.00004240359984735951 0.00004361075676202051 0.000042964587887190355 0.00004170136667449217 0.00004240327510043732 0.000043610712859713734
          0.00004296396051072222 0.0000417003693769169 0.0000424023737202847 0.000043610823567086704 0.000042962275380110154 0.00004169768084262822
          0.00005006480525015513 0.00004957188306902481 0.00004812546308978361 0.000050065615472617176 0.00004957245590403237 0.000048126341893481265
          0.0000500679229412728 0.00004957438899878632 0.00004812918265095896 0.000044948093890912444 0.00004453939984003184 0.00004494846655504954
          0.00004453929908645331 0.00004494931664121672 0.000044538750158856236 0.0000579133745055566 0.00005616858661658669 0.00005669395892159013
          0.0000586957986356413 0.00005791226123396069 0.00005616743333370959 0.0000566930066805589 0.00005869416655973323 0.000057909003358662304
          0.000056164075729454926 0.00005669009771679701 0.00005868962881219273 0.000042413933715710315 0.00004339879444112419 0.00004241263763757512
          0.00004339770881878733 0.000042408857092175795 0.00004339414193837314 0.00004629356618938169 0.000045873061998224554 0.00004629423150489967
          0.00004587312975559123 0.00004629599163508918 0.000045873134953713074 0.00006227868839684012 0.00006276712541312993 0.00006378406710285734
          0.00006227705370920761 0.00006276512681935206 0.00006378280731978877 0.00006227134425972136 0.0000627587705527999 0.00006377905870518796
          0.00004067005662036399 0.000041380537154692024 0.00004066889057666622 0.00004137953535307563 0.00004066516216641978 0.000041376290264029716
          0.00005232303236491339 0.00005089511275863291 0.00005141781874075504 0.0000527738806666903 0.00005232270240687643 0.000050894684199494266
          0.000051417648450935627 0.00005277379149600318 0.000052321703648052696 0.0000508934500860726 0.00005141737642446841 0.0000527738076897702
          0.000051667350145472714 0.000050481582720094894 0.000052029350537370736 0.0000516678043999121 0.00005048250957362522 0.000052029796832752375
          0.00005166877994426981 0.000050484700997192964 0.00005203096507843015 0.000043561025497632975 0.00004355959501422514 0.00004355507025060628
          0.00004950804032193565 0.00005012278291292064 0.00004885833385178631 0.00004950736164813534 0.00005012171586511609 0.000048856974162237654
          0.000049505230229191995 0.000050118479665550806 0.00004885284420282859 0.00005367269940202694 0.00005267924836675011 0.000051110867649986773
          0.000053672655577410456 0.00005267930088158119 0.00005111130651629412 0.000053672459553545856 0.000052679569902024066 0.00005111232572737599
          0.000039741876854110796 0.00003894907411530957 0.000039764979416060434 0.000039740070968194966 0.000038946333436007954 0.00003976314610552548
          0.00003973473836504711 0.00003893805976290864 0.000039757920408263717 0.00003910250294991109 0.00003901514947106098 0.0000391001833818182
          0.000039012894607625553 0.00003909314630927987 0.000039006194264112106 0.0000546681272694334 0.00005638597836091831 0.00005466757499515434
          0.00005638576096356098 0.00005466618535100881 0.00005638520260220226 0.00003367746770640495 0.0000336733085950236 0.00003366118589771814
          0.00005689799594836999 0.00005830500083677335 0.00005689719416086206 0.000058303344540007 0.000056894495147646464 0.0000582998164189364
          0.00004721929916141294 0.00004766183201652038 0.0000472193425833361 0.00004766263784251213 0.00004721940596370066 0.0000476645728122828
          0.0000467826516364756 0.000046784047063926694 0.00004678748664036235 0.000043204116526428665 0.00004422616631768234 0.00004413146157592026
          0.000043057617958945474 0.0000432047371782133 0.000044227111860794704 0.00004413214848504334 0.00004305802461652081 0.00004320658800895956
          0.00004423033648466259 0.000044134489814449466 0.000043059620876680976 0.00006415368048013376 0.00006415310978431312 0.00006415151374860281
          0.00006472756916297298 0.00006276537768281125 0.00006472688267369571 0.00006276440742658894 0.00006472459998425557 0.0000627615825452542
          0.00003837707014072434 0.00003909643926738818 0.00003837420456671524 0.00003909412220417298 0.000038364419432156894 0.000039086336967833795
          0.000053613256280380974 0.00005361325181319094 0.000053612901150930354 0.00005409209431272503 0.00005397708955891287 0.00005409205983998454
          0.000053976672857653166 0.00005409146588638184 0.00005397539799294845 0.00005188588762055345 0.00005295553906991126 0.000053129646194966615
          0.00005166180802199201 0.00005188536806965847 0.000052954985447451154 0.00005312877307818647 0.00005166070377867279 0.00005188354755949506
          0.00005295304262283129 0.00005312655442270637 0.000051657198401824683 0.00005515557056752986 0.00005505531962441353 0.00005515489112475381
          0.000055055029358476134 0.000055152073731458266 0.0000550528817815356 0.00005928513995350193 0.00005956438488542429 0.00006056074996874404
          0.0000599823371602995 0.00005928296734235007 0.00005956195417067674 0.000060558505624046415 0.00005998009064615968 0.00005927471420669385
          0.00005955402324770434 0.000060552218966283465 0.000059972563044378565 0.00004473971898365968 0.00004473883926042793 0.00004473602500333257
          0.00004185693415149911 0.00004283154358709443 0.0000418563348111487 0.00004283176246342139 0.000041854727031196133 0.00004283229863040097
          0.00005013393379670064 0.00005002579836008074 0.000050132479976717375 0.00005002365269067348 0.00005012804567789706 0.00005001712710996578
          0.00004856237124969281 0.0000485602499563922 0.00004855367044213493 0.00004542128713970107 0.00004413205708974324 0.00004542096138533931
          0.000044131588937219395 0.000045419802737273056 0.000044129765540773965 0.00004160657678684846 0.00004320367123171906 0.00004160538861595019
          0.00004320321383045465 0.0000416013279892141 0.000043201162420709025 0.000046250286308945125 0.00004569395435020057 0.000046249385670768945
          0.00004569242816076393 0.00004624666519813908 0.000045687692203684994 0.000048456059290221975 0.00004845418711028058 0.000048448536777479996
          0.00004547002507885576 0.000046442523625587416 0.00004547097524198351 0.000046444059855821984 0.00004547375491290425 0.00004644828481596361
          0.00004698972764892755 0.00004719679357028089 0.000046987425233283755 0.00004719521069660632 0.000046980004005524334 0.000047190306178058344
          0.00003956060796023182 0.00004069584917642572 0.00004041740615857061 0.00003955872053389665 0.000040694702577213855 0.000040415793915389964
          0.000039553321405355556 0.00004069069272051396 0.00004041058043106821 0.00003858300892289547 0.00003858062724023892 0.00003857295830622658
          0.0000439748084302721 0.00004528839134934866 0.00004397558836457231 0.00004528964278034387 0.00004397728391526248 0.00004529284926213436
          0.0000486069176354194 0.00004905124543303351 0.000048606818639678976 0.000049051814940006585 0.000048606588439621135 0.00004905307206236466
          0.00006150178465695046 0.000060053549181715534 0.0000614998865443589 0.00006005163721285522 0.00006149467714757295 0.00006004524793867677
          0.00004038157924881088 0.00004118223882433609 0.000040380002019836185 0.00004118105109770004 0.00004037474874950145 0.00004117684934240967
          0.00003595443165159682 0.00003775727901605234 0.00003741220877078954 0.000035952255884813613 0.00003775429894323342 0.00003740995835897999
          0.00003594593384279375 0.0000377443424689892 0.00003740266837556318 0.000035854902763326055 0.00003585157853615161 0.000035841395265234725
          0.00004661092273731544 0.000046612869854938 0.00004661840539419924 0.000036468774020356554 0.000036467677547615664 0.00003646431697280455
          0.00003723575109837684 0.00003723258565253916 0.00003722272534584699 0.000046787129894098574 0.000046786867225065254 0.000046785452250353384
          0.00004018275926375731 0.00004018089668042722 0.0000401749737576427 0.00003512543636964063 0.00003512077868638232 0.000035105922921312986
          0.00003859160000780947 0.00003858979651644118 0.00003858357144559804 0.00003769814629422083 0.00003723360712616481 0.000037694466577384965
          0.000037228792999131655 0.000037685037518907214 0.00003721436442523641 0.000039064420654147295 0.000038941568976988346 0.00003906174275882547
          0.00003893902091028912 0.00003905310267877213 0.00003893137382483148 0.00003561713776969942 0.00003561108769457644 0.00003559046753479263
          0.000040235999245914674 0.00004018088808682682 0.00004023392480642261 0.00004017901106505691 0.000040227248133169854 0.00004017284048721055
          0.00006330070923950885 0.00006509393050935672 0.00006329947879427822 0.00006509352487751918 0.00006329566845345614 0.00006509205333643296
          0.00005999315304642983 0.00005999152586016864 0.00005998666585377058 0.00003595480148291085 0.00003595098171632632 0.00003593727009860311
          0.00005844800612883226 0.00005711565213949752 0.00005844619639960473 0.00005711450083755187 0.000058440989048005784 0.0000571111676144207
          0.00004333438522915121 0.00004436937573777093 0.00004333513065375998 0.000044370553618818734 0.00004333720468629885 0.00004437408723819226
          0.000039500550754416714 0.00003949915179321171 0.00003949399370204104 0.000037866068493126115 0.00003786465653911774 0.00003785988346994633
          0.000048214091345762066 0.000048212659268120806 0.00004820778963358937 0.000042210269910590146 0.000042322467493386266 0.00004221016236530507
          0.00004232253344721854 0.000042209770736329524 0.000042322485448869585 0.000050507944366646944 0.000050508274737173277 0.00005050900013921997
          0.00005190842467871987 0.00005135988099776391 0.00004996098791552921 0.00005050758010899823 0.00005190876101550293 0.000051360562166828364
          0.00004996186359750802 0.00005050826291792997 0.00005190961813754881 0.00005136215368048809 0.0000499649199794865 0.0000505105212388473
          0.00004533531033723456 0.000046404335567968545 0.00004533667898384885 0.000046406109627392256 0.00004534027866874562 0.000046411361411557406
          0.00005539555275341022 0.00005539495880941009 0.00005539231323334645 0.00004950931685541735 0.0000508965449663614 0.00004951050323268674
          0.00005089753501171821 0.00004951366408746952 0.000050899766743406825 0.00005195237509468198 0.00005325060322873945 0.00005195263933274275
          0.00005325062431343836 0.00005195298030589361 0.000053250803243325234 0.00004764310266722166 0.00004764218476205348 0.00004763867342856186
          0.00004816388479234861 0.000048163465200515465 0.00004816141054287173 0.00005513457708470642 0.00005513405183783327 0.00005513222438843712
          0.00004123554281686738 0.000041301322216500683 0.000041234511183143366 0.0000413005058193831 0.000041231025000366264 0.00004129809613029569
          0.000054035394742979115 0.00005403541831175732 0.000054035174487802516 0.00005729649799279349 0.00005807620051232311 0.000055828519698104614
          0.00005729561630400996 0.000058075798753185605 0.00005582796632593939 0.00005729350651596675 0.000058074477057634464 0.00005582655985713188
          0.00005411290899939785 0.00005411292737867825 0.000054112490837633457 0.00004661263202426606 0.000047843978123966075 0.00004733464482334328
          0.0000466144751427225 0.000047845723882703366 0.00004733662807565962 0.00004661993607935414 0.00004785110624585887 0.000047342676631416175
          0.00005332434456502277 0.00005332450935256306 0.00005332417527439046 0.000050023369777292735 0.000050023524223070726 0.00005002335751705405
          0.00006164908068342516 0.00006164762337019374 0.0000616426621597941 0.000045455775305757363 0.000045457469143501156 0.00004546203013665355
          0.00004867652581287197 0.000049144622217315787 0.00004867827282535325 0.00004914627169110338 0.000048682587993319615 0.00004915023479241078
          0.00005620970893124096 0.00005620874956019844 0.00005620573866919288 0.000041193056316429645 0.000042097489368698525 0.00004119187727344981
          0.00004209738850189537 0.000041187547638149723 0.000042096588510337866 0.000048232197051568525 0.00004742869865067262 0.000048234085230595496
          0.000047430919601680834 0.0000482383552494365 0.000047437222898351056 0.000054931000413539516 0.000055434459035110505 0.000054930667695307746
          0.000055433921658301446 0.00005492928720690109 0.00005543186561360531 0.000059788636539203824 0.00005825841882367224 0.00005978760597743659
          0.000058257400840237164 0.000059784648599051944 0.00005825430035387787 0.000055676835466700617 0.000056137096498438615 0.00005749446204692929
          0.000055676384963443996 0.0000561361491303229 0.00005749306379218421 0.00005567410134821844 0.00005613329011047232 0.00005748852141778787
          0.000056813111841539956 0.000056812253642453216 0.00005680941420925709 0.00005878053885914816 0.000058778525969693714 0.00005877235847012782
          0.00005473919979716067 0.00005473909298705853 0.0000547377200538071 0.00006146359397459303 0.00006146226930521803 0.00006145816901441412
          0.00006109969160236248 0.00006212928663392051 0.00006170258172892561 0.00006109757514333403 0.00006212730466215047 0.0000617006140314996
          0.0000610914641080856 0.00006212127291926001 0.0000616949843826867 0.000059978561971474524 0.00005997640606887758 0.00005996966074882803
          0.00005827696193540137 0.00005827631725911391 0.00005827375710603947 0.000059239001641172305 0.00006082655937282578 0.00005923841090759337
          0.00006082592418141577 0.000059236440293623385 0.00006082394573185387 0.00006306830967809033 0.00006306635815091491 0.00006306098457045179
          0.00006137861493426642 0.00006137646446855761 0.00006137089312254981 0.00006451658484751404 0.0000645147348359838 0.00006450937716446264
          0.00006391770602372683 0.00006391603213147176 0.0000639104309615321 0.0000646773093039629 0.00006467484121903184 0.00006466801758047119
          0.0000653412416651829 0.00006534092710716718 0.00006534033403736917 0.0000674497421491656 0.00006745322430685496 0.00006745063332475802
          0.00006745348300807639 0.00006745227361949535 0.00006745418975374621 0.00006950484004992035 0.00006950168800028004 0.00006950474019799299
          0.00006950162170438017 0.00006950466643229747 0.00006950144777793662 0.00007151873269205095 0.00007150569510996687 0.00007151874527271534
          0.00007150573249878822 0.00007151873029303518 0.00007150582983786407 0.00006742643049999586 0.00006742597099302596 0.00006742486450235426
          0.00006951863871482567 0.00006951866612798402 0.00006951876893698129 0.0000715585605590911 0.00007155858372989139 0.0000715586521732571
          0.00006731618205884592 0.00006731517966711006 0.00006731302504022648 0.00006954758437274314 0.00006954785960573413 0.00006954784855385173
          0.0000716359725834946 0.00007163598284184253 0.0000716361295569898 0.00006702132614276452 0.00006702089802171677 0.00006701935606938859
          0.00006955695978937251 0.00006955626469380184 0.00006955435438743524 0.0000717670753428828 0.0000717669643663501 0.00007176663938787918
          0.00006938722871715323 0.0000693866484807827 0.00006938484579255807 0.00007191222510237908 0.00007191162764286391 0.00007190979385971607
          0.00006900365369820562 0.00006900329630639517 0.00006900224981783354 0.00007187722805115682 0.00007187669860211431 0.00007187509843585467
          0.00006843564228850396 0.00006843549369342738 0.00006843504445895718 0.0000716453878787439 0.00007164518247320936 0.00007164455628990059
          0.00006773214831553347 0.00006773233416459459 0.00006773287454612361 0.00007124313741652549 0.00007124325257940304 0.000071243563377022
          0.00006696039488083281 0.00006696125442978029 0.00006696389799797599 0.00007072935879357415 0.00007073003245256423 0.00007073193238267382
          0.00007342140524392177 0.00007338823736527259 0.00007342137738626562 0.0000733881990514116 0.00007342130124242753 0.0000733880818549594
          0.00007349777749225325 0.00007349772527208376 0.00007349757056724707 0.00007362582577314443 0.00007362576264015472 0.00007362555530863409
          0.00007381901663975227 0.00007381902468454422 0.00007381906233905852 0.00007409574523241129 0.00007409559160894724 0.0000740951575604993
          0.00005692311407857531 0.00005510059504835817 0.00005692336096965723 0.00005510050494186262 0.000056923877448432384 0.00005510014919078207
          0.0000634300796399406 0.00006129639607651356 0.00006202227164650181 0.0000634297881163328 0.00006129625973242788 0.00006202174804026777
          0.00006342879510533546 0.00006129589804316167 0.00006202004632468015 0.00005151172641461068 0.000051510291606654344 0.000051506075021625954
          0.000053299875360418014 0.00005329879086182731 0.000053295463721627473 0.000059427953351841276 0.000059427813259350276 0.000059427491347419354
          0.0000665310632391582 0.0000665307074065469 0.00006652971677227581 0.00006587719606040502 0.00006587702181352747 0.0000658764513525625
          0.00006510776882551932 0.00006510783327273758 0.00006510798850710652 0.00006429371990425318 0.00006429400755057005 0.00006429484169012728
          0.00006350792321484302 0.00006350825973877532 0.00006350916127088593 0.00007530275078050808 0.00007525115217231494 0.00007530269696315779
          0.0000752511017411318 0.00007530252929834122 0.00007525095559417044 0.00007540969176221657 0.00007540963448454076 0.00007540946887146192
          0.0000755815060608472 0.00007558144323497487 0.00007558125298886293 0.00007583366178717472 0.0000758335485938554 0.00007583319113248667
          0.00007618933983541008 0.00007618931165950186 0.00007618925833191291 0.00007442730193899171 0.00007442664624591574 0.00007442464014040606
          0.00007670208465471549 0.00007670171151863761 0.00007670060461470321 0.00007463702133639439 0.00007463637618829802 0.0000746344544085071
          0.00007473179227897466 0.00007473125567184074 0.00007472964706976296 0.0000747565243044257 0.00007475614216981704 0.00007475505943706379
        </DataArray>
        <DataArray type="Float64" Name="disp_y" format="ascii" RangeMin="-0.000007020257380785271" RangeMax="0">
          -0.0000016991849196367384 -0.0000021781614673542553 -0.000001909215777299239 -0.0000013303880965558993 -0.0000016976966487408165 -0.0000021765188801641577
          -0.0000019084318370956715 -0.000001329293349578412 -0.0000016925519541974176 -0.000002170717575448537 -0.000001905044147448582 -0.0000013263245710809408
          -0.0000016839771978174756 -0.0000014136708126798184 -0.0000010635235334138643 -0.0000012633828139133004 -0.0000016842801465539762 -0.0000014137203313922553
          -0.000001063593316226885 -0.000001263636037745577 -0.0000016851983578356662 -0.0000014139419380300807 -0.0000010640302143349863 -0.0000012645724884570396
          -0.000001226765874640924 -9.945734780455015e-7 -6.745871646010444e-7 -5.58676079216413e-7 -0.0000012263095601893493 -9.9434862144177e-7
          -6.744316734675679e-7 -5.585354824197715e-7 -0.0000012253944805072394 -9.937081314572162e-7 -6.736038988763555e-7 -5.579066726637281e-7
          -0.000004063634489214271 -0.000003420374127451185 -0.000003767134939298911 -0.0000044198710797250285 -0.000004061241504865327 -0.0000034179921355010273
          -0.0000037650702509236755 -0.000004417791285469482 -0.000004053659718308172 -0.000003410635343405618 -0.0000037586900819391364 -0.000004411789948152337
          -5.362919089131816e-7 -0.0000010883343906706244 -0.0000010457774280365212 -5.15514933668163e-7 -5.36445137951588e-7 -0.000001088720311127048
          -0.0000010460618848469961 -5.157118858351623e-7 -5.369800560721535e-7 -0.0000010897073727281406 -0.0000010471133005517622 -5.16095602418334e-7
          -0.000001457530346280287 -0.000001625025867079488 -0.0000021884296901282793 -0.0000019121654148303695 -0.0000014561123325811582 -0.000001623854054876973
          -0.0000021868558839661393 -0.00000191037967517807 -0.0000014516107171003683 -0.0000016203117847533934 -0.000002182113818286394 -0.00000190506541405288
          -0.000001944387582798989 -0.0000024127641773580217 -0.00000209358924247056 -0.000001944827972477472 -0.000002413241696301366 -0.000002093783880218717
          -0.0000019463278297125922 -0.0000024147851438595514 -0.0000020942885766306775 -0.0000018518305527963733 -0.0000023270089015763914 -0.0000018509466901003477
          -0.0000023258249240940855 -0.0000018484183293827776 -0.000002322180953476855 -0.0000024454334113582595 -0.000002210432051199083 -0.0000016260585970573139
          -0.00000152996487249701 -0.0000024460861996260024 -0.0000022110056715696415 -0.0000016266903370644554 -0.0000015304409030073108 -0.0000024480706777050615
          -0.000002212454357728603 -0.000001628628753509077 -0.0000015318563931707828 -0.0000029368759858940054 -0.000003241115816181047 -0.00000293497105138189
          -0.000003239414996376115 -0.000002929238041498055 -0.000003233990946044796 -0.000002152801395275863 -0.000002589506676753935 -0.0000021522675908706403
          -0.0000025886257241016234 -0.000002150648123864959 -0.000002586015446855551 -6.876200962148133e-7 -3.2654088009133543e-7 -3.086494916808542e-7
          -6.875839046848187e-7 -3.265634216188251e-7 -3.083887809126615e-7 -6.875748425314802e-7 -3.2652660017336785e-7 -3.08361587223857e-7
          -0.0000017750380037343346 -0.0000013325757522922392 -0.000001773247668712172 -0.0000013310999463192629 -0.0000017679205039283907 -0.000001326694854697405
          -0.000004723412615113072 -0.000004483150115934809 -0.000003978776114732876 -0.000004199773459396193 -0.000004724210437999848 -0.0000044836624886036595
          -0.000003979588825649352 -0.000004200738594609936 -0.000004726519633647156 -0.0000044852536014755 -0.000003982049316693214 -0.000004203713818566303
          -0.0000021739456152494957 -0.000001449205732893909 -0.0000016048166907280577 -0.0000021746586283764604 -0.0000014496945459252428 -0.0000016054122218007126
          -0.000002176831927984354 -0.0000014510145941272442 -0.0000016070544990404262 -0.000004269289691269048 -0.000004267304392745722 -0.0000042614448566821585
          -0.0000041186762041234344 -0.000005081820717278589 -0.0000045250648218864465 -0.0000041188401268472095 -0.000005081969313330668 -0.000004525004533252792
          -0.000004119465896444542 -0.000005082306421733199 -0.000004524743539484415 -0.0000023601609890725053 -0.0000029950177359988693 -0.000002715124749075181
          -0.000002360957592675931 -0.0000029958803269827356 -0.000002715897005012253 -0.0000023634671670287508 -0.000002998510851286195 -0.0000027182930316672097
          -0.0000022944211174613838 -0.000002172687896500115 -0.0000017026524821390254 -0.000002292361993497572 -0.000002170756122879801 -0.0000017010332766225287
          -0.0000022858937137298484 -0.0000021648392104585465 -0.000001696687485482305 -0.000001382974874232204 -9.862506007748098e-7 -0.0000013817377109307135
          -9.855239064189394e-7 -0.0000013784282157038797 -9.833255849885872e-7 -0.000005346766294975013 -0.000004769375923626586 -0.000005347697441640867
          -0.000004770161633814225 -0.000005350562092617903 -0.000004772495711502744 -0.0000026001907259841123 -0.000002600951435744008 -0.000002602890243668585
          -0.0000010482897375055621 -9.227914803857624e-7 -0.0000010487829545322247 -9.230984270599665e-7 -0.0000010505973580385005 -9.244911051179652e-7
          -0.0000029173544517467543 -0.0000025005826479665553 -0.0000029169331350283464 -0.000002500499504403485 -0.000002915707890031465 -0.000002500248402270251
          -0.000001761850033938385 -0.000001761744805845561 -0.0000017612830452184953 -3.3668164026205785e-7 -3.6338032408377074e-7 -7.497921677941879e-7
          -6.833742192084192e-7 -3.3635984951823277e-7 -3.6310889416723124e-7 -7.492823045972343e-7 -6.826739713651371e-7 -3.3534240383033895e-7
          -3.621984069143865e-7 -7.476957588504254e-7 -6.805602174265776e-7 -0.0000028117560823534775 -0.000002811273979284213 -0.000002809842016787064
          -0.000001954452571507785 -0.0000024957744745822744 -0.0000019538832770787824 -0.0000024952281504468875 -0.0000019520739233833018 -0.000002493578920636068
          -0.0000019841521223504634 -0.0000016799100770302522 -0.000001982286589228318 -0.0000016782851486766197 -0.0000019767996950294316 -0.0000016734922294479585
          -0.000001664289031643498 -0.0000016648534164251882 -0.0000016666286162187504 -0.000004204417181795116 -0.000004859706029231124 -0.000004205598479994687
          -0.00000486070837495594 -0.000004209346905910306 -0.000004863756153746918 -0.000005272184183632948 -0.0000053219476754238045 -0.000005704979199502216
          -0.000005847244512355371 -0.0000052726760011105065 -0.000005322575733031668 -0.000005705622505675757 -0.000005847610986671254 -0.000005274104734038181
          -0.000005324714307068799 -0.000005707656455247114 -0.000005848808331146969 -0.0000016399971587907606 -0.0000020529380352379526 -0.0000016405273122270762
          -0.0000020535721498699556 -0.0000016418686873752622 -0.0000020560635417140935 -7.684367799763192e-7 -4.214866321765206e-7 -4.1079043203803275e-7
          -9.65799443829436e-7 -7.684997029728942e-7 -4.2128848997332324e-7 -4.107657902532423e-7 -9.660020899267212e-7 -7.693319965110429e-7
          -4.1979905726908856e-7 -4.1082647974105443e-7 -9.665347740911557e-7 -0.0000035436258045580578 -0.0000035421473126267786 -0.0000035376377859459524
          -9.686928428147413e-7 -0.0000010511755170626608 -9.676256137731578e-7 -0.000001050168329714832 -9.641762381630109e-7 -0.0000010470332992091423
          -0.000005855125759179595 -0.000006530860565997506 -0.000005855003193007908 -0.000006530596649222903 -0.00000585471558697292 -0.000006529770314553202
          -0.000005856538580970107 -0.000005855966450692282 -0.000005854161615019993 -0.0000030444421320471767 -0.0000027838663950896037 -0.000003043433385503965
          -0.000002782534265970048 -0.0000030403291660994765 -0.000002778572578818932 -0.0000026416239333283482 -0.0000026498373185173975 -0.0000026395665837487294
          -0.0000026482521432481805 -0.0000026332469182846634 -0.0000026433950946869706 -0.000003843823486059424 -0.000004421387087545887 -0.000003842744196714565
          -0.000004419899946418151 -0.0000038396510250669465 -0.0000044153678037019975 -0.000005211349056522298 -0.000005211019187095335 -0.000005210201231237721
          -0.0000013392411839304566 -0.0000012001951201423143 -0.0000013387391953784033 -0.00000119994479975301 -0.0000013372148512687418 -0.0000011990590433979018
          -0.00000517304193290941 -0.000004618589867206294 -0.000005172168796934008 -0.000004617835804931074 -0.000005169629713242795 -0.000004615708289026707
          -0.000003003393067125333 -0.000002421830805882711 -0.0000031522809846226424 -0.00000300091397528328 -0.0000024195908792612908 -0.0000031499007382956035
          -0.000002993174681476993 -0.0000024129803992382066 -0.0000031425193440042685 -0.000002924265202757067 -0.000002921945573451511 -0.000002914686647160765
          -0.000001173307256225947 -8.054629117820248e-7 -0.000001172479585833534 -8.051327843796162e-7 -0.000001170031982183069 -8.041925377508038e-7
          -0.0000032837554635373443 -0.000002849172430916125 -0.0000032838021370040283 -0.000002849504151956181 -0.0000032840967705297835 -0.0000028505638520546294
          -0.000001200879202912944 -0.000001636576755084979 -0.000001200805114386354 -0.0000016366952770505122 -0.0000012003149477844155 -0.0000016369510043990924
          -0.0000011895815755836855 -9.211850399150229e-7 -0.0000011884890543077112 -9.201406486792265e-7 -0.000001185348994010037 -9.16909761793701e-7
          -0.0000037401493228980772 -0.0000027832105038599235 -0.000003697095381620212 -0.0000037389134910386575 -0.00000278115932360384 -0.000003695077712125138
          -0.0000037352425733124798 -0.000002774814837724926 -0.000003688518287647032 -0.0000030651044603404625 -0.000003063916209022924 -0.000003059795245401727
          -8.230222682751278e-7 -8.229240524820022e-7 -8.223945191393254e-7 -0.000004518181654312714 -0.0000045165764398007255 -0.000004511797306557577
          -0.000002488920566346312 -0.000002486990877199237 -0.0000024810081689447484 -0.0000033618092116346773 -0.0000033611521044391353 -0.0000033589024775030915
          -7.726567044650586e-7 -7.717481354042788e-7 -7.690121074435955e-7 -0.0000026872967528526934 -0.0000026865856514763455 -0.000002683801096589741
          -0.0000036392114527148173 -0.0000036367848427166766 -0.0000036291870056893274 0 -8.139598497845362e-7 0
          -8.132431405853933e-7 0 -8.114607722722766e-7 0 -5.118535188499082e-7 0
          -5.114124437669952e-7 0 -5.102784964079209e-7 -0.0000016285944511526924 -0.0000016282424041426914 -0.000001628390833416439
          0 -3.883310540301154e-7 0 -3.8770565119445327e-7 0 -3.8510958884170413e-7
          -0.0000017408058187557254 -0.0000012139376384263529 -0.0000017403154979875533 -0.0000012130958891046654 -0.0000017385928351826175 -0.0000012109038972841022
          -0.0000020915368051554977 -0.0000020918309534738467 -0.0000020928793365448763 -0.000002637488531810912 -0.000002636330373447523 -0.0000026323512630311923
          -4.5189079054955557e-7 -5.058330586177157e-7 -4.5182047980378156e-7 -5.059672276104791e-7 -4.508808891501941e-7 -5.063739527501928e-7
          0 0 0 0 0 0
          -0.0000035928478040068893 -0.000003590250237354815 -0.000003582348151682309 -0.000004309168567981686 -0.000004307041700278414 -0.000004300580819724165
          -0.000004787563084814697 -0.0000047872421268670104 -0.0000047865570303891534 -3.2361633856666037e-7 0 -3.2326054542084257e-7
          0 -3.223448229718061e-7 0 -0.0000031921630293479033 -0.0000031928877671714443 -0.0000031950501929799636
          0 -4.754141106355359e-7 -4.2210382270324174e-7 0 0 -4.755756556434195e-7
          -4.222387489908242e-7 0 0 -4.761902405522668e-7 -4.229086894333547e-7 0
          -3.871315190138463e-7 -3.836483749500381e-7 -3.8701829895553983e-7 -3.8360703313338526e-7 -3.8686528681093264e-7 -3.8387750508499914e-7
          -0.0000010867497053225323 -0.000001087072880089352 -0.0000010882243414866758 -8.44169364280766e-7 -9.582371940461078e-7 -8.444743091127183e-7
          -9.586021656030565e-7 -8.451861043583736e-7 -9.595362107232572e-7 -0.000003493323711998357 -0.000003717358228154258 -0.000003494186414876743
          -0.0000037183075380658836 -0.0000034968721013991095 -0.000003721133638261226 -0.000004160080425234593 -0.000004159542307980463 -0.000004158008652438389
          -0.000003724020142028472 -0.0000037237940051252067 -0.0000037231048380946804 -0.0000027608662750626002 -0.0000027615738436561325 -0.0000027636386668931657
          -3.3629284216244603e-7 0 -3.3581509090729355e-7 0 -3.3418008616408313e-7 0
          -0.0000032599016343787725 -0.0000032607516670152202 -0.000003263550798405274 -0.0000038318537361612035 -0.000004031194581160086 -0.000004374503578015534
          -0.0000038326450160300936 -0.000004031752876921616 -0.000004375399038811686 -0.000003834951586706365 -0.000004033354846868782 -0.0000043785143069045335
          -0.000003831375312600077 -0.000003832357823981851 -0.000003835211551702011 0 0 -3.4372257744464776e-7
          0 0 -3.43822160021448e-7 0 0 -3.4388840087539194e-7
          0 0 0 -0.0000036578531909316447 -0.0000036583776718080377 -0.0000036600871977513262
          -0.0000017073130229617207 -0.0000017071543335660401 -0.000001706655623979211 0 0 0
          -3.7048793538916135e-7 0 -3.704600628723709e-7 0 -3.706877308344478e-7 0
          -0.0000030961500863607895 -0.000003096979711820465 -0.0000030995677632790232 -6.713575334560283e-7 -6.478608694545649e-7 -6.705070301114706e-7
          -6.471390749153185e-7 -6.681272046111862e-7 -6.450169884192259e-7 -7.197002989506269e-7 -6.218732617305645e-7 -7.198107982269945e-7
          -6.220177089367131e-7 -7.199319249680888e-7 -6.221914056055777e-7 -0.000003559303462183297 -0.00000394167345094697 -0.000003560210082505793
          -0.000003942737316738918 -0.000003563061989736622 -0.00000394603186157233 -0.0000026891689465042834 -0.0000030476621485942063 -0.0000026895149915236935
          -0.0000030482728340960324 -0.0000026905619114792687 -0.0000030502942792894866 -5.327583575278844e-7 0 0
          -5.329596146570239e-7 0 0 -5.337345926851331e-7 0 0
          -0.0000034906897149883024 -0.00000349147589844281 -0.000003493958725085204 0 0 0
          0 0 0 -0.0000022782137604275996 -0.000002277962412133568 -0.000002277248567639611
          0 0 -3.437601679513451e-7 0 0 -3.437921332155295e-7
          0 0 -3.432795644694861e-7 0 0 0
          -0.000003409692190425463 -0.0000034101302457605874 -0.0000034115171309581433 -0.0000033155407886324947 -0.0000030182564744126476 -0.0000033158328777380963
          -0.0000030182728517422027 -0.0000033168743610601453 -0.0000030183732686394563 0 0 0
          -6.30896327870784e-7 -6.30881972096968e-7 -6.316002343688935e-7 -2.516243479746077e-7 -2.513819263507057e-7 -2.4934106695139215e-7
          0 0 0 0 0 0
          0 0 0 -4.4338165142581013e-7 0 -4.433106567444981e-7
          0 -4.431486469380062e-7 0 -3.8046909213305787e-7 0 -3.804892611309928e-7
          0 -3.8047711890830197e-7 0 -3.4055358799456767e-7 0 -3.405121479227646e-7
          0 -3.404126681147077e-7 0 -8.987903890243731e-7 -8.984344280208088e-7 -8.973325019102516e-7
          -7.655581399601517e-7 -7.654432430495654e-7 -7.653844279377799e-7 -6.837554643279511e-7 -6.83719921574228e-7 -6.835251247230713e-7
          -0.0000014287419210104504 -0.0000014281478193956763 -0.0000014262672069294055 -0.0000011589170732372692 -0.0000011587890155446787 -0.0000011581708764979436
          -0.0000010336786517225582 -0.00000103363081722473 -0.0000010335733399091206 -0.000002084029476573533 -0.0000020832764376047845 -0.00000208104339776251
          -0.0000016173280419683028 -0.0000016165041200400289 -0.0000016141653136458152 -0.0000013901929986287213 -0.0000013900019172470097 -0.0000013894159766948797
          -0.0000022173600892798594 -0.0000022166212132333536 -0.0000022143355427267544 -0.0000017991665397074471 -0.0000017983980798571318 -0.0000017960783395615764
          -0.000002988978144582121 -0.000002988370536231464 -0.000002986596431552888 -0.000002360691468100862 -0.0000023597602027089823 -0.000002356942945825172
          -0.000003920051703656575 -0.000003919592888550816 -0.000003918215182408539 -0.0000031198490388487808 -0.0000031190927882151697 -0.0000031168853035579206
          -0.000004984518214335384 -0.000004984186288728477 -0.000004983210825535683 -0.000004097387640930977 -0.000004096505103108945 -0.000004093842647806601
          -0.0000061361372242881165 -0.000006135863000347412 -0.000006135072958309578 -0.00000528918664403528 -0.000005287979284936912 -0.000005284470686350731
          -3.267094558383077e-7 0 -3.266885249992205e-7 0 -3.2661847710914917e-7 0
          -6.546845988366272e-7 -6.546349382406149e-7 -6.545174619844068e-7 -9.84659376039029e-7 -9.845631727860793e-7 -9.842305320085462e-7
          -0.0000013163404003349647 -0.0000013163391948369978 -0.0000013163798932981628 -0.0000016501294753425306 -0.0000016498337683456697 -0.0000016489749496237482
          -0.000005123018464819085 -0.0000057547624065858695 -0.000005123617906920849 -0.000005755472782195594 -0.000005125484552350593 -0.000005757736076302926
          -0.000003763023925926042 -0.000004278423629682709 -0.000003386566359538989 -0.0000037626655148719345 -0.0000042784241992698924 -0.0000033863314842327574
          -0.0000037616039154803808 -0.000004278389662029282 -0.000003385681951349977 -0.0000064491062107143165 -0.000006449064574012708 -0.000006449094410244837
          -0.000006310925155870059 -0.000006311324015034556 -0.000006312484239611471 -0.000004115870455890662 -0.000004116074233608851 -0.000004116689218156531
          -0.000002888696554868161 -0.0000028881931002764594 -0.0000028866772537941952 -0.000003824046062157668 -0.000003823676031194589 -0.000003822555208119797
          -0.000004855214184400407 -0.0000048550625360803495 -0.000004854639106696141 -0.000005936246151749428 -0.000005936311587459825 -0.000005936555883990039
          -0.000007019576717992141 -0.000007019723256531856 -0.000007020257380785271 -3.372782724932193e-7 0 -3.3725783784067234e-7
          0 -3.371991134177938e-7 0 -6.750625838909823e-7 -6.750245876860065e-7 -6.749023757207231e-7
          -0.0000010130936996675755 -0.000001013036019564658 -0.0000010128833627855003 -0.0000013507973982386451 -0.000001350681526835275 -0.00000135030250469816
          -0.0000016886965847792766 -0.0000016886663399650661 -0.0000016886134402206604 -0.0000020368360979358605 -0.000002035857813641061 -0.000002032852945236025
          -0.000002029508126103543 -0.0000020290806492395335 -0.0000020278114635517683 -0.0000026038960200680114 -0.000002602866335177148 -0.0000025997798108407305
          -0.0000034293368174755484 -0.000003428121724395405 -0.000003424500715537357 -0.000004561088132882702 -0.0000045593617178138384 -0.000004554145046637384
        </DataArray>
        <DataArray type="Float64" Name="disp_z" format="ascii" RangeMin="-4.85497782964426e-7" RangeMax="0">
          0 0 0 0 -1.5968045629359575e-7 -1.7892119155124885e-7
          -1.85932469973675e-7 -1.5795442453907955e-7 -3.202754808828614e-7 -3.5849499718645593e-7 -3.732397786288087e-7 -3.169165416492155e-7
          0 0 0 0 -1.5250802176996979e-7 -1.434978794116626e-7
          -1.495304723566085e-7 -1.578902849337825e-7 -3.048486926873858e-7 -2.869967711360053e-7 -2.988220806623616e-7 -3.155111511487408e-7
          0 0 0 0 -8.776159232050928e-8 -9.412694038835357e-8
          -8.449062041394681e-8 -6.16671835048593e-8 -1.7436276158567851e-7 -1.891053407476364e-7 -1.6752922910194992e-7 -1.2686058865829948e-7
          0 0 0 0 -1.9998084077409997e-7 -1.7660752863315805e-7
          -1.7936424823465927e-7 -2.01533332611034e-7 -3.995950582066224e-7 -3.533321342276168e-7 -3.590778195664059e-7 -4.0292059048851056e-7
          0 0 0 0 -1.7305440393335428e-7 -1.7193526128700203e-7
          -1.7212146184109534e-7 -1.7394274368785778e-7 -3.4589262002521576e-7 -3.4352547712344876e-7 -3.4390496499309e-7 -3.475954494675132e-7
          0 0 0 0 -1.2512125003939117e-7 -1.282853822873746e-7
          -1.4024000874010202e-7 -1.3765822325645105e-7 -2.506572319790289e-7 -2.568009981974859e-7 -2.807183231197375e-7 -2.7571869062979467e-7
          0 0 0 -1.5919559870113307e-7 -1.531330261122518e-7 -1.4765653172709483e-7
          -3.1820980555699237e-7 -3.061536844508707e-7 -2.9529037868148913e-7 0 0 -1.3261941094376994e-7
          -1.400114132480705e-7 -2.6546758093179407e-7 -2.8018879389539497e-7 0 0 0
          0 -1.4139510010840375e-7 -1.54156477876073e-7 -1.5557776249980013e-7 -1.452571755568012e-7 -2.8270062842591846e-7
          -3.081387472811166e-7 -3.1102287148328103e-7 -2.9023305365075385e-7 0 0 -1.5782479630717197e-7
          -1.5982620508818592e-7 -3.1582253807069255e-7 -3.1993752682119227e-7 0 0 -1.3815787052209612e-7
          -1.4258937178330434e-7 -2.7655654809916507e-7 -2.8534353059493877e-7 0 0 0
          -1.0031131117981287e-7 -9.50250591793356e-8 -8.08604268317302e-8 -2.0102190899132291e-7 -1.9023110973263954e-7 -1.6213792499460619e-7
          0 0 -1.3704907087369324e-7 -1.2408726339246286e-7 -2.744951009660785e-7 -2.4852802506741546e-7
          0 0 0 0 -1.3128793980905635e-7 -1.357743815258024e-7
          -1.4105479822580357e-7 -1.3822173615335283e-7 -2.626452444376795e-7 -2.717664726354037e-7 -2.82204671881357e-7 -2.76481462779818e-7
          0 0 0 -1.6288845432776319e-7 -1.641591985854414e-7 -1.679756739985746e-7
          -3.256354470565295e-7 -3.2817665728658864e-7 -3.3569277552341963e-7 0 -1.802251074207748e-7 -3.60642939547785e-7
          0 0 0 -1.4155084691972348e-7 -1.3598866714014496e-7 -1.456728909171719e-7
          -2.833364599322442e-7 -2.722667495106585e-7 -2.9153399913464284e-7 0 0 0
          -1.6223945352731867e-7 -1.5473537964350616e-7 -1.5562960237680553e-7 -3.242314680365616e-7 -3.0940803392990117e-7 -3.111489169787532e-7
          0 0 0 -1.5204929508055183e-7 -1.5422441985544555e-7 -1.4006843008131514e-7
          -3.0472961982556204e-7 -3.0907122172354987e-7 -2.8086069831189456e-7 0 0 -1.4234687849741076e-7
          -1.4066538647853136e-7 -2.85122099712044e-7 -2.8183185112994906e-7 0 0 -1.1314738067305887e-7
          -1.1581543341547062e-7 -2.264911124382393e-7 -2.3171448773479518e-7 0 -2.431608964293915e-7 -4.85497782964426e-7
          0 0 -1.598078358536757e-7 -1.5477517264763556e-7 -3.194237814560395e-7 -3.0883723874038985e-7
          0 0 -1.4501504609788362e-7 -1.444790325189445e-7 -2.901472533650748e-7 -2.890356594450025e-7
          0 -1.3921164830185576e-7 -2.785902178478176e-7 0 0 0
          0 -1.0947470666097256e-7 -1.1591383101085687e-7 -1.1836210632826771e-7 -1.1225511432279989e-7 -2.1932300780659764e-7
          -2.3194018885833747e-7 -2.3695949851959302e-7 -2.2484840722300493e-7 0 -9.667479371283952e-8 -1.9326991104507804e-7
          0 0 -8.64562998656592e-8 -1.010849868169844e-7 -1.7306536481457824e-7 -2.021220408650252e-7
          0 0 -1.5970112813244863e-7 -1.4545904954095042e-7 -3.198416054721441e-7 -2.9147477178107846e-7
          0 -1.6941021861586924e-7 -3.3840305292372936e-7 0 0 -1.377140555667542e-7
          -1.2478381432270492e-7 -2.7537422823631165e-7 -2.4953407230249954e-7 0 0 0
          0 -1.2738778135461657e-7 -1.2242062061706322e-7 -1.1559587526680911e-7 -1.241816767213637e-7 -2.549158524386334e-7
          -2.4492569180573056e-7 -2.313149573163914e-7 -2.485483275950914e-7 0 0 -1.6597178301913408e-7
          -1.6305302458002884e-7 -3.317753862421645e-7 -3.259123581332131e-7 0 0 0
          0 -1.4873861317580332e-7 -1.395113380905723e-7 -1.2353269925974617e-7 -1.300409205737445e-7 -2.97863409022526e-7
          -2.7864213837837664e-7 -2.470158701356955e-7 -2.598147251736449e-7 0 -1.5908014366293294e-7 -3.183145650642303e-7
          0 0 -1.1543703304041717e-7 -1.1709653196169104e-7 -2.3159780145567678e-7 -2.3459298137437395e-7
          0 0 -1.3627416573160338e-7 -1.3706731613461688e-7 -2.7282119275132e-7 -2.7451824961889595e-7
          0 -1.5091342382557905e-7 -3.022241682818494e-7 0 0 -1.4919754252525558e-7
          -1.4907652423703367e-7 -2.986084524252336e-7 -2.983854122398645e-7 0 0 -1.5498284768651216e-7
          -1.5021289979222253e-7 -3.101625577761185e-7 -3.010734232304462e-7 0 0 -1.5762574360126258e-7
          -1.6896053954477509e-7 -3.1547907068363736e-7 -3.3792717932907145e-7 0 -1.4934452176746214e-7 -2.9900800173249506e-7
          0 0 -1.2947737067773865e-7 -1.356075530470463e-7 -2.591769918666449e-7 -2.714134589595917e-7
          0 0 -1.6580428971183146e-7 -1.5901014365680124e-7 -3.318106659465034e-7 -3.180629011265565e-7
          0 0 0 -1.7192327030529092e-7 -1.5267182343148528e-7 -1.7420605762517253e-7
          -3.4425634362783687e-7 -3.0554842593172135e-7 -3.486882275499778e-7 0 -1.735445995810343e-7 -3.475947745539578e-7
          0 0 -1.218508650718524e-7 -1.2479550561778447e-7 -2.439076228428027e-7 -2.498822398001381e-7
          0 0 -1.4560322708188592e-7 -1.4809956996447016e-7 -2.9135402281110335e-7 -2.961856383288264e-7
          0 0 -1.103354460407111e-7 -1.2897527974108062e-7 -2.207019054156248e-7 -2.5816633601632305e-7
          0 0 -1.290767391869306e-7 -1.1799840189801259e-7 -2.586504102098243e-7 -2.3620007347108202e-7
          0 0 0 -2.057632757038818e-7 -1.788616893477687e-7 -1.9595503722472982e-7
          -4.1100890278492565e-7 -3.5763800441995595e-7 -3.915467077663069e-7 0 -2.0150214112304425e-7 -4.027453382257554e-7
          0 -1.3575557299417104e-7 -2.7169108863814276e-7 0 -2.1256649889065176e-7 -4.2445591994132534e-7
          0 -1.8110723441900355e-7 -3.6241643397994535e-7 0 -1.496251808800906e-7 -2.9931007537300595e-7
          0 -1.2709979236634734e-7 -2.544006068954533e-7 0 -2.1578493256909022e-7 -4.3117082775612736e-7
          0 -1.9042828598922664e-7 -3.809508791617513e-7 0 0 -1.5643827900494643e-7
          -1.6686166257696766e-7 -3.137682250260962e-7 -3.349872349165082e-7 0 0 -1.382585339136062e-7
          -1.3898204665355614e-7 -2.770352546761106e-7 -2.7865355012873565e-7 0 -2.0911993214959145e-7 -4.1775345035264545e-7
          0 0 -1.1743797531368455e-7 -1.224439949090703e-7 -2.3530221858104038e-7 -2.453492029984834e-7
          0 0 -8.997988679569124e-8 -7.39279689014384e-8 -1.8045422590804976e-7 -1.4707486798945381e-7
          0 -1.2527245590325774e-7 -2.502758449505891e-7 0 -1.977740769870055e-7 -3.9607755146797114e-7
          0 0 -1.5388034764563976e-7 -1.6262436581980837e-7 -3.073082698428915e-7 -3.2496071645908383e-7
          0 0 -1.0909023334140747e-7 -1.1606554280931989e-7 -2.185941144736126e-7 -2.3239885140642192e-7
          0 -1.8644026029415703e-7 -3.7260081187724605e-7 0 -2.0763088059221635e-7 -4.149661536657206e-7
          0 -1.5162684841746746e-7 -3.034920430043873e-7 0 0 -1.0726738222334774e-7
          -1.064352113771716e-7 -2.1511106320522718e-7 -2.132452574789764e-7 0 -1.489701340664741e-7 -2.979134390994968e-7
          0 0 0 0 -1.7356839513606492e-7 -1.714692053918535e-7
          -1.6590497449908194e-7 -1.6992105689439204e-7 -3.4688674456108526e-7 -3.426176507970369e-7 -3.314952469288093e-7 -3.3956769566979873e-7
          0 0 -1.246551600099736e-7 -1.3299145079383191e-7 -2.4965679425799516e-7 -2.6596919810716957e-7
          0 -1.6734327486141653e-7 -3.34543980591955e-7 0 0 -1.619223958834983e-7
          -1.6836429655700934e-7 -3.236511733565198e-7 -3.364970529642481e-7 0 0 -1.4751010818993551e-7
          -1.4533333842219492e-7 -2.9499886328108623e-7 -2.905783768931161e-7 0 -1.5249490542141783e-7 -3.049797775577871e-7
          0 -1.4705413450481713e-7 -2.941625880842094e-7 0 -1.5564959294823228e-7 -3.110070536904302e-7
          0 0 -1.110157066647761e-7 -1.0880997503193555e-7 -2.2262360198764902e-7 -2.184488845299204e-7
          0 -1.51279045058134e-7 -3.0233339529476155e-7 0 0 0
          -1.264669019986772e-7 -1.1763056328732834e-7 -1.252901380202944e-7 -2.530407619707359e-7 -2.3529659639557072e-7 -2.5059418614461935e-7
          0 -1.4362564889084632e-7 -2.870454248652609e-7 0 0 0
          -1.3747992856348649e-7 -1.5137378866124303e-7 -1.4518289765960577e-7 -2.751390239691618e-7 -3.029130171343735e-7 -2.9013480666511233e-7
          0 -1.7431202388245246e-7 -3.484042941071753e-7 0 -1.4384743229795115e-7 -2.8782481937280117e-7
          0 -1.0655991290559619e-7 -2.134322616630499e-7 0 -1.2580898693740772e-7 -2.5182518791789695e-7
          0 0 -1.57382648769919e-7 -1.621607560337585e-7 -3.1427279932531307e-7 -3.241586109747446e-7
          0 -1.458707018272115e-7 -2.916795637377278e-7 0 0 -1.1504082838041061e-7
          -1.0977461751296096e-7 -2.307669315292114e-7 -2.201522790741654e-7 0 0 -1.543064848261395e-7
          -1.4696096795880805e-7 -3.082980171250609e-7 -2.9435381709226154e-7 0 0 -1.454219894937943e-7
          -1.3647278152970212e-7 -2.9047419310890673e-7 -2.727188761809918e-7 0 0 -1.2133810118694999e-7
          -1.287552778454882e-7 -2.4272147756082454e-7 -2.5747763551645584e-7 0 0 0
          -1.6937185596776653e-7 -1.680987713457701e-7 -1.5952598413818555e-7 -3.3859797378097706e-7 -3.3578958759762447e-7 -3.1861977336415704e-7
          0 -1.3453324885759468e-7 -2.690031672665147e-7 0 -1.469752006881587e-7 -2.937806958581747e-7
          0 -1.7265804479029964e-7 -3.450231911952072e-7 0 -1.0901345576879542e-7 -2.178868794603405e-7
          0 0 0 -1.1711835966608828e-7 -1.0371395214981346e-7 -1.1217549755646924e-7
          -2.3433463105904794e-7 -2.073594036019185e-7 -2.2461611141519041e-7 0 -1.3192075005180814e-7 -2.642938694092795e-7
          0 -1.242430254265588e-7 -2.4861292024484584e-7 0 0 -1.1859766243166164e-7
          -1.11163723881025e-7 -2.371391080051368e-7 -2.2221447308531245e-7 0 -9.002749585480866e-8 -1.8009104464127138e-7
          0 -1.1441836707563788e-7 -2.2913532378257956e-7 0 -7.317409035353412e-8 -1.4560342558515634e-7
          0 -7.867319110864834e-8 -1.573433392455313e-7 0 -6.242799299064044e-8 -1.2496358047164247e-7
          0 -5.518707053159863e-8 -1.1094055579266324e-7 0 0 -5.860129845261528e-8
          -6.133689655645719e-8 -1.1713369966642161e-7 -1.225873679802743e-7 0 0 -6.186573059104614e-8
          -6.085503549606813e-8 -1.2371071056174748e-7 -1.2169829158981845e-7 0 0 -6.15857604510545e-8
          -6.151506743453769e-8 -1.2318462440102686e-7 -1.2304350786348724e-7 0 -6.355107108655399e-8 -1.2717441654996936e-7
          0 -6.137611671262032e-8 -1.2276536185735464e-7 0 -6.272759412333709e-8 -1.2544774051721307e-7
          0 -7.251319959797448e-8 -1.4514120391462476e-7 0 -6.197086574936626e-8 -1.252048672950969e-7
          0 -6.408681192578398e-8 -1.2785126331084698e-7 0 -8.756721596585435e-8 -1.7514772826059124e-7
          0 -7.282163493100218e-8 -1.4536093011721275e-7 0 -6.442392288852e-8 -1.289968034718791e-7
          0 -8.886889649731542e-8 -1.7779338386484022e-7 0 -7.39975932774609e-8 -1.4804826675748575e-7
          0 -1.0136115854219693e-7 -2.0264604008664968e-7 0 -9.198633064823373e-8 -1.8395360034321104e-7
          0 -1.1179628162352021e-7 -2.235808060103511e-7 0 -1.079786232904217e-7 -2.1591947046446528e-7
          0 -1.1915200710686158e-7 -2.3830293372227122e-7 0 -1.2237757860294928e-7 -2.4475926771903157e-7
          0 -1.246976865957356e-7 -2.4942981587487433e-7 0 -1.4311678870091526e-7 -2.861924818278174e-7
          0 0 -6.137418661697474e-8 -6.111417475367737e-8 -1.2274242396799968e-7 -1.2222134763687233e-7
          0 -6.197714530809313e-8 -1.2396019992501756e-7 0 -6.311264762526333e-8 -1.2628530457280938e-7
          0 -6.516465288376396e-8 -1.3033650507985683e-7 0 -6.50753906070441e-8 -1.3019830624270526e-7
          0 0 -1.0910842929762286e-7 -1.0238341617228281e-7 -2.1828158033250718e-7 -2.0497121934591448e-7
          0 0 0 -1.0521567633176386e-7 -1.0957170662515094e-7 -1.0766821549520067e-7
          -2.104018422156128e-7 -2.1905559450531162e-7 -2.153262717912102e-7 0 -1.2134723226348858e-7 -2.4284136312373425e-7
          0 -1.0705900370068525e-7 -2.1443335694298888e-7 0 -1.1174521230873059e-7 -2.2338827714149954e-7
          0 -9.90212304374251e-8 -1.980007896226502e-7 0 -1.0770516770212433e-7 -2.1538929227837002e-7
          0 -1.1288848903971e-7 -2.2573446410670126e-7 0 -1.1326062301146253e-7 -2.2650223595669182e-7
          0 -1.1037623791344764e-7 -2.2078688536355484e-7 0 0 -6.044617269674832e-8
          -6.027025152176903e-8 -1.208942955129314e-7 -1.2054074604932368e-7 0 -6.102305164216011e-8 -1.2204636975377536e-7
          0 -6.198510233848778e-8 -1.2396275860807088e-7 0 -6.337230785585744e-8 -1.267159005500014e-7
          0 -6.578532894143747e-8 -1.316242892471134e-7 0 -7.86422136824335e-8 -1.5733553850374332e-7
          0 -6.711757688197896e-8 -1.3425691032462374e-7 0 -9.990388804747974e-8 -1.9975975343812685e-7
          0 -1.190979229419527e-7 -2.3808200388023268e-7 0 -1.4918637725302546e-7 -2.9830334284180725e-7
        </DataArray>
      </PointData>
      <CellData>
        <DataArray type="Int32" Name="libmesh_elem_id" format="ascii" RangeMin="1386" RangeMax="3465">
          1386 1387 1390 1391 1394 1395
          1400 1401 1406 1407 1410 1411
          1420 1421 1424 1425 1426 1427
          1432 1433 1436 1437 1444 1445
          1446 1447 1450 1451 1462 1463
          1466 1467 1474 1475 1498 1499
          1504 1505 1508 1509 1514 1515
          1524 1525 1526 1527 1530 1531
          1540 1541 1550 1551 1552 1553
          1554 1555 1578 1579 1588 1589
          1592 1593 1594 1595 1596 1597
          1598 1599 1600 1601 1606 1607
          1662 1663 1698 1699 1702 1703
          1712 1713 1726 1727 1730 1731
          1734 1735 1748 1749 1752 1753
          1774 1775 1778 1779 1834 1835
          1854 1855 1872 1873 1892 1893
          1894 1895 1896 1897 1902 1903
          1914 1915 1920 1921 1922 1923
          1932 1933 1942 1943 1944 1945
          1988 1989 2000 2001 2010 2011
          2024 2025 2070 2071 2100 2101
          2112 2113 2132 2133 2140 2141
          2150 2151 2166 2167 2206 2207
          2218 2219 2238 2239 2242 2243
          2244 2245 2256 2257 2258 2259
          2268 2269 2278 2279 2284 2285
          2306 2307 2334 2335 2340 2341
          2360 2361 2372 2373 2392 2393
          2396 2397 2398 2399 2418 2419
          2422 2423 2426 2427 2432 2433
          2434 2435 2436 2437 2476 2477
          2480 2481 2482 2483 2518 2519
          2534 2535 2540 2541 2542 2543
          2546 2547 2556 2557 2562 2563
          2568 2569 2574 2575 2584 2585
          2588 2589 2598 2599 2612 2613
          2638 2639 2656 2657 2664 2665
          2678 2679 2682 2683 2702 2703
          2704 2705 2708 2709 2720 2721
          2724 2725 2734 2735 2738 2739
          2742 2743 2746 2747 2774 2775
          2788 2789 2790 2791 2804 2805
          2806 2807 2834 2835 2840 2841
          2844 2845 2850 2851 2854 2855
          2858 2859 2872 2873 2888 2889
          2892 2893 2896 2897 2908 2909
          2912 2913 2916 2917 2918 2919
          2924 2925 2932 2933 2944 2945
          2972 2973 2984 2985 2996 2997
          3000 3001 3002 3003 3022 3023
          3024 3025 3030 3031 3032 3033
          3044 3045 3048 3049 3080 3081
          3092 3093 3108 3109 3120 3121
          3130 3131 3136 3137 3140 3141
          3142 3143 3146 3147 3150 3151
          3160 3161 3162 3163 3164 3165
          3170 3171 3172 3173 3174 3175
          3178 3179 3186 3187 3188 3189
          3198 3199 3216 3217 3218 3219
          3228 3229 3232 3233 3238 3239
          3242 3243 3246 3247 3250 3251
          3256 3257 3260 3261 3262 3263
          3266 3267 3268 3269 3270 3271
          3272 3273 3274 3275 3276 3277
          3278 3279 3280 3281 3282 3283
          3284 3285 3286 3287 3288 3289
          3290 3291 3292 3293 3294 3295
          3298 3299 3300 3301 3304 3305
          3306 3307 3310 3311 3312 3313
          3316 3317 3318 3319 3320 3321
          3322 3323 3338 3339 3340 3341
          3356 3357 3358 3359 3374 3375
          3376 3377 3392 3393 3394 3395
          3410 3411 3412 3413 3428 3429
          3446 3447 3464 3465
        </DataArray>
        <DataArray type="Int32" Name="subdomain_id" format="ascii" RangeMin="107" RangeMax="109">
          107 107 107 107 107 107
          107 107 107 107 107 107
          107 107 107 107 107 107
          107 107 107 107 107 107
          107 107 107 107 107 107
          107 107 107 107 107 107
          107 107 107 107 107 107
          107 107 107 107 107 107
          107 107 107 107 107 107
          107 107 107 107 107 107
          107 107 107 107 107 107
          107 107 107 107 107 107
          107 107 107 107 107 107
          107 107 107 107 107 107
          107 107 107 107 107 107
          107 107 107 107 107 107
          107 107 107 107 107 107
          107 107 107 107 107 107
          107 107 107 107 107 107
          107 107 107 107 107 107
          107 107 107 107 107 107
          107 107 107 107 107 107
          107 107 107 107 107 107
          107 107 107 107 107 107
          107 107 107 107 107 107
          107 107 107 107 107 107
          107 107 107 107 107 107
          107 107 107 107 107 107
          107 107 107 107 107 107
          107 107 107 107 107 107
          107 107 107 107 107 107
          107 107 107 107 107 107
          107 107 107 107 107 107
          107 107 107 107 107 107
          107 107 107 107 107 107
          107 107 107 107 107 107
          107 107 107 107 107 107
          107 107 107 107 107 107
          107 107 107 107 107 107
          107 107 107 107 107 107
          107 107 107 107 107 107
          107 107 107 107 107 107
          107 107 107 107 107 107
          107 107 107 107 107 107
          107 107 107 107 107 107
          107 107 107 107 107 107
          107 107 107 107 107 107
          107 107 107 107 107 107
          107 107 107 107 107 107
          107 107 107 107 107 107
          107 107 107 107 107 107
          107 107 107 107 107 107
          107 107 107 107 107 107
          107 107 107 107 107 107
          107 107 107 107 107 107
          107 107 107 107 107 107
          107 107 107 107 107 107
          107 107 107 107 107 107
          107 107 107 107 107 107
          107 107 107 107 107 107
          107 107 107 107 107 107
          107 107 107 107 107 107
          107 107 107 107 107 107
          108 108 108 108 108 108
          108 108 108 108 108 108
          108 108 108 108 108 108
          108 108 108 108 108 108
          108 108 108 108 108 108
          108 108 108 108 108 108
          108 108 108 108 108 108
          108 108 108 108 109 109
          109 109 109 109 109 109
          109 109 109 109 109 109
          109 109 109 109 109 109
          109 109 109 109 109 109
          109 109 109 109
        </DataArray>
        <DataArray type="Int32" Name="processor_id" format="ascii" RangeMin="1" RangeMax="1">
          1 1 1 1 1 1
          1 1 1 1 1 1
          1 1 1 1 1 1
          1 1 1 1 1 1
          1 1 1 1 1 1
          1 1 1 1 1 1
          1 1 1 1 1 1
          1 1 1 1 1 1
          1 1 1 1 1 1
          1 1 1 1 1 1
          1 1 1 1 1 1
          1 1 1 1 1 1
          1 1 1 1 1 1
          1 1 1 1 1 1
          1 1 1 1 1 1
          1 1 1 1 1 1
          1 1 1 1 1 1
          1 1 1 1 1 1
          1 1 1 1 1 1
          1 1 1 1 1 1
          1 1 1 1 1 1
          1 1 1 1 1 1
          1 1 1 1 1 1
          1 1 1 1 1 1
          1 1 1 1 1 1
          1 1 1 1 1 1
          1 1 1 1 1 1
          1 1 1 1 1 1
          1 1 1 1 1 1
          1 1 1 1 1 1
          1 1 1 1 1 1
          1 1 1 1 1 1
          1 1 1 1 1 1
          1 1 1 1 1 1
          1 1 1 1 1 1
          1 1 1 1 1 1
          1 1 1 1 1 1
          1 1 1 1 1 1
          1 1 1 1 1 1
          1 1 1 1 1 1
          1 1 1 1 1 1
          1 1 1 1 1 1
          1 1 1 1 1 1
          1 1 1 1 1 1
          1 1 1 1 1 1
          1 1 1 1 1 1
          1 1 1 1 1 1
          1 1 1 1 1 1
          1 1 1 1 1 1
          1 1 1 1 1 1
          1 1 1 1 1 1
          1 1 1 1 1 1
          1 1 1 1 1 1
          1 1 1 1 1 1
          1 1 1 1 1 1
          1 1 1 1 1 1
          1 1 1 1 1 1
          1 1 1 1 1 1
          1 1 1 1 1 1
          1 1 1 1 1 1
          1 1 1 1 1 1
          1 1 1 1 1 1
          1 1 1 1 1 1
          1 1 1 1 1 1
          1 1 1 1 1 1
          1 1 1 1 1 1
          1 1 1 1 1 1
          1 1 1 1 1 1
          1 1 1 1 1 1
          1 1 1 1 1 1
          1 1 1 1 1 1
          1 1 1 1 1 1
          1 1 1 1 1 1
          1 1 1 1 1 1
          1 1 1 1 1 1
          1 1 1 1
        </DataArray>
      </CellData>
      <Points>
        <DataArray type="Float64" Name="Points" NumberOfComponents="3" format="ascii" RangeMin="0.011720201602553146" RangeMax="0.03445906060790294">
          0.012969222910182 0.0014853020742274 0 0.012627852011276 0.0016898182928561 0
          0.01236786906931 0.0013587217336166 0 0.012783325134333 0.0011067100297067 0
          0.012969222910182 0.0014853020742274 0.00015 0.012627852011276 0.0016898182928561 0.00015
          0.01236786906931 0.0013587217336166 0.00015 0.012783325134333 0.0011067100297067 0.00015
          0.012969222910182 0.0014853020742274 0.0003 0.012627852011276 0.0016898182928561 0.0003
          0.01236786906931 0.0013587217336166 0.0003 0.012783325134333 0.0011067100297067 0.0003
          0.017563073004652 0.0017425656775748 0 0.017044554764736 0.0015497457581888 0
          0.017260149731535 0.0011385367421141 0 0.017760141546291 0.0012815461285561 0
          0.017563073004652 0.0017425656775748 0.00015 0.017044554764736 0.0015497457581888 0.00015
          0.017260149731535 0.0011385367421141 0.00015 0.017760141546291 0.0012815461285561 0.00015
          0.017563073004652 0.0017425656775748 0.0003 0.017044554764736 0.0015497457581888 0.0003
          0.017260149731535 0.0011385367421141 0.0003 0.017760141546291 0.0012815461285561 0.0003
          0.023776898874178 0.0022456328082928 0 0.023504823460796 0.0016933718681226 0
          0.023764932341086 0.0012053538973125 0 0.025 0.0014444444444417 0
          0.023776898874178 0.0022456328082928 0.00015 0.023504823460796 0.0016933718681226 0.00015
          0.023764932341086 0.0012053538973125 0.00015 0.025 0.0014444444444417 0.00015
          0.023776898874178 0.0022456328082928 0.0003 0.023504823460796 0.0016933718681226 0.0003
          0.023764932341086 0.0012053538973125 0.0003 0.025 0.0014444444444417 0.0003
          0.014128459199836 0.0039835282877348 0 0.014611363502717 0.0036877867763913 0
          0.015005639561329 0.0040763460944633 0 0.014554004584986 0.0044253882271801 0
          0.014128459199836 0.0039835282877348 0.00015 0.014611363502717 0.0036877867763913 0.00015
          0.015005639561329 0.0040763460944633 0.00015 0.014554004584986 0.0044253882271801 0.00015
          0.014128459199836 0.0039835282877348 0.0003 0.014611363502717 0.0036877867763913 0.0003
          0.015005639561329 0.0040763460944633 0.0003 0.014554004584986 0.0044253882271801 0.0003
          0.019696280766899 0.00050763342021358 0 0.019550033943553 0.0010320458815065 0
          0.01900444612813 0.00098950685152215 0 0.019158982336274 0.00048623495360749 0
          0.019696280766899 0.00050763342021358 0.00015 0.019550033943553 0.0010320458815065 0.00015
          0.01900444612813 0.00098950685152215 0.00015 0.019158982336274 0.00048623495360749 0.00015
          0.019696280766899 0.00050763342021358 0.0003 0.019550033943553 0.0010320458815065 0.0003
          0.01900444612813 0.00098950685152215 0.0003 0.019158982336274 0.00048623495360749 0.0003
          0.014859009547347 0.0018414606933245 0 0.015407964407671 0.0020438178723745 0
          0.01515544156871 0.0026588338800995 0 0.014598102610542 0.0022982704245768 0
          0.014859009547347 0.0018414606933245 0.00015 0.015407964407671 0.0020438178723745 0.00015
          0.01515544156871 0.0026588338800995 0.00015 0.014598102610542 0.0022982704245768 0.00015
          0.014859009547347 0.0018414606933245 0.0003 0.015407964407671 0.0020438178723745 0.0003
          0.01515544156871 0.0026588338800995 0.0003 0.014598102610542 0.0022982704245768 0.0003
          0.018126604709057 0.0019215066283495 0 0.017910174904861 0.0024312076221655 0
          0.017342980714859 0.0022157520731189 0 0.018126604709057 0.0019215066283495 0.00015
          0.017910174904861 0.0024312076221655 0.00015 0.017342980714859 0.0022157520731189 0.00015
          0.018126604709057 0.0019215066283495 0.0003 0.017910174904861 0.0024312076221655 0.0003
          0.017342980714859 0.0022157520731189 0.0003 0.015995561521593 0.0022418351865966 0
          0.01581460170494 0.0027743126456578 0 0.015995561521593 0.0022418351865966 0.00015
          0.01581460170494 0.0027743126456578 0.00015 0.015995561521593 0.0022418351865966 0.0003
          0.01581460170494 0.0027743126456578 0.0003 0.021203243478062 0.0026574159093233 0
          0.020454986610371 0.0022211941162512 0 0.020632218270446 0.001642443645643 0
          0.021442904813338 0.0016925342242502 0 0.021203243478062 0.0026574159093233 0.00015
          0.020454986610371 0.0022211941162512 0.00015 0.020632218270446 0.001642443645643 0.00015
          0.021442904813338 0.0016925342242502 0.00015 0.021203243478062 0.0026574159093233 0.0003
          0.020454986610371 0.0022211941162512 0.0003 0.020632218270446 0.001642443645643 0.0003
          0.021442904813338 0.0016925342242502 0.0003 0.015000171033694 0.0033600360828681 0
          0.015396645228865 0.0036775895732469 0 0.015000171033694 0.0033600360828681 0.00015
          0.015396645228865 0.0036775895732469 0.00015 0.015000171033694 0.0033600360828681 0.0003
          0.015396645228865 0.0036775895732469 0.0003 0.016564676280502 0.0024636417082771 0
          0.016363912484153 0.0029730068966809 0 0.016564676280502 0.0024636417082771 0.00015
          0.016363912484153 0.0029730068966809 0.00015 0.016564676280502 0.0024636417082771 0.0003
          0.016363912484153 0.0029730068966809 0.0003 0.023072410624366 0.001035238244058 0
          0.023303887517976 0.00051385162283572 0 0.023907474886085 0.00057797945625648 0
          0.023072410624366 0.001035238244058 0.00015 0.023303887517976 0.00051385162283572 0.00015
          0.023907474886085 0.00057797945625648 0.00015 0.023072410624366 0.001035238244058 0.0003
          0.023303887517976 0.00051385162283572 0.0003 0.023907474886085 0.00057797945625648 0.0003
          0.014126846853415 0.0020250855845452 0 0.014376196219822 0.0016213258676016 0
          0.014126846853415 0.0020250855845452 0.00015 0.014376196219822 0.0016213258676016 0.00015
          0.014126846853415 0.0020250855845452 0.0003 0.014376196219822 0.0016213258676016 0.0003
          0.018981322625637 0.0048047339747308 0 0.018357141436072 0.0045551651420339 0
          0.018591751365599 0.0039752866369835 0 0.01916753543825 0.0042045163914746 0
          0.018981322625637 0.0048047339747308 0.00015 0.018357141436072 0.0045551651420339 0.00015
          0.018591751365599 0.0039752866369835 0.00015 0.01916753543825 0.0042045163914746 0.00015
          0.018981322625637 0.0048047339747308 0.0003 0.018357141436072 0.0045551651420339 0.0003
          0.018591751365599 0.0039752866369835 0.0003 0.01916753543825 0.0042045163914746 0.0003
          0.018733892370512 0.0020905204418308 0 0.018302277235643 0.001411928503633 0
          0.018878430913296 0.0015272195647153 0 0.018733892370512 0.0020905204418308 0.00015
          0.018302277235643 0.001411928503633 0.00015 0.018878430913296 0.0015272195647153 0.00015
          0.018733892370512 0.0020905204418308 0.0003 0.018302277235643 0.001411928503633 0.0003
          0.018878430913296 0.0015272195647153 0.0003 0.015535554193674 0.0045828394817383 0
          0.015535554193674 0.0045828394817383 0.00015 0.015535554193674 0.0045828394817383 0.0003
          0.017780760549951 0.0042442262797048 0 0.018018112537919 0.0052480329433742 0
          0.017497318700769 0.0047182001999379 0 0.017780760549951 0.0042442262797048 0.00015
          0.018018112537919 0.0052480329433742 0.00015 0.017497318700769 0.0047182001999379 0.00015
          0.017780760549951 0.0042442262797048 0.0003 0.018018112537919 0.0052480329433742 0.0003
          0.017497318700769 0.0047182001999379 0.0003 0.019494677591535 0.00226139088066 0
          0.019117853172676 0.0029004952170283 0 0.018505903140776 0.002650294613165 0
          0.019494677591535 0.00226139088066 0.00015 0.019117853172676 0.0029004952170283 0.00015
          0.018505903140776 0.002650294613165 0.00015 0.019494677591535 0.00226139088066 0.0003
          0.019117853172676 0.0029004952170283 0.0003 0.018505903140776 0.002650294613165 0.0003
          0.013829014690192 0.0024142080164891 0 0.013458574547778 0.0021218274131508 0
          0.013711742209243 0.0017918189860839 0 0.013829014690192 0.0024142080164891 0.00015
          0.013458574547778 0.0021218274131508 0.00015 0.013711742209243 0.0017918189860839 0.00015
          0.013829014690192 0.0024142080164891 0.0003 0.013458574547778 0.0021218274131508 0.0003
          0.013711742209243 0.0017918189860839 0.0003 0.0133672983588 0.0013583262253912 0
          0.013268156677071 0.00095273786274694 0 0.0133672983588 0.0013583262253912 0.00015
          0.013268156677071 0.00095273786274694 0.00015 0.0133672983588 0.0013583262253912 0.0003
          0.013268156677071 0.00095273786274694 0.0003 0.020151989638292 0.0057951577471947 0
          0.020929132214341 0.005368110675239 0 0.020151989638292 0.0057951577471947 0.00015
          0.020929132214341 0.005368110675239 0.00015 0.020151989638292 0.0057951577471947 0.0003
          0.020929132214341 0.005368110675239 0.0003 0.011634800364854 0.0014122839921498 0
          0.011634800364854 0.0014122839921498 0.00015 0.011634800364854 0.0014122839921498 0.0003
          0.020690070611507 0.0010537467946972 0 0.021241463234904 0.0010007048777636 0
          0.020690070611507 0.0010537467946972 0.00015 0.021241463234904 0.0010007048777636 0.00015
          0.020690070611507 0.0010537467946972 0.0003 0.021241463234904 0.0010007048777636 0.0003
          0.01690585017332 0.0031962434076044 0 0.017120511962154 0.0027019865785896 0
          0.01690585017332 0.0031962434076044 0.00015 0.017120511962154 0.0027019865785896 0.00015
          0.01690585017332 0.0031962434076044 0.0003 0.017120511962154 0.0027019865785896 0.0003
          0.016801656731456 0.0019822328720047 0 0.016801656731456 0.0019822328720047 0.00015
          0.016801656731456 0.0019822328720047 0.0003 0.015193226280812 0.00045041659473928 0
          0.015698309574236 0.00047366638839958 0 0.015648437383567 0.00097128418016613 0
          0.015127663000402 0.00090574444628299 0 0.015193226280812 0.00045041659473928 0.00015
          0.015698309574236 0.00047366638839958 0.00015 0.015648437383567 0.00097128418016613 0.00015
          0.015127663000402 0.00090574444628299 0.00015 0.015193226280812 0.00045041659473928 0.0003
          0.015698309574236 0.00047366638839958 0.0003 0.015648437383567 0.00097128418016613 0.0003
          0.015127663000402 0.00090574444628299 0.0003 0.025 0.0057777777777625 0
          0.025 0.0057777777777625 0.00015 0.025 0.0057777777777625 0.0003
          0.025 0.0043333333333224 0 0.023896353247243 0.0043894596145303 0
          0.025 0.0043333333333224 0.00015 0.023896353247243 0.0043894596145303 0.00015
          0.025 0.0043333333333224 0.0003 0.023896353247243 0.0043894596145303 0.0003
          0.013179014717582 0.001822526704721 0 0.013420070576712 0.0016525675047962 0
          0.013179014717582 0.001822526704721 0.00015 0.013420070576712 0.0016525675047962 0.00015
          0.013179014717582 0.001822526704721 0.0003 0.013420070576712 0.0016525675047962 0.0003
          0.01946472134525 0.0015844882179861 0 0.01946472134525 0.0015844882179861 0.00015
          0.01946472134525 0.0015844882179861 0.0003 0.019738918970445 0.0042679072806348 0
          0.019737200842686 0.0050366958134185 0 0.019738918970445 0.0042679072806348 0.00015
          0.019737200842686 0.0050366958134185 0.00015 0.019738918970445 0.0042679072806348 0.0003
          0.019737200842686 0.0050366958134185 0.0003 0.018801022408002 0.0054477015438504 0
          0.019301386887175 0.0055580415356932 0 0.019427042946373 0.0060730727381959 0
          0.018733542944404 0.0061279994653871 0 0.018801022408002 0.0054477015438504 0.00015
          0.019301386887175 0.0055580415356932 0.00015 0.019427042946373 0.0060730727381959 0.00015
          0.018733542944404 0.0061279994653871 0.00015 0.018801022408002 0.0054477015438504 0.0003
          0.019301386887175 0.0055580415356932 0.0003 0.019427042946373 0.0060730727381959 0.0003
          0.018733542944404 0.0061279994653871 0.0003 0.020038894590203 0.0015918984718873 0
          0.020014763899096 0.0020069766457038 0 0.020038894590203 0.0015918984718873 0.00015
          0.020014763899096 0.0020069766457038 0.00015 0.020038894590203 0.0015918984718873 0.0003
          0.020014763899096 0.0020069766457038 0.0003 0.02163606673442 0.0008902471917336 0
          0.021744201350165 0.00049421716196859 0 0.022190644598282 0.0005058615377216 0
          0.021944604947084 0.0011684672971015 0 0.02163606673442 0.0008902471917336 0.00015
          0.021744201350165 0.00049421716196859 0.00015 0.022190644598282 0.0005058615377216 0.00015
          0.021944604947084 0.0011684672971015 0.00015 0.02163606673442 0.0008902471917336 0.0003
          0.021744201350165 0.00049421716196859 0.0003 0.022190644598282 0.0005058615377216 0.0003
          0.021944604947084 0.0011684672971015 0.0003 0.015913060403389 0.0039637658470315 0
          0.015913060403389 0.0039637658470315 0.00015 0.015913060403389 0.0039637658470315 0.0003
          0.014558693053864 0.0012292895498017 0 0.015031644896308 0.0013689537442351 0
          0.014558693053864 0.0012292895498017 0.00015 0.015031644896308 0.0013689537442351 0.00015
          0.014558693053864 0.0012292895498017 0.0003 0.015031644896308 0.0013689537442351 0.0003
          0.018057579772584 0.0060827128421873 0 0.018070157245618 0.0068021820766994 0
          0.018057579772584 0.0060827128421873 0.00015 0.018070157245618 0.0068021820766994 0.00015
          0.018057579772584 0.0060827128421873 0.0003 0.018070157245618 0.0068021820766994 0.0003
          0.017413401850906 0.0060417176080878 0 0.017413401850906 0.0060417176080878 0.00015
          0.017413401850906 0.0060417176080878 0.0003 0.016169389215855 0.0034677229039223 0
          0.015655980876909 0.003250339095381 0 0.016169389215855 0.0034677229039223 0.00015
          0.015655980876909 0.003250339095381 0.00015 0.016169389215855 0.0034677229039223 0.0003
          0.015655980876909 0.003250339095381 0.0003 0.014652329158707 0.0030238496825634 0
          0.015285307382498 0.0031101507370722 0 0.014652329158707 0.0030238496825634 0.00015
          0.015285307382498 0.0031101507370722 0.00015 0.014652329158707 0.0030238496825634 0.0003
          0.015285307382498 0.0031101507370722 0.0003 0.016487808895433 0.0042010147125967 0
          0.016291762387835 0.0047307906783276 0 0.016487808895433 0.0042010147125967 0.00015
          0.016291762387835 0.0047307906783276 0.00015 0.016487808895433 0.0042010147125967 0.0003
          0.016291762387835 0.0047307906783276 0.0003 0.017341722495578 0.0054175123203669 0
          0.017341722495578 0.0054175123203669 0.00015 0.017341722495578 0.0054175123203669 0.0003
          0.016251164393845 0.0016133033435965 0 0.016687160352932 0.001374608348519 0
          0.016251164393845 0.0016133033435965 0.00015 0.016687160352932 0.001374608348519 0.00015
          0.016251164393845 0.0016133033435965 0.0003 0.016687160352932 0.001374608348519 0.0003
          0.01678493258985 0.0053840721103251 0 0.016848637368385 0.0048798435935376 0
          0.01678493258985 0.0053840721103251 0.00015 0.016848637368385 0.0048798435935376 0.00015
          0.01678493258985 0.0053840721103251 0.0003 0.016848637368385 0.0048798435935376 0.0003
          0.013915703094631 0.0030656560250288 0 0.01425441565673 0.0027053116394345 0
          0.014277331184122 0.0033493109511997 0 0.013915703094631 0.0030656560250288 0.00015
          0.01425441565673 0.0027053116394345 0.00015 0.014277331184122 0.0033493109511997 0.00015
          0.013915703094631 0.0030656560250288 0.0003 0.01425441565673 0.0027053116394345 0.0003
          0.014277331184122 0.0033493109511997 0.0003 0.013503308513005 0.0027817056572273 0
          0.013503308513005 0.0027817056572273 0.00015 0.013503308513005 0.0027817056572273 0.0003
          0.015571407447371 0.001500509245043 0 0.016188320748251 0.0009824473909215 0
          0.015571407447371 0.001500509245043 0.00015 0.016188320748251 0.0009824473909215 0.00015
          0.015571407447371 0.001500509245043 0.0003 0.016188320748251 0.0009824473909215 0.0003
          0.017456683820944 0.0034405145363726 0 0.017671289470578 0.0029336357035204 0
          0.017456683820944 0.0034405145363726 0.00015 0.017671289470578 0.0029336357035204 0.00015
          0.017456683820944 0.0034405145363726 0.0003 0.017671289470578 0.0029336357035204 0.0003
          0.022716879195272 0.001694170750475 0 0.022069698771397 0.0020298487038736 0
          0.022716879195272 0.001694170750475 0.00015 0.022069698771397 0.0020298487038736 0.00015
          0.022716879195272 0.001694170750475 0.0003 0.022069698771397 0.0020298487038736 0.0003
          0.013893710777701 0.0013389894450257 0 0.014229820502632 0.0011148528015907 0
          0.013893710777701 0.0013389894450257 0.00015 0.014229820502632 0.0011148528015907 0.00015
          0.013893710777701 0.0013389894450257 0.0003 0.014229820502632 0.0011148528015907 0.0003
          0.012674188674928 0.0028095410694266 0 0.013119330518162 0.0024349279719224 0
          0.013248150362312 0.0031919567697963 0 0.012674188674928 0.0028095410694266 0.00015
          0.013119330518162 0.0024349279719224 0.00015 0.013248150362312 0.0031919567697963 0.00015
          0.012674188674928 0.0028095410694266 0.0003 0.013119330518162 0.0024349279719224 0.0003
          0.013248150362312 0.0031919567697963 0.0003 0.012451479243686 0.0021914486022899 0
          0.012451479243686 0.0021914486022899 0.00015 0.012451479243686 0.0021914486022899 0.0003
          0.016782084774574 0.00093367828557597 0 0.016782084774574 0.00093367828557597 0.00015
          0.016782084774574 0.00093367828557597 0.0003 0.013121586466294 0.0036708577033715 0
          0.013121586466294 0.0036708577033715 0.00015 0.013121586466294 0.0036708577033715 0.0003
          0.012837862818801 0.0020433604618052 0 0.012837862818801 0.0020433604618052 0.00015
          0.012837862818801 0.0020433604618052 0.0003 0.016706746155521 0.0036970402910047 0
          0.016706746155521 0.0036970402910047 0.00015 0.016706746155521 0.0036970402910047 0.0003
          0.013749164985008 0.00086088989331873 0 0.013749164985008 0.00086088989331873 0.00015
          0.013749164985008 0.00086088989331873 0.0003 0.012096711335481 0.0017058387426491 0
          0.012096711335481 0.0017058387426491 0.00015 0.012096711335481 0.0017058387426491 0.0003
          0.013693266362936 0.0034326845509566 0 0.013693266362936 0.0034326845509566 0.00015
          0.013693266362936 0.0034326845509566 0.0003 0.012692307692288 0 0
          0.012542896420733 0.00061304595643839 0 0.012692307692288 0 0.00015
          0.012542896420733 0.00061304595643839 0.00015 0.012692307692288 0 0.0003
          0.012542896420733 0.00061304595643839 0.0003 0.013205128205107 0 0
          0.013181655749567 0.00048421972568225 0 0.013205128205107 0 0.00015
          0.013181655749567 0.00048421972568225 0.00015 0.013205128205107 0 0.0003
          0.013181655749567 0.00048421972568225 0.0003 0.012087580163866 0.0010424427844857 0
          0.012087580163866 0.0010424427844857 0.00015 0.012087580163866 0.0010424427844857 0.0003
          0.013717948717925 0 0 0.013709151553936 0.00043508888993868 0
          0.013717948717925 0 0.00015 0.013709151553936 0.00043508888993868 0.00015
          0.013717948717925 0 0.0003 0.013709151553936 0.00043508888993868 0.0003
          0.023934294716764 0.0032087575652495 0 0.025 0.0028888888888822 0
          0.023934294716764 0.0032087575652495 0.00015 0.025 0.0028888888888822 0.00015
          0.023934294716764 0.0032087575652495 0.0003 0.025 0.0028888888888822 0.0003
          0.022119784948444 0.002618759724243 0 0.022119784948444 0.002618759724243 0.00015
          0.022119784948444 0.002618759724243 0.0003 0.012384518900215 0.0018567382086698 0
          0.012384518900215 0.0018567382086698 0.00015 0.012384518900215 0.0018567382086698 0.0003
          0.021279978971931 0.00049482730399591 0 0.020757556768826 0.00050973095909409 0
          0.021279978971931 0.00049482730399591 0.00015 0.020757556768826 0.00050973095909409 0.00015
          0.021279978971931 0.00049482730399591 0.0003 0.020757556768826 0.00050973095909409 0.0003
          0.015256410256382 0 0 0.015769230769205 0 0
          0.015256410256382 0 0.00015 0.015769230769205 0 0.00015
          0.015256410256382 0 0.0003 0.015769230769205 0 0.0003
          0.014025581742285 0.0035717972510793 0 0.014025581742285 0.0035717972510793 0.00015
          0.014025581742285 0.0035717972510793 0.0003 0.013590285783394 0.0038446716816234 0
          0.013590285783394 0.0038446716816234 0.00015 0.013590285783394 0.0038446716816234 0.0003
          0.017243082343815 0.0050067004105205 0 0.017243082343815 0.0050067004105205 0.00015
          0.017243082343815 0.0050067004105205 0.0003 0.014691316585943 0.00042340821879555 0
          0.014743589743561 0 0 0.014691316585943 0.00042340821879555 0.00015
          0.014743589743561 0 0.00015 0.014691316585943 0.00042340821879555 0.0003
          0.014743589743561 0 0.0003 0.018245486290569 0.0031782516753476 0
          0.018245486290569 0.0031782516753476 0.00015 0.018245486290569 0.0031782516753476 0.0003
          0.018846153846135 0 0 0.018644197304734 0.00045373129675669 0
          0.01812656348281 0.00041497632726255 0 0.018333333333313 0 0
          0.018846153846135 0 0.00015 0.018644197304734 0.00045373129675669 0.00015
          0.01812656348281 0.00041497632726255 0.00015 0.018333333333313 0 0.00015
          0.018846153846135 0 0.0003 0.018644197304734 0.00045373129675669 0.0003
          0.01812656348281 0.00041497632726255 0.0003 0.018333333333313 0 0.0003
          0.016222123693441 0.00047331176344161 0 0.016700854199337 0.00043557402690065 0
          0.016222123693441 0.00047331176344161 0.00015 0.016700854199337 0.00043557402690065 0.00015
          0.016222123693441 0.00047331176344161 0.0003 0.016700854199337 0.00043557402690065 0.0003
          0.020119253581834 0.0010505613075795 0 0.020119253581834 0.0010505613075795 0.00015
          0.020119253581834 0.0010505613075795 0.0003 0.017948162073368 0.00084248305268282 0
          0.018468108748109 0.00092264731154686 0 0.017948162073368 0.00084248305268282 0.00015
          0.018468108748109 0.00092264731154686 0.00015 0.017948162073368 0.00084248305268282 0.0003
          0.018468108748109 0.00092264731154686 0.0003 0.018823294200687 0.0034327213803771 0
          0.019357958441624 0.0036753812238739 0 0.018823294200687 0.0034327213803771 0.00015
          0.019357958441624 0.0036753812238739 0.00015 0.018823294200687 0.0034327213803771 0.0003
          0.019357958441624 0.0036753812238739 0.0003 0.017020820655581 0.0044256808272369 0
          0.017020820655581 0.0044256808272369 0.00015 0.017020820655581 0.0044256808272369 0.0003
          0.017246333426457 0.0039469397271967 0 0.017246333426457 0.0039469397271967 0.00015
          0.017246333426457 0.0039469397271967 0.0003 0.020078691259254 0.0027314397537426 0
          0.020078691259254 0.0027314397537426 0.00015 0.020078691259254 0.0027314397537426 0.0003
          0.014206101807249 0.00041708713844452 0 0.014230769230743 0 0
          0.014206101807249 0.00041708713844452 0.00015 0.014230769230743 0 0.00015
          0.014206101807249 0.00041708713844452 0.0003 0.014230769230743 0 0.0003
          0.019663480844036 0.0032045589214632 0 0.019663480844036 0.0032045589214632 0.00015
          0.019663480844036 0.0032045589214632 0.0003 0.021168425648455 0.0043064684914555 0
          0.021635594211814 0.0048272474453844 0 0.020555573714582 0.0046911399787169 0
          0.021168425648455 0.0043064684914555 0.00015 0.021635594211814 0.0048272474453844 0.00015
          0.020555573714582 0.0046911399787169 0.00015 0.021168425648455 0.0043064684914555 0.0003
          0.021635594211814 0.0048272474453844 0.0003 0.020555573714582 0.0046911399787169 0.0003
          0.019723975353689 0.0038421555098755 0 0.019723975353689 0.0038421555098755 0.00015
          0.019723975353689 0.0038421555098755 0.0003 0.01679487179485 0 0
          0.017307692307672 0 0 0.017098243235352 0.00037703288126221 0
          0.01679487179485 0 0.00015 0.017307692307672 0 0.00015
          0.017098243235352 0.00037703288126221 0.00015 0.01679487179485 0 0.0003
          0.017307692307672 0 0.0003 0.017098243235352 0.00037703288126221 0.0003
          0.019358974358957 0 0 0.019358974358957 0 0.00015
          0.019358974358957 0 0.0003 0.018021318366412 0.0037089471112668 0
          0.018021318366412 0.0037089471112668 0.00015 0.018021318366412 0.0037089471112668 0.0003
          0.022914230268928 0.0025172233828488 0 0.022914230268928 0.0025172233828488 0.00015
          0.022914230268928 0.0025172233828488 0.0003 0.016282051282027 0 0
          0.016282051282027 0 0.00015 0.016282051282027 0 0.0003
          0.017636327566636 0.00038375181151782 0 0.017820512820494 0 0
          0.017636327566636 0.00038375181151782 0.00015 0.017820512820494 0 0.00015
          0.017636327566636 0.00038375181151782 0.0003 0.017820512820494 0 0.0003
          0.020545307319607 0.0031941956482125 0 0.020545307319607 0.0031941956482125 0.00015
          0.020545307319607 0.0031941956482125 0.0003 0.014207774647908 0.00082121811907846 0
          0.014649951203035 0.00083908958777153 0 0.014207774647908 0.00082121811907846 0.00015
          0.014649951203035 0.00083908958777153 0.00015 0.014207774647908 0.00082121811907846 0.0003
          0.014649951203035 0.00083908958777153 0.0003 0.017453973974276 0.00075538641526017 0
          0.017131504825278 0.00067680946789985 0 0.017453973974276 0.00075538641526017 0.00015
          0.017131504825278 0.00067680946789985 0.00015 0.017453973974276 0.00075538641526017 0.0003
          0.017131504825278 0.00067680946789985 0.0003 0.020049549059284 0.0035870308776452 0
          0.020306231316884 0.0040846257713005 0 0.020049549059284 0.0035870308776452 0.00015
          0.020306231316884 0.0040846257713005 0.00015 0.020049549059284 0.0035870308776452 0.0003
          0.020306231316884 0.0040846257713005 0.0003 0.022163023796879 0.0034061119862663 0
          0.021471654866651 0.0034951402573089 0 0.022163023796879 0.0034061119862663 0.00015
          0.021471654866651 0.0034951402573089 0.00015 0.022163023796879 0.0034061119862663 0.0003
          0.021471654866651 0.0034951402573089 0.0003 0.020216848120139 0.00051365536395203 0
          0.020384615384602 0 0 0.020897435897425 0 0
          0.020216848120139 0.00051365536395203 0.00015 0.020384615384602 0 0.00015
          0.020897435897425 0 0.00015 0.020216848120139 0.00051365536395203 0.0003
          0.020384615384602 0 0.0003 0.020897435897425 0 0.0003
          0.020867240059882 0.0037570922548429 0 0.020867240059882 0.0037570922548429 0.00015
          0.020867240059882 0.0037570922548429 0.0003 0.021410256410247 0 0
          0.021410256410247 0 0.00015 0.021410256410247 0 0.0003
          0.01987179487178 0 0 0.01987179487178 0 0.00015
          0.01987179487178 0 0.0003 0.022975084693504 0.003367305376383 0
          0.022975084693504 0.003367305376383 0.00015 0.022975084693504 0.003367305376383 0.0003
          0.022435897435893 0 0 0.022948717948713 0 0
          0.022737844672879 0.00047743690091317 0 0.022435897435893 0 0.00015
          0.022948717948713 0 0.00015 0.022737844672879 0.00047743690091317 0.00015
          0.022435897435893 0 0.0003 0.022948717948713 0 0.0003
          0.022737844672879 0.00047743690091317 0.0003 0.02192307692307 0 0
          0.02192307692307 0 0.00015 0.02192307692307 0 0.0003
          0.021567010772127 0.0039949981403974 0 0.021567010772127 0.0039949981403974 0.00015
          0.021567010772127 0.0039949981403974 0.0003 0.02205136800235 0.0041574599345453 0
          0.022874799944018 0.0043411431204517 0 0.02205136800235 0.0041574599345453 0.00015
          0.022874799944018 0.0043411431204517 0.00015 0.02205136800235 0.0041574599345453 0.0003
          0.022874799944018 0.0043411431204517 0.0003 0.023461538461532 0 0
          0.023461538461532 0 0.00015 0.023461538461532 0 0.0003
          0.022597273609822 0.0008601076908125 0 0.022597273609822 0.0008601076908125 0.00015
          0.022597273609822 0.0008601076908125 0.0003 0.024392416230449 0.00057909033861659 0
          0.024392416230449 0.00057909033861659 0.00015 0.024392416230449 0.00057909033861659 0.0003
          0.023974358974355 0 0 0.023974358974355 0 0.00015
          0.023974358974355 0 0.0003 0.024487179487177 0 0
          0.024487179487177 0 0.00015 0.024487179487177 0 0.0003
          0.025 0 0 0.025 0 0.00015
          0.025 0 0.0003 0.026666666666664 0.0014444444444417 0
          0.026666666666663 0 0 0.026666666666664 0.0014444444444417 0.00015
          0.026666666666663 0 0.00015 0.026666666666664 0.0014444444444417 0.0003
          0.026666666666663 0 0.0003 0.028333333333331 0.0014444444444417 0
          0.02833333333333 0 0 0.028333333333331 0.0014444444444417 0.00015
          0.02833333333333 0 0.00015 0.028333333333331 0.0014444444444417 0.0003
          0.02833333333333 0 0.0003 0.03 0.0014444444444417 0
          0.03 0 0 0.03 0.0014444444444417 0.00015
          0.03 0 0.00015 0.03 0.0014444444444417 0.0003
          0.03 0 0.0003 0.026666666666665 0.0028888888888822 0
          0.026666666666665 0.0028888888888822 0.00015 0.026666666666665 0.0028888888888822 0.0003
          0.028333333333331 0.0028888888888822 0 0.028333333333331 0.0028888888888822 0.00015
          0.028333333333331 0.0028888888888822 0.0003 0.03 0.0028888888888822 0
          0.03 0.0028888888888822 0.00015 0.03 0.0028888888888822 0.0003
          0.026666666666666 0.0043333333333224 0 0.026666666666666 0.0043333333333224 0.00015
          0.026666666666666 0.0043333333333224 0.0003 0.028333333333332 0.0043333333333224 0
          0.028333333333332 0.0043333333333224 0.00015 0.028333333333332 0.0043333333333224 0.0003
          0.03 0.0043333333333224 0 0.03 0.0043333333333224 0.00015
          0.03 0.0043333333333224 0.0003 0.026666666666666 0.0057777777777625 0
          0.026666666666666 0.0057777777777625 0.00015 0.026666666666666 0.0057777777777625 0.0003
          0.028333333333333 0.0057777777777625 0 0.028333333333333 0.0057777777777625 0.00015
          0.028333333333333 0.0057777777777625 0.0003 0.03 0.0057777777777625 0
          0.03 0.0057777777777625 0.00015 0.03 0.0057777777777625 0.0003
          0.028333333333334 0.0072222222222063 0 0.028333333333334 0.0072222222222063 0.00015
          0.028333333333334 0.0072222222222063 0.0003 0.03 0.0072222222222063 0
          0.03 0.0072222222222063 0.00015 0.03 0.0072222222222063 0.0003
          0.028333333333334 0.0086666666666559 0 0.028333333333334 0.0086666666666559 0.00015
          0.028333333333334 0.0086666666666559 0.0003 0.03 0.0086666666666559 0
          0.03 0.0086666666666559 0.00015 0.03 0.0086666666666559 0.0003
          0.028333333333335 0.010111111111103 0 0.028333333333335 0.010111111111103 0.00015
          0.028333333333335 0.010111111111103 0.0003 0.03 0.010111111111103 0
          0.03 0.010111111111103 0.00015 0.03 0.010111111111103 0.0003
          0.028333333333336 0.011555555555552 0 0.028333333333336 0.011555555555552 0.00015
          0.028333333333336 0.011555555555552 0.0003 0.03 0.011555555555552 0
          0.03 0.011555555555552 0.00015 0.03 0.011555555555552 0.0003
          0.028333333333337 0.013 0 0.028333333333337 0.013 0.00015
          0.028333333333337 0.013 0.0003 0.03 0.013 0
          0.03 0.013 0.00015 0.03 0.013 0.0003
          0.031601181467612 0.0014508094753802 0 0.03158989866902 0 0
          0.031601181467612 0.0014508094753802 0.00015 0.03158989866902 0 0.00015
          0.031601181467612 0.0014508094753802 0.0003 0.03158989866902 0 0.0003
          0.031612464266204 0.0029016189507591 0 0.031612464266204 0.0029016189507591 0.00015
          0.031612464266204 0.0029016189507591 0.0003 0.031623747064796 0.0043524284261377 0
          0.031623747064796 0.0043524284261377 0.00015 0.031623747064796 0.0043524284261377 0.0003
          0.031635029863388 0.0058032379015163 0 0.031635029863388 0.0058032379015163 0.00015
          0.031635029863388 0.0058032379015163 0.0003 0.031646312661979 0.0072540473768985 0
          0.031646312661979 0.0072540473768985 0.00015 0.031646312661979 0.0072540473768985 0.0003
          0.021356284292895 0.0061182113295331 0 0.020489019208248 0.0065103794253073 0
          0.021356284292895 0.0061182113295331 0.00015 0.020489019208248 0.0065103794253073 0.00015
          0.021356284292895 0.0061182113295331 0.0003 0.020489019208248 0.0065103794253073 0.0003
          0.025 0.0072222222222063 0 0.023816654948859 0.0069324696013164 0
          0.023829479378086 0.0056593315311521 0 0.025 0.0072222222222063 0.00015
          0.023816654948859 0.0069324696013164 0.00015 0.023829479378086 0.0056593315311521 0.00015
          0.025 0.0072222222222063 0.0003 0.023816654948859 0.0069324696013164 0.0003
          0.023829479378086 0.0056593315311521 0.0003 0.018734278863615 0.0068564365277259 0
          0.018734278863615 0.0068564365277259 0.00015 0.018734278863615 0.0068564365277259 0.0003
          0.019611341590458 0.0069319215290848 0 0.019611341590458 0.0069319215290848 0.00015
          0.019611341590458 0.0069319215290848 0.0003 0.022477642087048 0.0055533155338694 0
          0.022477642087048 0.0055533155338694 0.00015 0.022477642087048 0.0055533155338694 0.0003
          0.026666666666667 0.0072222222222063 0 0.026666666666667 0.0072222222222063 0.00015
          0.026666666666667 0.0072222222222063 0.0003 0.026666666666668 0.0086666666666559 0
          0.026666666666668 0.0086666666666559 0.00015 0.026666666666668 0.0086666666666559 0.0003
          0.026666666666669 0.010111111111103 0 0.026666666666669 0.010111111111103 0.00015
          0.026666666666669 0.010111111111103 0.0003 0.026666666666669 0.011555555555552 0
          0.026666666666669 0.011555555555552 0.00015 0.026666666666669 0.011555555555552 0.0003
          0.02666666666667 0.013 0 0.02666666666667 0.013 0.00015
          0.02666666666667 0.013 0.0003 0.033201501647561 0.0014698753983525 0
          0.033179797338052 0 0 0.033201501647561 0.0014698753983525 0.00015
          0.033179797338052 0 0.00015 0.033201501647561 0.0014698753983525 0.0003
          0.033179797338052 0 0.0003 0.033223205957069 0.0029397507967035 0
          0.033223205957069 0.0029397507967035 0.00015 0.033223205957069 0.0029397507967035 0.0003
          0.033244910266578 0.0044096261950543 0 0.033244910266578 0.0044096261950543 0.00015
          0.033244910266578 0.0044096261950543 0.0003 0.033266614576087 0.0058795015934051 0
          0.033266614576087 0.0058795015934051 0.00015 0.033266614576087 0.0058795015934051 0.0003
          0.033288318885596 0.0073493769917596 0 0.033288318885596 0.0073493769917596 0.00015
          0.033288318885596 0.0073493769917596 0.0003 0.031657595460571 0.0087048568522863 0
          0.031657595460571 0.0087048568522863 0.00015 0.031657595460571 0.0087048568522863 0.0003
          0.033310023195106 0.0088192523901195 0 0.033310023195106 0.0088192523901195 0.00015
          0.033310023195106 0.0088192523901195 0.0003 0.031668878259163 0.010155666327672 0
          0.031668878259163 0.010155666327672 0.00015 0.031668878259163 0.010155666327672 0.0003
          0.031680161057755 0.011606475803059 0 0.031680161057755 0.011606475803059 0.00015
          0.031680161057755 0.011606475803059 0.0003 0.031691443856347 0.013057285278446 0
          0.031691443856347 0.013057285278446 0.00015 0.031691443856347 0.013057285278446 0.0003
          <InformationKey name="L2_NORM_RANGE" location="vtkDataArray" length="2">
            <Value index="0">
              0.011720201603
            </Value>
            <Value index="1">
              0.034459060608
            </Value>
          </InformationKey>
        </DataArray>
      </Points>
      <Cells>
        <DataArray type="Int64" Name="connectivity" format="ascii" RangeMin="0" RangeMax="797">
          0 1 2 3 4 5
          6 7 4 5 6 7
          8 9 10 11 12 13
          14 15 16 17 18 19
          16 17 18 19 20 21
          22 23 24 25 26 27
          28 29 30 31 28 29
          30 31 32 33 34 35
          36 37 38 39 40 41
          42 43 40 41 42 43
          44 45 46 47 48 49
          50 51 52 53 54 55
          52 53 54 55 56 57
          58 59 60 61 62 63
          64 65 66 67 64 65
          66 67 68 69 70 71
          72 73 74 12 75 76
          77 16 75 76 77 16
          78 79 80 20 61 81
          82 62 65 83 84 66
          65 83 84 66 69 85
          86 70 87 88 89 90
          91 92 93 94 91 92
          93 94 95 96 97 98
          37 99 100 38 41 101
          102 42 41 101 102 42
          45 103 104 46 81 105
          106 82 83 107 108 84
          83 107 108 84 85 109
          110 86 26 111 112 113
          30 114 115 116 30 114
          115 116 34 117 118 119
          63 120 121 60 67 122
          123 64 67 122 123 64
          71 124 125 68 126 127
          128 129 130 131 132 133
          130 131 132 133 134 135
          136 137 138 72 139 140
          141 75 142 143 141 75
          142 143 144 78 145 146
          150 127 151 152 153 131
          154 155 153 131 154 155
          156 135 157 158 159 160
          161 138 162 163 164 141
          162 163 164 141 165 166
          167 144 120 168 169 170
          122 171 172 173 122 171
          172 173 124 174 175 176
          15 139 72 12 19 142
          75 16 19 142 75 16
          23 145 78 20 177 0
          3 178 179 4 7 180
          179 4 7 180 181 8
          11 182 183 184 726 727
          185 186 728 729 185 186
          728 729 187 188 730 731
          192 193 90 89 194 195
          94 93 194 195 94 93
          196 197 98 97 198 106
          105 199 200 108 107 201
          200 108 107 201 202 110
          109 203 204 13 12 74
          205 17 16 77 205 17
          16 77 206 21 20 80
          207 208 209 210 211 212
          213 214 211 212 213 214
          215 216 217 218 732 733
          734 219 735 736 737 220
          735 736 737 220 738 739
          740 221 222 219 734 223
          224 220 737 225 224 220
          737 225 226 221 740 227
          228 229 170 169 230 231
          173 172 230 231 173 172
          232 233 176 175 234 140
          50 49 235 143 54 53
          235 143 54 53 236 146
          58 57 129 237 238 126
          133 239 240 130 133 239
          240 130 137 241 242 134
          243 244 245 246 247 248
          249 250 247 248 249 250
          251 252 253 254 255 256
          159 234 257 258 162 235
          257 258 162 235 259 260
          165 236 261 262 263 264
          265 266 267 268 265 266
          267 268 269 270 271 272
          273 147 38 100 274 148
          42 102 274 148 42 102
          275 149 46 104 121 276
          277 60 123 278 279 64
          123 278 279 64 125 280
          281 68 282 246 741 283
          284 250 742 285 284 250
          742 285 286 254 743 287
          291 292 82 106 293 294
          84 108 293 294 84 108
          295 296 86 110 99 297
          62 298 101 299 66 300
          101 299 66 300 103 301
          70 302 303 304 147 273
          305 306 148 274 305 306
          148 274 307 308 149 275
          105 204 74 199 107 205
          77 201 107 205 77 201
          109 206 80 203 288 309
          151 282 289 310 154 284
          289 310 154 284 290 311
          157 286 312 313 13 204
          314 315 17 205 314 315
          17 205 316 317 21 206
          99 298 292 100 101 300
          294 102 101 300 294 102
          103 302 296 104 292 298
          62 82 294 300 66 84
          294 300 66 84 296 302
          70 86 151 127 126 243
          154 131 130 247 154 131
          130 247 157 135 134 251
          246 282 151 243 250 284
          154 247 250 284 154 247
          254 286 157 251 100 292
          291 273 102 294 293 274
          102 294 293 274 104 296
          295 275 324 325 297 326
          327 328 299 329 327 328
          299 329 330 331 301 332
          325 63 62 297 328 67
          66 299 328 67 66 299
          331 71 70 301 333 168
          325 324 334 171 328 327
          334 171 328 327 335 174
          331 330 168 120 63 325
          171 122 67 328 171 122
          67 328 174 124 71 331
          312 336 209 337 314 338
          213 339 314 338 213 339
          316 340 217 341 88 256
          255 89 92 258 257 93
          92 258 257 93 96 260
          259 97 342 198 199 343
          344 200 201 345 344 200
          201 345 346 202 203 347
          90 264 348 349 94 268
          350 351 94 268 350 351
          98 272 352 353 354 355
          276 121 356 357 278 123
          356 357 278 123 358 359
          280 125 360 361 333 362
          363 364 334 365 363 364
          334 365 366 367 335 368
          336 277 210 209 338 279
          214 213 338 279 214 213
          340 281 218 217 73 72
          138 161 76 75 141 164
          76 75 141 164 79 78
          144 167 372 14 13 313
          373 18 17 315 373 18
          17 315 374 22 21 317
          168 333 361 169 171 334
          364 172 171 334 364 172
          174 335 367 175 378 361
          360 369 379 364 363 370
          379 364 363 370 380 367
          366 371 381 291 106 198
          382 293 108 200 382 293
          108 200 383 295 110 202
          354 177 178 384 356 179
          180 385 356 179 180 385
          358 181 182 386 37 326
          297 99 41 329 299 101
          41 329 299 101 45 332
          301 103 324 390 362 333
          327 391 365 334 327 391
          365 334 330 392 368 335
          394 393 399 400 396 395
          401 402 396 395 401 402
          398 397 403 404 2 387
          189 405 6 388 190 406
          6 388 190 406 10 389
          191 407 400 399 408 409
          402 401 410 411 402 401
          410 411 404 403 412 413
          414 24 27 415 416 28
          31 417 416 28 31 417
          418 32 35 419 420 87
          90 349 421 91 94 351
          421 91 94 351 422 95
          98 353 199 74 73 343
          201 77 76 345 201 77
          76 345 203 80 79 347
          336 61 60 277 338 65
          64 279 338 65 64 279
          340 69 68 281 426 193
          192 427 428 195 194 429
          428 195 194 429 430 197
          196 431 207 432 433 208
          211 434 435 212 211 434
          435 212 215 436 437 216
          326 438 390 324 329 439
          391 327 329 439 391 327
          332 440 392 330 441 375
          362 390 442 376 365 391
          442 376 365 391 443 377
          368 392 381 303 273 291
          382 305 274 293 382 305
          274 293 383 307 275 295
          348 111 26 25 350 114
          30 29 350 114 30 29
          352 117 34 33 319 444
          309 318 321 445 310 320
          321 445 310 320 323 446
          311 322 432 207 447 448
          434 211 449 450 434 211
          449 450 436 215 451 452
          238 244 243 126 240 248
          247 130 240 248 247 130
          242 252 251 134 140 234
          159 138 143 235 162 141
          143 235 162 141 146 236
          165 144 161 453 343 73
          164 454 345 76 164 454
          345 76 167 455 347 79
          456 457 458 459 460 461
          462 463 460 461 462 463
          464 465 466 467 61 336
          312 81 65 338 314 83
          65 338 314 83 69 340
          316 85 81 312 204 105
          83 314 205 107 83 314
          205 107 85 316 206 109
          468 469 372 337 470 471
          373 339 470 471 373 339
          472 473 374 341 468 337
          209 208 470 339 213 212
          470 339 213 212 472 341
          217 216 474 255 234 49
          475 257 235 53 475 257
          235 53 476 259 236 57
          372 313 312 337 373 315
          314 339 373 315 314 339
          374 317 316 341 152 151
          309 444 155 154 310 445
          155 154 310 445 158 157
          311 446 477 478 139 15
          479 480 142 19 479 480
          142 19 481 482 145 23
          483 484 129 128 485 486
          133 132 485 486 133 132
          487 488 137 136 489 319
          304 303 490 321 306 305
          490 321 306 305 491 323
          308 307 744 741 246 245
          745 742 250 249 745 742
          250 249 746 743 254 253
          492 381 198 342 493 382
          200 344 493 382 200 344
          494 383 202 346 88 495
          159 256 92 496 162 258
          92 496 162 258 96 497
          165 260 498 499 448 447
          500 501 450 449 500 501
          450 449 502 503 452 451
          223 414 415 222 225 416
          417 224 225 416 417 224
          227 418 419 226 354 121
          120 170 356 123 122 173
          356 123 122 173 358 125
          124 176 394 3 2 405
          396 7 6 406 396 7
          6 406 398 11 10 407
          453 161 160 483 454 164
          163 485 454 164 163 485
          455 167 166 487 495 504
          160 159 496 505 163 162
          496 505 163 162 497 506
          166 165 492 489 303 381
          493 490 305 382 493 490
          305 382 494 491 307 383
          264 90 193 261 268 94
          195 265 268 94 195 265
          272 98 197 269 507 508
          184 509 510 511 186 512
          510 511 186 512 513 514
          188 515 237 129 484 516
          239 133 486 517 239 133
          486 517 241 137 488 518
          469 519 520 521 471 522
          523 524 471 522 523 524
          473 525 526 527 457 456
          528 51 461 460 529 55
          461 460 529 55 465 464
          530 59 531 342 343 453
          532 344 345 454 532 344
          345 454 533 346 347 455
          238 183 245 244 240 185
          249 248 240 185 249 248
          242 187 253 252 1 378
          369 423 5 379 370 424
          5 379 370 424 9 380
          371 425 504 484 483 160
          505 486 485 163 505 486
          485 163 506 488 487 166
          453 483 128 531 454 485
          132 532 454 485 132 532
          455 487 136 533 747 726
          184 508 748 728 186 511
          748 728 186 511 749 730
          188 514 478 457 51 50
          480 461 55 54 480 461
          55 54 482 465 59 58
          400 409 384 178 402 411
          385 180 402 411 385 180
          404 413 386 182 420 349
          348 534 421 351 350 535
          421 351 350 535 422 353
          352 536 468 537 519 469
          470 538 522 471 470 538
          522 471 472 539 525 473
          509 184 183 238 512 186
          185 240 512 186 185 240
          515 188 187 242 170 229
          177 354 173 231 179 356
          173 231 179 356 176 233
          181 358 499 498 409 408
          501 500 411 410 501 500
          411 410 503 502 413 412
          540 541 459 458 542 543
          463 462 542 543 463 462
          544 545 467 466 87 546
          495 88 91 547 496 92
          91 547 496 92 95 548
          497 96 228 169 361 378
          230 172 364 379 230 172
          364 379 232 175 367 380
          549 550 276 355 551 552
          278 357 551 552 278 357
          553 554 280 359 478 50
          140 139 480 54 143 142
          480 54 143 142 482 58
          146 145 540 555 556 521
          542 557 558 524 542 557
          558 524 544 559 560 527
          36 441 390 438 40 442
          391 439 40 442 391 439
          44 443 392 440 561 562
          237 516 563 564 239 517
          563 564 239 517 565 566
          241 518 152 444 319 489
          155 445 321 490 155 445
          321 490 158 446 323 491
          567 568 87 420 569 570
          91 421 569 570 91 421
          571 572 95 422 150 492
          342 531 153 493 344 532
          153 493 344 532 156 494
          346 533 477 15 14 555
          479 19 18 557 479 19
          18 557 481 23 22 559
          531 128 127 150 532 132
          131 153 532 132 131 153
          533 136 135 156 24 534
          348 25 28 535 350 29
          28 535 350 29 32 536
          352 33 504 495 546 561
          505 496 547 563 505 496
          547 563 506 497 548 565
          474 192 89 255 475 194
          93 257 475 194 93 257
          476 196 97 259 573 574
          575 427 576 577 578 429
          576 577 578 429 579 580
          581 431 546 582 562 561
          547 583 564 563 547 583
          564 563 548 584 566 565
          561 516 484 504 563 517
          486 505 563 517 486 505
          565 518 488 506 555 540
          458 477 557 542 462 479
          557 542 462 479 559 544
          466 481 550 210 277 276
          552 214 279 278 552 214
          279 278 554 218 281 280
          744 245 183 727 745 249
          185 729 745 249 185 729
          746 253 187 731 210 550
          447 207 214 552 449 211
          214 552 449 211 218 554
          451 215 427 575 585 426
          429 578 586 428 429 578
          586 428 431 581 587 430
          150 152 489 492 153 155
          490 493 153 155 490 493
          156 158 491 494 48 588
          574 573 52 589 577 576
          52 589 577 576 56 590
          580 579 573 474 49 48
          576 475 53 52 576 475
          53 52 579 476 57 56
          562 509 238 237 564 512
          240 239 564 512 240 239
          566 515 242 241 372 556
          555 14 373 558 557 18
          373 558 557 18 374 560
          559 22 534 591 567 420
          535 592 569 421 535 592
          569 421 536 593 571 422
          521 556 372 469 524 558
          373 471 524 558 373 471
          527 560 374 473 178 3
          394 400 180 7 396 402
          180 7 396 402 182 11
          398 404 263 594 595 596
          267 597 598 599 267 597
          598 599 271 600 601 602
          549 355 354 384 551 357
          356 385 551 357 356 385
          553 359 358 386 0 228
          378 1 4 230 379 5
          4 230 379 5 8 232
          380 9 426 585 603 262
          428 586 604 266 428 586
          604 266 430 587 605 270
          582 546 87 568 583 547
          91 570 583 547 91 570
          584 548 95 572 474 573
          427 192 475 576 429 194
          475 576 429 194 476 579
          431 196 262 603 594 263
          266 604 597 267 266 604
          597 267 270 605 600 271
          537 468 208 433 538 470
          212 435 538 470 212 435
          539 472 216 437 36 438
          326 37 40 439 329 41
          40 439 329 41 44 440
          332 45 541 540 521 520
          543 542 524 523 543 542
          524 523 545 544 527 526
          1 423 387 2 5 424
          388 6 5 424 388 6
          9 425 389 10 498 447
          550 549 500 449 552 551
          500 449 552 551 502 451
          554 553 228 0 177 229
          230 4 179 231 230 4
          179 231 232 8 181 233
          507 582 568 606 510 583
          570 607 510 583 570 607
          513 584 572 608 588 48
          51 528 589 52 55 529
          589 52 55 529 590 56
          59 530 609 567 591 610
          611 569 592 612 611 569
          592 612 613 571 593 614
          596 595 615 112 599 598
          616 115 599 598 616 115
          602 601 617 118 414 591
          534 24 416 592 535 28
          416 592 535 28 418 593
          536 32 262 261 193 426
          266 265 195 428 266 265
          195 428 270 269 197 430
          223 610 591 414 225 612
          592 416 225 612 592 416
          227 614 593 418 477 458
          457 478 479 462 461 480
          479 462 461 480 481 466
          465 482 610 747 508 609
          612 748 511 611 612 748
          511 611 614 749 514 613
          549 384 409 498 551 385
          411 500 551 385 411 500
          553 386 413 502 223 734
          747 610 225 737 748 612
          225 737 748 612 227 740
          749 614 596 618 264 263
          599 619 268 267 599 619
          268 267 602 620 272 271
          507 606 609 508 510 607
          611 511 510 607 611 511
          513 608 613 514 582 507
          509 562 583 510 512 564
          583 510 512 564 584 513
          515 566 113 621 27 26
          116 622 31 30 116 622
          31 30 119 623 35 34
          112 615 624 113 115 616
          625 116 115 616 625 116
          118 617 626 119 609 606
          568 567 611 607 570 569
          611 607 570 569 613 608
          572 571 112 111 618 596
          115 114 619 599 115 114
          619 599 118 117 620 602
          113 624 627 621 116 625
          628 622 116 625 628 622
          119 626 629 623 111 348
          264 618 114 350 268 619
          114 350 268 619 117 352
          272 620 27 621 627 630
          31 622 628 631 31 622
          628 631 35 623 629 632
          633 27 630 634 635 31
          631 636 635 31 631 636
          637 35 632 638 639 633
          634 640 641 635 636 642
          641 635 636 642 643 637
          638 644 645 639 640 646
          647 641 642 648 647 641
          642 648 649 643 644 650
          651 415 27 633 652 417
          31 635 652 417 31 635
          653 419 35 637 654 651
          633 639 655 652 635 641
          655 652 635 641 656 653
          637 643 657 654 639 645
          658 655 641 647 658 655
          641 647 659 656 643 649
          660 222 415 651 661 224
          417 652 661 224 417 652
          662 226 419 653 663 660
          651 654 664 661 652 655
          664 661 652 655 665 662
          653 656 666 663 654 657
          667 664 655 658 667 664
          655 658 668 665 656 659
          669 219 222 660 670 220
          224 661 670 220 224 661
          671 221 226 662 672 669
          660 663 673 670 661 664
          673 670 661 664 674 671
          662 665 675 672 663 666
          676 673 664 667 676 673
          664 667 677 674 665 668
          750 732 219 669 751 735
          220 670 751 735 220 670
          752 738 221 671 678 750
          669 672 679 751 670 673
          679 751 670 673 680 752
          671 674 681 678 672 675
          682 679 673 676 682 679
          673 676 683 680 674 677
          684 753 750 678 685 754
          751 679 685 754 751 679
          686 755 752 680 687 684
          678 681 688 685 679 682
          688 685 679 682 689 686
          680 683 690 756 753 684
          691 757 754 685 691 757
          754 685 692 758 755 686
          693 690 684 687 694 691
          685 688 694 691 685 688
          695 692 686 689 696 759
          756 690 697 760 757 691
          697 760 757 691 698 761
          758 692 699 696 690 693
          700 697 691 694 700 697
          691 694 701 698 692 695
          702 762 759 696 703 763
          760 697 703 763 760 697
          704 764 761 698 705 702
          696 699 706 703 697 700
          706 703 697 700 707 704
          698 701 708 645 646 709
          710 647 648 711 710 647
          648 711 712 649 650 713
          765 708 709 766 767 710
          711 768 767 710 711 768
          769 712 713 770 714 657
          645 708 715 658 647 710
          715 658 647 710 716 659
          649 712 771 714 708 765
          772 715 710 767 772 715
          710 767 773 716 712 769
          717 666 657 714 718 667
          658 715 718 667 658 715
          719 668 659 716 774 717
          714 771 775 718 715 772
          775 718 715 772 776 719
          716 773 720 675 666 717
          721 676 667 718 721 676
          667 718 722 677 668 719
          777 720 717 774 778 721
          718 775 778 721 718 775
          779 722 719 776 723 681
          675 720 724 682 676 721
          724 682 676 721 725 683
          677 722 780 723 720 777
          781 724 721 778 781 724
          721 778 782 725 722 779
          783 687 681 723 784 688
          682 724 784 688 682 724
          785 689 683 725 786 783
          723 780 787 784 724 781
          787 784 724 781 788 785
          725 782 789 693 687 783
          790 694 688 784 790 694
          688 784 791 695 689 785
          792 699 693 789 793 700
          694 790 793 700 694 790
          794 701 695 791 795 705
          699 792 796 706 700 793
          796 706 700 793 797 707
          701 794
        </DataArray>
        <DataArray type="Int64" Name="offsets" format="ascii" RangeMin="8" RangeMax="3632">
          8 16 24 32 40 48
          56 64 72 80 88 96
          104 112 120 128 136 144
          152 160 168 176 184 192
          200 208 216 224 232 240
          248 256 264 272 280 288
          296 304 312 320 328 336
          344 352 360 368 376 384
          392 400 408 416 424 432
          440 448 456 464 472 480
          488 496 504 512 520 528
          536 544 552 560 568 576
          584 592 600 608 616 624
          632 640 648 656 664 672
          680 688 696 704 712 720
          728 736 744 752 760 768
          776 784 792 800 808 816
          824 832 840 848 856 864
          872 880 888 896 904 912
          920 928 936 944 952 960
          968 976 984 992 1000 1008
          1016 1024 1032 1040 1048 1056
          1064 1072 1080 1088 1096 1104
          1112 1120 1128 1136 1144 1152
          1160 1168 1176 1184 1192 1200
          1208 1216 1224 1232 1240 1248
          1256 1264 1272 1280 1288 1296
          1304 1312 1320 1328 1336 1344
          1352 1360 1368 1376 1384 1392
          1400 1408 1416 1424 1432 1440
          1448 1456 1464 1472 1480 1488
          1496 1504 1512 1520 1528 1536
          1544 1552 1560 1568 1576 1584
          1592 1600 1608 1616 1624 1632
          1640 1648 1656 1664 1672 1680
          1688 1696 1704 1712 1720 1728
          1736 1744 1752 1760 1768 1776
          1784 1792 1800 1808 1816 1824
          1832 1840 1848 1856 1864 1872
          1880 1888 1896 1904 1912 1920
          1928 1936 1944 1952 1960 1968
          1976 1984 1992 2000 2008 2016
          2024 2032 2040 2048 2056 2064
          2072 2080 2088 2096 2104 2112
          2120 2128 2136 2144 2152 2160
          2168 2176 2184 2192 2200 2208
          2216 2224 2232 2240 2248 2256
          2264 2272 2280 2288 2296 2304
          2312 2320 2328 2336 2344 2352
          2360 2368 2376 2384 2392 2400
          2408 2416 2424 2432 2440 2448
          2456 2464 2472 2480 2488 2496
          2504 2512 2520 2528 2536 2544
          2552 2560 2568 2576 2584 2592
          2600 2608 2616 2624 2632 2640
          2648 2656 2664 2672 2680 2688
          2696 2704 2712 2720 2728 2736
          2744 2752 2760 2768 2776 2784
          2792 2800 2808 2816 2824 2832
          2840 2848 2856 2864 2872 2880
          2888 2896 2904 2912 2920 2928
          2936 2944 2952 2960 2968 2976
          2984 2992 3000 3008 3016 3024
          3032 3040 3048 3056 3064 3072
          3080 3088 3096 3104 3112 3120
          3128 3136 3144 3152 3160 3168
          3176 3184 3192 3200 3208 3216
          3224 3232 3240 3248 3256 3264
          3272 3280 3288 3296 3304 3312
          3320 3328 3336 3344 3352 3360
          3368 3376 3384 3392 3400 3408
          3416 3424 3432 3440 3448 3456
          3464 3472 3480 3488 3496 3504
          3512 3520 3528 3536 3544 3552
          3560 3568 3576 3584 3592 3600
          3608 3616 3624 3632
        </DataArray>
        <DataArray type="UInt8" Name="types" format="ascii" RangeMin="12" RangeMax="12">
          12 12 12 12 12 12
          12 12 12 12 12 12
          12 12 12 12 12 12
          12 12 12 12 12 12
          12 12 12 12 12 12
          12 12 12 12 12 12
          12 12 12 12 12 12
          12 12 12 12 12 12
          12 12 12 12 12 12
          12 12 12 12 12 12
          12 12 12 12 12 12
          12 12 12 12 12 12
          12 12 12 12 12 12
          12 12 12 12 12 12
          12 12 12 12 12 12
          12 12 12 12 12 12
          12 12 12 12 12 12
          12 12 12 12 12 12
          12 12 12 12 12 12
          12 12 12 12 12 12
          12 12 12 12 12 12
          12 12 12 12 12 12
          12 12 12 12 12 12
          12 12 12 12 12 12
          12 12 12 12 12 12
          12 12 12 12 12 12
          12 12 12 12 12 12
          12 12 12 12 12 12
          12 12 12 12 12 12
          12 12 12 12 12 12
          12 12 12 12 12 12
          12 12 12 12 12 12
          12 12 12 12 12 12
          12 12 12 12 12 12
          12 12 12 12 12 12
          12 12 12 12 12 12
          12 12 12 12 12 12
          12 12 12 12 12 12
          12 12 12 12 12 12
          12 12 12 12 12 12
          12 12 12 12 12 12
          12 12 12 12 12 12
          12 12 12 12 12 12
          12 12 12 12 12 12
          12 12 12 12 12 12
          12 12 12 12 12 12
          12 12 12 12 12 12
          12 12 12 12 12 12
          12 12 12 12 12 12
          12 12 12 12 12 12
          12 12 12 12 12 12
          12 12 12 12 12 12
          12 12 12 12 12 12
          12 12 12 12 12 12
          12 12 12 12 12 12
          12 12 12 12 12 12
          12 12 12 12 12 12
          12 12 12 12 12 12
          12 12 12 12 12 12
          12 12 12 12 12 12
          12 12 12 12 12 12
          12 12 12 12 12 12
          12 12 12 12 12 12
          12 12 12 12 12 12
          12 12 12 12 12 12
          12 12 12 12 12 12
          12 12 12 12 12 12
          12 12 12 12 12 12
          12 12 12 12 12 12
          12 12 12 12 12 12
          12 12 12 12 12 12
          12 12 12 12 12 12
          12 12 12 12 12 12
          12 12 12 12 12 12
          12 12 12 12 12 12
          12 12 12 12
        </DataArray>
      </Cells>
    </Piece>
  </UnstructuredGrid>
</VTKFile>
