<?xml version="1.0"?>
<VTKFile type="UnstructuredGrid" version="0.1" byte_order="LittleEndian" header_type="UInt32" compressor="vtkZLibDataCompressor">
  <UnstructuredGrid>
    <Piece NumberOfPoints="819" NumberOfCells="454">
      <PointData>
        <DataArray type="Int32" Name="libmesh_node_id" format="ascii" RangeMin="2316" RangeMax="5735">
          2316 2317 2318 2319 2320 2321
          2322 2323 2324 2325 2326 2327
          2433 2434 2435 2436 2437 2438
          2439 2440 2441 2442 2443 2444
          2598 2599 2600 2601 2602 2603
          2643 2644 2645 2646 2647 2648
          2649 2650 2651 2709 2710 2711
          2712 2713 2714 2715 2716 2717
          2718 2719 2720 2766 2767 2768
          2769 2770 2771 2772 2773 2774
          2775 2776 2777 2808 2809 2810
          2811 2812 2813 2814 2815 2816
          2817 2818 2819 2852 2853 2856
          2857 2860 2861 2970 2971 2973
          2974 2976 2977 2991 2994 2995
          2998 2999 3002 3081 3082 3083
          3084 3085 3086 3087 3088 3089
          3090 3091 3092 3187 3190 3193
          3241 3243 3245 3270 3271 3272
          3312 3313 3314 3315 3316 3317
          3495 3496 3497 3498 3499 3500
          3501 3502 3503 3504 3505 3506
          3765 3766 3767 3768 3769 3770
          3852 3853 3854 4470 4471 4472
          4584 4585 4586 4587 4588 4589
          4635 4636 4637 4638 4639 4640
          4641 4642 4643 4644 4645 4646
          4659 4660 4661 4662 4663 4664
          4722 4723 4724 4782 4783 4784
          4791 4792 4793 4794 4795 4796
          4797 4798 4799 4812 4813 4814
          4815 4816 4817 4818 4819 4820
          4833 4834 4835 4836 4837 4838
          4848 4849 4850 4851 4852 4853
          4896 4897 4898 4899 4900 4901
          4911 4912 4913 4935 4936 4937
          4938 4939 4940 4944 4945 4946
          4947 4948 4949 4950 4951 4952
          4953 4954 4955 4956 4957 4958
          4992 4993 4994 5007 5008 5009
          5010 5011 5012 5013 5014 5015
          5016 5017 5018 5019 5020 5021
          5025 5026 5027 5028 5029 5030
          5040 5041 5042 5043 5044 5045
          5055 5056 5057 5073 5074 5075
          5079 5080 5081 5088 5089 5090
          5094 5095 5096 5103 5104 5105
          5151 5152 5153 5160 5161 5162
          5169 5170 5171 5178 5179 5180
          5187 5188 5189 5202 5203 5204
          5205 5206 5207 5208 5209 5210
          5211 5212 5213 5214 5215 5216
          5217 5218 5219 5220 5221 5222
          5223 5224 5225 5226 5227 5228
          5229 5230 5231 5232 5233 5234
          5235 5236 5237 5238 5239 5240
          5241 5242 5243 5244 5245 5246
          5247 5248 5249 5253 5254 5255
          5256 5257 5258 5259 5260 5261
          5262 5263 5264 5265 5266 5267
          5268 5269 5270 5271 5272 5273
          5274 5275 5276 5280 5281 5282
          5283 5284 5285 5286 5287 5288
          5289 5290 5291 5292 5293 5294
          5295 5296 5297 5298 5299 5300
          5301 5302 5303 5307 5308 5309
          5310 5311 5312 5313 5314 5315
          5316 5317 5318 5319 5320 5321
          5322 5323 5324 5325 5326 5327
          5328 5329 5330 5334 5335 5336
          5337 5338 5339 5340 5341 5342
          5343 5344 5345 5346 5347 5348
          5349 5350 5351 5352 5353 5354
          5355 5356 5357 5358 5359 5360
          5361 5362 5363 5364 5365 5366
          5367 5368 5369 5370 5371 5372
          5373 5374 5375 5376 5377 5378
          5379 5380 5381 5382 5383 5384
          5385 5386 5387 5388 5389 5390
          5391 5392 5393 5394 5395 5396
          5397 5398 5399 5400 5401 5402
          5403 5404 5405 5406 5407 5408
          5409 5410 5411 5412 5413 5414
          5415 5416 5417 5418 5419 5420
          5421 5422 5423 5424 5425 5426
          5427 5428 5429 5430 5431 5432
          5433 5434 5435 5436 5437 5438
          5439 5440 5441 5442 5443 5444
          5445 5446 5447 5448 5449 5450
          5451 5452 5453 5454 5455 5456
          5457 5458 5459 5460 5461 5462
          5463 5464 5465 5466 5467 5468
          5469 5470 5471 5472 5473 5474
          5475 5476 5477 5478 5479 5480
          5481 5482 5483 5484 5485 5486
          5487 5488 5489 5490 5491 5492
          5493 5494 5495 5496 5497 5498
          5499 5500 5501 5502 5503 5504
          5505 5506 5507 5508 5509 5510
          5511 5512 5513 5514 5515 5516
          5517 5518 5519 5520 5521 5522
          5523 5524 5525 5526 5527 5528
          5529 5530 5531 5532 5533 5534
          5535 5536 5537 5538 5539 5540
          5541 5542 5543 5544 5545 5546
          5547 5548 5549 5550 5551 5552
          5553 5554 5555 5556 5557 5558
          5559 5560 5561 5562 5563 5564
          5565 5566 5567 5568 5569 5570
          5571 5572 5573 5574 5575 5576
          5577 5578 5579 5580 5581 5582
          5583 5584 5585 5586 5587 5588
          5589 5590 5591 5592 5593 5594
          5595 5596 5597 5598 5599 5600
          5601 5602 5603 5604 5605 5606
          5607 5608 5609 5610 5611 5612
          5613 5614 5615 5616 5617 5618
          5619 5620 5621 5622 5623 5624
          5625 5626 5627 5628 5629 5630
          5631 5632 5633 5634 5635 5636
          5637 5638 5639 5640 5641 5642
          5643 5644 5645 5646 5647 5648
          5649 5650 5651 5652 5653 5654
          5655 5656 5657 5658 5659 5660
          5661 5662 5663 5664 5665 5666
          5667 5668 5669 5670 5671 5672
          5673 5674 5675 5676 5677 5678
          5679 5680 5681 5682 5683 5684
          5685 5686 5687 5688 5689 5690
          5691 5692 5693 5694 5695 5696
          5697 5698 5699 5700 5701 5702
          5703 5704 5705 5706 5707 5708
          5709 5710 5711 5712 5713 5714
          5715 5716 5717 5718 5719 5720
          5721 5722 5723 5724 5725 5726
          5727 5728 5729 5730 5731 5732
          5733 5734 5735
        </DataArray>
        <DataArray type="Float64" Name="resid_x" format="ascii" RangeMin="-0.006405052237598241" RangeMax="40.50619279550975">
          -0.00010098553628878904 -0.00012152648562668844 -0.000044088355299898296 -0.00003063615918907914 -0.00019425295896979833 -0.00024238587769076503
          -0.00008993970993165235 -0.000057488217807488695 -0.0003946795256979385 -0.0004828601985309433 -0.00022170735316162649 -0.00022195941830815968
          -0.0000151187758703486 -0.000015663679877597758 -0.000014597119433190642 -0.00001602933451838595 -0.0000244200301331432 -0.000021754966389231356
          -0.000018988797591212858 -0.000039328799082749555 -0.00005670510121280614 -0.00004694969082486011 -0.00007154512281992709 -0.00010408895219171654
          -0.00011575264093810489 -0.00009510084402003516 -0.00007065657325178165 -0.0000617059625372951 -0.00016245710877704767 -0.00015409809776667505
          5.599941612643988e-7 0.000017309595673253853 -0.00005079251523376627 0.000001248161114020263 0.00003357378197677008 -0.00002801702061994149
          -0.00003565729984167376 -0.00003406297051178342 -0.00011773851396412738 -0.00001998229022789899 -0.000010937353046802656 -0.000014364308350334198
          -0.000010560828123118426 -0.00003443008029144212 -0.000015120433920490228 -0.000039558195719102685 -0.00003349274725739093 -0.00008664865619412154
          -0.000050095605956368416 -0.00010594494434990054 -0.0001092083033258362 -0.00001808697857752506 -0.000004086943498293749 -0.000044945756042746865
          -0.0000796184139240097 -0.00003135959791356058 -0.00004773566358506898 -0.00006970417245222293 -0.000048553713148713484 -0.00010110681474495564
          -0.00011264842798608399 -0.00010942149066961449 -0.00013263997486046009 -0.000030223875941093326 -0.000026677685992737565 -0.000015149880195686194
          -0.000028637411583432026 -0.000026646084732462327 -0.000009199003085491597 -0.00005975254025480936 -0.00005976494197135196 -0.00004005308607446523
          -0.00010448598996504188 -0.00007021973344656374 -0.0002310030157559595 -0.000019834191217427133 -0.00007215205140020942 -0.000029149808611350636
          -0.00007793999567340393 -0.000032967983841558635 -0.00007212645666498929 -0.00002940120350292119 0.000045155201711111204 0.00000914227729342798
          0.00008254751813296934 -0.00009076884312619882 0.000018686650859578435 -0.000005444906651774772 0.000018330050135517695 0.00001764316935215504
          0.00004759034993462308 -0.000023094546993007725 0.000004703389994809015 -0.00007533247388824549 -0.00001629854717738466 -0.000022589413278151227
          -0.00007994372840480768 -0.00006329917526137763 -0.000027230309816606013 -0.00002336800824975782 -0.000039703475165520086 -0.00006784477009524892
          -0.00003816483600005416 -0.00005415530550134662 -0.00007267685412193359 -0.0000820399537424521 -0.00004565185611760114 -0.00008185916908765023
          -0.000010386165415710025 -0.000019548529364143974 -0.00002250967625627709 0.000011739547390643423 0.00004138911348317009 -0.000012553094788536612
          -0.00006313383567224662 -0.00000587157491471757 -0.00004895654904402136 -0.000017962706964080866 -0.00008873926418662137 -0.00005380631135043501
          -0.000028860219316584335 -0.000009125806171184081 -0.000005716693659785221 -0.00006153039984546638 -0.00006415707338192078 -0.000010017937371209484
          -0.000005175979899796346 -0.00014055357096509624 -0.00011222075587014047 -0.000055446333575126516 -0.000042865866578090106 -0.00012609099697691306
          -0.00005508692901834422 -0.0000923741221708907 -0.000043149956743704365 -0.000047102522189590434 -0.00010984904687827424 -0.00014841698237699763
          -0.000044105962883733696 -0.00009437008716872697 -0.0000674338854125267 -0.00005789589732385636 -0.000045233431873903385 -0.0000705293338283397
          -0.00002248254459757959 -0.000017214869736825733 -0.00004189711078339542 -0.00002443902975635126 -0.000041096693125908246 -0.00002028159441103128
          -0.00006675867842181882 -0.00008659693588208839 -0.0000305544422946058 -0.00004935509798320581 -0.00008105859300588936 -0.00012890636350570972
          -0.0000628905463957441 -0.000055640982755456037 -0.00003623184152834469 -0.00004141012544423006 -0.00006905964647097029 -0.00006386882616737921
          0.000006353758345234439 0.000004094816509869759 -0.000026751285995274543 -0.00006328179762515873 -0.00003665638491767709 -0.00010900367322896898
          -0.00003556859576303584 -0.000034686435976205576 -0.00005450344450536049 -0.000040036932294373884 -0.000010509261447522178 -0.00005942501420408419
          -0.000031395365896358385 -0.00003376745825089955 -0.00004505175029345665 0.00006618983984019167 6.922844786316773e-8 0.0001559287232764106
          0.00000812478782741266 0.000076395736878343 -0.000002898212071222872 -0.00004874213055305887 -0.00003414995023653944 -0.00009838405026840746
          -0.00004411903638246173 -0.000016060723662780774 -0.000025098933120304423 -0.00001984519326159173 -0.00006885327286099141 -0.00005778552768775924
          -0.0000877779621539787 -0.00005090919368999636 -0.000041928715384109694 -0.000015969795088111027 -0.0000566579365006703 -0.000050872068656726555
          -0.00015549278333448768 -0.00011163056656471326 -0.00005026204692359926 -0.000043897541733173284 -0.0001335144455767434 -0.00013034793094579555
          -0.00006141119241220849 -0.00003397672311189481 -0.000050206055108859005 -0.000021475118063385423 -0.000019279285325524143 -0.000017601312571891015
          -0.0000805032423496499 -0.0000886531343375907 -0.00009261429419638034 -0.000030093396124364347 -0.000018223129411243377 -0.000010747558222945486
          -0.00001143511505086181 -0.00003630455765968321 -0.000021872393855648653 -0.000011627590347007555 0.0000677244047180281 -0.000015375997328259672
          0.00013608015513311145 -0.000025956767883528187 0.00005674982038961218 -0.00002001441369570145 -0.0000462493267114894 0.000006775147974202866
          -0.000011563511844503438 -0.000041288977243869596 -0.000013018054544566837 -0.000034805401994741914 -0.00006561605003874149 -0.00004085717842006176
          0.00006586120885332392 0.00014190507731504098 0.00005507486847511345 -0.000043186369341086106 -0.00004889950675668331 -0.0000039498486001932065
          -0.00001669538014725802 -0.00004570211718046835 -0.000059345655665676844 -0.00011850061528617672 -0.00006719094844953588 -0.0000516678566695461
          -0.00005426837958211195 -0.00012419589738943415 -0.0001292369673233651 0.00005701167346927605 0.00016395718605188847 0.000058120643658288174
          -0.00003399376793611353 -0.00004189407351828933 -0.00003292163501011913 -0.000050516990373949966 -0.000036555845435159995 -0.000045524855652345764
          0.000049900957416859626 0.00005801146361639198 0.00018263256592199184 0.0001567604208916329 0.000030480710279334744 0.000027226205818742244
          0.000038194801742275075 0.00016306449956493552 0.00004549068551851221 0.00003509992346772961 0.00020726069733445485 0.00003905086797084678
          -0.000060334783966276007 -0.00002764826634038542 -0.000051615008072047885 0.00004123625838658995 0.00023105683070712146 0.00006960691498214544
          0.00006623405519468051 0.0002476663200048357 0.00005584567253391626 0.0002113361098938782 0.0005569133009277749 0.000136899077698871
          -0.00006290188431279375 0.000002207378248186842 -0.00008421218449683465 -0.00019191514879324245 -0.00018963971298546767 -0.0002539486992141349
          -0.00032362962529219885 -0.00039845937030946743 -0.0004445179990320014 -0.00043015276647295764 -0.0005925549575636069 -0.000622167927957662
          0.0003557200760990753 0.0008932646056898363 0.0002686662487327851 0.00011151317174551423 0.00004195176422250313 0.00026786621103980224
          0.0001304046233912004 0.00020255541484814898 0.00009645917050882247 0.00005985983498923986 0.00002246054998700231 0.0001329436121881855
          0.000059075704124111894 0.00018065694376012686 0.00006646337196869467 0.000018662639535094172 -0.000012121145688936963 0.00012057839661849812
          0.000050526945280182645 0.0002100461039393764 0.00008922576473224808 0.00001089738475990032 -0.00001481285404381083 0.00008966684916700274
          0.000032309602564950524 0.0002359944167444894 0.00010191003037540725 0.000022437703320221658 0.0000024321934937177048 0.0000794638332362041
          0.000022919448776193008 0.0002200512431578261 0.00008889306043258216 -0.0000022364793252904747 -0.000013017139407267564 0.00007889150603901385
          0.000029120528932224943 0.00020792685818626921 0.0000666764813637144 -0.0000399784545255244 -0.000052974090086976844 0.0000845911621247808
          0.000037890667350382046 0.00023855226875646451 0.00007809599102159837 -0.000020923475982925765 -0.00004982862166436064 0.00007723220952193799
          0.00002721419948947812 0.00021238640671938924 0.0000654543375002703 0.00010731359476778835 0.0002766265901357201 0.0002445478699755199
          0.00006875610917234098 0.00015371288688825757 0.00020419222117773472 0.00003519900456439018 0.0001465805427258715 0.0002565745669382835
          0.00004460037084541568 0.00010958668137028837 0.0003020888660323351 0.00006723905583960743 0.00009914294796509182 0.0002933181497262183
          0.000046801083431802226 0.00010755820953001205 0.0002761648306695008 0.000004048109067511518 0.00012098349797007302 0.00033294813793105504
          0.000025412560802351436 0.00011259563659926641 0.00035554457087449975 0.00010051860211390817 0.00026620930930931763 0.0002681180485524237
          0.0000894287732551291 0.00018503922692936214 0.000251290152824879 0.00007692117417956723 0.00017735021493692216 0.0003112157864961773
          0.00009154199941363572 0.00015639854392546226 0.00035595324222104097 0.00010506287322264996 0.00014851513932523375 0.0003741905411587254
          0.0000904448162462046 0.0001493643745131834 0.0004017521921007017 0.00009975281370699918 0.00016764939266344925 0.000437942527449664
          0.0001234376471401788 0.00014909809061336432 0.0004323647214210524 0.00011144784491889936 0.00026627091757092103 0.0002731415894849931
          0.00011949809149847113 0.0002410026827144307 0.0003074754241767508 0.00012658489260797268 0.0002443582743358874 0.00037341002246638055
          0.0001311681241569218 0.00023571944490896612 0.0004371813872179331 0.00014356433207041164 0.00023040493370540815 0.0004860793404279917
          0.00015057857994538182 0.00022734658602718838 0.0005247961133472145 0.00017561570933466442 0.00024666722406774255 0.0005199395981980715
          0.00016627639938349148 0.0002082148343163226 0.0004722291474195117 0.00014204296583741893 0.0002821409462541169 0.0002841167498637276
          0.00016288101286132672 0.00032949360769496394 0.0003919914839105587 0.00019716440726380569 0.00036105348776604984 0.0004972288967453053
          0.00020636860192091433 0.0003746313997270434 0.0005946526863747081 0.0002307808237702602 0.0003672355167720909 0.000642383777355704
          0.00023666158652524416 0.0003438290535422439 0.000649765869759733 0.00021979819781492438 0.00033576349041197773 0.0005805959566487218
          0.0001624817949448243 0.000266793386462183 0.00047545978218899165 0.00006948564739772678 0.00014008371298857014 0.00008924663362108731
          0.000159170446677237 0.00034138748606693525 0.000299752527793018 0.00023465911441711285 0.0004747482549483095 0.000526999771915726
          0.00031786731478877783 0.0005749156517582676 0.0007069377585686709 0.000355356858158018 0.0006190123561680139 0.0008294257945351546
          0.0003609497507728321 0.0005925374549251572 0.0008633639279178595 0.00031759316500057366 0.000506817438660434 0.0008346204200009311
          0.00024227328078030297 0.00041441502741612624 0.0006717984137329935 0.00014142610570822 0.0002893903912273288 0.0004887743304227143
          0.000013013271729533926 0.000034275993101573476 -0.00004868993073259276 0.0001952931650794909 0.00041999328646546985 0.00033945341852614774
          0.00037183785606487163 0.0007224479497107694 0.0007228155424616745 0.0005285470906848388 0.0009637830554485305 0.0010207860907414101
          0.000582505748481843 0.0010526594532445088 0.0012025084149653864 0.0005514327894795557 0.0009712821557092965 0.0012478808527225382
          0.00044806686239340365 0.000730186055056592 0.0011657525525778922 0.0002792075741666622 0.00040790239571997233 0.0007984106565945837
          0.00011558766544084165 0.00016477689684890606 0.0004773286347301564 -0.0001624641365935986 -0.00030060319014069137 -0.0003767965793919359
          0.0002602046888107168 0.0005411577352933961 0.00038394469093461225 0.0006081638425161628 0.001198374303664096 0.001063887896956217
          0.000873646934424599 0.0016636996486898425 0.001566293850439493 0.0009745841795600896 0.0018152825923225535 0.0018445989226822945
          0.0009086552181898355 0.0016284789284490842 0.0018441840995766512 0.0006830324408984012 0.0011126785662991523 0.0015682665034990606
          0.0002499276459548838 0.0002760393349641177 0.0007681674734376642 -0.00011810889952545978 -0.0003126507551307611 0.00018794019245049753
          -0.0005001113751923469 -0.0009550330774033 -0.0007041680513388826 -0.0014078880911920777 -0.002793655099024406 -0.0013349748379862802
          -0.00230867347744379 -0.004616720166586319 -0.0019905273180356176 -0.0029154100866612964 -0.005894675396367788 -0.0024487343776762316
          -0.0031331039101960556 -0.006405052237598241 -0.002589586468713989 -0.0029397614355524126 -0.0060568465806465355 -0.002391627029560084
          -0.002368343150743968 -0.0049130227084104305 -0.00185318746311669 -0.0015963062236350467 -0.003312624933602848 -0.0012888631723457777
          -0.0008988256374653503 -0.0018028176648314798 -0.0007638503054145929 -0.000029191541040418656 0.000025342343429102243 0.0000177264421754586
          0.00006572400382154342 0.00003299552852986665 0.00016655400606246928 0.00012399816066555047 0.00010052313888309072 0.00031847575970189723
          0.00016751226100630845 0.00013284742327002164 0.0003797913948080378 0.00016895777122627464 0.00018127413984636576 0.0003900914007317624
          0.00014237194577049195 0.00022533586644613024 0.00037019859560771806 0.00010007009115398091 0.0002259470470189484 0.00033823001155752763
          0.000056032563234609256 0.00010581880530580179 0.00026016185531752 -0.00016689209425635454 -0.00033206966825272133 -0.00003996000331341065
          -0.00045298732487086824 -0.0008383268315599324 -0.0004851285641116476 -0.0000508020439085044 1.2613311461961985e-7 0.000020648370313125497
          0.00006515870313705818 0.000004699995425738734 0.000126396753040936 0.00015103182850673136 0.00008927076233788966 0.00028759124849564444
          0.00020577199166282867 0.00012201399091260612 0.0003349505155654242 0.00020020669075826447 0.00017027507758271554 0.00030880018800871767
          0.000151395350139083 0.0002113001487078492 0.00025836901733100603 0.00008687332580947782 0.00020610225507944335 0.0001955174091197165
          0.000019008618075133654 0.00009849695651986679 0.0000492461132148847 -0.00019367828841332368 -0.00028895473085199797 -0.00033939267461668976
          -0.00035775981338748153 -0.0005984622493500069 -0.0005291988930702374 -0.000051889829398632514 -0.000005637008490211315 0.000020475053721824565
          0.00006133878977720997 -0.000010266973422545789 0.00009735440533553685 0.00013977519527053062 0.00007849115464431122 0.00023666542656286538
          0.0001989124572396861 0.00011352840590639346 0.00028219706991983173 0.00018165933070335427 0.00016764378437983396 0.0002375235208837978
          0.00013247829706841685 0.00020887111970324668 0.00018390201214479873 0.00007294832646387306 0.00020058936513223102 0.0001291435457471124
          -0.000018623773975434688 0.00007570114478117063 -0.000018008371280409108 -0.00022327263969845745 -0.00026901836549431124 -0.00037954084782221287
          -0.00029340413965073253 -0.0004194899349743153 -0.0004181230874298336 -0.00003583379855065516 0.000015439189583688062 0.000020059834222152517
          0.00005054988338848432 0.00004049511977122222 0.0001470685137263672 0.00014078569455122647 0.000054510689501796605 0.00020667837736176864
          0.00016548888373613124 0.00009038447351983336 0.0002248569919718335 0.00012138514592408001 0.00015307691619348418 0.00016850670202472884
          0.00006998185723361416 0.00019857518458721302 0.0001195786210939076 0.00003998944096572643 0.000184175046058499 0.00006914820316339387
          -0.00003567459797615413 0.000052602987008931734 -0.000056906206689966154 -0.0002296336314691061 -0.0002356085329155988 -0.0003532189827719634
          -0.0002395630391616166 -0.00028823896390939296 -0.0003237499036821134 -0.000057548121199957336 -0.0000355075229823143 0.000010236699660381987
          0.000013656857053234717 0.000004430894527729379 0.00007370434281916971 0.00006904569851684528 -0.000011944105525074633 0.00011617608514491451
          0.00012482856370965578 0.000037407548681756 0.00013344657766900525 0.00008397120907943645 0.00011527605758310244 0.0001206649512806024
          0.00004243086025468301 0.00016749097272317215 0.0000945491058725878 0.000015146157002376981 0.00015668750687147792 0.000039363399286784784
          -0.00005385099581722841 0.00004267172457250723 -0.000057904679396258985 -0.00021294116780445904 -0.00018610063454627124 -0.00027762646670304036
          -0.0001868053708049544 -0.00019486809167013064 -0.00023457628242251616 0.000005292915197685488 0.00003004715562759941 0.00005599214849105749
          0.00003926567177359175 0.000005199890543039487 0.00004164959994845674 -0.000003155084604244962 -0.00014325862636788145 -0.000018843049915062693
          0.000051519398706290076 -0.000044357600845756906 0.000017379855846044734 0.0000632678473362347 0.00010866485141924898 0.00008097147516572534
          0.00003796551998647146 0.00015471508839048909 0.00007190609422735861 -0.0000013448658418013792 0.00012246273060334545 0.000023471539428499
          -0.00004733577515558807 0.00003544724680359934 -0.000038064798636661124 -0.0001440379257786617 -0.00011761207116744998 -0.00018572325761034847
          -0.0001252066267705132 -0.0001214184109912253 -0.00016330897719019077 -0.000015888633205562996 -0.000014978115141062176 -0.000035072231254318353
          -0.00014235568230169804 -0.000029905972395383174 -0.00005478869283592758 -0.00017311784725038137 -0.0005247651345428039 -0.00028833425706409344
          -0.0001688956405203612 -0.0003942421793912132 -0.0003672134778884839 -0.00006252828714714553 -0.00010382534364694607 -0.00014704824119426974
          -0.0000876722847795719 -0.00007694680216197014 -0.000144315753688673 -0.00007608839009343171 -0.000006365405152308767 -0.0000720991887970257
          -0.00004738195917042276 -0.00001886072851942089 -0.00003922121285615532 -0.00009896750218452155 -0.00012021385595950562 -0.00012138879099055089
          -0.00010406115394623328 -0.00011772925901620823 -0.00012354737375197544 0.003834580197393578 0.006621968844418902 0.007682774986587759
          0.013155202917010556 0.003988776129080662 0.006910454486327211 0.0032066942837225554 0.006298874198915172 0.003511559937127373
          0.0008103606823208764 0.0016101582988490293 0.000019059155929923577 0.0010150547202414373 0.002082758127023965 -0.00033712365972426994
          0.001792860519630679 0.003622634642175271 -0.00027484019053680697 0.0008730564283876419 0.0018098997097677483 -0.0004374256782355701
          0.00018463531752210827 0.00039087606534504715 -0.0004448727620856019 0.00006337992093730094 0.0001733007381323759 -0.00012557115728917267
          -0.00003400450275670153 0.00000932526061525607 -0.00004815828260973376 10.176690609770358 20.253030127183045 20.353453371706923
          40.50619279550975 10.176578653416582 20.253279355436547 19.947036563930595 39.894226241388395 19.948393521995456
          19.421728802009994 38.84363798071068 19.423019887395895 18.667017449335727 37.33418909733754 18.667169299606776
          17.69572628490983 35.39151248113689 17.693356176157753 16.571373570329392 33.14270077639051 16.568931619060308
          15.445024163946318 30.88983229373762 15.442040898402023 14.576277553521681 29.152108176846507 14.571613261756013
          7.128322475052665 14.256287614356719 7.125164426972292
        </DataArray>
        <DataArray type="Float64" Name="resid_y" format="ascii" RangeMin="-2.6716998046814235" RangeMax="3.06495076299435">
          -0.00008795622776613943 -0.0000415106367823298 -0.000015217982716170253 -0.00002556132338725481 -0.0001721216058019337 -0.00008471538908247367
          -0.000035781322557659756 -0.00003986876069812795 -0.00008750828491438378 0.00003707685069145872 0.000011847747511988665 -0.000029095247491547904
          -0.000011684006276803383 -0.0000018725047266493489 -0.000018495327905737602 -0.000011774800369596106 -0.000029323231798786265 -0.00004177074703798182
          -0.00005398588350943867 -0.000040964736927176504 -0.00009974365033495886 -0.00013658650062411785 -0.00013392071647821968 -0.00013623474216940823
          -0.0000987697313909186 -0.00008342960398269664 -0.00008635837735032625 -0.00004857624843313674 -0.00010077105301381506 -0.00010144574579500076
          -0.0000870526350741363 -0.00007405181653322157 -0.00008535190324790443 -0.00007480690681260782 -0.00011669644455492012 -0.00007950726272321074
          -0.00012482850091061204 -0.00012119946781583013 -0.00010818521951086457 -0.0000053234424447143325 0.0000033171886827595976 2.4077519384952534e-7
          0.000016204840063975545 -0.00002333417523950332 -0.000012914675060498107 -0.000010770934174919068 -0.00005711604110771734 -0.00014823840823203344
          -0.0000960751204991759 -0.00019114543724391142 -0.00024618529044036913 -0.0000015130232333686496 0.0000037978048214870608 -0.00010923170191143826
          -0.0000708760978554504 -0.000004513110883264636 0.000010687299989662127 -0.00011288872485773482 -0.000059789850640444564 -0.0000645637314922059
          -0.00007388326868593836 -0.0001872022787105859 -0.0001833266547595011 -0.000024443417320885175 -0.000012745177600581581 -0.00008251019009964528
          -0.00002922706440278925 -0.000032067152013759426 -0.00005164891306317504 -0.00010869019485420855 -0.000117226510640972 -0.00012287491527449013
          -0.00008088508587850152 -0.00014470512832381877 -0.00010966864401962262 -0.0001078606334374288 -0.0000990075031584714 -0.0000761263535307144
          -0.00010439554211721935 -0.00006654847854320467 -0.00010311812453750457 -0.0001236705968609697 -0.00013848135875126934 -0.0001929017450696957
          -0.00014752965323935885 -0.00012238319036667056 -0.00009222604243237092 -0.00006835185877149264 -0.00005697077240512591 -0.00007141007938494051
          -0.00012661847341799426 -0.00008529699121817558 -0.00009830147617580741 -0.000055757208347422677 0.0000036304684296016576 0.0000034290487717160466
          -0.00008043053791392807 -0.00003285404039934242 -0.000008527572714241843 -0.0000378584321670504 -0.000045752771826178956 -0.0001479863999976315
          -0.00011104377781903305 -0.00018133778093614545 -0.00021924132955802866 -0.0001686784575234898 -0.00018892003955898323 -0.00010711993584893754
          -0.0001140326223760587 -0.0002471130586691912 -0.00014896677989869635 -0.00012936145877595617 -0.00013386762653333495 -0.00009554504988662504
          -0.00009508502635374727 -0.00005034466261048809 -0.000043325615413827845 -0.000026013100858396365 -0.00012840244743589357 -0.00011312173032904105
          -0.000010325907580016613 -0.000005509407226406138 8.158689668996688e-8 -0.00002312546848239061 -0.00002716216860915166 -0.00002033952189192667
          -0.000013940309371667653 -0.00005400950255998738 -0.00007460383115347191 -0.0000858352865181905 -0.00008775948737485897 -0.00009405790000285852
          -0.00008466326653726319 -0.00001732610895999187 -0.000041152093995813765 -0.000007781699699244832 -0.00012971744890041825 -0.00009673718729887384
          -0.000018398589740408616 -0.00005215227601347572 -0.00007850814186475402 -0.00011907527132946384 -0.0000509868922806897 -0.0001556084207826377
          -0.000040556627014215474 -0.000052363158395895074 -0.00005268894170333549 -0.00007495564694543974 -0.00005762558376980198 -0.00004458115012019592
          -0.00005173925214100022 -0.000017222004817935878 -0.00002991209834042434 0.000003839824585507787 -0.00004829946355057154 -0.000026532241626224355
          -0.000028469262070809215 -0.000036043919598133245 -0.000018120015503105685 -0.00004446823640250064 -0.00010023769894770482 -0.00008024383014344771
          -0.00003547972091869425 -0.000020585910021898163 -0.00008649941420613497 -0.00012495931019176898 -0.00016555389042199886 -0.00014651854999594982
          -0.0000923239261665515 -0.00004481930681111794 -0.00011652949368945106 -0.00005806980590329289 -0.00003729832520452982 -0.00009055326052716597
          -0.00006167719582165013 -0.0000365776790714617 -0.00006876951246119825 0.000006503733142603201 -0.000024030727104829876 -0.00004482399027564343
          -0.000049056188922898605 -0.00006524258146174038 -0.000053747045894981214 -0.00016767477783972973 -0.00006587510628072724 -0.0001499987806994202
          -0.00015373352469751078 -0.0000544099922924644 -0.000032702311424076536 0.0000025110159457284245 -0.00012838217236404992 -0.00010675452405118453
          -0.00015827393209999485 -0.00010928881195536311 -0.000046911285681502934 -0.00002949984063629202 -0.00013376460874671425 -0.00011864364453066656
          -0.000018500584205494164 0.0000072512794248615065 -0.00001526849008173098 0.000004079246759033928 -0.00003568093983800924 0.000004376929461839471
          -0.00010108684251013828 -0.000023779371266678673 -0.00007439188614022374 -0.000088764287001903 -0.00006841035656937264 -0.000057071348699038946
          -0.00014426576323671447 -0.00008594585424429035 -0.00010818790033464976 -0.00007666492604939401 -0.000038245674475207575 -0.000020380584898397475
          -0.0000012835268930616595 -0.00011167961167649065 -0.000029415169458328963 -4.342144764623093e-7 0.000007187166119156704 -8.679369975913773e-7
          -0.00003264219544273214 -0.00005138543013123026 -0.00006555179043545327 -0.00012343532832373308 -0.00008033956668770156 -0.00005956624259054709
          -0.00005674943285253163 0.000012023128866713202 0.000006219838201534239 -0.00010296472408446479 -0.00008690890008869901 -0.00006570474318610443
          -0.00007482666477213107 -0.000019478059358677986 -0.00004916622229438625 -0.00008366457725728083 -0.00013391495233226313 -0.000025617627898627537
          -0.000027837024969880504 -0.00006847383940448981 -0.0000821730020675272 0.000019712985640596772 0.000015865954487791212 -0.000010655344148565588
          -0.0000013281585175967114 0.00002121360625258542 0.000042520154163089297 -0.00009079114705034565 -0.000023646494266949415 -0.00004596645281913043
          -0.0001281390027784708 -0.00005340141396653316 -0.00006806774690357913 -0.00008560870034123036 -0.00002278955497907187 -0.0000598003630557023
          -0.00003167585308358565 -0.00006372314566905138 -0.000010909949304857731 -0.0000274301530286368 -0.000011814423160149898 -0.000041363419296915754
          -0.00009318763086819991 -0.00003793559032402383 -0.000060215164729601235 -9.84748287117046e-7 7.346159870873573e-7 0.000004837995018215982
          -0.00013347544669765898 -0.00004581236036442504 -0.00007538626368400192 0.000028587966359587894 9.86345615891504e-7 0.000009594138986124615
          0.000028415426576861025 0.0000035876569978166017 0.000023480598162886612 0.000015533028772184154 -0.000025688937800319445 0.00002262293082532646
          -0.00010506611842044447 -0.00020784629149321956 -0.00009001831325231024 -0.00010191741278786637 -0.00021766034552772595 -0.0001187773771870182
          -0.00011064918557568415 -0.0002217862002258375 -0.000096363002450639 -0.000052660770728130135 -0.00019589766150951426 -0.00004489096345455801
          0.000016140886113027997 -0.00004125822488046382 -0.0000067996603530934285 0.000007606412279481667 -1.3357789083534803 0.000019482931754799537
          -2.6716998046814235 0.00007808509846274347 -1.3387133430168467 0.000014753256176280871 -1.1742658826349952 0.000029516407328955552
          -2.3486682914203385 0.00006727140084006322 -1.177480403399616 0.000017716143726254074 -0.9121537954549441 0.000029830821428600274
          -1.824429215775814 0.00004477015955695052 -0.9154752783568421 0.000010781629579847962 -0.5650712299300562 0.000029826507953356618
          -1.1302322305479287 0.000007807901728218436 -0.5681032710430145 0.0000035813538285661695 -0.15944021239361253 0.000024897082402539072
          -0.3189261662407771 0.000004309254567166909 -0.16162881391300193 0.0000010143675697737997 0.2723816409185674 0.000017663995357256046
          0.5447660162977221 0.000011824656188111349 0.271603049411546 -0.0000055863441223436006 0.6979081460309731 0.000007775372707130579
          1.3958633126377054 0.000003714225043638386 0.6988943069320912 -0.000013578700257366183 0.8979791101289696 3.863691490635368e-7
          1.7960140452867384 -0.000015931731463803 0.9000464619151749 0.00007183464343329948 0.0000731387906268699 0.00010027798720591008
          0.00007517701431669632 0.00006375485383103285 0.00010600117676051735 0.00006253608452655435 0.00006932390599911908 0.00006797111887169027
          0.000019608636818768677 0.0000671465927168935 0.0000318727961851617 0.000008185134873939237 0.00006106165748567816 0.000013657138838218952
          0.000012060502075868229 0.00004503088868279548 -0.000001651467214584812 -1.389578444532802e-7 0.00002423872910012337 -0.000020492161192625646
          -0.000019066766877851027 0.000011096784745479038 -0.00005376809475249322 0.00010385517708166869 0.0000880144486083978 0.00012860033610895272
          0.00011501668818059141 0.00008669722713561256 0.00012307723333671028 0.00008848644223879987 0.00009930864582197163 0.00009038829186813757
          0.00004365989995624986 0.00010265791957619896 0.00005492541777241122 0.00002743311140485094 0.00009139605068170242 0.000022298030863288076
          0.000012784087944833766 0.00006776770006730604 -0.000009102469175799321 -0.000012023008135575441 0.000039248059814894765 -0.000041730581102739084
          -0.00002817402624308296 0.00002945326492855005 -0.00007971735509651467 0.00013303163967415266 0.00008443472911556782 0.00010101103806658962
          0.00013419616161725045 0.0001091750623503085 0.00013054101037424104 0.00011527440174485815 0.00013629794826519603 0.00011614209675225862
          0.00007780001870116848 0.0001515345549649716 0.00008953335345784907 0.00004914821651352819 0.0001444363338867216 0.0000352739259560364
          0.00001628557176291956 0.00011942933232295116 -0.00001309443354130524 -0.000011515979157480927 0.00008168334533492291 -0.00004228174819453229
          -0.00002765302640145295 0.00006378784948737892 -0.00006727992239671798 0.00009008804793042557 0.00005982441280227846 0.00007721015266426434
          0.00013660603385079462 0.00011815129521886014 0.00012400627276831777 0.0001371063772641623 0.00017637183998742145 0.0001401604570692161
          0.00012212274804879186 0.00021977309849663396 0.00012745821351345388 0.00008119778123005794 0.00023539126907423658 0.00008088600981792649
          0.00003128885624203992 0.00021695345956967982 0.00002673528608282405 0.000005052231569574461 0.0001676034745627386 -0.00001185830992428416
          -0.000001572653484160913 0.0001253390162637702 -0.00003138893173432189 -0.00003447606637196898 -0.00005949256140791448 -0.000026962389205298365
          0.000046342527307396963 -0.000012512104830442183 0.000013461130140335342 0.00011084530607696763 0.00008911520853982502 0.00008738254231799303
          0.0001519711461928086 0.00020749903830274974 0.00014831859398412028 0.00017242802179628924 0.0003222126774966583 0.0001917478762836211
          0.00015876324116137486 0.0004013162372024093 0.00018938138864610377 0.00011378206887302511 0.0004095045848546697 0.00014111102002400955
          0.00007204258401016794 0.00034168870159934084 0.00007471957076565783 0.00004519152330861864 0.00023927990386185538 0.000028440612153235456
          -0.0001224601907425793 -0.00026041842884261257 -0.00014349884570585836 -0.00006880368111983337 -0.00019513471418242112 -0.00010226082347730703
          0.000026439554833945778 -0.00003592653964057391 0.000016895014589124457 0.00013702925089775775 0.00020747642389618015 0.00016605236038569338
          0.00024748303092025914 0.0004777347142101984 0.0002966762245384391 0.00031023167180133093 0.0007012670147918953 0.00037827318892014183
          0.00030000297282650745 0.0007926420401020984 0.0003837994498325781 0.0002285100097699777 0.000687420407824435 0.0002781632859283345
          0.00012800780948585277 0.00042094995959751635 0.0001315906795469335 -0.0003344411336774211 -0.0007012210832950672 -0.00036242639183092784
          -0.00034454023143681844 -0.0006908276422574744 -0.0003702649412917758 -0.00018652613579250854 -0.00040308374702879846 -0.00014344171711355713
          0.00006572029526230594 0.000093868648741946 0.0001648398976401566 0.0003232118732765521 0.0006610037814174241 0.00045744589862772855
          0.0005264786198480031 0.0011710974836010024 0.0007140250917707647 0.0006292404133492191 0.001468656347059616 0.000864393768615912
          0.0006112850768099642 0.0014553092487197272 0.0007554170743762079 0.0002614530692488515 0.0006914597922249577 0.00029167434631660605
          -0.0003118550113653251 -0.0006897779796746217 -0.00037674491981387614 -0.00055101766673471 -0.0010552287124765414 -0.0005496649006908605
          -0.0007596364049962112 -0.0015241894295776603 -0.0007316943904054352 -0.0009827475985169087 -0.0019691969621336014 -0.0009017414173637661
          -0.0011722581604614035 -0.002258127484670247 -0.0010014354440106565 -0.0011909182524241224 -0.002221208083546422 -0.0009502580704112695
          -0.000979904415015831 -0.0017720482023966255 -0.000709285551526051 -0.0005108195716894137 -0.0008359931589079217 -0.0003374380177882941
          -0.00019030993987478872 -0.0002382884973264332 -0.00015444681630305546 0.9387614582242164 -0.000026497972551497995 1.8776059653146837
          -0.000003654532446661918 0.9411650066676519 -0.000028187700072124233 -0.00005142930357637798 0.000005147205774214125 -0.00007530013687434556
          -0.00005929131365672857 0.0000158577019381545 -0.00009514582698222362 -0.000054043683615903615 0.00003958913044449508 -0.00007743458848193108
          -0.000022855668769750093 0.0000743642086847851 -0.0000418968998442959 0.00000474290137053579 0.0001257338416336129 -0.000014547336449233228
          0.000028872431089066453 0.00018518504009823467 0.000008337389827306474 0.00003693872994448011 0.00021897730267284032 0.00001424995765242354
          -0.00007975781440006102 -0.00003271231479751169 -0.00009603083130738099 1.0889739151749034 -0.000035924061572767396 2.178049936296274
          -0.000002251135657493908 1.0917247480596384 -0.00003590446046386475 -0.00007002744620454582 0.000008876437527560732 -0.00007608995374658312
          -0.00008122336197188829 0.00002845538456849872 -0.00008809832150860619 -0.000060469646471817545 0.00005320901234422831 -0.000059884966716283045
          -0.000025666786848788092 0.00008195519305953525 -0.00003040260448078369 0.000003835288653331048 0.00011243818464246047 -0.00002141536262145749
          0.000013758072359371099 0.00015554179369980936 -0.000027167271914985136 0.000005714443238269418 0.00016606708677424642 -0.000047245779472904204
          -0.000018456574989111907 0.0000941448452682625 -0.000019178490069271525 1.2163704057881481 -0.00004119491588749913 2.432853845374133
          -0.0000039666155002837655 1.2193486257564783 -0.00003799663339110193 -0.0000706812692687353 0.000010998067080436602 -0.000051744158417910135
          -0.0000599536023411229 0.00004647698885612561 -0.000054429895468111056 -0.000033579540350117676 0.00007709524308896487 -0.000038841045851251144
          -5.127676320770824e-7 0.00010283392733700936 -0.000018459952138394353 0.000014427876275591167 0.00012952238831664964 -0.000011779351057283893
          0.0000228798429138255 0.00016743535726049252 -0.00001146184123845817 0.0000014022173537853178 0.00014480743471240176 -0.00003079988746329532
          -0.000005395937482610691 0.00012523987434570616 0.000030444714757549285 1.3207816672867598 -0.00004617820600072431 2.641682254570066
          -0.000011235135134346486 1.32390343320928 -0.000041257626965385263 -0.00006369346281120958 0.000017478625805200654 -0.0000630007038019409
          -0.000020891157831659513 0.0000744902201790798 -0.00003984884015933998 0.000007978795431018426 0.00011424509060706245 -0.000022195553703335813
          0.000022720412430121684 0.0001389218000082959 -0.0000034328321230209236 0.000029659353501354513 0.00015939933994169042 0.000012263180625526893
          0.000032702859828981357 0.00017262546257218458 0.000020200775584899855 0.0000015124245840714146 0.00011709398064319032 -0.000010805259180346471
          0.000014650124097015382 0.00013250703720546486 0.00004720518261858153 1.403046755993273 -0.000053052751178173096 2.8062153334847837
          -0.0000332380108426511 1.4062428586528184 -0.00006505741770712614 -0.00005362015147036825 0.000009928189978580804 -0.00008308119142952375
          -0.000003030121712765954 0.0001235504351284611 -0.000029003604459287846 0.000029917142321256307 0.00016309728444433014 -0.0000025576475710387125
          0.00003916343148355032 0.0001860845835430832 0.000015917838883149418 0.00004061867404850372 0.00018791767502826517 0.000034031645413212797
          0.00004082300399310679 0.00016799466857753131 0.000039059890517278983 0.000006607331873020872 0.00007717318630862113 -0.00001647087134301617
          0.00003321189560820392 0.00013161513192114227 0.000049583595321450735 1.4645785606846489 -0.00006964926725194776 2.929276317355192
          -0.0000804374651989237 1.4678006289246648 -0.00012906656708266961 -0.00007664585295463766 -0.00002704964555566569 -0.00012446883343364412
          0.00003387516656355727 0.00020548016171789696 0.00007090394271180855 0.00003245432533988124 0.00018508814763207315 0.00004422258681602287
          0.000057527338923876736 0.00021934938552227445 0.000048099354930719596 0.00004263077375227242 0.00019835349702572447 0.000037815980796551685
          0.00004334122061261381 0.0001684268452203097 0.00004126226832737445 -0.000003639214729067586 0.000035992340586182836 -0.000037877381500461826
          0.00004400038757651492 0.00013944719843872466 0.00004750824002655585 1.5069420809139165 -0.0001837874232025749 3.014002797141141
          -0.0002966509601433076 1.5101987399957109 -0.00005599161071967451 -0.00022024522213448527 -0.0002845917078841964 -0.00014755266152222113
          0.0002474340161863209 0.0006687549955260996 -0.00003438474092620769 0.0000849029568886217 0.0003325758682303781 -0.000055936338979878375
          0.00010852907648586929 0.00035894148421161676 0.00005884037696984867 0.00005608405699356056 0.00023308783559012475 0.00007846104108866908
          0.0000435913452033615 0.00019379662280145926 0.00007275582670970837 -0.00003903832384960504 -0.00004345738094931745 -0.000025913104249278285
          0.000057375030955347794 0.00015134493076406075 0.00008527143502605472 1.532421678368209 -0.0002336109046999768 3.06495076299435
          -0.0003987392569100301 1.5357050945172857 0.00013193038768000154 -0.00018861841417383562 -0.00027517485234695993 -0.00022555498530651974
          0.0003925703610767606 0.0009403923506111633 -0.0003517146794931314 0.00013236541677391633 0.00043201337120807315 -0.00020597512430076126
          0.00006658610379545182 0.0002934331924293043 0.00002044066089018637 -0.00016793700740813655 -0.000155804742927812 0.0003443827476881378
          -0.0000897431830420986 -0.000050508264304895134 0.00023658034812415463 -0.000046342335712311247 -0.00006671626032378356 0.00007816017882241247
          0.000040956378383576186 0.00008705369069910568 0.00007436384693785408 0.7709014417548117 -0.0005306847488257826 1.541865784189246
          -0.0010028712506440218 0.7725736807344047 -0.0002827460693722861 -0.0008163370851305141 -0.0015408793943415544 -0.0008866179282477349
          -0.000031113210790967294 0.00004513109587467312 -0.0003971977052603659 0.0002671478512219494 0.000621992585203679 -0.0002629292181319798
          0.00007005533882242787 0.00023937121100758851 -0.00006909144678934886 -0.0003587764573937946 -0.0005799573118290824 0.00045090175850387437
          -0.00014841617179828237 -0.00021261046848461418 0.00034334629116963833 -0.00003767882045709048 -0.00006333628135706676 0.00012745161755930295
          0.000010771673505267313 -0.000001921593430355851 -0.000007810545028529708
        </DataArray>
        <DataArray type="Float64" Name="resid_z" format="ascii" RangeMin="0" RangeMax="0">
          0 0 0 0 0 0
          0 0 0 0 0 0
          0 0 0 0 0 0
          0 0 0 0 0 0
          0 0 0 0 0 0
          0 0 0 0 0 0
          0 0 0 0 0 0
          0 0 0 0 0 0
          0 0 0 0 0 0
          0 0 0 0 0 0
          0 0 0 0 0 0
          0 0 0 0 0 0
          0 0 0 0 0 0
          0 0 0 0 0 0
          0 0 0 0 0 0
          0 0 0 0 0 0
          0 0 0 0 0 0
          0 0 0 0 0 0
          0 0 0 0 0 0
          0 0 0 0 0 0
          0 0 0 0 0 0
          0 0 0 0 0 0
          0 0 0 0 0 0
          0 0 0 0 0 0
          0 0 0 0 0 0
          0 0 0 0 0 0
          0 0 0 0 0 0
          0 0 0 0 0 0
          0 0 0 0 0 0
          0 0 0 0 0 0
          0 0 0 0 0 0
          0 0 0 0 0 0
          0 0 0 0 0 0
          0 0 0 0 0 0
          0 0 0 0 0 0
          0 0 0 0 0 0
          0 0 0 0 0 0
          0 0 0 0 0 0
          0 0 0 0 0 0
          0 0 0 0 0 0
          0 0 0 0 0 0
          0 0 0 0 0 0
          0 0 0 0 0 0
          0 0 0 0 0 0
          0 0 0 0 0 0
          0 0 0 0 0 0
          0 0 0 0 0 0
          0 0 0 0 0 0
          0 0 0 0 0 0
          0 0 0 0 0 0
          0 0 0 0 0 0
          0 0 0 0 0 0
          0 0 0 0 0 0
          0 0 0 0 0 0
          0 0 0 0 0 0
          0 0 0 0 0 0
          0 0 0 0 0 0
          0 0 0 0 0 0
          0 0 0 0 0 0
          0 0 0 0 0 0
          0 0 0 0 0 0
          0 0 0 0 0 0
          0 0 0 0 0 0
          0 0 0 0 0 0
          0 0 0 0 0 0
          0 0 0 0 0 0
          0 0 0 0 0 0
          0 0 0 0 0 0
          0 0 0 0 0 0
          0 0 0 0 0 0
          0 0 0 0 0 0
          0 0 0 0 0 0
          0 0 0 0 0 0
          0 0 0 0 0 0
          0 0 0 0 0 0
          0 0 0 0 0 0
          0 0 0 0 0 0
          0 0 0 0 0 0
          0 0 0 0 0 0
          0 0 0 0 0 0
          0 0 0 0 0 0
          0 0 0 0 0 0
          0 0 0 0 0 0
          0 0 0 0 0 0
          0 0 0 0 0 0
          0 0 0 0 0 0
          0 0 0 0 0 0
          0 0 0 0 0 0
          0 0 0 0 0 0
          0 0 0 0 0 0
          0 0 0 0 0 0
          0 0 0 0 0 0
          0 0 0 0 0 0
          0 0 0 0 0 0
          0 0 0 0 0 0
          0 0 0 0 0 0
          0 0 0 0 0 0
          0 0 0 0 0 0
          0 0 0 0 0 0
          0 0 0 0 0 0
          0 0 0 0 0 0
          0 0 0 0 0 0
          0 0 0 0 0 0
          0 0 0 0 0 0
          0 0 0 0 0 0
          0 0 0 0 0 0
          0 0 0 0 0 0
          0 0 0 0 0 0
          0 0 0 0 0 0
          0 0 0 0 0 0
          0 0 0 0 0 0
          0 0 0 0 0 0
          0 0 0 0 0 0
          0 0 0 0 0 0
          0 0 0 0 0 0
          0 0 0 0 0 0
          0 0 0 0 0 0
          0 0 0 0 0 0
          0 0 0 0 0 0
          0 0 0 0 0 0
          0 0 0 0 0 0
          0 0 0 0 0 0
          0 0 0 0 0 0
          0 0 0 0 0 0
          0 0 0 0 0 0
          0 0 0 0 0 0
          0 0 0 0 0 0
          0 0 0 0 0 0
          0 0 0 0 0 0
          0 0 0 0 0 0
          0 0 0 0 0 0
          0 0 0 0 0 0
          0 0 0 0 0 0
          0 0 0 0 0 0
          0 0 0 0 0 0
          0 0 0 0 0 0
          0 0 0
        </DataArray>
        <DataArray type="Float64" Name="stress_zz" format="ascii" RangeMin="-994986.2336448447" RangeMax="977441.5142521918">
          -40952.49930912144 -140596.39808465546 -52910.302314268716 10888.499491473529 -41147.27952051592 -140083.5571023972
          -53683.78725716254 11575.30673328498 -41342.059731910405 -139570.71612013885 -54457.27220005639 12262.113975096432
          -41707.41663806187 -18457.615936770264 -56959.32943203596 -71697.5215806662 -41603.16792594245 -18403.993037119613
          -56888.33018367889 -71770.2518592985 -41498.91921382303 -18350.370137468963 -56817.33093532182 -71842.98213793078
          -51875.82158849642 24892.390050112957 -52269.85207562258 25242.904589675156 -52663.88256274874 25593.419129237358
          -17732.575258329787 -17147.629888793606 -64419.050870665465 -17685.76708820914 -17269.532451700736 -64723.49814867156
          -17638.958918088487 -17391.43501460787 -65027.94542667767 26703.65859423472 25237.31844781802 10268.932969250338
          16964.042581758556 26890.827601724548 26176.45799819125 10294.429546663001 16939.712770768758 27077.99660921438
          27115.597548564478 10319.926124075666 16915.38295977896 957.8447645691555 -9896.918029126768 3556.4470207561503
          8971.147692291011 812.484324512574 -10247.017387340014 3621.322467321453 8821.818420333522 667.1238844559925
          -10597.116745553263 3686.1979138867573 8672.489148376037 2666.9370970298623 20717.101077549432 20325.476334266878
          2555.0086011350513 20528.629120160535 20483.766989235515 2443.0801052402403 20340.15716277164 20642.057644204146
          3405.6092849733122 3586.441866620031 3767.274448266744 24987.909479202543 20465.692383820424 25272.50758821154
          20379.53687308285 25557.105697220537 20293.381362345273 48133.115470286866 28055.98090001822 48394.59623321945
          27860.415918567705 48656.07699615203 27664.85093711718 4812.960317537242 2149.6037001114455 4986.485350135564
          2060.8247581482174 5160.010382733886 1972.0458161849897 13731.219934258994 2534.1772970341735 -4410.282464727664
          2357.1778236666923 13766.75008591133 2632.1406546317853 -4363.2722159320265 2286.214099070003 13802.280237563664
          2730.1040122293953 -4316.261967136392 2215.2503744733126 604.9307942863702 541.763568369484 478.5963424525978
          -3577.234791223234 -3657.304868985348 -3737.374946747461 3984.60127374805 3976.872732297702 3969.1441908473535
          -31579.6641174775 -42898.9772713878 -31691.877324065852 -42944.54825490479 -31804.090530654204 -42990.11923842178
          -4945.335002890786 8258.995686696348 7128.872906824758 605.8633249695723 -5126.0661996083945 8235.517974542103
          7101.502878252552 631.3085922500487 -5306.797396326004 8212.040262387858 7074.132849680347 656.7538595305251
          39183.54104332753 20229.40320468188 39056.423606795615 20397.46857788546 38929.30617026369 20565.53395108904
          -5277.993128144129 -5252.39849411825 -5226.803860092373 -7520.222371111113 -7803.33801846325 -8086.453665815385
          -16958.27283495998 -19095.82927186481 -17050.750981005986 -19214.89613994696 -17143.229127051993 -19333.96300802911
          -2846.8634366889146 -2395.054692374955 -2001.2760595732645 -1302.0603594959662 -1155.6886824576152 -209.06602661697866
          17885.9699264866 26777.480677725664 17956.652168570567 27164.87999417812 18027.33441065453 27552.279310630587
          2757.9427009871993 2765.9708519242404 2773.999002861282 12342.747109780843 12334.566813739453 12326.386517698063
          9829.792359951016 9890.038298857115 9950.284237763211 26965.819865331778 27266.07799178439 27566.336118237
          -15142.36117188428 -15393.493242694396 -15644.62531350451 2772.2121189625614 -886.7089467893741 3047.982576454535
          -922.6186613236837 3323.7530339465084 -958.5283758579934 11810.572457073356 11761.678295365 11712.784133656645
          -21505.361759787076 -26649.772078903854 -21604.192320531405 -26914.787797028748 -21703.022881275727 -27179.80351515364
          7597.843496032826 1306.2387026358506 7670.89004685324 1291.4676056886801 7743.9365976736535 1276.6965087415106
          -28217.633441843333 -27696.138858103026 -29215.73581720421 -29710.299538452044 -30213.838192565097 -31724.460218801065
          -14143.079948013017 -14467.652473968477 -14792.224999923938 -819.4523249997651 -866.427689182434 -913.403053365103
          -4950.675736035428 -4925.197748832859 -4899.719761630292 3585.8788239994096 5940.802111514717 3623.222731886898
          6171.3046311326425 3660.5666397743844 6401.807150750567 -2780.70970086989 1370.4225983182419 -2900.570270139409
          1533.0902118309534 -3020.430839408927 1695.7578253436648 -6465.303100343383 -8321.999614515214 -3606.316859031601
          -6586.250178056064 -8453.208864087055 -3645.5890642633613 -6707.197255768745 -8584.4181136589 -3684.861269495121
          -936.399643983791 -737.3401127471259 -538.280581510461 16903.797651451947 -6518.595787359841 17144.02310822161
          -6483.425891587667 17384.24856499127 -6448.2559958154925 -6623.874455102019 -55514.79929268954 -6382.545244239978
          -50609.06512932329 -6141.216033377935 -45703.33096595705 -2363.793967472383 -2077.861192191982 -1791.9284169115804
          -17.424964526275517 -85.88799289904057 -154.35102127180608 -44703.24882602327 -45515.931126738935 -46328.613427454606
          -10306.651201634304 -4159.501859665899 -9465.232713943138 -4094.2679711142127 -8623.814226251974 -4029.0340825625267
          -2696.490643128302 -2534.812308995063 -2373.133974861824 -4862.738272409071 -6673.227369158019 -8483.71646590697
          -29850.61771865752 -30291.047652080724 -30731.477585503926 39026.38142058143 40616.02810281464 42205.674785047864
          -74387.46626712731 -69528.02087982812 -64668.57549252894 -228937.62112067972 -228946.2953320918 -228954.96954350383
          70288.24606736851 70267.63794431821 70247.0298212679 64266.55721382285 64429.98964747423 64593.42208112561
          -14.760814154997206 -1.5276003969847807 11.705613361031283 -158586.75106717774 -158705.8235962977 -158824.8961254177
          -262554.64204032236 -262439.1321215925 -262323.6222028627 -21430.924213598606 -21279.286518925044 -21406.851834237244
          -21264.97692357584 -21382.779454875876 -21250.667328226635 -23977.5405089357 -22676.450782902364 -23996.685815000303
          -22702.157601236817 -24015.8311210649 -22727.864419571277 -19327.068594337514 -16894.901612983154 -19331.083193637725
          -16884.064406903453 -19335.09779293794 -16873.22720082375 -9446.54025482912 -6473.013857591461 -9458.359864946295
          -6461.958387005818 -9470.179475063473 -6450.902916420174 3124.3467208793263 5735.814521660033 3110.39963780674
          5759.753990488303 3096.4525547341536 5783.693459316573 15486.986188146097 16183.872257609992 15476.584707359254
          16207.823551109857 15466.183226572408 16231.774844609723 22316.667650547795 22167.579470520184 22316.347077816823
          22201.243245046066 22316.026505085847 22234.907019571943 11628.317824321748 13467.929859417623 11619.420168097666
          13512.380382831348 11610.522511873583 13556.830906245073 -19501.795383586443 -19556.882142164362 -19611.968900742282
          -22732.85974002337 -22807.196247385993 -22881.532754748612 -18217.830707531997 -18273.056282700458 -18328.281857868922
          -7558.406900424422 -7587.440072789208 -7616.473245153995 6567.393555953301 6535.678289389262 6503.963022825224
          22875.978755314663 22897.89454398326 22919.810332651858 27748.46424375045 27831.1988163539 27913.93338895734
          6460.940292676842 6496.524667477503 6532.109042278167 -13227.908960836034 -13093.99632135955 -12960.083681883063
          -15445.621924798983 -15341.169846414801 -15236.717768030618 -9005.376554945757 -8924.323977633128 -8843.271400320496
          4082.6463899432692 4172.76673215668 4262.88707437009 20346.975794155136 20329.46700810599 20311.958222056845
          41548.93088827464 41539.120128389965 41529.30936850529 38359.29861784441 38317.60765727529 38275.916696706176
          -5767.1132659315745 -6043.214545362049 -6319.315824792524 -135.7158332047129 -523.3280577046539 -910.9402822045952
          -187.0401827476021 -543.4888986969743 -899.9376146463464 8364.332675436539 8054.576437500295 7744.820199564052
          22766.059636984595 22636.944997771123 22507.83035855766 39039.39608821473 38888.239813426655 38737.08353863857
          65473.28079211891 65640.39630945543 65807.51182679198 45863.089307962306 46348.765251189856 46834.44119441742
          -35063.122577807946 -34858.21924310691 -34653.31590840587 32644.61523600244 33333.32796646777 34022.040696933094
          37935.99251182695 38556.48121647225 39176.96992111756 47969.632059020805 48393.91395920297 48818.19585938512
          58128.365755029066 58548.68941111206 58969.01306719504 65208.01857038005 65076.049821071625 64944.0810717632
          91413.45156861939 91250.13203868661 91086.81250875385 28846.700189160612 28427.677760930183 28008.655332699756
          -116199.08683520966 -117634.01912822996 -119068.95142125027 65595.8688126353 64735.93798729222 63876.00716194916
          69489.76384377015 68549.5556320785 67609.34742038682 88767.85965544784 87989.17096371485 87210.48227198183
          99665.82612294 98937.39751972657 98208.96891651313 99453.20937984296 99332.6200027929 99212.03062574282
          87206.45585856333 86775.80586775919 86345.15587695506 117159.9013458344 117776.51156005084 118393.1217742673
          -12818.441343062135 -11240.226597513785 -9662.011851965435 -243670.80995148356 -243368.5425848173 -243066.2752181511
          281733.87361701357 280823.76753193606 279913.66144685855 342543.41979618854 341511.3499981388 340479.280200089
          359064.09195037745 358275.5329808802 357486.97401138284 323241.18416642945 322287.90381967626 321334.623472923
          253637.2856145921 253574.0380646973 253510.79051480247 141233.32850301277 139997.7068047648 138762.08510651684
          56426.95951511431 56768.33288528037 57109.706255446414 -388306.2049165578 -387103.2241742179 -385900.2434318779
          -792107.5550957823 -793849.9981708422 -795592.4412459022 76328.65367636929 77095.46594955315 77862.278222737
          92624.95791010931 93651.30848592446 94677.65906173966 77205.30156274841 78586.86241317709 79968.42326360584
          76662.95444543376 77085.47444256951 77507.99443970523 94103.6846068806 95557.50343058276 97011.32225428491
          101613.43996427205 100036.68588318262 98459.93180209317 285664.17230920395 285531.5198840185 285398.86745883315
          -272904.67898054916 -273005.1996610388 -273105.72034152853 -985018.3205993945 -990002.2771221194 -994986.2336448447
          -339213.24303289264 -339812.9719304203 -340412.70082794805 -417383.2691602611 -417711.3287053274 -418039.38825039373
          -451723.7722489913 -451239.7782114935 -450755.7841739956 -369701.07869276055 -370128.10138792836 -370555.12408309616
          -201747.43542049467 -200256.97035633016 -198766.50529216568 14763.8462788123 13205.32715450542 11646.80803019854
          588777.882342245 589832.1286266935 590886.3749111423 195511.52284473315 198153.50221941952 200795.48159410583
          -696223.8210673969 -698137.024829628 -700050.2285918591 -1624.5051305019404 -3576.698785551966 -1625.3069260616062
          -3594.375212632502 -1626.1087216212718 -3612.0516397130377 -10227.887494959781 -10150.892935381045 -10073.89837580231
          -24930.264834725982 -24958.873313079894 -24987.481791433813 -53253.55011585065 -52743.19203187987 -52232.833947909094
          -116047.1868385928 -116248.45175131377 -116449.71666403476 -178579.5073471943 -176914.13256568872 -175248.75778418317
          -502314.741515546 -499910.56099101726 -497506.38046648854 -257950.67451617506 -254821.06973755948 -251691.46495894383
          292090.03986997186 298540.64106900705 304991.2422680423 -8434.052134384121 -9603.895434116977 -8429.739542213098
          -9602.024314990136 -8425.426950042076 -9600.153195863295 -13537.889353698272 -13497.015792489154 -13456.142231280035
          -22058.13535625343 -22036.308234559052 -22014.481112864676 -38206.34535446058 -37984.46141553176 -37762.57747660295
          -67218.62397145732 -67191.54948444874 -67164.47499744016 -91827.96423576293 -91194.92447820574 -90561.88472064852
          -233329.8289607327 -232425.67206949266 -231521.51517825262 304299.4984146493 303905.40629104886 303511.3141674483
          977441.5142521918 976539.3778744123 975637.241496633 -13895.384133279142 -15667.107390240366 -13873.447036879716
          -15652.794344456106 -13851.50994048029 -15638.481298671843 -21394.36309570341 -21399.104960531196 -21403.84682535898
          -32483.94196848616 -32535.83147916401 -32587.72098984186 -51468.29752064204 -51567.68157782597 -51667.065635009916
          -80403.3862054875 -80698.60535953059 -80993.82451357367 -126536.44453968562 -127050.57714240029 -127564.70974511499
          -172116.61190101673 -173437.03455986257 -174757.4572187084 201531.0574039823 198879.64181102614 196228.22621807008
          591710.6152930849 588499.6407096842 585288.6661262837 -20822.792651074735 -22903.84106477402 -20832.20408348315
          -22908.18762899227 -20841.615515891564 -22912.534193210515 -29445.38504170216 -29433.90720704656 -29422.42937239095
          -41367.96307811151 -41331.66990335281 -41295.3767285941 -59450.51869543188 -59382.23686872675 -59313.95504202163
          -85154.45321679127 -85014.88590575973 -84875.31859472819 -110596.01082731686 -110387.95825048877 -110179.90567366072
          -79047.1078002195 -78496.43579119821 -77945.76378217692 220269.47043435206 221856.49085948453 223443.511284617
          477679.04940852016 479974.9314415677 482270.81347461534 -27692.41711220328 -30051.03809690681 -27671.942661001118
          -30034.471377285918 -27651.468209798953 -30017.904657665036 -37305.442995768506 -37300.879951904506 -37296.31690804052
          -49736.91656631102 -49748.1925820928 -49759.46859787459 -66646.93280043147 -66691.18737495677 -66735.44194948206
          -84666.9685139073 -84719.01246803852 -84771.05642216976 -85356.36031437454 -85588.17791747356 -85819.99552057259
          -17122.983736837872 -17403.964700520974 -17684.945664204068 207375.02080191593 206814.20276613277 206253.38473034961
          371595.9660984054 370607.2546384711 369618.5431785368 -34322.7435649278 -36780.12399401702 -34331.746990370826
          -36786.942736717974 -34340.750415813854 -36793.76147941893 -44161.810342278455 -44164.051817298925 -44166.29329231941
          -56429.766346150056 -56424.58317342431 -56419.40000069857 -70859.83945447329 -70869.4157565979 -70878.9920587225
          -79127.86254227455 -79121.49181311927 -79115.12108396401 -60033.91669360247 -60107.12406195252 -60180.331430302555
          22447.402156552238 22537.336204956227 22627.270253360217 193405.1775954485 193746.5208073142 194087.8640191799
          302157.1800970395 302471.47438916954 302785.7686812996 -37963.06608451916 -40542.005585886705 -37918.84852183626
          -40505.02448075339 -37874.630959153365 -40468.04337562009 -48397.894613156976 -48381.826938236576 -48365.759263316184
          -61136.17688453586 -61132.70758898856 -61129.23829344126 -73061.86269344005 -73060.05279583993 -73058.24289823978
          -72548.5586883954 -72509.39344156766 -72470.22819473993 -40463.81508762404 -40532.44364576777 -40601.07220391152
          46051.42174450573 46064.121525718365 46076.82130693099 182222.85396617878 182259.81262091722 182296.7712756556
          258986.13588802074 258818.1379314921 258650.13997496344 -54816.840202058986 -54589.37874815655 -54637.401523166685
          -54434.73931503937 -54457.96284427437 -54280.09988192218 -56985.678231950995 -56897.91285377908 -56810.14747560716
          -67174.00425795386 -67130.05885525978 -67086.1134525657 -80094.88829929577 -80010.21323541048 -79925.53817152519
          -77109.757420671 -76915.33691028721 -76720.91639990338 -35464.077907665596 -35376.37225482286 -35288.66660198012
          55967.19567185995 56075.13371376837 56183.07175567679 174416.15244047865 174547.25670502993 174678.3609695812
          234738.06531091654 234698.11793250428 234658.17055409198 -71340.10174429389 -68161.07711336043 -71138.18537177131
          -67982.37524618697 -70936.26899924871 -67803.67337901353 -64466.06439736605 -64351.33824050679 -64236.61208364754
          -71312.26583648316 -71230.08212863923 -71147.8984207953 -86208.75556076536 -86070.23733028283 -85931.71909980029
          -84645.38229718569 -84386.59043095761 -84127.79856472954 -38308.48585435765 -38159.59657093475 -38010.707287511854
          57514.43317764593 57651.5279329481 57788.622688250274 171544.82886819783 171651.6951521484 171758.56143609897
          226991.5285058903 226897.9003947482 226804.2722836061
        </DataArray>
        <DataArray type="Float64" Name="peeq" format="ascii" RangeMin="0" RangeMax="0">
          0 0 0 0 0 0
          0 0 0 0 0 0
          0 0 0 0 0 0
          0 0 0 0 0 0
          0 0 0 0 0 0
          0 0 0 0 0 0
          0 0 0 0 0 0
          0 0 0 0 0 0
          0 0 0 0 0 0
          0 0 0 0 0 0
          0 0 0 0 0 0
          0 0 0 0 0 0
          0 0 0 0 0 0
          0 0 0 0 0 0
          0 0 0 0 0 0
          0 0 0 0 0 0
          0 0 0 0 0 0
          0 0 0 0 0 0
          0 0 0 0 0 0
          0 0 0 0 0 0
          0 0 0 0 0 0
          0 0 0 0 0 0
          0 0 0 0 0 0
          0 0 0 0 0 0
          0 0 0 0 0 0
          0 0 0 0 0 0
          0 0 0 0 0 0
          0 0 0 0 0 0
          0 0 0 0 0 0
          0 0 0 0 0 0
          0 0 0 0 0 0
          0 0 0 0 0 0
          0 0 0 0 0 0
          0 0 0 0 0 0
          0 0 0 0 0 0
          0 0 0 0 0 0
          0 0 0 0 0 0
          0 0 0 0 0 0
          0 0 0 0 0 0
          0 0 0 0 0 0
          0 0 0 0 0 0
          0 0 0 0 0 0
          0 0 0 0 0 0
          0 0 0 0 0 0
          0 0 0 0 0 0
          0 0 0 0 0 0
          0 0 0 0 0 0
          0 0 0 0 0 0
          0 0 0 0 0 0
          0 0 0 0 0 0
          0 0 0 0 0 0
          0 0 0 0 0 0
          0 0 0 0 0 0
          0 0 0 0 0 0
          0 0 0 0 0 0
          0 0 0 0 0 0
          0 0 0 0 0 0
          0 0 0 0 0 0
          0 0 0 0 0 0
          0 0 0 0 0 0
          0 0 0 0 0 0
          0 0 0 0 0 0
          0 0 0 0 0 0
          0 0 0 0 0 0
          0 0 0 0 0 0
          0 0 0 0 0 0
          0 0 0 0 0 0
          0 0 0 0 0 0
          0 0 0 0 0 0
          0 0 0 0 0 0
          0 0 0 0 0 0
          0 0 0 0 0 0
          0 0 0 0 0 0
          0 0 0 0 0 0
          0 0 0 0 0 0
          0 0 0 0 0 0
          0 0 0 0 0 0
          0 0 0 0 0 0
          0 0 0 0 0 0
          0 0 0 0 0 0
          0 0 0 0 0 0
          0 0 0 0 0 0
          0 0 0 0 0 0
          0 0 0 0 0 0
          0 0 0 0 0 0
          0 0 0 0 0 0
          0 0 0 0 0 0
          0 0 0 0 0 0
          0 0 0 0 0 0
          0 0 0 0 0 0
          0 0 0 0 0 0
          0 0 0 0 0 0
          0 0 0 0 0 0
          0 0 0 0 0 0
          0 0 0 0 0 0
          0 0 0 0 0 0
          0 0 0 0 0 0
          0 0 0 0 0 0
          0 0 0 0 0 0
          0 0 0 0 0 0
          0 0 0 0 0 0
          0 0 0 0 0 0
          0 0 0 0 0 0
          0 0 0 0 0 0
          0 0 0 0 0 0
          0 0 0 0 0 0
          0 0 0 0 0 0
          0 0 0 0 0 0
          0 0 0 0 0 0
          0 0 0 0 0 0
          0 0 0 0 0 0
          0 0 0 0 0 0
          0 0 0 0 0 0
          0 0 0 0 0 0
          0 0 0 0 0 0
          0 0 0 0 0 0
          0 0 0 0 0 0
          0 0 0 0 0 0
          0 0 0 0 0 0
          0 0 0 0 0 0
          0 0 0 0 0 0
          0 0 0 0 0 0
          0 0 0 0 0 0
          0 0 0 0 0 0
          0 0 0 0 0 0
          0 0 0 0 0 0
          0 0 0 0 0 0
          0 0 0 0 0 0
          0 0 0 0 0 0
          0 0 0 0 0 0
          0 0 0 0 0 0
          0 0 0 0 0 0
          0 0 0 0 0 0
          0 0 0 0 0 0
          0 0 0 0 0 0
          0 0 0 0 0 0
          0 0 0
        </DataArray>
        <DataArray type="Float64" Name="pe11" format="ascii" RangeMin="0" RangeMax="0">
          0 0 0 0 0 0
          0 0 0 0 0 0
          0 0 0 0 0 0
          0 0 0 0 0 0
          0 0 0 0 0 0
          0 0 0 0 0 0
          0 0 0 0 0 0
          0 0 0 0 0 0
          0 0 0 0 0 0
          0 0 0 0 0 0
          0 0 0 0 0 0
          0 0 0 0 0 0
          0 0 0 0 0 0
          0 0 0 0 0 0
          0 0 0 0 0 0
          0 0 0 0 0 0
          0 0 0 0 0 0
          0 0 0 0 0 0
          0 0 0 0 0 0
          0 0 0 0 0 0
          0 0 0 0 0 0
          0 0 0 0 0 0
          0 0 0 0 0 0
          0 0 0 0 0 0
          0 0 0 0 0 0
          0 0 0 0 0 0
          0 0 0 0 0 0
          0 0 0 0 0 0
          0 0 0 0 0 0
          0 0 0 0 0 0
          0 0 0 0 0 0
          0 0 0 0 0 0
          0 0 0 0 0 0
          0 0 0 0 0 0
          0 0 0 0 0 0
          0 0 0 0 0 0
          0 0 0 0 0 0
          0 0 0 0 0 0
          0 0 0 0 0 0
          0 0 0 0 0 0
          0 0 0 0 0 0
          0 0 0 0 0 0
          0 0 0 0 0 0
          0 0 0 0 0 0
          0 0 0 0 0 0
          0 0 0 0 0 0
          0 0 0 0 0 0
          0 0 0 0 0 0
          0 0 0 0 0 0
          0 0 0 0 0 0
          0 0 0 0 0 0
          0 0 0 0 0 0
          0 0 0 0 0 0
          0 0 0 0 0 0
          0 0 0 0 0 0
          0 0 0 0 0 0
          0 0 0 0 0 0
          0 0 0 0 0 0
          0 0 0 0 0 0
          0 0 0 0 0 0
          0 0 0 0 0 0
          0 0 0 0 0 0
          0 0 0 0 0 0
          0 0 0 0 0 0
          0 0 0 0 0 0
          0 0 0 0 0 0
          0 0 0 0 0 0
          0 0 0 0 0 0
          0 0 0 0 0 0
          0 0 0 0 0 0
          0 0 0 0 0 0
          0 0 0 0 0 0
          0 0 0 0 0 0
          0 0 0 0 0 0
          0 0 0 0 0 0
          0 0 0 0 0 0
          0 0 0 0 0 0
          0 0 0 0 0 0
          0 0 0 0 0 0
          0 0 0 0 0 0
          0 0 0 0 0 0
          0 0 0 0 0 0
          0 0 0 0 0 0
          0 0 0 0 0 0
          0 0 0 0 0 0
          0 0 0 0 0 0
          0 0 0 0 0 0
          0 0 0 0 0 0
          0 0 0 0 0 0
          0 0 0 0 0 0
          0 0 0 0 0 0
          0 0 0 0 0 0
          0 0 0 0 0 0
          0 0 0 0 0 0
          0 0 0 0 0 0
          0 0 0 0 0 0
          0 0 0 0 0 0
          0 0 0 0 0 0
          0 0 0 0 0 0
          0 0 0 0 0 0
          0 0 0 0 0 0
          0 0 0 0 0 0
          0 0 0 0 0 0
          0 0 0 0 0 0
          0 0 0 0 0 0
          0 0 0 0 0 0
          0 0 0 0 0 0
          0 0 0 0 0 0
          0 0 0 0 0 0
          0 0 0 0 0 0
          0 0 0 0 0 0
          0 0 0 0 0 0
          0 0 0 0 0 0
          0 0 0 0 0 0
          0 0 0 0 0 0
          0 0 0 0 0 0
          0 0 0 0 0 0
          0 0 0 0 0 0
          0 0 0 0 0 0
          0 0 0 0 0 0
          0 0 0 0 0 0
          0 0 0 0 0 0
          0 0 0 0 0 0
          0 0 0 0 0 0
          0 0 0 0 0 0
          0 0 0 0 0 0
          0 0 0 0 0 0
          0 0 0 0 0 0
          0 0 0 0 0 0
          0 0 0 0 0 0
          0 0 0 0 0 0
          0 0 0 0 0 0
          0 0 0 0 0 0
          0 0 0 0 0 0
          0 0 0 0 0 0
          0 0 0 0 0 0
          0 0 0
        </DataArray>
        <DataArray type="Float64" Name="pe22" format="ascii" RangeMin="0" RangeMax="0">
          0 0 0 0 0 0
          0 0 0 0 0 0
          0 0 0 0 0 0
          0 0 0 0 0 0
          0 0 0 0 0 0
          0 0 0 0 0 0
          0 0 0 0 0 0
          0 0 0 0 0 0
          0 0 0 0 0 0
          0 0 0 0 0 0
          0 0 0 0 0 0
          0 0 0 0 0 0
          0 0 0 0 0 0
          0 0 0 0 0 0
          0 0 0 0 0 0
          0 0 0 0 0 0
          0 0 0 0 0 0
          0 0 0 0 0 0
          0 0 0 0 0 0
          0 0 0 0 0 0
          0 0 0 0 0 0
          0 0 0 0 0 0
          0 0 0 0 0 0
          0 0 0 0 0 0
          0 0 0 0 0 0
          0 0 0 0 0 0
          0 0 0 0 0 0
          0 0 0 0 0 0
          0 0 0 0 0 0
          0 0 0 0 0 0
          0 0 0 0 0 0
          0 0 0 0 0 0
          0 0 0 0 0 0
          0 0 0 0 0 0
          0 0 0 0 0 0
          0 0 0 0 0 0
          0 0 0 0 0 0
          0 0 0 0 0 0
          0 0 0 0 0 0
          0 0 0 0 0 0
          0 0 0 0 0 0
          0 0 0 0 0 0
          0 0 0 0 0 0
          0 0 0 0 0 0
          0 0 0 0 0 0
          0 0 0 0 0 0
          0 0 0 0 0 0
          0 0 0 0 0 0
          0 0 0 0 0 0
          0 0 0 0 0 0
          0 0 0 0 0 0
          0 0 0 0 0 0
          0 0 0 0 0 0
          0 0 0 0 0 0
          0 0 0 0 0 0
          0 0 0 0 0 0
          0 0 0 0 0 0
          0 0 0 0 0 0
          0 0 0 0 0 0
          0 0 0 0 0 0
          0 0 0 0 0 0
          0 0 0 0 0 0
          0 0 0 0 0 0
          0 0 0 0 0 0
          0 0 0 0 0 0
          0 0 0 0 0 0
          0 0 0 0 0 0
          0 0 0 0 0 0
          0 0 0 0 0 0
          0 0 0 0 0 0
          0 0 0 0 0 0
          0 0 0 0 0 0
          0 0 0 0 0 0
          0 0 0 0 0 0
          0 0 0 0 0 0
          0 0 0 0 0 0
          0 0 0 0 0 0
          0 0 0 0 0 0
          0 0 0 0 0 0
          0 0 0 0 0 0
          0 0 0 0 0 0
          0 0 0 0 0 0
          0 0 0 0 0 0
          0 0 0 0 0 0
          0 0 0 0 0 0
          0 0 0 0 0 0
          0 0 0 0 0 0
          0 0 0 0 0 0
          0 0 0 0 0 0
          0 0 0 0 0 0
          0 0 0 0 0 0
          0 0 0 0 0 0
          0 0 0 0 0 0
          0 0 0 0 0 0
          0 0 0 0 0 0
          0 0 0 0 0 0
          0 0 0 0 0 0
          0 0 0 0 0 0
          0 0 0 0 0 0
          0 0 0 0 0 0
          0 0 0 0 0 0
          0 0 0 0 0 0
          0 0 0 0 0 0
          0 0 0 0 0 0
          0 0 0 0 0 0
          0 0 0 0 0 0
          0 0 0 0 0 0
          0 0 0 0 0 0
          0 0 0 0 0 0
          0 0 0 0 0 0
          0 0 0 0 0 0
          0 0 0 0 0 0
          0 0 0 0 0 0
          0 0 0 0 0 0
          0 0 0 0 0 0
          0 0 0 0 0 0
          0 0 0 0 0 0
          0 0 0 0 0 0
          0 0 0 0 0 0
          0 0 0 0 0 0
          0 0 0 0 0 0
          0 0 0 0 0 0
          0 0 0 0 0 0
          0 0 0 0 0 0
          0 0 0 0 0 0
          0 0 0 0 0 0
          0 0 0 0 0 0
          0 0 0 0 0 0
          0 0 0 0 0 0
          0 0 0 0 0 0
          0 0 0 0 0 0
          0 0 0 0 0 0
          0 0 0 0 0 0
          0 0 0 0 0 0
          0 0 0 0 0 0
          0 0 0 0 0 0
          0 0 0
        </DataArray>
        <DataArray type="Float64" Name="pe33" format="ascii" RangeMin="0" RangeMax="0">
          0 0 0 0 0 0
          0 0 0 0 0 0
          0 0 0 0 0 0
          0 0 0 0 0 0
          0 0 0 0 0 0
          0 0 0 0 0 0
          0 0 0 0 0 0
          0 0 0 0 0 0
          0 0 0 0 0 0
          0 0 0 0 0 0
          0 0 0 0 0 0
          0 0 0 0 0 0
          0 0 0 0 0 0
          0 0 0 0 0 0
          0 0 0 0 0 0
          0 0 0 0 0 0
          0 0 0 0 0 0
          0 0 0 0 0 0
          0 0 0 0 0 0
          0 0 0 0 0 0
          0 0 0 0 0 0
          0 0 0 0 0 0
          0 0 0 0 0 0
          0 0 0 0 0 0
          0 0 0 0 0 0
          0 0 0 0 0 0
          0 0 0 0 0 0
          0 0 0 0 0 0
          0 0 0 0 0 0
          0 0 0 0 0 0
          0 0 0 0 0 0
          0 0 0 0 0 0
          0 0 0 0 0 0
          0 0 0 0 0 0
          0 0 0 0 0 0
          0 0 0 0 0 0
          0 0 0 0 0 0
          0 0 0 0 0 0
          0 0 0 0 0 0
          0 0 0 0 0 0
          0 0 0 0 0 0
          0 0 0 0 0 0
          0 0 0 0 0 0
          0 0 0 0 0 0
          0 0 0 0 0 0
          0 0 0 0 0 0
          0 0 0 0 0 0
          0 0 0 0 0 0
          0 0 0 0 0 0
          0 0 0 0 0 0
          0 0 0 0 0 0
          0 0 0 0 0 0
          0 0 0 0 0 0
          0 0 0 0 0 0
          0 0 0 0 0 0
          0 0 0 0 0 0
          0 0 0 0 0 0
          0 0 0 0 0 0
          0 0 0 0 0 0
          0 0 0 0 0 0
          0 0 0 0 0 0
          0 0 0 0 0 0
          0 0 0 0 0 0
          0 0 0 0 0 0
          0 0 0 0 0 0
          0 0 0 0 0 0
          0 0 0 0 0 0
          0 0 0 0 0 0
          0 0 0 0 0 0
          0 0 0 0 0 0
          0 0 0 0 0 0
          0 0 0 0 0 0
          0 0 0 0 0 0
          0 0 0 0 0 0
          0 0 0 0 0 0
          0 0 0 0 0 0
          0 0 0 0 0 0
          0 0 0 0 0 0
          0 0 0 0 0 0
          0 0 0 0 0 0
          0 0 0 0 0 0
          0 0 0 0 0 0
          0 0 0 0 0 0
          0 0 0 0 0 0
          0 0 0 0 0 0
          0 0 0 0 0 0
          0 0 0 0 0 0
          0 0 0 0 0 0
          0 0 0 0 0 0
          0 0 0 0 0 0
          0 0 0 0 0 0
          0 0 0 0 0 0
          0 0 0 0 0 0
          0 0 0 0 0 0
          0 0 0 0 0 0
          0 0 0 0 0 0
          0 0 0 0 0 0
          0 0 0 0 0 0
          0 0 0 0 0 0
          0 0 0 0 0 0
          0 0 0 0 0 0
          0 0 0 0 0 0
          0 0 0 0 0 0
          0 0 0 0 0 0
          0 0 0 0 0 0
          0 0 0 0 0 0
          0 0 0 0 0 0
          0 0 0 0 0 0
          0 0 0 0 0 0
          0 0 0 0 0 0
          0 0 0 0 0 0
          0 0 0 0 0 0
          0 0 0 0 0 0
          0 0 0 0 0 0
          0 0 0 0 0 0
          0 0 0 0 0 0
          0 0 0 0 0 0
          0 0 0 0 0 0
          0 0 0 0 0 0
          0 0 0 0 0 0
          0 0 0 0 0 0
          0 0 0 0 0 0
          0 0 0 0 0 0
          0 0 0 0 0 0
          0 0 0 0 0 0
          0 0 0 0 0 0
          0 0 0 0 0 0
          0 0 0 0 0 0
          0 0 0 0 0 0
          0 0 0 0 0 0
          0 0 0 0 0 0
          0 0 0 0 0 0
          0 0 0 0 0 0
          0 0 0 0 0 0
          0 0 0 0 0 0
          0 0 0 0 0 0
          0 0 0
        </DataArray>
        <DataArray type="Float64" Name="disp_x" format="ascii" RangeMin="0.00001438131699329902" RangeMax="0.00004">
          0.000019611160277706467 0.000019599137742816807 0.000018769768887747707 0.000018578296499187172 0.00001961118375435302 0.000019599169579251788
          0.00001876979989308412 0.000018578320107469605 0.000019611254083932387 0.000019599265781796257 0.000018769901583523458 0.000018578393536698723
          0.000017102892378663406 0.000017093430235563142 0.000017810174307347413 0.000017733855695690863 0.000017102902293150392 0.00001709344086350399
          0.000017810189247196958 0.000017733872590754686 0.000017102927710219697 0.00001709347132025881 0.000017810235750451323 0.000017733926818715722
          0.00001849259376044465 0.000018076644790141166 0.000018492611966767407 0.000018076658815135673 0.00001849266653614656 0.000018076697274345208
          0.00001775495624586409 0.000018641203329024692 0.00001865021479140875 0.00001775496999491553 0.00001864121051492449 0.000018650224334272386
          0.000017755013412469037 0.00001864123106351181 0.00001865025093901117 0.00001712904195694676 0.000016808216317439017 0.00001632994168164491
          0.000016733767562803258 0.000017129054070978768 0.000016808226891321502 0.000016329950838683924 0.00001673377758201329 0.000017129093321984202
          0.000016808254841897973 0.000016329978381086128 0.00001673380620457156 0.000017452556347255654 0.000017001444949859674 0.000016903482900031703
          0.000017464969748994096 0.000017452568148043916 0.000017001455039132722 0.000016903494516411013 0.000017464984298240134 0.000017452600328153686
          0.000017001486613983322 0.000016903527901689885 0.000017465032565065278 0.000016486197816773444 0.00001630154385645794 0.00001696677102541123
          0.000016486207729144136 0.000016301551399967497 0.00001696678062777663 0.000016486238589245814 0.00001630157385912061 0.000016966808671432094
          0.00001959717639069532 0.000019597189893471423 0.0000195972297280923 0.000016719114583095508 0.000016045915190829153 0.000016719120916772787
          0.000016045920752830957 0.00001671913928963474 0.000016045936019565692 0.00001956689786265792 0.000018628871994973412 0.000019566908183183932
          0.000018628876792578617 0.00001956693941803705 0.00001862889052156035 0.000015132994412199203 0.000014733841242422498 0.000015133000647665958
          0.000014733846978913064 0.000015133019419551181 0.000014733863950097218 0.000015863279159483033 0.00001541121316155974 0.00001574121659194466
          0.00001627596778260608 0.000015863288427183115 0.0000154112195552282 0.000015741225272934615 0.000016275978816902665 0.00001586331666290722
          0.00001541123768139471 0.00001574125096600642 0.000016276012772591973 0.000014677059072043965 0.000014677065075076182 0.000014677082144595502
          0.00001438131699329902 0.000014381322543802046 0.000014381339069937512 0.000017583926949538595 0.00001758393466419307 0.00001758395806404786
          0.000017495668442588056 0.00001698056833656233 0.00001749568080379726 0.00001698057969031671 0.000017495719486940442 0.000016980612966463144
          0.000014647161283812615 0.000015125122397299502 0.000015074584459720054 0.000014603790696902085 0.000014647167122318033 0.000015125127089921937
          0.00001507459093917009 0.000014603796389568845 0.0000146471864876403 0.000015125138821016707 0.000015074611411126186 0.00001460381346848788
          0.000017594848768258962 0.000017970313227790075 0.0000175948623428394 0.000017970325254667515 0.0000175949038327304 0.00001797035137526447
          0.000014723782187513118 0.000014723788401850872 0.000014723807796103462 0.000016435400582543337 0.000016435409714205438 0.000016435436885079526
          0.000014655900137202884 0.000014691660510483206 0.000014655907080866494 0.000014691667398070394 0.000014655929198478375 0.000014691689945729074
          0.00001786555329910681 0.000017873326024852975 0.000017865570960091946 0.000017873345225373814 0.00001786561351331611 0.00001787340252422394
          0.000015516315050785785 0.00001545815246545069 0.000015516322464122263 0.000015458158354016382 0.000015516345532328432 0.000015458171471952397
          0.000015088789389411705 0.00001508879541087965 0.000015088813193347377 0.00001536222990197584 0.00001536223632491706 0.00001536225581879048
          0.000015479922092936646 0.000015479929264811302 0.000015479949892317793 0.000015776202047348544 0.000015776209654346106 0.000015776234259069563
          0.000014983186642319921 0.000014983193135410963 0.000014983211774179819 0.000015506925502400744 0.000015360343000672677 0.00001550693219883927
          0.000015360349205350822 0.000015506950755852906 0.000015360368081452415 0.00001714639381797399 0.00001714640580003375 0.000017146441437091225
          0.000016685036033866382 0.000016313630993537024 0.000016685046507036812 0.00001631364226744496 0.000016685076200010335 0.000016313678888698914
          0.00001560672817917491 0.000015102584912246647 0.000015606736337670778 0.000015102591500792325 0.00001560675940152401 0.00001510260997621782
          0.000018208830572310323 0.000018300792151632065 0.000018208854570983418 0.000018300805360440752 0.000018208933819803008 0.000018300863926511826
          0.00001510433736013636 0.000015104344252932767 0.00001510436426389483 0.00001523261987525597 0.00001523262647151689 0.000015232645434883361
          0.000014610165545218458 0.000014610172113679156 0.00001461019176159311 0.000015806209393215295 0.000015527818322033588 0.000015806218300778815
          0.00001552782604302908 0.000015806245742124794 0.000015527848602707966 0.000015749826453450646 0.000015907134216622024 0.00001574983372235424
          0.00001590714132644872 0.00001574985610187909 0.000015907162795332914 0.000016010869940577973 0.000016571171103518623 0.000016153218370208217
          0.00001601087856042475 0.000016571181173323456 0.00001615322634399118 0.000016010903933766127 0.00001657121258881063 0.000016153249114384766
          0.00001630791414841388 0.000016307922723184862 0.00001630794807014051 0.000015969507687725328 0.00001610629561425548 0.000015969516648363583
          0.000016106306746594482 0.000015969541865366595 0.00001610634009527221 0.000018747499839711127 0.000019025154524048262 0.000018747512707270697
          0.000019025188023700272 0.000018747490789918904 0.00001902531431228698 0.000016709344097163627 0.000016709353922254268 0.000016709382048104015
          0.000015620768369537958 0.000015620776050265567 0.00001562079946322454 0.000016627873786943312 0.000016627884533196707 0.000016627913323219353
          0.000017918358600955283 0.00001751443262788248 0.000017918375422092475 0.000017514445561149427 0.000017918419083823573 0.000017514486099574664
          0.00001711148721419179 0.00001711149851064543 0.000017111528484275347 0.000018323472770855017 0.000018323490352631828 0.000018323544921098222
          0.0000165833753439671 0.00001658338655410464 0.000016583422796021782 0.00001872997891637958 0.000018730009443662183 0.000018730099836441847
          0.00001913863139532552 0.000019138684970633614 0.000019138886765936386 0.000019550934810595202 0.00001955096373273906 0.00001955103933512977
          0.000020857856843924223 0.000020857870303990262 0.00002085791069557448 0.00002091062593846395 0.000020910647674680114 0.000020910713364442734
          0.0000209482716784582 0.00002094830168431044 0.00002094839130030862 0.000020952080737967068 0.000020952119842424747 0.0000209522359661218
          0.000020901668676332504 0.000020901711860458884 0.00002090184119615331 0.0000253853846942495 0.000025354512070620022 0.000025385358444746515
          0.00002535448601297383 0.000025385279745486414 0.000025354407769173443 0.000026498712687104667 0.000026460205479575514 0.000026498679459486687
          0.00002646017251928762 0.000026498579771421253 0.00002646007358826912 0.000027603433504789964 0.0000275590779463414 0.000027603394497176615
          0.000027559039611851395 0.000027603277457958745 0.000027558924413183644 0.000028702883207501482 0.00002865496344338143 0.000028702839959613342
          0.000028654921169111808 0.000028702710174284723 0.00002865479420033477 0.00002979965549690448 0.000029751020449678043 0.00002979961006396799
          0.0000297509761897767 0.000029799473730509035 0.000029750843423175764 0.00003089515839487948 0.00003084930132284273 0.00003089511297145987
          0.00003084925733986641 0.00003089497661084204 0.000030849125367612656 0.00003198947100469051 0.00003195060145653387 0.00003198942782901741
          0.00003195055954691409 0.000031989298199612045 0.00003195043357140498 0.00003308152922602558 0.00003305458441957868 0.00003308148982190325
          0.00003305454616106666 0.00003308137149205004 0.00003305443108762457 0.000025448023978493393 0.000025447997317943174 0.00002544791723521489
          0.000026572710938410754 0.000026572676184685947 0.00002657257189620986 0.00002768700697095725 0.00002768696549927427 0.000027686840978781682
          0.00002879380056738035 0.000028793754055707923 0.000028793614448685437 0.000029895113877212918 0.0000298950648464177 0.000029894917880573294
          0.00003099160026296479 0.000030991550830137127 0.00003099140244055638 0.0000320823353040405 0.00003208228939668693 0.0000320821517028885
          0.000033165061174590315 0.00003316501920619553 0.00003316489325791477 0.000025543867137569742 0.000025543839816752205 0.000025543757838220793
          0.000026684642317118155 0.000026684605058945777 0.00002668449332627352 0.000027813267710788663 0.000027813221876642665 0.000027813084449693108
          0.000028932189764851395 0.000028932137398420136 0.00002893198027792662 0.000030042802888848015 0.000030042747335866373 0.000030042580931552244
          0.00003114485878006701 0.000031144802052430525 0.00003114463156246654 0.000032236133243592674 0.00003223608215855302 0.00003223592898745882
          0.00003331278183646737 0.000033312735172280694 0.00003331259523778256 0.000025675322455984203 0.000025675294234056072 0.000025675209422442272
          0.000026838911769601015 0.000026838870508655448 0.000026838746533649917 0.00002798867829003733 0.000027988625436974763 0.000027988466807898194
          0.000029126480135240077 0.00002912641837754463 0.00002912623278867614 0.00003025286900581014 0.000030252803100899074 0.000030252605802091164
          0.000031366440571132274 0.000031366372307586024 0.000031366166965599737 0.000032463314560069294 0.000032463256498868475 0.00003246308340873988
          0.0000335376256966618 0.00003353757312263325 0.000033537416296349864 0.00002584585960443876 0.00002584583068735741 0.000025845744377676713
          0.000027042605646277626 0.000027042558957467723 0.000027042419146769115 0.00002822405269941969 0.000028223989821713 0.000028223801766084165
          0.000029390889893676138 0.000029390814386621014 0.0000293905877545885 0.00003054219211773144 0.00003054211077625014 0.00003054186762453241
          0.00003167486048160198 0.000031674774305806324 0.00003167451445240149 0.00003278282941969835 0.0000327827597770579 0.000032782550539037344
          0.000033857676295281466 0.00003385761434649271 0.00003385742761533532 0.00002479752839895211 0.000024797522018213493 0.000024797502376307638
          0.00002606014541275577 0.000026060114237845415 0.00002606002013627774 0.000027306920133637888 0.00002730686290242893 0.000027306690406790744
          0.00002853719377898718 0.000028537113236925538 0.0000285368713079545 0.000029748841245635026 0.000029748742871360245 0.000029748446618999606
          0.000030937831306917034 0.00003093772630652865 0.00003093741324793892 0.00003209824239916716 0.000032098130040731747 0.0000320977909320139
          0.00003322086281545653 0.0000332207888590245 0.000033220572922061366 0.00003429400260762063 0.00003429393861732784 0.000034293750782940204
          0.000024986848179366884 0.00002498685563048156 0.000024986879355656408 0.00002632428667503059 0.000026324257923103865 0.000026324172156848707
          0.00002764999100185406 0.00002764992563149273 0.000027649729767139465 0.000028957832890228056 0.000028957734593716427 0.000028957440795301065
          0.00003023887717710368 0.000030238751537505402 0.000030238372799268846 0.00003148276941232422 0.00003148263210605668 0.000031482222358025745
          0.00003267810533084282 0.000032677945210132304 0.00003267745763400008 0.000033810801381735524 0.00003381069047556174 0.00003381035461262261
          0.000034864422339771523 0.00003486432996416365 0.000034864047757309755 0.000025188977810210178 0.00002518899625582138 0.000025189048917695597
          0.000026647263934717537 0.00002664722452070929 0.000026647106917490822 0.000028103819951153465 0.00002810372230268977 0.000028103430954790837
          0.000029536794294173 0.000029536649496357148 0.000029536219058437927 0.00003092420322946004 0.000030924024067404554 0.00003092348748586614
          0.00003224415027985879 0.00003224396683011318 0.00003224342859473946 0.00003347384208999906 0.000033473633618466325 0.000033473002226516304
          0.00003458583897373059 0.00003458578112466299 0.00003458563582181466 0.000035560569997097114 0.000035560521502097973 0.000035560382708136244
          0.000025374357103152687 0.000025374430461528643 0.000025374657045298094 0.000027049820697216544 0.000027049752008738438 0.000027049541919289382
          0.0000287266768195166 0.000028726510716774446 0.000028726005538506996 0.000030359009839692834 0.00003035877355239535 0.000030358060106676506
          0.00003190661495245766 0.00003190631866318191 0.00003190541251457993 0.00003332781745725977 0.00003332751187151359 0.00003332659858912077
          0.00003457667669569454 0.00003457630481474029 0.00003457515444307935 0.00003559419781446707 0.00003559400821732907 0.00003559342938782492
          0.00003631217519990956 0.00003631215379703712 0.00003631208443514214 0.00003382752505398773 0.00003385285388937321 0.000033827490435369595
          0.000033852818252756615 0.00003382738658345175 0.00003385271147159092 0.00003393114505827483 0.000033931106592899184 0.00003393099121918949
          0.00003406906691296785 0.000034069023936155055 0.000034068894736748457 0.00003427746816197639 0.000034277418884263 0.00003427726967742345
          0.00003457023171186757 0.00003457017564184373 0.00003457000600712416 0.000034961005921966245 0.000034960938948145205 0.00003496073037121738
          0.000035452739052727124 0.00003545267645937438 0.00003545248742974395 0.000036020884503764784 0.00003602079240217731 0.000036020477304963624
          0.00003648921301029675 0.000036489402650073584 0.00003648998189231403 0.00003460091559403152 0.00003462422665429322 0.00003460088415734725
          0.00003462419467053183 0.000034600789391939335 0.00003462409853177491 0.00003469611892699129 0.000034696085589921084 0.00003469598595407524
          0.00003482227371381028 0.00003482223863133936 0.0000348221341567007 0.000035011498230645814 0.00003501146176422499 0.00003501135380808535
          0.00003527398698266218 0.00003527395173545266 0.00003527384840027389 0.00003561680852238619 0.00003561677985935274 0.000035616698477457655
          0.00003603370286368167 0.00003603370570683205 0.00003603372500075003 0.000036478271629854784 0.00003647832542244189 0.000036478504714955
          0.000036772349374420554 0.000036772680936119874 0.000036773729763084416 0.00003537424895277773 0.00003539514848796099 0.000035374221847534027
          0.000035395120981323886 0.00003537414030310012 0.000035395038418115466 0.00003545948593382954 0.00003545945741487728 0.00003545937197213852
          0.000035571955738426154 0.00003557192607965865 0.00003557183710134609 0.00003573947102373026 0.000035739441075692095 0.0000357393507629052
          0.000035968999768397435 0.00003596897182144045 0.00003596888666534984 0.00003626265917033725 0.000036262640771492364 0.00003626258292177911
          0.00003660667434780804 0.00003660667634362538 0.00003660667649318766 0.00003694535878507098 0.00003694541050660118 0.00003694555211251453
          0.000037135476140672045 0.0000371356195335359 0.000037136018691780936 0.00003614712168460164 0.0000361652268997045 0.000036147098907386545
          0.00003616520387926756 0.00003614703040315034 0.00003616513482863353 0.00003622087430986373 0.00003622085075428877 0.0000362207804104777
          0.00003631781267707999 0.000036317788930903954 0.00003631771803985454 0.000036461240616539214 0.000036461217825395046 0.000036461149783711986
          0.000036655490732134664 0.000036655472019568425 0.000036655416479170806 0.000036899005527692236 0.00003689899690128851 0.00003689897195963279
          0.00003717382402067933 0.0000371738367604873 0.000037173878010244775 0.00003742662841668749 0.0000374266798475672 0.00003742683791924757
          0.000037551215291792545 0.000037551331269181527 0.00003755169808948019 0.00003691925225728433 0.0000369342091225747 0.00003691923402004053
          0.000036934190738145224 0.00003691917888671098 0.00003693413540231152 0.00003698011830872502 0.00003698009971326508 0.000036980044021106505
          0.00003705984837893203 0.00003705983001797276 0.00003705977513802286 0.00003717711567897098 0.00003717709892556798 0.000037177048617512644
          0.000037334234641639186 0.000037334222219890464 0.00003733418458435396 0.000037527474250406654 0.00003752747117776357 0.00003752746140061302
          0.000037738478825446256 0.00003773849319505152 0.000037738535094811204 0.00003792238138905278 0.00003792242430008847 0.00003792255056783324
          0.00003800414132528318 0.000038004219108050304 0.00003800444602915074 0.00003769051937565275 0.00003770201950716163 0.00003769050574587752
          0.00003770200581550259 0.00003769046491491147 0.000037701964914378694 0.00003773728046943323 0.000037737266732624406 0.000037737225702672624
          0.000037798373533044725 0.00003779836015958929 0.00003779832020767547 0.00003788778630404909 0.00003788777458212528 0.00003788773941256369
          0.000038006469027954504 0.000038006461135374035 0.00003800643758724756 0.00003815007768084875 0.000038150077298285176 0.00003815007619604185
          0.00003830278174598383 0.00003830279440183364 0.00003830283270884773 0.00003843059027205974 0.000038430621899197094 0.00003843071698656541
          0.00003848298735181266 0.00003848303904792782 0.0000384831971043871 0.00003846096379547826 0.00003846876260349783 0.000038460954287149174
          0.00003846875312110221 0.000038460925476225014 0.000038468724580838755 0.00003849265159641989 0.00003849264225276058 0.00003849261435050696
          0.00003853398613317245 0.000038533977495778384 0.00003853395161252813 0.00003859428163341346 0.000038594274355924654 0.00003859425255810489
          0.00003867373652968391 0.000038673731894129016 0.00003867371765512783 0.00003876869899989786 0.000038768699679797226 0.000038768701408917715
          0.000038867758684978034 0.0000388677679861413 0.00003886779572643161 0.000038948375810903156 0.000038948396774825574 0.000038948459351268374
          0.000038979511410725 0.00003897954398153492 0.00003897964097331635 0.00003923075495225885 0.000039234685988848785 0.00003923075119719295
          0.000039234681973917094 0.000039230740001892244 0.00003923467020182949 0.00003924671267238599 0.00003924670836311941 0.00003924669561376616
          0.000039267531122809546 0.000039267526783748535 0.00003926751372561277 0.000039297882829425104 0.00003929787936121329 0.00003929786881294473
          0.00003933769220512584 0.00003933769077098242 0.00003933768661458412 0.000039384908433636727 0.00003938490933668377 0.000039384911992014874
          0.00003943360041377413 0.00003943360523985839 0.00003943361975662632 0.00003947258406028248 0.00003947259430953627 0.000039472625012071264
          0.000039487090934291716 0.000039487106480779614 0.000039487153311997466 0.00004 0.00004 0.00004
          0.00004 0.00004 0.00004 0.00004 0.00004 0.00004
          0.00004 0.00004 0.00004 0.00004 0.00004 0.00004
          0.00004 0.00004 0.00004 0.00004 0.00004 0.00004
          0.00004 0.00004 0.00004 0.00004 0.00004 0.00004
          0.00004 0.00004 0.00004
        </DataArray>
        <DataArray type="Float64" Name="disp_y" format="ascii" RangeMin="-0.00000399990001821592" RangeMax="0">
          -0.00000207683862655763 -0.0000024170862916323834 -0.000002486073939269881 -0.0000023042054068867645 -0.0000020768360413348312 -0.0000024170922680853102
          -0.0000024860822677336253 -0.000002304206545637021 -0.0000020768283628875477 -0.000002417109448013877 -0.0000024861001067597788 -0.000002304206512376413
          -0.0000018676663837167663 -0.000001688610662008989 -0.0000016691533614052764 -0.0000018887841576464683 -0.0000018676686834640749 -0.0000016886103336820207
          -0.0000016691532019219899 -0.000001888783916488895 -0.0000018676764915945802 -0.000001688608852610545 -0.0000016691540551422288 -0.0000018887807998841477
          -0.000001948865463018635 -0.00000216525690664091 -0.0000019488714409995974 -0.0000021652741810068924 -0.000001948890721470502 -0.000002165335403789301
          -0.0000014353531665609967 -0.0000014173843491754883 -0.0000016934480553541156 -0.0000014353513156419309 -0.000001417379965994119 -0.0000016934422852578196
          -0.000001435345937078475 -0.000001417367589179561 -0.0000016934232206357445 -0.000002464449370937091 -0.000002546067984924413 -0.0000025257460427852704
          -0.000002374198561216272 -0.000002464458761381607 -0.0000025460768194435547 -0.000002525754890992652 -0.0000023742078120170296 -0.0000024644911861121394
          -0.000002546099780695819 -0.0000025257826138317588 -0.0000023742339943523385 -0.0000027440243873642775 -0.0000027647236783455027 -0.000002640679070512839
          -0.000002590603153471503 -0.0000027440385735637813 -0.0000027647371845284268 -0.0000026406878165308853 -0.0000025906135001438703 -0.0000027440795247201033
          -0.000002764779697764098 -0.000002640709340563595 -0.0000025906471325490884 -0.0000017361446048550063 -0.0000015780451122602142 -0.0000014943848319160057
          -0.000001736145669047965 -0.0000015780476999043448 -0.0000014943825537933797 -0.0000017361490489396332 -0.0000015780563110019708 -0.0000014943745364178214
          -0.000001748534051931286 -0.0000017485272871425417 -0.0000017485066908107192 -0.000001312358528203916 -0.00000142055376677018 -0.0000013123607280800427
          -0.0000014205539469403745 -0.0000013123682309657851 -0.0000014205535702674084 -0.0000014343082870126975 -0.0000011455171971290056 -0.0000014343007076952591
          -0.0000011455103604928128 -0.0000014342783804023918 -0.0000011454894943645262 -0.0000026170513971773578 -0.0000025454737812520182 -0.0000026170594922922585
          -0.0000025454820050632313 -0.000002617084300498918 -0.000002545507683493736 -0.0000024142780603479767 -0.0000023381565339986583 -0.0000021717253592630474
          -0.0000022858805464339637 -0.0000024142856171564035 -0.00000233816433321326 -0.00000217173170749746 -0.0000022858881914963974 -0.000002414307500177836
          -0.00000233818856846609 -0.000002171749602372302 -0.0000022859119260668096 -0.0000015350512716640532 -0.000001535052336220038 -0.0000015350551979123736
          -0.0000024778748386581006 -0.000002477882165807066 -0.0000024779022681532784 -0.0000011604539094297112 -0.0000011604523253852921 -0.0000011604477612262707
          -0.000002076383855261153 -0.0000020193604050614543 -0.0000020763883179992274 -0.0000020193648189374945 -0.000002076398009921025 -0.0000020193804058298433
          -0.0000017020335162179225 -0.0000017157384540498467 -0.0000018619676598538137 -0.0000018668248448234793 -0.0000017020371675577716 -0.0000017157423194887975
          -0.0000018619714985492027 -0.0000018668296128312308 -0.000001702048255656325 -0.0000017157548303657761 -0.000001861983493595613 -0.000001866843620289556
          -0.0000023333489491941346 -0.000002449176419952184 -0.000002333355160843294 -0.000002449180776034312 -0.0000023333694781494746 -0.000002449191427153022
          -0.0000023910633969149888 -0.0000023910708201771683 -0.0000023910926037725396 -0.0000026726935817375202 -0.0000026727029551348693 -0.0000026727326960772666
          -0.00000217344173737809 -0.0000022650277806852106 -0.000002173446402340797 -0.000002265033562760576 -0.0000021734597745589126 -0.0000022650497816377857
          -0.0000026316945546765545 -0.0000027288677658602523 -0.000002631706284678086 -0.000002728882473731245 -0.0000026317408861619574 -0.000002728927958705481
          -0.0000018420143347270294 -0.0000017375956119301162 -0.000001842017332726556 -0.0000017375984214597536 -0.000001842026600531739 -0.000001737603865205814
          -0.000002453259719900223 -0.000002453267380440639 -0.0000024532900165691897 -0.0000015350871370671985 -0.0000015350894314368064 -0.0000015350968528048333
          -0.0000025230534367936056 -0.0000025230610115498355 -0.000002523085026204531 -0.000001666314405706721 -0.0000016663172261176366 -0.0000016663280390858032
          -0.000002289606901369622 -0.000002289613809660633 -0.000002289637496763497 -0.0000029386400777916693 -0.0000028419719276580353 -0.0000029386536784091675
          -0.0000028419829625611715 -0.0000029386931514471777 -0.000002842017249724263 -0.0000022352804691033505 -0.000002235288102599209 -0.000002235313755665574
          -0.000002153015639368371 -0.0000020596014672667985 -0.0000021530226140641594 -0.000002059605893581943 -0.000002153045921681859 -0.000002059619702536253
          -0.000001988695299238373 -0.000002015539059773071 -0.000001988698206462736 -0.0000020155419731227475 -0.000001988708907327915 -0.0000020155502827211974
          -0.0000025707997392892105 -0.0000026988931290241316 -0.000002570811199196354 -0.0000026989083754058267 -0.0000025708477961089307 -0.0000026989458510594377
          -0.0000021660797177778447 -0.0000021660838854323347 -0.000002166097171857573 -0.000002743511832260289 -0.0000027435204342329348 -0.000002743546055445024
          -0.000002028783735311618 -0.0000020287870965105103 -0.000002028798565286627 -0.0000026058323293589594 -0.0000026546269345767346 -0.000002605840239367849
          -0.0000026546348458242372 -0.000002605863939100046 -0.000002654660332015772 -0.0000028283449016409573 -0.0000029262105105114464 -0.000002828356830736286
          -0.0000029262250103663976 -0.000002828392443133858 -0.000002926269728432165 -0.0000027039508901181922 -0.000002787382814666633 -0.0000028094597827752697
          -0.00000270396030983381 -0.0000027873949172279915 -0.000002809472045273149 -0.000002703989518515203 -0.0000027874334568382903 -0.0000028095097410801874
          -0.000002912823003204235 -0.000002912835887313478 -0.0000029128783524234867 -0.0000017940247228195916 -0.000001933001976196657 -0.0000017940261518503086
          -0.0000019330038828822524 -0.000001794029974477051 -0.000001933011137925457 -0.000002664038148038569 -0.000002676537013538637 -0.0000026640633187494596
          -0.0000026765518453781113 -0.0000026641649763092312 -0.000002676623450137766 -0.000002898445855788461 -0.000002898459624027321 -0.000002898503042769715
          -0.0000027289398308195574 -0.000002728948315025994 -0.000002728974619066951 -0.000001986618194831802 -0.0000019866207808699034 -0.000001986628950753581
          -0.000002848590402548462 -0.0000028663757561081275 -0.000002848607578443432 -0.0000028663914111229274 -0.0000028486598232509496 -0.000002866441035890389
          -0.0000028829934155420254 -0.00000288300908168842 -0.0000028830604991367056 -0.0000028293805927049867 -0.000002829402463301931 -0.000002829482872959889
          -0.0000018826961005342307 -0.0000018826962403285873 -0.0000018826960857325769 -0.000002808599679677752 -0.0000028086073574540257 -0.0000028086014184969326
          -0.0000027862813173859567 -0.000002786262143399571 -0.000002786129327534145 -0.0000027632917877405103 -0.0000027633019291175038 -0.000002763338601288892
          -0.0000013626426187035584 -0.0000013626287962484006 -0.0000013625871645542049 -0.0000016652689369964999 -0.0000016652551245695363 -0.0000016652142727105572
          -0.000001986175139977488 -0.000001986161632135492 -0.0000019861203200307845 -0.000002326218303655382 -0.0000023262216921570714 -0.0000023262327545157
          -0.000002678269128305516 -0.0000026782919195228563 -0.0000026783597546126644 -2.3566025479088546e-7 0 -2.356539285636059e-7
          0 -2.3563502706739163e-7 0 -2.4711862659000286e-7 0 -2.4711263768104766e-7
          0 -2.4709470769095495e-7 0 -2.679756125015581e-7 0 -2.679705658109016e-7
          0 -2.679554110200728e-7 0 -2.9800449074296444e-7 0 -2.9800100490250157e-7
          0 -2.979905015585517e-7 0 -3.362367140676161e-7 0 -3.362352746640434e-7
          0 -3.3623090778991195e-7 0 -3.810938756645394e-7 0 -3.8109476563046563e-7
          0 -3.8109737817531825e-7 0 -4.3063062227889965e-7 0 -4.306340039325142e-7
          0 -4.3064412623375164e-7 0 -4.828943280034129e-7 0 -4.828993475371958e-7
          0 -4.829143014381785e-7 0 -4.7084109249888424e-7 -4.70828165374034e-7 -4.707891353832616e-7
          -4.935132164740326e-7 -4.935012485506792e-7 -4.934651266678983e-7 -5.353431334074295e-7 -5.353335430078766e-7 -5.353046359016557e-7
          -5.957585198676413e-7 -5.957524611533161e-7 -5.957343178484463e-7 -6.726152910461493e-7 -6.726136453605898e-7 -6.726088119500763e-7
          -7.625004349299532e-7 -7.625035329931136e-7 -7.625128960409258e-7 -8.6125864614226e-7 -8.612666100838033e-7 -8.612907452492677e-7
          -9.647254721230999e-7 -9.647365034347384e-7 -9.647697651101039e-7 -7.052205991976673e-7 -7.051996864679591e-7 -7.051374558323914e-7
          -7.383035110994903e-7 -7.382840210609007e-7 -7.382258507942856e-7 -8.009415514324401e-7 -8.009257865552931e-7 -8.00878771750933e-7
          -8.92090911670136e-7 -8.920809532813244e-7 -8.920512921250284e-7 -0.0000010081469029822368 -0.000001008144285251257 -0.0000010081364899543984
          -0.0000011434393139642762 -0.0000011434446570519174 -0.0000011434605480309503 -0.000001291061627345544 -0.0000012910751600385376 -0.0000012911155101176346
          -0.0000014440689757648477 -0.0000014440873898321908 -0.0000014441418477757193 -9.390527780090035e-7 -9.390215346235452e-7 -9.389261371120657e-7
          -9.810813854680327e-7 -9.810520196499387e-7 -9.809626110653702e-7 -0.0000010639299280244933 -0.0000010639063049174954 -0.0000010638344126785246
          -0.0000011859350407804072 -0.000001185920476048091 -0.0000011858761907331546 -0.000001341685678458052 -0.0000013416826628658178 -0.0000013416735133731802
          -0.0000015227044167751332 -0.0000015227139472398182 -0.0000015227427815427085 -0.0000017185219424567336 -0.0000017185447223613482 -0.000001718614361470366
          -0.0000019184282334865725 -0.0000019184586827637473 -0.000001918551548243429 -0.0000011737555759287034 -0.0000011737135677100115 -0.0000011735907798629133
          -0.0000012224672644747016 -0.0000012224275502863284 -0.0000012223109353897371 -0.0000013241625536414313 -0.000001324130983761094 -0.0000013240383360196026
          -0.0000014763483809205794 -0.000001476329816262687 -0.0000014762754278109776 -0.0000016714964296983787 -0.0000016714943432094017 -0.0000016714885336995556
          -0.0000018978039803718831 -0.0000018978198813907559 -0.0000018978670074747452 -0.0000021402318016637324 -0.0000021402658912813845 -0.00000214036627795834
          -0.000002382704996401604 -0.000002382746368408596 -0.0000023828660182930237 -0.0000014230980973095863 -0.0000014230326697306972 -0.0000014228306945683573
          -0.000001413165596721544 -0.0000014130939368623313 -0.0000014128728181240682 -0.000001465291107700203 -0.0000014652241402533514 -0.0000014650182108562145
          -0.0000015828563454304948 -0.0000015828032581206553 -0.000001582640089762691 -0.0000017622272749287846 -0.0000017621963179765008 -0.0000017621010139019027
          -0.0000019938366008774068 -0.000001993834441561925 -0.0000019938276112586184 -0.00000226258174539807 -0.000002262611600780769 -0.0000022627022783767877
          -0.0000025478648257739437 -0.000002547933147986309 -0.0000025481438170878337 -0.0000028259615296349217 -0.000002826048063665014 -0.000002826314268413396
          -0.0000016878850855875306 -0.0000016878322171936104 -0.0000016876803170250044 -0.0000016654357809502843 -0.0000016653743399837243 -0.0000016651967742052004
          -0.0000017163299049949014 -0.0000017162701762735722 -0.0000017160963448062047 -0.000001843059836615592 -0.0000018430146383185646 -0.0000018428831001676412
          -0.000002040859518815666 -0.0000020408380211357033 -0.0000020407757464991492 -0.0000022993594698337703 -0.0000022993679415109917 -0.0000022993935055502767
          -0.0000026019043835334583 -0.0000026019456642084443 -0.0000026020668926753718 -0.0000029227408607836575 -0.000002922816158652309 -0.000002923036795240444
          -0.0000032266224734438675 -0.0000032266907131437983 -0.000003226882816000143 -0.0000019871492401059667 -0.0000019869919356472546 -0.000001986521379948548
          -0.000001950487306678693 -0.000001950308918882738 -0.0000019497761021214487 -0.000001991895248354436 -0.0000019917340752820857 -0.0000019912535163013636
          -0.000002111562337308836 -0.0000021114399423367317 -0.0000021110756887368203 -0.0000023057584874449484 -0.0000023056925998294292 -0.0000023054978081728217
          -0.0000025664078407663194 -0.000002566416011737373 -0.0000025664440803779367 -0.000002879028144637041 -0.0000028791223857033536 -0.0000028794067578524706
          -0.0000032202126463551855 -0.000003220426163520763 -0.0000032210762366397087 -0.0000035433067627916702 -0.000003543599066293811 -0.0000035444705546398676
          -0.0000023539420557168357 -0.0000023536369180688935 -0.0000023527053747202535 -0.0000023024757498569902 -0.000002302137516829136 -0.0000023011061033146152
          -0.000002313925778820528 -0.000002313628547086621 -0.0000023127216640023845 -0.000002391286192239671 -0.0000023910572367466114 -0.0000023903574742062713
          -0.0000025358573215201043 -0.0000025357262513663584 -0.000002535322608959718 -0.0000027466572547682598 -0.0000027466566099224146 -0.000002746649262379661
          -0.0000030185258181175494 -0.0000030186788906706666 -0.0000030191347332048944 -0.000003338631638042658 -0.000003339033928789162 -0.000003340239837532392
          -0.000003710685973826194 -0.0000037112734705855044 -0.000003713064331617184 0 -5.00482490233229e-7 0
          -5.00488814714541e-7 0 -5.005078041633328e-7 -9.993861129624085e-7 -9.993997033311655e-7 -9.994408227892305e-7
          -0.0000014946649750889371 -0.0000014946872927440879 -0.0000014947540377077152 -0.000001983116763750039 -0.0000019831525697879208 -0.0000019832614254153573
          -0.000002459074914559176 -0.000002459124355554057 -0.0000024592708316679516 -0.000002911864402309392 -0.0000029119574165791164 -0.000002912241776403986
          -0.0000033233778087909435 -0.000003323476987624814 -0.0000033237711785267174 -0.000003663026019368839 -0.0000036632949131752217 -0.00000366410917803354
          -0.000003876421761450766 -0.000003876910209187542 -0.000003878383761498843 0 -5.155761736897097e-7 0
          -5.155831947522643e-7 0 -5.156043063944756e-7 -0.0000010287799089000629 -0.0000010287946751718355 -0.0000010288390937674458
          -0.0000015366897049568884 -0.0000015367138471247711 -0.0000015367864281050068 -0.00000203510825134408 -0.0000020351444322136527 -0.0000020352530965186653
          -0.0000025173687058597026 -0.000002517421321118943 -0.0000025175791173997633 -0.000002972456262063744 -0.0000029725346630178105 -0.000002972769676882401
          -0.0000033831392653996245 -0.0000033832431265912968 -0.00000338355494078901 -0.0000037175321980628165 -0.0000037177012168616474 -0.000003718202203086508
          -0.000003949299766034344 -0.000003949518013862111 -0.000003950172480019567 0 -5.280615218611616e-7 0
          -5.280690315392353e-7 0 -5.280916276087572e-7 -0.0000010527680434861435 -0.0000010527836601108666 -0.0000010528306623388502
          -0.0000015701309203149342 -0.0000015701559031261023 -0.00000157023099621839 -0.0000020747576459011673 -0.0000020747941324972248 -0.000002074903787007822
          -0.0000025587746254018063 -0.0000025588255870448526 -0.0000025589784937431573 -0.0000030104152881237113 -0.00000301048485238809 -0.0000030106937953107115
          -0.0000034116414713107585 -0.000003411731404333814 -0.0000034120012982732634 -0.000003737211001296012 -0.0000037373219359172785 -0.0000037376544999459842
          -0.000003982223715913887 -0.000003982343784570222 -0.00000398270568720613 0 -5.380080683825015e-7 0
          -5.380158691096615e-7 0 -5.380393379015184e-7 -0.000001071587961823545 -0.0000010716039971925084 -0.0000010716522633026798
          -0.0000015956001176493934 -0.000001595625313352648 -0.0000015957009696460077 -0.000002103405209036509 -0.000002103440896694235 -0.0000021035480082721436
          -0.000002585947806797466 -0.000002585995471023066 -0.000002586138586828802 -0.000003030669874561427 -0.0000030307306103797557 -0.000003030912677815826
          -0.000003420817087980552 -0.0000034208903898791002 -0.0000034211107281397754 -0.0000037400611104107125 -0.0000037401338833787713 -0.0000037403513532759987
          -0.000003995836939601438 -0.000003995902160894903 -0.000003996097366370234 0 -5.456078599696009e-7 0
          -5.456158005325596e-7 0 -5.456396984316515e-7 -0.0000010857286047930897 -0.0000010857447920770073 -0.000001085793438644687
          -0.0000016141062224146724 -0.0000016141311549992745 -0.0000016142061007456184 -0.000002122947030366459 -0.000002122981355023859 -0.0000021230843847139892
          -0.000002602198340791023 -0.000002602242312297553 -0.000002602374388935466 -0.0000030391597017654856 -0.0000030392124978602513 -0.0000030393708021025365
          -0.0000034197374458957207 -0.0000034197961200504596 -0.000003419972541872261 -0.0000037352892041994037 -0.000003735338150291681 -0.000003735484526784894
          -0.000003999756399439041 -0.0000039997923365767375 -0.00000399990001821592 0 -5.511188004426298e-7 0
          -5.511268375105504e-7 0 -5.511509835808345e-7 -0.000001095808754379051 -0.0000010958249221725854 -0.0000010958735377513745
          -0.0000016268364977090686 -0.0000016268609082793996 -0.0000016269342377761075 -0.0000021354509480136466 -0.0000021354837574879905 -0.0000021355822610822514
          -0.000002610924639776569 -0.000002610965250466003 -0.0000026110871929068703 -0.0000030409636850663045 -0.000003041009906371374 -0.0000030411485183737254
          -0.0000034143326613801703 -0.0000034143802183906002 -0.0000034145232611136715 -0.0000037280218256158306 -0.000003728055687949318 -0.000003728156876497399
          -0.000003999160265996851 -0.000003999180166748693 -0.00000399923959437292 0 -5.548072500565757e-7 0
          -5.548152396114934e-7 0 -5.548392764735507e-7 -0.0000011024540920913992 -0.0000011024700800001371 -0.000001102518239184823
          -0.000001634944558576114 -0.0000016349686024104417 -0.0000016350409250188866 -0.0000021428395254141938 -0.0000021428710987865394 -0.0000021429659339330094
          -0.000002615026749286683 -0.000002615064721802144 -0.000002615178827875204 -0.000003039818334768466 -0.000003039859731285098 -0.00000303998385755158
          -0.000003408319543604392 -0.000003408359455287844 -0.0000034084796007370116 -0.000003721197249221143 -0.0000037212219539726585 -0.0000037212957416806134
          -0.000003997033899174988 -0.000003997044634847015 -0.000003997076564309706 0 -5.568971522566886e-7 0
          -5.569050356406915e-7 0 -5.569287087751407e-7 -0.000001106182056038756 -0.0000011061978930117953 -0.0000011062453627768551
          -0.0000016393903639837087 -0.0000016394141535013642 -0.0000016394856448390799 -0.0000021466374679990936 -0.0000021466681363285333 -0.0000021467603012900743
          -0.000002616636186184636 -0.0000026166725203247204 -0.0000026167817147796274 -0.0000030381990954789274 -0.000003038237509091037 -0.0000030383527139160546
          -0.0000034039250425975 -0.0000034039605571344274 -0.0000034040674830008403 -0.0000037165105220688703 -0.000003716530279405588 -0.000003716589248950017
          -0.000003995138105581526 -0.000003995144129027022 -0.000003995161888207063 0 -5.575800501592784e-7 0
          -5.575881773695145e-7 0 -5.57612733635959e-7 -0.0000011074042216802498 -0.0000011074202930385025 -0.0000011074687723848981
          -0.0000016408072552474067 -0.0000016408306979940748 -0.0000016409012817930563 -0.0000021477998916466585 -0.0000021478300837459747 -0.0000021479207262368874
          -0.0000026170325320804795 -0.000002617068288177788 -0.00000261717579143938 -0.000003037503869575856 -0.0000030375412643945394 -0.0000030376536601479036
          -0.000003402331286501013 -0.0000034023653512860765 -0.000003402467949586224 -0.000003714854213079443 -0.0000037148723597188565 -0.000003714926558844801
          -0.000003994409229555432 -0.000003994413885151465 -0.000003994427262013336
        </DataArray>
        <DataArray type="Float64" Name="disp_z" format="ascii" RangeMin="-9.236383467818926e-8" RangeMax="0">
          0 0 0 0 -3.641767107732058e-8 -3.650286751954266e-8
          -3.6118423783495946e-8 -3.5855602223758377e-8 -7.283442035972662e-8 -7.301049912098868e-8 -7.224513089787724e-8 -7.170370117406987e-8
          0 0 0 0 -3.577601520756364e-8 -3.5776856114728817e-8
          -3.591475717434139e-8 -3.587671636904763e-8 -7.155486720219766e-8 -7.155428705742713e-8 -7.182862750215927e-8 -7.175036481750137e-8
          0 0 -3.616667252755738e-8 -3.5880910042153825e-8 -7.233629499890319e-8 -7.176498511146098e-8
          0 0 0 -3.588614865860921e-8 -3.607993033517035e-8 -3.614871790483751e-8
          -7.177108986180754e-8 -7.216115108280855e-8 -7.229624639034063e-8 0 0 0
          0 -3.555165604509344e-8 -3.544852656150662e-8 -3.5409426352109505e-8 -3.5550045539702086e-8 -7.110144882565294e-8
          -7.089459151299934e-8 -7.081920421177333e-8 -7.110238188173741e-8 0 0 0
          0 -3.5465484522789895e-8 -3.5389720310175416e-8 -3.544415383943181e-8 -3.557160258676844e-8 -7.093120615797144e-8
          -7.077865008166646e-8 -7.089198412370465e-8 -7.114079433772664e-8 0 0 0
          -3.566077582178585e-8 -3.565112438308524e-8 -3.57373523444886e-8 -7.132176387286675e-8 -7.130179774908182e-8 -7.147660678551436e-8
          0 -3.631198720791645e-8 -7.26232097918146e-8 0 0 -3.568297642943138e-8
          -3.5647639608119486e-8 -7.136503931450122e-8 -7.129688042526358e-8 0 0 -3.617472041339605e-8
          -3.5986629023274196e-8 -7.234910663153312e-8 -7.197361902504515e-8 0 0 -3.52156368756162e-8
          -3.5216244332471073e-8 -7.04316758898352e-8 -7.043233131754087e-8 0 0 0
          0 -3.538433975360446e-8 -3.536378660537865e-8 -3.547048708346319e-8 -3.550467059544058e-8 -7.076873317024756e-8
          -7.072743746317415e-8 -7.094142134340339e-8 -7.100862576973272e-8 0 -3.5485079424365305e-8 -7.09704948536795e-8
          0 -3.5216028940852287e-8 -7.043203659734858e-8 0 -3.5828563903350314e-8 -7.165678425685681e-8
          0 0 -3.581782076892104e-8 -3.57228577737861e-8 -7.163378835462475e-8 -7.144531048373047e-8
          0 0 0 0 -3.54618139474992e-8 -3.550290530428903e-8
          -3.545771075010142e-8 -3.541049265991095e-8 -7.092264525001698e-8 -7.100722119842017e-8 -7.091510144264958e-8 -7.082105960898803e-8
          0 0 -3.571906261913979e-8 -3.5775796060379007e-8 -7.14398576716786e-8 -7.15576121303359e-8
          0 -3.527929386589644e-8 -7.055855457009972e-8 0 -3.534939460501483e-8 -7.069752579296202e-8
          0 0 -3.5345673809342485e-8 -3.532764878058207e-8 -7.068974498763109e-8 -7.065528110055247e-8
          0 0 -3.5630074333738054e-8 -3.5568817717337417e-8 -7.126048591359347e-8 -7.114099654707805e-8
          0 0 -3.551603629002942e-8 -3.550989616178592e-8 -7.10337633673159e-8 -7.101769313145109e-8
          0 -3.5288894540447584e-8 -7.057810929220574e-8 0 -3.5550076867709784e-8 -7.109980473986025e-8
          0 -3.5293144181679346e-8 -7.05865698186589e-8 0 -3.555691518990233e-8 -7.111309404220933e-8
          0 -3.5351613179511603e-8 -7.070278826160666e-8 0 0 -3.5071116177819136e-8
          -3.512674625452442e-8 -7.014167670309506e-8 -7.025265246590965e-8 0 -3.566808532099539e-8 -7.13356899831822e-8
          0 0 -3.563183471367636e-8 -3.560740889790061e-8 -7.126276816956988e-8 -7.121501559350251e-8
          0 0 -3.548799447716583e-8 -3.543498400849565e-8 -7.097447032776336e-8 -7.087065223037701e-8
          0 0 -3.575526868612743e-8 -3.5741502413979614e-8 -7.150617426023528e-8 -7.147482645218539e-8
          0 -3.540865185122996e-8 -7.081790201272079e-8 0 -3.5170883924226915e-8 -7.034241857282897e-8
          0 -3.537592946309762e-8 -7.07519926797462e-8 0 0 -3.529820114351715e-8
          -3.523818758105302e-8 -7.059676201341307e-8 -7.04757930429505e-8 0 0 -3.5177740698917916e-8
          -3.5116054215317124e-8 -7.035579087544723e-8 -7.023041936183335e-8 0 0 0
          -3.528161689825373e-8 -3.5297681601167384e-8 -3.5231379976045764e-8 -7.056365839538071e-8 -7.059474004998883e-8 -7.046294355322784e-8
          0 -3.517005160265936e-8 -7.033965213679296e-8 0 0 -3.558078736357521e-8
          -3.557937908842366e-8 -7.116351252043585e-8 -7.115864628965456e-8 0 0 -3.5810232645738375e-8
          -3.56819795770575e-8 -7.163560956995814e-8 -7.131543753696303e-8 0 -3.523086471022464e-8 -7.04612257605814e-8
          0 -3.521513652004129e-8 -7.042917649519401e-8 0 -3.5684835227707366e-8 -7.137093180441552e-8
          0 0 -3.5473842202545436e-8 -3.5372042073848807e-8 -7.094806427159508e-8 -7.074292468197463e-8
          0 -3.5296027821061136e-8 -7.059214042486292e-8 0 -3.5574076103348895e-8 -7.113969490750292e-8
          0 -3.5674950542941506e-8 -7.134713598350943e-8 0 -3.5737477291015197e-8 -7.150344493322023e-8
          0 -3.602906446495072e-8 -7.209863828091521e-8 0 -3.631978031901802e-8 -7.264102113987406e-8
          0 -3.649450562032938e-8 -7.298931520509533e-8 0 -3.676386001940885e-8 -7.352900261222852e-8
          0 -3.7019948970950896e-8 -7.403931510925412e-8 0 -3.715394423027531e-8 -7.43060951909714e-8
          0 -3.683089662256706e-8 -7.366177071029478e-8 0 0 -3.4626492555610884e-8
          -3.457175493640041e-8 -6.925315178542613e-8 -6.914364890170016e-8 0 0 -3.399259200255076e-8
          -3.394228341909539e-8 -6.798521555019256e-8 -6.788442761170437e-8 0 0 -3.322474002886025e-8
          -3.3183753431654e-8 -6.644959564508431e-8 -6.636747115376184e-8 0 0 -3.235038905257541e-8
          -3.2324329646558726e-8 -6.470088341982697e-8 -6.464855870552362e-8 0 0 -3.140895124052753e-8
          -3.1403179021484866e-8 -6.281799254443244e-8 -6.280629828627139e-8 0 0 -3.044596717225942e-8
          -3.0464361124007284e-8 -6.089200314159546e-8 -6.092865802989987e-8 0 0 -2.950707655117721e-8
          -2.955250483625629e-8 -5.901414593382588e-8 -5.910502182441413e-8 0 0 -2.8635493644787658e-8
          -2.8697991174939535e-8 -5.727089700960352e-8 -5.739595234362174e-8 0 -3.4805682741561535e-8 -6.961130256566623e-8
          0 -3.415523355368273e-8 -6.831027209626695e-8 0 -3.335087378111926e-8 -6.670158451328153e-8
          0 -3.2422406251704385e-8 -6.484468420908054e-8 0 -3.1413339574297414e-8 -6.282648482037034e-8
          0 -3.0375956834350256e-8 -6.075200640646649e-8 0 -2.935519531822864e-8 -5.87103449210261e-8
          0 -2.8431116540486763e-8 -5.6862504261451236e-8 0 -3.512759784301561e-8 -7.025567630254277e-8
          0 -3.4454859072061134e-8 -6.891006816010579e-8 0 -3.359155951458757e-8 -6.718342516628569e-8
          0 -3.256955751136379e-8 -6.513944177600242e-8 0 -3.143829154486336e-8 -6.287648855679962e-8
          0 -3.0261196003825815e-8 -6.052272006783483e-8 0 -2.908384538062076e-8 -5.816700387193621e-8
          0 -2.8054699929688605e-8 -5.610911654652417e-8 0 -3.5624031917875304e-8 -7.124689767534409e-8
          0 -3.4921726069761864e-8 -6.984239726837643e-8 0 -3.396812522774234e-8 -6.79353226257818e-8
          0 -3.2798377893888995e-8 -6.559636300123035e-8 0 -3.147120731139284e-8 -6.294177590685547e-8
          0 -3.006808800348398e-8 -6.013722191584615e-8 0 -2.8635420064635158e-8 -5.727118871546392e-8
          0 -2.7445290867163603e-8 -5.489294121732949e-8 0 -3.634683828374374e-8 -7.269678242547478e-8
          0 -3.560738621446845e-8 -7.121744727611314e-8 0 -3.4520610507893386e-8 -6.904320863195272e-8
          0 -3.3127351706247335e-8 -6.625647474478184e-8 0 -3.149967767891883e-8 -6.29988915242067e-8
          0 -2.974690101119173e-8 -5.949462867106669e-8 0 -2.791153244087931e-8 -5.5818634454838396e-8
          0 -2.648689917952492e-8 -5.297093696534908e-8 0 -3.7661903596933594e-8 -7.531738502482595e-8
          0 -3.736068866814011e-8 -7.471469533974925e-8 0 -3.657407873850863e-8 -7.314259922389946e-8
          0 -3.5290947992076237e-8 -7.057711893898045e-8 0 -3.3566282990742656e-8 -6.713047740976554e-8
          0 -3.148993817250989e-8 -6.297735999552199e-8 0 -2.920602335537557e-8 -5.8417406020588674e-8
          0 -2.674745982010775e-8 -5.3498337771921406e-8 0 -2.5052897606325132e-8 -5.0117968041511386e-8
          0 -3.9065193370714476e-8 -7.813895626555165e-8 0 -3.892870988730841e-8 -7.786637467602848e-8
          0 -3.8057303654708745e-8 -7.612254298253336e-8 0 -3.64671515192899e-8 -7.293969876051178e-8
          0 -3.422019296571522e-8 -6.844556899025346e-8 0 -3.1423491616681865e-8 -6.284372278350247e-8
          0 -2.8286309524641572e-8 -5.65754455010737e-8 0 -2.4680811814008473e-8 -4.9344766342611494e-8
          0 -2.2508541117762133e-8 -4.500923910233511e-8 0 -4.0378175696527804e-8 -8.075530066702308e-8
          0 -4.049162309252021e-8 -8.098152931109184e-8 0 -3.9558663609983384e-8 -7.911679828895136e-8
          0 -3.757960934548813e-8 -7.515781825250869e-8 0 -3.4697009335069196e-8 -6.939785535661921e-8
          0 -3.104989554584831e-8 -6.209382045301737e-8 0 -2.687192864581972e-8 -5.3762558111829976e-8
          0 -2.197943134621714e-8 -4.39491653148396e-8 0 -1.9680832564717824e-8 -3.9379003925918584e-8
          0 -4.544579636908007e-8 -9.09065756672628e-8 0 -4.6174059724317655e-8 -9.236383467818926e-8
          0 -4.4646746598853407e-8 -8.931102713337086e-8 0 -4.155808556469692e-8 -8.31283241122784e-8
          0 -3.697940299585614e-8 -7.397594928720243e-8 0 -3.0912078705332585e-8 -6.181667071650501e-8
          0 -2.3685214344776028e-8 -4.7393397726400795e-8 0 -1.3621915770432724e-8 -2.7220666401567417e-8
          0 -6.782260325670237e-9 -1.3573300716144544e-8 0 0 -2.816501144845429e-8
          -2.8084230211439953e-8 -5.633017176983151e-8 -5.616849707750346e-8 0 -2.782752966871117e-8 -5.5655045873392026e-8
          0 -2.736304450725138e-8 -5.4725191047290465e-8 0 -2.6626216200406787e-8 -5.325232642007392e-8
          0 -2.549064593969474e-8 -5.097657455592597e-8 0 -2.3807626062625454e-8 -4.7615310831967625e-8
          0 -2.0916446278127556e-8 -4.18185569888543e-8 0 -1.726765300348912e-8 -3.4513135003372005e-8
          0 -6.376242151651955e-9 -1.271322942591173e-8 0 0 -2.7670025246268037e-8
          -2.7579836683099438e-8 -5.533990828792727e-8 -5.515958749056106e-8 0 -2.729902131603539e-8 -5.4598152026911506e-8
          0 -2.6798725251184986e-8 -5.3597858005027527e-8 0 -2.6022239832214327e-8 -5.204563106828124e-8
          0 -2.4883551993594412e-8 -4.9768669745556274e-8 0 -2.32136519583367e-8 -4.643273142666801e-8
          0 -2.0822836930682945e-8 -4.1651786216325875e-8 0 -1.75029546629444e-8 -3.5028297198206365e-8
          0 -1.2313347356464372e-8 -2.4650741182098174e-8 0 0 -2.7236284880075207e-8
          -2.7139382912832444e-8 -5.4472651382127465e-8 -5.427881954420434e-8 0 -2.6840773073587786e-8 -5.368150215155189e-8
          0 -2.6316591193282968e-8 -5.263294931730361e-8 0 -2.5524789967818013e-8 -5.104910141086145e-8
          0 -2.439687527638392e-8 -4.879261659318944e-8 0 -2.284633749562333e-8 -4.5690870467313305e-8
          0 -2.0773276672596873e-8 -4.154138922377646e-8 0 -1.8182937521066166e-8 -3.635658196638461e-8
          0 -1.5143480953808686e-8 -3.025039114165819e-8 0 0 -2.68654493699804e-8
          -2.6764570229456772e-8 -5.373085314104733e-8 -5.3529105198960243e-8 0 -2.645617159858933e-8 -5.291235281257733e-8
          0 -2.592328378699028e-8 -5.1846661672972873e-8 0 -2.5137101469843843e-8 -5.027438777519234e-8
          0 -2.4059118618824882e-8 -4.811874980443172e-8 0 -2.2655234399185835e-8 -4.531098793137172e-8
          0 -2.091437429818998e-8 -4.1831111296978286e-8 0 -1.8963849759577383e-8 -3.79301556528849e-8
          0 -1.72162175352713e-8 -3.444100287476285e-8 0 0 -2.6560397940915834e-8
          -2.645747793457824e-8 -5.312086600262996e-8 -5.2915016824645985e-8 0 -2.6145045385677664e-8 -5.2290109836797406e-8
          0 -2.5612790931276e-8 -5.122554745720364e-8 0 -2.484572223702036e-8 -4.9691369245294296e-8
          0 -2.3830267470082935e-8 -4.766045584778736e-8 0 -2.2571894165365393e-8 -4.514334857540494e-8
          0 -2.111872103282981e-8 -4.2237143354464494e-8 0 -1.9661234799525362e-8 -3.9320639108314715e-8
          0 -1.8622803880917065e-8 -3.723902527531686e-8 0 0 -2.6322752106197024e-8
          -2.6219045462378136e-8 -5.2645359077222456e-8 -5.243797257773472e-8 0 -2.590592884052411e-8 -5.1811810935234786e-8
          0 -2.537945713250747e-8 -5.0758952864847866e-8 0 -2.4636109917858386e-8 -4.927223652444559e-8
          0 -2.3681330261017926e-8 -4.7362682574549684e-8 0 -2.2548034583094115e-8 -4.509590247063996e-8
          0 -2.1321395299664014e-8 -4.2643416044691675e-8 0 -2.020797265344814e-8 -4.041550439873413e-8
          0 -1.9576679851553024e-8 -3.9153667302220585e-8 0 0 -2.6154465478279327e-8
          -2.6050537167272537e-8 -5.230911908051673e-8 -5.210120843165172e-8 0 -2.5737605643445232e-8 -5.1475262785147304e-8
          0 -2.5217078400427313e-8 -5.043411205628218e-8 0 -2.4495528229567328e-8 -4.899099562513723e-8
          0 -2.3590207872951432e-8 -4.7180607859308176e-8 0 -2.2551490521264597e-8 -4.510284813830328e-8
          0 -2.1486041027083026e-8 -4.2972412892585276e-8 0 -2.0596147519942776e-8 -4.119155720559644e-8
          0 -2.0201708237335013e-8 -4.040232683181738e-8 0 0 -2.604707463326245e-8
          -2.594387858147077e-8 -5.2093872903548205e-8 -5.188757904864218e-8 0 -2.5633739152692968e-8 -5.126736912704187e-8
          0 -2.512368841371427e-8 -5.024743974604404e-8 0 -2.441792209144005e-8 -4.883586856732433e-8
          0 -2.354243124565827e-8 -4.708445921899097e-8 0 -2.2561955339379072e-8 -4.512356067441766e-8
          0 -2.1591135894767692e-8 -4.3182609064371726e-8 0 -2.0825859047393868e-8 -4.165118363988642e-8
          0 -2.0555023670909812e-8 -4.110966593825233e-8 0 0 -2.6032315895012304e-8
          -2.5925654047306557e-8 -5.206423306849787e-8 -5.185095707853391e-8 0 -2.5603536358868315e-8 -5.12068463619729e-8
          0 -2.509531616300475e-8 -5.0190551101855303e-8 0 -2.4397649218578065e-8 -4.879492741891835e-8
          0 -2.3556422305225277e-8 -4.7112444245192614e-8 0 -2.2579821624332057e-8 -4.51590265343442e-8
          0 -2.1631254454639924e-8 -4.326275883771133e-8 0 -2.0901401158115314e-8 -4.180219181626573e-8
          0 -2.0670853166755005e-8 -4.134126757680335e-8
        </DataArray>
      </PointData>
      <CellData>
        <DataArray type="Int32" Name="libmesh_elem_id" format="ascii" RangeMin="1398" RangeMax="3643">
          1398 1399 1422 1423 1460 1461
          1470 1471 1482 1483 1494 1495
          1502 1503 1506 1507 1520 1521
          1528 1529 1580 1581 1584 1585
          1612 1613 1636 1637 1652 1653
          1722 1723 1798 1799 1850 1851
          2298 2299 2406 2407 2442 2443
          2450 2451 2472 2473 2558 2559
          2610 2611 2646 2647 2648 2649
          2662 2663 2672 2673 2680 2681
          2748 2749 2756 2757 2776 2777
          2808 2809 2814 2815 2822 2823
          2828 2829 2836 2837 2852 2853
          2876 2877 2898 2899 2910 2911
          2926 2927 2936 2937 2950 2951
          2952 2953 2954 2955 2966 2967
          2980 2981 2982 2983 2990 2991
          3006 3007 3014 3015 3026 3027
          3068 3069 3074 3075 3104 3105
          3110 3111 3124 3125 3126 3127
          3168 3169 3194 3195 3204 3205
          3208 3209 3210 3211 3212 3213
          3220 3221 3222 3223 3224 3225
          3226 3227 3234 3235 3236 3237
          3240 3241 3252 3253 3254 3255
          3264 3265 3296 3297 3302 3303
          3308 3309 3314 3315 3324 3325
          3326 3327 3328 3329 3330 3331
          3332 3333 3334 3335 3336 3337
          3342 3343 3344 3345 3346 3347
          3348 3349 3350 3351 3352 3353
          3354 3355 3360 3361 3362 3363
          3364 3365 3366 3367 3368 3369
          3370 3371 3372 3373 3378 3379
          3380 3381 3382 3383 3384 3385
          3386 3387 3388 3389 3390 3391
          3396 3397 3398 3399 3400 3401
          3402 3403 3404 3405 3406 3407
          3408 3409 3414 3415 3416 3417
          3418 3419 3420 3421 3422 3423
          3424 3425 3426 3427 3430 3431
          3432 3433 3434 3435 3436 3437
          3438 3439 3440 3441 3442 3443
          3444 3445 3448 3449 3450 3451
          3452 3453 3454 3455 3456 3457
          3458 3459 3460 3461 3462 3463
          3466 3467 3468 3469 3470 3471
          3472 3473 3474 3475 3476 3477
          3478 3479 3480 3481 3482 3483
          3484 3485 3486 3487 3488 3489
          3490 3491 3492 3493 3494 3495
          3496 3497 3498 3499 3500 3501
          3502 3503 3504 3505 3506 3507
          3508 3509 3510 3511 3512 3513
          3514 3515 3516 3517 3518 3519
          3520 3521 3522 3523 3524 3525
          3526 3527 3528 3529 3530 3531
          3532 3533 3534 3535 3536 3537
          3538 3539 3540 3541 3542 3543
          3544 3545 3546 3547 3548 3549
          3550 3551 3552 3553 3554 3555
          3556 3557 3558 3559 3560 3561
          3562 3563 3564 3565 3566 3567
          3568 3569 3570 3571 3572 3573
          3574 3575 3576 3577 3578 3579
          3580 3581 3582 3583 3584 3585
          3586 3587 3588 3589 3590 3591
          3592 3593 3594 3595 3596 3597
          3598 3599 3600 3601 3602 3603
          3604 3605 3606 3607 3608 3609
          3610 3611 3612 3613 3614 3615
          3616 3617 3618 3619 3620 3621
          3622 3623 3624 3625 3626 3627
          3628 3629 3630 3631 3632 3633
          3634 3635 3636 3637 3638 3639
          3640 3641 3642 3643
        </DataArray>
        <DataArray type="Int32" Name="subdomain_id" format="ascii" RangeMin="107" RangeMax="110">
          107 107 107 107 107 107
          107 107 107 107 107 107
          107 107 107 107 107 107
          107 107 107 107 107 107
          107 107 107 107 107 107
          107 107 107 107 107 107
          107 107 107 107 107 107
          107 107 107 107 107 107
          107 107 107 107 107 107
          107 107 107 107 107 107
          107 107 107 107 107 107
          107 107 107 107 107 107
          107 107 107 107 107 107
          107 107 107 107 107 107
          107 107 107 107 107 107
          107 107 107 107 107 107
          107 107 107 107 107 107
          107 107 107 107 107 107
          107 107 107 107 107 107
          107 107 107 107 107 107
          107 107 107 107 107 107
          107 107 107 107 107 107
          107 107 107 107 107 107
          107 107 107 107 107 107
          107 107 107 107 107 107
          107 107 108 108 108 108
          108 108 108 108 109 109
          109 109 109 109 109 109
          109 109 109 109 109 109
          109 109 109 109 109 109
          109 109 109 109 109 109
          109 109 109 109 109 109
          109 109 109 109 109 109
          109 109 109 109 109 109
          109 109 109 109 109 109
          109 109 109 109 109 109
          109 109 109 109 109 109
          109 109 109 109 109 109
          109 109 109 109 109 109
          109 109 109 109 109 109
          109 109 109 109 109 109
          109 109 109 109 109 109
          109 109 109 109 109 109
          109 109 109 109 109 109
          109 109 109 109 109 109
          109 109 109 109 109 109
          109 109 109 109 109 109
          109 109 109 109 109 109
          109 109 109 109 110 110
          110 110 110 110 110 110
          110 110 110 110 110 110
          110 110 110 110 110 110
          110 110 110 110 110 110
          110 110 110 110 110 110
          110 110 110 110 110 110
          110 110 110 110 110 110
          110 110 110 110 110 110
          110 110 110 110 110 110
          110 110 110 110 110 110
          110 110 110 110 110 110
          110 110 110 110 110 110
          110 110 110 110 110 110
          110 110 110 110 110 110
          110 110 110 110 110 110
          110 110 110 110 110 110
          110 110 110 110 110 110
          110 110 110 110 110 110
          110 110 110 110 110 110
          110 110 110 110 110 110
          110 110 110 110 110 110
          110 110 110 110 110 110
          110 110 110 110 110 110
          110 110 110 110 110 110
          110 110 110 110 110 110
          110 110 110 110 110 110
          110 110 110 110
        </DataArray>
        <DataArray type="Int32" Name="processor_id" format="ascii" RangeMin="0" RangeMax="0">
          0 0 0 0 0 0
          0 0 0 0 0 0
          0 0 0 0 0 0
          0 0 0 0 0 0
          0 0 0 0 0 0
          0 0 0 0 0 0
          0 0 0 0 0 0
          0 0 0 0 0 0
          0 0 0 0 0 0
          0 0 0 0 0 0
          0 0 0 0 0 0
          0 0 0 0 0 0
          0 0 0 0 0 0
          0 0 0 0 0 0
          0 0 0 0 0 0
          0 0 0 0 0 0
          0 0 0 0 0 0
          0 0 0 0 0 0
          0 0 0 0 0 0
          0 0 0 0 0 0
          0 0 0 0 0 0
          0 0 0 0 0 0
          0 0 0 0 0 0
          0 0 0 0 0 0
          0 0 0 0 0 0
          0 0 0 0 0 0
          0 0 0 0 0 0
          0 0 0 0 0 0
          0 0 0 0 0 0
          0 0 0 0 0 0
          0 0 0 0 0 0
          0 0 0 0 0 0
          0 0 0 0 0 0
          0 0 0 0 0 0
          0 0 0 0 0 0
          0 0 0 0 0 0
          0 0 0 0 0 0
          0 0 0 0 0 0
          0 0 0 0 0 0
          0 0 0 0 0 0
          0 0 0 0 0 0
          0 0 0 0 0 0
          0 0 0 0 0 0
          0 0 0 0 0 0
          0 0 0 0 0 0
          0 0 0 0 0 0
          0 0 0 0 0 0
          0 0 0 0 0 0
          0 0 0 0 0 0
          0 0 0 0 0 0
          0 0 0 0 0 0
          0 0 0 0 0 0
          0 0 0 0 0 0
          0 0 0 0 0 0
          0 0 0 0 0 0
          0 0 0 0 0 0
          0 0 0 0 0 0
          0 0 0 0 0 0
          0 0 0 0 0 0
          0 0 0 0 0 0
          0 0 0 0 0 0
          0 0 0 0 0 0
          0 0 0 0 0 0
          0 0 0 0 0 0
          0 0 0 0 0 0
          0 0 0 0 0 0
          0 0 0 0 0 0
          0 0 0 0 0 0
          0 0 0 0 0 0
          0 0 0 0 0 0
          0 0 0 0 0 0
          0 0 0 0 0 0
          0 0 0 0 0 0
          0 0 0 0 0 0
          0 0 0 0 0 0
          0 0 0 0
        </DataArray>
      </CellData>
      <Points>
        <DataArray type="Float64" Name="Points" NumberOfComponents="3" format="ascii" RangeMin="0.019949534490770096" RangeMax="0.057059767276955435">
          0.025 0.010111111111103 0 0.025 0.011555555555552 0
          0.023969654121399 0.011643457228511 0 0.023712354871128 0.010827306146479 0
          0.025 0.010111111111103 0.00015 0.025 0.011555555555552 0.00015
          0.023969654121399 0.011643457228511 0.00015 0.023712354871128 0.010827306146479 0.00015
          0.025 0.010111111111103 0.0003 0.025 0.011555555555552 0.0003
          0.023969654121399 0.011643457228511 0.0003 0.023712354871128 0.010827306146479 0.0003
          0.021832836898909 0.0086447924127183 0 0.021823224979211 0.0078559681587773 0
          0.022737846371709 0.0079006862580081 0 0.022634898807434 0.0088549234284915 0
          0.021832836898909 0.0086447924127183 0.00015 0.021823224979211 0.0078559681587773 0.00015
          0.022737846371709 0.0079006862580081 0.00015 0.022634898807434 0.0088549234284915 0.00015
          0.021832836898909 0.0086447924127183 0.0003 0.021823224979211 0.0078559681587773 0.0003
          0.022737846371709 0.0079006862580081 0.0003 0.022634898807434 0.0088549234284915 0.0003
          0.023595500831214 0.0092794942281182 0 0.023071107871262 0.010124307969263 0
          0.023595500831214 0.0092794942281182 0.00015 0.023071107871262 0.010124307969263 0.00015
          0.023595500831214 0.0092794942281182 0.0003 0.023071107871262 0.010124307969263 0.0003
          0.022679909737796 0.0068405181074087 0 0.023816654948859 0.0069324696013164 0
          0.023805320189621 0.0081867285281858 0 0.022679909737796 0.0068405181074087 0.00015
          0.023816654948859 0.0069324696013164 0.00015 0.023805320189621 0.0081867285281858 0.00015
          0.022679909737796 0.0068405181074087 0.0003 0.023816654948859 0.0069324696013164 0.0003
          0.023805320189621 0.0081867285281858 0.0003 0.021890570917318 0.011219591567605 0
          0.021490495874743 0.011513015985888 0 0.020878683694742 0.011349585571751 0
          0.021380466308845 0.010767094219468 0 0.021890570917318 0.011219591567605 0.00015
          0.021490495874743 0.011513015985888 0.00015 0.020878683694742 0.011349585571751 0.00015
          0.021380466308845 0.010767094219468 0.00015 0.021890570917318 0.011219591567605 0.0003
          0.021490495874743 0.011513015985888 0.0003 0.020878683694742 0.011349585571751 0.0003
          0.021380466308845 0.010767094219468 0.0003 0.022336312736143 0.012467557709352 0
          0.021763745105177 0.012476629724541 0 0.021622459990569 0.011931223094182 0
          0.02233098651665 0.011816769005978 0 0.022336312736143 0.012467557709352 0.00015
          0.021763745105177 0.012476629724541 0.00015 0.021622459990569 0.011931223094182 0.00015
          0.02233098651665 0.011816769005978 0.00015 0.022336312736143 0.012467557709352 0.0003
          0.021763745105177 0.012476629724541 0.0003 0.021622459990569 0.011931223094182 0.0003
          0.02233098651665 0.011816769005978 0.0003 0.021047379294988 0.0079667793778881 0
          0.020813290684512 0.007243328880283 0 0.021666975794544 0.0069715825078724 0
          0.021047379294988 0.0079667793778881 0.00015 0.020813290684512 0.007243328880283 0.00015
          0.021666975794544 0.0069715825078724 0.00015 0.021047379294988 0.0079667793778881 0.0003
          0.020813290684512 0.007243328880283 0.0003 0.021666975794544 0.0069715825078724 0.0003
          0.025 0.0086666666666559 0 0.025 0.0086666666666559 0.00015
          0.025 0.0086666666666559 0.0003 0.021356284292895 0.0061182113295331 0
          0.020489019208248 0.0065103794253073 0 0.021356284292895 0.0061182113295331 0.00015
          0.020489019208248 0.0065103794253073 0.00015 0.021356284292895 0.0061182113295331 0.0003
          0.020489019208248 0.0065103794253073 0.0003 0.025 0.0072222222222063 0
          0.023829479378086 0.0056593315311521 0 0.025 0.0072222222222063 0.00015
          0.023829479378086 0.0056593315311521 0.00015 0.025 0.0072222222222063 0.0003
          0.023829479378086 0.0056593315311521 0.0003 0.019357361519954 0.01157618305141 0
          0.01884046117173 0.011223113854601 0 0.019357361519954 0.01157618305141 0.00015
          0.01884046117173 0.011223113854601 0.00015 0.019357361519954 0.01157618305141 0.0003
          0.01884046117173 0.011223113854601 0.0003 0.020274347850796 0.01080512315655 0
          0.019692191057164 0.010418143528135 0 0.020104676199583 0.0097475599042502 0
          0.020792052735599 0.010316149813733 0 0.020274347850796 0.01080512315655 0.00015
          0.019692191057164 0.010418143528135 0.00015 0.020104676199583 0.0097475599042502 0.00015
          0.020792052735599 0.010316149813733 0.00015 0.020274347850796 0.01080512315655 0.0003
          0.019692191057164 0.010418143528135 0.0003 0.020104676199583 0.0097475599042502 0.0003
          0.020792052735599 0.010316149813733 0.0003 0.018734278863615 0.0068564365277259 0
          0.018734278863615 0.0068564365277259 0.00015 0.018734278863615 0.0068564365277259 0.0003
          0.018384253973557 0.010894663204421 0 0.018384253973557 0.010894663204421 0.00015
          0.018384253973557 0.010894663204421 0.0003 0.022477642087048 0.0055533155338694 0
          0.022477642087048 0.0055533155338694 0.00015 0.022477642087048 0.0055533155338694 0.0003
          0.022333445868241 0.0096250088550796 0 0.021678233976573 0.0092839168226163 0
          0.022333445868241 0.0096250088550796 0.00015 0.021678233976573 0.0092839168226163 0.00015
          0.022333445868241 0.0096250088550796 0.0003 0.021678233976573 0.0092839168226163 0.0003
          0.018696511924608 0.0075816988835645 0 0.019307778433714 0.0076950261479263 0
          0.019244919669154 0.0083241905034728 0 0.018643245907353 0.0082916041839039 0
          0.018696511924608 0.0075816988835645 0.00015 0.019307778433714 0.0076950261479263 0.00015
          0.019244919669154 0.0083241905034728 0.00015 0.018643245907353 0.0082916041839039 0.00015
          0.018696511924608 0.0075816988835645 0.0003 0.019307778433714 0.0076950261479263 0.0003
          0.019244919669154 0.0083241905034728 0.0003 0.018643245907353 0.0082916041839039 0.0003
          0.02247089481133 0.010746063389313 0 0.022956441030322 0.011313723369763 0
          0.02247089481133 0.010746063389313 0.00015 0.022956441030322 0.011313723369763 0.00015
          0.02247089481133 0.010746063389313 0.0003 0.022956441030322 0.011313723369763 0.0003
          0.018817000838468 0.010560792840001 0 0.018817000838468 0.010560792840001 0.00015
          0.018817000838468 0.010560792840001 0.0003 0.021028725472558 0.011993213484042 0
          0.021028725472558 0.011993213484042 0.00015 0.021028725472558 0.011993213484042 0.0003
          0.018719100515555 0.0096191331103102 0 0.018769006148643 0.010016813571171 0
          0.018719100515555 0.0096191331103102 0.00015 0.018769006148643 0.010016813571171 0.00015
          0.018719100515555 0.0096191331103102 0.0003 0.018769006148643 0.010016813571171 0.0003
          0.022845614094026 0.012068678060928 0 0.022870050818517 0.012481997757377 0
          0.022845614094026 0.012068678060928 0.00015 0.022870050818517 0.012481997757377 0.00015
          0.022845614094026 0.012068678060928 0.0003 0.022870050818517 0.012481997757377 0.0003
          0.01980903614198 0.0082923028866096 0 0.019733887771193 0.007830319872041 0
          0.01980903614198 0.0082923028866096 0.00015 0.019733887771193 0.007830319872041 0.00015
          0.01980903614198 0.0082923028866096 0.0003 0.019733887771193 0.007830319872041 0.0003
          0.019287865107188 0.010870204720027 0 0.019287865107188 0.010870204720027 0.00015
          0.019287865107188 0.010870204720027 0.0003 0.019611341590458 0.0069319215290848 0
          0.019611341590458 0.0069319215290848 0.00015 0.019611341590458 0.0069319215290848 0.0003
          0.019793192887703 0.011218191570876 0 0.019793192887703 0.011218191570876 0.00015
          0.019793192887703 0.011218191570876 0.0003 0.02014052068744 0.0075597001530957 0
          0.02014052068744 0.0075597001530957 0.00015 0.02014052068744 0.0075597001530957 0.0003
          0.019142781766586 0.010156284019367 0 0.019142781766586 0.010156284019367 0.00015
          0.019142781766586 0.010156284019367 0.0003 0.019871794871807 0.013 0
          0.019671681078705 0.012567114388191 0 0.019871794871807 0.013 0.00015
          0.019671681078705 0.012567114388191 0.00015 0.019871794871807 0.013 0.0003
          0.019671681078705 0.012567114388191 0.0003 0.02189605775595 0.01024368797285 0
          0.02189605775595 0.01024368797285 0.00015 0.02189605775595 0.01024368797285 0.0003
          0.021306208963658 0.0098107932917518 0 0.020830530356293 0.0093484326970494 0
          0.021306208963658 0.0098107932917518 0.00015 0.020830530356293 0.0093484326970494 0.00015
          0.021306208963658 0.0098107932917518 0.0003 0.020830530356293 0.0093484326970494 0.0003
          0.019927087042343 0.0089401115508047 0 0.019284140679376 0.0089915496868705 0
          0.019927087042343 0.0089401115508047 0.00015 0.019284140679376 0.0089915496868705 0.00015
          0.019927087042343 0.0089401115508047 0.0003 0.019284140679376 0.0089915496868705 0.0003
          0.023272296973232 0.01187913061167 0 0.023408043049707 0.012441583397961 0
          0.023272296973232 0.01187913061167 0.00015 0.023408043049707 0.012441583397961 0.00015
          0.023272296973232 0.01187913061167 0.0003 0.023408043049707 0.012441583397961 0.0003
          0.019291729405334 0.009640079412969 0 0.019291729405334 0.009640079412969 0.00015
          0.019291729405334 0.009640079412969 0.0003 0.019497075330812 0.012129782091497 0
          0.019497075330812 0.012129782091497 0.00015 0.019497075330812 0.012129782091497 0.0003
          0.018655444813331 0.0089912542068827 0 0.018655444813331 0.0089912542068827 0.00015
          0.018655444813331 0.0089912542068827 0.0003 0.020217772280624 0.01161574996656 0
          0.019866459267603 0.011787315550137 0 0.020217772280624 0.01161574996656 0.00015
          0.019866459267603 0.011787315550137 0.00015 0.020217772280624 0.01161574996656 0.0003
          0.019866459267603 0.011787315550137 0.0003 0.020169909004412 0.012559422291794 0
          0.020384615384626 0.013 0 0.020169909004412 0.012559422291794 0.00015
          0.020384615384626 0.013 0.00015 0.020169909004412 0.012559422291794 0.0003
          0.020384615384626 0.013 0.0003 0.02048968364866 0.012063778985416 0
          0.021216890903006 0.012503701361908 0 0.020684692364028 0.012535095885709 0
          0.02048968364866 0.012063778985416 0.00015 0.021216890903006 0.012503701361908 0.00015
          0.020684692364028 0.012535095885709 0.00015 0.02048968364866 0.012063778985416 0.0003
          0.021216890903006 0.012503701361908 0.0003 0.020684692364028 0.012535095885709 0.0003
          0.020897435897446 0.013 0 0.020897435897446 0.013 0.00015
          0.020897435897446 0.013 0.0003 0.020387511226442 0.0081443073342907 0
          0.02056343795537 0.0087688297792787 0 0.020387511226442 0.0081443073342907 0.00015
          0.02056343795537 0.0087688297792787 0.00015 0.020387511226442 0.0081443073342907 0.0003
          0.02056343795537 0.0087688297792787 0.0003 0.023967653117571 0.012391671962311 0
          0.024322147732379 0.012509260561901 0 0.023967653117571 0.012391671962311 0.00015
          0.024322147732379 0.012509260561901 0.00015 0.023967653117571 0.012391671962311 0.0003
          0.024322147732379 0.012509260561901 0.0003 0.021410256410266 0.013 0
          0.021410256410266 0.013 0.00015 0.021410256410266 0.013 0.0003
          0.019993073529409 0.012116879865089 0 0.019993073529409 0.012116879865089 0.00015
          0.019993073529409 0.012116879865089 0.0003 0.02122910202584 0.0090825003429501 0
          0.02122910202584 0.0090825003429501 0.00015 0.02122910202584 0.0090825003429501 0.0003
          0.022948717948721 0.013 0 0.022435897435903 0.013 0
          0.022948717948721 0.013 0.00015 0.022435897435903 0.013 0.00015
          0.022948717948721 0.013 0.0003 0.022435897435903 0.013 0.0003
          0.021923076923085 0.013 0 0.021923076923085 0.013 0.00015
          0.021923076923085 0.013 0.0003 0.023461538461539 0.013 0
          0.023461538461539 0.013 0.00015 0.023461538461539 0.013 0.0003
          0.021171209164951 0.0086229949315581 0 0.021171209164951 0.0086229949315581 0.00015
          0.021171209164951 0.0086229949315581 0.0003 0.023974358974358 0.013 0
          0.023974358974358 0.013 0.00015 0.023974358974358 0.013 0.0003
          0.024487179487177 0.013 0 0.024487179487177 0.013 0.00015
          0.024487179487177 0.013 0.0003 0.025 0.013 0
          0.025 0.013 0.00015 0.025 0.013 0.0003
          0.026666666666667 0.0072222222222063 0 0.026666666666667 0.0072222222222063 0.00015
          0.026666666666667 0.0072222222222063 0.0003 0.026666666666668 0.0086666666666559 0
          0.026666666666668 0.0086666666666559 0.00015 0.026666666666668 0.0086666666666559 0.0003
          0.026666666666669 0.010111111111103 0 0.026666666666669 0.010111111111103 0.00015
          0.026666666666669 0.010111111111103 0.0003 0.026666666666669 0.011555555555552 0
          0.026666666666669 0.011555555555552 0.00015 0.026666666666669 0.011555555555552 0.0003
          0.02666666666667 0.013 0 0.02666666666667 0.013 0.00015
          0.02666666666667 0.013 0.0003 0.033201501647561 0.0014698753983525 0
          0.033179797338052 0 0 0.033201501647561 0.0014698753983525 0.00015
          0.033179797338052 0 0.00015 0.033201501647561 0.0014698753983525 0.0003
          0.033179797338052 0 0.0003 0.034800103200053 0.0015015548376625 0
          0.034769696007096 0 0 0.034800103200053 0.0015015548376625 0.00015
          0.034769696007096 0 0.00015 0.034800103200053 0.0015015548376625 0.0003
          0.034769696007096 0 0.0003 0.03639613666046 0.0015457026119765 0
          0.036359594676111 0 0 0.03639613666046 0.0015457026119765 0.00015
          0.036359594676111 0 0.00015 0.03639613666046 0.0015457026119765 0.0003
          0.036359594676111 0 0.0003 0.037988764334349 0.001602116400018 0
          0.037949493345121 0 0 0.037988764334349 0.001602116400018 0.00015
          0.037949493345121 0 0.00015 0.037988764334349 0.001602116400018 0.0003
          0.037949493345121 0 0.0003 0.039577164134098 0.001670537667151 0
          0.039539392014149 0 0 0.039577164134098 0.001670537667151 0.00015
          0.039539392014149 0 0.00015 0.039577164134098 0.001670537667151 0.0003
          0.039539392014149 0 0.0003 0.041160533348121 0.0017506528505884 0
          0.041129290683195 0 0 0.041160533348121 0.0017506528505884 0.00015
          0.041129290683195 0 0.00015 0.041160533348121 0.0017506528505884 0.0003
          0.041129290683195 0 0.0003 0.042738092320879 0.0018420947973532 0
          0.042719189352233 0 0 0.042738092320879 0.0018420947973532 0.00015
          0.042719189352233 0 0.00015 0.042738092320879 0.0018420947973532 0.0003
          0.042719189352233 0 0.0003 0.044309088021254 0.0019444444444413 0
          0.044309088021254 0 0 0.044309088021254 0.0019444444444413 0.00015
          0.044309088021254 0 0.00015 0.044309088021254 0.0019444444444413 0.0003
          0.044309088021254 0 0.0003 0.033223205957069 0.0029397507967035 0
          0.033223205957069 0.0029397507967035 0.00015 0.033223205957069 0.0029397507967035 0.0003
          0.03483051039301 0.0030031096753234 0 0.03483051039301 0.0030031096753234 0.00015
          0.03483051039301 0.0030031096753234 0.0003 0.036432678644808 0.0030914052239513 0
          0.036432678644808 0.0030914052239513 0.00015 0.036432678644808 0.0030914052239513 0.0003
          0.038028035323577 0.0032042328000343 0 0.038028035323577 0.0032042328000343 0.00015
          0.038028035323577 0.0032042328000343 0.0003 0.039614936254047 0.0033410753343001 0
          0.039614936254047 0.0033410753343001 0.00015 0.039614936254047 0.0033410753343001 0.0003
          0.041191776013048 0.0035013057011749 0 0.041191776013048 0.0035013057011749 0.00015
          0.041191776013048 0.0035013057011749 0.0003 0.042756995289524 0.0036841895947044 0
          0.042756995289524 0.0036841895947044 0.00015 0.042756995289524 0.0036841895947044 0.0003
          0.044309088021254 0.0038888888888803 0 0.044309088021254 0.0038888888888803 0.00015
          0.044309088021254 0.0038888888888803 0.0003 0.033244910266578 0.0044096261950543 0
          0.033244910266578 0.0044096261950543 0.00015 0.033244910266578 0.0044096261950543 0.0003
          0.034860917585967 0.004504664512984 0 0.034860917585967 0.004504664512984 0.00015
          0.034860917585967 0.004504664512984 0.0003 0.036469220629156 0.0046371078359259 0
          0.036469220629156 0.0046371078359259 0.00015 0.036469220629156 0.0046371078359259 0.0003
          0.038067306312805 0.0048063492000502 0 0.038067306312805 0.0048063492000502 0.00015
          0.038067306312805 0.0048063492000502 0.0003 0.039652708373995 0.0050116130014489 0
          0.039652708373995 0.0050116130014489 0.00015 0.039652708373995 0.0050116130014489 0.0003
          0.041223018677975 0.005251958551761 0 0.041223018677975 0.005251958551761 0.00015
          0.041223018677975 0.005251958551761 0.0003 0.04277589825817 0.0055262843920551 0
          0.04277589825817 0.0055262843920551 0.00015 0.04277589825817 0.0055262843920551 0.0003
          0.044309088021254 0.0058333333333189 0 0.044309088021254 0.0058333333333189 0.00015
          0.044309088021254 0.0058333333333189 0.0003 0.033266614576087 0.0058795015934051 0
          0.033266614576087 0.0058795015934051 0.00015 0.033266614576087 0.0058795015934051 0.0003
          0.034891324778924 0.0060062193506447 0 0.034891324778924 0.0060062193506447 0.00015
          0.034891324778924 0.0060062193506447 0.0003 0.036505762613504 0.0061828104479004 0
          0.036505762613504 0.0061828104479004 0.00015 0.036505762613504 0.0061828104479004 0.0003
          0.038106577302032 0.0064084656000662 0 0.038106577302032 0.0064084656000662 0.00015
          0.038106577302032 0.0064084656000662 0.0003 0.039690480493944 0.0066821506685977 0
          0.039690480493944 0.0066821506685977 0.00015 0.039690480493944 0.0066821506685977 0.0003
          0.041254261342902 0.0070026114023471 0 0.041254261342902 0.0070026114023471 0.00015
          0.041254261342902 0.0070026114023471 0.0003 0.042794801226816 0.0073683791894058 0
          0.042794801226816 0.0073683791894058 0.00015 0.042794801226816 0.0073683791894058 0.0003
          0.044309088021254 0.0077777777777574 0 0.044309088021254 0.0077777777777574 0.00015
          0.044309088021254 0.0077777777777574 0.0003 0.033288318885596 0.0073493769917596 0
          0.033288318885596 0.0073493769917596 0.00015 0.033288318885596 0.0073493769917596 0.0003
          0.034921731971881 0.0075077741883091 0 0.034921731971881 0.0075077741883091 0.00015
          0.034921731971881 0.0075077741883091 0.0003 0.036542304597852 0.0077285130598789 0
          0.036542304597852 0.0077285130598789 0.00015 0.036542304597852 0.0077285130598789 0.0003
          0.03814584829126 0.0080105820000862 0 0.03814584829126 0.0080105820000862 0.00015
          0.03814584829126 0.0080105820000862 0.0003 0.039728252613893 0.0083526883357508 0
          0.039728252613893 0.0083526883357508 0.00015 0.039728252613893 0.0083526883357508 0.0003
          0.041285504007829 0.0087532642529377 0 0.041285504007829 0.0087532642529377 0.00015
          0.041285504007829 0.0087532642529377 0.0003 0.042813704195461 0.0092104739867613 0
          0.042813704195461 0.0092104739867613 0.00015 0.042813704195461 0.0092104739867613 0.0003
          0.044309088021254 0.0097222222222011 0 0.044309088021254 0.0097222222222011 0.00015
          0.044309088021254 0.0097222222222011 0.0003 0.031657595460571 0.0087048568522863 0
          0.031657595460571 0.0087048568522863 0.00015 0.031657595460571 0.0087048568522863 0.0003
          0.033310023195106 0.0088192523901195 0 0.033310023195106 0.0088192523901195 0.00015
          0.033310023195106 0.0088192523901195 0.0003 0.034952139164838 0.009009329025979 0
          0.034952139164838 0.009009329025979 0.00015 0.034952139164838 0.009009329025979 0.0003
          0.0365788465822 0.0092742156718627 0 0.0365788465822 0.0092742156718627 0.00015
          0.0365788465822 0.0092742156718627 0.0003 0.038185119280488 0.0096126984001116 0
          0.038185119280488 0.0096126984001116 0.00015 0.038185119280488 0.0096126984001116 0.0003
          0.039766024733842 0.010023226002909 0 0.039766024733842 0.010023226002909 0.00015
          0.039766024733842 0.010023226002909 0.0003 0.041316746672756 0.010503917103534 0
          0.041316746672756 0.010503917103534 0.00015 0.041316746672756 0.010503917103534 0.0003
          0.042832607164107 0.011052568784123 0 0.042832607164107 0.011052568784123 0.00015
          0.042832607164107 0.011052568784123 0.0003 0.044309088021254 0.011666666666651 0
          0.044309088021254 0.011666666666651 0.00015 0.044309088021254 0.011666666666651 0.0003
          0.031668878259163 0.010155666327672 0 0.031668878259163 0.010155666327672 0.00015
          0.031668878259163 0.010155666327672 0.0003 0.033331727504615 0.010289127788478 0
          0.033331727504615 0.010289127788478 0.00015 0.033331727504615 0.010289127788478 0.0003
          0.034982546357795 0.010510883863647 0 0.034982546357795 0.010510883863647 0.00015
          0.034982546357795 0.010510883863647 0.0003 0.036615388566549 0.010819918283845 0
          0.036615388566549 0.010819918283845 0.00015 0.036615388566549 0.010819918283845 0.0003
          0.038224390269716 0.011214814800136 0 0.038224390269716 0.011214814800136 0.00015
          0.038224390269716 0.011214814800136 0.0003 0.039803796853791 0.011693763670067 0
          0.039803796853791 0.011693763670067 0.00015 0.039803796853791 0.011693763670067 0.0003
          0.041347989337683 0.012254569954129 0 0.041347989337683 0.012254569954129 0.00015
          0.041347989337683 0.012254569954129 0.0003 0.042851510132752 0.012894663581483 0
          0.042851510132752 0.012894663581483 0.00015 0.042851510132752 0.012894663581483 0.0003
          0.044309088021254 0.0136111111111 0 0.044309088021254 0.0136111111111 0.00015
          0.044309088021254 0.0136111111111 0.0003 0.031680161057755 0.011606475803059 0
          0.031680161057755 0.011606475803059 0.00015 0.031680161057755 0.011606475803059 0.0003
          0.033353431814124 0.011759003186837 0 0.033353431814124 0.011759003186837 0.00015
          0.033353431814124 0.011759003186837 0.0003 0.035012953550752 0.012012438701317 0
          0.035012953550752 0.012012438701317 0.00015 0.035012953550752 0.012012438701317 0.0003
          0.036651930550897 0.012365620895829 0 0.036651930550897 0.012365620895829 0.00015
          0.036651930550897 0.012365620895829 0.0003 0.038263661258944 0.012816931200161 0
          0.038263661258944 0.012816931200161 0.00015 0.038263661258944 0.012816931200161 0.0003
          0.03984156897374 0.013364301337225 0 0.03984156897374 0.013364301337225 0.00015
          0.03984156897374 0.013364301337225 0.0003 0.04137923200261 0.014005222804725 0
          0.04137923200261 0.014005222804725 0.00015 0.04137923200261 0.014005222804725 0.0003
          0.042870413101398 0.014736758378844 0 0.042870413101398 0.014736758378844 0.00015
          0.042870413101398 0.014736758378844 0.0003 0.044309088021254 0.015555555555549 0
          0.044309088021254 0.015555555555549 0.00015 0.044309088021254 0.015555555555549 0.0003
          0.031691443856347 0.013057285278446 0 0.031691443856347 0.013057285278446 0.00015
          0.031691443856347 0.013057285278446 0.0003 0.033375136123633 0.013228878585196 0
          0.033375136123633 0.013228878585196 0.00015 0.033375136123633 0.013228878585196 0.0003
          0.035043360743709 0.013513993538986 0 0.035043360743709 0.013513993538986 0.00015
          0.035043360743709 0.013513993538986 0.0003 0.036688472535245 0.013911323507812 0
          0.036688472535245 0.013911323507812 0.00015 0.036688472535245 0.013911323507812 0.0003
          0.038302932248172 0.014419047600187 0 0.038302932248172 0.014419047600187 0.00015
          0.038302932248172 0.014419047600187 0.0003 0.039879341093689 0.015034839004384 0
          0.039879341093689 0.015034839004384 0.00015 0.039879341093689 0.015034839004384 0.0003
          0.041410474667538 0.015755875655322 0 0.041410474667538 0.015755875655322 0.00015
          0.041410474667538 0.015755875655322 0.0003 0.042889316070044 0.016578853176207 0
          0.042889316070044 0.016578853176207 0.00015 0.042889316070044 0.016578853176207 0.0003
          0.044309088021254 0.0175 0 0.044309088021254 0.0175 0.00015
          0.044309088021254 0.0175 0.0003 0.045420199132363 0 0
          0.045420199132363 0.0019444444444413 0 0.045420199132363 0 0.00015
          0.045420199132363 0.0019444444444413 0.00015 0.045420199132363 0 0.0003
          0.045420199132363 0.0019444444444413 0.0003 0.045420199132363 0.0038888888888803 0
          0.045420199132363 0.0038888888888803 0.00015 0.045420199132363 0.0038888888888803 0.0003
          0.045420199132363 0.0058333333333189 0 0.045420199132363 0.0058333333333189 0.00015
          0.045420199132363 0.0058333333333189 0.0003 0.045420199132363 0.0077777777777574 0
          0.045420199132363 0.0077777777777574 0.00015 0.045420199132363 0.0077777777777574 0.0003
          0.045420199132363 0.0097222222222011 0 0.045420199132363 0.0097222222222011 0.00015
          0.045420199132363 0.0097222222222011 0.0003 0.045420199132363 0.011666666666651 0
          0.045420199132363 0.011666666666651 0.00015 0.045420199132363 0.011666666666651 0.0003
          0.045420199132363 0.0136111111111 0 0.045420199132363 0.0136111111111 0.00015
          0.045420199132363 0.0136111111111 0.0003 0.045420199132363 0.015555555555549 0
          0.045420199132363 0.015555555555549 0.00015 0.045420199132363 0.015555555555549 0.0003
          0.045420199132363 0.0175 0 0.045420199132363 0.0175 0.00015
          0.045420199132363 0.0175 0.0003 0.046531310243475 0 0
          0.046531310243475 0.0019444444444413 0 0.046531310243475 0 0.00015
          0.046531310243475 0.0019444444444413 0.00015 0.046531310243475 0 0.0003
          0.046531310243475 0.0019444444444413 0.0003 0.046531310243475 0.0038888888888803 0
          0.046531310243475 0.0038888888888803 0.00015 0.046531310243475 0.0038888888888803 0.0003
          0.046531310243475 0.0058333333333189 0 0.046531310243475 0.0058333333333189 0.00015
          0.046531310243475 0.0058333333333189 0.0003 0.046531310243475 0.0077777777777574 0
          0.046531310243475 0.0077777777777574 0.00015 0.046531310243475 0.0077777777777574 0.0003
          0.046531310243475 0.0097222222222011 0 0.046531310243475 0.0097222222222011 0.00015
          0.046531310243475 0.0097222222222011 0.0003 0.046531310243475 0.011666666666651 0
          0.046531310243475 0.011666666666651 0.00015 0.046531310243475 0.011666666666651 0.0003
          0.046531310243475 0.0136111111111 0 0.046531310243475 0.0136111111111 0.00015
          0.046531310243475 0.0136111111111 0.0003 0.046531310243475 0.015555555555549 0
          0.046531310243475 0.015555555555549 0.00015 0.046531310243475 0.015555555555549 0.0003
          0.046531310243475 0.0175 0 0.046531310243475 0.0175 0.00015
          0.046531310243475 0.0175 0.0003 0.04764242135458 0 0
          0.04764242135458 0.0019444444444413 0 0.04764242135458 0 0.00015
          0.04764242135458 0.0019444444444413 0.00015 0.04764242135458 0 0.0003
          0.04764242135458 0.0019444444444413 0.0003 0.04764242135458 0.0038888888888803 0
          0.04764242135458 0.0038888888888803 0.00015 0.04764242135458 0.0038888888888803 0.0003
          0.04764242135458 0.0058333333333189 0 0.04764242135458 0.0058333333333189 0.00015
          0.04764242135458 0.0058333333333189 0.0003 0.04764242135458 0.0077777777777574 0
          0.04764242135458 0.0077777777777574 0.00015 0.04764242135458 0.0077777777777574 0.0003
          0.04764242135458 0.0097222222222011 0 0.04764242135458 0.0097222222222011 0.00015
          0.04764242135458 0.0097222222222011 0.0003 0.04764242135458 0.011666666666651 0
          0.04764242135458 0.011666666666651 0.00015 0.04764242135458 0.011666666666651 0.0003
          0.04764242135458 0.0136111111111 0 0.04764242135458 0.0136111111111 0.00015
          0.04764242135458 0.0136111111111 0.0003 0.04764242135458 0.015555555555549 0
          0.04764242135458 0.015555555555549 0.00015 0.04764242135458 0.015555555555549 0.0003
          0.04764242135458 0.0175 0 0.04764242135458 0.0175 0.00015
          0.04764242135458 0.0175 0.0003 0.048753532465692 0 0
          0.048753532465692 0.0019444444444413 0 0.048753532465692 0 0.00015
          0.048753532465692 0.0019444444444413 0.00015 0.048753532465692 0 0.0003
          0.048753532465692 0.0019444444444413 0.0003 0.048753532465692 0.0038888888888803 0
          0.048753532465692 0.0038888888888803 0.00015 0.048753532465692 0.0038888888888803 0.0003
          0.048753532465692 0.0058333333333189 0 0.048753532465692 0.0058333333333189 0.00015
          0.048753532465692 0.0058333333333189 0.0003 0.048753532465692 0.0077777777777574 0
          0.048753532465692 0.0077777777777574 0.00015 0.048753532465692 0.0077777777777574 0.0003
          0.048753532465692 0.0097222222222011 0 0.048753532465692 0.0097222222222011 0.00015
          0.048753532465692 0.0097222222222011 0.0003 0.048753532465692 0.011666666666651 0
          0.048753532465692 0.011666666666651 0.00015 0.048753532465692 0.011666666666651 0.0003
          0.048753532465692 0.0136111111111 0 0.048753532465692 0.0136111111111 0.00015
          0.048753532465692 0.0136111111111 0.0003 0.048753532465692 0.015555555555549 0
          0.048753532465692 0.015555555555549 0.00015 0.048753532465692 0.015555555555549 0.0003
          0.048753532465692 0.0175 0 0.048753532465692 0.0175 0.00015
          0.048753532465692 0.0175 0.0003 0.0498646435768 0 0
          0.0498646435768 0.0019444444444413 0 0.0498646435768 0 0.00015
          0.0498646435768 0.0019444444444413 0.00015 0.0498646435768 0 0.0003
          0.0498646435768 0.0019444444444413 0.0003 0.0498646435768 0.0038888888888803 0
          0.0498646435768 0.0038888888888803 0.00015 0.0498646435768 0.0038888888888803 0.0003
          0.0498646435768 0.0058333333333189 0 0.0498646435768 0.0058333333333189 0.00015
          0.0498646435768 0.0058333333333189 0.0003 0.0498646435768 0.0077777777777574 0
          0.0498646435768 0.0077777777777574 0.00015 0.0498646435768 0.0077777777777574 0.0003
          0.0498646435768 0.0097222222222011 0 0.0498646435768 0.0097222222222011 0.00015
          0.0498646435768 0.0097222222222011 0.0003 0.0498646435768 0.011666666666651 0
          0.0498646435768 0.011666666666651 0.00015 0.0498646435768 0.011666666666651 0.0003
          0.0498646435768 0.0136111111111 0 0.0498646435768 0.0136111111111 0.00015
          0.0498646435768 0.0136111111111 0.0003 0.0498646435768 0.015555555555549 0
          0.0498646435768 0.015555555555549 0.00015 0.0498646435768 0.015555555555549 0.0003
          0.0498646435768 0.0175 0 0.0498646435768 0.0175 0.00015
          0.0498646435768 0.0175 0.0003 0.050975754687912 0 0
          0.050975754687912 0.0019444444444413 0 0.050975754687912 0 0.00015
          0.050975754687912 0.0019444444444413 0.00015 0.050975754687912 0 0.0003
          0.050975754687912 0.0019444444444413 0.0003 0.050975754687912 0.0038888888888803 0
          0.050975754687912 0.0038888888888803 0.00015 0.050975754687912 0.0038888888888803 0.0003
          0.050975754687912 0.0058333333333189 0 0.050975754687912 0.0058333333333189 0.00015
          0.050975754687912 0.0058333333333189 0.0003 0.050975754687912 0.0077777777777574 0
          0.050975754687912 0.0077777777777574 0.00015 0.050975754687912 0.0077777777777574 0.0003
          0.050975754687912 0.0097222222222011 0 0.050975754687912 0.0097222222222011 0.00015
          0.050975754687912 0.0097222222222011 0.0003 0.050975754687912 0.011666666666651 0
          0.050975754687912 0.011666666666651 0.00015 0.050975754687912 0.011666666666651 0.0003
          0.050975754687912 0.0136111111111 0 0.050975754687912 0.0136111111111 0.00015
          0.050975754687912 0.0136111111111 0.0003 0.050975754687912 0.015555555555549 0
          0.050975754687912 0.015555555555549 0.00015 0.050975754687912 0.015555555555549 0.0003
          0.050975754687912 0.0175 0 0.050975754687912 0.0175 0.00015
          0.050975754687912 0.0175 0.0003 0.052086865799025 0 0
          0.052086865799025 0.0019444444444413 0 0.052086865799025 0 0.00015
          0.052086865799025 0.0019444444444413 0.00015 0.052086865799025 0 0.0003
          0.052086865799025 0.0019444444444413 0.0003 0.052086865799025 0.0038888888888803 0
          0.052086865799025 0.0038888888888803 0.00015 0.052086865799025 0.0038888888888803 0.0003
          0.052086865799025 0.0058333333333189 0 0.052086865799025 0.0058333333333189 0.00015
          0.052086865799025 0.0058333333333189 0.0003 0.052086865799025 0.0077777777777574 0
          0.052086865799025 0.0077777777777574 0.00015 0.052086865799025 0.0077777777777574 0.0003
          0.052086865799025 0.0097222222222011 0 0.052086865799025 0.0097222222222011 0.00015
          0.052086865799025 0.0097222222222011 0.0003 0.052086865799025 0.011666666666651 0
          0.052086865799025 0.011666666666651 0.00015 0.052086865799025 0.011666666666651 0.0003
          0.052086865799025 0.0136111111111 0 0.052086865799025 0.0136111111111 0.00015
          0.052086865799025 0.0136111111111 0.0003 0.052086865799025 0.015555555555549 0
          0.052086865799025 0.015555555555549 0.00015 0.052086865799025 0.015555555555549 0.0003
          0.052086865799025 0.0175 0 0.052086865799025 0.0175 0.00015
          0.052086865799025 0.0175 0.0003 0.05319797691014 0 0
          0.05319797691014 0.0019444444444413 0 0.05319797691014 0 0.00015
          0.05319797691014 0.0019444444444413 0.00015 0.05319797691014 0 0.0003
          0.05319797691014 0.0019444444444413 0.0003 0.05319797691014 0.0038888888888803 0
          0.05319797691014 0.0038888888888803 0.00015 0.05319797691014 0.0038888888888803 0.0003
          0.05319797691014 0.0058333333333189 0 0.05319797691014 0.0058333333333189 0.00015
          0.05319797691014 0.0058333333333189 0.0003 0.05319797691014 0.0077777777777574 0
          0.05319797691014 0.0077777777777574 0.00015 0.05319797691014 0.0077777777777574 0.0003
          0.05319797691014 0.0097222222222011 0 0.05319797691014 0.0097222222222011 0.00015
          0.05319797691014 0.0097222222222011 0.0003 0.05319797691014 0.011666666666651 0
          0.05319797691014 0.011666666666651 0.00015 0.05319797691014 0.011666666666651 0.0003
          0.05319797691014 0.0136111111111 0 0.05319797691014 0.0136111111111 0.00015
          0.05319797691014 0.0136111111111 0.0003 0.05319797691014 0.015555555555549 0
          0.05319797691014 0.015555555555549 0.00015 0.05319797691014 0.015555555555549 0.0003
          0.05319797691014 0.0175 0 0.05319797691014 0.0175 0.00015
          0.05319797691014 0.0175 0.0003 0.054309088021254 0 0
          0.054309088021254 0.0019444444444413 0 0.054309088021254 0 0.00015
          0.054309088021254 0.0019444444444413 0.00015 0.054309088021254 0 0.0003
          0.054309088021254 0.0019444444444413 0.0003 0.054309088021254 0.0038888888888803 0
          0.054309088021254 0.0038888888888803 0.00015 0.054309088021254 0.0038888888888803 0.0003
          0.054309088021254 0.0058333333333189 0 0.054309088021254 0.0058333333333189 0.00015
          0.054309088021254 0.0058333333333189 0.0003 0.054309088021254 0.0077777777777574 0
          0.054309088021254 0.0077777777777574 0.00015 0.054309088021254 0.0077777777777574 0.0003
          0.054309088021254 0.0097222222222011 0 0.054309088021254 0.0097222222222011 0.00015
          0.054309088021254 0.0097222222222011 0.0003 0.054309088021254 0.011666666666651 0
          0.054309088021254 0.011666666666651 0.00015 0.054309088021254 0.011666666666651 0.0003
          0.054309088021254 0.0136111111111 0 0.054309088021254 0.0136111111111 0.00015
          0.054309088021254 0.0136111111111 0.0003 0.054309088021254 0.015555555555549 0
          0.054309088021254 0.015555555555549 0.00015 0.054309088021254 0.015555555555549 0.0003
          0.054309088021254 0.0175 0 0.054309088021254 0.0175 0.00015
          0.054309088021254 0.0175 0.0003
          <InformationKey name="L2_NORM_RANGE" location="vtkDataArray" length="2">
            <Value index="0">
              0.019949534491
            </Value>
            <Value index="1">
              0.057059767277
            </Value>
          </InformationKey>
        </DataArray>
      </Points>
      <Cells>
        <DataArray type="Int64" Name="connectivity" format="ascii" RangeMin="0" RangeMax="818">
          0 1 2 3 4 5
          6 7 4 5 6 7
          8 9 10 11 12 13
          14 15 16 17 18 19
          16 17 18 19 20 21
          22 23 24 0 3 25
          26 4 7 27 26 4
          7 27 28 8 11 29
          30 31 32 14 33 34
          35 18 33 34 35 18
          36 37 38 22 39 40
          41 42 43 44 45 46
          43 44 45 46 47 48
          49 50 51 52 53 54
          55 56 57 58 55 56
          57 58 59 60 61 62
          13 63 64 65 17 66
          67 68 17 66 67 68
          21 69 70 71 0 24
          32 72 4 26 35 73
          4 26 35 73 8 28
          38 74 24 15 14 32
          26 19 18 35 26 19
          18 35 28 23 22 38
          13 65 30 14 17 68
          33 18 17 68 33 18
          21 71 36 22 93 94
          95 96 97 98 99 100
          97 98 99 100 101 102
          103 104 72 32 31 81
          73 35 34 83 73 35
          34 83 74 38 37 85
          53 40 39 54 57 44
          43 58 57 44 43 58
          61 48 47 62 31 30
          111 82 34 33 112 84
          34 33 112 84 37 36
          113 86 12 15 114 115
          16 19 116 117 16 19
          116 117 20 23 118 119
          120 121 122 123 124 125
          126 127 124 125 126 127
          128 129 130 131 64 76
          75 65 67 78 77 68
          67 78 77 68 70 80
          79 71 132 133 54 39
          134 135 58 43 134 135
          58 43 136 137 62 47
          53 141 41 40 57 142
          45 44 57 142 45 44
          61 143 49 48 111 30
          65 75 112 33 68 77
          112 33 68 77 113 36
          71 79 54 150 151 51
          58 152 153 55 58 152
          153 55 62 154 155 59
          156 122 121 157 158 126
          125 159 158 126 125 159
          160 130 129 161 162 88
          108 138 163 90 109 139
          163 90 109 139 164 92
          110 140 168 87 88 162
          169 89 90 163 169 89
          90 163 170 91 92 164
          121 165 171 157 125 166
          172 159 125 166 172 159
          129 167 173 161 132 39
          42 183 134 43 46 184
          134 43 46 184 136 47
          50 185 186 96 95 187
          188 100 99 189 188 100
          99 189 190 104 103 191
          192 193 122 156 194 195
          126 158 194 195 126 158
          196 197 130 160 183 42
          96 186 184 46 100 188
          184 46 100 188 185 50
          104 190 151 150 198 199
          153 152 200 201 153 152
          200 201 155 154 202 203
          174 145 144 204 175 147
          146 205 175 147 146 205
          176 149 148 206 193 192
          95 204 195 194 99 205
          195 194 99 205 197 196
          103 206 123 122 193 210
          127 126 195 211 127 126
          195 211 131 130 197 212
          93 96 42 41 97 100
          46 45 97 100 46 45
          101 104 50 49 213 214
          87 168 215 216 89 169
          215 216 89 169 217 218
          91 170 178 219 220 177
          180 221 222 179 180 221
          222 179 182 223 224 181
          225 141 226 227 228 142
          229 230 228 142 229 230
          231 143 232 233 120 105
          165 121 124 106 166 125
          124 106 166 125 128 107
          167 129 210 193 204 144
          211 195 205 146 211 195
          205 146 212 197 206 148
          219 227 234 220 221 230
          235 222 221 230 235 222
          223 233 236 224 94 174
          204 95 98 175 205 99
          98 175 205 99 102 176
          206 103 192 156 237 238
          194 158 239 240 194 158
          239 240 196 160 241 242
          243 2 1 244 245 6
          5 246 245 6 5 246
          247 10 9 248 227 226
          249 234 230 229 250 235
          230 229 250 235 233 232
          251 236 238 187 95 192
          240 189 99 194 240 189
          99 194 242 191 103 196
          252 207 87 214 253 208
          89 216 253 208 89 216
          254 209 91 218 187 255
          115 186 189 256 117 188
          189 256 117 188 191 257
          119 190 94 162 138 174
          98 163 139 175 98 163
          139 175 102 164 140 176
          64 63 237 171 67 66
          239 172 67 66 239 172
          70 69 241 173 41 213
          168 93 45 215 169 97
          45 215 169 97 49 217
          170 101 2 198 133 3
          6 200 135 7 6 200
          135 7 10 202 137 11
          25 114 15 24 27 116
          19 26 27 116 19 26
          29 118 23 28 114 183
          186 115 116 184 188 117
          116 184 188 117 118 185
          190 119 51 151 258 259
          55 153 260 261 55 153
          260 261 59 155 262 263
          226 52 264 249 229 56
          265 250 229 56 265 250
          232 60 266 251 198 150
          54 133 200 152 58 135
          200 152 58 135 202 154
          62 137 64 171 165 76
          67 172 166 78 67 172
          166 78 70 173 167 80
          52 51 259 264 56 55
          261 265 56 55 261 265
          60 59 263 266 171 237
          156 157 172 239 158 159
          172 239 158 159 173 241
          160 161 252 214 213 225
          253 216 215 228 253 216
          215 228 254 218 217 231
          151 199 267 258 153 201
          268 260 153 201 268 260
          155 203 269 262 63 13
          12 270 66 17 16 271
          66 17 16 271 69 21
          20 272 270 255 187 238
          271 256 189 240 271 256
          189 240 272 257 191 242
          199 198 2 243 201 200
          6 245 201 200 6 245
          203 202 10 247 225 213
          41 141 228 215 45 142
          228 215 45 142 231 217
          49 143 52 226 141 53
          56 229 142 57 56 229
          142 57 60 232 143 61
          25 132 183 114 27 134
          184 116 27 134 184 116
          29 136 185 118 252 225
          227 219 253 228 230 221
          253 228 230 221 254 231
          233 223 219 178 207 252
          221 180 208 253 221 180
          208 253 223 182 209 254
          25 3 133 132 27 7
          135 134 27 7 135 134
          29 11 137 136 93 168
          162 94 97 169 163 98
          97 169 163 98 101 170
          164 102 270 12 115 255
          271 16 117 256 271 16
          117 256 272 20 119 257
          199 243 273 267 201 245
          274 268 201 245 274 268
          203 247 275 269 63 270
          238 237 66 271 240 239
          66 271 240 239 69 272
          242 241 243 244 276 273
          245 246 277 274 245 246
          277 274 247 248 278 275
          276 244 1 279 277 246
          5 280 277 246 5 280
          278 248 9 281 285 72
          81 282 286 73 83 283
          286 73 83 283 287 74
          85 284 288 0 72 285
          289 4 73 286 289 4
          73 286 290 8 74 287
          291 1 0 288 292 5
          4 289 292 5 4 289
          293 9 8 290 294 279
          1 291 295 280 5 292
          295 280 5 292 296 281
          9 293 303 297 298 304
          305 299 300 306 305 299
          300 306 307 301 302 308
          309 303 304 310 311 305
          306 312 311 305 306 312
          313 307 308 314 315 309
          310 316 317 311 312 318
          317 311 312 318 319 313
          314 320 321 315 316 322
          323 317 318 324 323 317
          318 324 325 319 320 326
          327 321 322 328 329 323
          324 330 329 323 324 330
          331 325 326 332 333 327
          328 334 335 329 330 336
          335 329 330 336 337 331
          332 338 339 333 334 340
          341 335 336 342 341 335
          336 342 343 337 338 344
          348 345 297 303 349 346
          299 305 349 346 299 305
          350 347 301 307 351 348
          303 309 352 349 305 311
          352 349 305 311 353 350
          307 313 354 351 309 315
          355 352 311 317 355 352
          311 317 356 353 313 319
          357 354 315 321 358 355
          317 323 358 355 317 323
          359 356 319 325 360 357
          321 327 361 358 323 329
          361 358 323 329 362 359
          325 331 363 360 327 333
          364 361 329 335 364 361
          329 335 365 362 331 337
          366 363 333 339 367 364
          335 341 367 364 335 341
          368 365 337 343 372 369
          345 348 373 370 346 349
          373 370 346 349 374 371
          347 350 375 372 348 351
          376 373 349 352 376 373
          349 352 377 374 350 353
          378 375 351 354 379 376
          352 355 379 376 352 355
          380 377 353 356 381 378
          354 357 382 379 355 358
          382 379 355 358 383 380
          356 359 384 381 357 360
          385 382 358 361 385 382
          358 361 386 383 359 362
          387 384 360 363 388 385
          361 364 388 385 361 364
          389 386 362 365 390 387
          363 366 391 388 364 367
          391 388 364 367 392 389
          365 368 396 393 369 372
          397 394 370 373 397 394
          370 373 398 395 371 374
          399 396 372 375 400 397
          373 376 400 397 373 376
          401 398 374 377 402 399
          375 378 403 400 376 379
          403 400 376 379 404 401
          377 380 405 402 378 381
          406 403 379 382 406 403
          379 382 407 404 380 383
          408 405 381 384 409 406
          382 385 409 406 382 385
          410 407 383 386 411 408
          384 387 412 409 385 388
          412 409 385 388 413 410
          386 389 414 411 387 390
          415 412 388 391 415 412
          388 391 416 413 389 392
          420 417 393 396 421 418
          394 397 421 418 394 397
          422 419 395 398 423 420
          396 399 424 421 397 400
          424 421 397 400 425 422
          398 401 426 423 399 402
          427 424 400 403 427 424
          400 403 428 425 401 404
          429 426 402 405 430 427
          403 406 430 427 403 406
          431 428 404 407 432 429
          405 408 433 430 406 409
          433 430 406 409 434 431
          407 410 435 432 408 411
          436 433 409 412 436 433
          409 412 437 434 410 413
          438 435 411 414 439 436
          412 415 439 436 412 415
          440 437 413 416 447 444
          417 420 448 445 418 421
          448 445 418 421 449 446
          419 422 450 447 420 423
          451 448 421 424 451 448
          421 424 452 449 422 425
          453 450 423 426 454 451
          424 427 454 451 424 427
          455 452 425 428 456 453
          426 429 457 454 427 430
          457 454 427 430 458 455
          428 431 459 456 429 432
          460 457 430 433 460 457
          430 433 461 458 431 434
          462 459 432 435 463 460
          433 436 463 460 433 436
          464 461 434 437 465 462
          435 438 466 463 436 439
          466 463 436 439 467 464
          437 440 471 468 441 444
          472 469 442 445 472 469
          442 445 473 470 443 446
          474 471 444 447 475 472
          445 448 475 472 445 448
          476 473 446 449 477 474
          447 450 478 475 448 451
          478 475 448 451 479 476
          449 452 480 477 450 453
          481 478 451 454 481 478
          451 454 482 479 452 455
          483 480 453 456 484 481
          454 457 484 481 454 457
          485 482 455 458 486 483
          456 459 487 484 457 460
          487 484 457 460 488 485
          458 461 489 486 459 462
          490 487 460 463 490 487
          460 463 491 488 461 464
          492 489 462 465 493 490
          463 466 493 490 463 466
          494 491 464 467 498 495
          468 471 499 496 469 472
          499 496 469 472 500 497
          470 473 501 498 471 474
          502 499 472 475 502 499
          472 475 503 500 473 476
          504 501 474 477 505 502
          475 478 505 502 475 478
          506 503 476 479 507 504
          477 480 508 505 478 481
          508 505 478 481 509 506
          479 482 510 507 480 483
          511 508 481 484 511 508
          481 484 512 509 482 485
          513 510 483 486 514 511
          484 487 514 511 484 487
          515 512 485 488 516 513
          486 489 517 514 487 490
          517 514 487 490 518 515
          488 491 519 516 489 492
          520 517 490 493 520 517
          490 493 521 518 491 494
          525 522 495 498 526 523
          496 499 526 523 496 499
          527 524 497 500 528 525
          498 501 529 526 499 502
          529 526 499 502 530 527
          500 503 531 528 501 504
          532 529 502 505 532 529
          502 505 533 530 503 506
          534 531 504 507 535 532
          505 508 535 532 505 508
          536 533 506 509 537 534
          507 510 538 535 508 511
          538 535 508 511 539 536
          509 512 540 537 510 513
          541 538 511 514 541 538
          511 514 542 539 512 515
          543 540 513 516 544 541
          514 517 544 541 514 517
          545 542 515 518 546 543
          516 519 547 544 517 520
          547 544 517 520 548 545
          518 521 340 549 550 339
          342 551 552 341 342 551
          552 341 344 553 554 343
          339 550 555 366 341 552
          556 367 341 552 556 367
          343 554 557 368 366 555
          558 390 367 556 559 391
          367 556 559 391 368 557
          560 392 390 558 561 414
          391 559 562 415 391 559
          562 415 392 560 563 416
          414 561 564 438 415 562
          565 439 415 562 565 439
          416 563 566 440 438 564
          567 465 439 565 568 466
          439 565 568 466 440 566
          569 467 465 567 570 492
          466 568 571 493 466 568
          571 493 467 569 572 494
          492 570 573 519 493 571
          574 520 493 571 574 520
          494 572 575 521 519 573
          576 546 520 574 577 547
          520 574 577 547 521 575
          578 548 549 579 580 550
          551 581 582 552 551 581
          582 552 553 583 584 554
          550 580 585 555 552 582
          586 556 552 582 586 556
          554 584 587 557 555 585
          588 558 556 586 589 559
          556 586 589 559 557 587
          590 560 558 588 591 561
          559 589 592 562 559 589
          592 562 560 590 593 563
          561 591 594 564 562 592
          595 565 562 592 595 565
          563 593 596 566 564 594
          597 567 565 595 598 568
          565 595 598 568 566 596
          599 569 567 597 600 570
          568 598 601 571 568 598
          601 571 569 599 602 572
          570 600 603 573 571 601
          604 574 571 601 604 574
          572 602 605 575 573 603
          606 576 574 604 607 577
          574 604 607 577 575 605
          608 578 579 609 610 580
          581 611 612 582 581 611
          612 582 583 613 614 584
          580 610 615 585 582 612
          616 586 582 612 616 586
          584 614 617 587 585 615
          618 588 586 616 619 589
          586 616 619 589 587 617
          620 590 588 618 621 591
          589 619 622 592 589 619
          622 592 590 620 623 593
          591 621 624 594 592 622
          625 595 592 622 625 595
          593 623 626 596 594 624
          627 597 595 625 628 598
          595 625 628 598 596 626
          629 599 597 627 630 600
          598 628 631 601 598 628
          631 601 599 629 632 602
          600 630 633 603 601 631
          634 604 601 631 634 604
          602 632 635 605 603 633
          636 606 604 634 637 607
          604 634 637 607 605 635
          638 608 609 639 640 610
          611 641 642 612 611 641
          642 612 613 643 644 614
          610 640 645 615 612 642
          646 616 612 642 646 616
          614 644 647 617 615 645
          648 618 616 646 649 619
          616 646 649 619 617 647
          650 620 618 648 651 621
          619 649 652 622 619 649
          652 622 620 650 653 623
          621 651 654 624 622 652
          655 625 622 652 655 625
          623 653 656 626 624 654
          657 627 625 655 658 628
          625 655 658 628 626 656
          659 629 627 657 660 630
          628 658 661 631 628 658
          661 631 629 659 662 632
          630 660 663 633 631 661
          664 634 631 661 664 634
          632 662 665 635 633 663
          666 636 634 664 667 637
          634 664 667 637 635 665
          668 638 639 669 670 640
          641 671 672 642 641 671
          672 642 643 673 674 644
          640 670 675 645 642 672
          676 646 642 672 676 646
          644 674 677 647 645 675
          678 648 646 676 679 649
          646 676 679 649 647 677
          680 650 648 678 681 651
          649 679 682 652 649 679
          682 652 650 680 683 653
          651 681 684 654 652 682
          685 655 652 682 685 655
          653 683 686 656 654 684
          687 657 655 685 688 658
          655 685 688 658 656 686
          689 659 657 687 690 660
          658 688 691 661 658 688
          691 661 659 689 692 662
          660 690 693 663 661 691
          694 664 661 691 694 664
          662 692 695 665 663 693
          696 666 664 694 697 667
          664 694 697 667 665 695
          698 668 669 699 700 670
          671 701 702 672 671 701
          702 672 673 703 704 674
          670 700 705 675 672 702
          706 676 672 702 706 676
          674 704 707 677 675 705
          708 678 676 706 709 679
          676 706 709 679 677 707
          710 680 678 708 711 681
          679 709 712 682 679 709
          712 682 680 710 713 683
          681 711 714 684 682 712
          715 685 682 712 715 685
          683 713 716 686 684 714
          717 687 685 715 718 688
          685 715 718 688 686 716
          719 689 687 717 720 690
          688 718 721 691 688 718
          721 691 689 719 722 692
          690 720 723 693 691 721
          724 694 691 721 724 694
          692 722 725 695 693 723
          726 696 694 724 727 697
          694 724 727 697 695 725
          728 698 699 729 730 700
          701 731 732 702 701 731
          732 702 703 733 734 704
          700 730 735 705 702 732
          736 706 702 732 736 706
          704 734 737 707 705 735
          738 708 706 736 739 709
          706 736 739 709 707 737
          740 710 708 738 741 711
          709 739 742 712 709 739
          742 712 710 740 743 713
          711 741 744 714 712 742
          745 715 712 742 745 715
          713 743 746 716 714 744
          747 717 715 745 748 718
          715 745 748 718 716 746
          749 719 717 747 750 720
          718 748 751 721 718 748
          751 721 719 749 752 722
          720 750 753 723 721 751
          754 724 721 751 754 724
          722 752 755 725 723 753
          756 726 724 754 757 727
          724 754 757 727 725 755
          758 728 729 759 760 730
          731 761 762 732 731 761
          762 732 733 763 764 734
          730 760 765 735 732 762
          766 736 732 762 766 736
          734 764 767 737 735 765
          768 738 736 766 769 739
          736 766 769 739 737 767
          770 740 738 768 771 741
          739 769 772 742 739 769
          772 742 740 770 773 743
          741 771 774 744 742 772
          775 745 742 772 775 745
          743 773 776 746 744 774
          777 747 745 775 778 748
          745 775 778 748 746 776
          779 749 747 777 780 750
          748 778 781 751 748 778
          781 751 749 779 782 752
          750 780 783 753 751 781
          784 754 751 781 784 754
          752 782 785 755 753 783
          786 756 754 784 787 757
          754 784 787 757 755 785
          788 758 759 789 790 760
          761 791 792 762 761 791
          792 762 763 793 794 764
          760 790 795 765 762 792
          796 766 762 792 796 766
          764 794 797 767 765 795
          798 768 766 796 799 769
          766 796 799 769 767 797
          800 770 768 798 801 771
          769 799 802 772 769 799
          802 772 770 800 803 773
          771 801 804 774 772 802
          805 775 772 802 805 775
          773 803 806 776 774 804
          807 777 775 805 808 778
          775 805 808 778 776 806
          809 779 777 807 810 780
          778 808 811 781 778 808
          811 781 779 809 812 782
          780 810 813 783 781 811
          814 784 781 811 814 784
          782 812 815 785 783 813
          816 786 784 814 817 787
          784 814 817 787 785 815
          818 788
        </DataArray>
        <DataArray type="Int64" Name="offsets" format="ascii" RangeMin="8" RangeMax="3632">
          8 16 24 32 40 48
          56 64 72 80 88 96
          104 112 120 128 136 144
          152 160 168 176 184 192
          200 208 216 224 232 240
          248 256 264 272 280 288
          296 304 312 320 328 336
          344 352 360 368 376 384
          392 400 408 416 424 432
          440 448 456 464 472 480
          488 496 504 512 520 528
          536 544 552 560 568 576
          584 592 600 608 616 624
          632 640 648 656 664 672
          680 688 696 704 712 720
          728 736 744 752 760 768
          776 784 792 800 808 816
          824 832 840 848 856 864
          872 880 888 896 904 912
          920 928 936 944 952 960
          968 976 984 992 1000 1008
          1016 1024 1032 1040 1048 1056
          1064 1072 1080 1088 1096 1104
          1112 1120 1128 1136 1144 1152
          1160 1168 1176 1184 1192 1200
          1208 1216 1224 1232 1240 1248
          1256 1264 1272 1280 1288 1296
          1304 1312 1320 1328 1336 1344
          1352 1360 1368 1376 1384 1392
          1400 1408 1416 1424 1432 1440
          1448 1456 1464 1472 1480 1488
          1496 1504 1512 1520 1528 1536
          1544 1552 1560 1568 1576 1584
          1592 1600 1608 1616 1624 1632
          1640 1648 1656 1664 1672 1680
          1688 1696 1704 1712 1720 1728
          1736 1744 1752 1760 1768 1776
          1784 1792 1800 1808 1816 1824
          1832 1840 1848 1856 1864 1872
          1880 1888 1896 1904 1912 1920
          1928 1936 1944 1952 1960 1968
          1976 1984 1992 2000 2008 2016
          2024 2032 2040 2048 2056 2064
          2072 2080 2088 2096 2104 2112
          2120 2128 2136 2144 2152 2160
          2168 2176 2184 2192 2200 2208
          2216 2224 2232 2240 2248 2256
          2264 2272 2280 2288 2296 2304
          2312 2320 2328 2336 2344 2352
          2360 2368 2376 2384 2392 2400
          2408 2416 2424 2432 2440 2448
          2456 2464 2472 2480 2488 2496
          2504 2512 2520 2528 2536 2544
          2552 2560 2568 2576 2584 2592
          2600 2608 2616 2624 2632 2640
          2648 2656 2664 2672 2680 2688
          2696 2704 2712 2720 2728 2736
          2744 2752 2760 2768 2776 2784
          2792 2800 2808 2816 2824 2832
          2840 2848 2856 2864 2872 2880
          2888 2896 2904 2912 2920 2928
          2936 2944 2952 2960 2968 2976
          2984 2992 3000 3008 3016 3024
          3032 3040 3048 3056 3064 3072
          3080 3088 3096 3104 3112 3120
          3128 3136 3144 3152 3160 3168
          3176 3184 3192 3200 3208 3216
          3224 3232 3240 3248 3256 3264
          3272 3280 3288 3296 3304 3312
          3320 3328 3336 3344 3352 3360
          3368 3376 3384 3392 3400 3408
          3416 3424 3432 3440 3448 3456
          3464 3472 3480 3488 3496 3504
          3512 3520 3528 3536 3544 3552
          3560 3568 3576 3584 3592 3600
          3608 3616 3624 3632
        </DataArray>
        <DataArray type="UInt8" Name="types" format="ascii" RangeMin="12" RangeMax="12">
          12 12 12 12 12 12
          12 12 12 12 12 12
          12 12 12 12 12 12
          12 12 12 12 12 12
          12 12 12 12 12 12
          12 12 12 12 12 12
          12 12 12 12 12 12
          12 12 12 12 12 12
          12 12 12 12 12 12
          12 12 12 12 12 12
          12 12 12 12 12 12
          12 12 12 12 12 12
          12 12 12 12 12 12
          12 12 12 12 12 12
          12 12 12 12 12 12
          12 12 12 12 12 12
          12 12 12 12 12 12
          12 12 12 12 12 12
          12 12 12 12 12 12
          12 12 12 12 12 12
          12 12 12 12 12 12
          12 12 12 12 12 12
          12 12 12 12 12 12
          12 12 12 12 12 12
          12 12 12 12 12 12
          12 12 12 12 12 12
          12 12 12 12 12 12
          12 12 12 12 12 12
          12 12 12 12 12 12
          12 12 12 12 12 12
          12 12 12 12 12 12
          12 12 12 12 12 12
          12 12 12 12 12 12
          12 12 12 12 12 12
          12 12 12 12 12 12
          12 12 12 12 12 12
          12 12 12 12 12 12
          12 12 12 12 12 12
          12 12 12 12 12 12
          12 12 12 12 12 12
          12 12 12 12 12 12
          12 12 12 12 12 12
          12 12 12 12 12 12
          12 12 12 12 12 12
          12 12 12 12 12 12
          12 12 12 12 12 12
          12 12 12 12 12 12
          12 12 12 12 12 12
          12 12 12 12 12 12
          12 12 12 12 12 12
          12 12 12 12 12 12
          12 12 12 12 12 12
          12 12 12 12 12 12
          12 12 12 12 12 12
          12 12 12 12 12 12
          12 12 12 12 12 12
          12 12 12 12 12 12
          12 12 12 12 12 12
          12 12 12 12 12 12
          12 12 12 12 12 12
          12 12 12 12 12 12
          12 12 12 12 12 12
          12 12 12 12 12 12
          12 12 12 12 12 12
          12 12 12 12 12 12
          12 12 12 12 12 12
          12 12 12 12 12 12
          12 12 12 12 12 12
          12 12 12 12 12 12
          12 12 12 12 12 12
          12 12 12 12 12 12
          12 12 12 12 12 12
          12 12 12 12 12 12
          12 12 12 12 12 12
          12 12 12 12 12 12
          12 12 12 12
        </DataArray>
      </Cells>
    </Piece>
  </UnstructuredGrid>
</VTKFile>
