<?xml version="1.0"?>
<VTKFile type="UnstructuredGrid" version="0.1" byte_order="LittleEndian" header_type="UInt32" compressor="vtkZLibDataCompressor">
  <UnstructuredGrid>
    <Piece NumberOfPoints="774" NumberOfCells="452">
      <PointData>
        <DataArray type="Int32" Name="libmesh_node_id" format="ascii" RangeMin="2286" RangeMax="4991">
          2286 2287 2288 2289 2290 2291
          2292 2293 2294 2295 2296 2297
          2340 2341 2342 2343 2344 2345
          2346 2347 2348 2349 2350 2351
          2400 2401 2403 2404 2406 2407
          2412 2413 2414 2415 2416 2417
          2418 2419 2420 2421 2422 2423
          2487 2488 2489 2490 2491 2492
          2523 2524 2525 2526 2527 2528
          2529 2530 2531 2532 2533 2534
          2550 2551 2552 2553 2554 2555
          2556 2557 2558 2559 2560 2561
          2580 2581 2582 2583 2584 2585
          2685 2686 2687 2688 2689 2690
          2691 2692 2693 2694 2695 2696
          2698 2699 2700 2702 2703 2704
          2706 2707 2708 2796 2797 2798
          2799 2800 2801 2802 2803 2804
          2805 2806 2807 2838 2839 2840
          2841 2842 2843 2844 2845 2846
          2847 2848 2849 2881 2883 2885
          2949 2950 2951 2952 2953 2954
          2955 2956 2957 3054 3055 3056
          3057 3058 3059 3093 3094 3095
          3096 3097 3098 3099 3100 3101
          3102 3103 3104 3117 3118 3119
          3120 3121 3122 3123 3124 3125
          3126 3127 3128 3195 3196 3197
          3198 3199 3200 3201 3202 3203
          3210 3211 3212 3213 3214 3215
          3216 3217 3218 3219 3220 3221
          3222 3223 3224 3225 3226 3227
          3252 3253 3254 3255 3256 3257
          3300 3301 3302 3303 3304 3305
          3306 3307 3308 3309 3310 3311
          3318 3319 3320 3321 3322 3323
          3324 3325 3326 3327 3328 3329
          3330 3331 3332 3333 3334 3335
          3366 3367 3368 3378 3379 3380
          3381 3382 3383 3384 3385 3386
          3387 3388 3389 3390 3391 3392
          3453 3454 3455 3456 3457 3458
          3459 3460 3461 3483 3484 3485
          3492 3493 3494 3525 3526 3528
          3529 3531 3532 3543 3544 3545
          3564 3565 3566 3567 3568 3569
          3570 3571 3572 3588 3589 3590
          3591 3592 3593 3609 3610 3611
          3612 3613 3614 3615 3616 3617
          3618 3619 3620 3630 3631 3632
          3633 3634 3635 3636 3637 3638
          3639 3640 3641 3654 3655 3656
          3657 3658 3659 3660 3661 3662
          3684 3685 3686 3687 3689 3691
          3693 3694 3695 3696 3697 3698
          3708 3709 3710 3711 3712 3713
          3735 3736 3737 3738 3739 3740
          3741 3742 3743 3744 3745 3746
          3747 3748 3749 3762 3763 3764
          3771 3772 3773 3774 3775 3776
          3777 3778 3779 3786 3787 3788
          3795 3796 3797 3798 3799 3800
          3801 3802 3803 3804 3805 3806
          3807 3808 3809 3816 3817 3818
          3834 3835 3836 3837 3838 3839
          3846 3847 3848 3849 3850 3851
          3861 3862 3863 3882 3884 3885
          3887 3888 3890 3900 3901 3902
          3903 3904 3905 3906 3907 3908
          3924 3925 3926 3927 3928 3929
          3930 3931 3932 3939 3940 3941
          3942 3943 3944 3954 3955 3956
          3958 3959 3960 3962 3963 3964
          3969 3970 3971 3972 3973 3974
          3993 3994 3995 4032 4033 4034
          4035 4036 4037 4053 4054 4055
          4056 4057 4058 4059 4060 4061
          4062 4063 4064 4089 4090 4091
          4104 4105 4106 4107 4108 4109
          4116 4117 4118 4128 4129 4130
          4167 4168 4169 4170 4171 4172
          4185 4186 4187 4208 4209 4212
          4213 4216 4217 4233 4234 4235
          4236 4237 4238 4254 4255 4256
          4257 4258 4259 4269 4270 4271
          4272 4273 4274 4284 4285 4286
          4287 4288 4289 4290 4291 4292
          4293 4294 4295 4302 4303 4304
          4314 4315 4316 4317 4318 4319
          4320 4321 4322 4323 4324 4325
          4326 4327 4328 4338 4339 4340
          4344 4345 4346 4350 4351 4352
          4353 4354 4355 4365 4366 4367
          4368 4369 4370 4371 4372 4373
          4374 4375 4376 4377 4378 4379
          4380 4381 4382 4383 4384 4385
          4386 4387 4388 4389 4390 4391
          4398 4399 4400 4416 4417 4418
          4422 4423 4424 4425 4426 4427
          4428 4429 4430 4434 4435 4436
          4437 4438 4439 4440 4441 4442
          4443 4444 4445 4458 4459 4460
          4482 4483 4484 4485 4486 4487
          4488 4489 4490 4491 4492 4493
          4494 4495 4496 4497 4498 4499
          4500 4501 4502 4506 4507 4508
          4509 4510 4511 4518 4519 4520
          4521 4522 4523 4545 4546 4547
          4566 4567 4568 4569 4570 4571
          4572 4573 4574 4599 4600 4601
          4602 4603 4604 4605 4606 4607
          4611 4612 4613 4647 4648 4649
          4650 4651 4652 4653 4654 4655
          4656 4657 4658 4677 4678 4679
          4689 4690 4691 4692 4693 4694
          4695 4696 4697 4716 4717 4718
          4743 4744 4745 4746 4747 4748
          4749 4750 4751 4779 4780 4781
          4788 4789 4790 4800 4801 4802
          4803 4804 4805 4806 4807 4808
          4809 4810 4811 4830 4831 4832
          4872 4873 4874 4902 4903 4904
          4923 4924 4925 4968 4969 4970
          4986 4987 4988 4989 4990 4991
          2880 2882 2884 3883 3873 3886
          3876 3889 3879 3957 3961 3965
          3875 3878 3881 4119 4120 4121
          4206 4207 4210 4211 4214 4215
          4347 4348 4349 4251 4252 4253
        </DataArray>
        <DataArray type="Float64" Name="resid_x" format="ascii" RangeMin="-0.02899827648690234" RangeMax="0.0018212742535510529">
          -0.0001970425248005725 0.0005560277055209895 0.0003432411318353701 0.0008045039901727336 -0.002500377598475545 -0.0006342993837318289
          -0.004752307197289696 -0.0034371750065140816 -0.013049737934601957 -0.01472499021986362 -0.015287598949251802 -0.012866909187561504
          -0.004456801902931851 0.0008109579775545939 0.0002393714995708729 0.001588334232401678 -0.011445499968927741 -0.001296781583086215
          -0.0029495808224859754 -0.0012136572359704445 -0.022041468647571172 -0.012675047831706365 -0.01090868831688352 -0.012823794058938631
          -0.01661578536127095 -0.0030671006631246556 -0.02311374303469904 -0.004531422863769841 -0.018687141228259208 -0.009705684136566362
          -0.0012083843390273685 0.000435454782975242 0.000624734085088896 -0.001095401191741452 -0.004236219885161319 -0.0010832722162081865
          -0.003042738983792148 -0.007247388288082135 -0.005227798141135942 -0.003745901968418508 -0.004596572410456634 -0.007129217321995007
          -0.005362346471802892 -0.003366511744888001 -0.0034515093103171246 -0.002584532010220464 -0.008354723575204615 -0.008747619647603955
          0.000041154602448578714 0.0007576586259396834 -0.0035602891330164255 -0.00408423268165059 0.000012817860879366094 0.0009015743725140357
          -0.008764976781471034 -0.011165098281367136 0.0010378578199423671 0.0015959633748678925 -0.0003540576134115625 -0.0053372193777718735
          -0.000056356449456451685 0.0001282049985311673 0.00026153696633990364 0.00006857562368978165 -0.0008516550114388011 -0.0006297456058133033
          -0.00047922885186135744 -0.0033496058972009024 -0.011103311533892324 -0.006116449966252713 -0.006759141960618997 -0.00983086089118057
          -0.0015756325978202312 -0.0017028882219989327 -0.002608218982241617 -0.003632499286541524 -0.008372133315650565 -0.01064024523103857
          -0.0002101458741909923 0.000013556770529277173 0.00003365820838663325 -0.00023027155172616887 -0.0009136701498677624 -0.0003728477156395016
          -0.0006453953808094326 -0.0008858021199333876 -0.010645612127660797 -0.0124358475999653 -0.010746330650365898 -0.009660355186561276
          -0.009748674393222245 -0.01165983536491133 -0.004845174566393773 -0.018517506584085908 -0.007480614885679415 -0.0014944627507746944
          -0.01772580505515009 -0.015424528876825327 -0.009376540588635685 0.00015794042290906418 0.0007174092379935715 0.0003881453889009734
          0.0007419702902429215 -0.0007987871383798861 -0.0005636899304146681 -0.0009628859919192934 -0.0015240063564685435 -0.006572099586695579
          -0.004770146396092745 -0.005009424815392016 -0.00681273564731022 -0.00004160012094978072 0.00011471834983467488 0.00010003198915331524
          -0.00007662211492709403 -0.0010227317590967289 -0.0017080397018309768 -0.0009858255233554658 -0.0025179186737900316 -0.004821800169074741
          -0.00599629512098776 -0.0048456232872444716 -0.004605166821439521 -0.007815904128679385 -0.012535818098490026 -0.009246011808300203
          -0.0014937400844452497 -0.0011550311106764966 -0.0020898038228480686 -0.0014362977606330318 -0.0018063673093893229 -0.0027090196363075414
          -0.0013870917628970858 -0.0012403640272706795 -0.002011075302837728 -0.00127138079399991 -0.0021190891818516633 -0.001123074431756521
          -0.0032201469326453847 -0.006102191100072929 -0.007651053508560324 -0.005422639068265234 -0.004783625261596036 0.00025960644095901486
          0.0007433467457564902 -0.003722250522002035 -0.002610357054212642 0.000028685599979816345 0.0011023482984873212 -0.003468656986031604
          -0.0035472392346420634 -0.000618377307093354 0.00006677818425870896 -0.0008289508470227247 -0.0010077719229024673 -0.0009702065430037266
          -0.0005811230454746408 -0.0009469643786994553 -0.0011003812230940824 -0.001970879925945468 -0.001153078128009355 -0.013459563147969256
          -0.0104737217118549 -0.009800925407907002 -0.013802162556121544 -0.00034475363308938967 -0.001375847619913273 -0.002686264270832517
          -0.001966442205700414 -0.0034383854605763986 -0.002298322402581654 -0.005579196300630862 -0.009463523265687002 -0.005077625629354543
          -0.0003098149635665237 0.000030352195644844926 -0.0004312482033466125 0.0004988009379474079 -0.008825181212321453 -0.006904334233461817
          -0.00006940407649214109 -0.0014462266570687277 -0.0025459289038725075 0.0005651269041528906 -0.00033815265173942066 -0.0022971484148985866
          -0.002918621506311947 0.00023471576369082925 -0.005912120615963801 -0.007247000015921046 -0.007784900505980463 -0.004413251997041456
          -0.0037615536171795583 -0.00700395006751986 -0.001771377805758867 -0.010189034120640095 -0.004560440064033777 -0.009887343250259306
          -0.002817718026870253 -0.0023602689624731 -0.007264366291074964 -0.00689661502072525 -0.009445579169872431 -0.008097078160988147
          -0.0035382162086596836 -0.004197414549242495 -0.0013306003339703665 -0.0019586344455397864 -0.0032855105342117774 -0.004302410480813812
          -0.001482846951348149 -0.0029928118221196343 -0.000768004422312174 0.00019617885128109247 -0.003155742636425707 -0.005926670330384631
          -0.003351392593780922 -0.002419097258841707 -0.008113998590191462 -0.006998414290910748 -0.006155163632197258 -0.007863476082068943
          -0.0022087753453551295 -0.000828128554958063 -0.0014688358364237653 -0.0007714926355921747 -0.0012072441837129855 -0.001387456234873241
          -0.0018380742288570673 -0.005326851461326498 -0.009168880485884046 -0.0018549855032592433 -0.002446905784223574 -0.0017040674610258044
          -0.0026692160688153166 -0.0034843567705906686 -0.0059921162311455944 -0.0010101597076470625 -0.0007144773655642922 -0.002044572169403125
          -0.0008495760694833265 -0.0005652881327753434 -0.005132654120782121 -0.003970211086506303 -0.0013234138740694235 -0.004297126104529703
          -0.0001926781036809544 -0.00016124213176116342 -0.00142954119716876 -0.0003790045831637556 -0.00034521827278677364 -0.00412824503527176
          -0.007382864905938646 -0.006208700357357877 -0.009713784472843656 -0.004003856649128501 -0.0022381177855956835 -0.0006622860706952949
          -0.0005413271687153554 -0.00023992225417046598 -0.006684137242590538 -0.01094974529440762 -0.016781586306544582 -0.024781971184825835
          -0.026877425680496003 -0.020628435570181125 -0.018901006244849583 -0.0004122775671735468 0.000039062285678959086 -0.005180977021398192
          -0.00013214346330592264 -0.0021146053062692793 -0.0031118782684305124 -0.00032097550206877656 -0.0018547750748822978 -0.001718420236763496
          -0.004590131592685953 -0.004505116192339731 -0.006686117639761235 -0.0018230143047857084 -0.0009755587857585013 -0.002126970076849588
          -0.000634120781887404 -0.005836344438348462 -0.002904809095940042 -0.006313727729839513 -0.0004954538016158638 0.0002356648872545719
          -0.00010547150965667385 -0.013174831050619673 -0.003221410633726496 -0.001388441496339432 -0.0053218168202633365 -0.019688753528093628
          -0.007578608482398774 -0.011057506158694608 -0.015382561989436105 0.00004612888594479614 -0.0019100973629129214 -0.002461449805294613
          -0.0002247279301270666 -0.001066395706216916 -0.005208657635731306 -0.00379912149986783 -0.0023173081331373524 -0.01345561445791521
          -0.015737487101666225 -0.016216803502286048 -0.0162204913337769 -0.007893765251983709 0.00016586463379653082 0.0004949563707885574
          -0.017479069349377596 -0.0009478631449439945 -0.0024175726745641057 -0.017290279418760157 -0.01429281178834696 -0.009046457576338263
          -0.0034398959819448294 -0.0019648225286594823 -0.0018428910177483715 -0.004811957650463938 -0.007181209166011726 -0.004640046044005253
          -0.014433769428680243 -0.011286449665527165 -0.020811866705068738 -0.015281640711393152 -0.014259387162868009 -0.015544943185083149
          -0.009008149908794394 -0.00994495869400236 -0.0054913152866493675 -0.004577644997278085 -0.014123297386822387 -0.014690041880347948
          -0.007117851527134622 -0.0028380757032104853 -0.0020089439362447337 -0.008774561303214856 -0.002536058101309968 -0.006122463304551573
          -0.008177088247045106 -0.004742168543723002 -0.0011116425006113817 -0.0022499709260337397 -0.007419489618089692 -0.018536393283567598
          -0.0061489123018186875 -0.011627917481503047 -0.017059478966431563 -0.011138711519312672 -0.005618830451099122 -0.014732769411187618
          -0.009415448758654854 -0.005818680741130011 -0.016098025824831996 -0.0023271010204803932 -0.002999771931752271 -0.0003958406099582312
          -0.0021653047693335203 -0.004587674615152082 -0.006534291010145132 -0.004736873666678854 -0.0030334880796978325 -0.0027527765882631172
          -0.005709487502788768 -0.004306924757353947 -0.00427492610674296 -0.0024808348758593723 -0.006725538830826494 -0.006472579507741827
          -0.0033340137281356874 -0.0014889558099779876 -0.0007778794713724224 -0.005488353239572669 -0.003965296166273724 -0.004907288600141418
          -0.003238060718083524 -0.010478441963505003 -0.009544719664847712 -0.009180802945960131 -0.004647108238071795 -0.01210750971789587
          -0.009240352207600111 -0.005293201115272872 -0.01612813953833747 -0.005679559688749003 -0.0023409411818248183 -0.007165793107415164
          -0.0008294045922614401 -0.0017582827590436612 0.00011482338495216737 -0.0015245046344445345 0.00022695214345080927 -0.0018266256067693831
          -0.006618468923431431 -0.0012835603582624366 -0.004878216474231922 -0.011895200252739713 -0.016083618594535665 -0.023880078354102885
          -0.024705746854664312 -0.013542493505555697 -0.018900897921113824 -0.002429103240733088 -0.0024370548982197704 -0.0026069154122767557
          -0.0012544429799761225 -0.002527976035004542 -0.0027780899999809705 -0.006618079838914603 -0.005792754269402067 -0.0051193889469205445
          -0.004085959664237304 -0.0005533702942877028 -0.004700712123008266 -0.0017017040655014082 0.0018212742535510529 -0.0026236179980214658
          -0.003452253341549971 -0.001196043236555866 -0.0027898983995617854 -0.006246082004615516 -0.005309914978336661 -0.009010049282460741
          -0.006474293852352098 -0.0019817295218134134 0.0001839857573053827 -0.01256771318705141 -0.007191809661918569 -0.02179198279730521
          -0.02660350423810698 -0.011252949692694969 -0.028943175914148966 -0.01766229916498574 -0.012047715743816134 -0.020073104109485485
          -0.013718320413300233 -0.014113260850127762 -0.009812412078374244 -0.005291581152210512 -0.005886101152656309 -0.007758917904679308
          -0.010492121660761633 -0.010212940303474305 -0.013141879164138892 -0.0011193681516372678 -0.0020565465230850677 0.0007020655587135494
          -0.0013106179071824542 -0.00040628219883043215 -0.002491320913261319 -0.0021801988519269955 -0.0011386668345130246 -0.0007749971907404785
          -0.0005374385846854679 -0.0021029566890691243 -0.002929680712716376 -0.003202946142267571 -0.0004098848627869245 -0.0030340933058763397
          -0.000047772217012465035 -0.006071802074997024 -0.0027452231155393747 -0.005242567140770316 -0.003611092370293445 -0.007043100204100483
          -0.003664138993518584 -0.010548515877676579 -0.0015876164144152938 -0.004984747697966085 -0.0005725368257092356 -0.003324079337216901
          -0.003974587251289741 -0.0012256864340915996 -0.0012007922519003955 -0.00921941581036112 -0.0007944555245984475 -0.013270720947118342
          -0.002851670395898509 -0.0003946224253237318 -0.0013202521571393788 -0.008124342459826295 -0.0005931191827155402 -0.012219844109590206
          -0.0077166010727163226 -0.0010191465797595445 -0.010876162006354662 -0.014819303727791944 -0.007959256477910515 -0.019991238773384712
          -0.010704092883389471 -0.007231111900921849 -0.003688476049839018 -0.0086542564955846 -0.010318206447923473 -0.003309961778808712
          -0.005271620485016726 -0.00646358647192069 -0.009789739316963697 -0.005070573427349956 -0.0024095200449245624 -0.0067113010361907754
          -0.0062927252049505 -0.0006434867348685813 -0.013412222678545582 -0.013389156236951472 -0.004058992128547878 -0.010898469259606358
          -0.005243110220261471 -0.0024330060558419575 -0.0030912194536885096 -0.0031861147686162994 -0.002386717398675131 -0.0015458954842815231
          -0.005264161662720923 -0.006804934839248489 -0.0034794011432008887 -0.003605339402012575 -0.003585259892327386 -0.0009566822591020596
          -0.00038064392074321773 -0.0020189751889381213 -0.002554228864970476 -0.00434647801087884 -0.0015894628618005058 -0.0022887074207931235
          -0.0023496455643639003 -0.004635367602254359 -0.00048466042750927585 -0.005176417527883892 -0.005010349435119021 -0.00530103135764648
          -0.0074048532003008205 -0.011654008863535736 -0.0007989042104945554 -0.0029240436587523178 -0.025446005831021523 -0.0005165570803837838
          -0.012082257796786067 -0.02274274985867919 -0.011251057495305972 -0.004648031857332313 -0.0054337669957051915 -0.012439707944735368
          -0.004273187680592372 -0.001400978475846415 -0.0023610378563070356 -0.005571569594643222 -0.005578670387073714 -0.00015244849128670523
          0.00022330718584129272 -0.012027754676197766 -0.01007869534041994 -0.0070992291044058575 -0.0038084342395077186 -0.0021487758007694424
          -0.00005670722057393718 -0.0022067257907663063 -0.0011307346995361733 -0.0037817628706808826 0.00014270101118141199 -0.0015622114578257573
          -0.007807279946410617 -0.007092122551905611 -0.0029780793710294517 -0.003536290854173174 -0.002497790071283923 -0.0028760146626090055
          -0.004013425156206729 -0.001046467020781705 0.00005630789416244397 0.00041835224130659654 -0.008045355899550799 -0.0013835682527103543
          -0.0022196665396805315 -0.0011834132607670966 -0.007265825570392792 -0.004045736408919254 -0.007151689236407854 -0.0056365161495137706
          -0.008105105640535903 -0.0026294785383642605 -0.012585125206032721 -0.005864006616183026 -0.0035585274771090525 -0.005807950980794008
          -0.0035977811751850552 -0.004331802186312572 -0.0027981875116358523 -0.00318544424509426 -0.005220283924659341 -0.0030613284023974785
          -0.007735153337638828 -0.0007773466641324001 -0.003722470697549829 -0.014360458345775484 -0.002972482438901025 -0.02826395971207063
          0.0007822009893594384 -0.020583370764249764 -0.005718933400611803 -0.000599084016402962 -0.0013904713003274338 -0.00026552818935421385
          -0.0030799707711253177 -0.008426633894216273 -0.009838588232696566 -0.014339995784092174 -0.028295473907443025 -0.02281872046771838
          -0.00493435858958069 -0.004859273839430744 -0.00041744528110321255 -0.0026425796358290343 -0.001150410572278382 -0.0022021644648908545
          -0.00033324106884968785 -0.005809513852362613 -0.0082919086474611 -0.003215674107924116 -0.00027335905428582663 -0.00714214639466082
          -0.005239405625276916 -0.002996566756305441 -0.006030174630743623 -0.011678171826721595 -0.011885420732688168 -0.008746113613053552
          -0.0036956607705942446 -0.0027728220431928463 -0.0073120422510566385 -0.010170002821203283 -0.0025578034569715413 -0.00437088672408148
          -0.0018508865461130952 -0.01281216783704675 -0.003907542496735417 -0.0019754250104790927 -0.0031230962678980845 -0.0013622465649163473
          -0.0011260034244369166 -0.009240823607478355 -0.00879187780286994 -0.0021816179070004438 -0.0005433824522462771 -0.00920769324489168
          -0.006676527443663094 0.000410411458302562 -0.010853120609797262 -0.002501107489484511 -0.0018269968945547888 -0.008062689679283253
          -0.008739371043195554 -0.006593147251222398 -0.009135201744504329 -0.010088174798029037 -0.017071518054294188 -0.009818550650603441
          -0.00245862798938834 -0.004254446002291523 -0.0012312189146825858 -0.0025771681747412956 -0.008778908141031216 -0.007721201501778907
          -0.007926083958434305 -0.0015772034456018602 -0.010405394400141432 -0.005525674762406396 -0.003755631916169122 -0.0023615265347070036
          -0.009304543407816057 0.0010799438577173692 -0.012821821741013206 -0.005719953499694341 -0.0011180210482679698 -0.0020323103400023967
          -0.006139678114793767 -0.008124330892435694 -0.007883206808621424 -0.008662734945736328 -0.001731145928307587 -0.0031592089068318563
          -0.0016344819159019863 -0.0043638102305347815 -0.0009487645361270225 -0.0007396630697149575 -0.0017668606878613602 -0.0003323825176009265
          -0.0037906753954031203 -0.007863244636935995 -0.004764600706534949 -0.005514711940052486 -0.00002187890330773712 -0.003439931432906107
          -0.007594903213090198 -0.007010230039573351 0.0003799109787738786 -0.004871289721338989 -0.006060915823514534 -0.007602833435701228
          -0.007427303440679545 -0.0019175806203222123 -0.006430524827118589 -0.00888233961009588 -0.007163126812810283 -0.009033152451079385
          -0.0014227246664253457 -0.000979579241493056 -0.0062383457057650915 -0.007868281302729319 -0.0014020560482768119 -0.0070115363929659225
          -0.00842765066650486 -0.010378075773835427 -0.0021504579947020375 -0.006669602719260759 -0.010300389245970543 -0.013818763297607894
          -0.00845831430393984 -0.0031201822228177356 -0.006209724000733274 -0.010736604572575636 -0.01330872947865025 -0.00978941644016107
          -0.014720511270726266 -0.019067629590313162 -0.008304408273104968 -0.022534471402412493 -0.02899827648690234 -0.017541180834411918
          -0.006552875429863381 -0.003001217333595374 -0.0025990515568801165 -0.017789884948413714 -0.024455537426848473 -0.016199695907676226
          -0.013547571324426855 -0.01655180013994295 -0.0022899749649756274 -0.0039548828456479335 -0.006853855735643233 -0.010641437147342003
          -0.010624704793568363 -0.019911090043191138 -0.0067380589931502755 -0.014070997279215902 -0.013212201721151118 -0.021510848115568137
          -0.020590539978993405 -0.010839755123065231 -0.010967582091156558 -0.01800950755035302 -0.026423668248757082 -0.013876149982800179
          -0.014566781528888129 -0.013448288890756999 -0.011434252812694723 -0.009551979075498984 -0.011024772927525461 -0.00550895523949535
          -0.005272757416265428 -0.014563672222427826 -0.011873911782034341 -0.02511816521117538 -0.00703532936582274 -0.014553864067462285
          -0.014220542389676183 -0.014209131877876757 -0.007615693988965333 -0.01683585731636228 -0.02162017905300928 -0.009078296458400636
        </DataArray>
        <DataArray type="Float64" Name="resid_y" format="ascii" RangeMin="-1.0436718772147497" RangeMax="1.054991832244041">
          0.00022084859457693895 -0.0002630476385588054 0.00009585983284965405 -0.0006679643383467326 0.0018223734929475877 0.0006459158384238828
          0.003010456253216831 0.0013031703480821943 0.00526270319054159 0.005729882592996477 0.006365397794562855 0.005315430834226392
          0.003498155815448996 0.0006772511657648916 0.00026886386701280296 -0.00024170831837871942 0.007995086735394475 0.0021872300438963016
          0.0009681030161096948 0.002522309764664221 0.008844796052151757 0.0038879382143044428 0.004074981950775297 0.005766780406480043
          0.009716091307953506 0.005580970103710808 0.012122992740369376 0.011225251644738032 0.00806388584942569 0.0071222402312310085
          -0.0012648762453602233 -0.0001315114699632844 0.000057958572331484604 -0.0021877029454719366 -0.002048515662603948 0.0007026183529886404
          0.0011807429102759226 -0.0048823928779016534 0.00020798688892090245 0.0015940110628793053 0.0014575770872051752 -0.0013565275645822383
          -0.0003898938457113921 -0.0009971321006566336 0.0013578460401724862 0.0021454398164276883 0.0036661311774835448 0.004089516806201163
          0.0001836052305343172 -0.00000334704122051388 0.0029033593999508445 0.0016063454607442781 0.00034218627177096117 0.0006242787607488864
          0.0072742607040807705 0.0033261725732736044 0.0007338987011701326 0.000970253735349702 0.004161599509775571 0.0019011413189153475
          -0.00038931738157180207 -0.000042507133218211424 -0.0004594953951377878 -0.0005002584309875546 -0.0006642299795450723 0.0002513042958099676
          -0.00002845361415582115 0.0000847099076642377 0.0007701481313746317 0.0010431979861147134 0.0012843891676911356 0.0013388411061763805
          0.001788545186906354 0.003696003083917502 0.0022212916568617735 0.003670536224096078 0.0038834702981855596 0.004455254514415752
          -0.0005829203034675157 -0.00041553220226830945 -0.00016698167175188683 -0.0005917749101525538 -0.001013391929627988 -0.0005631549758378096
          0.00013162634615299096 -0.0009353811098100628 -0.00007465116247951098 4.0379332277851177e-7 0.00041187470531312 0.0002039652476502063
          -0.001252695342329302 0.009374507235901275 0.007372556808323938 -0.00028066938095150373 0.005913276295445802 0.006040360103578057
          0.005652309634339714 0.006323384373199292 0.004587449236317681 -0.00008182167267178908 -0.00018866567880250484 -0.00028582942961483115
          0.00004140864985302528 -0.0001815335862769274 -0.0003746012761744709 -0.0006545276561029101 -0.00003182209801128044 0.00026745343541037525
          0.00003765333266852501 0.00031045351054626025 0.00028289125914432445 -0.0003641535324421241 -0.0004906941659928166 -0.0006716406392592023
          -0.0006327643669944427 -0.0002682360590545996 -0.00013925162849014183 -0.00024486732187165017 -0.00025912524253236813 0.0011542985591993793
          0.0018122339470878768 0.0019085350138255408 0.0011497708859148845 0.0019879885939084463 0.002304589380451083 0.002146652765193491
          0.000986373441899245 -0.00022754826445336995 0.0002655940319549188 0.0004628337730368248 -0.0004926373927188199 0.0019232619895966363
          0.0009194146572287995 0.0011560720448520745 0.002994505440403361 0.0010887331241528353 0.0034160255142581045 0.00002491915109162357
          0.0025935485425246582 0.0008398321256553598 0.0019258883840809413 0.0008201217075878842 0.0019023912737991533 0.0005195941455659048
          0.00014102994901443733 0.0017882137654229857 0.0014714987936630952 0.0008006647085274654 0.00026350346258424695 0.0017874753870799065
          0.0012717719080411194 0.000720270331625722 0.0010694973884020076 -0.0005789464234844388 -0.00005088603967447203 -0.0000858294237816859
          -0.00036500831060837235 -0.0010843445216350833 -0.000547700414375421 -0.0001758732621337522 -0.0007266999275978847 -0.0004007641396108763
          -0.00008524357844919006 0.00010851141025175481 -0.00014239815488931162 0.00011295127833964302 0.002064200109614278 0.00020928597001895755
          0.0011073596532048674 0.001061265528208899 0.0031074869380549874 0.0020479054066447344 0.0028805976935996624 0.0028279660288694983
          -0.48662259430306554 -0.4392651303591247 -1.0436718772147497 -0.9244525759674145 -0.6449916295705858 -0.6624344184682445
          0.000039309947217402996 -0.0006319944186532894 0.00011224670091032618 -0.0005013325528412382 0.00028815756472957976 -0.0005916282729717254
          0.0012708386837611274 0.000446928778512181 0.00429082012078022 0.0028708156682651365 0.0035216470580600873 0.0027112963226316837
          0.0011458888633287256 0.0053292392667852045 -0.00041996514366315907 0.006138223052304284 0.000878705604832497 0.003516973172562096
          0.0007086343130520978 -0.0001537835013625255 0.0005107765591912394 -0.00018511454657355042 0.0010342789947199171 0.0011252953476990069
          0.002468400915799779 0.0017941680347157707 0.0018207721353540596 0.0008809242204867451 0.002606607327744176 0.003271676655663386
          0.0014814268828304417 0.0016256632089674539 -0.000032055626431937156 0.00027555890290686946 0.0006947728136704884 0.0036568480737977083
          0.0015649301837088458 0.0025778553576690927 0.0020490237632031505 0.0036139991686942874 0.003279421106361563 0.003748541905702868
          -0.00011940977939811637 -0.00031967770682772567 0.00037674232199358393 0.0012636867221061804 0.0025481507777479484 0.0027356942644798654
          -0.000011423294496049063 0.0004477665417041976 0.0007433383438644747 0.0020404251226534553 0.0025614216754878683 0.0008916365207759652
          0.0013437417137829588 0.002074280223605951 0.002959802648522414 -0.0005090280763929179 0.0004213388918384575 0.00007802585277569274
          -0.0013963044351549755 0.000037058653124297236 -0.00007877848445783653 0.0004261264326044945 0.0014428783252621036 0.0012381285636964834
          -0.0006362670319576269 -0.0007903740937206805 -0.00031016415129958563 -0.0011922864803348698 -0.001410832888600333 -0.0004825731058559768
          -0.00015082216525685865 0.00006142120425906006 0.00014751140425117715 0.002242188626805419 0.0012798964327041529 0.002009859510383627
          -0.47649821176820173 -0.970577584379377 -0.6070286204597541 0.00037055101268701485 0.008033641476340558 0.0024378692942700897
          0.00759705694748182 0.005340907028636134 0.006856859188325334 0.00007639815976592801 -0.0015674629761992243 0.00017924758292708898
          0.0002137525457837075 0.002544373774735764 0.0027553510927005587 0.00023748546611168653 -0.00010135356446733246 0.004283848733267787
          0.002334152902597919 0.002267565872004662 0.005366944774059662 0.0009023594136448043 0.0016563095496477526 -0.00010722419905725977
          0.0005040485090065244 0.0013070795730139584 0.0013209324699837571 0.005463119015488946 0.002657309038105904 -0.0003337294490379783
          -0.00008396819176131887 0.011665570722318774 0.006450893432806137 -0.000526437539008523 0.0011138328128789121 0.010249854937149916
          0.005571770873416093 0.003960587608461463 0.004296855040173686 -0.00000193393895631111 0.0022134403742172237 0.0045793303292890886
          0.0012502905629900585 0.0002220088577583046 0.0012541339916210537 0.0037505145812616048 0.003327948674793635 0.004359992828554593
          0.00383652271317797 0.006018385572489127 0.007425403463423186 -0.0002846124547337542 0.00008130260916405785 0.00040554054855365673
          0.0012496951715766438 0.0015627208738279164 0.004306344263511314 0.004047462591632439 0.006998453510903835 0.006182397480790386
          0.0020239006530420323 0.0005317408716314365 0.0013942587559429565 0.001508749392086367 0.0020684216349588225 0.001741952354930798
          0.009286767925662617 0.007965702808806582 0.013818454016062576 0.01384183875752798 0.007802968124489371 0.01007382871238835
          0.008304895487717567 0.007539108237386238 0.004429371539168225 0.003951521497810001 0.005589012836879986 0.00603177740361055
          0.0047911340841674255 0.0017869633945164637 0.0020607982670628987 0.0023085383412302096 -0.00025887650001181484 0.0012318545639556922
          0.002356670939124811 0.0014366777432014421 0.0013064043750928636 0.0008718668759917503 0.004394775734190837 0.0062233747837398545
          0.003967979480177439 0.00592516089390549 0.008388240706010824 0.0037647711751829654 0.0033699134654003593 0.006823684146027312
          0.004446431205485185 0.002243860393638636 0.0056039479473900256 0.0007306114546759557 0.0012458270574155772 0.0016697494306010252
          0.0030220452227493755 0.0038821633331296845 0.004548170555769199 0.0028767723565618075 0.001376524585962935 0.003620433803472267
          0.00009538118633478643 0.00006810261718581678 0.0015293463450034295 0.003080939179434 0.004305428440882025 0.005007135633867094
          0.0020614510584436863 0.001288423803709804 0.0017217085784206332 0.0035384877456534 0.00403281837386725 0.0023088224765276597
          0.0025456488229903818 0.0036525131037249345 0.0033926835304115277 0.004230779749981817 0.0011758194280612824 0.003870584020528922
          0.00459155817595025 0.002145891751956064 0.005774708199256934 0.002942046821129002 0.0011518080548836573 0.0028067700006174645
          0.001181640513552129 0.0023041640223154664 0.000047956135943272304 0.0010188599353593286 0.0017954727298347128 0.002354300739753873
          0.0029668719797099063 0.0014769836181786622 0.0032875914829528508 0.003465695655164719 0.009299656473117757 0.006782041419479273
          0.01013091710122424 0.00365612051621092 0.0053621823242534575 0.0010143509749735435 0.002503520994947356 0.0013530884151342903
          0.0008821111371045964 0.001565793046620939 0.0004739780348121114 0.0006438965362994264 0.0007805184040031721 0.00019904091507400024
          -0.0013447416121023514 -0.00027598037089937577 0.0005809138649975516 -0.0006814251107713221 0.0007340139022766201 0.001232225805139757
          0.0009996782525204528 0.0015086484374391973 0.0015517726710779778 0.008251713653612103 0.006372627780055096 0.012039084999397431
          0.009488237981718273 0.006184915349557674 0.0049630837805982875 0.005143070213505185 0.0033332901427369638 0.004087835456138701
          0.01124469482448548 0.008093682462612994 0.01025378469065498 0.008663924640064102 0.006895287675516448 0.010563083863057508
          0.00477386701737742 0.0046913361824896666 0.008631657301951118 0.0014630079085001108 0.004489602190192052 0.002739986986424539
          0.009967030073670002 0.013836739780809626 0.007882985015440519 0.46644437445704345 0.36973761695801166 0.9462910360558735
          0.7501500197545843 0.5244066530020358 0.43534050189935847 0.141359990006434 -0.04843679324243183 0.29920326220374527
          -0.07659494069304845 0.24570301268305766 0.06014409945397964 -0.000004588912018765878 0.0007401025973204217 -0.0003569606327690003
          -0.00012830883039966628 0.0011505548188975173 0.0007547765631993886 0.0025612657144156725 0.0009416261556874639 0.001524860487196189
          0.5237856344672503 -0.00021911635414546826 1.054991832244041 0.0009344755019324944 0.5379669167964621 0.0014536749806728366
          0.4978533637121314 0.9953937824679293 0.4529442378893382 0.004624252637609141 0.0017439050506834336 0.004654618047528258
          0.42028620685045126 0.8215857437196264 0.28087703184713375 0.0037465334528594962 0.0002461883289546912 0.003368197728635447
          0.004804534587642861 0.0005127219975278319 0.0027117768633731637 -0.0024879724170049355 0.5500964138192662 -0.003397675784364673
          1.043925414463695 -0.000895071241070633 0.3076246966340548 0.005330828300309065 0.007751573461038941 0.0017107781331150707
          0.0023821591859629204 0.0021047584003439923 0.0025976070189706046 0.0026580351886265063 0.0010275159490297225 0.002982554382585545
          0.005515640168967495 0.0024301535234177996 0.00649597426473314 0.007964022546261787 0.0023264344078733207 0.0031935425685115093
          0.0029821004311967603 0.0007437111640799521 0.0013106598079785925 0.0021516615108402304 0.0009396078184963352 0.0021002000734294812
          0.007367626648469794 0.011143930784938583 0.0073967437070969755 0.0018956270812063303 0.0022150489459233647 0.000499519889629374
          0.0007158331611510915 0.0013392652757776846 0.002247212093376638 0.0013001927915859829 -0.0005838896848200659 0.0009861817339897744
          0.00025278265726788596 0.0005803220453259143 -0.001025449490583183 0.0009060135455697393 0.00013249051433143755 0.001069623392298616
          0.0033297672695354885 0.002316145049253454 -0.00010960939927992519 0.001118420136276721 0.007975659895810144 0.001740545814089639
          0.006827314946236562 0.009665762937656974 0.006392192308007777 0.009373935989135385 0.011194409992030696 0.007580680367023723
          0.0019047624212471595 0.0007232567801403605 0.0008684748421806388 0.004148386980423274 0.003262318586757393 -0.00043339751490950595
          0.0006718094814230913 0.0018272084033068292 0.0030508008224856137 0.002717499442699757 0.002208284328880983 0.0012389125165173237
          0.0005108433491453623 0.0004789202954404992 0.0005383035152101145 0.0016960445402079971 0.000300056320687192 0.0011601553648492302
          0.0017534496703132396 0.0011724455745197593 -0.000251638347614061 0.0006870822106987001 0.0007506453916280992 0.0009304308356431756
          0.0014126881870099584 0.00024896434191813005 0.00013250556665622693 -0.00026992208971308995 0.004295814331182535 0.001562001135124974
          0.0018372175608412505 0.0024333773636675826 0.0050880810763028195 0.0031902499291909803 0.0043661735965906945 0.004668777703530476
          0.004809994385231192 0.000899236083707261 0.0046571612008203395 0.004213553002238246 0.0025816766011937387 0.0038862805316188798
          0.0007819453630491802 0.0012582628065156629 -0.0001854058644018275 0.0004912071462851997 0.0007166596475060016 0.0009971062864468916
          0.00205295179627879 -0.00011909620800723553 0.0022383657980895033 0.0020681457590824848 0.0034669387022457296 0.0022247006383763757
          0.0013879264025485755 0.004157727413666296 0.0035810017573740943 0.00036082720750652 -0.00020898820269027452 -0.00042937158994538205
          -0.0007437697558734246 -0.00003745351971062849 -0.00014479483719581632 0.009193292671178493 0.016511765578942017 0.00979817014315032
          0.0024415285232131934 0.001267213144509921 0.0009794235205158597 0.001621128021263435 0.001236508914459311 0.001084816217204132
          0.0002981376146583836 0.000965555949386826 0.004264796945292054 0.0019462022827893555 0.0009248716739120033 0.001847029008757467
          0.0038859480790044143 0.004966465064506181 0.003314968224986392 0.004137343111521058 0.005915757660316254 0.0061625599353276606
          0.0005172226797236501 -0.0009472789249282132 0.0005706019224941128 0.0040743869808959575 0.0009536951547539085 0.0018128466317374851
          0.0012836560238244782 0.005901512665067235 0.0020066463301612047 -0.0005314500689892476 -0.00015687078507808927 -0.0009162939898416655
          -0.0009694178025017042 0.0005915600783471531 0.00022875269704059065 0.0001697298626836541 -0.0002886830185396816 0.0001424973726736889
          0.003993349919794428 0.0009552512656150897 0.0035352846416395883 0.0005269937899187171 -0.0007393386480850639 0.000347222247386314
          0.005979901000777985 0.006007477107341785 0.0054828992504692975 0.009295706194169473 0.013214989844005043 0.007302286357252108
          0.0009269609502340903 0.001317910055531002 -0.000051385570170814354 -0.00020939885052978502 0.0003254262276370934 0.000779840063153181
          0.006600288605644822 0.0012175376718938924 0.004201712707553207 0.00328755156533167 0.0014413703344438034 0.0018949164238556415
          0.006181677664007498 0.0038451719487427732 0.007204527151044748 0.0010645736741924164 -0.0004895855928173168 0.00019302869021929625
          0.005847364224001728 0.006895076720895843 0.005428023354399458 0.0026903987048000066 0.0012349166775604409 0.001691834010294796
          -0.11552292171495232 0.00031952148411251713 -0.1821622135772536 -0.20766014757663082 -0.00020471986528691755 -0.3434410456718788
          -0.029274317941168138 0.0001440961335283375 -0.1268011168189067 0.003928848014640995 0.00011293506957066324 0.001723933322873572
          0.006326438250639166 0.003441358756026608 0.00007396098172912646 -0.00008357340085091147 0.0019251239201399512 0.0009216739692154557
          0.0033228024562914626 -0.0012290812731948209 0.0019588857221280453 0.007376956476579571 0.007544273252988995 0.0052648502887799875
          -0.3383984402942332 -0.6710595485197299 -0.3556687572346889 0.005365657881600691 -0.000885202086615286 0.002125746644145013
          0.004761786101802279 0.003729066387993918 0.0008827182830968006 0.0015481972713420333 0.004264812567603693 0.005248843739687592
          0.0073180958380232655 0.005993464208267584 0.004859132850889035 0.006338825306170234 0.008263094915379363 0.005282612491839061
          -0.0009078920379889388 -0.0020344999930048957 -0.0010167685089245704 0.006933024012883232 0.0009343579537180458 0.0022259143144622087
          0.00019920048642108057 0.0001602889018539888 0.00031574138135243013 0.009464210365816031 0.012814032065392333 0.007145122284571634
          0.004529853302425842 0.004567037205246045 -0.0010658296084537847 -0.000026452096909615475 0.0009357049637865184 0.001903122286881699
          0.002981765309333276 0.003998049816702039 0.0013194826751608858 0.004260662453383312 0.006187159530862657 0.00652220555707185
          0.010898455187619949 0.0031697989525997367 0.005703589442532242 0.009280392872015493 0.011909758051678113 0.007432302309425952
          0.006526882331055181 0.005138513112287302 0.004512160962119378 0.0081259578549997 0.012376762128969099 0.006019139237805338
          0.4565804014609642 -0.0056536108752720665 0.8914899368066517 -0.008577584454612722 0.3509143061794058 -0.0014745193432953302
          0.005220101889039242 0.007417631298341196 0.003913089446752883 -0.00543779381151413 -0.011227368313850516 -0.004272420295484247
        </DataArray>
        <DataArray type="Float64" Name="resid_z" format="ascii" RangeMin="0" RangeMax="0">
          0 0 0 0 0 0
          0 0 0 0 0 0
          0 0 0 0 0 0
          0 0 0 0 0 0
          0 0 0 0 0 0
          0 0 0 0 0 0
          0 0 0 0 0 0
          0 0 0 0 0 0
          0 0 0 0 0 0
          0 0 0 0 0 0
          0 0 0 0 0 0
          0 0 0 0 0 0
          0 0 0 0 0 0
          0 0 0 0 0 0
          0 0 0 0 0 0
          0 0 0 0 0 0
          0 0 0 0 0 0
          0 0 0 0 0 0
          0 0 0 0 0 0
          0 0 0 0 0 0
          0 0 0 0 0 0
          0 0 0 0 0 0
          0 0 0 0 0 0
          0 0 0 0 0 0
          0 0 0 0 0 0
          0 0 0 0 0 0
          0 0 0 0 0 0
          0 0 0 0 0 0
          0 0 0 0 0 0
          0 0 0 0 0 0
          0 0 0 0 0 0
          0 0 0 0 0 0
          0 0 0 0 0 0
          0 0 0 0 0 0
          0 0 0 0 0 0
          0 0 0 0 0 0
          0 0 0 0 0 0
          0 0 0 0 0 0
          0 0 0 0 0 0
          0 0 0 0 0 0
          0 0 0 0 0 0
          0 0 0 0 0 0
          0 0 0 0 0 0
          0 0 0 0 0 0
          0 0 0 0 0 0
          0 0 0 0 0 0
          0 0 0 0 0 0
          0 0 0 0 0 0
          0 0 0 0 0 0
          0 0 0 0 0 0
          0 0 0 0 0 0
          0 0 0 0 0 0
          0 0 0 0 0 0
          0 0 0 0 0 0
          0 0 0 0 0 0
          0 0 0 0 0 0
          0 0 0 0 0 0
          0 0 0 0 0 0
          0 0 0 0 0 0
          0 0 0 0 0 0
          0 0 0 0 0 0
          0 0 0 0 0 0
          0 0 0 0 0 0
          0 0 0 0 0 0
          0 0 0 0 0 0
          0 0 0 0 0 0
          0 0 0 0 0 0
          0 0 0 0 0 0
          0 0 0 0 0 0
          0 0 0 0 0 0
          0 0 0 0 0 0
          0 0 0 0 0 0
          0 0 0 0 0 0
          0 0 0 0 0 0
          0 0 0 0 0 0
          0 0 0 0 0 0
          0 0 0 0 0 0
          0 0 0 0 0 0
          0 0 0 0 0 0
          0 0 0 0 0 0
          0 0 0 0 0 0
          0 0 0 0 0 0
          0 0 0 0 0 0
          0 0 0 0 0 0
          0 0 0 0 0 0
          0 0 0 0 0 0
          0 0 0 0 0 0
          0 0 0 0 0 0
          0 0 0 0 0 0
          0 0 0 0 0 0
          0 0 0 0 0 0
          0 0 0 0 0 0
          0 0 0 0 0 0
          0 0 0 0 0 0
          0 0 0 0 0 0
          0 0 0 0 0 0
          0 0 0 0 0 0
          0 0 0 0 0 0
          0 0 0 0 0 0
          0 0 0 0 0 0
          0 0 0 0 0 0
          0 0 0 0 0 0
          0 0 0 0 0 0
          0 0 0 0 0 0
          0 0 0 0 0 0
          0 0 0 0 0 0
          0 0 0 0 0 0
          0 0 0 0 0 0
          0 0 0 0 0 0
          0 0 0 0 0 0
          0 0 0 0 0 0
          0 0 0 0 0 0
          0 0 0 0 0 0
          0 0 0 0 0 0
          0 0 0 0 0 0
          0 0 0 0 0 0
          0 0 0 0 0 0
          0 0 0 0 0 0
          0 0 0 0 0 0
          0 0 0 0 0 0
          0 0 0 0 0 0
          0 0 0 0 0 0
          0 0 0 0 0 0
          0 0 0 0 0 0
          0 0 0 0 0 0
          0 0 0 0 0 0
          0 0 0 0 0 0
          0 0 0 0 0 0
          0 0 0 0 0 0
        </DataArray>
        <DataArray type="Float64" Name="stress_zz" format="ascii" RangeMin="-5425994.353048054" RangeMax="5341393.202576918">
          -1376389.1218536093 -622376.923520141 -1093560.744124046 -2149274.738206232 -1465924.5699689048 -696063.3448840913
          -1115923.1567997164 -2155088.6838328945 -1555460.0180842003 -769749.7662480418 -1138285.5694753868 -2160902.629459557
          352742.4953143966 83243.96777045567 335264.3951786477 873121.2003869687 359789.541569182 30571.207380837935
          309246.1152874887 877887.6907031866 366836.5878239672 -22101.553008779796 283227.8353963297 882654.1810194042
          -1129558.43090046 -670983.4936895085 -1190427.386466856 -630878.1651435059 -1251296.3420332521 -590772.8365975036
          -1807799.8011944043 -351768.7119235289 -401035.2957884546 -3004695.137669818 -1772042.7002015305 -334162.5931111187
          -584704.6836195824 -3276937.448117083 -1736285.5992086567 -316556.4742987087 -768374.0714507104 -3549179.7585643474
          841481.1629798647 2011878.51794586 792861.8522818235 1962935.7573309147 744242.541583782 1913992.9967159699
          1884806.8439782758 3842872.4234138653 3794008.724801107 1334167.5563540533 1919574.304406431 4116710.0350190564
          3718663.7993375277 1093470.9323691754 1954341.7648345865 4390547.646624248 3643318.873873949 852774.3083842972
          2165051.4655219926 2435085.141138331 1612654.3846576249 1864771.230707447 2274635.9329753527 2421306.7970401114
          1721961.7765464417 2026561.7555261166 2384220.400428712 2407528.4529418917 1831269.168435258 2188352.280344786
          -3124585.7701312215 -1961151.597480144 -3145828.9940020884 -2045076.01374334 -3167072.217872956 -2129000.4300065357
          -1072994.5611217557 1898517.1421680767 3894080.2417669073 2156888.3500063783 -1130113.654921734 1967584.2097998264
          3783919.4893078445 2108954.241357442 -1187232.7487217123 2036651.2774315756 3673758.736848781 2061020.1327085057
          1055526.2751333776 1154502.659558153 2310808.815166145 1014133.1148150328 1092056.151032816 2437372.4177319026
          972739.9544966879 1029609.6425074788 2563936.0202976596 3028983.735118391 2553375.3367226366 1459882.089914424
          3015942.664243931 2934125.0060407007 2595946.1734324363 1547584.7175418863 2867999.6925808517 2839266.2769630114
          2638517.010142236 1635287.3451693482 2720056.7209177725 159912.81276056907 260666.02400552348 940125.7745861707
          507359.8688166626 87112.76892437716 368355.2325216279 1042931.3158597625 446523.6305814197 14312.725088185281
          476044.4410377324 1145736.8571333543 385687.3923461767 172386.13962577845 260843.57500183332 349301.01037788833
          2078347.3660316041 3210724.8483003983 1664320.44045332 2100069.7280707583 3276568.0627512266 1810558.3917943155
          2121792.0901099127 3342411.277202055 1956796.3431353113 964417.094053198 397838.2321973219 896591.3699865795
          502388.4583127041 828765.645919961 606938.6844280864 868049.0167410446 1768335.6616865105 2617678.586106459
          2480013.4297177116 889848.3954871611 1798747.6729025703 2613562.7805905496 2497603.5275387955 911647.7742332775
          1829159.68411863 2609446.9750746395 2515193.6253598784 -1601572.0818276096 -4342598.319355791 -5136487.427216795
          -4117935.042217795 -1755280.5016101268 -4551002.020625192 -5281240.890132424 -4344063.359381648 -1908988.921392644
          -4759405.721894592 -5425994.353048054 -4570191.676545501 3900763.5838246774 2202161.98983681 3711884.874284137
          3938919.857646935 2241250.039402845 3779581.7690817197 3977076.131469193 2280338.08896888 3847278.663879303
          -3958835.6937852814 2285102.974641722 -3866988.326612191 2309059.9233277305 -3775140.9594391 2333016.872013739
          308107.9935471175 1185005.2064419314 -908375.4554987611 -874834.8145970546 272211.0314266988 1219209.5507902955
          -919776.2847431925 -1011117.1880656709 236314.0693062799 1253413.8951386595 -931177.1139876237 -1147399.5615342876
          2721789.108598958 1815740.2059420934 2722584.1028712858 1897823.7037771181 2723379.0971436147 1979907.201612143
          -12148.872092407604 -518891.5076350224 70241.55653594839 -483247.55901277176 152631.98516430438 -447603.6103905211
          1129435.8254572572 1629716.058017405 1052647.9763919495 1668286.9432240054 975860.127326642 1706857.828430606
          -2402329.60185486 -3362896.809950553 -3565997.091358465 -2249571.59870987 -2452179.2294154125 -3420927.334135474
          -3560508.8036503014 -2207919.9668805283 -2502028.856975966 -3478957.8583203964 -3555020.5159421377 -2166268.335051187
          1922957.910258868 -2386128.675926456 1940478.2626684234 -2790156.9569717404 1957998.615077979 -3194185.238017025
          -657074.3156252814 -625489.9638642588 -593905.6121032364 1691675.0240579701 2346336.575412004 1723665.0781616308
          2360488.9883775203 1755655.1322652916 2374641.401343037 590963.5029669793 976051.6625625265 373376.98646357155
          587673.2059210513 942877.0488660171 273266.01105451456 584382.9088751234 909702.4351695076 173155.03564545768
          -1667073.6598198516 -1253340.7105792034 -2116588.7429522513 -1623298.1024788388 -1162761.1345407304 -2088251.9279818614
          -1579522.5451378261 -1072181.5585022573 -2059915.113011471 2895043.503961647 3163143.2917619217 3431243.079562197
          3755503.7416471518 4021907.5844384087 4288311.427229665 224691.87528501335 522090.10199624684 159468.21211912422
          523658.7935391081 94244.54895323503 525227.4850819694 -391892.39305008395 -250300.72501968342 -108709.05698928295
          -2158669.12778969 1216106.8402508597 59502.72012724599 -2176666.205531135 1296352.7247130433 9877.031919037749
          -2194663.2832725793 1376598.6091752264 -39748.656289170554 -446520.47594540165 584959.4207110817 -608527.7376678148
          443264.4115610624 -770534.999390228 301569.40241104306 -1104818.2614017753 -1010132.2363156849 -1420868.8079783923
          -1428285.6095314594 -1175572.863036547 -1030374.0607959622 -1457135.4812836363 -1496577.3932735282 -1246327.4646713184
          -1050615.8852762396 -1493402.15458888 -1564869.177015597 472416.11138472083 -507761.4712580389 -322104.47101752623
          628405.7257612224 440282.2933069854 -493159.09073537943 -332199.32815347635 558785.4784322768 408148.4752292499
          -478556.71021272 -342294.18528942653 489165.2311033309 1486455.9592588053 559235.9121646575 -8553.187226137612
          1534652.3098208108 548709.83973863 -87845.2885021578 1582848.6603828166 538183.7673126025 -167137.38977817804
          2870172.6805495108 2908953.468993073 2947734.257436635 801656.158774195 681954.8800863422 562253.6013984894
          -522151.30379221676 -1111736.902246681 -478536.5339053697 -1037643.8358316555 -434921.76401852263 -963550.7694166303
          -616693.4205563413 -764242.8217005573 -616952.6236924815 -725805.2461037852 -617211.8268286219 -687367.6705070133
          4052638.883452486 4163674.3454041625 4274709.807355838 29480.739113144344 -614423.9782825038 753230.4626089501
          1023350.4225256738 73645.72671809059 -674035.239920505 735497.3247152452 1098423.6884053755 117810.7143230368
          -733646.5015585059 717764.1868215402 1173496.954285077 -472713.8864787805 -520788.7986356938 -568863.7107926069
          -218823.10009877157 -175728.19672149853 -132633.2933442255 -1964161.875040798 -3715291.679810124 -1974102.781142012
          -3780636.391104351 -1984043.6872432255 -3845981.102398577 -671030.6726946648 -716128.4772543435 -761226.2818140218
          -4057544.8776256773 -2598427.0857081646 -4047634.1815849356 -2534988.589539964 -4037723.485544194 -2471550.093371764
          -3924514.2828706563 -4673207.679759741 -5421901.076648827 -1174967.3985405702 -1015135.7937956576 -1139709.882150668
          -967878.4222447508 -1104452.365760766 -920621.0506938441 -880283.0100069228 -877349.6362905999 -874416.262574277
          537692.4668267935 527528.2896226555 517364.1124185174 -1032602.6923767414 -1008323.260017754 -984043.8276587669
          -2986676.843822498 -1898626.0300216095 -3414689.964055602 -2234164.9288035044 -3842703.084288706 -2569703.8275853996
          95836.58642288134 153457.3787111477 211078.1709994141 -2745601.1759757427 -646710.002032359 -2918200.722186784
          -678580.8552494885 -3090800.268397825 -710451.7084666181 3929354.0292610847 1595011.417183185 2366974.823272633
          3862246.097144067 1446384.3612489244 2154051.7883817996 3795138.1650270494 1297757.3053146643 1941128.7534909674
          2017790.0972460501 1897944.6477879577 2129804.989794656 2027924.2494060085 1873807.501763427 2092708.3673386397
          2038058.4015659667 1849670.3557388964 2055611.7448826232 2098231.4651088174 4012592.345097115 2147907.395623151
          4191693.375653295 2197583.3261374845 4370794.406209474 689377.4459553713 735445.9267461523 322028.76431775163
          754300.7006347122 739249.6864295386 320670.4946782562 819223.9553140532 743053.446112925 319312.2250387609
          -733601.6815546234 365450.0931118352 -781586.8581243652 407285.31260203035 -829572.034694107 449120.53209222556
          35944.97336277062 29237.84964430514 22530.725925839666 1252056.527205252 2025879.1174739134 1211360.3359525725
          2044878.0753367494 1170664.1446998927 2063877.0331995853 2567709.478653878 2242784.1529828054 2539048.933480453
          2120638.472323101 2510388.3883070285 1998492.7916633976 -218525.5005380771 277587.19151566236 -426348.2867073638
          130444.47060528648 -634171.0728766506 -16698.250305089285 -889197.0730252597 -821167.3467248752 -753137.6204244907
          1168474.2388171852 640537.1136494274 1233122.1668531068 660537.476763584 1297770.0948890285 680537.8398777404
          1431408.8236627562 1524834.0445497434 1618259.2654367303 719013.6560308882 796560.7152415966 874107.7744523048
          1994328.9159912718 2078605.0757608945 2162881.235530517 1175485.4230056808 1305475.194733161 1435464.9664606408
          -97728.37266577037 -56958.73033670528 -16189.088007640326 -1518840.567588405 1829240.847808488 -1664003.0381211194
          2153703.0232675467 -1809165.508653834 2478165.198726606 -65259.65899733937 -368360.5480017202 -87549.80042748057
          -351489.0136396262 -109839.94185762174 -334617.47927753243 -3519349.2612004364 -3555701.9244125984 -3592054.5876247603
          56956.394338051585 74902.68231568296 92848.97029331433 -487328.643150133 -469426.6888458811 -451524.7345416291
          1846874.8650087495 1825422.594602469 1803970.3241961885 827942.0345672253 1231422.879363355 1634903.7241594845
          -993679.8568704186 -1001204.4623013521 -1008729.0677322857 2583585.5884208614 2037846.3840418607 2605248.920932132
          2107369.338090655 2626912.2534434022 2176892.2921394496 1886718.9775470062 1906276.9391090947 1925834.9006711827
          982429.6639082257 1180712.7093215068 960862.7514698133 1013177.8105825545 939295.8390314011 845642.9118436025
          766293.6960809069 422740.0743791987 527060.3253709269 727483.9767573613 428804.1320929019 500942.04232208966
          688674.2574338156 434868.189806605 474823.7592732524 259292.77612613927 234506.4078058753 209720.0394856113
          1679217.1561079773 1711551.2237011434 1743885.2912943093 795799.4483246538 1816007.8309766222 794462.9466453553
          1875104.4174288642 793126.4449660568 1934201.0038811057 2331753.8566244594 3036664.9575204244 2363561.482013584
          3065577.932872136 2395369.1074027084 3094490.9082238474 3826483.9580431795 3914157.67598815 4001831.39393312
          3250894.805662248 4447609.653387025 3215746.6957080704 4561161.119796947 3180598.5857538935 4674712.586206867
          -3905157.1002788898 1488822.657135634 -2078451.1746652229 -4102421.579870837 -3994730.4723310396 1864657.925386697
          -2047187.2739756242 -4038402.209627426 -4084303.844383189 2240493.1936377594 -2015923.3732860251 -3974382.8393840156
          -1104477.2744982706 -1040856.6312390792 -977235.987979888 -1757019.6138377376 -1693782.2565281792 -1630544.8992186203
          -452626.9238105259 -152910.423561211 -564561.2980490555 -342789.9158122968 -676495.6722875851 -532669.4080633825
          618542.3445503162 648035.0054000635 677527.6662498111 44010.70649398636 238891.799115149 110811.87774677557
          108975.83356194374 177613.0489995648 -20940.131991261558 -2543554.836330937 -3316131.4307638584 -2545131.0068279537
          -3376855.637482945 -2546707.1773249707 -3437579.8442020305 536618.377921844 601482.8231292478 666347.2683366516
          3575523.73133972 4859669.525590739 3721024.475172016 5100531.364083828 3866525.2190043116 5341393.202576918
          -3905663.041528063 -3285315.9023789484 -2395378.592605422 -3117020.513385754 -3917476.7946746987 -3218944.3652759353
          -2339938.2288104505 -3184519.499313351 -3929290.547821335 -3152572.828172922 -2284497.8650154793 -3252018.485240949
          -264688.8712558045 -277095.96204411495 -289503.05283242534 -2660987.4892957276 -3994371.018880146 -2678446.8471403746
          -3882997.013853906 -2695906.204985021 -3771623.008827666 264875.0077774145 3435199.5830065026 240829.43074001907
          3625142.9391219737 216783.8537026235 3815086.295237445 3588832.0136267985 3693672.2097385963 3798512.4058503946
          1834580.4774535033 1835919.2790108582 1837258.0805682128 -607601.8382578995 -661187.9727288509 -714774.1071998023
          -1567279.9414350786 -1647972.266013496 -1728664.5905919136 -3434322.3655573567 -3541956.635801257 -3649590.9060451575
          -1462562.6939500887 321013.3219054976 -1498894.6840114356 218792.8772157293 -1535226.6740727832 116572.43252596114
          -1624531.7207004377 -1687857.0731331315 -1751182.425565825 2679991.8756955955 3355027.328494171 4030062.7812927472
          1085225.5908766405 1052688.2878458756 1020150.9848151105 1266738.5348461946 1227419.284210979 1188100.0335757635
          -3897694.3179045827 -3912608.0695677474 -3927521.8212309126 2133444.8009698913 2161143.3472306305 2188841.8934913697
          3101621.718356127 3036829.978516681 4305441.45392793 3047586.9266707855 3053689.0183284283 4321787.785886282
          2993552.1349854446 3070548.058140175 4338134.117844634 1395626.8595104269 1781558.278731785 2167489.697953143
          305332.85692393966 1313067.121417715 134212.56993822532 1080680.1958326239 -36907.717047488964 848293.270247533
          -3238444.764174098 -3312233.5590725373 -3386022.353970976 -3775178.3097691694 -3752351.877145907 -3729525.444522644
          4667498.952002199 4616000.6723095225 4564502.392616845 -3525055.443115194 -3474746.2593796346 -3424437.075644076
          -336371.3230473363 158984.4682642317 -278332.950794822 189526.45810725883 -220294.57854230778 220068.44795028598
          -4436429.4648882095 -4447294.185502884 -4458158.9061175585 -1877519.94615424 -1981383.7218552525 -2085247.4975562654
          -4206916.063371642 -4740509.591539981 -5274103.11970832 84448.90189374547 107168.81093345257 129888.71997315963
          973822.1874755187 978987.8218414228 984153.456207327 2737823.792478802 2990456.289131315 3243088.785783827
          1293738.5169603385 958091.3748837695 1156515.4692282698 931756.1848364717 1019292.4214962011 905420.9947891736
          -1127807.5861515668 -1214801.2878171476 -1301794.9894827283 -1421217.010053237 -444193.69559762825 -1448915.2622799673
          -470844.33491792984 -1476613.514506698 -497494.9742382316 507738.00839224237 480054.67089394474 452371.333395647
          102264.16343943054 66924.37621487628 31584.588990322052 -1440313.3200343181 -1526419.0662733386 -1612524.81251236
          -699415.781074251 -2301727.2805360905 -508736.27760358865 -2221442.0627258876 -318056.774132926 -2141156.844915684
          -1291130.0612381613 -1280411.6699545102 -1269693.278670859 -2084707.1430836283 -2184800.2015862465 -2284893.260088864
        </DataArray>
        <DataArray type="Float64" Name="peeq" format="ascii" RangeMin="0.0011297861251188634" RangeMax="0.007698950615916798">
          0.0035015312689633876 0.0033720585669940015 0.0029109332070597436 0.0031183955368734115 0.0035009468189510667 0.0033713945868056624
          0.0029109194537394853 0.0031186316924788904 0.0035003623689387467 0.0033707306066173234 0.002910905700419227 0.0031188678480843692
          0.004997185780030064 0.004779761077025324 0.004860788899625162 0.00510658853431473 0.0049960395969324755 0.004779561748622703
          0.004861042519587696 0.0051062393987174205 0.004994893413834888 0.004779362420220082 0.004861296139550228 0.005105890263120112
          0.001940193499185572 0.0023131563771180003 0.001940442997308868 0.002313887493365229 0.0019406924954321642 0.002314618609612458
          0.006333989274825912 0.006452108682722547 0.00584213761594198 0.005878624365748567 0.006333937108142988 0.006451114341849884
          0.0058402562141975315 0.00587603773897551 0.0063338849414600615 0.006450120000977222 0.00583837481245308 0.005873451112202452
          0.0050113177561667156 0.005287721562621766 0.005012738945738917 0.0052883385886791845 0.005014160135311118 0.005288955614736603
          0.0045698809058890896 0.004365275632339803 0.004452290211232414 0.004705577388734356 0.004568145164607734 0.0043664993448165575
          0.004449097571277302 0.0046977880583934685 0.004566409423326377 0.004367723057293314 0.004445904931322192 0.00468999872805258
          0.006107286343828153 0.006628611553746321 0.006286349421064677 0.005848260846832918 0.006105583233324746 0.006623522990931828
          0.006283183404635191 0.005847693883024728 0.006103880122821337 0.0066184344281173335 0.006280017388205704 0.005847126919216539
          0.003323572831314011 0.003627030571577581 0.003324502149971549 0.003626957257127892 0.003325431468629087 0.0036268839426782033
          0.004271271190865867 0.003990431218278582 0.005088340310316939 0.005191679528646436 0.004267037440498315 0.003987268836449948
          0.005084505575250536 0.005188529452053292 0.004262803690130764 0.003984106454621314 0.005080670840184134 0.0051853793754601495
          0.003959765761104328 0.004064676973614773 0.004431970978905317 0.003958436845289848 0.004063382883061433 0.004431288363704302
          0.003957107929475367 0.004062088792508092 0.004430605748503288 0.007313819304789069 0.007608119850865532 0.007458394333597861
          0.007205171469168915 0.007306074904743857 0.007601818874561711 0.0074513122061454365 0.007197011517771437 0.007298330504698646
          0.007595517898257892 0.0074442300786930135 0.00718885156637396 0.005147134860139791 0.005397297961592579 0.005056805528305808
          0.004984593105145767 0.005146033288174718 0.005397409868677507 0.005057607880095067 0.0049842153662027116 0.005144931716209646
          0.005397521775762436 0.005058410231884325 0.004983837627259657 0.006104149783030874 0.006104445756217207 0.0061047417294035405
          0.004601756767017569 0.0044015724767339755 0.00423234458111695 0.004601272863875838 0.004401473962341742 0.004233544616436472
          0.0046007889607341075 0.00440137544794951 0.004234744651755994 0.005251902812629733 0.005659408321022061 0.00524988017848181
          0.005659042545554171 0.005247857544333888 0.005658676770086281 0.006797587666424208 0.006480213970921625 0.006791663915497721
          0.007167093810812707 0.006798048766576388 0.006481655635147901 0.006792182758842203 0.007166069373264858 0.006798509866728568
          0.006483097299374176 0.006792701602186683 0.007165044935717008 0.0028741026849185645 0.0033281736033590253 0.0024886405599448837
          0.0018070108044475363 0.002872213087974699 0.003324312494693016 0.0024872218658587176 0.001810659202529394 0.0028703234910308325
          0.0033204513860270062 0.002485803171772552 0.0018143076006112515 0.005781381880762855 0.005535744471211613 0.005497893778465414
          0.0057831727692417385 0.005536482459417807 0.005500070447152104 0.00578496365772062 0.005537220447624001 0.005502247115838793
          0.0012735873013229898 0.00264141556740453 0.0012812084038547828 0.002640413967313851 0.0012888295063865757 0.002639412367223172
          0.004943913993074112 0.005060844572068148 0.0055751696367908905 0.0057371630151226895 0.004941309600607781 0.005059912303913261
          0.005572838777574777 0.005731688669278411 0.004938705208141449 0.005058980035758374 0.005570507918358664 0.005726214323434132
          0.006120046122339042 0.005814315257541141 0.006121928840164975 0.00581509270378835 0.006123811557990909 0.005815870150035559
          0.004115601158468327 0.0044242056876032075 0.004110769906059471 0.004418249685445992 0.0041059386536506145 0.004412293683288775
          0.005895892339556556 0.005255639240079435 0.005891647651283756 0.005254624410534323 0.005887402963010956 0.00525360958098921
          0.003717192372158918 0.0034747217235519836 0.0034568070180862895 0.0037946282311978837 0.0037182797707273393 0.003476399825869667
          0.0034591424744572184 0.003796864472754996 0.00371936716929576 0.0034780779281873508 0.003461477930828147 0.0037991007143121074
          0.004026031456366839 0.003822652646889714 0.004026360393964249 0.0038215879873288194 0.004026689331561658 0.0038205233277679254
          0.0037481003956768566 0.0037436709301840267 0.0037392414646911978 0.004666313092461653 0.004494570683817683 0.004668009320540773
          0.004495717453055123 0.0046697055486198905 0.004496864222292561 0.004683848784422292 0.004676302657907733 0.004685011135987403
          0.004681878480455592 0.004674503715502714 0.004679833393910753 0.004679908176488894 0.004672704773097695 0.004674655651834104
          0.003978186522219066 0.004227437217223306 0.0033455579406413733 0.003974667661494611 0.004225079314415842 0.003341574060880959
          0.0039711488007701575 0.004222721411608379 0.0033375901811205444 0.004012526424243841 0.004015685800618356 0.004018845176992872
          0.0038502458491218236 0.003847514588335469 0.0038447833275491146 0.005184707808931553 0.005291383606276165 0.005181511379199307
          0.005287420298729287 0.005178314949467062 0.0052834569911824085 0.004459147310320919 0.004457148596808609 0.004455149883296299
          0.0035464293853675172 0.003915071240397014 0.004203059933403267 0.003549070324060631 0.003918255629019335 0.004202809288901018
          0.003551711262753745 0.0039214400176416555 0.004202558644398767 0.006269918927142614 0.006467991698957941 0.0062625440161354195
          0.006460855184317714 0.006255169105128225 0.006453718669677485 0.0018872860763335456 0.001613483746944279 0.001636594979887843
          0.002016874438487859 0.0018875006583488462 0.0016144818339601267 0.0016381754106181306 0.0020174418527731915 0.0018877152403641469
          0.0016154799209759745 0.0016397558413484181 0.0020180092670585245 0.0031044468159145467 0.0025792051423929566 0.002728734278951026
          0.0032430563598286766 0.0031044145562583053 0.0025797974355338603 0.002728865619735961 0.0032424913829151958 0.003104382296602065
          0.0025803897286747644 0.0027289969605208972 0.0032419264060017145 0.0049463305827439534 0.004634672177819267 0.004998807397301132
          0.004944548372560751 0.004633454517731596 0.004996353816889595 0.00494276616237755 0.004632236857643922 0.0049939002364780575
          0.00455873994981583 0.004558806677723172 0.004558873405630513 0.004660407443792584 0.0046521477891424 0.004643888134492214
          0.001382942080268681 0.0012801935546093535 0.001385316367555513 0.0012830901476427882 0.0013876906548423449 0.0012859867406762224
          0.0021016572509032837 0.002456429801285007 0.002102694261477039 0.002457387595494427 0.0021037312720507944 0.002458345389703847
          0.00429069586397508 0.004292588023556278 0.004294480183137479 0.0039029221656086263 0.004193112315135688 0.004132502746025392
          0.0037060736204008586 0.003903795617139627 0.004193582692185396 0.004132016464033131 0.0037060344521655784 0.003904669068670627
          0.004194053069235103 0.00413153018204087 0.003705995283930298 0.004555069216822107 0.00455424757038067 0.004553425923939232
          0.0039132302069703525 0.003914023844050231 0.003914817481130111 0.0043131167778906725 0.003826492551066899 0.004313257606555113
          0.003826511942359828 0.004313398435219553 0.0038265313336527567 0.0033550862362354086 0.0033591427276736417 0.003363199219111876
          0.00355163196879864 0.00395328029202288 0.0035532602990964502 0.003955575930990469 0.0035548886293942606 0.003957871569958058
          0.0034021786940416705 0.003402178408405572 0.0034021781227694726 0.0040666427493068575 0.004159785546695594 0.004067548026006793
          0.004161610586426408 0.004068453302706729 0.004163435626157222 0.003991136650164992 0.003991568924425561 0.0039920011986861285
          0.0036119033344734494 0.0036111412837619445 0.0036103792330504396 0.004331975311161553 0.004334647941097098 0.0043373205710326435
          0.003030416127088516 0.003492648263812081 0.0030305086452289322 0.0034926994899502615 0.0030306011633693475 0.0034927507160884426
          0.004687209353863807 0.004688958034321667 0.004690706714779527 0.005192751864208457 0.005110759309107574 0.005190308529262815
          0.00510907015131675 0.005187865194317172 0.005107380993525925 0.006704710643108521 0.006988169469601047 0.00667444768620067
          0.006699319232984441 0.006980695578165587 0.006669710144113729 0.00669392782286036 0.0069732216867301276 0.006664972602026787
          0.007610036298766568 0.0074116569748409085 0.007352357868416573 0.007605816816042473 0.007409519247169042 0.0073491317876805415
          0.0076015973333183745 0.007407381519497174 0.007345905706944511 0.003087628842370782 0.003814573839310062 0.003090257487150791
          0.0038179127172264 0.0030928861319308 0.003821251595142738 0.005145394462747822 0.005076449868701663 0.00502016329829359
          0.005143583450819337 0.005073736948428453 0.005018339198192664 0.005141772438890852 0.005071024028155244 0.005016515098091739
          0.0054890214711274515 0.00529193743371279 0.005487270415122853 0.005291296260101967 0.005485519359118253 0.005290655086491144
          0.0027322004266359095 0.002732688233666851 0.0027331760406977927 0.007486899440448289 0.007698950615916798 0.007484457067665146
          0.007695162307431876 0.007482014694882002 0.007691373998946954 0.007658985420019509 0.0073556157926620335 0.007653129210638874
          0.007348230367599127 0.00764727300125824 0.007340844942536222 0.006650489419906706 0.0069164164931798475 0.006642346669768947
          0.0069078744720491615 0.006634203919631189 0.006899332450918476 0.005988504597572576 0.005985654797988775 0.005982804998404975
          0.0070657856729886784 0.007002024047592521 0.00706442342432793 0.007001291777799043 0.007063061175667181 0.007000559508005564
          0.0064737392770959435 0.006471882691023684 0.0064700261049514245 0.0044207393563354055 0.004421478075559228 0.004422216794783051
          0.005779996051975543 0.005778120037751124 0.0057762440235267064 0.004346940350206452 0.004348506251016238 0.004350072151826025
          0.004383509584536109 0.004384449808383176 0.004385390032230242 0.0052047353403269925 0.005053719778469339 0.005205968211618771
          0.005055979603632071 0.005207201082910551 0.005058239428794803 0.004690486651755676 0.004529414059828822 0.004692821615927709
          0.004530696494429983 0.004695156580099741 0.0045319789290311436 0.0032607971249619654 0.0032622496284872805 0.003263702132012596
          0.002966835186046984 0.0029673525438805165 0.0029678699017140495 0.004442156584925334 0.0044428360271021785 0.004443515469279024
          0.004766277167079634 0.004766436253521821 0.004766595339964007 0.002673751362068671 0.002679583022721663 0.0026854146833746547
          0.002364437396536409 0.0023666983215880773 0.002368959246639746 0.006005507403394194 0.005445252260729266 0.0060051680351167445
          0.005447358249266466 0.006004828666839294 0.005449464237803663 0.006553053768355157 0.006550173161461884 0.006547292554568612
          0.00718406108056535 0.006866690937395559 0.007175758201323724 0.006858174177180526 0.007167455322082098 0.0068496574169654946
          0.0034889845948359614 0.003822241643609875 0.0033388800530976983 0.0034881721399046685 0.0038213971722667597 0.0033386118050170587
          0.0034873596849733764 0.0038205527009236447 0.0033383435569364203 0.0031815261427227156 0.0031819985457153034 0.0031824709487078915
          0.0070283108987357155 0.007023442654453126 0.007018574410170535 0.0047424631442411 0.004742019636029386 0.004742451580354855
          0.004741856195121255 0.004742440016468612 0.004741692754213123 0.00698032950562071 0.006521773178168713 0.0069789292159711264
          0.006522378660385321 0.006977528926321544 0.006522984142601931 0.006040442495915248 0.006042852446613738 0.006045262397312227
          0.006369071548846717 0.0059653487121204525 0.006370953243119473 0.005968224958841989 0.006372834937392228 0.005971101205563527
          0.00169308172896336 0.0019665739866470116 0.0017885225760530714 0.0014912991904514016 0.0016982780063691952 0.001973709414646346
          0.0017938404554405 0.001496971807428881 0.0017034742837750303 0.001980844842645681 0.0017991583348279296 0.0015026444244063606
          0.0022504370561939988 0.0022517339233328474 0.002253030790471697 0.0029285201332135626 0.0029340391376046163 0.0029395581419956705
          0.004818301668551049 0.004857613712553034 0.00481621780240387 0.0048558941005837925 0.004814133936256693 0.004854174488614552
          0.0049835166366275305 0.004986532274209954 0.004989547911792377 0.005241455741839787 0.0051538415401451935 0.005239155521976124
          0.005149750141159585 0.005236855302112462 0.005145658742173976 0.0036973035833304064 0.002936823408017381 0.003692750052641249
          0.002933568852012774 0.003688196521952092 0.0029303142960081657 0.0036478846931758658 0.003648205979280192 0.0036485272653845177
          0.005594999306095981 0.0056803063014167834 0.005598606277229548 0.0056837462825556585 0.0056022132483631165 0.005687186263694534
          0.0026530080530386244 0.002810211727699405 0.0024964180832279595 0.0022382952440435254 0.0026545281260627294 0.002811748027537729
          0.002497860959699942 0.0022399734711192735 0.0026560481990868354 0.0028132843273760526 0.0024993038361719243 0.002241651698195021
          0.0047522421993484954 0.004749523102731077 0.0047468040061136585 0.0018287587538745602 0.001494838277970199 0.0018311744906804382
          0.0014990647430030129 0.0018335902274863164 0.0015032912080358268 0.005279590976600608 0.006007346756530135 0.005276867091024894
          0.006005027510118844 0.005274143205449182 0.006002708263707556 0.006033811510873209 0.006029830980385272 0.006025850449897334
          0.004834200143813216 0.004832306051622439 0.004830411959431662 0.0046606918254802785 0.004656919549810454 0.004653147274140629
          0.0022034511135699854 0.0022072096935776423 0.002210968273585299 0.0014427471295634497 0.001445905906198738 0.001449064682834026
          0.004508322814502407 0.005305065418813156 0.004503712074511096 0.005302526913297928 0.004499101334519785 0.0052999884077826985
          0.0016953990271010937 0.0016972830049624202 0.0016991669828237467 0.002294310398537653 0.0022995146846044603 0.0023047189706712663
          0.00501908850987008 0.005015715530136332 0.005012342550402583 0.007359836763908247 0.007354040542085546 0.007348244320262846
          0.0013035807604655145 0.0013074008526860444 0.001311220944906574 0.00524589697480423 0.005248949804789974 0.0052520026347757185
          0.006822658654324798 0.006780870119954104 0.006050237139979408 0.006816433573528761 0.006774821928276324 0.006045442778367997
          0.006810208492732724 0.006768773736598544 0.006040648416756584 0.002378935179928948 0.002386302484101443 0.002393669788273937
          0.005184274724228496 0.005053922488401158 0.005179508473166102 0.005049664356478211 0.0051747422221037065 0.0050454062245552656
          0.002697390992699701 0.0027001170925903804 0.002702843192481059 0.003135865904818831 0.0031377209562327446 0.0031395760076466583
          0.005036684526188049 0.00503247260961583 0.005028260693043612 0.001403622697727874 0.0014072903722809295 0.0014109580468339856
          0.0023651265239499463 0.002837568028047248 0.002366094073085305 0.002838295996711207 0.0023670616222206636 0.002839023965375166
          0.0031084420281602245 0.0031099103443577515 0.0031113786605552786 0.0011297861251188634 0.0011319189928195514 0.0011340518605202398
          0.00546366576299918 0.005462065931341135 0.00546046609968309 0.005304366729076386 0.005301023364210017 0.005297679999343649
          0.007527601311979067 0.0075218926672914145 0.00751618402260376 0.0047004897456893605 0.004699753997571574 0.004699018249453786
          0.005007097393703045 0.004965498310329582 0.005003832199777568 0.00496355237604578 0.005000567005852091 0.004961606441761979
          0.005619442935196216 0.0056165154186226165 0.005613587902049017 0.00492583471015463 0.004919497592532984 0.004926083767447988
          0.004918651412436169 0.004926332824741346 0.004917805232339354 0.0050303061601078055 0.00502875266369587 0.005027199167283936
          0.004843545261814514 0.00484313130888692 0.004842717355959327 0.005131890955684671 0.0051305116150741955 0.005129132274463719
          0.004440780753595792 0.004521006877680349 0.004445291887857012 0.004525590993792945 0.004449803022118233 0.004530175109905542
          0.004906402242461853 0.00490803121692314 0.004909660191384426 0.005124465948916267 0.005124718402502913 0.005124970856089561
        </DataArray>
        <DataArray type="Float64" Name="pe11" format="ascii" RangeMin="0.0011294275448351914" RangeMax="0.007696687683800186">
          0.0035008917927321363 0.00337153182533567 0.0029103525888969236 0.0031174649284023684 0.0035002899080714407 0.0033708579345258145
          0.0029103248898886534 0.0031176695828479773 0.0034996880234107455 0.0033701840437159597 0.0029102971908803827 0.0031178742372935863
          0.004996045218164906 0.00477841844836646 0.004858125857652211 0.005103924689481468 0.0049948615368584845 0.004778165974194267
          0.00485831276027153 0.0051035201980704345 0.004993677855552063 0.004777913500022075 0.004858499662890848 0.005103115706659401
          0.0019399749734741178 0.0023129168169188446 0.001940217620093771 0.002313640338175855 0.001940460266713424 0.002314363859432866
          0.006328867099687573 0.006446961819856298 0.0058377846724394136 0.005874592796110433 0.006328684977709143 0.006445843739644369
          0.005835850862669261 0.005871856323981061 0.006328502855730713 0.00644472565943244 0.005833917052899108 0.005869119851851687
          0.0050066657216040365 0.0052831008206277634 0.005008021903930283 0.005283662373461194 0.00500937808625653 0.0052842239262946246
          0.004567722614314391 0.004361998684843493 0.004449440689828177 0.004704675970865548 0.00456593797555317 0.004363207184261652
          0.004446198714378859 0.004696808385146258 0.00456415333679195 0.004364415683679809 0.004442956738929541 0.004688940799426968
          0.006105441547450525 0.006626014989799105 0.006283033479453836 0.005846414719336444 0.006103764856440237 0.006620929351422974
          0.006279914745933726 0.005845897879708555 0.006102088165429948 0.0066158437130468435 0.006276796012413616 0.005845381040080665
          0.00332199755311608 0.003625974198940759 0.003322865692986963 0.0036258660644359177 0.0033237338328578445 0.0036257579299310756
          0.004267964592698998 0.003986970716236185 0.005086077129713961 0.005189774244699894 0.004263771456453244 0.0039837971619711456
          0.005082258043129656 0.005186649133159904 0.004259578320207489 0.003980623607706105 0.005078438956545352 0.0051835240216199134
          0.003959369718018963 0.004064239567392901 0.004431405136788842 0.003958047923755136 0.004062950544569965 0.0044307210411381
          0.00395672612949131 0.004061661521747028 0.0044300369454873595 0.007313161318589217 0.007606942989174431 0.0074564207029746005
          0.007203755511915895 0.007305425952339524 0.00760059633182543 0.007449297189071621 0.00719558597190949 0.00729769058608983
          0.007594249674476431 0.007442173675168641 0.0071874164319030865 0.005145730125615525 0.005394054096375867 0.005052591792618546
          0.004982685886886128 0.005144670927224161 0.005394232271414024 0.00505347905848262 0.004982343736954048 0.005143611728832796
          0.0053944104464521804 0.005054366324346695 0.004982001587021968 0.006098769556775635 0.006098976974582711 0.006099184392389788
          0.004599398617342107 0.004397970651680248 0.004227998372312249 0.004598872181251933 0.00439785510103478 0.004229157202019477
          0.004598345745161759 0.004397739550389312 0.004230316031726706 0.005250941732334337 0.005657240014925089 0.005248944847016739
          0.0056569209579658605 0.005246947961699142 0.005656601901006631 0.006791713702119256 0.006473651467316627 0.006784779294375402
          0.007161260150855099 0.006792061506556634 0.006475014077387042 0.006785215952094319 0.0071601326757430835 0.006792409310994011
          0.006476376687457456 0.006785652609813233 0.00715900520063107 0.002870239009544361 0.0033240227434198247 0.0024838660693448818
          0.0018035172159593376 0.002868325194227174 0.003320184951729082 0.0024823440326192676 0.001807064461155849 0.002866411378909987
          0.0033163471600383375 0.002480821995893653 0.0018106117063523598 0.005774550253794147 0.005530932219111949 0.005491163832342144
          0.005776295577187249 0.0055316264210503 0.005493298749606894 0.005778040900580352 0.005532320622988652 0.005495433666871641
          0.0012716737962715971 0.0026382530018952645 0.0012792074006611402 0.002637161691995187 0.0012867410050506833 0.00263607038209511
          0.0049354240666978685 0.005054508914622323 0.005569712087638959 0.005728994070631525 0.004932778531896566 0.005053645560423204
          0.0055674454659175796 0.0057235204506187205 0.004930132997095266 0.005052782206224087 0.005565178844196201 0.005718046830605915
          0.0061131882441329026 0.005809251335632545 0.006115012525289044 0.005809981014559743 0.006116836806445185 0.00581071069348694
          0.004113445548719477 0.004422868612968772 0.004108517605553008 0.004416847377876993 0.0041035896623865375 0.004410826142785213
          0.005886516785844749 0.005246386882811894 0.005882186521057655 0.00524526706858701 0.0058778562562705585 0.0052441472543621245
          0.0037151741901029433 0.0034724698822262805 0.0034529826405568062 0.0037907221834215343 0.0037162016699037056 0.0034740641361162713
          0.0034551987538547807 0.0037928666792397593 0.003717229149704468 0.0034756583900062616 0.0034574148671527544 0.0037950111750579833
          0.004019686364441559 0.00381528394266239 0.004020081815487932 0.0038141506489456625 0.004020477266534305 0.003813017355228933
          0.0037451061300824663 0.003740556894784734 0.0037360076594870014 0.004661462132843084 0.004487828269113099 0.004663271947716765
          0.004489076273366891 0.004665081762590447 0.004490324277620682 0.00468290290218776 0.004674698963110556 0.004684070014873516
          0.004680905751615525 0.004672868314287882 0.004678815489005655 0.004678908601043291 0.004671037665465209 0.004673560963137793
          0.003975633898427611 0.00422568154152108 0.0033418744662433537 0.003972051257980308 0.004223248746158907 0.0033377671909790496
          0.003968468617533006 0.004220815950796734 0.0033336599157147446 0.004007016374781408 0.004010197016010086 0.0040133776572387645
          0.003847143758025896 0.0038443472790406514 0.003841550800055406 0.005184189581962615 0.005290903707838903 0.005181004627089438
          0.005286948276341618 0.005177819672216261 0.00528299284484433 0.004458088438604123 0.004456033697348165 0.004453978956092206
          0.0035380890921932247 0.0039075539102425986 0.004194908938698123 0.0035408109776679615 0.003910910284212351 0.00419466475272767
          0.0035435328631426982 0.003914266658182102 0.0041944205667572175 0.006263632197736754 0.0064608216241132665 0.006256287368899601
          0.006453640348515508 0.006248942540062447 0.006446459072917751 0.0018870237786231096 0.0016132546414280528 0.0016363835319433166
          0.0020165763776119118 0.0018872309027834241 0.0016142504210653944 0.001637960551650697 0.002017132925207963 0.0018874380269437384
          0.0016152462007027358 0.0016395375713580771 0.0020176894728040134 0.0031040153442005594 0.002578813430000356 0.0027282966570874216
          0.0032425537149194206 0.00310398161179309 0.002579400281339617 0.0027284215387725083 0.0032419823246741188 0.0031039478793856217
          0.002579987132678878 0.002728546420457595 0.003241410934428816 0.0049457066336283505 0.004634077697208967 0.004998318058808027
          0.004943923906873002 0.004632860978710096 0.0049958642724690005 0.004942141180117654 0.0046316442602112266 0.004993410486129972
          0.004555584344693854 0.004555695159495257 0.00455580597429666 0.004659775423344136 0.004651431953094044 0.004643088482843952
          0.00138267955918282 0.0012800009583486336 0.0013850503584934045 0.0012829006236108904 0.0013874211578039889 0.0012858002888731467
          0.0021013369946240538 0.0024560647379242412 0.0021023637094697784 0.002457013695255064 0.002103390424315503 0.0024579626525858874
          0.004285415031765475 0.00428744324291914 0.004289471454072804 0.003902352039479378 0.004192500285337385 0.004131950672739259
          0.0037055447115294125 0.0039032155017619356 0.0041929660306508 0.004131463448719933 0.0037054964775751664 0.0039040789640444945
          0.004193431775964215 0.004130976224700606 0.0037054482436209195 0.00455451539295397 0.004553692447333145 0.00455286950171232
          0.0039126164809672815 0.003913399006919069 0.003914181532870856 0.004305171644418467 0.003818383788183633 0.004305204561021393
          0.003818303482530485 0.004305237477624318 0.0038182231768773374 0.0033471883238817036 0.0033513944864518525 0.0033556006490220018
          0.0035455029335751927 0.003946908851948939 0.003546985289740188 0.003949087025038977 0.003548467645905183 0.003951265198129017
          0.0033942373336198245 0.0033941949788678753 0.003394152624115926 0.004064916216426259 0.004156415193733486 0.00406578953586666
          0.004158183840580611 0.004066662855307063 0.004159952487427736 0.003990186728115127 0.0039906023697444054 0.003991018011373684
          0.003611485498877207 0.003610724043896073 0.003609962588914939 0.004326150329611412 0.004328742711793371 0.00433133509397533
          0.003021320921035983 0.0034842029539260346 0.0030213132711100184 0.003484206940079163 0.003021305621184055 0.0034842109262322903
          0.004679697896996633 0.004681355069437491 0.004683012241878349 0.005190902707581282 0.005109264978014956 0.005188374396402425
          0.005107521208532559 0.005185846085223568 0.005105777439050161 0.006703199139054754 0.0069860918612664556 0.006672407139091285
          0.006697820553620401 0.0069785968407285685 0.006667671962847018 0.00669244196818605 0.006971101820190681 0.006662936786602754
          0.007607083046805687 0.007407067354095471 0.00734733054304973 0.007602771472228975 0.007404793287451116 0.007344022838466115
          0.007598459897652262 0.00740251922080676 0.007340715133882503 0.0030781140737873563 0.0038074060210403944 0.003080844426490896
          0.0038108160599791326 0.0030835747791944355 0.0038142260989178717 0.005144514609864811 0.0050759202289276766 0.005019328386464482
          0.005142696625573856 0.005073200125997379 0.005017495184765003 0.0051408786412829015 0.005070480023067082 0.005015661983065526
          0.005486054433182836 0.005289166318861715 0.0054842349435721555 0.005288475665089327 0.0054824154539614735 0.005287785011316939
          0.0027319068999567646 0.0027323830297408098 0.0027328591595248554 0.007482931576313464 0.007696687683800186 0.007480330697513535
          0.007692784816576803 0.007477729818713607 0.007688881949353419 0.007658130838150588 0.007355161355795383 0.0076522266308116215
          0.007347796173497172 0.007646322423472654 0.00734043099119896 0.006645966013635086 0.006911082573875994 0.006637829877392888
          0.006902510807045122 0.00662969374115069 0.006893939040214249 0.0059841976601470795 0.005981412682487871 0.00597862770482866
          0.00706031673745091 0.006996600855556032 0.007058794716490549 0.0069957227532523 0.00705727269553019 0.006994844650948568
          0.006468072623223028 0.006466107182954543 0.006464141742686058 0.00442017676972991 0.004420909083551726 0.0044216413973735425
          0.005774522163849878 0.005772674997348599 0.005770827830847321 0.004346314591175599 0.004347867051017182 0.004349419510858765
          0.004382659783069081 0.004383580264009985 0.004384500744950889 0.005200221283520313 0.0050480135529234705 0.005201488434761548
          0.005050443961854183 0.00520275558600278 0.005052874370784896 0.004685507643027403 0.00452661561005877 0.004687776292621565
          0.0045278438178123544 0.004690044942215726 0.004529072025565939 0.003253537410927569 0.0032549246247973417 0.0032563118386671154
          0.002966450148465618 0.002966965154012888 0.002967480159560157 0.004440740846690349 0.004441384243159421 0.004442027639628494
          0.004763802349429372 0.004764006428718097 0.004764210508006824 0.002666033433214708 0.0026719383191954474 0.002677843205176188
          0.0023565863366698655 0.0023588086902764684 0.0023610310438830708 0.005996434187455435 0.005436443265431974 0.005996005685376925
          0.005438450372266015 0.005995577183298413 0.005440457479100056 0.006545279667063225 0.006542335029533835 0.006539390392004444
          0.007180801333030099 0.006863498203169773 0.007172464989302986 0.006854955667581785 0.007164128645575874 0.006846413131993798
          0.0034885742685758546 0.0038218809711978593 0.003338497225545482 0.003487766142804767 0.0038210430300544083 0.0033382284235384716
          0.0034869580170336792 0.0038202050889109573 0.0033379596215314606 0.0031812038777365224 0.0031816688379358747 0.003182133798135226
          0.0070221469106785 0.007017227871429579 0.007012308832180657 0.004741732631974322 0.004741445425949174 0.004741686631796714
          0.004741256132440043 0.004741640631619107 0.004741066838930911 0.006973616788066094 0.006513630917782817 0.006972145094457309
          0.006514188072629552 0.0069706734008485255 0.006514745227476288 0.006031382156768036 0.006033756573872361 0.006036130990976685
          0.006361303804623526 0.005957017732377504 0.006363128452532241 0.005959864798784067 0.006364953100440954 0.00596271186519063
          0.0016900115490757197 0.0019626843005578006 0.0017860872518715115 0.0014899312563131121 0.0016951901156596954 0.0019699250699092455
          0.001791476545934538 0.001495626357744786 0.0017003686822436713 0.00197716583926069 0.0017968658399975645 0.0015013214591764596
          0.0022499345922774635 0.002251220148697427 0.0022525057051173917 0.002920560849347821 0.0029262283215026616 0.002931895793657503
          0.00481770541159029 0.004856858118816145 0.0048156288722898235 0.004855146322170823 0.004813552332989356 0.004853434525525499
          0.004976349851007452 0.004979285084934044 0.0049822203188606366 0.005240874112278297 0.005153372627980079 0.005238570288886129
          0.005149279590530521 0.005236266465493959 0.005145186553080961 0.0036939632870353657 0.0029328475972574923 0.0036893865338315734
          0.0029294720937318155 0.00368480978062778 0.0029260965902061387 0.0036475688578614944 0.0036478908596277023 0.0036482128613939107
          0.005586477905421049 0.005672092788463361 0.0055900376845604855 0.0056755098840191994 0.005593597463699923 0.00567892697957504
          0.0026493854539925655 0.0028083812446973266 0.002495442707923176 0.0022363037398154574 0.002650838606803426 0.0028098703035445514
          0.0024968656011595653 0.0022379607394414657 0.002652291759614287 0.002811359362391776 0.0024982884943959547 0.002239617739067473
          0.004751421004407695 0.004748692624737748 0.0047459642450677995 0.0018278764591384289 0.0014942609923326866 0.0018302892839315843
          0.0014984939541813624 0.00183270210872474 0.0015027269160300383 0.00527815069085183 0.006005926605995086 0.005275456024058475
          0.006003621808947994 0.005272761357265119 0.0060013170119009 0.006032597659374691 0.006028652449178695 0.006024707238982698
          0.004833655876014437 0.004831743847842866 0.004829831819671294 0.004659276000245511 0.0046555015040821365 0.0046517270079187625
          0.0021995647697744935 0.0022033830490449857 0.0022072013283154775 0.0014402255073828136 0.0014433541028943092 0.001446482698405805
          0.004506031813351637 0.005303969787907654 0.004501443774098437 0.005301458297408023 0.004496855734845239 0.005298946806908393
          0.001695176342901969 0.001697053125900204 0.0016989299088984392 0.0022875272410471147 0.0022927314315277433 0.0022979356220083724
          0.00501860017062377 0.005015221642868503 0.005011843115113233 0.0073555911867248394 0.007349747239674699 0.00734390329262456
          0.0013030079926278518 0.0013068335688360276 0.0013106591450442033 0.005239117985458797 0.005242111391935903 0.005245104798413009
          0.0068219406425537674 0.00678007719510081 0.006049002032228027 0.006815769069994581 0.006774064676466169 0.006044257460718194
          0.006809597497435393 0.006768052157831529 0.006039512889208362 0.0023728261703412886 0.0023803764971517447 0.002387926823962201
          0.00518383255883938 0.0050534450291989585 0.005179060771642763 0.005049165268536573 0.005174288984446144 0.005044885507874186
          0.0026915642661955834 0.0026942771919540704 0.0026969901177125574 0.003132867086550209 0.0031346257819085156 0.003136384477266823
          0.005034443125464587 0.005030233490134645 0.005026023854804704 0.001403401024884632 0.0014070757788035438 0.0014107505327224557
          0.002364835059173294 0.0028372236622161004 0.002365792867788584 0.0028379435663259266 0.002366750676403874 0.0028386634704357515
          0.003103186941977829 0.0031045322912533896 0.0031058776405289497 0.0011294275448351914 0.001131568429647536 0.0011337093144598801
          0.00545995400821649 0.005458223132058588 0.0054564922559006855 0.005303878511489697 0.005300538484851989 0.00529719845821428
          0.007524880440663888 0.007519115373674435 0.007513350306684982 0.004699869592379626 0.004699119947211539 0.004698370302043452
          0.0050066167903366375 0.004964954524226703 0.005003331432694818 0.004962983984117858 0.005000046075053 0.004961013444009014
          0.005615756943445299 0.00561273210538679 0.00560970726732828 0.004923860132901182 0.004917974266826271 0.0049240791046644685
          0.004917114197777087 0.004924298076427755 0.004916254128727903 0.005028852559713877 0.005027302665620089 0.0050257527715263026
          0.004841495780672001 0.004841096239821235 0.004840696698970471 0.005129360340860939 0.005127949277239737 0.005126538213618534
          0.004436173469913673 0.004517554401442893 0.004440849928878325 0.004522217570786536 0.0044455263878429765 0.004526880740130179
          0.0049038021182427755 0.004905430850063195 0.004907059581883613 0.0051211153021586235 0.0051213193997472015 0.005121523497335779
        </DataArray>
        <DataArray type="Float64" Name="pe22" format="ascii" RangeMin="-0.00399274781714968" RangeMax="-0.0005781310734665321">
          -0.0017420552307836584 -0.0016751911016515755 -0.0014502320032111194 -0.0015590233367419105 -0.0017415358524527122 -0.0016747356534931681
          -0.0014496259998723969 -0.0015585149625931684 -0.0017410164741217661 -0.001674280205334761 -0.0014490199965336743 -0.0015580065884444265
          -0.0025595016404645803 -0.0024456947079394458 -0.002511594835067107 -0.0026492034821801085 -0.0025593371324417837 -0.00244592449024956
          -0.002511682141975093 -0.002648978855364853 -0.0025591726244189876 -0.0024461542725596735 -0.002511769448883079 -0.0026487542285495973
          -0.0009628777229958964 -0.0011459003098312315 -0.0009626012996554205 -0.001145687235112487 -0.0009623248763149443 -0.0011454741603937428
          -0.0033607980548807552 -0.0034341964409033495 -0.0030957094598841888 -0.003105859764171541 -0.0033628662525917977 -0.0034357685858851256
          -0.0030956607635078243 -0.003107379439416887 -0.003364934450302841 -0.0034373407308669027 -0.003095612067131459 -0.0031088991146622333
          -0.002616352249453319 -0.0027753358781342176 -0.0026165127945922406 -0.0027751456028083 -0.0026166733397311615 -0.002774955327482383
          -0.002377328158414567 -0.0022978402970854988 -0.002322353650330807 -0.002401246721808137 -0.002378867719297168 -0.002299758225415621
          -0.0023239006837106756 -0.0024019038677946664 -0.0023804072801797693 -0.002301676153745743 -0.0023254477170905436 -0.0024025610137811955
          -0.003030639063852306 -0.0033210673415716625 -0.0031560032948605788 -0.0029247198235985584 -0.003031641787013133 -0.0033221389192142734
          -0.003157433730776796 -0.002925966605069967 -0.003032644510173959 -0.003323210496856884 -0.003158864166693013 -0.0029272133865413763
          -0.0016663706774042216 -0.0018136142934494404 -0.0016659994958034409 -0.0018130488275316737 -0.00166562831420266 -0.0018124833616139072
          -0.0020211004963560583 -0.0018825096779709065 -0.002441633014430298 -0.0025027810364475845 -0.002020661388670358 -0.0018808983479279913
          -0.002441100239524072 -0.002502690222410143 -0.0020202222809846578 -0.0018792870178850763 -0.0024405674646178466 -0.002502599408372702
          -0.001963756376195277 -0.0020163778036045134 -0.0021891312484779075 -0.001964180402698491 -0.0020164706895787845 -0.0021890230959578636
          -0.001964604429201706 -0.0020165635755530556 -0.0021889149434378198 -0.00363437519042579 -0.00385281615904817 -0.0037721796803156698
          -0.0035985780248669456 -0.0036355427011634063 -0.003854455180806613 -0.003773684628615023 -0.003599537496056935 -0.0036367102119010224
          -0.0038560942025650555 -0.0037751895769143765 -0.003600496967246925 -0.0026056987169724532 -0.0027581972292438518 -0.002618628548359157
          -0.0025580968633961395 -0.0026066968306341074 -0.0027599988859127087 -0.002620081954910195 -0.0025593348729358602 -0.002607694944295762
          -0.0027618005425815648 -0.002621535361461233 -0.002560572882475581 -0.0032376171733574047 -0.0032387553010010594 -0.0032398934286447132
          -0.0024058680504815324 -0.0023226373748499655 -0.002245357343785656 -0.0024077997890794406 -0.0023236520175198986 -0.0022472019126827817
          -0.0024097315276773493 -0.002324666660189831 -0.0022490464815799072 -0.0026238305586760323 -0.002861715842311788 -0.0026244565859730134
          -0.0028633096035608437 -0.0026250826132699938 -0.002864903364809899 -0.003606757848649735 -0.003437376513691334 -0.0035823315074704036
          -0.0037748485460150304 -0.0036090231668870765 -0.003438920831228024 -0.0035842486054134897 -0.0037771976021157686 -0.0036112884851244183
          -0.0034404651487647143 -0.0035861657033565766 -0.003779546658216507 -0.0013463355385342863 -0.001557897325827135 -0.0011614013637572798
          -0.000852157964280181 -0.001344364184402839 -0.0015568964764105095 -0.0011597770831662376 -0.0008517462261015433 -0.0013423928302713915
          -0.001555895626993884 -0.0011581528025751955 -0.0008513344879229053 -0.0030692268913294417 -0.0029167895395510643 -0.0029142237048055825
          -0.00306902463998111 -0.002916565860448364 -0.0029140062841290708 -0.0030688223886327776 -0.002916342181345663 -0.002913788863452559
          -0.0006126562955386602 -0.0012470708790341203 -0.000613772613718639 -0.0012440507957366292 -0.0006148889318986178 -0.001241030712439138
          -0.002547412019671169 -0.0026211016960395006 -0.0028455691744939653 -0.002924289602785117 -0.002546740070816857 -0.0026216129127255524
          -0.0028469002829522357 -0.0029246439543004405 -0.0025460681219625463 -0.002622124129411604 -0.002848231391410506 -0.0029249983058157636
          -0.003247185086474688 -0.00307521835956183 -0.00324787154360439 -0.0030754838805606382 -0.003248558000734091 -0.003075749401559445
          -0.0020210600229338183 -0.00219971832458829 -0.002021217281768116 -0.0022008091806740683 -0.002021374540602414 -0.002201900036759846
          -0.0030289594676450923 -0.0027219504417944945 -0.0030293757899645304 -0.002721427557830193 -0.0030297921122839685 -0.0027209046738658916
          -0.001869720687529199 -0.0017448154807185596 -0.0017445440542884967 -0.0019226106086704738 -0.0018690299787954001 -0.0017444439616061218
          -0.0017440855765140039 -0.0019218991807975487 -0.0018683392700616008 -0.0017440724424936833 -0.0017436270987395111 -0.001921187752924624
          -0.002138604374383437 -0.0020299650427507516 -0.0021389341569962666 -0.002031272522674321 -0.0021392639396090964 -0.00203258000259789
          -0.001816325459366908 -0.001815805462956182 -0.0018152854665454562 -0.0024442618043422955 -0.0023580330555501776 -0.0024450586111036776
          -0.0023581212970884315 -0.0024458554178650588 -0.002358209538626684 -0.0023757753474247826 -0.0024145312618619455 -0.0023870625749017583
          -0.0023770926661853204 -0.002416465698556841 -0.0023886699678264986 -0.0023784099849458585 -0.0024184001352517367 -0.0023902773607512385
          -0.0019108849051958946 -0.002061101294441854 -0.0015991411997292402 -0.0019102536729968436 -0.002061144999591053 -0.0015979827951118808
          -0.0019096224407977925 -0.0020611887047402525 -0.001596824390494521 -0.0021381814291056107 -0.002140818898511907 -0.002143456367918202
          -0.0018247277639582677 -0.0018220645147995294 -0.0018194012656407913 -0.0025778535015138306 -0.002633468106170647 -0.0025788051783178657
          -0.002634292606401017 -0.002579756855121901 -0.0026351171066313875 -0.0022093445124779275 -0.002209922309353908 -0.0022105001062298884
          -0.0018457440366596006 -0.0020656238636903453 -0.0021777155883518466 -0.0018460729887101622 -0.0020660611738787414 -0.002177451864284115
          -0.001846401940760724 -0.002066498484067137 -0.002177188140216384 -0.0031650434277180122 -0.003291519371620647 -0.00316625750784988
          -0.0032929056064228707 -0.0031674715879817473 -0.003294291841225095 -0.0009353089873761934 -0.0008028358557792067 -0.0008157890168143685
          -0.0009967624558872847 -0.0009348645528343004 -0.0008025312036455288 -0.0008154327446679149 -0.0009961592797754118 -0.0009344201182924072
          -0.0008022265515118509 -0.0008150764725214615 -0.0009955561036635388 -0.0015427160788635905 -0.0012764264392265705 -0.001354845298430171
          -0.00161318841006021 -0.0015428055650999815 -0.0012760215409562583 -0.0013542776957543412 -0.0016129592427909338 -0.001542895051336373
          -0.0012756166426859462 -0.0013537100930785116 -0.0016127300755216579 -0.002454280371764073 -0.002299490849858918 -0.0024914652091823216
          -0.002454616113867211 -0.0022998972183242657 -0.00249239825924317 -0.0024549518559703488 -0.002300303586789613 -0.002493331309304019
          -0.002383572228954193 -0.002384579484750312 -0.002385586740546431 -0.002348975596348471 -0.0023498533437068423 -0.002350731091065213
          -0.0006901181265578915 -0.0006459669739985375 -0.0006902789966950706 -0.0006461112473244825 -0.0006904398668322496 -0.0006462555206504276
          -0.0010402526452534693 -0.0012144700353286966 -0.001039517608299732 -0.0012141675502061423 -0.0010387825713459949 -0.0012138650650835878
          -0.0022667644053356315 -0.002267012660741604 -0.0022672609161475763 -0.0019424447174629651 -0.0020798450214206446 -0.0020460137710538017
          -0.0018438231737595064 -0.0019425313910535348 -0.002080118643091719 -0.002046152178329903 -0.0018440448142160253 -0.0019426180646441049
          -0.0020803922647627936 -0.002046290585606004 -0.0018442664546725448 -0.0022708884632099994 -0.0022712965163653198 -0.00227170456952064
          -0.00195477149838123 -0.0019545624986740907 -0.0019543534989669513 -0.0022048105963706154 -0.0019518647636497528 -0.002204233781321026
          -0.001951472072954603 -0.002203656966271436 -0.0019510793822594534 -0.001775924620293573 -0.0017767908991004149 -0.0017776571779072573
          -0.001799907666853387 -0.0020106575485764723 -0.001799398152620594 -0.002010326814761109 -0.001798888638387801 -0.002009996080945745
          -0.001792050870288749 -0.0017930129955112796 -0.0017939751207338105 -0.002058966627483954 -0.0021228420568744867 -0.002058331763674494
          -0.002122213526824781 -0.002057696899865034 -0.0021215849967750754 -0.0020065662574751475 -0.0020060721822224457 -0.002005578106969744
          -0.0017979087357169314 -0.0017983527982886667 -0.0017987968608604026 -0.0022230708870298304 -0.002222868986352086 -0.0022226670856743424
          -0.0016128290512901766 -0.0018593852669448198 -0.001612942892717061 -0.0018609077747322757 -0.0016130567341439452 -0.0018624302825197318
          -0.002420856038073937 -0.002420463513456762 -0.0024200709888395873 -0.002698393521543407 -0.002638104851667792 -0.0026986758131836907
          -0.0026380788594931397 -0.0026989581048239737 -0.002638052867318487 -0.0033161973390215234 -0.0035041557602059183 -0.0033260952880406537
          -0.003317166750926879 -0.0035050791018042663 -0.003327095196580629 -0.0033181361628322357 -0.0035060024434026144 -0.003328095105120604
          -0.003930300218313287 -0.0038998988842091535 -0.0038200367217358037 -0.0039326116304082125 -0.0039026983958862045 -0.0038223794609735205
          -0.003934923042503138 -0.0039054979075632545 -0.0038247222002112374 -0.0016677607873995417 -0.0020472154662106255 -0.0016683383121834296
          -0.0020495684322543936 -0.0016689158369673175 -0.0020519213982981618 -0.0025970045768222262 -0.002558740580514014 -0.002557446355751183
          -0.002597506846007477 -0.002558709019224598 -0.0025574150473709925 -0.002598009115192728 -0.0025586774579351825 -0.002557383738990802
          -0.0028727578982214353 -0.0027538327749522086 -0.0028727713351293055 -0.0027536588966945684 -0.002872784772037176 -0.002753485018436929
          -0.0013529261878166003 -0.0013524891397653756 -0.0013520520917141505 -0.003939646120568377 -0.0039875531782488476 -0.003942667547750937
          -0.003990150497699263 -0.003945688974933498 -0.00399274781714968 -0.0038799483322107956 -0.0036448939963180534 -0.003881897580779561
          -0.0036464145849100264 -0.0038838468293483277 -0.003647935173501999 -0.0033409998710082723 -0.00350540840359073 -0.0033424320804818887
          -0.0035071251314336624 -0.003343864289955505 -0.0035088418592765947 -0.003030903999467495 -0.003032516079243437 -0.0030341281590193793
          -0.0037630076534431144 -0.0037225213413655932 -0.0037656162431164006 -0.0037251546020410633 -0.0037682248327896867 -0.003727787862716532
          -0.0034577167348340274 -0.0034583741183146647 -0.003459031501795302 -0.0022149614549047056 -0.0022151190956520325 -0.0022152767363993594
          -0.003087191220747577 -0.0030849947627649625 -0.003082798304782348 -0.00218839613069923 -0.002188410823530475 -0.0021884255163617207
          -0.0022198643572553843 -0.0022198435310136415 -0.0022198227047718986 -0.00276355039249011 -0.0027107081396179032 -0.0027637865903253015
          -0.0027084276729563267 -0.0027640227881604936 -0.0027061472062947503 -0.002430946191563588 -0.002327433490324916 -0.0024310398896142784
          -0.0023274206031737798 -0.002431133587664969 -0.002327407716022644 -0.001671103729084437 -0.0016705799208373755 -0.0016700561125903139
          -0.0014716562572355527 -0.0014716706088047694 -0.001471684960373986 -0.0022632171248454748 -0.0022632389362952582 -0.0022632607477450417
          -0.0024687208695908253 -0.0024700447839440275 -0.0024713686982972298 -0.0014354292857113263 -0.001435733647701536 -0.0014360380096917458
          -0.0012749961631402119 -0.0012744838524773987 -0.0012739715418145856 -0.0031296194770220028 -0.002851218081035338 -0.0031302888339264437
          -0.002851332414487116 -0.0031309581908308833 -0.002851446747938893 -0.0033897535799801365 -0.0033912580324208944 -0.0033927624848616523
          -0.0036271670843251898 -0.0034418392798725625 -0.0036286035742929593 -0.003442980249470267 -0.0036300400642607297 -0.00344412121906797
          -0.0017325491247991544 -0.0018971407633489677 -0.0016569790239250783 -0.0017328588193326277 -0.0018978353502680848 -0.0016570342074215
          -0.0017331685138661014 -0.001898529937187202 -0.0016570893909179216 -0.0015807538655580448 -0.0015805469498239143 -0.001580340034089784
          -0.003617243856313305 -0.003619191202595474 -0.003621138548877644 -0.0024090476097283994 -0.002394475855067896 -0.00240943242320686
          -0.002394817898062807 -0.00240981723668532 -0.002395159941057718 -0.003644002631364514 -0.003420708469671854 -0.0036461111870536994
          -0.003422127399392651 -0.003648219742742885 -0.0034235463291134487 -0.0031883797633710173 -0.0031888284945406553 -0.003189277225710294
          -0.003367178520842898 -0.0031685931478566357 -0.0033683791202879483 -0.0031687551052027494 -0.0033695797197329977 -0.003168917062548863
          -0.0008906737257855541 -0.001046388834305597 -0.0009229714644302183 -0.0007657645182375263 -0.0008910058025079195 -0.0010463452296214553
          -0.0009224406203985557 -0.0007660924325736468 -0.0008913378792302849 -0.0010463016249373136 -0.0009219097763668931 -0.0007664203469097673
          -0.0011208253508391355 -0.0011200017690631374 -0.0011191781872871393 -0.0015405779932370133 -0.00154074421368358 -0.001540910434130147
          -0.002409200615395894 -0.0024636553873462787 -0.0024096508812041857 -0.002464387297028497 -0.002410101147012477 -0.002465119206710716
          -0.0026020399764235436 -0.002602124940345163 -0.0026022099042667824 -0.0026301577447142297 -0.002579308240286721 -0.002630849595999715
          -0.002579696257915013 -0.0026315414472852013 -0.002580084275543305 -0.0017516565383495978 -0.0013864642884359455 -0.0017506199528677514
          -0.001384573497762147 -0.0017495833673859054 -0.0013826827070883485 -0.0018158899573943897 -0.00181633807230838 -0.0018167861872223701
          -0.0029623263333948147 -0.0030241449800614503 -0.002962456836855227 -0.0030239692197279403 -0.002962587340315639 -0.003023793459394431
          -0.0013453351089891292 -0.0014149391587982953 -0.0012505683968261185 -0.00113257697751471 -0.0013439880356058123 -0.0014142251091733603
          -0.0012497886202677223 -0.001131197078241478 -0.0013426409622224952 -0.0014135110595484253 -0.0012490088437093264 -0.001129817178968246
          -0.0023409763474384077 -0.002341108447568793 -0.0023412405476991773 -0.000919032195796436 -0.0007538359555449053 -0.0009180994186745115
          -0.0007536517840496925 -0.0009171666415525867 -0.0007534676125544798 -0.0025729420442030257 -0.002946020849229969 -0.0025731178010645417
          -0.0029468564083692914 -0.0025732935579260586 -0.0029476919675086137 -0.002942895947658212 -0.002943933151847427 -0.0029449703560366428
          -0.0024294730863514986 -0.0024295855572731605 -0.0024296980281948224 -0.002265248016142421 -0.0022650945391746776 -0.002264941062206933
          -0.0011426420581211183 -0.0011411140090579399 -0.001139585959994761 -0.000758034962940247 -0.0007577116825912882 -0.0007573884022423296
          -0.0021623450829734436 -0.0026180736864695148 -0.002162052653206798 -0.0026184793198300764 -0.002161760223440153 -0.0026188849531906377
          -0.0008441397395496147 -0.0008434787626313821 -0.0008428177857131496 -0.0012458411086346407 -0.0012456091968066514 -0.0012453772849786622
          -0.002508420556150575 -0.002508832944788449 -0.0025092453334263237 -0.003767036537429963 -0.003769070552225031 -0.0037711045670200984
          -0.0006718795486692053 -0.0006718596563643549 -0.0006718397640595046 -0.002763811389546702 -0.0027640778939288756 -0.002764344398311049
          -0.0033430875488425662 -0.003334294273977293 -0.002941839925702531 -0.0033447456390422177 -0.0033355825877221354 -0.0029430651993205834
          -0.0033464037292418687 -0.0033368709014669788 -0.0029442904729386366 -0.001268662385603951 -0.0012682374557538116 -0.0012678125259036727
          -0.0025918706632384893 -0.002533599227171147 -0.00259229061829576 -0.002533904835531058 -0.002592710573353031 -0.0025342104438909685
          -0.0013915866577362936 -0.0013903230005818713 -0.001389059343427449 -0.001581793535410632 -0.0015812350653375187 -0.0015806765952644055
          -0.0024170810606289873 -0.0024161760323137883 -0.002415271003998589 -0.0007096715256083801 -0.0007096746266910473 -0.0007096777277737145
          -0.0011708827468489326 -0.001405720435649814 -0.001170574396990843 -0.001405430775351656 -0.001170266047132753 -0.001405141115053498
          -0.0015763910536497263 -0.0015754663592829603 -0.0015745416649161944 -0.0005790331456551695 -0.0005785821095608507 -0.0005781310734665321
          -0.002883484979254043 -0.0028854578757884775 -0.0028874307723229116 -0.002650783469232313 -0.002651534312502115 -0.002652285155771917
          -0.0038391360707302935 -0.00384108199675717 -0.0038430279227840464 -0.002320465112438552 -0.0023203051185481526 -0.0023201451246577538
          -0.0025153118170186495 -0.002512560686275561 -0.0025157356316525374 -0.002512709000344265 -0.002516159446286426 -0.0025128573144129695
          -0.00296457220134192 -0.0029645481106969074 -0.0029645240200518947 -0.0025705331371999153 -0.002538509586115554 -0.002571339002335512
          -0.0025389070856013493 -0.002572144867471109 -0.002539304585087145 -0.002560072014179271 -0.0025605119230109157 -0.0025609518318425607
          -0.002486464154599155 -0.0024867863226605046 -0.0024871084907218542 -0.002689712991606117 -0.0026891993565393082 -0.0026886857214724986
          -0.0023769212414777125 -0.002392171711467585 -0.0023760169543699354 -0.002392622132816781 -0.0023751126672621583 -0.0023930725541659774
          -0.002579164203967 -0.002579546042167612 -0.0025799278803682246 -0.002702398206979643 -0.002703040945909504 -0.002703683684839364
        </DataArray>
        <DataArray type="Float64" Name="pe33" format="ascii" RangeMin="-0.0037781825059397902" RangeMax="-0.0005503943991800219">
          -0.001758836561948477 -0.0016963407236840944 -0.0014601205856858042 -0.0015584415916604572 -0.0017587540556187283 -0.0016961222810326462
          -0.001460698890016256 -0.0015591546202548083 -0.0017586715492889792 -0.0016959038383811986 -0.0014612771943467082 -0.0015598676488491595
          -0.0024365435777003253 -0.0023327237404270123 -0.0023465310225851037 -0.0024547212073013592 -0.0024355244044167003 -0.002332241483944707
          -0.0023466306182964355 -0.0024545413427055807 -0.0024345052311330745 -0.0023317592274624014 -0.0023467302140077672 -0.0024543614781098026
          -0.0009770972504782212 -0.001167016507087613 -0.0009776163204383503 -0.001167953103063368 -0.0009781353903984794 -0.0011688896990391232
          -0.0029680690448068174 -0.0030127653789529486 -0.002742075212555225 -0.002768733031938891 -0.002965818725117344 -0.0030100751537592433
          -0.002740190099161436 -0.0027644768845641724 -0.0029635684054278703 -0.003007384928565537 -0.002738304985767647 -0.0027602207371894543
          -0.002390313472150717 -0.0025077649424935446 -0.0023915091093380417 -0.0025085167706528923 -0.002392704746525367 -0.0025092685988122405
          -0.002190394455899823 -0.002064158387757994 -0.0021270870394973695 -0.00230342924905741 -0.002187070256256001 -0.0020634489588460298
          -0.0021222980306681827 -0.0022949045173515908 -0.0021837460566121797 -0.002062739529934065 -0.002117509021838997 -0.0022863797856457714
          -0.0030748024835982185 -0.0033049476482274417 -0.0031270301845932576 -0.002921694895737886 -0.0030721230694271033 -0.0032987904322087005
          -0.00312248101515693 -0.0029199312746385872 -0.0030694436552559886 -0.003292633216189959 -0.003117931845720602 -0.0029181676535392884
          -0.0016556268757118575 -0.0018123599054913177 -0.0016568661971835207 -0.0018128172369042432 -0.001658105518655184 -0.001813274568317168
          -0.00224686409634294 -0.0021044610382652787 -0.0026444441152836625 -0.0026869932082523094 -0.002243110067782885 -0.002102898814043153
          -0.002641157803605583 -0.0026839589107497605 -0.0022393560392228304 -0.0021013365898210276 -0.0026378714919275043 -0.0026809246132472107
          -0.0019956133418236855 -0.002047861763788387 -0.002242273888310933 -0.0019938675210566447 -0.0020464798549911798 -0.002241697945180237
          -0.0019921217002896044 -0.0020450979461939726 -0.00224112200204954 -0.003678786128163425 -0.00375412683012626 -0.00368424102265893
          -0.0036051774870489487 -0.003669883251176117 -0.003746141151018817 -0.003675612560456597 -0.003596048475852555 -0.003660980374188808
          -0.003738155471911375 -0.0036669840982542635 -0.0035869194646561604 -0.00254003140864307 -0.0026358568671320144 -0.002433963244259388
          -0.0024245890234899873 -0.0025379740965900525 -0.002634233385501315 -0.002433397103572425 -0.002423008864018187 -0.0025359167845370343
          -0.0026326099038706157 -0.0024328309628854614 -0.0024214287045463867 -0.0028611523834182286 -0.002860221673581652 -0.002859290963745075
          -0.0021935305668605745 -0.0020753332768302826 -0.0019826410285265924 -0.0021910723921724916 -0.0020742030835148814 -0.0019819552893366953
          -0.0021886142174844096 -0.0020730728901994806 -0.0019812695501467987 -0.002627111173658303 -0.0027955241726133 -0.002624488261043726
          -0.0027936113544050154 -0.0026218653484291494 -0.0027916985361967316 -0.0031849558534695226 -0.003036274953625293 -0.003202447786904998
          -0.003386411604840069 -0.0031830383396695573 -0.0030360932461590178 -0.003200967346680827 -0.0033829350736273153 -0.0031811208258695914
          -0.003035911538692742 -0.003199486906456657 -0.003379458542414563 -0.001523903471010074 -0.0017661254175926895 -0.0013224647055876018
          -0.0009513592516791562 -0.0015239610098243346 -0.0017632884753185718 -0.0013225669494530295 -0.0009553182350543054 -0.0015240185486385947
          -0.0017604515330444533 -0.0013226691933184572 -0.0009592772184294541 -0.002705323362464704 -0.0026141426795608835 -0.002576940127536562
          -0.0027072709372061394 -0.0026150605606019366 -0.0025792924654778216 -0.002709218511947575 -0.002615978441642989 -0.0025816448034190814
          -0.0006590175007329366 -0.0013911821228611435 -0.0006654347869425011 -0.0013931108962585573 -0.0006718520731520654 -0.0013950396696559711
          -0.0023880120470267 -0.0024334072185828236 -0.0027241429131449934 -0.0028047044678464073 -0.0023860384610797096 -0.0024320326476976527
          -0.002720545182965344 -0.002798876496318279 -0.002384064875132719 -0.002430658076812482 -0.0027169474527856943 -0.0027930485247901504
          -0.002866003157658214 -0.0027340329760707142 -0.0028671409816846544 -0.002734497133999104 -0.002868278805711094 -0.0027349612919274954
          -0.0020923855257856594 -0.0022231502883804815 -0.002087300323784891 -0.0022160381972029237 -0.002082215121784123 -0.0022089261060253664
          -0.002857557318199657 -0.0025244364410174 -0.002852810731093124 -0.002523839510756816 -0.00284806414398659 -0.002523242580496233
          -0.001845453502573743 -0.00172765440150772 -0.0017084385862683091 -0.00186811157475106 -0.0018471716911083044 -0.0017296201745101486
          -0.001711113177340776 -0.001870967498442209 -0.001848889879642866 -0.0017315859475125772 -0.0017137877684132428 -0.0018738234221333586
          -0.0018810819900581216 -0.001785318899911638 -0.0018811476584916654 -0.0017828781262713407 -0.0018812133269252092 -0.001780437352631043
          -0.001928780670715558 -0.0019247514318285518 -0.0019207221929415455 -0.0022172003285007885 -0.002129795213562921 -0.0022182133366130882
          -0.00213095497627846 -0.0022192263447253884 -0.0021321147389939984 -0.0023071275547629786 -0.002260167701248611 -0.002297007439971758
          -0.002303813085430205 -0.0022564026157310415 -0.0022901455211791553 -0.0023004986160974315 -0.0022526375302134713 -0.002283283602386553
          -0.0020647489932317164 -0.0021645802470792257 -0.0017427332665141135 -0.002061797584983464 -0.002162103746567853 -0.0017397843958671683
          -0.0020588461767352124 -0.002159627246056481 -0.0017368355252202232 -0.0018688349456757966 -0.0018693781174981793 -0.0018699212893205617
          -0.002022415994067628 -0.002022282764241121 -0.002022149534414614 -0.002606336080448784 -0.0026574356016682557 -0.0026021994487715715
          -0.0026526556699405985 -0.0025980628170943596 -0.0026478757382129414 -0.002248743926126195 -0.0022461113879942564 -0.002243478849862318
          -0.0016923450555336248 -0.0018419300465522539 -0.0020171933503462776 -0.0016947379889577993 -0.001844849110333609 -0.0020172128884435557
          -0.0016971309223819736 -0.0018477681741149638 -0.002017232426540833 -0.003098588770018741 -0.0031693022524926194 -0.00309002986104972
          -0.003160734742092638 -0.0030814709520806992 -0.0031521672316926555 -0.000951714791246916 -0.0008104187856488458 -0.0008205945151289478
          -0.001019813921724627 -0.0009523663499491235 -0.0008117192174198654 -0.0008225278069827817 -0.0010209736454325506 -0.0009530179086513314
          -0.0008130196491908851 -0.0008244610988366156 -0.0010221333691404746 -0.0015612992653369691 -0.001302386990773786 -0.0013734513586572503
          -0.0016293653048592104 -0.001561176046693109 -0.0013033787403833586 -0.0013741438430181663 -0.0016290230818831843 -0.0015610528280492486
          -0.001304370489992931 -0.0013748363273790826 -0.0016286808589071583 -0.0024914262618642774 -0.0023345868473500482 -0.0025068528496257052
          -0.002489307793005791 -0.002332963760385831 -0.0025034660132258286 -0.0024871893241473044 -0.002331340673421613 -0.0025000791768259516
          -0.002172012115739661 -0.002171115674744945 -0.0021702192337502294 -0.0023107998269956643 -0.0023015786093872016 -0.002292357391778738
          -0.0006925614326249285 -0.0006340339843500961 -0.0006947713617983339 -0.0006367893762864077 -0.0006969812909717395 -0.0006395447682227192
          -0.001061084349370584 -0.0012415947025955446 -0.001062846101170046 -0.001242846145048922 -0.0010646078529695077 -0.0012440975875022996
          -0.002018650626429843 -0.0020204305821775355 -0.0020222105379252273 -0.001959907322016413 -0.00211265526391674 -0.002085936901685457
          -0.0018617215377699065 -0.0019606841107084015 -0.002112847387559081 -0.0020853112703900297 -0.0018614516633591407 -0.00196146089940039
          -0.0021130395112014216 -0.002084685639094602 -0.0018611817889483751 -0.0022836269297439697 -0.002282395930967825 -0.00228116493219168
          -0.001957844982586052 -0.0019588365082449785 -0.001959828033903905 -0.002100361048047852 -0.0018665190245338802 -0.002100970779700367
          -0.0018668314095758817 -0.0021015805113528815 -0.0018671437946178831 -0.0015712637035881299 -0.0015746035873514374 -0.0015779434711147445
          -0.0017455952667218054 -0.001936251303372466 -0.0017475871371195933 -0.0019387602102778692 -0.0017495790075173813 -0.001941269117183272
          -0.0016021864633310758 -0.0016011819833565953 -0.0016001775033821157 -0.0020059495889423033 -0.0020335731368589993 -0.002007457772192166
          -0.0020359703137558297 -0.002008965955442029 -0.00203836749065266 -0.0019836204706399794 -0.0019845301875219597 -0.001985439904403939
          -0.0018135767631602753 -0.0018123712456074058 -0.0018111657280545364 -0.0021030794425815815 -0.002105873725441284 -0.0021086680083009877
          -0.001408491869745806 -0.0016248176869812147 -0.0014083703783929577 -0.0016232991653468867 -0.001408248887040109 -0.001621780643712558
          -0.002258841858922696 -0.002260891555980729 -0.002262941253038762 -0.0024925091860378747 -0.002471160126347165 -0.002489698583218734
          -0.0024694423490394185 -0.0024868879803995937 -0.002467724571731672 -0.0033870018000332295 -0.0034819361010605364 -0.003346311851050629
          -0.003380653802693521 -0.0034735177389243017 -0.003340576766266389 -0.003374305805353814 -0.003465099376788066 -0.0033348416814821496
          -0.003676782828492399 -0.003507168469886317 -0.003527293821313926 -0.0036701598418207608 -0.0035020948915649103 -0.003521643377492596
          -0.0036635368551491227 -0.0034970213132435044 -0.003515992933671265 -0.0014103532863878141 -0.0017601905548297685 -0.0014125061143074663
          -0.0017612476277247388 -0.001414658942227118 -0.0017623047006197095 -0.002547510033042583 -0.002517179648413661 -0.0024618820307132985
          -0.0025451897795663782 -0.00251449110677278 -0.0024600801373940106 -0.0025428695260901737 -0.002511802565131899 -0.002458278244074723
          -0.0026132965349614005 -0.0025353335439095067 -0.002611463608442849 -0.0025348167683947585 -0.0026096306819242973 -0.0025342999928800094
          -0.0013789807121401638 -0.0013798938899754346 -0.0013808070678107051 -0.0035432854557450873 -0.003709134505551338 -0.003537663149762598
          -0.003702634318877538 -0.0035320408437801093 -0.0036961341322037378 -0.0037781825059397902 -0.0037102673594773283 -0.003770329050032058
          -0.003701381588587144 -0.0037624755941243256 -0.00369249581769696 -0.0033049661426268135 -0.0034056741702852633 -0.0032953977969109984
          -0.0033953856756114577 -0.0032858294511951833 -0.003385097180937653 -0.002953293660679585 -0.0029488966032444317 -0.002944499545809279
          -0.0032973090840077964 -0.003274079514190439 -0.0032931784733741497 -0.0032705681512112377 -0.0032890478627405034 -0.003267056788232036
          -0.0030103558883890014 -0.003007733064639879 -0.0030051102408907558 -0.002205215314825203 -0.002205789987899693 -0.0022063646609741827
          -0.002687330943102302 -0.002687680234583637 -0.0026880295260649713 -0.002157918460476369 -0.0021594562274867063 -0.002160993994497044
          -0.0021627954258136963 -0.0021637367329963427 -0.0021646780401789892 -0.002436670891030202 -0.0023373054133055664 -0.002437701844436244
          -0.002342016288897855 -0.002438732797842286 -0.0023467271644901436 -0.002254561451463815 -0.002199182119733854 -0.0022567364030072865
          -0.0022004232146385747 -0.0022589113545507574 -0.0022016643095432954 -0.0015824336818431317 -0.0015843447039599664 -0.001586255726076801
          -0.001494793891230066 -0.0014952945452081185 -0.0014957951991861709 -0.0021775237218448727 -0.0021781453068641624 -0.002178766891883452
          -0.002295081479838547 -0.0022939616447740707 -0.0022928418097095944 -0.0012306041475033808 -0.0012362046714939113 -0.001241805195484442
          -0.0010815901735296536 -0.0010843248377990695 -0.0010870595020684853 -0.0028668147104334313 -0.0025852251843966356 -0.00286571685145048
          -0.002587117957778898 -0.002864618992467529 -0.0025890107311611617 -0.0031555260870830886 -0.0031510769971129404 -0.0031466279071427914
          -0.0035536342487049065 -0.003421658923297209 -0.003543861415010025 -0.0034119754181115174 -0.003534088581315144 -0.003402291912925827
          -0.0017560251437767002 -0.0019247402078488916 -0.0016815182016204039 -0.001754907323472139 -0.0019232076797863233 -0.0016811942161169718
          -0.001753789503167578 -0.0019216751517237556 -0.0016808702306135392 -0.0016004500121784772 -0.00160112188811196 -0.0016017937640454426
          -0.0034049030543651954 -0.003398036668834104 -0.003391170283303013 -0.0023326850222459227 -0.002346969570881278 -0.0023322542085898543
          -0.0023464382343772352 -0.0023318233949337864 -0.002345906897873193 -0.0033296141567015804 -0.0030929224481109625 -0.00332603390740361
          -0.003092060673236901 -0.0033224536581056407 -0.0030911988983628393 -0.0028430023933970184 -0.002844928079331705 -0.002846853765266392
          -0.002994125283780628 -0.0027884245845208686 -0.0029947493322442925 -0.0027911096935813173 -0.0029953733807079564 -0.002793794802641766
          -0.0007993378232901655 -0.0009162954662522038 -0.0008631157874412934 -0.0007241667380755859 -0.000804184313151776 -0.0009235798402877901
          -0.0008690359255359823 -0.0007295339251711391 -0.0008090308030133863 -0.0009308642143233763 -0.0008749560636306708 -0.0007349011122666922
          -0.0011291092414383278 -0.0011312183796342897 -0.001133327517830252 -0.001379982856110807 -0.0013854841078190811 -0.0013909853595273553
          -0.002408504796194395 -0.002393202731469865 -0.0024059779910856373 -0.002390759025142324 -0.002403451185976879 -0.0023883153188147834
          -0.0023743098745839077 -0.0023771601445888814 -0.002380010414593854 -0.0026107163675640668 -0.002574064387693358 -0.0026077206928864123
          -0.002569583332615507 -0.002604725018208758 -0.0025651022775376557 -0.0019423067486857683 -0.001546383308821547 -0.001938766580963821
          -0.0015448985959696684 -0.0019352264132418738 -0.0015434138831177903 -0.0018316789004671039 -0.0018315527873193221 -0.0018314266741715404
          -0.0026241515720262353 -0.002647947808401909 -0.0026275808477052593 -0.0026515406642912587 -0.002631010123384283 -0.002655133520180608
          -0.0013040503450034357 -0.0013934420858990309 -0.0012448743110970572 -0.0011037267623007475 -0.0013068505711976138 -0.0013956451943711906
          -0.0012470769808918428 -0.0011067636611999875 -0.0013096507973917914 -0.0013978483028433504 -0.0012492796506866286 -0.0011098005600992276
          -0.0024104446569692874 -0.002407584177168955 -0.0024047236973686226 -0.0009088442633419928 -0.0007404250367877814 -0.000912189865257073
          -0.0007448421701316698 -0.0009155354671721534 -0.0007492593034755581 -0.0027052086466488046 -0.0030599057567651158 -0.0027023382229939327
          -0.0030567654005787008 -0.0026994677993390603 -0.003053625044392286 -0.003089701711716478 -0.003084719297331266 -0.003079736882946055
          -0.0024041827896629374 -0.002402158290569704 -0.0024001337914764703 -0.0023940279841030893 -0.0023904069649074594 -0.0023867859457118294
          -0.0010569227116533752 -0.0010622690399870456 -0.0010676153683207162 -0.0006821905444425664 -0.0006856424203030209 -0.0006890942961634753
          -0.0023436867303781935 -0.0026858961014381384 -0.0023393911208916397 -0.0026829789775779473 -0.0023350955114050855 -0.002680061853717755
          -0.0008510366033523541 -0.0008535743632688218 -0.0008561121231852895 -0.0010416861324124736 -0.001047122234721092 -0.00105255833702971
          -0.002510179614473194 -0.0025063886980800517 -0.0025025977816869097 -0.003588554649294875 -0.003580676687449669 -0.0035727987256044614
          -0.0006311284439586464 -0.0006349739124716725 -0.0006388193809846986 -0.002475306595912095 -0.0024780334980070273 -0.00248076040010196
          -0.0034788530937112003 -0.0034457829211235174 -0.003107162106525497 -0.0034710234309523616 -0.0034384820887440335 -0.0031011922613976115
          -0.003463193768193523 -0.00343118125636455 -0.003095222416269726 -0.001104163784737337 -0.0011121390413979324 -0.001120114298058528
          -0.0025919618956008906 -0.00251984580202781 -0.0025867701533470017 -0.0025152604330055135 -0.002581578411093113 -0.0025106750639832167
          -0.00129997760845929 -0.001303954191372199 -0.0013079307742851084 -0.0015510735511395763 -0.0015533907165709967 -0.0015557078820024174
          -0.0026173620648356 -0.002614057457820857 -0.002610752850806115 -0.000693729499276252 -0.0006974011521124966 -0.000701072804948741
          -0.0011939523123243615 -0.0014315032265662868 -0.0011952184707977413 -0.0014325127909742704 -0.0011964846292711207 -0.001433522355382254
          -0.0015267958883281025 -0.0015290659319704288 -0.0015313359756127549 -0.0005503943991800219 -0.000552986320086685 -0.0005555782409933483
          -0.0025764690289624462 -0.00257276525627011 -0.002569061483577774 -0.0026530950422573823 -0.002649004172349873 -0.002644913302442363
          -0.0036857443699335937 -0.0036780333769172655 -0.003670322383900937 -0.0023794044799410746 -0.0023788148286633865 -0.002378225177385699
          -0.002491304973317987 -0.0024523938379511414 -0.00248759580104228 -0.0024502749837735922 -0.002483886628766573 -0.002448156129596043
          -0.0026511847421033788 -0.002648183994689882 -0.0026451832472763853 -0.002353326995701266 -0.0023794646807107174 -0.002352740102328956
          -0.002378207112175737 -0.002352153208956646 -0.0023769495436407563 -0.0024687805455346047 -0.0024667907426091733 -0.002464800939683741
          -0.0023550316260728464 -0.0023543099171607312 -0.0023535882082486156 -0.0024396473492548218 -0.0024387499207004287 -0.002437852492146036
          -0.00205925222843596 -0.0021253826899753072 -0.002064832974508389 -0.0021295954379697544 -0.002070413720580818 -0.0021338081859642016
          -0.0023246379142757745 -0.002325884807895582 -0.002327131701515389 -0.00241871709517898 -0.0024182784538376973 -0.0024178398124964145
        </DataArray>
        <DataArray type="Float64" Name="disp_x" format="ascii" RangeMin="0.0000072575081482929284" RangeMax="0.00005937239205869808">
          0.00004136206817904186 0.00004149578407418814 0.000039335971865133646 0.00003926163598324478 0.000041366221369907035 0.00004150076780856015
          0.00003934126070556371 0.00003926630237723549 0.00004137889041733342 0.00004151491112202761 0.000039358357297261444 0.000039281363752385586
          0.000050834466178836475 0.000047266669728258004 0.000045534087572926295 0.00004763068234550893 0.00005083506415222708 0.00004726877197574767
          0.00004553545496348224 0.000047630823534087444 0.00005083699628504977 0.00004727546880502389 0.00004553987681649095 0.0000476314223283289
          0.00003965087227000392 0.000041276871520414995 0.0000396550884743053 0.000041281240219409014 0.00003966680964089983 0.00004129422949053377
          0.00004738306848227226 0.00004770635186385768 0.000051347990719591226 0.000050815029381750803 0.000047378696849970034 0.00004770010839465182
          0.00005134064404629941 0.00005080906661472828 0.00004736419671703477 0.000047682960621013435 0.00005131959464608953 0.00005079531614425701
          0.00004326368416999906 0.00004507215989062946 0.00004326443281647401 0.000045072260147548426 0.000043266335976998056 0.00004507161516218083
          0.000020155354113577856 0.00002240878395878924 0.00002194367907905948 0.000018955286918117615 0.00002015128422910224 0.000022403122594320365
          0.000021936526535499888 0.00001895231885933904 0.000020137218078645065 0.00002238465205435027 0.000021914467566331492 0.000018941892313691585
          0.0000200328597834426 0.00002380025454200373 0.000024070782430937076 0.000020804145770562 0.000020040232777846675 0.000023806178357505027
          0.00002407617167446056 0.00002081019671073309 0.000020063888694270674 0.00002382649520089358 0.000024095031584074175 0.000020825883288549783
          0.00003921833621308134 0.00004105196731084176 0.00003922217817820543 0.000041055726311125676 0.00003923413075970391 0.00004106697983218949
          0.000012593018926299705 0.000011745233450504655 0.00001452840016508145 0.00001530347776891651 0.000012604147649511517 0.000011758230878443369
          0.00001453998663778267 0.000015313082464686603 0.000012639079534095281 0.000011799722337327708 0.000014573859225946471 0.000015340702870840654
          0.000046524361906604264 0.00004637758000507986 0.00004898379938101644 0.00004652935165312005 0.00004638248594194212 0.00004898872725939634
          0.000046544524594045646 0.00004639683056297483 0.00004899950440929292 0.000025229860526533882 0.00002935578755444457 0.000028439980049526122
          0.00002482574873661978 0.00002523360455643331 0.000029355684352273092 0.00002844079484870475 0.000024830257647491393 0.000025244219358359264
          0.000029355720052310968 0.000028443094349479823 0.000024842872576615198 0.00002015577887227038 0.00002307628049237687 0.00002407794650417355
          0.00002116655543443785 0.000020159471369142034 0.000023079529749327515 0.000024079262609552283 0.000021168223020330676 0.00002016931671995592
          0.000023089064535214546 0.00002408402141413273 0.000021171854835534946 0.00004724183785042291 0.000047238425449317483 0.00004722831755137764
          0.000021260459794948846 0.000023313132338218256 0.000023890880564237053 0.000021257347459143085 0.000023310007454496237 0.000023887242997853613
          0.000021248411779317472 0.000023299983180549244 0.000023876966713748727 0.000018842525355417074 0.000021882030610824847 0.0000188478064493767
          0.00002188680229673289 0.000018863630891676255 0.000021900990028956674 0.000043621919613450644 0.00004356845022571179 0.00004010843889414513
          0.000039606332414048774 0.00004361689332510465 0.000043564407679667096 0.000040103604131325524 0.00003960111230556931 0.000043600987027163157
          0.000043551590419697505 0.00004008929981516027 0.00003958590959919392 0.000009576817443964702 0.000010485033681844086 0.000009034822583659666
          0.000007982639938819044 0.000009591453900408035 0.000010499288925883644 0.000009049876250311167 0.000007998159209686735 0.000009633474221630435
          0.000010539400572021976 0.000009097532066405587 0.000008045311147340249 0.00004339620438849661 0.00004621485463055737 0.000042618457828715556
          0.000043394126003998405 0.000046213638894757384 0.00004261737788345864 0.00004338864798011304 0.00004620993653836794 0.00004261538284355641
          0.0000072575081482929284 0.000008893521732492676 0.000007271377251579251 0.000008908897771338768 0.000007314729649503107 0.000008951435522507337
          0.000031506152105423966 0.000027377129920857027 0.000026359468121350636 0.00002970014404520343 0.00003150556261864421 0.000027378449044522538
          0.000026362235051867902 0.000029700238457633678 0.000031503746183573345 0.000027382544609981905 0.000026371426048630605 0.00002970094650897158
          0.00004360766515157357 0.000046869383773567736 0.000043604518457084045 0.000046867294992872845 0.00004359373966520792 0.00004686036956710958
          0.000013758203269945138 0.0000154455474484569 0.000013763141420848141 0.00001544766459748272 0.000013776344615444498 0.00001545416446209731
          0.000032805475360273254 0.0000345698443337459 0.00003280266536201167 0.00003456729577067342 0.000032792674818729617 0.00003455877054713322
          0.00004037765429706082 0.00003915843985360704 0.00003793760568728878 0.00003904022057556467 0.00004038078349210981 0.00003916158972912528
          0.00003793961390232554 0.00003904200906309113 0.000040390036734001946 0.00003917112138501987 0.00003794629098133931 0.00003904815466972189
          0.000026094486878376284 0.00002654769118876943 0.00002609060093799003 0.000026543203041279336 0.000026077586252699453 0.000026532976617168777
          0.000012215520171253467 0.000012223302775354333 0.000012246990551449929 0.000024878454310555658 0.000027997146818989115 0.00002487801966714556
          0.000027997482097851745 0.000024876193936929555 0.00002799785949005862 0.0000183981711029918 0.0000200984646951474 0.000018118179828378298
          0.00001839912252075905 0.000020096511107783638 0.000018117117742371767 0.000018403118455757715 0.000020089626526277524 0.0000181146415026346
          0.000012575233172550249 0.000013960385888439306 0.000010931741935961196 0.000012585336953781965 0.000013967696455502597 0.00001094242707412118
          0.000012615436591059883 0.000013989333515374653 0.000010975047618958263 0.00002463792403092874 0.000024633494659817044 0.000024621202715263504
          0.000011146682608153314 0.000011160482403515663 0.000011204593549083726 0.000053418654004593166 0.00005455723339506966 0.000053422204968909946
          0.00005455946275453146 0.000053431940637237545 0.00005456621552346533 0.000015699030493264462 0.000015703707115667583 0.000015718421580349102
          0.000031249321741437276 0.00002849331899297746 0.00003107132179113382 0.000031249476354413615 0.000028492033635022425 0.000031071856281380573
          0.00003124935900053121 0.000028489992963427713 0.00003107392340800943 0.000028312761616020287 0.00003141180241284798 0.000028314603988527145
          0.00003140969658386241 0.000028320076554124324 0.00003140316183438189 0.00003858049591141279 0.00003729539204583871 0.000036942038778680035
          0.00003837945566294574 0.00003858503172338683 0.000037300242511933195 0.000036946917959048694 0.00003838450053717001 0.00003859892496314407
          0.000037315039398037246 0.000036962447151851234 0.00003839966860469759 0.000041699231240350824 0.000039730535951420425 0.000039465331600613093
          0.000041543625544660476 0.000041705266582804566 0.00003973630069101036 0.000039471221460152695 0.00004154920595487326 0.000041723418015288054
          0.000039754353200351324 0.000039490439313199035 0.00004156521382238234 0.00005201533795168769 0.000049279180538900094 0.000051376885232372415
          0.00005201939584477484 0.0000492838673477872 0.00005138118277474876 0.0000520333913706626 0.000049298873073666194 0.000051393573035644374
          0.000022650481349637624 0.000022647974032983124 0.000022639564548122156 0.000016698231322370864 0.000016698735238763615 0.000016702320210816627
          0.00003666080172561149 0.00003559613841238683 0.000036665259998242535 0.00003559927138619429 0.00003667830989867922 0.00003560898029431457
          0.00003797879247966511 0.00004008811910595696 0.00003798438700110273 0.000040093737592146015 0.00003800063485725068 0.0000401096541644114
          0.000025542330500257154 0.000025540095387250408 0.000025533105840418624 0.0000443865308437832 0.00004629982718411775 0.0000462486651195203
          0.000043846907556656664 0.00004439130284828091 0.000046305259793665846 0.00004625414613376218 0.00004385228924410268 0.000044406224617529405
          0.00004632218326839386 0.000046271094256334574 0.00004386741569056244 0.00004818167076961039 0.00004818771178315605 0.00004820349689245755
          0.00004382229480590464 0.00004382623065988275 0.00004383638153243817 0.00003484341354889688 0.000033835590251253456 0.00003484217964561901
          0.000033835757636993355 0.00003483774278163873 0.000033836140177578095 0.000029252389680498648 0.000029248612809236192 0.00002923522323856547
          0.000036149859203115674 0.00003716065783867473 0.000036150667126047504 0.00003716096147466217 0.000036152069226650666 0.000037161061556876904
          0.00002836807978091994 0.000028363341022961876 0.00002834579129380064 0.00004240001641151074 0.000040917553202707975 0.00004240296971375935
          0.00004091955374028795 0.00004241139435387977 0.00004092513945023037 0.00004330645073828588 0.000043310012239882634 0.000043319828530416946
          0.000043893439380181735 0.00004389935147819785 0.00004391721474850429 0.00003894592011299467 0.00003894654454045225 0.00003894824358551827
          0.000029320379489402878 0.000027280001426160246 0.000029314635774749542 0.000027275637601955316 0.000029294373285013242 0.00002726562251859313
          0.000036721568101097885 0.000036720140978605865 0.00003671561763509756 0.000053041305405201965 0.00005232176219210814 0.000053038122201008484
          0.00005232074630790111 0.00005302894574323659 0.00005231777598383669 0.000021476671379492127 0.00002430343972531113 0.000021959934821576926
          0.000021483888695356167 0.00002430946071243654 0.000021967206769319577 0.000021509361439085245 0.0000243236817086574 0.000021990271586884137
          0.000034080245457931194 0.000039377748518079515 0.00003572954931443112 0.00003407752304460586 0.000039372901962914535 0.00003572579159001163
          0.00003406944035362812 0.000039359025753035176 0.00003571271467683719 0.000028208379151440968 0.000025411664512453372 0.000028203220167826988
          0.000025404837622280465 0.000028189243444361313 0.000025382362166545758 0.000057060178892082116 0.00005417855394278712 0.00005486820228239529
          0.00005706012660407537 0.00005417937641341595 0.000054868445942908425 0.00005705979334352418 0.0000541818103511874 0.0000548689346782453
          0.000050027303129931205 0.000049161188763586704 0.00005002557510232405 0.00004916093837121549 0.00005002107046677467 0.00004915883022264815
          0.00004313829472172187 0.0000431433936795678 0.00004315877994530481 0.00003987161272100159 0.000035249214875506596 0.0000398667678784947
          0.000035246139798624473 0.000039852058348827395 0.000035236868833307145 0.00003058806400740465 0.000026009902216250163 0.000030587600413624
          0.000026012886087446937 0.00003058447241944608 0.000026021997029748056 0.00002710543460913386 0.000030078499732513314 0.000027108854902236424
          0.000030078123414069544 0.000027120345186741686 0.000030074991278229464 0.00002513671425635241 0.000025141181163714196 0.000025154388533952366
          0.00004431245129447078 0.00004377794341371601 0.00004430673840094707 0.00004377282008136772 0.00004428728110235103 0.00004375533758651057
          0.0000484685753772323 0.00004846183892473876 0.00004844100199073351 0.000047143259949133534 0.00004714889442700717 0.00004716542066204417
          0.00005225489348224816 0.00005224693000425341 0.00005222030473648188 0.00004638444245919187 0.000046388979090146805 0.00004640223309589873
          0.00004575185949317672 0.0000457554443729389 0.00004576595318686859 0.00005442207547964874 0.00005562816883100972 0.00005441417725192572
          0.00005562105287976699 0.0000543866575651117 0.00005559938715746514 0.00004115064641685437 0.0000431973379500643 0.000041151544732456665
          0.00004319949344909058 0.00004115354865440641 0.00004320516986946385 0.00003364406555852818 0.00003364509426731025 0.00003364790232065456
          0.00004201467952251924 0.000042020808260675756 0.00004203953985305945 0.000044691910960409295 0.00004469504696482818 0.000044704193690190905
          0.000021856822403261423 0.00002185663919526072 0.000021855471241971365 0.00003085929594753536 0.000030854669461493273 0.00003083798765128771
          0.000030835582710399666 0.00003083166568111175 0.000030819327465040094 0.00003564505097573191 0.00003714673336543877 0.00003564075698034761
          0.000037143546893535666 0.00003562677292274053 0.00003713438048710321 0.00003442228712361461 0.000034417963509366746 0.00003440434323016078
          0.00002807841127744886 0.000026222630673462233 0.0000280795711951816 0.000026226868328374745 0.000028083759688808133 0.000026238085236796034
          0.000044152540028652174 0.000046804315229760746 0.00004454627026097477 0.00004415871384259162 0.000046809759879407415 0.0000445520814057562
          0.00004417635742032599 0.000046826513082346156 0.0000445693840416507 0.000045107356030508196 0.00004511253817801322 0.00004512802682762735
          0.00003326583305111048 0.00003326221501387457 0.00003325021508789933 0.000048362790969745704 0.000048864241379358794 0.00004836628890059782
          0.00004886913998000571 0.00004837581983579849 0.00004888388372521599 0.00003662250224422086 0.00003744334528373644 0.000036617960282766796
          0.00003743876672012111 0.00003660417413772736 0.00003742457320842326 0.000038292890340718156 0.00003828883959339579 0.00003827595245555632
          0.000040487890291158775 0.0000408162162735231 0.00004048404081089495 0.000040813514794844445 0.00004047143484601994 0.00004080397106396025
          0.000032811785696563835 0.000032736522173589774 0.000034165718571237054 0.00003416238823622965 0.00003280998071325943 0.00003273524581766727
          0.00003416842534086104 0.0000341639724865946 0.00003280345127050577 0.000032733575491353194 0.00003417687087354591 0.00003416721855253917
          0.00003762811431426095 0.00003763370127827578 0.000037649381273753554 0.000031806866946005585 0.000031806225205701045 0.00003180531224554693
          0.000017725149061225952 0.000019080478465773593 0.000017729525814541694 0.000019083025719352954 0.000017744647183540213 0.000019089772206027596
          0.00003905648837837599 0.000039055604810215546 0.000039052315651847445 0.00005638515028013965 0.000053717079701526216 0.00005638520023500437
          0.00005371882969367246 0.00005638552173880471 0.00005372282470314958 0.000011447336034957939 0.000009912891000014367 0.000011459499536701065
          0.000009926242073693188 0.00001149590404553923 0.000009966712051937308 0.000047220247744424874 0.000047225648395152236 0.000047241891550347034
          0.00003946125869953839 0.00004098624035916216 0.00003945920721096041 0.000040984539609361296 0.00003945065393946826 0.00004097835380790116
          0.00003563322498264838 0.00003740344096661497 0.00003745373982466056 0.000035723476600676835 0.000035636226426119745 0.00003740766892310904
          0.0000374588257509099 0.000035727306132965656 0.000035645693437514416 0.00003742010288104375 0.00003747333278464437 0.000035738742915676415
          0.000016155670769433192 0.000016162337765810074 0.00001618199399748948 0.00003576499086366911 0.000035053507896172586 0.0000357694202817881
          0.0000350568463567392 0.00003578286619214182 0.00003506823563834688 0.000016330341601974177 0.00001835692452692894 0.00001633871157990345
          0.00001836597405748702 0.000016361994977822794 0.00001839183444301027 0.000017774590738913925 0.000017784022556171104 0.000017811818728826
          0.00004956136451668831 0.00004956675410897582 0.000049583028235738206 0.000014736675468448655 0.0000147451503526514 0.000014771831927034207
          0.00003406371239984798 0.000034066835121692424 0.000034075871605758 0.00003294601743992224 0.000032945489808648194 0.000032943788079714164
          0.000013598196336976012 0.000017527297767462844 0.000013608068589632088 0.00001753389192122031 0.00001363837942273805 0.00001755322315915641
          0.00003649701049095822 0.00003650190995110054 0.00003651601181320876 0.000031578685807135895 0.00003157548536803072 0.00003156212210915683
          0.00005122544021626717 0.00005122991815220434 0.00005124383648990527 0.000032124885880113596 0.00003212293324491145 0.00003211687058646888
          0.00003418279649617752 0.00003418399085251575 0.0000341877886349962 0.00004113032081800961 0.00004112995272462432 0.00004112791068047745
          0.000021642037403632584 0.000021398295657521056 0.00001761492450214108 0.000021648960351729065 0.000021405740191551985 0.000017624922135538626
          0.000021670505519080068 0.0000214274930288337 0.000017654949149754913 0.00003239935984363585 0.00003239888279340061 0.00003239952354267795
          0.00005293441735271695 0.000051229971381407765 0.0000529374987461861 0.00005123397753303905 0.000052944221595708884 0.00005124720882153043
          0.00003382552139310051 0.00003382787597804502 0.000033833807416253255 0.00003752699853069719 0.00003753039892477535 0.00003753969492104979
          0.000014072173648613114 0.000014084947558386079 0.00001412315723259845 0.00003529235872171411 0.000035296012049830117 0.00003530658424974944
          0.00004057277404585938 0.00004248481807646725 0.00004057781667858379 0.00004249045681877705 0.00004059203700325111 0.00004250773038748775
          0.00003572063444378414 0.000035722778386614544 0.00003572876293411309 0.00003417146145782031 0.000034173170159337805 0.000034177066456121274
          0.00005339603772920286 0.000053388959050878946 0.00005336700481714073 0.00005556437655501556 0.00005556545914294822 0.00005556727578567524
          0.00003133774344089569 0.00003133658028482698 0.00003133286579241689 0.000051025629377594814 0.00005103013136353112 0.00005104465423382628
          0.00005123206926413539 0.000051182795550306945 0.000051236148379914484 0.00005118556607847889 0.00005124767487364051 0.00005119234385217559
          0.00005139052789002377 0.000051385813975849475 0.000051372256595364506 0.00005578436371769451 0.00005635132929352901 0.0000557805802989906
          0.000056349124175519245 0.000055768088571696003 0.0000563429531012844 0.000057930181048972177 0.000057929623487793926 0.000057927983929364846
          0.00005937239205869808 0.00005937061509712284 0.00005936418657926667 0.000054149884711342156 0.000054144430772705425 0.00005412625875876862
          0.0000586198559677969 0.000057739306155748245 0.00005861581656580371 0.00005773345448144133 0.000058607118798139874 0.00005771581381357911
          0.000055778248022746696 0.00005577386435104381 0.00005575737593691631 0.00005475915215364159 0.00005475200352520548 0.000054725869685015534
        </DataArray>
        <DataArray type="Float64" Name="disp_y" format="ascii" RangeMin="-0.000023588106009441275" RangeMax="0">
          -0.000017554638867818716 -0.000018508591818922827 -0.00001873959269452903 -0.000017916845806185956 -0.00001755690020848246 -0.000018510699598556428
          -0.000018742267242587652 -0.000017919955938433963 -0.000017563809125619412 -0.00001851696408763815 -0.00001875045071135616 -0.0000179294903688043
          -0.000010745889073008353 -0.0000126772056157779 -0.000012147445207495342 -0.000010537504542845899 -0.000010746374537320883 -0.000012678894514388159
          -0.000012149849693527584 -0.000010539534246853788 -0.000010747482748857676 -0.000012683872688571163 -0.000012157122362999017 -0.000010545347776066383
          -0.000022536176726688092 -0.000022902756920778305 -0.00002253716244163452 -0.000022903893326566655 -0.00002253986439457982 -0.00002290704128886943
          -0.0000035437684351856186 -0.0000017534348383389173 -0.0000015505414347476984 -0.0000030919190971421666 -0.0000035455182032689116 -0.0000017542327180382812
          -0.0000015503051898911325 -0.0000030921552829579985 -0.0000035511701427080745 -0.0000017557138808621647 -0.0000015473197242017607 -0.000003095243821627608
          -0.000011887715945814184 -0.000010429241197747415 -0.000011891015707733698 -0.00001043198722622295 -0.000011901381949323078 -0.0000104407370413595
          -0.000010685673250893944 -0.000012335173928271792 -0.000012280266869710672 -0.000010159019184876698 -0.000010687485348843348 -0.000012338370129849136
          -0.000012283196442915917 -0.000010159837369315688 -0.000010695154885959698 -0.000012347578815887314 -0.00001229163674792757 -0.000010162562190635774
          -0.000004922540151043901 -0.000006233450383789826 -0.000007662116699061493 -0.000006668986596668727 -0.000004924723464661647 -0.0000062369380895387815
          -0.000007666323894340402 -0.000006671790732641927 -0.00000493161400514996 -0.0000062486398403202 -0.000007679204296478095 -0.000006679860586525479
          -0.000017131056573642647 -0.000016709413177829792 -0.00001713447827610188 -0.00001671211363571705 -0.000017144957439138565 -0.000016719517035650463
          -0.0000021357401476443843 -0.0000010028507867514357 -0.0000012693272708734105 -0.0000026096221767195743 -0.0000021345220269634137 -0.0000010015535919950998
          -0.0000012695974908695739 -0.000002610089651075029 -0.0000021321995563929777 -9.969912961825245e-7 -0.0000012692794815207328 -0.0000026120301543523043
          -0.00002130452148706524 -0.00002017127186794781 -0.00001989947419744662 -0.00002130635420421551 -0.00002017307210889086 -0.000019901340408484795
          -0.00002131291461120881 -0.00002017737268530158 -0.000019906372377819656 -0.0000017670028895913732 -0.000001970890060381301 -0.000003801358492902007
          -0.0000034657255643676344 -0.0000017681260693809794 -0.0000019719123652944324 -0.0000038033579257775733 -0.000003467729749735898 -0.0000017714079651942804
          -0.000001976255014483281 -0.00000380952197609172 -0.0000034734193248748096 -0.000008512206815687882 -0.00000973421955012462 -0.000011057613480774064
          -0.000009666176447609023 -0.000008515071073155266 -0.000009738801169670257 -0.000011063144207284581 -0.000009669501299851409 -0.000008523943289796515
          -0.000009753015517150054 -0.000011079269084448434 -0.000009680366167707794 -0.0000053759209243520935 -0.000005378689244641626 -0.000005387185782683163
          -0.000011069065298631896 -0.000012295973689652591 -0.00001300626341842817 -0.000011071525798515897 -0.00001230020610862442 -0.00001301028937519716
          -0.000011080346765924395 -0.000012311541247847862 -0.000013023363518983069 -0.000007122980547541324 -0.00000825667777146127 -0.000007125290799819403
          -0.000008260297074408635 -0.00000713242929996473 -0.000008270616734938656 -0.0000038580207240148565 -0.000005690520116597837 -0.00000610914764191748
          -0.0000041761894426793445 -0.000003860684938747964 -0.000005694457441500442 -0.0000061135374145955315 -0.000004179499773572647 -0.000003869998762219958
          -0.000005705751161042035 -0.000006126541341521181 -0.000004189799393876666 -8.219085569905445e-7 -0.0000017564119169671478 -0.0000015308707775789746
          -7.639615951867869e-7 -8.202912695355671e-7 -0.0000017546982816293645 -0.0000015283790901703722 -7.616986438112266e-7 -8.115285627845592e-7
          -0.0000017486982184177357 -0.0000015233890711445917 -7.562336657967977e-7 -0.000008996230627857516 -0.000008883348179023667 -0.000010330220244248148
          -0.000009000297048420655 -0.000008886304093531752 -0.000010334167309310391 -0.000009012868687045819 -0.000008893930006026545 -0.00001034543445746663
          0 0 0 0 0 0
          -0.000013564134586140978 -0.000012383690837186885 -0.000010878874906033909 -0.000011468841065981895 -0.000013571860656819937 -0.000012390935305383996
          -0.000010885183190121004 -0.000011476193482851133 -0.000013595332144549597 -0.000012413829548833572 -0.000010904730903842078 -0.00001149931785720528
          -0.00000742662407419212 -0.0000072105037942186385 -0.000007430896119382109 -0.000007213374579838977 -0.000007443808402362101 -0.000007222508211739072
          -0.000005681803976091363 -0.0000072025925975315195 -0.000005679021750998469 -0.0000072005602439845056 -0.000005670485784998754 -0.00000719405093485226
          -0.000011388083813108243 -0.00001286884867011162 -0.00001139564335594287 -0.000012875975765402774 -0.000011418716839171253 -0.000012898228274262148
          -0.000016093973898186163 -0.000016596136775499165 -0.000016492611263335003 -0.000015709953371106166 -0.000016097177547128192 -0.000016599782318107544
          -0.000016497184978425753 -0.000015714108293669336 -0.000016106142063818095 -0.00001661070441804337 -0.000016510522274255733 -0.000015726290971406185
          -0.000013906982204835943 -0.000014550420780819535 -0.000013911421812560776 -0.000014555268022666387 -0.000013923098405001934 -0.000014567733812988504
          -0.000004364057987174597 -0.0000043609325419237625 -0.000004351864008895353 -0.000012186591687879548 -0.000013633919284252782 -0.000012192349447809818
          -0.000013641232607695731 -0.0000122101546157596 -0.000013662904100406288 -0.000008631963714428764 -0.000010119563158117676 -0.000009158715726593102
          -0.000008632654597433192 -0.000010121290878708322 -0.00000915948608530548 -0.00000863386471046169 -0.00001012701821937072 -0.000009161286475054252
          -0.0000038465300128551665 -0.000005106342143037694 -0.0000032391291287326736 -0.000003845342649190774 -0.000005105164069566807 -0.0000032359905284588047
          -0.000003841513169394631 -0.00000510248401682239 -0.0000032260862708315563 -0.000013753073917320651 -0.000013757385453892355 -0.000013769809295320747
          0 0 0 -0.000017383197643910382 -0.00001592109790116963 -0.000017384473160330546
          -0.000015921291813811812 -0.000017388331953896635 -0.000015921499076944775 -0.000006588221602990277 -0.000006587528462357311 -0.000006585682642693219
          -0.0000158399803774851 -0.000014664812730746164 -0.00001484994801692656 -0.000015847693721170666 -0.000014671111380597649 -0.000014857411717008914
          -0.000015871175043998523 -0.000014690737616007407 -0.000014879395466913026 -0.000009767444839246362 -0.000009698236362875426 -0.000009773778707250967
          -0.000009704782088147974 -0.00000979294865166144 -0.000009724303132874571 -0.00002159682010917669 -0.00002100694259120588 -0.00002059170134445474
          -0.000020873570881396973 -0.000021597661432274782 -0.00002100779605397941 -0.00002059270855620089 -0.00002087469183032996 -0.000021600272089997014
          -0.000021009689980544394 -0.000020596090887187107 -0.00002087797861617354 -0.000020472017362296852 -0.00002039239321621439 -0.00001958217609384197
          -0.000019530453844163027 -0.00002047408539950103 -0.00002039441006120592 -0.00001958456491327432 -0.000019532447279654726 -0.00002048082321572109
          -0.000020400933996031986 -0.00001959168191294358 -0.000019538439417305573 -0.000018743037553773052 -0.000018504899170740812 -0.000017357686207337748
          -0.000018744694461399647 -0.00001850651885093124 -0.000017358796425897056 -0.000018751568329405785 -0.000018512477193729 -0.00001736251945413902
          -0.000011517475961474506 -0.000011521311554747552 -0.000011533301581669673 -0.000008535751618524286 -0.000008535390138855394 -0.000008531474747562568
          -0.000020988740049605835 -0.000020307918916267593 -0.00002098926524962001 -0.000020308868336088203 -0.000020990474268174484 -0.000020311904521230264
          -0.000020201820506265153 -0.000021193677151086965 -0.000020203694020793945 -0.000021195606184433368 -0.00002020797968908854 -0.00002120125477201102
          -0.000013127735887422635 -0.00001313291859430472 -0.000013149027966984415 -0.000017943711523853255 -0.000018171802962010785 -0.000019048190317571217
          -0.000019321524651810783 -0.00001794517437709284 -0.00001817300652767918 -0.0000190494729783065 -0.00001932288070197663 -0.00001794937885118436
          -0.000018176800775835446 -0.000019053551617073954 -0.000019326442544769243 -0.000017434512630668847 -0.000017435814724607625 -0.00001743854992558778
          -0.000016784157323995547 -0.000016786007477275548 -0.000016791252439917313 -0.000014819758957040711 -0.000015723366682129273 -0.00001482630511114136
          -0.00001573036252861572 -0.000014845506385041185 -0.000015752333245837193 -0.000015705047502777082 -0.000015711688476392283 -0.000015730210527381894
          -0.000016238611343032173 -0.000015372849506945015 -0.000016244572942127205 -0.000015378234055729944 -0.00001626197540468512 -0.00001539515209164433
          -0.000015520872588140582 -0.0000155274054627422 -0.00001554256809995725 -0.00001517947326243777 -0.0000147331020769087 -0.000015182562835349617
          -0.000014736970087717337 -0.000015191036842840372 -0.000014748537017029937 -0.00001586058794719984 -0.00001586306572204359 -0.00001587003684190026
          -0.00002039012429138147 -0.000020391919338466145 -0.000020396328822635915 -0.000014385774807315866 -0.000014390630310430858 -0.000014405353524278435
          -0.00001627819391675281 -0.00001530457739489857 -0.00001628420546327773 -0.000015310747658002957 -0.00001630573687758172 -0.00001533121885832366
          -0.000013869324967421574 -0.000013875278073309615 -0.000013892053694941741 -0.000006841031019668416 -0.00000852461514151108 -0.000006840821258954407
          -0.000008525181072617243 -0.000006841064699328988 -0.000008527490411262574 -0.0000032025923989937105 -0.000004958497553450416 -0.000004335438034407514
          -0.000003204979477297773 -0.000004961238620502205 -0.000004337917959212851 -0.0000032097484993951784 -0.000004970587489540879 -0.0000043458302792164815
          -0.0000025981423067281287 -0.0000020979762769260636 -0.000004766694303978847 -0.0000025998704958832962 -0.000002099857842087822 -0.000004770035360314997
          -0.000002604489175732989 -0.0000021062557484055205 -0.000004780025303065443 -0.00001610346273439985 -0.000014461796936641745 -0.000016110107675332297
          -0.000014467247937433951 -0.000016132943452414863 -0.00001448174473917875 -0.000011379826707651248 -0.000011672800481894312 -0.000010031567599770153
          -0.000011378121360561835 -0.000011671595021949034 -0.000010030355240778853 -0.000011373314470768769 -0.000011667661904385618 -0.000010027088443566797
          -0.000007043596657579299 -0.000008786014776305957 -0.000007045221417279495 -0.000008787939673670618 -0.000007050738958643925 -0.000008793466862625277
          -0.0000232723524699695 -0.000023274191107887457 -0.000023279348882922567 0 0 0
          0 0 0 0 0 0
          0 0 0 -0.000008139386030267144 -0.000007925769235967983 -0.000008143852953155556
          -0.000007930659599908305 -0.000008158868972525064 -0.00000794431537881535 -0.000009268163616926416 -0.000009273455191624264 -0.000009287790527895961
          0 -0.0000019210294035609556 0 -0.0000019225492167541948 0 -0.0000019269227783891654
          0 0 0 -0.000016576064406043384 -0.000016577230250852917 -0.000016579792716264214
          0 0 0 -0.000015667432549186052 -0.00001566899643364515 -0.000015673562144639435
          -0.000014743441235507567 -0.000014745570826578807 -0.000014752339616211288 -0.0000015038319492819094 0 -0.000001502750062216955
          0 -0.0000014929694087329966 0 -0.000013210295240162442 -0.000013538888839640285 -0.00001321462674395938
          -0.000013542264161184372 -0.000013227184177459864 -0.000013552235559761179 -0.000016617428190312207 -0.000016624830776217685 -0.00001664798086720346
          -0.000021383702921507044 -0.000021386035877313573 -0.000021392841357338875 -0.000014040454866628356 -0.00001404327474104852 -0.000014051360215545753
          -0.000010607075450223933 -0.000010610922556413053 -0.00001062212049108562 -0.000016915289975868407 -0.000016921334553535882 -0.00001694258480306462
          -0.00001747257601004157 -0.00001747873417926983 -0.000017495798914241024 -0.000010669561959097814 -0.000011946402124558553 -0.00001067598835913031
          -0.000011952414300511837 -0.000010695245162344561 -0.000011970732494088282 -0.000009070454905817286 -0.000009076505608788541 -0.000009094450210090213
          -0.000005902935683711962 -0.000006881547889001705 -0.000005906243796626482 -0.0000068854264413998434 -0.000005914720039147041 -0.000006895340822094192
          -0.000021415806877137124 -0.00002242845349008197 -0.000022454648260741537 -0.00002141803480022714 -0.000022431077389968727 -0.000022457181286848033
          -0.000021424894953545486 -0.000022438677771726703 -0.00002246488134552378 -0.00002351466301272084 -0.00002351739385337342 -0.000023525451878197573
          -0.000007310196075089156 -0.000007315085853850286 -0.000007329615060568927 -0.000013507888180421015 -0.000014519263514030085 -0.000013509331112066346
          -0.00001452040703610315 -0.00001351398840885524 -0.000014524182492822174 -0.000006610295161434162 -0.000008335156344823793 -0.00000661503238298165
          -0.000008340839955162685 -0.000006629547653789118 -0.000008357813942481882 -0.000009836164804921089 -0.00000984186881199162 -0.00000985969172357732
          -0.000007772732824905852 -0.000009242577213268865 -0.000007777932608589085 -0.00000924752985453381 -0.000007793762517483642 -0.000009264047612301634
          -0.00001847511122241582 -0.000018095712237192075 -0.00001867075419197206 -0.000019031538979371687 -0.00001847889678117032 -0.000018100176384109093
          -0.000018674512232520852 -0.000019034499579918034 -0.000018489609260735743 -0.000018111453059185684 -0.000018686427592506792 -0.000019043249162531516
          -0.000019492506298035854 -0.000019495141188174828 -0.00001950290242262978 -0.000016758333886820543 -0.0000167660267361898 -0.000016790717693730445
          -0.000007453073159213704 -0.000008550899365689899 -0.000007454462858975045 -0.000008552563359810364 -0.000007457456421610488 -0.000008558185036019754
          -0.000012739589675213394 -0.000012744760728485346 -0.000012760083383674853 -0.000012873957640748039 -0.000013107036751703164 -0.000012872562464610828
          -0.000013106316338176907 -0.00001286837975731143 -0.000013102472309879093 -0.000002747749407080928 -0.0000023152730750133966 -0.0000027463780360175603
          -0.000002312467128648582 -0.0000027429778965059007 -0.0000023046064038854594 -0.000023574727516650088 -0.000023577753527319915 -0.000023588106009441275
          -0.000010931481802951503 -0.000010202189899047638 -0.000010936899685855064 -0.000010206991999923461 -0.000010951924466405064 -0.000010221108289727311
          -0.000017829469303462833 -0.00001800217861499621 -0.000018762534769220718 -0.00001854378798211285 -0.000017834622773659755 -0.000018006348106362705
          -0.000018766065027050804 -0.00001854797691405391 -0.000017850265716165698 -0.00001801865211133494 -0.000018776834023539987 -0.000018560374035532044
          -0.000006033187116098846 -0.00000603385936809613 -0.000006035759526282778 -0.000019275247103832206 -0.000019367753417933774 -0.000019278219684589385
          -0.0000193702985253682 -0.000019287332777036064 -0.00001937768462292732 -0.000004095863111228169 -0.000003037605722274394 -0.0000040969626808435525
          -0.0000030391121511370804 -0.000004099153897043047 -0.000003044586407749029 -0.0000014982039103515033 -0.0000014991603817494297 -0.0000015035285450223377
          -0.000015399847606333085 -0.000015400630468269407 -0.000015403275959855087 -0.000004629084466111395 -0.000004629284774270441 -0.000004630547239309628
          -0.000018132456409423647 -0.00001813775829132287 -0.000018154132344088484 -0.00001885750036182206 -0.000018861223819558767 -0.00001887343983665002
          -0.000003352522254323493 -0.000005622088552578893 -0.0000033524037009951533 -0.000005623641499789995 -0.000003351683940166138 -0.000005628569195669006
          -0.00002000837152530479 -0.000020010196308679297 -0.00002001558927026089 -0.000017526284445394374 -0.000017532450911275845 -0.00001754663836217773
          -0.000016182963581904065 -0.000016183760374551972 -0.000016185969211379534 -0.0000054457909922193705 -0.000005449145830351491 -0.00000546019026422312
          -0.000019377106697143404 -0.000019379261658431784 -0.000019384817045504227 -0.000011548353974856507 -0.000011552773867515917 -0.000011565107030116209
          0 -0.0000016389274200150717 0 0 -0.0000016398739741226535 0
          0 -0.0000016435513183306675 0 -0.00001755637982493102 -0.00001756242595064869 -0.0000175819714761144
          -0.000014473031073552255 -0.000014518749430172292 -0.000014473031990244341 -0.00001451925671024601 -0.00001447345854409749 -0.00001452055070766366
          -0.000017432290503411245 -0.000017439181973932064 -0.000017459329423546072 -0.000017223370435636675 -0.000017227916591938393 -0.000017241480763908762
          0 0 0 -0.00001974341551595402 -0.000019745422932171806 -0.000019750509041075346
          -0.000022033255120868737 -0.000022315497235228068 -0.000022034839955361022 -0.000022317559794123033 -0.00002203914876280522 -0.000022324090691351864
          -0.000017055779038333732 -0.000017061645494840692 -0.000017079387824544638 -0.000019699833571881786 -0.000019701207878708865 -0.00001970540012704861
          -0.000002628987151491427 -0.0000026280804273198965 -0.000002627371183563629 -0.000014389660969696889 -0.000014389165158837668 -0.000014386696081902195
          -0.000004048919484458649 -0.000004051641926561544 -0.0000040579010297995415 -0.00001969121253061041 -0.00001969311830151118 -0.000019698480938414622
          -0.000013644044012911491 -0.00001240771080381886 -0.00001364433409049749 -0.00001240763566171668 -0.000013643562691604003 -0.000012406884103805894
          -0.000004895236328391108 -0.000004896599141061669 -0.000004900008874900077 -0.000006335800854415251 -0.000007874537244952515 -0.000006334441333536752
          -0.000007872980570873907 -0.000006329263659174077 -0.000007868302234519465 -0.000009848693819875638 -0.000009846626591161358 -0.00000984047173145938
          -0.000008304527873100949 -0.0000083021421924374 -0.000008294055323366946 -0.000005328936081446613 -0.000005328061572312325 -0.000005324119435377451
          0 -0.0000017424183736971067 0 -0.0000017413096465032773 0 -0.0000017383237672071992
          -0.000005425376696076886 -0.000005424088007704149 -0.000005419147151407014 -0.0000032604527808654845 -0.0000032600822573218126 -0.000003261652854522801
        </DataArray>
        <DataArray type="Float64" Name="disp_z" format="ascii" RangeMin="-0.0000012618243823000098" RangeMax="0">
          0 0 0 0 -3.2501886496731643e-7 -3.1385217517777344e-7
          -2.762793830680971e-7 -2.902498523332096e-7 -6.498588665716214e-7 -6.2757850498501e-7 -5.525757759765031e-7 -5.805797666476749e-7
          0 0 0 0 -4.214056809504928e-7 -4.09451956390512e-7
          -4.076703018951996e-7 -4.2206537407201196e-7 -8.427666986061274e-7 -8.184941850564111e-7 -8.152542024699985e-7 -8.440493511048647e-7
          0 0 -2.064030598970491e-7 -2.318323259237687e-7 -4.1287532595406325e-7 -4.6404939150368993e-7
          0 0 0 0 -4.970565940250434e-7 -5.108355894074165e-7
          -4.778858296008398e-7 -4.730524233105011e-7 -9.935385191645425e-7 -0.0000010210707788795088 -9.552274328542609e-7 -9.436634782762937e-7
          0 0 -4.1270249160263193e-7 -4.309585737809136e-7 -8.257907672409366e-7 -8.617979137279579e-7
          0 0 0 0 -3.8830443006116915e-7 -3.533301138354886e-7
          -3.773112423769405e-7 -4.151637835734438e-7 -7.756507565637986e-7 -7.064943009063258e-7 -7.527684913608697e-7 -8.27301506104734e-7
          0 0 0 0 -5.149396672972936e-7 -5.574087961746693e-7
          -5.214994309240534e-7 -4.927586510094189e-7 -0.0000010293660759929444 -0.0000011132421647260839 -0.0000010420185879459693 -9.853972010882022e-7
          0 0 -3.059430369224537e-7 -3.31116016173619e-7 -6.121453855399668e-7 -6.62189047084752e-7
          0 0 0 0 -4.0133694824647564e-7 -3.8130943076522615e-7
          -4.626471670807409e-7 -4.6684987982269813e-7 -8.007075121557061e-7 -7.631431750841153e-7 -9.239450955135497e-7 -9.329695691425998e-7
          0 0 0 -3.586227030221798e-7 -3.7035060972487906e-7 -3.915083949670206e-7
          -7.163901433520974e-7 -7.401013142500914e-7 -7.835639453253915e-7 0 0 0
          0 -6.131670703834372e-7 -6.226957548661278e-7 -6.110163144045615e-7 -6.066348104053957e-7 -0.0000012230023695611426
          -0.0000012428018163049763 -0.000001219458124518559 -0.0000012104214656787524 0 0 0
          0 -4.415897073203392e-7 -4.5155452249307777e-7 -4.200319031450632e-7 -4.182852777398047e-7 -8.826642216039749e-7
          -9.026852482668689e-7 -8.401190117748293e-7 -8.355695380184083e-7 0 -4.854962498126782e-7 -9.710334286969243e-7
          0 0 0 -3.8108120442981866e-7 -3.648876445591219e-7 -3.5165736330591106e-7
          -7.614549561177574e-7 -7.289949359438156e-7 -7.046155274221477e-7 0 0 -4.5335122516504317e-7
          -4.772756114984098e-7 -9.056551009507595e-7 -9.540775463153963e-7 0 0 0
          0 -5.326564801441335e-7 -5.088446136493094e-7 -5.356630115762577e-7 -5.626787754977009e-7 -0.0000010647324752671215
          -0.000001017867399006217 -0.0000010709600940256906 -0.0000011242750775866998 0 0 0
          0 -2.897133946743786e-7 -3.3285815481905837e-7 -2.6624871071671907e-7 -2.1150111304456515e-7 -5.786481748443829e-7
          -6.635159808738546e-7 -5.334667736267079e-7 -4.25094505565625e-7 0 0 0
          -4.5535926681798714e-7 -4.4530655502220783e-7 -4.375933559942943e-7 -9.112906172233101e-7 -8.911836078438448e-7 -8.76203674186553e-7
          0 0 -1.541305589127379e-7 -2.459746012173235e-7 -3.124657333273395e-7 -4.917131592776238e-7
          0 0 0 0 -4.1576983609061967e-7 -4.2094011547905976e-7
          -4.6943663618069047e-7 -4.864043172849831e-7 -8.30695419014832e-7 -8.413595241751229e-7 -9.374465249299149e-7 -9.70525210885995e-7
          0 0 -4.825095443820958e-7 -4.58557562903409e-7 -9.65516688328797e-7 -9.175006667126346e-7
          0 0 -3.726707874667491e-7 -3.9550340566994136e-7 -7.44234323804412e-7 -7.890313433308214e-7
          0 0 -4.899278378829939e-7 -4.290261315773169e-7 -9.782473041333262e-7 -8.578157589707943e-7
          0 0 0 0 -3.3461603443920297e-7 -3.1706405117639364e-7
          -3.1253507896128367e-7 -3.3469607475628e-7 -6.697684596724814e-7 -6.348721408089563e-7 -6.261738600242504e-7 -6.704707826376844e-7
          0 0 -3.342188834323283e-7 -3.260553979147944e-7 -6.683345590674927e-7 -6.491702136374973e-7
          0 -3.5025907533113694e-7 -6.992215476428881e-7 0 0 -3.865988539972939e-7
          -3.7014184859043087e-7 -7.737556651531086e-7 -7.40860400281604e-7 0 0 0
          -4.055193643140828e-7 -3.9869785350582847e-7 -4.0705921698335364e-7 -8.097446164062944e-7 -7.96134346147883e-7 -8.113307482512799e-7
          0 0 0 -3.7038475067520033e-7 -3.851177990589999e-7 -3.216369288081594e-7
          -7.399748187893331e-7 -7.698144598060333e-7 -6.42523132206112e-7 0 -3.288168068053273e-7 -6.587960039524376e-7
          0 -3.494302280016223e-7 -6.995121772621754e-7 0 0 -4.502318681040037e-7
          -4.624882040318903e-7 -8.982746881851156e-7 -9.232659885521152e-7 0 -3.9179519599261365e-7 -7.82956025103474e-7
          0 0 0 -3.111151001631568e-7 -3.2865651662774596e-7 -3.5702520580610764e-7
          -6.227083722574067e-7 -6.588951210208277e-7 -7.138474240056236e-7 0 0 -5.272968790930359e-7
          -5.3672406159676e-7 -0.0000010511997649663316 -0.0000010699826609517342 0 0 0
          0 -2.029288543241307e-7 -1.786133639247822e-7 -1.7949624386411674e-7 -2.141455092916214e-7 -4.0599241347128364e-7
          -3.569158097127068e-7 -3.596571215578832e-7 -4.2883155827239933e-7 0 0 0
          0 -2.9267534625040274e-7 -2.5323546183896846e-7 -2.632102317962235e-7 -3.0539903760868796e-7 -5.852548427660491e-7
          -5.068613750904687e-7 -5.26595655536375e-7 -6.105933539006329e-7 0 0 0
          -4.338090491773863e-7 -4.1023433159046744e-7 -4.394022675301826e-7 -8.675792751446232e-7 -8.197131603485914e-7 -8.783896429965088e-7
          0 -3.8033625152766503e-7 -7.605455655100508e-7 0 -4.058639791529299e-7 -8.083829728969288e-7
          0 0 -1.6116392334155898e-7 -1.4794640954216305e-7 -3.239318288656502e-7 -2.9725066243823024e-7
          0 0 -2.1575842343491578e-7 -2.4257131322833296e-7 -4.3214370519911616e-7 -4.854487738732726e-7
          0 -3.5187408599405773e-7 -7.051118169185489e-7 0 0 0
          0 -3.4841764715430455e-7 -3.7980956704965453e-7 -3.6963398611776777e-7 -3.3282986829624585e-7 -6.970943566842382e-7
          -7.60988515081091e-7 -7.389109435849877e-7 -6.654343052388894e-7 0 -4.0083617035962325e-7 -8.005499089573191e-7
          0 -3.4938719875971447e-7 -6.990638485172185e-7 0 0 -3.7298159845801445e-7
          -3.3968069196064876e-7 -7.460976206791076e-7 -6.788231253062422e-7 0 -2.8357840587068585e-7 -5.676233264766742e-7
          0 0 -3.172021202189702e-7 -3.4284915598513657e-7 -6.349440068468604e-7 -6.866589011349071e-7
          0 -3.095105460104305e-7 -6.210650828127908e-7 0 0 -3.57115563622056e-7
          -3.604045630591489e-7 -7.148190503872836e-7 -7.217177211714803e-7 0 -3.5547703697852073e-7 -7.112085228158027e-7
          0 -3.311294351741429e-7 -6.616567079145199e-7 0 -3.6923470184164776e-7 -7.394511940855525e-7
          0 0 -2.7298325346935466e-7 -3.0105706042806716e-7 -5.455845529607426e-7 -5.99737495287576e-7
          0 -3.89619636362564e-7 -7.802926346403718e-7 0 0 -4.357952138865635e-7
          -4.2729138624345517e-7 -8.698602361152269e-7 -8.540243476440331e-7 0 0 0
          -5.67150269471734e-7 -5.817523510955654e-7 -5.687751861211753e-7 -0.0000011318952443634295 -0.0000011594662488327865 -0.0000011371887309156707
          0 0 0 -6.111252429262568e-7 -5.872484962987839e-7 -5.878261481539266e-7
          -0.0000012201386391815677 -0.0000011727935964425744 -0.000001173735251420514 0 0 -2.54868377596304e-7
          -3.1776498871622337e-7 -5.107019228642011e-7 -6.367793959820202e-7 0 0 0
          -4.392344745229883e-7 -4.353920583573517e-7 -4.2649471419428114e-7 -8.779107402736617e-7 -8.699899488154262e-7 -8.524074809259244e-7
          0 0 -4.478681601634083e-7 -4.3345403642733107e-7 -8.950798302145827e-7 -8.668614631558885e-7
          0 -2.642451233116309e-7 -5.28927687674028e-7 0 0 -5.897365954995357e-7
          -6.127929970698518e-7 -0.000001177328557372297 -0.0000012238021902112415 0 0 -6.320261422288448e-7
          -6.26332602707011e-7 -0.0000012618243823000098 -0.0000012498658867127238 0 0 -5.622337156406046e-7
          -5.764014971314818e-7 -0.0000011208017855697857 -0.0000011489610028508 0 -5.026938628635846e-7 -0.0000010042208682545094
          0 0 -5.453031951335599e-7 -5.505319675338717e-7 -0.0000010892225955486688 -0.0000011000506252728325
          0 -4.965178732001304e-7 -9.915404883313314e-7 0 -3.880631307701956e-7 -7.768971821049682e-7
          0 -4.448832020248013e-7 -8.898417100863271e-7 0 -3.7740040063020575e-7 -7.558676852275552e-7
          0 -3.8210044012124215e-7 -7.64669266432126e-7 0 0 -4.2320380074513647e-7
          -3.732410480950476e-7 -8.467494066152956e-7 -7.497936737690956e-7 0 0 -3.914337710392816e-7
          -3.8461825273769854e-7 -7.835335574811185e-7 -7.696393017129766e-7 0 -2.91730491079996e-7 -5.840497844446511e-7
          0 -2.8280828911637377e-7 -5.660845243968508e-7 0 -3.8244422298351636e-7 -7.649391476307751e-7
          0 -4.013581474132863e-7 -8.022597508797151e-7 0 -2.2550260736872115e-7 -4.536658612924826e-7
          0 -2.1461219504795637e-7 -4.305942217423027e-7 0 0 -4.830755961204741e-7
          -4.3955416263530097e-7 -9.65778830557985e-7 -8.799750222385261e-7 0 -5.309751391608254e-7 -0.0000010606431672931203
          0 0 -5.929136377775588e-7 -5.756633230234647e-7 -0.0000011827483199848598 -0.0000011479477555773615
          0 0 0 -3.229862345209188e-7 -3.478913720191789e-7 -3.10818616600759e-7
          -6.452260762796962e-7 -6.951315501789885e-7 -6.214816527829672e-7 0 -2.985959020462471e-7 -5.973591868196909e-7
          0 -5.680282835127755e-7 -0.0000011338681651521727 0 0 -4.087574958252157e-7
          -4.0774028810529425e-7 -8.174211704494968e-7 -8.155390155714995e-7 0 0 -5.549625022670519e-7
          -5.187480368471286e-7 -0.0000011088595482383888 -0.0000010374673505818675 0 -4.774284870739066e-7 -9.55797123914237e-7
          0 0 -5.030236421814511e-7 -4.676516155030758e-7 -0.0000010060473533788828 -9.367566496584839e-7
          0 0 0 0 -1.7369695550272074e-7 -1.824840198990115e-7
          -1.7816783599881293e-7 -1.6009293975329546e-7 -3.494907272122501e-7 -3.689688221740147e-7 -3.578814476141019e-7 -3.2292854304237304e-7
          0 -2.2277311716647224e-7 -4.462794765947507e-7 0 -2.559236994397702e-7 -5.1425452515405e-7
          0 0 -4.228139764744098e-7 -4.2021733634651097e-7 -8.446377237899519e-7 -8.406819329342219e-7
          0 -4.0751563062426674e-7 -8.161996727369557e-7 0 0 -4.504462285311988e-7
          -4.475440182081704e-7 -9.00290585056153e-7 -8.93147684387499e-7 0 0 -3.5428902241469053e-7
          -2.9261991155963343e-7 -7.07163455911091e-7 -5.848394564612048e-7 0 -3.324244064993394e-7 -6.648769788126559e-7
          0 0 -4.4301258597927734e-7 -4.428625605524947e-7 -8.877242572288883e-7 -8.863974242909326e-7
          0 0 0 0 -2.4940146988448057e-7 -2.639143499588335e-7
          -2.415080407640863e-7 -2.2160303384709416e-7 -4.996674740067924e-7 -5.286819266934559e-7 -4.840102334873799e-7 -4.442563880828398e-7
          0 -4.20959435821769e-7 -8.410744302565851e-7 0 0 -1.9200056664840564e-7
          -1.6614160548348916e-7 -3.852917121329368e-7 -3.3368506495742903e-7 0 0 -4.67354525183279e-7
          -5.099358105594231e-7 -9.340803576558359e-7 -0.0000010190445576885938 0 -5.245499633964569e-7 -0.0000010476711494947149
          0 -4.170915581072663e-7 -8.335149943894814e-7 0 -4.207630809256623e-7 -8.400461427380735e-7
          0 -2.0979063618168264e-7 -4.212380206525816e-7 0 -1.521224003817909e-7 -3.045857430582338e-7
          0 0 -4.159101159722551e-7 -4.6785525961728994e-7 -8.301059713383491e-7 -9.34629707460268e-7
          0 -1.8433389260072145e-7 -3.6957868566465e-7 0 -1.932120857919894e-7 -3.850008768147404e-7
          0 -4.373819912408889e-7 -8.733889339961372e-7 0 -6.021956452311123e-7 -0.0000012016612175890099
          0 -1.4739983281791678e-7 -2.963250827023284e-7 0 -4.2263980532168126e-7 -8.461249187417076e-7
          0 0 0 -5.89209966479644e-7 -5.788060043820517e-7 -5.281869812650231e-7
          -0.0000011757748510862984 -0.0000011554952636126052 -0.0000010538690651616498 0 -2.0997893152441762e-7 -4.246709525138686e-7
          0 0 -4.5337864978483195e-7 -4.410539638740565e-7 -9.047035031654509e-7 -8.806746115246646e-7
          0 -2.4623438399660173e-7 -4.936354845901839e-7 0 -2.8901746319673355e-7 -5.788052727067321e-7
          0 -4.4911107505647387e-7 -8.967855627263782e-7 0 -1.59289261773908e-7 -3.20092153542216e-7
          0 0 -2.351075438119696e-7 -2.7203926421413297e-7 -4.7067973665450556e-7 -5.446886228331843e-7
          0 -2.8519915729131115e-7 -5.713013158127266e-7 0 -1.3774801421121298e-7 -2.761785762830331e-7
          0 -4.618876503148079e-7 -9.216117612840808e-7 0 -4.56919537637697e-7 -9.123729334524208e-7
          0 -6.146820269659361e-7 -0.000001227159915230838 0 -4.0466789730893174e-7 -8.082956445629291e-7
          0 0 -4.3452595316670873e-7 -4.256997593204365e-7 -8.674126594682656e-7 -8.507025672461779e-7
          0 -4.591356114852679e-7 -9.169203563670571e-7 0 0 -4.086483634398811e-7
          -4.1594370711096624e-7 -8.170615272156553e-7 -8.312519428559514e-7 0 -4.30319423323642e-7 -8.598472865214098e-7
          0 -4.101887587777545e-7 -8.201062116877924e-7 0 -4.264439794231252e-7 -8.51981410204438e-7
          0 0 -3.503276896320783e-7 -3.6472571587792003e-7 -7.02548571945136e-7 -7.315150768520556e-7
          0 -4.0317075269339875e-7 -8.071749879882333e-7 0 -4.1952230900316065e-7 -8.381811163629128e-7
        </DataArray>
      </PointData>
      <CellData>
        <DataArray type="Int32" Name="libmesh_elem_id" format="ascii" RangeMin="1392" RangeMax="3231">
          1392 1393 1402 1403 1418 1419
          1434 1435 1442 1443 1448 1449
          1454 1455 1478 1479 1500 1501
          1512 1513 1522 1523 1546 1547
          1572 1573 1582 1583 1590 1591
          1608 1609 1614 1615 1616 1617
          1630 1631 1638 1639 1650 1651
          1654 1655 1656 1657 1678 1679
          1682 1683 1684 1685 1704 1705
          1714 1715 1718 1719 1746 1747
          1760 1761 1762 1763 1772 1773
          1790 1791 1794 1795 1802 1803
          1816 1817 1824 1825 1832 1833
          1838 1839 1840 1841 1846 1847
          1848 1849 1852 1853 1856 1857
          1858 1859 1862 1863 1864 1865
          1874 1875 1876 1877 1878 1879
          1882 1883 1888 1889 1904 1905
          1906 1907 1910 1911 1916 1917
          1924 1925 1926 1927 1930 1931
          1936 1937 1946 1947 1950 1951
          1956 1957 1960 1961 1982 1983
          1996 1997 1998 1999 2026 2027
          2028 2029 2038 2039 2046 2047
          2048 2049 2052 2053 2054 2055
          2058 2059 2060 2061 2084 2085
          2088 2089 2096 2097 2102 2103
          2106 2107 2110 2111 2126 2127
          2136 2137 2138 2139 2144 2145
          2148 2149 2154 2155 2158 2159
          2162 2163 2164 2165 2170 2171
          2176 2177 2178 2179 2196 2197
          2200 2201 2202 2203 2204 2205
          2212 2213 2220 2221 2222 2223
          2224 2225 2226 2227 2228 2229
          2232 2233 2236 2237 2246 2247
          2250 2251 2252 2253 2254 2255
          2260 2261 2264 2265 2266 2267
          2274 2275 2282 2283 2308 2309
          2310 2311 2312 2313 2318 2319
          2324 2325 2328 2329 2346 2347
          2350 2351 2364 2365 2368 2369
          2370 2371 2402 2403 2416 2417
          2420 2421 2444 2445 2458 2459
          2462 2463 2466 2467 2468 2469
          2470 2471 2478 2479 2484 2485
          2488 2489 2490 2491 2502 2503
          2504 2505 2510 2511 2512 2513
          2524 2525 2550 2551 2566 2567
          2570 2571 2580 2581 2582 2583
          2602 2603 2608 2609 2616 2617
          2628 2629 2634 2635 2636 2637
          2640 2641 2642 2643 2644 2645
          2650 2651 2666 2667 2668 2669
          2684 2685 2690 2691 2696 2697
          2700 2701 2710 2711 2714 2715
          2716 2717 2726 2727 2750 2751
          2760 2761 2766 2767 2772 2773
          2782 2783 2798 2799 2802 2803
          2810 2811 2826 2827 2830 2831
          2838 2839 2860 2861 2868 2869
          2874 2875 2884 2885 2922 2923
          2928 2929 2934 2935 2938 2939
          2946 2947 2948 2949 2960 2961
          2962 2963 2964 2965 2974 2975
          2978 2979 2994 2995 2998 2999
          3004 3005 3008 3009 3020 3021
          3028 3029 3034 3035 3038 3039
          3040 3041 3042 3043 3050 3051
          3052 3053 3054 3055 3060 3061
          3066 3067 3072 3073 3076 3077
          3082 3083 3086 3087 3096 3097
          3100 3101 3102 3103 3112 3113
          3116 3117 3148 3149 3154 3155
          3158 3159 3166 3167 3182 3183
          3230 3231
        </DataArray>
        <DataArray type="Int32" Name="subdomain_id" format="ascii" RangeMin="107" RangeMax="107">
          107 107 107 107 107 107
          107 107 107 107 107 107
          107 107 107 107 107 107
          107 107 107 107 107 107
          107 107 107 107 107 107
          107 107 107 107 107 107
          107 107 107 107 107 107
          107 107 107 107 107 107
          107 107 107 107 107 107
          107 107 107 107 107 107
          107 107 107 107 107 107
          107 107 107 107 107 107
          107 107 107 107 107 107
          107 107 107 107 107 107
          107 107 107 107 107 107
          107 107 107 107 107 107
          107 107 107 107 107 107
          107 107 107 107 107 107
          107 107 107 107 107 107
          107 107 107 107 107 107
          107 107 107 107 107 107
          107 107 107 107 107 107
          107 107 107 107 107 107
          107 107 107 107 107 107
          107 107 107 107 107 107
          107 107 107 107 107 107
          107 107 107 107 107 107
          107 107 107 107 107 107
          107 107 107 107 107 107
          107 107 107 107 107 107
          107 107 107 107 107 107
          107 107 107 107 107 107
          107 107 107 107 107 107
          107 107 107 107 107 107
          107 107 107 107 107 107
          107 107 107 107 107 107
          107 107 107 107 107 107
          107 107 107 107 107 107
          107 107 107 107 107 107
          107 107 107 107 107 107
          107 107 107 107 107 107
          107 107 107 107 107 107
          107 107 107 107 107 107
          107 107 107 107 107 107
          107 107 107 107 107 107
          107 107 107 107 107 107
          107 107 107 107 107 107
          107 107 107 107 107 107
          107 107 107 107 107 107
          107 107 107 107 107 107
          107 107 107 107 107 107
          107 107 107 107 107 107
          107 107 107 107 107 107
          107 107 107 107 107 107
          107 107 107 107 107 107
          107 107 107 107 107 107
          107 107 107 107 107 107
          107 107 107 107 107 107
          107 107 107 107 107 107
          107 107 107 107 107 107
          107 107 107 107 107 107
          107 107 107 107 107 107
          107 107 107 107 107 107
          107 107 107 107 107 107
          107 107 107 107 107 107
          107 107 107 107 107 107
          107 107 107 107 107 107
          107 107 107 107 107 107
          107 107 107 107 107 107
          107 107 107 107 107 107
          107 107 107 107 107 107
          107 107 107 107 107 107
          107 107 107 107 107 107
          107 107 107 107 107 107
          107 107 107 107 107 107
          107 107
        </DataArray>
        <DataArray type="Int32" Name="processor_id" format="ascii" RangeMin="2" RangeMax="2">
          2 2 2 2 2 2
          2 2 2 2 2 2
          2 2 2 2 2 2
          2 2 2 2 2 2
          2 2 2 2 2 2
          2 2 2 2 2 2
          2 2 2 2 2 2
          2 2 2 2 2 2
          2 2 2 2 2 2
          2 2 2 2 2 2
          2 2 2 2 2 2
          2 2 2 2 2 2
          2 2 2 2 2 2
          2 2 2 2 2 2
          2 2 2 2 2 2
          2 2 2 2 2 2
          2 2 2 2 2 2
          2 2 2 2 2 2
          2 2 2 2 2 2
          2 2 2 2 2 2
          2 2 2 2 2 2
          2 2 2 2 2 2
          2 2 2 2 2 2
          2 2 2 2 2 2
          2 2 2 2 2 2
          2 2 2 2 2 2
          2 2 2 2 2 2
          2 2 2 2 2 2
          2 2 2 2 2 2
          2 2 2 2 2 2
          2 2 2 2 2 2
          2 2 2 2 2 2
          2 2 2 2 2 2
          2 2 2 2 2 2
          2 2 2 2 2 2
          2 2 2 2 2 2
          2 2 2 2 2 2
          2 2 2 2 2 2
          2 2 2 2 2 2
          2 2 2 2 2 2
          2 2 2 2 2 2
          2 2 2 2 2 2
          2 2 2 2 2 2
          2 2 2 2 2 2
          2 2 2 2 2 2
          2 2 2 2 2 2
          2 2 2 2 2 2
          2 2 2 2 2 2
          2 2 2 2 2 2
          2 2 2 2 2 2
          2 2 2 2 2 2
          2 2 2 2 2 2
          2 2 2 2 2 2
          2 2 2 2 2 2
          2 2 2 2 2 2
          2 2 2 2 2 2
          2 2 2 2 2 2
          2 2 2 2 2 2
          2 2 2 2 2 2
          2 2 2 2 2 2
          2 2 2 2 2 2
          2 2 2 2 2 2
          2 2 2 2 2 2
          2 2 2 2 2 2
          2 2 2 2 2 2
          2 2 2 2 2 2
          2 2 2 2 2 2
          2 2 2 2 2 2
          2 2 2 2 2 2
          2 2 2 2 2 2
          2 2 2 2 2 2
          2 2 2 2 2 2
          2 2 2 2 2 2
          2 2 2 2 2 2
          2 2 2 2 2 2
          2 2
        </DataArray>
      </CellData>
      <Points>
        <DataArray type="Float64" Name="Points" NumberOfComponents="3" format="ascii" RangeMin="0.0055128205128194" RangeMax="0.014586579917196396">
          0.010655961336451 0.0054415469453289 0 0.010738296327413 0.0059250363170334 0
          0.010252884061106 0.0059462536680524 0 0.010205117478458 0.0054994523140404 0
          0.010655961336451 0.0054415469453289 0.00015 0.010738296327413 0.0059250363170334 0.00015
          0.010252884061106 0.0059462536680524 0.00015 0.010205117478458 0.0054994523140404 0.00015
          0.010655961336451 0.0054415469453289 0.0003 0.010738296327413 0.0059250363170334 0.0003
          0.010252884061106 0.0059462536680524 0.0003 0.010205117478458 0.0054994523140404 0.0003
          0.011940440807394 0.0034141066074527 0 0.011459595517011 0.003824326979063 0
          0.011102612382238 0.0034627190197861 0 0.011355953963772 0.0030463545109029 0
          0.011940440807394 0.0034141066074527 0.00015 0.011459595517011 0.003824326979063 0.00015
          0.011102612382238 0.0034627190197861 0.00015 0.011355953963772 0.0030463545109029 0.00015
          0.011940440807394 0.0034141066074527 0.0003 0.011459595517011 0.003824326979063 0.0003
          0.011102612382238 0.0034627190197861 0.0003 0.011355953963772 0.0030463545109029 0.0003
          0.010057653370411 0.0084974472595183 0 0.01054988842507 0.0084422245958245 0
          0.010057653370411 0.0084974472595183 0.00015 0.01054988842507 0.0084422245958245 0.00015
          0.010057653370411 0.0084974472595183 0.0003 0.01054988842507 0.0084422245958245 0.0003
          0.011046194733105 0.00090743319272295 0 0.011064186406242 0.00044456569898216 0
          0.011549090679959 0.00043919238601916 0 0.011507246232172 0.00087204304167501 0
          0.011046194733105 0.00090743319272295 0.00015 0.011064186406242 0.00044456569898216 0.00015
          0.011549090679959 0.00043919238601916 0.00015 0.011507246232172 0.00087204304167501 0.00015
          0.011046194733105 0.00090743319272295 0.0003 0.011064186406242 0.00044456569898216 0.0003
          0.011549090679959 0.00043919238601916 0.0003 0.011507246232172 0.00087204304167501 0.0003
          0.010695724673322 0.003201084864495 0 0.010922769205465 0.002821493997395 0
          0.010695724673322 0.003201084864495 0.00015 0.010922769205465 0.002821493997395 0.00015
          0.010695724673322 0.003201084864495 0.0003 0.010922769205465 0.002821493997395 0.0003
          0.0063972422249218 0.0045440807567198 0 0.0065062213292024 0.0050164807168814 0
          0.0062389906493372 0.0053128670028646 0 0.0060512178389602 0.0047929387822649 0
          0.0063972422249218 0.0045440807567198 0.00015 0.0065062213292024 0.0050164807168814 0.00015
          0.0062389906493372 0.0053128670028646 0.00015 0.0060512178389602 0.0047929387822649 0.00015
          0.0063972422249218 0.0045440807567198 0.0003 0.0065062213292024 0.0050164807168814 0.0003
          0.0062389906493372 0.0053128670028646 0.0003 0.0060512178389602 0.0047929387822649 0.0003
          0.0077450758336629 0.0014176167893871 0 0.0081853433575 0.0016343392489207 0
          0.0081296210030831 0.0020475545417094 0 0.0077097822266787 0.0019577759081516 0
          0.0077450758336629 0.0014176167893871 0.00015 0.0081853433575 0.0016343392489207 0.00015
          0.0081296210030831 0.0020475545417094 0.00015 0.0077097822266787 0.0019577759081516 0.00015
          0.0077450758336629 0.0014176167893871 0.0003 0.0081853433575 0.0016343392489207 0.0003
          0.0081296210030831 0.0020475545417094 0.0003 0.0077097822266787 0.0019577759081516 0.0003
          0.010163700921554 0.0050965322104848 0 0.010539876174215 0.0050107335132671 0
          0.010163700921554 0.0050965322104848 0.00015 0.010539876174215 0.0050107335132671 0.00015
          0.010163700921554 0.0050965322104848 0.0003 0.010539876174215 0.0050107335132671 0.0003
          0.0067145785472978 0.00092067788586619 0 0.0066311284750677 0.00045344715700039 0
          0.0071039644964018 0.00045254776362746 0 0.0071622170579096 0.00091220258976311 0
          0.0067145785472978 0.00092067788586619 0.00015 0.0066311284750677 0.00045344715700039 0.00015
          0.0071039644964018 0.00045254776362746 0.00015 0.0071622170579096 0.00091220258976311 0.00015
          0.0067145785472978 0.00092067788586619 0.0003 0.0066311284750677 0.00045344715700039 0.0003
          0.0071039644964018 0.00045254776362746 0.0003 0.0071622170579096 0.00091220258976311 0.0003
          0.011832021157187 0.0073476785459853 0 0.011779780861271 0.0068646395959748 0
          0.012243708910156 0.0068324173193727 0 0.011832021157187 0.0073476785459853 0.00015
          0.011779780861271 0.0068646395959748 0.00015 0.012243708910156 0.0068324173193727 0.00015
          0.011832021157187 0.0073476785459853 0.0003 0.011779780861271 0.0068646395959748 0.0003
          0.012243708910156 0.0068324173193727 0.0003 0.0084907788898463 0.00044286110481525 0
          0.0089555217282148 0.00046389179151574 0 0.0088246864415892 0.00090448805343066 0
          0.0084146790711037 0.00087434414493667 0 0.0084907788898463 0.00044286110481525 0.00015
          0.0089555217282148 0.00046389179151574 0.00015 0.0088246864415892 0.00090448805343066 0.00015
          0.0084146790711037 0.00087434414493667 0.00015 0.0084907788898463 0.00044286110481525 0.0003
          0.0089555217282148 0.00046389179151574 0.0003 0.0088246864415892 0.00090448805343066 0.0003
          0.0084146790711037 0.00087434414493667 0.0003 0.0073198391209489 0.002802975731369 0
          0.007729981097025 0.0028801564362105 0 0.0077015154526268 0.0033237594367458 0
          0.0072927827923603 0.0032114269239825 0 0.0073198391209489 0.002802975731369 0.00015
          0.007729981097025 0.0028801564362105 0.00015 0.0077015154526268 0.0033237594367458 0.00015
          0.0072927827923603 0.0032114269239825 0.00015 0.0073198391209489 0.002802975731369 0.0003
          0.007729981097025 0.0028801564362105 0.0003 0.0077015154526268 0.0033237594367458 0.0003
          0.0072927827923603 0.0032114269239825 0.0003 0.011061956134478 0.0014022262787872 0
          0.011061956134478 0.0014022262787872 0.00015 0.011061956134478 0.0014022262787872 0.0003
          0.0067262777673885 0.0043003855308917 0 0.0070184374453973 0.0044097475846897 0
          0.0069143452336461 0.0047780273607631 0 0.0067262777673885 0.0043003855308917 0.00015
          0.0070184374453973 0.0044097475846897 0.00015 0.0069143452336461 0.0047780273607631 0.00015
          0.0067262777673885 0.0043003855308917 0.0003 0.0070184374453973 0.0044097475846897 0.0003
          0.0069143452336461 0.0047780273607631 0.0003 0.0072966772765568 0.0023596996909359 0
          0.0077191611848381 0.0024307703640478 0 0.0072966772765568 0.0023596996909359 0.00015
          0.0077191611848381 0.0024307703640478 0.00015 0.0072966772765568 0.0023596996909359 0.0003
          0.0077191611848381 0.0024307703640478 0.0003 0.010569749843509 0.00092230265866691 0
          0.010578573679683 0.0013844170604281 0 0.010145320905195 0.0014335884987508 0
          0.01008894187929 0.00096115561381429 0 0.010569749843509 0.00092230265866691 0.00015
          0.010578573679683 0.0013844170604281 0.00015 0.010145320905195 0.0014335884987508 0.00015
          0.01008894187929 0.00096115561381429 0.00015 0.010569749843509 0.00092230265866691 0.0003
          0.010578573679683 0.0013844170604281 0.0003 0.010145320905195 0.0014335884987508 0.0003
          0.01008894187929 0.00096115561381429 0.0003 0.0061669869081239 0.00049673093518566 0
          0.0062913293509889 0.00097410606592609 0 0.0059245902968253 0.0010856763727913 0
          0.0057061681768373 0.00065177476244477 0 0.0061669869081239 0.00049673093518566 0.00015
          0.0062913293509889 0.00097410606592609 0.00015 0.0059245902968253 0.0010856763727913 0.00015
          0.0057061681768373 0.00065177476244477 0.00015 0.0061669869081239 0.00049673093518566 0.0003
          0.0062913293509889 0.00097410606592609 0.0003 0.0059245902968253 0.0010856763727913 0.0003
          0.0057061681768373 0.00065177476244477 0.0003 0.010613957240618 0.0022894151744625 0
          0.011031068838334 0.0023895404946521 0 0.01053554486979 0.0026566023779455 0
          0.010613957240618 0.0022894151744625 0.00015 0.011031068838334 0.0023895404946521 0.00015
          0.01053554486979 0.0026566023779455 0.00015 0.010613957240618 0.0022894151744625 0.0003
          0.011031068838334 0.0023895404946521 0.0003 0.01053554486979 0.0026566023779455 0.0003
          0.0055128205128194 0 0 0.0060256410256386 0 0
          0.0055128205128194 0 0.00015 0.0060256410256386 0 0.00015
          0.0055128205128194 0 0.0003 0.0060256410256386 0 0.0003
          0.0087932726011055 0.003543484648519 0 0.0081725565838686 0.0034418576035907 0
          0.0081844882448281 0.0029554535172717 0 0.0086653225286358 0.0029358056411338 0
          0.0087932726011055 0.003543484648519 0.00015 0.0081725565838686 0.0034418576035907 0.00015
          0.0081844882448281 0.0029554535172717 0.00015 0.0086653225286358 0.0029358056411338 0.00015
          0.0087932726011055 0.003543484648519 0.0003 0.0081725565838686 0.0034418576035907 0.0003
          0.0081844882448281 0.0029554535172717 0.0003 0.0086653225286358 0.0029358056411338 0.0003
          0.010609256891376 0.0018508518753275 0 0.011063963632424 0.0019108783312894 0
          0.010609256891376 0.0018508518753275 0.00015 0.011063963632424 0.0019108783312894 0.00015
          0.010609256891376 0.0018508518753275 0.0003 0.011063963632424 0.0019108783312894 0.0003
          0.0061614658010566 0.0029736343202522 0 0.0061372854142827 0.0036106222238676 0
          0.0061614658010566 0.0029736343202522 0.00015 0.0061372854142827 0.0036106222238676 0.00015
          0.0061614658010566 0.0029736343202522 0.0003 0.0061372854142827 0.0036106222238676 0.0003
          0.0091223832784702 0.0028108558594978 0 0.0093224708097351 0.0032450014434347 0
          0.0091223832784702 0.0028108558594978 0.00015 0.0093224708097351 0.0032450014434347 0.00015
          0.0091223832784702 0.0028108558594978 0.0003 0.0093224708097351 0.0032450014434347 0.0003
          0.010365654248251 0.0046741943492533 0 0.010130092133721 0.0048347586786618 0
          0.0098673679311407 0.0047157860708196 0 0.010078628200493 0.0044157313734999 0
          0.010365654248251 0.0046741943492533 0.00015 0.010130092133721 0.0048347586786618 0.00015
          0.0098673679311407 0.0047157860708196 0.00015 0.010078628200493 0.0044157313734999 0.00015
          0.010365654248251 0.0046741943492533 0.0003 0.010130092133721 0.0048347586786618 0.0003
          0.0098673679311407 0.0047157860708196 0.0003 0.010078628200493 0.0044157313734999 0.0003
          0.0074225055052033 0.0045889494028562 0 0.0073125071067115 0.0049521547682488 0
          0.0074225055052033 0.0045889494028562 0.00015 0.0073125071067115 0.0049521547682488 0.00015
          0.0074225055052033 0.0045889494028562 0.0003 0.0073125071067115 0.0049521547682488 0.0003
          0.0061231952422177 0.002444135475079 0 0.0061231952422177 0.002444135475079 0.00015
          0.0061231952422177 0.002444135475079 0.0003 0.007634491258567 0.0037589111207536 0
          0.0080978935956725 0.0039120786728548 0 0.007634491258567 0.0037589111207536 0.00015
          0.0080978935956725 0.0039120786728548 0.00015 0.007634491258567 0.0037589111207536 0.0003
          0.0080978935956725 0.0039120786728548 0.0003 0.0067400809843091 0.0034207975388345 0
          0.0067100713183769 0.0039836679330495 0 0.0063054236008776 0.0041223407032968 0
          0.0067400809843091 0.0034207975388345 0.00015 0.0067100713183769 0.0039836679330495 0.00015
          0.0063054236008776 0.0041223407032968 0.00015 0.0067400809843091 0.0034207975388345 0.0003
          0.0067100713183769 0.0039836679330495 0.0003 0.0063054236008776 0.0041223407032968 0.0003
          0.0064429727892239 0.0018594619814901 0 0.0065003657821779 0.0023397297588745 0
          0.0060722038988066 0.0019538017587265 0 0.0064429727892239 0.0018594619814901 0.00015
          0.0065003657821779 0.0023397297588745 0.00015 0.0060722038988066 0.0019538017587265 0.00015
          0.0064429727892239 0.0018594619814901 0.0003 0.0065003657821779 0.0023397297588745 0.0003
          0.0060722038988066 0.0019538017587265 0.0003 0.0068255396015086 0.0051581133306003 0
          0.0068255396015086 0.0051581133306003 0.00015 0.0068255396015086 0.0051581133306003 0.0003
          0.0065384615384579 0 0 0.0065384615384579 0 0.00015
          0.0065384615384579 0 0.0003 0.012879713087233 0.0060908484912964 0
          0.012982043505355 0.0056371881930815 0 0.012879713087233 0.0060908484912964 0.00015
          0.012982043505355 0.0056371881930815 0.00015 0.012879713087233 0.0060908484912964 0.0003
          0.012982043505355 0.0056371881930815 0.0003 0.0065699942646101 0.0028542668018424 0
          0.0065699942646101 0.0028542668018424 0.00015 0.0065699942646101 0.0028542668018424 0.0003
          0.0084683943974961 0.0045583446766593 0 0.0079943718437571 0.0043747262241866 0
          0.0085823759797054 0.0040943119694046 0 0.0084683943974961 0.0045583446766593 0.00015
          0.0079943718437571 0.0043747262241866 0.00015 0.0085823759797054 0.0040943119694046 0.00015
          0.0084683943974961 0.0045583446766593 0.0003 0.0079943718437571 0.0043747262241866 0.0003
          0.0085823759797054 0.0040943119694046 0.0003 0.0085830886495109 0.0024681574500846 0
          0.0090044137010858 0.0023542069269131 0 0.0085830886495109 0.0024681574500846 0.00015
          0.0090044137010858 0.0023542069269131 0.00015 0.0085830886495109 0.0024681574500846 0.0003
          0.0090044137010858 0.0023542069269131 0.0003 0.0098857235699117 0.0079055319030787 0
          0.0095144479526816 0.0076594245921199 0 0.0094715724969347 0.0073263583858313 0
          0.0099283521138692 0.0073475677072736 0 0.0098857235699117 0.0079055319030787 0.00015
          0.0095144479526816 0.0076594245921199 0.00015 0.0094715724969347 0.0073263583858313 0.00015
          0.0099283521138692 0.0073475677072736 0.00015 0.0098857235699117 0.0079055319030787 0.0003
          0.0095144479526816 0.0076594245921199 0.0003 0.0094715724969347 0.0073263583858313 0.0003
          0.0099283521138692 0.0073475677072736 0.0003 0.010833716827414 0.0069257207373803 0
          0.010357413059119 0.0069077241183533 0 0.010300982556592 0.0064274708783385 0
          0.010786080808085 0.0064391381968206 0 0.010833716827414 0.0069257207373803 0.00015
          0.010357413059119 0.0069077241183533 0.00015 0.010300982556592 0.0064274708783385 0.00015
          0.010786080808085 0.0064391381968206 0.00015 0.010833716827414 0.0069257207373803 0.0003
          0.010357413059119 0.0069077241183533 0.0003 0.010300982556592 0.0064274708783385 0.0003
          0.010786080808085 0.0064391381968206 0.0003 0.012723582323863 0.006509831652106 0
          0.012251440655851 0.0062918667587536 0 0.012542392069256 0.0059723735377719 0
          0.012723582323863 0.006509831652106 0.00015 0.012251440655851 0.0062918667587536 0.00015
          0.012542392069256 0.0059723735377719 0.00015 0.012723582323863 0.006509831652106 0.0003
          0.012251440655851 0.0062918667587536 0.0003 0.012542392069256 0.0059723735377719 0.0003
          0.0071151184692216 0.0040272738406853 0 0.0071151184692216 0.0040272738406853 0.00015
          0.0071151184692216 0.0040272738406853 0.0003 0.005927800859391 0.0043689372395662 0
          0.005927800859391 0.0043689372395662 0.00015 0.005927800859391 0.0043689372395662 0.0003
          0.0092411258002763 0.0078319639415625 0 0.0089588909882048 0.0073942383853577 0
          0.0092411258002763 0.0078319639415625 0.00015 0.0089588909882048 0.0073942383853577 0.00015
          0.0092411258002763 0.0078319639415625 0.0003 0.0089588909882048 0.0073942383853577 0.0003
          0.009874674666521 0.0068715373563056 0 0.010410157305432 0.007394545582291 0
          0.009874674666521 0.0068715373563056 0.00015 0.010410157305432 0.007394545582291 0.00015
          0.009874674666521 0.0068715373563056 0.0003 0.010410157305432 0.007394545582291 0.0003
          0.0075354000991736 0.004186248288406 0 0.0075354000991736 0.004186248288406 0.00015
          0.0075354000991736 0.004186248288406 0.0003 0.01131847387487 0.0058224977902188 0
          0.011696082283392 0.0060272916092408 0 0.011725204011411 0.0063910302275778 0
          0.011265055974573 0.0064250601080915 0 0.01131847387487 0.0058224977902188 0.00015
          0.011696082283392 0.0060272916092408 0.00015 0.011725204011411 0.0063910302275778 0.00015
          0.011265055974573 0.0064250601080915 0.00015 0.01131847387487 0.0058224977902188 0.0003
          0.011696082283392 0.0060272916092408 0.0003 0.011725204011411 0.0063910302275778 0.0003
          0.011265055974573 0.0064250601080915 0.0003 0.012000241143886 0.0058170880130831 0
          0.012000241143886 0.0058170880130831 0.00015 0.012000241143886 0.0058170880130831 0.0003
          0.011120492592586 0.0052514705902296 0 0.011120492592586 0.0052514705902296 0.00015
          0.011120492592586 0.0052514705902296 0.0003 0.0092910901193945 0.0039260363263486 0
          0.0090503465409481 0.0043132092761106 0 0.0092910901193945 0.0039260363263486 0.00015
          0.0090503465409481 0.0043132092761106 0.00015 0.0092910901193945 0.0039260363263486 0.0003
          0.0090503465409481 0.0043132092761106 0.0003 0.007889027184575 0.0048982243533992 0
          0.007889027184575 0.0048982243533992 0.00015 0.007889027184575 0.0048982243533992 0.0003
          0.0094935553236164 0.004533528646427 0 0.0097061514105808 0.0041851036755216 0
          0.0094935553236164 0.004533528646427 0.00015 0.0097061514105808 0.0041851036755216 0.00015
          0.0094935553236164 0.004533528646427 0.0003 0.0097061514105808 0.0041851036755216 0.0003
          0.007602124101561 0.0050930903063015 0 0.007602124101561 0.0050930903063015 0.00015
          0.007602124101561 0.0050930903063015 0.0003 0.010723762445737 0.0044202706845482 0
          0.010410164583979 0.0041181159817359 0 0.010723762445737 0.0044202706845482 0.00015
          0.010410164583979 0.0041181159817359 0.00015 0.010723762445737 0.0044202706845482 0.0003
          0.010410164583979 0.0041181159817359 0.0003 0.01095205032792 0.0047963590452232 0
          0.01095205032792 0.0047963590452232 0.00015 0.01095205032792 0.0047963590452232 0.0003
          0.011303178752756 0.0069106117689346 0 0.011303178752756 0.0069106117689346 0.00015
          0.011303178752756 0.0069106117689346 0.0003 0.01003253261535 0.0038623502872685 0
          0.01003253261535 0.0038623502872685 0.00015 0.01003253261535 0.0038623502872685 0.0003
          0.0076528923620256 0.0053996878686031 0 0.0072494384034052 0.005322441352826 0
          0.0076528923620256 0.0053996878686031 0.00015 0.0072494384034052 0.005322441352826 0.00015
          0.0076528923620256 0.0053996878686031 0.0003 0.0072494384034052 0.005322441352826 0.0003
          0.0096442187720765 0.0035928190702974 0 0.0096442187720765 0.0035928190702974 0.00015
          0.0096442187720765 0.0035928190702974 0.0003 0.012013949131265 0.002158444108951 0
          0.012018063243501 0.0027123142038817 0 0.012013949131265 0.002158444108951 0.00015
          0.012018063243501 0.0027123142038817 0.00015 0.012013949131265 0.002158444108951 0.0003
          0.012018063243501 0.0027123142038817 0.0003 0.0080144547016537 0.00086684480617367 0
          0.008304219624614 0.0012703006012415 0 0.0080327132462595 0.0011721512048422 0
          0.0080144547016537 0.00086684480617367 0.00015 0.008304219624614 0.0012703006012415 0.00015
          0.0080327132462595 0.0011721512048422 0.00015 0.0080144547016537 0.00086684480617367 0.0003
          0.008304219624614 0.0012703006012415 0.0003 0.0080327132462595 0.0011721512048422 0.0003
          0.0094736490244467 0.0005865877812969 0 0.010068957850501 0.00047856930843549 0
          0.0096358530086744 0.0010887425154837 0 0.0094736490244467 0.0005865877812969 0.00015
          0.010068957850501 0.00047856930843549 0.00015 0.0096358530086744 0.0010887425154837 0.00015
          0.0094736490244467 0.0005865877812969 0.0003 0.010068957850501 0.00047856930843549 0.0003
          0.0096358530086744 0.0010887425154837 0.0003 0.0071984303565192 0.0057392272964834 0
          0.0067200519522164 0.0055550541115669 0 0.0071984303565192 0.0057392272964834 0.00015
          0.0067200519522164 0.0055550541115669 0.00015 0.0071984303565192 0.0057392272964834 0.0003
          0.0067200519522164 0.0055550541115669 0.0003 0.013091675611077 0.0041736873632184 0
          0.012621380555602 0.004071395146678 0 0.012601464682814 0.0035037767307713 0
          0.013091675611077 0.0041736873632184 0.00015 0.012621380555602 0.004071395146678 0.00015
          0.012601464682814 0.0035037767307713 0.00015 0.013091675611077 0.0041736873632184 0.0003
          0.012621380555602 0.004071395146678 0.0003 0.012601464682814 0.0035037767307713 0.0003
          0.01153639784925 0.0020208067996516 0 0.011496246026306 0.0025480504488598 0
          0.01153639784925 0.0020208067996516 0.00015 0.011496246026306 0.0025480504488598 0.00015
          0.01153639784925 0.0020208067996516 0.0003 0.011496246026306 0.0025480504488598 0.0003
          0.011043213382792 0.0084269911709333 0 0.011043213382792 0.0084269911709333 0.00015
          0.011043213382792 0.0084269911709333 0.0003 0.010128205128191 0 0
          0.0096153846153732 0 0 0.010128205128191 0 0.00015
          0.0096153846153732 0 0.00015 0.010128205128191 0 0.0003
          0.0096153846153732 0 0.0003 0.0091025641025551 0 0
          0.0085897435897353 0 0 0.0091025641025551 0 0.00015
          0.0085897435897353 0 0.00015 0.0091025641025551 0 0.0003
          0.0085897435897353 0 0.0003 0.0085182476127008 0.0020437661198126 0
          0.0089029205554566 0.0019047336662455 0 0.0085182476127008 0.0020437661198126 0.00015
          0.0089029205554566 0.0019047336662455 0.00015 0.0085182476127008 0.0020437661198126 0.0003
          0.0089029205554566 0.0019047336662455 0.0003 0.0081522818828449 0.0024947087352937 0
          0.0081522818828449 0.0024947087352937 0.00015 0.0081522818828449 0.0024947087352937 0.0003
          0.010641025641009 0 0 0.010579843756946 0.00045349299099366 0
          0.010641025641009 0 0.00015 0.010579843756946 0.00045349299099366 0.00015
          0.010641025641009 0 0.0003 0.010579843756946 0.00045349299099366 0.0003
          0.011153846153828 0 0 0.011153846153828 0 0.00015
          0.011153846153828 0 0.0003 0.011760912133753 0.0054122119446059 0
          0.011760912133753 0.0054122119446059 0.00015 0.011760912133753 0.0054122119446059 0.0003
          0.011666666666648 0 0 0.011666666666648 0 0.00015
          0.011666666666648 0 0.0003 0.011547825504055 0.0049713459697514 0
          0.011547825504055 0.0049713459697514 0.00015 0.011547825504055 0.0049713459697514 0.0003
          0.011349632014182 0.0045239710214715 0 0.011349632014182 0.0045239710214715 0.00015
          0.011349632014182 0.0045239710214715 0.0003 0.011997463288521 0.00046572766410539 0
          0.012179487179468 0 0 0.011997463288521 0.00046572766410539 0.00015
          0.012179487179468 0 0.00015 0.011997463288521 0.00046572766410539 0.0003
          0.012179487179468 0 0.0003 0.01039056673058 0.0035410773695937 0
          0.010772622187787 0.0038062315725381 0 0.01039056673058 0.0035410773695937 0.00015
          0.010772622187787 0.0038062315725381 0.00015 0.01039056673058 0.0035410773695937 0.0003
          0.010772622187787 0.0038062315725381 0.0003 0.0089323359070786 0.0047421281357296 0
          0.0089323359070786 0.0047421281357296 0.00015 0.0089323359070786 0.0047421281357296 0.0003
          0.010891746765568 0.007407252260552 0 0.010891746765568 0.007407252260552 0.00015
          0.010891746765568 0.007407252260552 0.0003 0.011089383238376 0.0041358143249023 0
          0.011089383238376 0.0041358143249023 0.00015 0.011089383238376 0.0041358143249023 0.0003
          0.007205317033861 0.0036141963404016 0 0.007205317033861 0.0036141963404016 0.00015
          0.007205317033861 0.0036141963404016 0.0003 0.0080269839945158 0.0054023282425744 0
          0.0080269839945158 0.0054023282425744 0.00015 0.0080269839945158 0.0054023282425744 0.0003
          0.0077721363879251 0.0058968168784219 0 0.0077721363879251 0.0058968168784219 0.00015
          0.0077721363879251 0.0058968168784219 0.0003 0.0095370253310475 0.0025850582106885 0
          0.009732219723835 0.0029713438236062 0 0.0095370253310475 0.0025850582106885 0.00015
          0.009732219723835 0.0029713438236062 0.00015 0.0095370253310475 0.0025850582106885 0.0003
          0.009732219723835 0.0029713438236062 0.0003 0.0094100372761059 0.0021522308351028 0
          0.0094100372761059 0.0021522308351028 0.00015 0.0094100372761059 0.0021522308351028 0.0003
          0.0087313387484914 0.001424359608332 0 0.0084651319029022 0.0017289788972556 0
          0.0087313387484914 0.001424359608332 0.00015 0.0084651319029022 0.0017289788972556 0.00015
          0.0087313387484914 0.001424359608332 0.0003 0.0084651319029022 0.0017289788972556 0.0003
          0.011363196701121 0.0073867521895413 0 0.011894488312007 0.0078344841271679 0
          0.011431801070778 0.0078815011129823 0 0.011363196701121 0.0073867521895413 0.00015
          0.011894488312007 0.0078344841271679 0.00015 0.011431801070778 0.0078815011129823 0.00015
          0.011363196701121 0.0073867521895413 0.0003 0.011894488312007 0.0078344841271679 0.0003
          0.011431801070778 0.0078815011129823 0.0003 0.011511795106494 0.0083968566041475 0
          0.011511795106494 0.0083968566041475 0.00015 0.011511795106494 0.0083968566041475 0.0003
          0.0093066157528448 0.0017085494075796 0 0.0093066157528448 0.0017085494075796 0.00015
          0.0093066157528448 0.0017085494075796 0.0003 0.011737204813157 0.0042624504192267 0
          0.011920232844873 0.0047153506313134 0 0.011737204813157 0.0042624504192267 0.00015
          0.011920232844873 0.0047153506313134 0.00015 0.011737204813157 0.0042624504192267 0.0003
          0.011920232844873 0.0047153506313134 0.0003 0.0097199155871303 0.0015315099671301 0
          0.0098040259351994 0.0019696894002764 0 0.0097199155871303 0.0015315099671301 0.00015
          0.0098040259351994 0.0019696894002764 0.00015 0.0097199155871303 0.0015315099671301 0.0003
          0.0098040259351994 0.0019696894002764 0.0003 0.0099068743951204 0.0023814903757239 0
          0.0099068743951204 0.0023814903757239 0.00015 0.0099068743951204 0.0023814903757239 0.0003
          0.010196799496301 0.0018655242590307 0 0.010252080701677 0.0022738797315184 0
          0.010196799496301 0.0018655242590307 0.00015 0.010252080701677 0.0022738797315184 0.00015
          0.010196799496301 0.0018655242590307 0.0003 0.010252080701677 0.0022738797315184 0.0003
          0.0082479601882269 0.0062087007836213 0 0.0083721174281176 0.0058457654542534 0
          0.0087793359412623 0.006030240425184 0 0.0086690881028679 0.0063945203238097 0
          0.0082479601882269 0.0062087007836213 0.00015 0.0083721174281176 0.0058457654542534 0.00015
          0.0087793359412623 0.006030240425184 0.00015 0.0086690881028679 0.0063945203238097 0.00015
          0.0082479601882269 0.0062087007836213 0.0003 0.0083721174281176 0.0058457654542534 0.0003
          0.0087793359412623 0.006030240425184 0.0003 0.0086690881028679 0.0063945203238097 0.0003
          0.0098103305116681 0.0063862496116293 0 0.0098103305116681 0.0063862496116293 0.00015
          0.0098103305116681 0.0063862496116293 0.0003 0.0084248193747317 0.0050261658136402 0
          0.0084248193747317 0.0050261658136402 0.00015 0.0084248193747317 0.0050261658136402 0.0003
          0.0069463016830039 0.0027787422025108 0 0.0070048409545821 0.0031125297586922 0
          0.0069463016830039 0.0027787422025108 0.00015 0.0070048409545821 0.0031125297586922 0.00015
          0.0069463016830039 0.0027787422025108 0.0003 0.0070048409545821 0.0031125297586922 0.0003
          0.010028456835002 0.0032748409090605 0 0.010028456835002 0.0032748409090605 0.00015
          0.010028456835002 0.0032748409090605 0.0003 0.013084530633285 0.0046685927017207 0
          0.012657407202949 0.0045740785705039 0 0.013084530633285 0.0046685927017207 0.00015
          0.012657407202949 0.0045740785705039 0.00015 0.013084530633285 0.0046685927017207 0.0003
          0.012657407202949 0.0045740785705039 0.0003 0.0063788755008874 0.0014091508241809 0
          0.0060137569775388 0.0015029488511318 0 0.0063788755008874 0.0014091508241809 0.00015
          0.0060137569775388 0.0015029488511318 0.00015 0.0063788755008874 0.0014091508241809 0.0003
          0.0060137569775388 0.0015029488511318 0.0003 0.01196380743939 0.0083394019710021 0
          0.01196380743939 0.0083394019710021 0.00015 0.01196380743939 0.0083394019710021 0.0003
          0.010073855840534 0.0027196155419985 0 0.010289681297386 0.0025561678844121 0
          0.010073855840534 0.0027196155419985 0.00015 0.010289681297386 0.0025561678844121 0.00015
          0.010073855840534 0.0027196155419985 0.0003 0.010289681297386 0.0025561678844121 0.0003
          0.0093223919318803 0.0053434698815888 0 0.009764317340127 0.0054658727348424 0
          0.0097769212248058 0.0059119658621614 0 0.0093027527337708 0.0057939169389015 0
          0.0093223919318803 0.0053434698815888 0.00015 0.009764317340127 0.0054658727348424 0.00015
          0.0097769212248058 0.0059119658621614 0.00015 0.0093027527337708 0.0057939169389015 0.00015
          0.0093223919318803 0.0053434698815888 0.0003 0.009764317340127 0.0054658727348424 0.0003
          0.0097769212248058 0.0059119658621614 0.0003 0.0093027527337708 0.0057939169389015 0.0003
          0.0068882925124701 0.0023177669638962 0 0.0068882925124701 0.0023177669638962 0.00015
          0.0068882925124701 0.0023177669638962 0.0003 0.0092499592325966 0.0063238181416562 0
          0.0089620052424248 0.0065330227489775 0 0.0092499592325966 0.0063238181416562 0.00015
          0.0089620052424248 0.0065330227489775 0.00015 0.0092499592325966 0.0063238181416562 0.0003
          0.0089620052424248 0.0065330227489775 0.0003 0.0072168253422346 0.001397514094839 0
          0.0076041066380058 0.00089936619415626 0 0.0072168253422346 0.001397514094839 0.00015
          0.0076041066380058 0.00089936619415626 0.00015 0.0072168253422346 0.001397514094839 0.0003
          0.0076041066380058 0.00089936619415626 0.0003 0.0075718226613923 0.00044755222139025 0
          0.0075718226613923 0.00044755222139025 0.00015 0.0075718226613923 0.00044755222139025 0.0003
          0.012116660000204 0.0051206445675074 0 0.012116660000204 0.0051206445675074 0.00015
          0.012116660000204 0.0051206445675074 0.0003 0.0068338524094732 0.0018398489073113 0
          0.0068338524094732 0.0018398489073113 0.00015 0.0068338524094732 0.0018398489073113 0.0003
          0.0088473960481577 0.0056214227923259 0 0.0088473960481577 0.0056214227923259 0.00015
          0.0088473960481577 0.0056214227923259 0.0003 0.0081402125110085 0.0066115625704341 0
          0.0081402125110085 0.0066115625704341 0.00015 0.0081402125110085 0.0066115625704341 0.0003
          0.0067824993802385 0.0013824026215467 0 0.0072591856110724 0.0018865642034293 0
          0.0067824993802385 0.0013824026215467 0.00015 0.0072591856110724 0.0018865642034293 0.00015
          0.0067824993802385 0.0013824026215467 0.0003 0.0072591856110724 0.0018865642034293 0.0003
          0.0094035295411974 0.0068662830960629 0 0.0094035295411974 0.0068662830960629 0.00015
          0.0094035295411974 0.0068662830960629 0.0003 0.0080770297303238 0.0057078658228848 0
          0.0080770297303238 0.0057078658228848 0.00015 0.0080770297303238 0.0057078658228848 0.0003
          0.012455160230445 0.0055307966461266 0 0.012455160230445 0.0055307966461266 0.00015
          0.012455160230445 0.0055307966461266 0.0003 0.0092134396095011 0.0012639463069257 0
          0.0092134396095011 0.0012639463069257 0.00015 0.0092134396095011 0.0012639463069257 0.0003
          0.0085681017610313 0.0067725899286886 0 0.0085681017610313 0.0067725899286886 0.00015
          0.0085681017610313 0.0067725899286886 0.0003 0.010337781301114 0.0029713007827362 0
          0.010337781301114 0.0029713007827362 0.00015 0.010337781301114 0.0029713007827362 0.0003
          0.0080769230769162 0 0 0.0080362994401078 0.00044130282391618 0
          0.0075641025640979 0 0 0.0080769230769162 0 0.00015
          0.0080362994401078 0.00044130282391618 0.00015 0.0075641025640979 0 0.00015
          0.0080769230769162 0 0.0003 0.0080362994401078 0.00044130282391618 0.0003
          0.0075641025640979 0 0.0003 0.0084157309119158 0.0054663429893237 0
          0.0084157309119158 0.0054663429893237 0.00015 0.0084157309119158 0.0054663429893237 0.0003
          0.012625060394875 0.0050215313919928 0 0.012340535819996 0.0049145470001145 0
          0.012625060394875 0.0050215313919928 0.00015 0.012340535819996 0.0049145470001145 0.00015
          0.012625060394875 0.0050215313919928 0.0003 0.012340535819996 0.0049145470001145 0.0003
          0.0088807280393962 0.0051824777758032 0 0.0088807280393962 0.0051824777758032 0.00015
          0.0088807280393962 0.0051824777758032 0.0003 0.00978640191627 0.0050564284414982 0
          0.00978640191627 0.0050564284414982 0.00015 0.00978640191627 0.0050564284414982 0.0003
          0.007051282051278 0 0 0.007051282051278 0 0.00015
          0.007051282051278 0 0.0003 0.0089738769927721 0.0068608682916542 0
          0.0089738769927721 0.0068608682916542 0.00015 0.0089738769927721 0.0068608682916542 0.0003
          0.010464396561549 0.007914442793445 0 0.010959162019398 0.0079079830093058 0
          0.010464396561549 0.007914442793445 0.00015 0.010959162019398 0.0079079830093058 0.00015
          0.010464396561549 0.007914442793445 0.0003 0.010959162019398 0.0079079830093058 0.0003
          0.0093768424757788 0.0049206652486621 0 0.0093768424757788 0.0049206652486621 0.00015
          0.0093768424757788 0.0049206652486621 0.0003 0.0084364690699339 0.0071912877673881 0
          0.0084364690699339 0.0071912877673881 0.00015 0.0084364690699339 0.0071912877673881 0.0003
          0.011870414872976 0.00080294526771027 0 0.011870414872976 0.00080294526771027 0.00015
          0.011870414872976 0.00080294526771027 0.0003 0.013048655853798 0.0051555709380823 0
          0.013048655853798 0.0051555709380823 0.00015 0.013048655853798 0.0051555709380823 0.0003
          0.0091480378790118 0.00093783666102615 0 0.0091480378790118 0.00093783666102615 0.00015
          0.0091480378790118 0.00093783666102615 0.0003 0.012592651705639 0.0068198098450163 0
          0.012592651705639 0.0068198098450163 0.00015 0.012592651705639 0.0068198098450163 0.0003
          0.012272070002081 0.0045810549534562 0 0.012153081904124 0.0040944528080542 0
          0.012272070002081 0.0045810549534562 0.00015 0.012153081904124 0.0040944528080542 0.00015
          0.012272070002081 0.0045810549534562 0.0003 0.012153081904124 0.0040944528080542 0.0003
          0.011634800364854 0.0014122839921498 0 0.011634800364854 0.0014122839921498 0.00015
          0.011634800364854 0.0014122839921498 0.0003 0.012451479243686 0.0021914486022899 0
          0.012674188674928 0.0028095410694266 0 0.012451479243686 0.0021914486022899 0.00015
          0.012674188674928 0.0028095410694266 0.00015 0.012451479243686 0.0021914486022899 0.0003
          0.012674188674928 0.0028095410694266 0.0003 0.013121586466294 0.0036708577033715 0
          0.013121586466294 0.0036708577033715 0.00015 0.013121586466294 0.0036708577033715 0.0003
          0.013248150362312 0.0031919567697963 0 0.013248150362312 0.0031919567697963 0.00015
          0.013248150362312 0.0031919567697963 0.0003 0.012096711335481 0.0017058387426491 0
          0.012096711335481 0.0017058387426491 0.00015 0.012096711335481 0.0017058387426491 0.0003
          0.012692307692288 0 0 0.012542896420733 0.00061304595643839 0
          0.012692307692288 0 0.00015 0.012542896420733 0.00061304595643839 0.00015
          0.012692307692288 0 0.0003 0.012542896420733 0.00061304595643839 0.0003
          0.012384518900215 0.0018567382086698 0 0.012384518900215 0.0018567382086698 0.00015
          0.012384518900215 0.0018567382086698 0.0003 0.012087580163866 0.0010424427844857 0
          0.012087580163866 0.0010424427844857 0.00015 0.012087580163866 0.0010424427844857 0.0003
          <InformationKey name="L2_NORM_RANGE" location="vtkDataArray" length="2">
            <Value index="0">
              0.0055128205128
            </Value>
            <Value index="1">
              0.014586579917
            </Value>
          </InformationKey>
        </DataArray>
      </Points>
      <Cells>
        <DataArray type="Int64" Name="connectivity" format="ascii" RangeMin="0" RangeMax="773">
          0 1 2 3 4 5
          6 7 4 5 6 7
          8 9 10 11 12 13
          14 15 16 17 18 19
          16 17 18 19 20 21
          22 23 30 31 32 33
          34 35 36 37 34 35
          36 37 38 39 40 41
          15 14 42 43 19 18
          44 45 19 18 44 45
          23 22 46 47 48 49
          50 51 52 53 54 55
          52 53 54 55 56 57
          58 59 60 61 62 63
          64 65 66 67 64 65
          66 67 68 69 70 71
          3 72 73 0 7 74
          75 4 7 74 75 4
          11 76 77 8 78 79
          80 81 82 83 84 85
          82 83 84 85 86 87
          88 89 99 100 101 102
          103 104 105 106 103 104
          105 106 107 108 109 110
          111 112 113 114 115 116
          117 118 115 116 117 118
          119 120 121 122 744 123
          30 33 745 124 34 37
          745 124 34 37 746 125
          38 41 48 126 127 128
          52 129 130 131 52 129
          130 131 56 132 133 134
          135 136 112 111 137 138
          116 115 137 138 116 115
          139 140 120 119 141 142
          143 144 145 146 147 148
          145 146 147 148 149 150
          151 152 153 154 155 156
          157 158 159 160 157 158
          159 160 161 162 163 164
          165 166 43 167 168 169
          45 170 168 169 45 170
          171 172 47 173 174 175
          153 156 176 177 157 160
          176 177 157 160 178 179
          161 164 180 181 182 183
          184 185 186 187 184 185
          186 187 188 189 190 191
          166 165 192 193 169 168
          194 195 169 168 194 195
          172 171 196 197 112 182
          181 113 116 186 185 117
          116 186 185 117 120 190
          189 121 204 205 180 183
          206 207 184 187 206 207
          184 187 208 209 188 191
          210 211 212 213 214 215
          216 217 214 215 216 217
          218 219 220 221 222 223
          128 127 224 225 131 130
          224 225 131 130 226 227
          134 133 154 153 79 78
          158 157 83 82 158 157
          83 82 162 161 87 86
          231 113 181 232 233 117
          185 234 233 117 185 234
          235 121 189 236 237 238
          239 199 240 241 242 201
          240 241 242 201 243 244
          245 203 246 247 228 248
          249 250 229 251 249 250
          229 251 252 253 230 254
          255 49 48 128 256 53
          52 131 256 53 52 131
          257 57 56 134 175 258
          79 153 177 259 83 157
          177 259 83 157 179 260
          87 161 267 237 199 198
          268 240 201 200 268 240
          201 200 269 243 203 202
          270 271 232 272 273 274
          234 275 273 274 234 275
          276 277 236 278 267 198
          228 247 268 200 229 250
          268 200 229 250 269 202
          230 253 183 279 280 204
          187 281 282 206 187 281
          282 206 191 283 284 208
          285 286 287 288 289 290
          291 292 289 290 291 292
          293 294 295 296 297 298
          299 300 301 302 303 304
          301 302 303 304 305 306
          307 308 261 309 310 311
          263 312 313 314 263 312
          313 314 265 315 316 317
          238 318 127 126 241 319
          130 129 241 319 130 129
          244 320 133 132 324 325
          287 286 326 327 291 290
          326 327 291 290 328 329
          295 294 330 298 331 288
          332 302 333 292 332 302
          333 292 334 306 335 296
          318 336 222 127 319 337
          224 130 319 337 224 130
          320 338 226 133 339 340
          341 342 343 344 345 346
          343 344 345 346 347 348
          349 350 300 1 339 342
          304 5 343 346 304 5
          343 346 308 9 347 350
          351 310 341 340 352 313
          345 344 352 313 345 344
          353 316 349 348 354 339
          1 0 355 343 5 4
          355 343 5 4 356 347
          9 8 357 358 272 180
          359 360 275 184 359 360
          275 184 361 362 278 188
          48 239 238 126 52 242
          241 129 52 242 241 129
          56 245 244 132 336 271
          363 222 337 274 364 224
          337 274 364 224 338 277
          365 226 51 321 239 48
          55 322 242 52 55 322
          242 52 59 323 245 56
          366 367 213 212 368 369
          217 216 368 369 217 216
          370 371 221 220 223 222
          363 372 225 224 364 373
          225 224 364 373 227 226
          365 374 375 210 213 376
          377 214 217 378 377 214
          217 378 379 218 221 380
          375 381 73 210 377 382
          75 214 377 382 75 214
          379 383 77 218 381 354
          0 73 382 355 4 75
          382 355 4 75 383 356
          8 77 297 300 342 384
          301 304 346 385 301 304
          346 385 305 308 350 386
          376 213 367 387 378 217
          369 388 378 217 369 388
          380 221 371 389 223 372
          390 391 225 373 392 393
          225 373 392 393 227 374
          394 395 396 357 180 205
          397 359 184 207 397 359
          184 207 398 361 188 209
          387 367 357 396 388 369
          359 397 388 369 359 397
          389 371 361 398 399 747
          748 400 401 749 750 402
          401 749 750 402 403 751
          752 404 405 102 406 407
          408 106 409 410 408 106
          409 410 411 110 412 413
          180 272 232 181 184 275
          234 185 184 275 234 185
          188 278 236 189 414 415
          144 416 417 418 148 419
          417 418 148 419 420 421
          152 422 423 424 255 391
          425 426 256 393 425 426
          256 393 427 428 257 395
          429 430 431 753 432 433
          434 754 432 433 434 754
          435 436 437 755 438 399
          400 439 440 401 402 441
          440 401 402 441 442 403
          404 443 447 415 414 448
          449 418 417 450 449 418
          417 450 451 421 420 452
          453 100 99 454 455 104
          103 456 455 104 103 456
          457 108 107 458 279 459
          460 280 281 461 462 282
          281 461 462 282 283 463
          464 284 279 465 62 459
          281 466 66 461 281 466
          66 461 283 467 70 463
          448 414 100 453 450 417
          104 455 450 417 104 455
          452 420 108 457 468 469
          415 447 470 471 418 449
          470 471 418 449 472 473
          421 451 753 431 748 756
          754 434 750 757 754 434
          750 757 755 437 752 758
          400 748 431 12 402 750
          434 16 402 750 434 16
          404 752 437 20 474 31
          469 468 475 35 471 470
          475 35 471 470 476 39
          473 472 399 438 744 759
          401 440 745 760 401 440
          745 760 403 442 746 761
          339 477 351 340 343 478
          352 344 343 478 352 344
          347 479 353 348 367 366
          358 357 369 368 360 359
          369 368 360 359 371 370
          362 361 480 32 31 474
          481 36 35 475 481 36
          35 475 482 40 39 476
          483 477 339 354 484 478
          343 355 484 478 343 355
          485 479 347 356 486 483
          354 381 487 484 355 382
          487 484 355 382 488 485
          356 383 183 182 465 279
          187 186 466 281 187 186
          466 281 191 190 467 283
          762 763 489 490 764 765
          491 492 764 765 491 492
          766 767 493 494 490 489
          32 480 492 491 36 481
          492 491 36 481 494 493
          40 482 387 495 496 376
          388 497 498 378 388 497
          498 378 389 499 500 380
          501 270 272 358 502 273
          275 360 502 273 275 360
          503 276 278 362 504 331
          298 297 505 333 302 301
          505 333 302 301 506 335
          306 305 507 486 381 375
          508 487 382 377 508 487
          382 377 509 488 383 379
          318 238 237 510 319 241
          240 511 319 241 240 511
          320 244 243 512 50 49
          255 424 54 53 256 426
          54 53 256 426 58 57
          257 428 363 513 390 372
          364 514 392 373 364 514
          392 373 365 515 394 374
          516 423 391 390 517 425
          393 392 517 425 393 392
          518 427 395 394 519 520
          205 204 521 522 207 206
          521 522 207 206 523 524
          209 208 525 519 204 280
          526 521 206 282 526 521
          206 282 527 523 208 284
          528 460 459 529 530 462
          461 531 530 462 461 531
          532 464 463 533 534 90
          535 536 537 93 538 539
          537 93 538 539 540 96
          541 542 546 525 280 460
          547 526 282 462 547 526
          282 462 548 527 284 464
          759 768 747 399 760 769
          749 401 760 769 749 401
          761 770 751 403 507 375
          376 496 508 377 378 498
          508 377 378 498 509 379
          380 500 483 486 549 550
          484 487 551 552 484 487
          551 552 485 488 553 554
          231 232 271 336 233 234
          274 337 233 234 274 337
          235 236 277 338 391 255
          128 223 393 256 131 225
          393 256 131 225 395 257
          134 227 525 546 555 556
          526 547 557 558 526 547
          557 558 527 548 559 560
          519 525 556 561 521 526
          558 562 521 526 558 562
          523 527 560 563 561 556
          564 565 562 558 566 567
          562 558 566 567 563 560
          568 569 570 571 572 573
          574 575 576 577 574 575
          576 577 578 579 580 581
          2 1 300 299 6 5
          304 303 6 5 304 303
          10 9 308 307 582 299
          298 330 583 303 302 332
          583 303 302 332 584 307
          306 334 585 363 271 270
          586 364 274 273 586 364
          274 273 587 365 277 276
          555 416 144 143 557 419
          148 147 557 419 148 147
          559 422 152 151 588 589
          237 267 590 591 240 268
          590 591 240 268 592 593
          243 269 396 594 495 387
          397 595 497 388 397 595
          497 388 398 596 499 389
          594 396 205 520 595 397
          207 522 595 397 207 522
          596 398 209 524 597 598
          430 429 599 600 433 432
          599 600 433 432 601 602
          436 435 603 246 248 604
          605 249 251 606 605 249
          251 606 607 252 254 608
          72 211 210 73 74 215
          214 75 74 215 214 75
          76 219 218 77 536 535
          609 543 539 538 610 544
          539 538 610 544 542 541
          611 545 612 561 565 613
          614 562 567 615 614 562
          567 615 616 563 569 617
          618 619 620 621 622 623
          624 625 622 623 624 625
          626 627 628 629 630 588
          267 247 631 590 268 250
          631 590 268 250 632 592
          269 253 633 634 573 572
          635 636 577 576 635 636
          577 576 637 638 581 580
          60 639 81 640 64 641
          85 642 64 641 85 642
          68 643 89 644 561 612
          520 519 562 614 522 521
          562 614 522 521 563 616
          524 523 510 231 336 318
          511 233 337 319 511 233
          337 319 512 235 338 320
          640 81 80 645 642 85
          84 646 642 85 84 646
          644 89 88 647 550 648
          477 483 552 649 478 484
          552 649 478 484 554 650
          479 485 630 247 246 651
          631 250 249 652 631 250
          249 652 632 253 252 653
          633 572 654 621 635 576
          655 625 635 576 655 625
          637 580 656 629 15 43
          166 439 19 45 169 441
          19 45 169 441 23 47
          172 443 660 639 661 651
          662 641 663 652 662 641
          663 652 664 643 665 653
          666 330 288 287 667 332
          292 291 667 332 292 291
          668 334 296 295 603 660
          651 246 605 662 652 249
          605 662 652 249 607 664
          653 252 571 570 516 669
          575 574 517 670 575 574
          517 670 579 578 518 671
          672 262 261 311 673 264
          263 314 673 264 263 314
          674 266 265 317 416 555
          546 675 419 557 547 676
          419 557 547 676 422 559
          548 677 570 573 678 657
          574 577 679 658 574 577
          679 658 578 581 680 659
          495 42 14 496 497 44
          18 498 497 44 18 498
          499 46 22 500 61 529
          459 62 65 531 461 66
          65 531 461 66 69 533
          463 70 13 507 496 14
          17 508 498 18 17 508
          498 18 21 509 500 22
          114 510 237 589 118 511
          240 591 118 511 240 591
          122 512 243 593 513 669
          516 390 514 670 517 392
          514 670 517 392 515 671
          518 394 594 681 42 495
          595 682 44 497 595 682
          44 497 596 683 46 499
          114 589 588 111 118 591
          590 115 118 591 590 115
          122 593 592 119 510 114
          113 231 511 118 117 233
          511 118 117 233 512 122
          121 235 681 594 520 612
          682 595 522 614 682 595
          522 614 683 596 524 616
          684 685 645 686 687 688
          646 689 687 688 646 689
          690 691 647 692 693 654
          572 571 694 655 576 575
          694 655 576 575 695 656
          580 579 675 546 460 528
          676 547 462 530 676 547
          462 530 677 548 464 532
          439 400 12 15 441 402
          16 19 441 402 16 19
          443 404 20 23 696 672
          648 697 698 673 649 699
          698 673 649 699 700 674
          650 701 702 618 621 654
          703 622 625 655 703 622
          625 655 704 626 629 656
          72 705 212 211 74 706
          216 215 74 706 216 215
          76 707 220 219 182 112
          136 465 186 116 138 466
          186 116 138 466 190 120
          140 467 708 686 645 80
          709 689 646 84 709 689
          646 84 710 692 647 88
          91 341 310 92 94 345
          313 95 94 345 313 95
          97 349 316 98 135 630
          651 661 137 631 652 663
          137 631 652 663 139 632
          653 665 666 287 325 711
          667 291 327 712 667 291
          327 712 668 295 329 713
          444 25 714 715 445 27
          716 717 445 27 716 717
          446 29 718 719 705 720
          366 212 706 721 368 216
          706 721 368 216 707 722
          370 220 331 504 715 714
          333 505 717 716 333 505
          717 716 335 506 719 718
          13 549 486 507 17 551
          487 508 17 551 487 508
          21 553 488 509 571 669
          513 693 575 670 514 694
          575 670 514 694 579 671
          515 695 102 405 685 99
          106 408 688 103 106 408
          688 103 110 411 691 107
          672 351 477 648 673 352
          478 649 673 352 478 649
          674 353 479 650 693 513
          363 585 694 514 364 586
          694 514 364 586 695 515
          365 587 285 714 25 24
          289 716 27 26 289 716
          27 26 293 718 29 28
          143 142 192 564 147 146
          194 566 147 146 194 566
          151 150 196 568 726 489
          763 771 727 491 765 772
          727 491 765 772 728 493
          767 773 534 536 715 504
          537 539 717 505 537 539
          717 505 540 542 719 506
          165 565 564 192 168 567
          566 194 168 567 566 194
          171 569 568 196 78 81
          639 660 82 85 641 662
          82 85 641 662 86 89
          643 664 136 135 661 63
          138 137 663 67 138 137
          663 67 140 139 665 71
          729 262 672 696 730 264
          673 698 730 264 673 698
          731 266 674 700 630 135
          111 588 631 137 115 590
          631 137 115 590 632 139
          119 592 702 585 270 501
          703 586 273 502 703 586
          273 502 704 587 276 503
          585 702 654 693 586 703
          655 694 586 703 655 694
          587 704 656 695 61 406
          528 529 65 409 530 531
          65 409 530 531 69 412
          532 533 414 732 101 100
          417 733 105 104 417 733
          105 104 420 734 109 108
          63 62 465 136 67 66
          466 138 67 66 466 138
          71 70 467 140 501 720
          618 702 502 721 622 703
          502 721 622 703 503 722
          626 704 720 501 358 366
          721 502 360 368 721 502
          360 368 722 503 362 370
          685 684 454 99 688 687
          456 103 688 687 456 103
          691 690 458 107 685 405
          640 645 688 408 642 646
          688 408 642 646 691 411
          644 647 30 141 469 31
          34 145 471 35 34 145
          471 35 38 149 473 39
          598 738 739 430 600 740
          741 433 600 740 741 433
          602 742 743 436 43 42
          681 167 45 44 682 170
          45 44 682 170 47 46
          683 173 678 711 325 723
          679 712 327 724 679 712
          327 724 680 713 329 725
          619 618 720 705 623 622
          721 706 623 622 721 706
          627 626 722 707 102 101
          528 406 106 105 530 409
          106 105 530 409 110 109
          532 412 549 13 12 739
          551 17 16 741 551 17
          16 741 553 21 20 743
          711 678 573 634 712 679
          577 636 712 679 577 636
          713 680 581 638 80 79
          258 708 84 83 259 709
          84 83 259 709 88 87
          260 710 738 598 696 697
          740 600 698 699 740 600
          698 699 742 602 700 701
          714 285 288 331 716 289
          292 333 716 289 292 333
          718 293 296 335 672 311
          310 351 673 314 313 352
          673 314 313 352 674 317
          316 353 430 739 12 431
          433 741 16 434 433 741
          16 434 436 743 20 437
          193 438 439 166 195 440
          441 169 195 440 441 169
          197 442 443 172 489 726
          33 32 491 727 37 36
          491 727 37 36 493 728
          41 40 444 715 536 543
          445 717 539 544 445 717
          539 544 446 719 542 545
          3 619 705 72 7 623
          706 74 7 623 706 74
          11 627 707 76 633 666
          711 634 635 667 712 636
          635 667 712 636 637 668
          713 638 384 534 504 297
          385 537 505 301 385 537
          505 301 386 540 506 305
          726 771 744 33 727 772
          745 37 727 772 745 37
          728 773 746 41 167 613
          565 165 170 615 567 168
          170 615 567 168 173 617
          569 171 675 732 414 416
          676 733 417 419 676 733
          417 419 677 734 420 422
          550 549 739 738 552 551
          741 740 552 551 741 740
          554 553 743 742 732 675
          528 101 733 676 530 105
          733 676 530 105 734 677
          532 109 63 661 639 60
          67 663 641 64 67 663
          641 64 71 665 643 68
          384 91 90 534 385 94
          93 537 385 94 93 537
          386 97 96 540 123 744
          438 193 124 745 440 195
          124 745 440 195 125 746
          442 197 406 61 60 407
          409 65 64 410 409 65
          64 410 412 69 68 413
          154 78 660 603 158 82
          662 605 158 82 662 605
          162 86 664 607 91 384
          342 341 94 385 346 345
          94 385 346 345 97 386
          350 349 405 407 60 640
          408 410 64 642 408 410
          64 642 411 413 68 644
          648 550 738 697 649 552
          740 699 649 552 740 699
          650 554 742 701 735 92
          310 309 736 95 313 312
          736 95 313 312 737 98
          316 315 633 582 330 666
          635 583 332 667 635 583
          332 667 637 584 334 668
          167 681 612 613 170 682
          614 615 170 682 614 615
          173 683 616 617 620 2
          299 582 624 6 303 583
          624 6 303 583 628 10
          307 584 582 633 621 620
          583 635 625 624 583 635
          625 624 584 637 629 628
          141 144 415 469 145 148
          418 471 145 148 418 471
          149 152 421 473 143 564
          556 555 147 566 558 557
          147 566 558 557 151 568
          560 559 2 620 619 3
          6 624 623 7 6 624
          623 7 10 628 627 11
          729 696 598 597 730 698
          600 599 730 698 600 599
          731 700 602 601 141 30
          123 142 145 34 124 146
          145 34 124 146 149 38
          125 150 154 603 604 155
          158 605 606 159 158 605
          606 159 162 607 608 163
          193 192 142 123 195 194
          146 124 195 194 146 124
          197 196 150 125
        </DataArray>
        <DataArray type="Int64" Name="offsets" format="ascii" RangeMin="8" RangeMax="3616">
          8 16 24 32 40 48
          56 64 72 80 88 96
          104 112 120 128 136 144
          152 160 168 176 184 192
          200 208 216 224 232 240
          248 256 264 272 280 288
          296 304 312 320 328 336
          344 352 360 368 376 384
          392 400 408 416 424 432
          440 448 456 464 472 480
          488 496 504 512 520 528
          536 544 552 560 568 576
          584 592 600 608 616 624
          632 640 648 656 664 672
          680 688 696 704 712 720
          728 736 744 752 760 768
          776 784 792 800 808 816
          824 832 840 848 856 864
          872 880 888 896 904 912
          920 928 936 944 952 960
          968 976 984 992 1000 1008
          1016 1024 1032 1040 1048 1056
          1064 1072 1080 1088 1096 1104
          1112 1120 1128 1136 1144 1152
          1160 1168 1176 1184 1192 1200
          1208 1216 1224 1232 1240 1248
          1256 1264 1272 1280 1288 1296
          1304 1312 1320 1328 1336 1344
          1352 1360 1368 1376 1384 1392
          1400 1408 1416 1424 1432 1440
          1448 1456 1464 1472 1480 1488
          1496 1504 1512 1520 1528 1536
          1544 1552 1560 1568 1576 1584
          1592 1600 1608 1616 1624 1632
          1640 1648 1656 1664 1672 1680
          1688 1696 1704 1712 1720 1728
          1736 1744 1752 1760 1768 1776
          1784 1792 1800 1808 1816 1824
          1832 1840 1848 1856 1864 1872
          1880 1888 1896 1904 1912 1920
          1928 1936 1944 1952 1960 1968
          1976 1984 1992 2000 2008 2016
          2024 2032 2040 2048 2056 2064
          2072 2080 2088 2096 2104 2112
          2120 2128 2136 2144 2152 2160
          2168 2176 2184 2192 2200 2208
          2216 2224 2232 2240 2248 2256
          2264 2272 2280 2288 2296 2304
          2312 2320 2328 2336 2344 2352
          2360 2368 2376 2384 2392 2400
          2408 2416 2424 2432 2440 2448
          2456 2464 2472 2480 2488 2496
          2504 2512 2520 2528 2536 2544
          2552 2560 2568 2576 2584 2592
          2600 2608 2616 2624 2632 2640
          2648 2656 2664 2672 2680 2688
          2696 2704 2712 2720 2728 2736
          2744 2752 2760 2768 2776 2784
          2792 2800 2808 2816 2824 2832
          2840 2848 2856 2864 2872 2880
          2888 2896 2904 2912 2920 2928
          2936 2944 2952 2960 2968 2976
          2984 2992 3000 3008 3016 3024
          3032 3040 3048 3056 3064 3072
          3080 3088 3096 3104 3112 3120
          3128 3136 3144 3152 3160 3168
          3176 3184 3192 3200 3208 3216
          3224 3232 3240 3248 3256 3264
          3272 3280 3288 3296 3304 3312
          3320 3328 3336 3344 3352 3360
          3368 3376 3384 3392 3400 3408
          3416 3424 3432 3440 3448 3456
          3464 3472 3480 3488 3496 3504
          3512 3520 3528 3536 3544 3552
          3560 3568 3576 3584 3592 3600
          3608 3616
        </DataArray>
        <DataArray type="UInt8" Name="types" format="ascii" RangeMin="12" RangeMax="12">
          12 12 12 12 12 12
          12 12 12 12 12 12
          12 12 12 12 12 12
          12 12 12 12 12 12
          12 12 12 12 12 12
          12 12 12 12 12 12
          12 12 12 12 12 12
          12 12 12 12 12 12
          12 12 12 12 12 12
          12 12 12 12 12 12
          12 12 12 12 12 12
          12 12 12 12 12 12
          12 12 12 12 12 12
          12 12 12 12 12 12
          12 12 12 12 12 12
          12 12 12 12 12 12
          12 12 12 12 12 12
          12 12 12 12 12 12
          12 12 12 12 12 12
          12 12 12 12 12 12
          12 12 12 12 12 12
          12 12 12 12 12 12
          12 12 12 12 12 12
          12 12 12 12 12 12
          12 12 12 12 12 12
          12 12 12 12 12 12
          12 12 12 12 12 12
          12 12 12 12 12 12
          12 12 12 12 12 12
          12 12 12 12 12 12
          12 12 12 12 12 12
          12 12 12 12 12 12
          12 12 12 12 12 12
          12 12 12 12 12 12
          12 12 12 12 12 12
          12 12 12 12 12 12
          12 12 12 12 12 12
          12 12 12 12 12 12
          12 12 12 12 12 12
          12 12 12 12 12 12
          12 12 12 12 12 12
          12 12 12 12 12 12
          12 12 12 12 12 12
          12 12 12 12 12 12
          12 12 12 12 12 12
          12 12 12 12 12 12
          12 12 12 12 12 12
          12 12 12 12 12 12
          12 12 12 12 12 12
          12 12 12 12 12 12
          12 12 12 12 12 12
          12 12 12 12 12 12
          12 12 12 12 12 12
          12 12 12 12 12 12
          12 12 12 12 12 12
          12 12 12 12 12 12
          12 12 12 12 12 12
          12 12 12 12 12 12
          12 12 12 12 12 12
          12 12 12 12 12 12
          12 12 12 12 12 12
          12 12 12 12 12 12
          12 12 12 12 12 12
          12 12 12 12 12 12
          12 12 12 12 12 12
          12 12 12 12 12 12
          12 12 12 12 12 12
          12 12 12 12 12 12
          12 12 12 12 12 12
          12 12 12 12 12 12
          12 12 12 12 12 12
          12 12 12 12 12 12
          12 12 12 12 12 12
          12 12 12 12 12 12
          12 12 12 12 12 12
          12 12
        </DataArray>
      </Cells>
    </Piece>
  </UnstructuredGrid>
</VTKFile>
