<?xml version="1.0"?>
<VTKFile type="UnstructuredGrid" version="0.1" byte_order="LittleEndian" header_type="UInt32" compressor="vtkZLibDataCompressor">
  <UnstructuredGrid>
    <Piece NumberOfPoints="774" NumberOfCells="452">
      <PointData>
        <DataArray type="Int32" Name="libmesh_node_id" format="ascii" RangeMin="2286" RangeMax="4991">
          2286 2287 2288 2289 2290 2291
          2292 2293 2294 2295 2296 2297
          2340 2341 2342 2343 2344 2345
          2346 2347 2348 2349 2350 2351
          2400 2401 2403 2404 2406 2407
          2412 2413 2414 2415 2416 2417
          2418 2419 2420 2421 2422 2423
          2487 2488 2489 2490 2491 2492
          2523 2524 2525 2526 2527 2528
          2529 2530 2531 2532 2533 2534
          2550 2551 2552 2553 2554 2555
          2556 2557 2558 2559 2560 2561
          2580 2581 2582 2583 2584 2585
          2685 2686 2687 2688 2689 2690
          2691 2692 2693 2694 2695 2696
          2698 2699 2700 2702 2703 2704
          2706 2707 2708 2796 2797 2798
          2799 2800 2801 2802 2803 2804
          2805 2806 2807 2838 2839 2840
          2841 2842 2843 2844 2845 2846
          2847 2848 2849 2881 2883 2885
          2949 2950 2951 2952 2953 2954
          2955 2956 2957 3054 3055 3056
          3057 3058 3059 3093 3094 3095
          3096 3097 3098 3099 3100 3101
          3102 3103 3104 3117 3118 3119
          3120 3121 3122 3123 3124 3125
          3126 3127 3128 3195 3196 3197
          3198 3199 3200 3201 3202 3203
          3210 3211 3212 3213 3214 3215
          3216 3217 3218 3219 3220 3221
          3222 3223 3224 3225 3226 3227
          3252 3253 3254 3255 3256 3257
          3300 3301 3302 3303 3304 3305
          3306 3307 3308 3309 3310 3311
          3318 3319 3320 3321 3322 3323
          3324 3325 3326 3327 3328 3329
          3330 3331 3332 3333 3334 3335
          3366 3367 3368 3378 3379 3380
          3381 3382 3383 3384 3385 3386
          3387 3388 3389 3390 3391 3392
          3453 3454 3455 3456 3457 3458
          3459 3460 3461 3483 3484 3485
          3492 3493 3494 3525 3526 3528
          3529 3531 3532 3543 3544 3545
          3564 3565 3566 3567 3568 3569
          3570 3571 3572 3588 3589 3590
          3591 3592 3593 3609 3610 3611
          3612 3613 3614 3615 3616 3617
          3618 3619 3620 3630 3631 3632
          3633 3634 3635 3636 3637 3638
          3639 3640 3641 3654 3655 3656
          3657 3658 3659 3660 3661 3662
          3684 3685 3686 3687 3689 3691
          3693 3694 3695 3696 3697 3698
          3708 3709 3710 3711 3712 3713
          3735 3736 3737 3738 3739 3740
          3741 3742 3743 3744 3745 3746
          3747 3748 3749 3762 3763 3764
          3771 3772 3773 3774 3775 3776
          3777 3778 3779 3786 3787 3788
          3795 3796 3797 3798 3799 3800
          3801 3802 3803 3804 3805 3806
          3807 3808 3809 3816 3817 3818
          3834 3835 3836 3837 3838 3839
          3846 3847 3848 3849 3850 3851
          3861 3862 3863 3882 3884 3885
          3887 3888 3890 3900 3901 3902
          3903 3904 3905 3906 3907 3908
          3924 3925 3926 3927 3928 3929
          3930 3931 3932 3939 3940 3941
          3942 3943 3944 3954 3955 3956
          3958 3959 3960 3962 3963 3964
          3969 3970 3971 3972 3973 3974
          3993 3994 3995 4032 4033 4034
          4035 4036 4037 4053 4054 4055
          4056 4057 4058 4059 4060 4061
          4062 4063 4064 4089 4090 4091
          4104 4105 4106 4107 4108 4109
          4116 4117 4118 4128 4129 4130
          4167 4168 4169 4170 4171 4172
          4185 4186 4187 4208 4209 4212
          4213 4216 4217 4233 4234 4235
          4236 4237 4238 4254 4255 4256
          4257 4258 4259 4269 4270 4271
          4272 4273 4274 4284 4285 4286
          4287 4288 4289 4290 4291 4292
          4293 4294 4295 4302 4303 4304
          4314 4315 4316 4317 4318 4319
          4320 4321 4322 4323 4324 4325
          4326 4327 4328 4338 4339 4340
          4344 4345 4346 4350 4351 4352
          4353 4354 4355 4365 4366 4367
          4368 4369 4370 4371 4372 4373
          4374 4375 4376 4377 4378 4379
          4380 4381 4382 4383 4384 4385
          4386 4387 4388 4389 4390 4391
          4398 4399 4400 4416 4417 4418
          4422 4423 4424 4425 4426 4427
          4428 4429 4430 4434 4435 4436
          4437 4438 4439 4440 4441 4442
          4443 4444 4445 4458 4459 4460
          4482 4483 4484 4485 4486 4487
          4488 4489 4490 4491 4492 4493
          4494 4495 4496 4497 4498 4499
          4500 4501 4502 4506 4507 4508
          4509 4510 4511 4518 4519 4520
          4521 4522 4523 4545 4546 4547
          4566 4567 4568 4569 4570 4571
          4572 4573 4574 4599 4600 4601
          4602 4603 4604 4605 4606 4607
          4611 4612 4613 4647 4648 4649
          4650 4651 4652 4653 4654 4655
          4656 4657 4658 4677 4678 4679
          4689 4690 4691 4692 4693 4694
          4695 4696 4697 4716 4717 4718
          4743 4744 4745 4746 4747 4748
          4749 4750 4751 4779 4780 4781
          4788 4789 4790 4800 4801 4802
          4803 4804 4805 4806 4807 4808
          4809 4810 4811 4830 4831 4832
          4872 4873 4874 4902 4903 4904
          4923 4924 4925 4968 4969 4970
          4986 4987 4988 4989 4990 4991
          2880 2882 2884 3883 3873 3886
          3876 3889 3879 3957 3961 3965
          3875 3878 3881 4119 4120 4121
          4206 4207 4210 4211 4214 4215
          4347 4348 4349 4251 4252 4253
        </DataArray>
        <DataArray type="Float64" Name="resid_x" format="ascii" RangeMin="-0.02840307914730289" RangeMax="0.001615862087389175">
          -0.00025819845422159204 0.00020973484065578418 0.000041190531699264454 0.0008204626226913092 -0.0026869370792423908 -0.0013272168914220117
          -0.00518394981465331 -0.0031309890845134802 -0.01220455439583823 -0.014093488740540394 -0.01468019111532648 -0.011939204040876561
          -0.004027977054795073 0.000579067125014987 0.0004451585584680784 0.0016091891797458402 -0.01060108554399708 -0.001095508743928164
          -0.0018423287343313083 -0.0012543016880748326 -0.019353715227300228 -0.010367713719125149 -0.00880054055376267 -0.011419558558069198
          -0.01657996154487762 -0.003300647561681913 -0.022863098166475027 -0.005041165937475611 -0.017831893716056868 -0.00926038520046113
          -0.0013380545590573334 0.00027082027463976033 0.0001955304405774072 -0.0012444122141630487 -0.004561189755496464 -0.0015062363460858208
          -0.0032500884163244592 -0.00670663883707423 -0.004780005722749614 -0.0033097548934932775 -0.0046001795580594695 -0.0066061994583357375
          -0.004290987119242029 -0.002372488041088694 -0.0028082120034973457 -0.002517190253032986 -0.00719819788945153 -0.008008431673093064
          0.00016365118055627903 0.0005718418266558167 -0.0021784282085626216 -0.002532636279674705 0.00028812672613565127 0.000701216251878467
          -0.005812776293302235 -0.007529110907249503 0.001615862087389175 0.0015868663635116853 0.0004593643134045422 -0.0034256423238225864
          0.000058051521637292325 0.0007538697649327464 -0.000022705465644534684 0.00008747792529995024 -0.00038439913918120183 0.001017715692672283
          -0.0008779443499422612 -0.0021821408259441455 -0.007780932777640359 -0.0030400964897614458 -0.004413368506390292 -0.006712798565090772
          -0.0013139222016995689 -0.001435938424197758 -0.002087622540836165 -0.003410048705784874 -0.007610886854441112 -0.00977517220495372
          -0.00018568769387616868 0.00016253168309443566 -0.0004173526232946756 -0.00020935770378205376 -0.0007897554285012376 0.00023618566506744543
          -0.0010274507962799717 -0.0009215617832083467 -0.00828210876754465 -0.009507951384066793 -0.008638546324180929 -0.007597019936578242
          -0.008268755625469026 -0.009975813848578596 -0.004017595184610201 -0.01613614288310572 -0.005858080323527304 -0.0007522701558047018
          -0.01590059023083512 -0.013437261039499049 -0.007967614268437728 0.0002781061775340987 0.0007224435241282023 0.0007386767013342066
          0.0007384816285638252 -0.00010154420902708239 0.00037181333868741007 0.0006746758967492994 -0.00037315136751026046 -0.0037530720788581107
          -0.001924724714577497 -0.0020747737196140648 -0.004082230364801376 0.00006319207787708336 0.00033856934738718536 0.00043059611593054825
          0.00007346784797102046 -0.0006471623841122209 -0.0006317945198750508 0.000004849055222244658 -0.001642435893440819 -0.0030634143619412413
          -0.003698999417819593 -0.0027379614510625316 -0.0028475661310563005 -0.008078685152844933 -0.013296276361653092 -0.00877769068897738
          -0.0012679579639458538 -0.0006951046823218121 -0.0015065576406509962 -0.0011853409755140376 -0.0008758352440318973 -0.001860198532673163
          -0.0008800210597321723 -0.00032314185068393897 -0.0011792355001123411 -0.0005311769274172207 -0.001307066664766765 -0.00026225865886075894
          -0.0018337424084950982 -0.003932550552900871 -0.005088956761944985 -0.004778153656275208 -0.004299589833636652 0.0003975932949074057
          0.0007960456897739832 -0.0034887735082431703 -0.0019859000765158896 0.00045395344027543416 0.0015050814806931712 -0.0020002312220173124
          -0.001945080506841279 0.0005593776535635087 0.0015765755985848173 -0.0007733517313974758 -0.0008665354356605093 -0.0003357266450851881
          -0.00016579353836831956 -0.0008873639546713719 -0.0008847810892222974 -0.0008884458221487535 -0.0009605110741617295 -0.009827431406965736
          -0.00777870176282125 -0.006711273034444076 -0.009735565049375339 -0.00007190843229842869 -0.0011871625348849335 -0.002160449452380142
          -0.0019219031135517817 -0.0030237743740553213 -0.0024473182177953134 -0.005084062746982809 -0.008463923586167432 -0.0047166420094750805
          -0.00040219278165576355 -0.0003332845244221616 0.00001176735533725548 -0.00027366957737839925 -0.006219255591329187 -0.005125448559616608
          -0.0003898626608469513 -0.0008470208114630395 -0.0018266074068455929 0.00044205675750053075 -0.0008963940667108261 -0.0017202823527071587
          -0.0021647223836476215 -0.00003904407921329067 -0.005593051715478303 -0.005746623839092635 -0.006125097664537726 -0.003941755640769706
          -0.002960813682168606 -0.007558588713481917 -0.0010416691633476916 -0.011022680600096812 -0.003417467830895582 -0.009529191915204294
          -0.0010723596021122717 -0.0007996121623499164 -0.0033132489381912933 -0.002839945332727467 -0.005419375702263807 -0.0044664084410044325
          -0.003506405085417441 -0.004355327540522147 -0.0011828673971590042 -0.001851078387243632 -0.0030364311959338863 -0.004360918912859724
          -0.0010335583634160095 -0.0027462350493125953 -0.0008869880336970226 0.00015911219562336765 -0.0027143918762493335 -0.005611552638906225
          -0.0035559149797013134 -0.0024522808940439234 -0.007412331016445339 -0.006669093035309714 -0.006122765056216117 -0.007597932587961931
          -0.0017618154851880563 -0.0005034458332735525 -0.0010511534712419612 -0.0006681405955761832 -0.0006401987903542627 -0.0011014631435797284
          -0.0008623140011021491 -0.0026836253174948865 -0.005946422901640602 -0.0014208213063051645 -0.002114101160231918 -0.0011682725369555058
          -0.0020066775242089108 -0.0020609206267669933 -0.0044585676833994725 -0.0007572490655158859 -0.00034285264177480457 -0.0007623393935558553
          -0.0006524386443524932 -0.00005811681885692366 -0.0024960339597583925 -0.002127334578482909 -0.00029909871664202115 -0.002090452469905024
          -0.000185230932060243 -0.0001272318468537037 -0.0009398866561980412 -0.00036731029938597004 -0.00026283794454862175 -0.002602640835394965
          -0.00539740294073443 -0.004352426411051269 -0.00676060094874309 -0.0035605277148569314 -0.0020227424255141457 -0.0003589631055413989
          -0.0005918390203616397 -0.000039095880133288574 -0.005071478902085147 -0.00910225578952506 -0.015539606908101078 -0.02081537256426813
          -0.024694658423857874 -0.017170651920134006 -0.017118471954304937 -0.00010247066224788881 0.00014607309824388182 -0.0034463234057424685
          -0.00004414674360475601 -0.0018744696953492124 -0.0030853448606982248 -0.00019714065441212014 -0.0018838196904922277 -0.001585372511911931
          -0.004078820986557652 -0.003936941031046803 -0.006049259016711606 -0.001535203705227417 -0.0006631770097267342 -0.0018147035125464228
          -0.00022865799016358324 -0.004704098140621227 -0.002231093186634059 -0.006589373833639556 -0.0004120808782698271 0.00038045889796034515
          -0.00029358647166688456 -0.013629900460468747 -0.003113587517490579 -0.0012786583818211739 -0.0054692466664851835 -0.018898778422190787
          -0.007017445521995347 -0.01012530160895242 -0.014750765878551952 -0.0003634507903118589 -0.0026988214377832165 -0.003138427017820078
          -0.0003192565386704871 -0.001985173097397208 -0.006496827381323733 -0.004723289890470994 -0.002959552423572376 -0.013377685534329053
          -0.015792407169821665 -0.01589313183878982 -0.01584895832388966 -0.0064755826333176 -0.000022158603748767547 0.0007131567978140296
          -0.01451324627730699 -0.0012665492366341624 -0.001810671442930456 -0.014431747436152165 -0.012621906279509876 -0.007911651472968018
          -0.0023664403914711585 -0.0011187120857991673 -0.0006977866548911749 -0.0027357787620800877 -0.004042439011289645 -0.002961428877984673
          -0.01368427100009928 -0.01117204969920138 -0.01953874602765726 -0.015609814577530301 -0.012726355092282926 -0.01415313554981168
          -0.010059556781691015 -0.01120751496629424 -0.0062374012357606645 -0.005415969326006298 -0.013758623363715472 -0.014936421722388182
          -0.006489355415096654 -0.0030158143017691152 -0.0014995297917650419 -0.008534905480661159 -0.0019163451975011403 -0.0054342110370013685
          -0.008096660777170861 -0.0049975400587731755 -0.0005538637168259475 -0.0019085826802500705 -0.007498192088702282 -0.01647218090594471
          -0.004877250438244274 -0.01004361113037966 -0.015595066396318913 -0.008873527971848816 -0.003930244488949519 -0.011819972413380064
          -0.008617054163769566 -0.005318690075228005 -0.013924436712557053 -0.003063515770551639 -0.003572114327343723 -0.001265125755529839
          -0.0029006653981267227 -0.005182691446911969 -0.006912484608671665 -0.004741269185939423 -0.0033251251310257857 -0.002729206758480096
          -0.0067512277173920054 -0.005031178438746231 -0.005252645091999852 -0.0033307513678249023 -0.007286600630240336 -0.006911582498311475
          -0.003227770106021488 -0.0017165994187529066 -0.0008291790050298786 -0.004944408664715266 -0.003954864742440556 -0.004325054638800785
          -0.0025867490129982684 -0.008964795670386438 -0.008212170528929974 -0.007642561286630212 -0.0038395006595990377 -0.010208434206506745
          -0.009323764414370217 -0.005680952931284899 -0.015211123517956615 -0.005879188841387606 -0.002582655666790279 -0.007020462361369217
          -0.0008303802663327531 -0.0017854826380589994 0.000029905345534153582 -0.0019464371295343508 -9.876081037418771e-7 -0.0019004592820510702
          -0.007194940228337138 -0.0017903937617616272 -0.005255765233676213 -0.01289938192471407 -0.01693076582836639 -0.02589469824510715
          -0.02580603484950217 -0.014575443798147347 -0.018679255152489915 -0.001312266288754138 -0.0018461915351961622 -0.001671960320725141
          -0.0006770980247385872 -0.0023958909731529587 -0.001722599681393433 -0.00469468596286049 -0.004283779995098769 -0.0034143293352011383
          -0.001855289132011606 -0.0002471098102727609 -0.003150826006899976 -0.0005074997623712996 0.0015157608198812511 -0.0016046406972654026
          -0.0007274173389768546 0.00043686596042480375 -0.0007606749104205335 -0.0057627594190119424 -0.0043190820670808705 -0.008265203598512016
          -0.005194159054958014 -0.0021172062893182186 0.0003077922645173814 -0.012141176604300696 -0.006289786627713845 -0.019481331546862712
          -0.02620106952111101 -0.010277185231228891 -0.025735678881637192 -0.017491285584755545 -0.01052937755905159 -0.01807526689328931
          -0.014609120635372896 -0.013844016042932061 -0.011807493227810717 -0.004843445109486755 -0.00647298865482604 -0.0067245247936074115
          -0.0117660163919453 -0.011790776331906727 -0.013198749527981946 -0.0007983982601151851 -0.0009765287279064339 0.0004429965682328785
          -0.0006104017956785057 0.00026995759551162735 -0.0008532474057991735 -0.0009104576990877078 -0.0007966288303533631 -0.0001329094813486975
          -0.0006010302605794493 -0.0006458711123764616 -0.0016193477198482853 -0.002816328199787499 0.0000988592211310646 -0.002614016640657635
          0.000545787903978745 -0.004996615483663369 -0.002045658758124791 -0.004584760214514816 -0.0032537035573456663 -0.005341210257772122
          -0.002864512204576286 -0.008291482511518566 -0.0013201625503471703 -0.0040601079521103145 -0.00011277040787671666 -0.0017577829762513986
          -0.0036766850104532622 -0.0014543324529485702 -0.001154351646714069 -0.007322065034101932 0.0002451455759704402 -0.01044557649123945
          -0.0031692511508669696 -0.0008072769700744331 -0.0018028467169459717 -0.006359870715620275 0.0001677062744880331 -0.009737514090408794
          -0.00623184965354362 -0.00033741963060807123 -0.008721798209455844 -0.01618777568586216 -0.009184842285724137 -0.022240593316814827
          -0.012964568095627627 -0.009266270828565126 -0.005464600459372804 -0.008721552355401618 -0.009766458302399528 -0.003404764518771475
          -0.003958557089366543 -0.005705401948923328 -0.007827471385363438 -0.005774345814189452 -0.002981555696799809 -0.006783949210273477
          -0.007538039514347616 -0.0016974352890963829 -0.013543123370924448 -0.011737660148849471 -0.0031624852416411997 -0.009064381700055968
          -0.0035660441321736513 -0.0015978074819011923 -0.00156114427220011 -0.0032677765572382 -0.002619127965470369 -0.001954539808017408
          -0.005268080440522738 -0.007144612071320111 -0.0038395713679681975 -0.003387768514770073 -0.0036455644735937653 -0.000815329580282409
          -0.0004469098446833186 -0.0016744151758683046 -0.002548866082952017 -0.003663756744439084 -0.0015127763351543422 -0.0016410664395172248
          -0.0012696623167194332 -0.0025996572176785193 -0.0005122653791440612 -0.002033757674880121 -0.0036442190981231803 -0.0032960762337777005
          -0.007822748106364408 -0.01090285044372763 -0.0011585600155443743 -0.0034551673652680748 -0.024228677294974688 -0.0012473821264720186
          -0.011801413036437225 -0.02158470024838266 -0.011345949483057005 -0.0050952466222273785 -0.0061281703415678734 -0.012403642818066274
          -0.0028966115682313998 -0.0009856467915030365 -0.0010063906504544917 -0.004815652905253209 -0.004777591598306152 0.00026227534123268725
          0.0003942594556374246 -0.009582061160782196 -0.007975692577741889 -0.005713592168971715 -0.003385193383855789 -0.0018060271296604924
          -0.00009598176817560145 -0.0008716005425410955 -0.00043155895420010637 -0.0031215399517687814 0.0005260614229769534 -0.0009825386698907312
          -0.006162491988138008 -0.00597387159044338 -0.0019562490568754143 -0.0029206521008391384 -0.0014893029295786064 -0.002325515892067642
          -0.0038929538024641275 -0.0011897043271393848 -0.000052897961790865367 0.00040722993856157075 -0.008080609512848724 -0.0017512442798972572
          -0.002441578381945142 -0.0012400697891248313 -0.007042205374995447 -0.0038951360885359776 -0.006423286987881305 -0.005147420489015175
          -0.009118305666992121 -0.0032149134054195727 -0.012073685421279734 -0.0060235283450009725 -0.0036447589641408484 -0.005581668835366926
          -0.0021872882255404846 -0.0028613920099020973 -0.0016508810006365948 -0.0020338683563760895 -0.003201625799656327 -0.0017982777421829965
          -0.007521511938966635 -0.0009159769187552236 -0.003602247973538586 -0.01214444942816506 -0.0026087630363380576 -0.024423889317425562
          0.0004949660331190486 -0.01856094356044835 -0.00540091082980787 -0.000493824668041043 -0.0006751463380396672 -0.0003206995384470446
          -0.0016550569961282235 -0.006331497627378724 -0.00700102060154606 -0.014096060960283374 -0.02820670163701955 -0.02214853926551008
          -0.004646856777988262 -0.0044233254518635245 -0.0004207786408283454 -0.0026859771761315043 -0.0009062669358019804 -0.0019685925456436326
          -0.0005702561685945184 -0.006073488146626005 -0.008957420875681521 -0.003355926862862013 -0.0006440458041554464 -0.007496364788291743
          -0.005702834429172299 -0.0031161009959328467 -0.005659118822803677 -0.01141124608296007 -0.011438858726748435 -0.007880084961718659
          -0.0019948734436283644 -0.0014751434203041924 -0.004737693809531152 -0.010051360392780317 -0.002277459736500731 -0.003716403212142616
          -0.0014355902391862685 -0.011136296107927102 -0.0031444802379771986 -0.0012767374905271467 -0.0027015175340263653 -0.0006088527232881447
          -0.001348465327378534 -0.006804643386233877 -0.006820709617628928 -0.0019343904721642602 -0.0009084871920412851 -0.00731567979671599
          -0.005485436063021654 0.0010168062577284864 -0.00838369684109086 -0.0013975992865038478 -0.0007995821142827708 -0.005571434258469843
          -0.009188828938968996 -0.0069572936566593135 -0.008499992740884643 -0.009861378117662412 -0.01664447217544307 -0.00909984628534577
          -0.0016845312947690871 -0.0024921099199106678 -0.0008661253439345984 -0.0012052973202063555 -0.006604078458063434 -0.0052989958279283655
          -0.007669761230729044 -0.0009395034931563018 -0.008977732237551272 -0.005433957912952536 -0.0037664873361658024 -0.002495880413764695
          -0.007394566497302746 0.0011100032994015852 -0.010849603960630949 -0.003653864578701871 -0.0009324056190793684 -0.0008380723319545424
          -0.0059696922971417266 -0.007925096837748669 -0.00702737792548902 -0.008012747957850896 -0.0016912797535012514 -0.0026992634039273433
          -0.0006954398152752006 -0.0023039045123933732 -0.0007084171875764156 0.000013051804395480815 -0.0008739355762230616 -0.00008114961532168508
          -0.002653717524557564 -0.005448841484511746 -0.0036376884606168503 -0.005758028745305843 -0.00007687393711286461 -0.0031692866001575837
          -0.006645874399781704 -0.0061129738252523325 -0.00015135593229498312 -0.004115938627672122 -0.005626531383726707 -0.006317523873686781
          -0.00808246178825911 -0.0021499046170605496 -0.00609422862570419 -0.009348509045080444 -0.007448064790567255 -0.009010913915395768
          -0.0007070344406274742 -0.00034209420825614956 -0.004902666559836177 -0.007315734941231611 -0.0009655272890700672 -0.005734005446047963
          -0.009145190492232835 -0.011694758641118241 -0.002591701611041053 -0.007762852550005306 -0.009951034469848352 -0.013770070066683182
          -0.009859896356163134 -0.004107153427874266 -0.006472854439573794 -0.00991359460632868 -0.01225882629113606 -0.00840581801447371
          -0.015680311436655492 -0.020868944601770245 -0.00950516239468624 -0.019836646466456997 -0.025316557199801082 -0.016383216428613068
          -0.0035651495288528956 -0.0015188757118740348 -0.0011909172335666796 -0.015797071674232832 -0.02131455828723805 -0.01400482711608575
          -0.012178317551595708 -0.013971295873672851 -0.0025391938162653283 -0.0028016206405494515 -0.005852703672997617 -0.008411904731275843
          -0.011053536214649995 -0.02050256753053148 -0.0067078177141315365 -0.014965665919925542 -0.013920318790800579 -0.023297612292186187
          -0.022768591268516047 -0.011922356194231654 -0.011657528251607374 -0.016434040431736907 -0.02341219593941979 -0.012164470098280589
          -0.013876593941683169 -0.013104942637397698 -0.011154050203249 -0.010825923293211304 -0.013168142172615305 -0.00698364877178026
          -0.00641949556049326 -0.016343076325314954 -0.01431150744500087 -0.02840307914730289 -0.008561355626857114 -0.017449237432211717
          -0.014978822406446213 -0.015442006045901735 -0.008378716780917728 -0.017489343780214384 -0.022396634150462447 -0.010142770647092014
        </DataArray>
        <DataArray type="Float64" Name="resid_y" format="ascii" RangeMin="-0.9084227332465118" RangeMax="1.2485703319375199">
          0.00016212184658268014 -0.0003337018127058111 -0.00004705539563959471 -0.0008336740709326829 0.001843423202590233 0.0010653932504582075
          0.002964559735277414 0.0010451192388475916 0.006016136856445753 0.006740490519127035 0.006572332677212328 0.005481707249242629
          0.003299812800814296 0.00023702639608498555 -0.00021035719072559633 -0.000601940384702293 0.0073106684197794675 0.001784178906222983
          0.0011277680019004532 0.0028187785544551702 0.010239458283897197 0.00553377001892931 0.0062929876144760255 0.007970708048407882
          0.011552696179111172 0.006585236992217525 0.015010473969891192 0.013109059851443755 0.009558804424035644 0.008032264974204173
          -0.001198520869630168 -0.00019619798110472736 0.00007502206626297525 -0.0015930903484872028 -0.0018792339804014763 0.0009631937267450957
          0.0013902876359584981 -0.003409684974071986 0.0009018184631005149 0.002081306639182462 0.0017774500530552961 -0.00003566564769968972
          0.00018167736781718458 -0.0002772883695498496 0.0017216082293672053 0.0026489183795313787 0.005657844758688996 0.005917447601199777
          0.00007410282672457025 -0.00006917330007860656 0.003077242585694917 0.0013770358877084506 0.00024902895766414773 0.000611560115343468
          0.007797462880499428 0.0028999484015091517 0.0010981499723302646 0.0011663375882711158 0.004640415681418764 0.001879486875410799
          -0.0005083147997775594 -0.0005872927451161941 -0.0005275610309015688 -0.00021588565471644672 -0.0008051408842227603 -0.00043161876691200085
          -0.0007284520876882361 -0.00010818857753991384 0.00006096170908184706 0.0003050021321620161 0.0002458068361440857 0.0005877916934160232
          0.0018823770854006494 0.004175887472600896 0.002174119849391809 0.004000112581295463 0.004044356946963895 0.00518927779990689
          -0.00024281825195379692 -0.00034566741727071193 -0.0003306161325066781 -0.000582271473360374 -0.00039591806982654243 -0.00018792443178250462
          -0.00029438735103221036 -0.0008124079846400789 0.000026690155802810978 0.0002005713786346064 0.00009139847137401569 -0.00011392212777328048
          -0.0010689711764310383 0.010925858267194583 0.009126877156164184 0.00011966508355243377 0.007324364424347862 0.008643070312091133
          0.006293584515468492 0.0075865228774923965 0.00626994033838274 0.000009078332083661822 -0.00016019713965429241 -0.00022576717169794924
          0.000184745628312194 -0.00022040034241659068 -0.0002393410442467856 -0.0005437938040653983 0.0002856473058054365 -0.0001103740638568329
          0.00036048706509276586 0.00026804950654134296 0.0005788863257707166 -0.0001868391611378195 -0.0003337789290280557 -0.0003769461731940871
          -0.0003758981560164909 0.00003237269401475118 0.0000666284338608214 -0.000040335710548677906 -0.000011165582320740719 0.0009403013115690251
          0.001496520313380878 0.0016664898680081586 0.0010374986270141745 0.002132858867719356 0.0020375575928284068 0.0029947459967200885
          0.0009411776539259981 -0.00001678548137334923 0.0005544160809965448 0.0005575196471544613 0.00019582886043900682 0.0024550370476320027
          0.0011628356742480889 0.0017943431310279423 0.0034746257692585547 0.0008182631503572124 0.0022771971979080007 0.00010763551769338298
          0.0018792025449497034 0.0005323308591309306 0.0012923865254208244 0.0008638887058463607 0.0018702122587112568 0.00036126831604180176
          -0.00008389320866053485 0.001881515256172861 0.001322833148107161 0.0006322465263625399 0.0005569068721995585 0.002558961658308989
          0.0021676841346031095 0.0014979094285130223 0.0019696405698255703 -0.00022202149615313527 0.0001280263311349457 0.000029014774843849622
          0.00009405060497008622 -0.00040603253121607175 0.00005417968033619505 -0.0000828689854441289 0.0000765321100805183 -0.0000859218910820303
          0.00008857218231279884 0.00006508972566382498 0.0004282098865804884 0.0004187833507777461 0.0031249056229675776 0.0009479669142002933
          0.0012032363473206964 0.0011808567344379073 0.003946493265622672 0.003078640594379456 0.004292069916399854 0.00431647747611924
          -0.34188524336244547 -0.3688444926174301 -0.7471503758470505 -0.7837152671508112 -0.4910175752231045 -0.5669292598276883
          -0.00034871041503276023 -0.0005589508675712951 -0.00013020427055800837 -0.0006934973627844981 -0.00047116428457927295 -0.0008454415817245875
          0.0009165653440929775 0.00021105528482014135 0.003907327636683888 0.00243933505531968 0.003024440704046477 0.0024949200013305584
          0.0029279196277927078 0.007148461207728649 0.0002996671182188271 0.006743018466872364 0.002009598268544077 0.004798965182158055
          0.0012044866774455765 0.00012932432326123733 0.001256717319878753 0.00023820921954698093 0.001283921560283674 0.0012924705395171987
          0.0022317418802620947 0.0016055443688237636 0.0016121101587138476 0.0005264154637525387 0.0026735762222123705 0.0035954239571934776
          0.0018177566629197367 0.001638552830820983 -0.00016678463354602435 0.0002516475158946263 0.000847185326819988 0.0036569550120598426
          0.0014414812798740906 0.0027683180035384114 0.00265909705324624 0.003822030663732212 0.0034952190517223147 0.004391056170984675
          0.0002393944688338645 0.00006511153920885082 0.0010535108749710753 0.0017630033242683474 0.0031364229111757735 0.0031341356138048226
          0.00008003810612089435 0.000643634875446164 0.0007875226589313944 0.002003090914691641 0.002499794571519387 0.0011131263280076548
          0.0015283488179373972 0.0022203186053143115 0.003065049784720608 -0.00012895862986799997 0.0009860320521311583 0.0006999104922922189
          -0.0005345349798748615 0.000764003944534658 0.0005388404723603579 0.0007562847195010727 0.0016211342274061458 0.0014746641579753972
          -0.0002310453671481305 -0.0003452199617711149 -0.00021806071740571031 -0.00040109607429100747 -0.0005522148942561089 -0.00006925787240719128
          0.0002076476337021793 0.00038029725180172 0.00039288463253128736 0.002524968734013644 0.0016186080573181716 0.0024436884420954152
          -0.44481533296023895 -0.9084227332465118 -0.5648085782117029 0.0013426930729143402 0.007880214373360308 0.004195287942897405
          0.007021080543325536 0.006692852863151549 0.006725596232336664 0.0005057240695255927 -0.0005465947186981956 0.00047675037309136137
          0.00017855132679650554 0.0026318593694499848 0.0024725251244064606 0.00008873862345998296 -0.000022096669806070945 0.004033441949780586
          0.00243079239751931 0.002529161315338091 0.005257170114209064 0.0005536035434933473 0.0015911585854364724 -0.0006158809750632932
          0.00028647585990358715 0.000882707181192155 0.0013935610889784789 0.005913145862591729 0.003128320458556877 -0.00019958871568492853
          -0.0001251472823720623 0.012633813285809203 0.007582557124302253 -0.0001868564601793521 0.0012852360876931535 0.011291181982830474
          0.00641315637445794 0.004430441296634752 0.0046984410294046985 -0.00004702967226188903 0.0023140787513069583 0.004720113575495705
          0.0017720964292105568 0.00009677331240010023 0.0011547509179168913 0.0036516515738277966 0.003727487739719787 0.00439839073701398
          0.0037306448632448974 0.006053994575026284 0.008043687397460808 0.0005000123389763342 -0.00011933098374183881 0.00033954043332924677
          0.0032872157629792037 0.001204029728412298 0.004237194391625301 0.00589161164239288 0.008059039711978688 0.00659322624154568
          0.0024826382587743168 0.0012362124255471119 0.001783939208479357 0.002226674385110511 0.002969276477379712 0.0020035524181237357
          0.010428045080973582 0.008240516924364644 0.015943598741775408 0.0143118137468356 0.008962690257490587 0.010671860543996783
          0.008750926703546685 0.007704672837869825 0.004530697509130377 0.003960697026634902 0.005663081363268957 0.006183481712057626
          0.005143262790415631 0.0023120058433072493 0.002579433285827437 0.002451735352382356 -0.00012691427164367858 0.0010029335701875475
          0.0025287634463501685 0.0016243567802258496 0.0015774832430101027 0.0009652262718931881 0.004618996348461135 0.007541523621465485
          0.004793912934919091 0.006897059313270532 0.009345301951274976 0.004776020299826447 0.003918021405306296 0.007997609320055471
          0.005319211789771711 0.0029115578180578805 0.007044447747701091 0.000378950732550537 0.0008861935187838843 0.00125012381552414
          0.0027327780620409192 0.0040063030916239195 0.004653959679961905 0.0032423726317235557 0.0017102760956900775 0.004139448222472475
          -0.0001045059222387068 0.00021476613778417808 0.0014690364218999385 0.0033684210784182267 0.004710872560512613 0.005764505064547287
          0.0022105412937787894 0.0012080060736099352 0.001802951425507321 0.003619742117950117 0.004290605019790741 0.002377587774732265
          0.0031101164890188215 0.004819893789993104 0.004801508638997004 0.006018997430597486 0.002141180789403542 0.005320650961547657
          0.0052323156239267865 0.0023300806976702393 0.006468961339805679 0.003936275801916772 0.0016580576016466675 0.003928311582789279
          0.0013077241356051206 0.002480968912978096 0.000047393294706016276 0.0009133228740478005 0.0022437486802075746 0.002650665846451128
          0.003797995041328883 0.001369212888244098 0.003951865862934223 0.004633369288143896 0.009964752226705245 0.009191077889569355
          0.010019114883807856 0.005116146635915475 0.00617882167553771 0.0006616411947044099 0.0012679380057117606 0.0005815824221387239
          0.0007146697284421133 0.0005665259123009969 0.00022424690365591138 0.0004844424880241782 0.00042667589752934387 0.000109380004502585
          -0.0006840335133539294 0.0004100376453923804 0.00034025237938187236 -0.0001969577619554963 0.0008833370410847308 0.000587714042355296
          0.0012646596509894026 0.001716605738736332 0.0016108470858663612 0.00862806392204965 0.006676697303318435 0.01237116531656604
          0.009672396464389887 0.006668288146760598 0.005287801781664658 0.005039967312077273 0.002788804654873994 0.004151839120589404
          0.009942153483492422 0.006688269051422058 0.01060665484930208 0.00823496869991798 0.0069469232605037096 0.011254445513708064
          0.006642516569303286 0.006469811425431883 0.010633786837320275 0.0014607286891845997 0.005961341054765132 0.00374842750578476
          0.010557600571980685 0.014691332496523879 0.008301670690792268 0.4551233250188339 0.3426341286503929 0.9291503072204895
          0.6991918931395005 0.5036687343610763 0.399130878828168 0.10767916793178055 -0.0839772780651351 0.23317660879426083
          -0.1438282986201161 0.18795714298315327 0.01263766536191921 -0.00005793461808726967 0.0004603519465861475 -0.0005483568833696065
          -0.0008365870603203457 0.00031927558514852766 0.00044892913381992805 0.0014283314008786407 0.000017853517507410155 0.000860242580132814
          0.542735342191618 0.0003324073142055746 1.0938481489180076 0.000980707468479827 0.5392818782035649 0.001732641548958587
          0.5554029125592544 1.1083171440718498 0.4867456067554935 0.005638115506743979 0.002048036015960264 0.005831131307597839
          0.5054139626842047 0.9816456587892377 0.334736544119474 0.004783383769720748 0.00036844137405904476 0.004494051893388001
          0.006456016116304692 0.0010638059212387738 0.004103427384727618 -0.0022084193715749545 0.6618318799675769 -0.002506200934475261
          1.2485703319375199 -0.00036192153204873956 0.39450687396611583 0.006653462299135743 0.009066025221257296 0.0022828058856306788
          0.003793341013368867 0.003720961922873023 0.004810970042861212 0.0027801672151023804 0.0010193287509249194 0.0031500396906737893
          0.0055792579901290384 0.0021190403333941066 0.006546247991917831 0.01003302127292481 0.0029580277776236757 0.004581411341306935
          0.0027668642059156534 0.0007512167256332469 0.0013670935268325912 0.0024443116498459316 0.0011683901002399466 0.002619632276557926
          0.007740869128383232 0.011211243687161643 0.008024262504372937 0.0018556661115537165 0.0021959006690231986 0.00037936908598878993
          0.0003993820386819502 0.0017721714058755444 0.002896678227193139 0.0016884053118762232 -0.00016215394755461632 0.001652985787755093
          0.0006488531508679896 0.0009032202811859735 0.0000990676718808925 0.001817903802193488 0.0008532774150638439 0.0013687461036707427
          0.003768165760966613 0.002355937769627142 -0.0002395627084219587 0.001120878027780825 0.008512180810469894 0.001696659281445606
          0.007293900718938595 0.010524136245442628 0.00679449356438197 0.009913169283327888 0.011620914735422372 0.008030127142034521
          0.0019387788757833507 0.0006071895852896719 0.0012109201304405376 0.00537093180412665 0.0033014097094692385 0.00021570699813738825
          0.00028292089370407503 0.003395154945566581 0.0035851516893301294 0.0030052185507951773 0.002384636123666184 0.0014055808716327278
          0.0007071066034657902 0.001490217070233446 0.0013421296179476072 0.0022941027738531683 0.00036748876348488557 0.0018653525652349012
          0.002933385488925855 0.001687230278358931 0.0005919477051943983 0.0005680168756184156 0.002175719532581999 0.0015613361567402562
          0.0014542760318614345 0.00031335167138911435 0.0000881290951613399 -0.0002329725177661196 0.0043494929702432295 0.001808729232567717
          0.0019152308280300581 0.0028320011275719675 0.005613848418384693 0.0036813260761470457 0.004801640550010186 0.005276489935520261
          0.004776250492489975 0.0004978304323717819 0.00446303776796543 0.004700332465860768 0.0030025365741313537 0.0044362545976532886
          0.0006878122914686369 0.0011090630809573836 0.00008327785703138302 0.0006560898060510596 0.0006248099125781836 0.0009488042533599712
          0.0033295269484639456 -0.00004691636643550101 0.003261772417340658 0.0016526884343044668 0.0031150076437795257 0.001588680109312568
          0.0003050871649448936 0.004158091354239515 0.003475340339775472 0.0003842421754308156 0.00008622421721488083 0.0000818223561425413
          -0.00005734049889027926 0.00017224507682628287 0.0001521042176575449 0.010148828324001297 0.017738574396714835 0.010857943948214821
          0.003249887366222337 0.0022494694709299656 0.0009134093663841214 0.0021249404779939973 0.0019006620599197332 0.0017447511455049303
          0.00015207110352599695 0.0007662983603124451 0.004071296369068264 0.0018908536533314285 0.0007030948259668934 0.0014557722799925232
          0.003591243714893236 0.005042438901789778 0.003394558830183303 0.00408032134402142 0.005903481612217737 0.00642231452115119
          0.00052373467613126 -0.0003117708974600675 0.0006093802164839623 0.004167699518247636 0.0011821632435212656 0.001837419179578692
          0.0014582377386688564 0.0061904322032341405 0.002226504808944374 -0.0005557975664089998 -0.00043382755216508917 -0.0007432852611390928
          -0.0007878391970901344 0.00024875040055893916 -0.000041914304923340584 -0.00002951996702360571 -0.00005243796628712216 0.0002172648779445452
          0.004573175264873497 0.0006926964463699475 0.004095857918211834 0.0005318893585253281 -0.00024532473677973954 0.00044031956105902714
          0.006540747837549626 0.006578508271769201 0.006027035787939117 0.010290202961882655 0.014720283063409556 0.008359378110340931
          0.0008218732070816026 0.0007361091215515869 0.0002705276200523077 -0.0002399362531010918 0.0003808129794671822 0.00037307986641688107
          0.007285100999334659 0.001730755748966556 0.004652047139058202 0.004043568341812631 0.002139372479506463 0.0024643697019658406
          0.007175356097520957 0.003705734051553042 0.007795978740822551 0.001329308074173495 -0.00012947840245239144 0.0004442825682358549
          0.0065111243676757025 0.007447299168535759 0.005970798865280236 0.0046793945069993625 0.0017230734557979743 0.0027707551480215947
          -0.16466158443335824 0.00010474420183495536 -0.23451080345840386 -0.3023819412176196 -0.00023141992793784816 -0.4451128320094915
          -0.08241069527221775 -0.00023906774201620795 -0.18112283605223728 0.004623173168476158 0.0004405974112892119 0.002199844930075634
          0.006808733490927518 0.004022940660235681 -0.00007522785601067616 -0.0000021410300757793155 0.00231448863477271 0.001179043038669586
          0.0036494599674971595 -0.0012312464201613693 0.0022019949348567325 0.007778402514733607 0.007813543807760115 0.005504226941517004
          -0.3578122474954702 -0.7076911143646056 -0.3727504665118636 0.0061370947676341915 -0.0006425359055868665 0.0024822357049129468
          0.004885933583405805 0.003583985993222849 0.000914580519835978 0.0013324914958158518 0.00452985628431446 0.00533090769146205
          0.007730615781158466 0.00617416362444017 0.005135669024838366 0.007384944739032395 0.009624424225655348 0.006092687794679183
          0.0002525019763859465 -0.00008214060637315446 0.00005166348827634337 0.006953250552405317 0.0003040662027302826 0.0022337078058387028
          0.0007246513280410594 0.0005502361128350564 0.0004108016996432762 0.01088384847302748 0.014692473448721322 0.008454041014150142
          0.00534776512277943 0.006042396468763013 -0.0007948847540864279 0.0005204904857715326 0.0013784360926208036 0.002605938603913345
          0.005032405204555397 0.008120032385612264 0.003555616554154109 0.005125377268761229 0.0063044765474774556 0.00744902525681207
          0.010897309767827046 0.00409531566168278 0.006022446870351611 0.009588308377870905 0.012782069986613076 0.007906693915170626
          0.006792064350073769 0.006026686510325771 0.005365616080293414 0.009663100152335707 0.014788140434040364 0.0074470976619427365
          0.5916639246302022 -0.00612651416943746 1.149219302142812 -0.009621856224505579 0.46355097500084874 -0.0015977115313952107
          0.006693271451383133 0.008853391968292879 0.004773074730769947 -0.004737941058205408 -0.010539273937744786 -0.0033553141107003914
        </DataArray>
        <DataArray type="Float64" Name="resid_z" format="ascii" RangeMin="0" RangeMax="0">
          0 0 0 0 0 0
          0 0 0 0 0 0
          0 0 0 0 0 0
          0 0 0 0 0 0
          0 0 0 0 0 0
          0 0 0 0 0 0
          0 0 0 0 0 0
          0 0 0 0 0 0
          0 0 0 0 0 0
          0 0 0 0 0 0
          0 0 0 0 0 0
          0 0 0 0 0 0
          0 0 0 0 0 0
          0 0 0 0 0 0
          0 0 0 0 0 0
          0 0 0 0 0 0
          0 0 0 0 0 0
          0 0 0 0 0 0
          0 0 0 0 0 0
          0 0 0 0 0 0
          0 0 0 0 0 0
          0 0 0 0 0 0
          0 0 0 0 0 0
          0 0 0 0 0 0
          0 0 0 0 0 0
          0 0 0 0 0 0
          0 0 0 0 0 0
          0 0 0 0 0 0
          0 0 0 0 0 0
          0 0 0 0 0 0
          0 0 0 0 0 0
          0 0 0 0 0 0
          0 0 0 0 0 0
          0 0 0 0 0 0
          0 0 0 0 0 0
          0 0 0 0 0 0
          0 0 0 0 0 0
          0 0 0 0 0 0
          0 0 0 0 0 0
          0 0 0 0 0 0
          0 0 0 0 0 0
          0 0 0 0 0 0
          0 0 0 0 0 0
          0 0 0 0 0 0
          0 0 0 0 0 0
          0 0 0 0 0 0
          0 0 0 0 0 0
          0 0 0 0 0 0
          0 0 0 0 0 0
          0 0 0 0 0 0
          0 0 0 0 0 0
          0 0 0 0 0 0
          0 0 0 0 0 0
          0 0 0 0 0 0
          0 0 0 0 0 0
          0 0 0 0 0 0
          0 0 0 0 0 0
          0 0 0 0 0 0
          0 0 0 0 0 0
          0 0 0 0 0 0
          0 0 0 0 0 0
          0 0 0 0 0 0
          0 0 0 0 0 0
          0 0 0 0 0 0
          0 0 0 0 0 0
          0 0 0 0 0 0
          0 0 0 0 0 0
          0 0 0 0 0 0
          0 0 0 0 0 0
          0 0 0 0 0 0
          0 0 0 0 0 0
          0 0 0 0 0 0
          0 0 0 0 0 0
          0 0 0 0 0 0
          0 0 0 0 0 0
          0 0 0 0 0 0
          0 0 0 0 0 0
          0 0 0 0 0 0
          0 0 0 0 0 0
          0 0 0 0 0 0
          0 0 0 0 0 0
          0 0 0 0 0 0
          0 0 0 0 0 0
          0 0 0 0 0 0
          0 0 0 0 0 0
          0 0 0 0 0 0
          0 0 0 0 0 0
          0 0 0 0 0 0
          0 0 0 0 0 0
          0 0 0 0 0 0
          0 0 0 0 0 0
          0 0 0 0 0 0
          0 0 0 0 0 0
          0 0 0 0 0 0
          0 0 0 0 0 0
          0 0 0 0 0 0
          0 0 0 0 0 0
          0 0 0 0 0 0
          0 0 0 0 0 0
          0 0 0 0 0 0
          0 0 0 0 0 0
          0 0 0 0 0 0
          0 0 0 0 0 0
          0 0 0 0 0 0
          0 0 0 0 0 0
          0 0 0 0 0 0
          0 0 0 0 0 0
          0 0 0 0 0 0
          0 0 0 0 0 0
          0 0 0 0 0 0
          0 0 0 0 0 0
          0 0 0 0 0 0
          0 0 0 0 0 0
          0 0 0 0 0 0
          0 0 0 0 0 0
          0 0 0 0 0 0
          0 0 0 0 0 0
          0 0 0 0 0 0
          0 0 0 0 0 0
          0 0 0 0 0 0
          0 0 0 0 0 0
          0 0 0 0 0 0
          0 0 0 0 0 0
          0 0 0 0 0 0
          0 0 0 0 0 0
          0 0 0 0 0 0
          0 0 0 0 0 0
          0 0 0 0 0 0
          0 0 0 0 0 0
        </DataArray>
        <DataArray type="Float64" Name="stress_zz" format="ascii" RangeMin="-5333123.595213634" RangeMax="4573554.3372364985">
          -1044699.0601917239 -533719.3489212592 -988200.8213403748 -1709441.9195887283 -1119834.7350047056 -605218.2530218181
          -1014192.5240780455 -1720446.993591178 -1194970.4098176872 -676717.1571223771 -1040184.2268157162 -1731452.0675936271
          -28631.00960381939 181655.98155807782 24801.409948140412 314520.4811980842 -19052.720759956825 137133.00221155296
          3531.2629024861985 324298.9343044761 -9474.431916094269 92610.02286502806 -17738.884143168005 334077.38741086796
          -958748.6254243532 -677264.6129264571 -1019755.2273824525 -643096.5449554159 -1080761.829340552 -608928.4769843746
          -1581645.801073276 -431524.76645922 -773408.9461848105 -2953802.094256183 -1530545.9170669257 -409485.29102824925
          -947575.1328951598 -3208924.4837734476 -1479446.0330605754 -387445.8155972786 -1121741.3196055093 -3464046.873290712
          551138.440250834 1575022.5878351124 515084.0558902113 1534137.0105130416 479029.67152958876 1493251.4331909707
          1878692.3078856715 3538362.7267472893 3243985.6932395524 1151083.7595684314 1929661.3957511145 3784052.2635721914
          3184358.6590775982 955000.6784472438 1980630.4836165581 4029741.800397093 3124731.6249156436 758917.5973260561
          1797168.387219152 1856795.2336883077 1018508.2482394867 1437421.164747722 1888860.4879500635 1826799.504402201
          1085111.4399090242 1572864.0864668605 1980552.5886809744 1796803.775116094 1151714.6315785614 1708307.008185999
          -2417619.364886323 -1483211.3257703255 -2428805.3063770067 -1548819.3484096043 -2439991.247867691 -1614427.371048883
          -986922.1180696368 1080081.646855141 2918409.9075784395 1601369.2253623689 -1033926.7817367502 1126033.23081904
          2828927.1295521543 1559044.0850523296 -1080931.4454038637 1171984.8147829394 2739444.351525869 1516718.9447422908
          912050.8304304415 968037.9717979537 2036784.214245053 875503.8571459857 907045.776274059 2146668.0816093865
          838956.8838615299 846053.5807501642 2256551.94897372 2534623.805596375 2238753.241530018 1173563.4917603054
          2495530.4562022267 2468528.4112818264 2264763.494119677 1230269.308712375 2392060.583261658 2402433.0169672775
          2290773.7467093365 1286975.1256644444 2288590.7103210893 467782.8820515149 599688.1213734148 1241598.777797935
          1003681.6046702459 418388.23473665863 686004.7534684731 1326600.4017869632 973212.5687928156 368993.5874218022
          772321.3855635315 1411602.0257759914 942743.532915385 325498.7346059843 425569.4881587794 525640.2417115746
          2214296.585342926 3252758.407917763 1780385.5956466577 2256393.037921162 3285526.3852610257 1880592.9563515561
          2298489.490499398 3318294.3626042875 1980800.3170564538 812004.7041083258 423204.3907697436 761710.6093386292
          509022.7607574208 711416.5145689325 594841.1307450979 883246.4275958878 1746403.6832306043 2443203.6676909644
          2277362.646953208 880622.5037946053 1780640.374882069 2431736.954773008 2272017.931555814 877998.5799933225
          1814877.0665335334 2420270.241855052 2266673.2161584203 -1686410.0521649104 -3462170.3383826553 -3915363.6066427864
          -3352784.7375501404 -1771066.1723504148 -3590674.5471077496 -3985558.067880301 -3477290.2641889555 -1855722.2925359195
          -3719178.7558328435 -4055752.5291178147 -3601795.790827771 3409273.239444711 1772756.1240663393 3224396.977477663
          3438860.347416377 1802479.393116571 3276630.575414085 3468447.455388044 1832202.662166803 3328864.1733505074
          -3283911.458117576 972786.4148103632 -3215011.213697255 1010338.4577188799 -3146110.9692769344 1047890.5006273964
          260832.02654626733 1292733.7781179836 -699655.6923037067 -882549.6363223372 224795.8098694235 1328891.034344026
          -696301.2492326065 -1002556.797295507 188759.59319257978 1365048.2905700682 -692946.8061615062 -1122563.9582686771
          2469012.9612336033 1542513.463660643 2467341.040471986 1607529.2603657586 2465669.119710369 1672545.0570708746
          151418.57540911614 -227702.31734345405 226160.08309813723 -188318.20257279943 300901.59078715835 -148934.087802145
          761081.4442267666 1376164.0026492723 697418.1890602176 1411472.946621379 633754.9338936683 1446781.8905934852
          -1931913.5206005406 -2694656.515176693 -2995151.270596513 -1938229.2262659865 -1966832.1375863792 -2728977.0747353034
          -2981194.1702666273 -1897381.014987135 -2001750.7545722178 -2763297.634293914 -2967237.06993674 -1856532.8037082842
          1716681.1233867374 -2259328.910788524 1719023.401127725 -2618488.379528913 1721365.6788687136 -2977647.8482693024
          -373406.33935433294 -339870.62167725276 -306334.9040001726 1635184.0513326158 2150608.585736389 1663661.3700382337
          2155489.1218905 1692138.6887438511 2160369.6580446116 773045.7329774753 1106402.2229284802 557842.927162034
          759251.6221526621 1084246.8400512596 487394.6813032999 745457.511327849 1062091.457174039 416946.4354445657
          -1286181.6557288738 -853690.327850918 -1523441.8401506692 -1258759.5555374154 -793631.7737841818 -1498277.9120216966
          -1231337.4553459568 -733573.2197174458 -1473113.983892724 2683927.357592324 2900399.0789039065 3116870.8002154888
          2414158.5810183594 2606170.8872873844 2798183.1935564093 -136163.3093534433 200580.86486531596 -187511.3789784699
          212171.21932958148 -238859.44860349654 223761.57379384706 -180274.8404569514 -92025.5346050215 -3776.2287530914764
          -2027307.4775781462 991477.1521390751 -87292.9738390675 -2050551.5924421146 1059808.9521955457 -137676.19591974327
          -2073795.707306083 1128140.7522520167 -188059.41800041895 -633177.2447536992 269563.592373422 -761414.794852874
          171266.81539581614 -889652.3449520492 72970.03841821032 -1050023.1196727995 -1272151.7656862403 -1441283.652813816
          -1391312.483386301 -1113751.3255333244 -1275480.9412601592 -1461435.6463566108 -1439068.0286775348 -1177479.5313938495
          -1278810.116834078 -1481587.6398994057 -1486823.573968769 347795.5435884712 -625503.2873692757 -479311.909012542
          412142.6703914453 321811.0426147047 -609123.9772619687 -485980.09822960215 346858.47452151356 295826.54164093814
          -592744.6671546616 -492648.28744666243 281574.2786515819 1155303.662483719 509724.2287124575 -382803.3097648481
          1195884.0787223657 501823.59821192344 -460733.8348420808 1236464.4949610122 493922.9677113894 -538664.3599193136
          2706365.9606934427 2716582.3646446597 2726798.7685958766 831040.7284661916 724373.454926665 617706.1813871387
          -667290.6297014127 -1046385.4649689796 -623424.8961229003 -996554.101740544 -579559.162544388 -946722.7385121081
          -842925.2376799746 -688666.149400378 -833725.0623815627 -652958.459654803 -824524.8870831507 -617250.7699092282
          3602447.6463793805 3692751.8295082836 3783056.012637186 201614.21633849136 -6363.491815441444 829310.3621129526
          946666.7314529447 242850.504095052 -43408.996069206005 811286.3456376432 1004782.7204304563 284086.7918516126
          -80454.5003229704 793262.3291623339 1062898.709407968 -78281.22011863603 -113999.0276170021 -149716.83511536813
          -73537.88949647197 -41382.216103817904 -9226.54271116393 -1965635.4870107996 -3531764.279564333 -1967606.3433880336
          -3576259.050126003 -1969577.1997652664 -3620753.8206876735 -751643.0963356456 -758129.1785480587 -764615.2607604719
          -3651275.1142749954 -2453290.568742118 -3632889.8243820076 -2390186.2799306144 -3614504.534489019 -2327081.9911191114
          -3931001.926146669 -4517929.849256122 -5104857.772365575 -906330.5841487607 -926063.8054139275 -878105.9505182666
          -877909.9919008431 -849881.3168877729 -829756.1783877587 -549921.0505797244 -553910.5385977654 -557900.0266158064
          482502.9279880922 470081.12703578 457659.3260834678 -1066129.2267122348 -1041664.8410811586 -1017200.4554500827
          -2797938.5445705233 -1845245.9919756544 -3136635.541471902 -2128846.6251940066 -3475332.538373281 -2412447.2584123593
          45627.49848609499 91607.81213369025 137588.1257812854 -2261818.0702420403 -567226.092267728 -2393032.532581225
          -569906.0089979962 -2524246.99492041 -572585.9257282644 3256736.9575900245 1556935.4433971671 2166957.0388233573
          3192127.414131947 1439434.905376515 1988435.5353469988 3127517.870673868 1321934.3673558626 1809914.0318706399
          1851796.2529565885 1737935.1965994914 1915199.8691271855 1858958.3527615282 1698226.369686023 1905939.7261470396
          1866120.452566468 1658517.5427725555 1896679.5831668933 1672749.640966365 3540820.3240701193 1719976.673881223
          3678292.051819152 1767203.7067960808 3815763.779568186 535902.6906767637 70646.82212312546 34992.41610077041
          583079.7044415504 74325.34745729702 21840.98566093444 630256.7182063371 78003.87279146856 8689.555221098475
          -865339.2142337591 -53482.634104790865 -903227.6302663754 -123.61857472451084 -941116.0462989917 53235.39695534184
          34451.61981199938 32341.634103424774 30231.64839485017 1274040.6282485793 2030208.4570488045 1234896.6001994875
          2063169.8177957253 1195752.5721503957 2096131.1785426463 2474554.251888413 2066243.8590641627 2459536.198457298
          1973316.362687524 2444518.1450261828 1880388.8663108852 -513904.9154445862 102341.02464020252 -690783.2469188333
          4972.250813068764 -867661.5783930805 -92396.52301406505 -776095.3526513344 -724992.1324473728 -673888.9122434111
          1215813.2956156204 685099.1234391867 1277290.9789960496 677313.8529488853 1338768.6623764788 669528.5824585841
          1313302.5548362902 1416011.6177808957 1518720.6807255012 707248.270258547 775577.164356269 843906.0584539908
          1644849.3044045903 1727872.416253049 1810895.5281015076 989666.7611740393 1085036.9903725057 1180407.2195709723
          207500.5515512576 224658.2670666386 241815.9825820196 -1723798.51157485 1726010.3739211457 -1840966.7050116258
          2007460.269454312 -1958134.8984484018 2288910.1649874784 -205021.02825290983 -422563.5978957532 -218310.38941576373
          -402625.62530918187 -231599.75057861762 -382687.65272261034 -3221462.7665164685 -3240609.6092368653 -3259756.451957262
          12670.922740894908 31146.093893914804 49621.26504693471 -260765.44035768323 -252948.6681190553 -245131.89588042742
          1798115.1123612104 1773762.2849038844 1749409.4574465584 823850.44594794 1165605.2009964369 1507359.9560449342
          -911718.259798243 -922090.1181112693 -932461.9764242958 2056597.4559397115 1725646.282825398 2080972.8685317081
          1777745.240349486 2105348.2811237043 1829844.1978735742 1568359.941994773 1587584.8491935926 1606809.7563924128
          791254.6683755849 658736.4273739051 766689.1241313871 488550.39932490466 742123.5798871893 318364.3712759044
          609431.3353929587 365783.8494249743 444660.40184338647 575986.5227122176 369884.12530921213 417808.98806949204
          542541.7100314765 373984.40119345003 390957.5742955976 273890.67065184924 251824.17238734782 229757.67412284642
          1549715.8703192468 1585183.913011364 1620651.9557034816 876959.7801785392 1250583.8130385543 871685.3809561137
          1300956.9767311367 866410.9817336882 1351330.1404237188 2164283.1791539607 2666638.7635477562 2194231.181184377
          2679325.2400310053 2224179.1832147934 2692011.716514255 3230543.5985067775 3280973.3449329105 3331403.0913590435
          2850476.234839854 3836530.807198707 2815294.170539187 3916094.083720289 2780112.1062385202 3995657.3602418713
          -3379118.497317061 1273044.4596074459 -2030011.3589172224 -3627689.3402742613 -3431016.820106105 1567143.7888615062
          -2002026.4814123223 -3552335.756312123 -3482915.14289515 1861243.1181155664 -1974041.6039074222 -3476982.1723499848
          -1168762.2700945232 -1112701.123187993 -1056639.9762814627 -1486421.5257105161 -1450955.1152474196 -1415488.7047843235
          -193484.32290370105 343586.78591480316 -281902.6064595671 218046.0522870674 -370320.8900154331 92505.3186593316
          545841.1415825677 561458.2311318908 577075.3206812138 -69022.03612915502 -285566.15863436996 -6701.358823244489
          -386160.4225911584 55619.31848266604 -486754.6865479469 -2049317.1707625533 -2585208.794139738 -2051749.5143142077
          -2610670.6201686338 -2054181.8578658614 -2636132.4461975303 446012.8963443729 501635.0380650163 557257.1797856597
          3077158.363600985 4227152.182635918 3161524.6792958216 4400353.259936209 3245890.994990659 4573554.3372364985
          -3469489.298592205 -2727950.475399447 -2105718.4645324657 -2827397.6893331353 -3453310.7960493066 -2677537.8606998622
          -2058292.9074664363 -2856850.3932829597 -3437132.2935064086 -2627125.2460002773 -2010867.3504004062 -2886303.097232784
          -149529.80214602043 -166908.07068659767 -184286.33922717496 -2432728.623216396 -3362024.3680352215 -2442144.8236360387
          -3271937.766734086 -2451561.024055681 -3181851.165432951 248433.81752818282 2781649.5029621883 225607.3106253605
          2921945.8231187183 202780.80372253817 3062242.143275248 2963471.1651404677 3033628.852280674 3103786.53942088
          1143528.9273656122 1143851.0202231333 1144173.1130806545 -464776.6111056525 -508369.8223600723 -551963.033614492
          -1449880.8073308878 -1521427.9472871511 -1592975.0872434145 -2995986.6960137826 -3078732.3940850557 -3161478.0921563283
          -1164790.1317853238 336631.2951763573 -1201402.0266048403 261152.3210849561 -1238013.921424357 185673.3469935549
          -1434210.1664844728 -1484901.4972686518 -1535592.828052831 2384620.8688344383 2922505.0218984336 3460389.1749624293
          628993.018129193 592089.6180263195 555186.2179234459 1122668.0842368903 1082109.470129673 1041550.8560224557
          -3102086.7279160637 -3101958.8494154685 -3101830.9709148724 1816075.0427846815 1828212.625684317 1840350.2085839529
          2652665.9612919157 2601834.761910516 3489440.673285866 2610185.2098690467 2612997.138996088 3492443.510455707
          2567704.458446177 2624159.5160816605 3495446.347625548 1398569.9219308877 1677260.5238239835 1955951.1257170788
          -165126.95739489133 367300.1757968275 -314925.809414614 160882.56207541714 -464724.6614343367 -45535.051645993175
          -2874305.4748346442 -2926234.930344833 -2978164.3858550224 -3103928.2706595007 -3081681.8160879537 -3059435.361516405
          3505315.552146856 3461433.386524134 3417551.220901412 -2640690.4704912836 -2606698.3037634403 -2572706.137035597
          -354565.11885465484 83774.37412167453 -303785.50974100595 115371.914887474 -253005.90062735692 146969.45565327353
          -3892514.0953958966 -3889958.762317749 -3887403.429239601 -1616520.772775425 -1692960.1680689517 -1769399.563362478
          -4411922.060367301 -4872522.827790468 -5333123.595213634 43230.269035333185 74921.71178483183 106613.15453433042
          781211.9109004904 738867.7937702328 696523.6766399756 2370949.246996247 2586170.586294898 2801391.925593548
          540130.166027191 466288.53515179787 432423.7913344393 453467.44787004904 324717.41664168774 440646.3605883002
          -951426.6002687428 -1039485.9906093923 -1127545.3809500416 -810946.8294648256 -155143.85863499466 -832277.2727292465
          -185098.01752400337 -853607.7159936675 -215052.17641301214 660476.6573763744 628036.6559693627 595596.6545623511
          545907.0680907858 514379.07698031 482851.0858698344 -950109.4641825401 -1041717.3212530911 -1133325.1783236424
          -396462.3277093542 -2323946.681868167 -254118.29312261823 -2235048.804938049 -111774.25853588246 -2146150.928007931
          -436893.24368012283 -425718.9811049062 -414544.7185296896 -2089498.8402274344 -2146404.723014144 -2203310.605800854
        </DataArray>
        <DataArray type="Float64" Name="peeq" format="ascii" RangeMin="0.00030859626244631084" RangeMax="0.005478576901465653">
          0.0020229924310437362 0.001944575745162194 0.0015691080568786802 0.0017130661874402127 0.002022636829999832 0.0019441570986683094
          0.0015694204087570906 0.001713571036998706 0.0020222812289559275 0.0019437384521744253 0.0015697327606355007 0.0017140758865571994
          0.0030611996352612283 0.0029439400868155746 0.002999143277976412 0.0031502170882326984 0.0030604737959490863 0.0029437584529398942
          0.002999336486520824 0.00315009146936519 0.003059747956636944 0.0029435768190642147 0.002999529695065236 0.003149965850497683
          0.000963582914014289 0.0012630602296740518 0.0009639162978248412 0.001263806159717623 0.0009642496816353932 0.001264552089761194
          0.004084108566789937 0.004165163831996433 0.0035762350618902287 0.003622849943030704 0.004084161524310539 0.004164477189453818
          0.003575121143910402 0.0036211407952538824 0.00408421448183114 0.0041637905469112035 0.003574007225930575 0.003619431647477061
          0.0031368424794400705 0.003325353029149633 0.0031379023874417494 0.003325788915621696 0.0031389622954434288 0.0033262248020937612
          0.003233923450360273 0.003054332525359352 0.0031283493483044295 0.003370918883338087 0.0032324197116580244 0.003055012624317796
          0.003125749474854142 0.003364800042078537 0.0032309159729557737 0.0030556927232762397 0.003123149601403854 0.003358681200818988
          0.004341195669530255 0.00470924818667283 0.004434634138810837 0.004134508065477367 0.004339709522766126 0.004705063324500891
          0.004432021047122182 0.004134067178176768 0.004338223376001998 0.004700878462328953 0.0044294079554335255 0.00413362629087617
          0.0018592364543908095 0.002100522554131661 0.0018602892581066793 0.0021006131890411307 0.0018613420618225492 0.0021007038239506007
          0.0029490216217467062 0.002724735332975419 0.00356478863944162 0.003651633690054141 0.0029463155064108986 0.002723082791694057
          0.0035619534685544 0.003649220425355753 0.002943609391075092 0.0027214302504126944 0.003559118297667179 0.003646807160657365
          0.0025474858086283283 0.0025939678374951474 0.002912335947009939 0.002546412963079174 0.00259294143571816 0.0029117574711134894
          0.00254534011753002 0.002591915033941173 0.0029111789952170402 0.005254363453212649 0.0054434681967995184 0.005328621269718838
          0.0051631551948018006 0.005248114708221043 0.005438301024689546 0.0053228813219782555 0.005156628413550494 0.005241865963229439
          0.0054331338525795735 0.005317141374237672 0.0051501016322991885 0.003623150470537348 0.0037582389738453747 0.0034861401293023193
          0.003496315692005117 0.0036222887845689072 0.0037584609698892188 0.003486835075029779 0.003495874574264926 0.0036214270986004663
          0.0037586829659330624 0.003487530020757239 0.0034954334565247356 0.0039090322891303896 0.003909319576601289 0.00390960686407219
          0.0032449567726836512 0.0030493852125739233 0.0029129697369192605 0.003244245572459207 0.0030488067836634773 0.0029135100946439457
          0.003243534372234763 0.0030482283547530317 0.0029140504523686318 0.0037061918317832466 0.00397480326639033 0.00370469179641043
          0.003974632761662216 0.0037031917610376133 0.0039744622569341005 0.00455213328474882 0.004294898412271266 0.004617497401328648
          0.004930724233323603 0.00455213782317704 0.004295714931496368 0.004617359336140286 0.004929404274216119 0.004552142361605262
          0.00429653145072147 0.004617221270951925 0.004928084315108635 0.0018946466232949819 0.0022440578106153897 0.0016417250533296158
          0.0011422164474483595 0.001894504679960633 0.0022422329602389086 0.0016417522873642528 0.0011456648150896126 0.001894362736626284
          0.0022404081098624275 0.0016417795213988897 0.0011491131827308658 0.0037451514602491478 0.0034963504609716884 0.003533336466273594
          0.0037462495511239547 0.0034968996169339487 0.0035347546630272097 0.0037473476419987617 0.003497448772896209 0.0035361728597808266
          0.0007717611570515377 0.0017199887805024491 0.000777657947638059 0.0017205350374826973 0.0007835547382245804 0.0017210812944629453
          0.0032369186125635217 0.0034130348921001044 0.0038304111120542527 0.0038977578868675438 0.0032351910807453094 0.003412497770540672
          0.003828810778119289 0.003893720931402787 0.0032334635489270963 0.00341196064898124 0.003827210444184324 0.0038896839759380297
          0.004008290756581205 0.0036956276105343747 0.004009491994401368 0.0036962701816343744 0.00401069323222153 0.003696912752734373
          0.002942751657497103 0.003181486156660804 0.002938832410136068 0.003176653589392166 0.002934913162775033 0.003171821022123528
          0.003979324748824445 0.003439126306960744 0.003976258951154633 0.003438584361011351 0.003973193153484822 0.003438042415061958
          0.002157631891194959 0.0019700017846862616 0.001958271457820944 0.0022164827145709108 0.002158674535771632 0.001971606028217833
          0.0019605020611364625 0.002218479732971047 0.0021597171803483047 0.001973210271749404 0.001962732664451981 0.0022204767513711826
          0.0026909610964651752 0.0025277433274091135 0.002691000738780083 0.0025267696647942642 0.002691040381094991 0.002525796002179415
          0.0026496915337539764 0.00264627929743596 0.0026428670611179433 0.0031833955672702485 0.002969290626522969 0.0031846723818047713
          0.0029702955991629237 0.003185949196339294 0.0029713005718028786 0.0033353280737498546 0.003318217066758505 0.003359188850845969
          0.003333337772322709 0.0033164787960931787 0.0033550606079775875 0.0033313474708955627 0.003314740525427853 0.003350932365109207
          0.0027833665129748217 0.0029948642768110475 0.0023255927236720425 0.0027807989500555825 0.0029927810995411253 0.0023228678915153
          0.002778231387136343 0.002990697922271204 0.002320143059358558 0.0027347911417066884 0.002736913624508358 0.002739036107310028
          0.002614535144450642 0.0026133062621126676 0.0026120773797746926 0.0034634799834708306 0.0035087376861340875 0.0034609936727612567
          0.0035056696048935466 0.0034585073620516825 0.003502601523653006 0.0031829920190039732 0.003180941429162349 0.0031788908393207247
          0.002156609486728021 0.0025220138901863444 0.0026633634797072407 0.0021587241315007403 0.002524476793392789 0.00266344101656563
          0.0021608387762734596 0.0025269396965992333 0.0026635185534240194 0.004347539316060346 0.004461984580019115 0.004341932400247704
          0.004456655001934809 0.004336325484435061 0.004451325423850504 0.0008727346945188109 0.0006426977227685856 0.0006456446812538341
          0.0009357470583661162 0.0008731884042172663 0.0006438168411882174 0.0006471612320283095 0.0009365568519448938 0.0008736421139157218
          0.0006449359596078493 0.0006486777828027847 0.0009373666455236714 0.0017833419535971348 0.0013539098344009862 0.0014464701031502633
          0.001865399003762574 0.0017835292851327137 0.0013547382305051114 0.0014469377188177303 0.0018651236008663656 0.0017837166166682931
          0.0013555666266092366 0.0014474053344851975 0.0018648481979701573 0.0033103502299733547 0.0030269126159221393 0.0032937494359453084
          0.0033089242666645043 0.0030259849586875636 0.0032919040403429894 0.003307498303355654 0.0030250573014529883 0.0032900586447406704
          0.0031759455742759275 0.003175522039646079 0.0031750985050162297 0.003362773518108272 0.003356157676939625 0.003349541835770978
          0.0004847437975523527 0.0003984557590866456 0.0004867279455678559 0.0004007527833306991 0.000488712093583359 0.00040304980757475267
          0.0009764408219120446 0.0012894894845419638 0.0009776887070461252 0.001290549915087926 0.0009789365921802056 0.0012916103456338882
          0.002896098426656244 0.002897390869706805 0.002898683312757366 0.0023805733717049368 0.0026374689611195126 0.0026150028717673605
          0.0022538877673833765 0.002381219733765555 0.0026378242926438284 0.0026146117390510705 0.002253895418854392 0.0023818660958261724
          0.002638179624168145 0.00261422060633478 0.002253903070325407 0.002917064729653399 0.002916428012986862 0.002915791296320325
          0.002353866318193865 0.0023543703541668106 0.002354874390139757 0.002674689888117515 0.002303838099321419 0.0026752292697478433
          0.002304360712624743 0.0026757686513781717 0.002304883325928067 0.0020863809578848093 0.0020894889066984906 0.002092596855512172
          0.002048816531938424 0.0023561568418626394 0.0020506366122746873 0.0023583041647828058 0.0020524566926109506 0.0023604514877029726
          0.0021499536817270095 0.0021501749708033057 0.0021503962598796024 0.002426826722245783 0.0024931591572194527 0.002427548150033977
          0.0024947025250609514 0.0024282695778221714 0.0024962458929024497 0.0023876944447910236 0.0023879436639930216 0.00238819288319502
          0.0022082535632221637 0.002207736021207969 0.0022072184791937744 0.002642535385954368 0.002644762089503048 0.0026469887930517287
          0.001843485467039786 0.002261240508341929 0.0018436896951918365 0.0022611755262663866 0.0018438939233438871 0.002261110544190843
          0.0029535224233200666 0.0029550739785482497 0.0029566255337764333 0.003091660932189792 0.003078943719908719 0.0030901331828312073
          0.003077894293415527 0.003088605433472623 0.0030768448669223356 0.004800893763654637 0.004988948945553951 0.004767729754534344
          0.0047964136437597055 0.004982932114041369 0.004763789377576771 0.004791933523864774 0.004976915282528788 0.004759849000619198
          0.005379567822761089 0.005133064530445513 0.005142472718853602 0.005376009067170654 0.0051309100438866285 0.005139736464697228
          0.0053724503115802165 0.005128755557327743 0.005137000210540856 0.001934680598378754 0.002567797594538256 0.00193658514743892
          0.0025701821565127115 0.0019384896964990865 0.0025725667184871683 0.0032316416047940616 0.003172874708951557 0.0030631136260524526
          0.0032300979316879836 0.0031707808388183756 0.003061642839004608 0.0032285542585819066 0.0031686869686851945 0.0030601720519567634
          0.0033735498266739246 0.003255253544363897 0.0033724681013791754 0.0032550038700897657 0.003371386376084427 0.003254754195815634
          0.0016101298688808168 0.0016107060488591142 0.001611282228837411 0.005193872943323631 0.0054452583126209835 0.00519142935999529
          0.005441968746922226 0.005188985776666948 0.005438679181223469 0.005478576901465653 0.005289189028310862 0.005473732831384836
          0.005283170087896241 0.00546888876130402 0.00527715114748162 0.004674792524620792 0.004847476394820787 0.004668411115870922
          0.004840953699327847 0.004662029707121053 0.004834431003834906 0.004178976521723266 0.004176822534366576 0.0041746685470098865
          0.004755325190202556 0.004710751598134689 0.004753866104822804 0.004709815766474288 0.004752407019443053 0.004708879934813888
          0.004172064746151361 0.004170644511803421 0.004169224277455481 0.0027770015128799922 0.0027775117985838283 0.0027780220842876647
          0.0035142973130204394 0.003513105110532539 0.0035119129080446393 0.0026888521449306983 0.0026898968011167626 0.0026909414573028263
          0.002687276835891017 0.0026877915102600097 0.002688306184629002 0.0029852782885117523 0.002851574725418463 0.002986722533185688
          0.0028536414289555144 0.0029881667778596244 0.002855708132492566 0.0029080751845825628 0.0027676454096750994 0.0029099030379455032
          0.002768631397925994 0.002911730891308444 0.0027696173861768898 0.0018694227233053329 0.0018709594101710275 0.001872496097036722
          0.0017087944379492659 0.0017094267862086435 0.001710059134468021 0.002708790835876369 0.0027091624219340747 0.00270953400799178
          0.003333666376771899 0.0033334772802629115 0.0033332881837539238 0.001527174592554338 0.0015314950275274212 0.001535815462500504
          0.0013068812903859232 0.0013084630446572037 0.001310044798928484 0.004034870852970798 0.003563996367363217 0.004034678444103835
          0.0035656115447572417 0.004034486035236873 0.003567226722151267 0.004497551203298769 0.004495362569949796 0.004493173936600822
          0.005100233768213584 0.004864800107735306 0.005093654264725435 0.0048580157452605965 0.0050870747612372855 0.004851231382785888
          0.002145935208434733 0.0024769368555789505 0.0020671650088948156 0.002145395801206364 0.0024762617085973184 0.002067061468120254
          0.0021448563939779953 0.0024755865616156864 0.0020669579273456928 0.0019865376167139317 0.001987029450349549 0.001987521283985167
          0.004904273922225432 0.004900495746044433 0.0048967175698634334 0.002944804226366206 0.0029785945833804626 0.0029447586738604267
          0.0029784783691717905 0.0029447131213546467 0.0029783621549631187 0.0048250488338431406 0.004437798113658888 0.004823651368020147
          0.0044379658753972975 0.004822253902197156 0.004438133637135707 0.004034152972545084 0.004035716445758991 0.004037279918972898
          0.00426806148765925 0.003938633202797475 0.004269072506036635 0.003940417127748246 0.00427008352441402 0.0039422010526990155
          0.0007430061199731391 0.0009415952909566022 0.0007624714539961472 0.0005539802755766085 0.0007467706910775759 0.0009467079816618054
          0.0007664892872878109 0.0005582255974909568 0.0007505352621820131 0.0009518206723670086 0.0007705071205794747 0.0005624709194053053
          0.0010701966921126953 0.0010717030201874505 0.0010732093482622054 0.0016782733215213491 0.001682312599858449 0.0016863518781955486
          0.0034192915998169787 0.0034423467476009805 0.0034173254826855683 0.0034405894738009615 0.0034153593655541583 0.0034388322000009435
          0.0031691969175294925 0.0031714558656952036 0.003173714813860914 0.0033670309059525565 0.003285923856371553 0.0033651972385323908
          0.003282868970023822 0.0033633635711122255 0.0032798140836760906 0.002544389293333509 0.00199435724300622 0.002541571443332974
          0.0019926739369435895 0.0025387535933324382 0.001990990630880959 0.002378796320524028 0.00237904404065075 0.002379291760777472
          0.0036602799847523532 0.0037083039666879064 0.0036627272864737334 0.0037105336082505283 0.0036651745881951144 0.003712763249813149
          0.0013633998043651786 0.0014704611774165608 0.0012419739358589853 0.001054159749871348 0.0013652396400061968 0.0014722072426460392
          0.00124364498103876 0.0010560562368920594 0.001367079475647215 0.0014739533078755177 0.0012453160262185345 0.0010579527239127707
          0.0033634419206036914 0.0033611577031300976 0.0033588734856565025 0.0007638496963722111 0.0005364212563554771 0.0007660392264466216
          0.0005396977395180949 0.0007682287565210319 0.0005429742226807127 0.003724297029240332 0.004276348943839121 0.0037222114675629645
          0.004274289635701372 0.0037201259058855965 0.004272230327563624 0.004296017839859083 0.004292649882185779 0.004289281924512474
          0.003082533219611159 0.0030811045395562945 0.00307967585950143 0.0032782473147906104 0.0032753865253471086 0.003272525735903606
          0.0010639127790255931 0.0010669308796325975 0.0010699489802396015 0.0005630547058955837 0.0005653128366926688 0.0005675709674897541
          0.0031449421536703976 0.0037459310993035564 0.0031416904367492287 0.003744040821571248 0.0031384387198280603 0.003742150543838939
          0.0006745375747101107 0.0006762906923429732 0.0006780438099758359 0.0012249271828287595 0.0012286487712701198 0.0012323703597114796
          0.0032687543233954367 0.0032661822768444092 0.003263610230293383 0.005196446574930356 0.005191817325574072 0.005187188076217786
          0.0004231757174551605 0.0004261241722526109 0.0004290726270500612 0.0033551706838661644 0.003357305037438899 0.003359439391011634
          0.0048997775261294604 0.004865872988083654 0.004307245845712122 0.00489462226940403 0.004860856231324487 0.004303275399671765
          0.004889467012678599 0.00485583947456532 0.004299304953631408 0.001253179273885427 0.001258443379841233 0.0012637074857970393
          0.003353441534282223 0.00323542336385604 0.003349872477645011 0.0032322657517313467 0.0033463034210077995 0.0032291081396066536
          0.0014378987264285386 0.0014402780019455025 0.0014426572774624664 0.0017138034202975423 0.0017157634512284818 0.001717723482159421
          0.0035216544664236327 0.003518590781394087 0.0035155270963645405 0.0004738974211816958 0.000476781514144706 0.00047966560710771625
          0.0012569494928739086 0.001647059676415782 0.0012579553272989426 0.0016478536521811562 0.0012589611617239767 0.0016486476279465303
          0.0017094367228266795 0.0017111998914042538 0.0017129630599818282 0.00030859626244631084 0.000310292750845388 0.0003119892392444653
          0.003219959833223398 0.003219233871414684 0.0032185079096059698 0.0034701935556325637 0.003467629562360073 0.0034650655690875824
          0.005351411037507248 0.00534670701128451 0.005342002985061771 0.003142399098800698 0.00314173483251436 0.0031410705662280225
          0.0031699308964664007 0.003094448464718503 0.003167547642032187 0.003093060318512841 0.003165164387597974 0.003091672172307179
          0.003425952406510057 0.0034239397190519343 0.0034219270315938113 0.002840056133584093 0.0028940621608451685 0.002840419100375197
          0.002893338035068395 0.002840782067166302 0.0028926139092916208 0.0030726902501398996 0.0030713590596733917 0.003070027869206884
          0.0028513091912999765 0.002850936884324545 0.002850564577349113 0.002996653009489887 0.0029960413795946444 0.0029954297496994015
          0.002301190395608185 0.0023864611224537 0.002304881921750461 0.0023903289625724798 0.002308573447892737 0.0023941968026912593
          0.002798043973301701 0.0027997244048988796 0.002801404836496058 0.0029401681041080594 0.002940805396395337 0.002941442688682614
        </DataArray>
        <DataArray type="Float64" Name="pe11" format="ascii" RangeMin="0.00030847620868172356" RangeMax="0.005478052587594778">
          0.0020224854322503745 0.0019441625948012319 0.0015686894074527025 0.001712407997578633 0.002022117749353319 0.0019437360504005086
          0.0015689943036642688 0.0017128947797198574 0.0020217500664562633 0.0019433095059997853 0.0015692991998758352 0.0017133815618610815
          0.0030603283281146836 0.0029429081582660653 0.002997321873371598 0.0031484069152563406 0.003059570334474025 0.0029426818533680827
          0.0029974581700535864 0.003148233801539502 0.0030588123408333656 0.0029424555484700993 0.0029975944667355744 0.0031480606878226645
          0.0009634692959907699 0.0012629132065589055 0.0009638002050794928 0.0012636553366747103 0.0009641311141682155 0.001264397466790515
          0.004080844344538769 0.004161904484582382 0.0035734726020407396 0.003620209947663662 0.004080805306296529 0.004161131047597382
          0.0035723283123972136 0.003618407235224625 0.0040807662680542875 0.004160357610612382 0.0035711840227536876 0.0036166045227855876
          0.003133816586192408 0.0033223674176703364 0.003134817771903985 0.0033227488491159394 0.0031358189576155614 0.0033231302805615424
          0.003232524057008632 0.0030522098432893617 0.0031264185789652344 0.0033702842308971862 0.003230993185036888 0.0030528818404758386
          0.0031237962864135117 0.003364128643049364 0.0032294623130651443 0.003053553837662315 0.0031211739938617894 0.003357973055201542
          0.004340049904776654 0.004707543545586991 0.004432472093274555 0.004133378420918473 0.004338588567327247 0.004703373366695456
          0.00442990565722929 0.004132980706140879 0.004337127229877838 0.004699203187803921 0.004427339221184022 0.004132582991363284
          0.00185818866268732 0.0020997280282582472 0.0018592058983738834 0.002099796514198021 0.001860223134060447 0.0020998650001377945
          0.0029468937150986443 0.002722532122308288 0.0035632087448688138 0.0036503161659825634 0.002944191905378383 0.00272085409725008
          0.003560376096031856 0.003647911620742193 0.0029414900956581226 0.002719176072191872 0.003557543447194899 0.0036455070755018236
          0.002547191465640619 0.00259362524939764 0.0029119032687564585 0.002546121947052656 0.002592601372957767 0.002911323407301813
          0.002545052428464694 0.002591577496517894 0.0029107435458471677 0.005253890691715867 0.0054427239260551406 0.005327333841783098
          0.00516221978712945 0.005247652729643266 0.005437526443048935 0.005321569413875285 0.005155692300513099 0.005241414767570667
          0.0054323289600427295 0.005315804985967471 0.005149164813896748 0.0036222952906692185 0.0037562244185822755 0.0034834850778853676
          0.0034951073688431716 0.0036214646479082145 0.0037565012901904695 0.0034842415766225647 0.0034946897820572246 0.0036206340051472105
          0.003756778161798663 0.00348499807535976 0.003494272195271278 0.003905590794806599 0.00390581280128005 0.0039060348077535004
          0.0032434541555862017 0.0030471084420728672 0.0029101821748762835 0.0032427139238087924 0.0030465119150084683 0.002910692642563129
          0.003241973692031382 0.0030459153879440694 0.002911203110249974 0.0037056071657069816 0.00397345216413186 0.0037041281066706438
          0.003973324760756294 0.003702649047634306 0.0039731973573807295 0.0045484306419895015 0.004290743168616504 0.004613125682330947
          0.004927055776597811 0.0045483486695189965 0.004291496336848788 0.004612920537217225 0.004925655228329023 0.004548266697048492
          0.004292249505081072 0.004612715392103504 0.004924254680060235 0.0018924365452164934 0.002241586107259489 0.0016391846484368694
          0.001140520485544566 0.0018922628356625843 0.002239751019033206 0.0016391538665247805 0.0011439214826026482 0.0018920891261086758
          0.002237915930806922 0.0016391230846126916 0.0011473224796607303 0.003740855172909391 0.0034932489348609166 0.003529107546827347
          0.0037418985353151165 0.003493753616701158 0.0035304728306041425 0.003742941897720841 0.003494258298541399 0.0035318381143809394
          0.0007708955693750165 0.0017182121083542338 0.0007767552197584972 0.0017186964085500723 0.0007826148701419781 0.0017191807087459112
          0.0032314488290006694 0.003408969584295878 0.0038268702434310214 0.0038923825077782715 0.0032297108163496803 0.003408491236362449
          0.003825328297837742 0.0038883617940188263 0.0032279728036986926 0.0034080128884290193 0.003823786352244462 0.003884341080259382
          0.004003945491318259 0.0036923648008328888 0.0040050902521848245 0.0036929649116956872 0.00400623501305139 0.0036935650225584865
          0.002941365731988288 0.0031806511449334303 0.0029373906591569137 0.0031757843525731825 0.0029334155863255393 0.003170917560212936
          0.003973183782007384 0.0034331094464429175 0.0039700716943896625 0.00343250620502702 0.00396695960677194 0.0034319029636111224
          0.002156272268462844 0.001968560748237404 0.0019560026263740035 0.002214053431420046 0.002157276749291348 0.0019701151950955753
          0.001958164708428413 0.002215992742377032 0.002158281230119852 0.0019716696419537472 0.001960326790482822 0.002217932053334019
          0.002686906494233265 0.0025229666502796376 0.0026869842520116424 0.0025219505802076647 0.0026870620097900195 0.0025209345101356914
          0.0026477614981970593 0.002644279385829523 0.002640797273461987 0.003180318095188806 0.002965056978419223 0.0031816662232720134
          0.0029661318461281583 0.0031830143513552197 0.002967206713837094 0.0033346985424379896 0.003317143831688981 0.003358569317823534
          0.0033326918762019786 0.0033153854168277656 0.003354401126658661 0.003330685209965968 0.0033136270019665497 0.0033502329354937873
          0.0027816764878477013 0.002993663050643477 0.00232330346535721 0.0027790622593669868 0.0029915317796088445 0.0023205067947111068
          0.0027764480308862726 0.0029894005085742115 0.002317710124065004 0.0027312533560068415 0.0027333870160074483 0.002735520676008055
          0.002612544892613011 0.00261126218948109 0.0026099794863491694 0.0034631129344012655 0.0035084009602191317 0.003460629998517108
          0.0035053325505411607 0.003458147062632951 0.0035022641408631893 0.003182267942368466 0.003180184151202548 0.003178100360036629
          0.0021517751571138023 0.0025174464555382864 0.0026583640373332197 0.0021539415270787118 0.0025200109864727954 0.002658458081848122
          0.0021561078970436212 0.002522575517407304 0.0026585521263630236 0.0043434085960169025 0.004457291492945008 0.004337833951380937
          0.0044519405527159595 0.004332259306744971 0.004446589612486912 0.0008726134650832636 0.0006426084352301039 0.000645564734614574
          0.0009356103112812281 0.0008730652322670237 0.0006437283767415285 0.0006470823956206938 0.0009364174951866428 0.000873516999450784
          0.0006448483182529531 0.0006486000566268136 0.0009372246790920574 0.0017830259721723111 0.001353674526256805 0.0014461743713037136
          0.001865009506546745 0.0017832113781822002 0.00135450183381023 0.0014466397269646755 0.00186472854212926 0.001783396784192089
          0.0013553291413636553 0.001447105082625637 0.0018644475777117753 0.0033098984461045304 0.00302647378883131 0.0032933605241374925
          0.003308470618650531 0.003025545241043554 0.0032915108438327113 0.003307042791196531 0.003024616693255798 0.00328966116352793
          0.003173921917721821 0.0031735196334570005 0.00317311734919218 0.003362399536208901 0.003355742996262315 0.003349086456315729
          0.000484665803543137 0.0003983973083604139 0.00048665111954373786 0.00040069713050216803 0.0004886364355443387 0.00040299695264392206
          0.0009762758614188551 0.0012892862811938164 0.000977522409274637 0.0012903437528306038 0.0009787689571304193 0.001291401224467391
          0.002892782824828283 0.0028941538072769575 0.0028955247897256317 0.0023801182456276364 0.0026370355325618052 0.0026145775714191267
          0.0022534439608878263 0.002380757171303204 0.00263738838615192 0.0026141858664900535 0.00225344481507433 0.0023813960969787727
          0.002637741239742034 0.0026137941615609803 0.0022534456692608344 0.0029166427660876123 0.002916003960151013 0.0029153651542144134
          0.002353341256456838 0.0023538364252558464 0.002354331594054855 0.0026698223272649873 0.0022990865222675583 0.002670302864407311
          0.002299559714428653 0.0026707834015496355 0.0023000329065897473 0.002081668079063093 0.002084858142057584 0.002088048205052076
          0.0020453256547176475 0.0023523232707104045 0.0020470646803320137 0.0023543998203054877 0.00204880370594638 0.0023564763699005704
          0.0021449584939643132 0.0021451559422511306 0.0021453533905379484 0.002425583538064776 0.0024909431148616183 0.0024262812705360126
          0.0024924449241122836 0.002426979003007249 0.0024939467333629493 0.002386921218731024 0.0023871583384569707 0.002387395458182917
          0.0022079220690497487 0.002207403513819367 0.0022068849585889856 0.0026388451600315712 0.0026410161494778562 0.002643187138924142
          0.0018382226367910466 0.0022559755530380072 0.001838362591101365 0.0022558770289407403 0.001838502545411683 0.0022557785048434725
          0.00294875300585143 0.002950246795287155 0.0029517405847228795 0.0030903354162080364 0.003077840262448679 0.0030887451833468554
          0.003076748267517033 0.003087154950485673 0.003075656272585386 0.004799911967644458 0.004987588056752507 0.004766458921764455
          0.004795447994142894 0.004981565244567394 0.004762528699333437 0.004790984020641332 0.004975542432382282 0.00475859847690242
          0.005377719812987118 0.005130212262655562 0.005139255832828763 0.0053740934769924385 0.0051279544373428795 0.005136457410281174
          0.005370467140997759 0.005125696612030198 0.005133658987733585 0.0019291132534696388 0.002563270536491346 0.0019310609215029018
          0.002565693374030761 0.0019330085895361648 0.0025681162115701764 0.0032311415762805995 0.0031725000744464364 0.003062545586816466
          0.003229592461952036 0.0031703966729280816 0.0030610634993963205 0.0032280433476234724 0.0031682932714097263 0.003059581411976174
          0.003371539321560062 0.0032533652972361574 0.0033704065348704585 0.0032530759279677406 0.0033692737481808557 0.003252786558699324
          0.0016099387730481598 0.0016105077745388185 0.0016110767760294771 0.005191417849664462 0.005443876882113527 0.005188857441848641
          0.0054405034576201034 0.005186297034032819 0.005437130033126682 0.005478052587594778 0.00528884702722205 0.005473175775661645
          0.005282845900885521 0.005468298963728513 0.005276844774548994 0.004671773305615783 0.00484395558942226 0.004665409674793709
          0.004837420007593436 0.004659046043971635 0.004830884425764611 0.0041761685307214755 0.004174072411407735 0.004171976292093994
          0.004751923825276795 0.004707358239261235 0.004750347823221523 0.0047063130284379 0.004748771821166252 0.004705267817614565
          0.004168506876417155 0.004167011607227362 0.0041655163380375695 0.002776523468743517 0.00277702766813124 0.0027775318675189627
          0.0035108916468448784 0.0035097203967676006 0.0035085491466903228 0.0026882814032766823 0.0026893137441103615 0.0026903460849440407
          0.002686543541936733 0.0026870403473353306 0.002687537152733928 0.0029824556528628603 0.00284816792279591 0.0029839270830149356
          0.0028503390059964996 0.00298539851316701 0.002852510089197089 0.0029048346701285497 0.002765733500043219 0.0029066086737191037
          0.002766674016247766 0.0029083826773096573 0.0027676145324523125 0.0018654184499987197 0.0018669267484430815 0.001868435046887443
          0.0017085309447131423 0.0017091619762727999 0.0017097930078324572 0.0027077129997874474 0.002708053694579039 0.002708394389370631
          0.0033320658061308317 0.0033319021763040606 0.0033317385464772904 0.0015230767319287073 0.001527423746098949 0.001531770760269191
          0.001302807746742059 0.0013043598385962924 0.001305911930450526 0.004028981291837213 0.00355830665504707 0.00402872723431505
          0.0035598512093902644 0.004028473176792887 0.0035613957637334595 0.004492482345310833 0.004490250718600592 0.00448801909189035
          0.005098062305305277 0.004862626687049988 0.005091467814114464 0.0048558390463835175 0.005084873322923652 0.004849051405717047
          0.0021456376014841174 0.002476669238991357 0.002066896514529593 0.0021450998903628426 0.0024759973935355927 0.0020667920197328044
          0.0021445621792415674 0.0024753255480798285 0.002066687524936016 0.0019863169977605392 0.0019868035830973995 0.0019872901684342597
          0.004900247359800659 0.004896434627955646 0.004892621896110633 0.002944156240290292 0.002978059893048695 0.002944079596261809
          0.002977919790528191 0.0029440029522333263 0.002977779688007687 0.004820713628962164 0.004432562028084646 0.004819259874732159
          0.004432685282823348 0.004817806120502155 0.004432808537562049 0.004028392352127326 0.0040299140637087925 0.00403143577529026
          0.004263136125049206 0.003933414945775081 0.0042640902802255 0.003935153106588947 0.004265044435401795 0.003936891267402812
          0.0007417388052140478 0.0009398570209360881 0.0007614368108024253 0.0005534320208886391 0.0007454912209950098 0.0009450108059207889
          0.000765482927652228 0.0005576861041762046 0.0007492436367759718 0.0009501645909054898 0.0007695290445020306 0.00056194018746377
          0.00106990269915358 0.0010714074383868875 0.001072912177620195 0.0016739088676678846 0.0016780237232272112 0.001682138578786538
          0.00341888716242812 0.0034418552987582614 0.0034169256515097345 0.0034401019638012477 0.0034149641405913493 0.0034383486288442344
          0.003164580753605446 0.0031667788206972895 0.0031689768877891326 0.0033666647804602877 0.0032855857236980123 0.0033648263546395734
          0.0032825222943434476 0.003362987928818859 0.003279458864988883 0.0025422805898822525 0.0019920185615916112 0.0025394320521670306
          0.001990264948496065 0.0025365835144518095 0.001988511335400519 0.002378571195308284 0.0023788190471291143 0.0023790668989499444
          0.0036548978361393065 0.003703198006694941 0.0036572937427774986 0.003705383849817702 0.003659689649415691 0.0037075696929404632
          0.0013615003336637712 0.001469385781238484 0.0012413925893606714 0.0010531593141690772 0.0013633106131303741 0.0014711090544579177
          0.0012430567786121968 0.0010550491660543614 0.001365120892596977 0.0014728323276773508 0.0012447209678637223 0.0010569390179396457
          0.003362867219424978 0.0033605748855510473 0.003358282551677116 0.0007634423455846273 0.0005361816983187692 0.0007656340713832956
          0.0005394635674628995 0.000767825797181964 0.0005427454366070296 0.003723346564769881 0.0042753863453682305 0.0037212770905665203
          0.004273340545347127 0.003719207616363158 0.004271294745326025 0.004295108099972171 0.004291766116716546 0.00428842413346092
          0.00308203025560294 0.003080584751582131 0.0030791392475613215 0.003277277070774224 0.0032744079952291057 0.0032715389196839874
          0.001062041698482067 0.0010650858207506767 0.0010681299430192867 0.0005620649075858254 0.0005643043811649744 0.0005665438547441235
          0.0031434142135357323 0.003745252923793947 0.003140162861168189 0.0037433817397929574 0.0031369115088006458 0.003741510555791969
          0.0006744403105009838 0.0006761943016481869 0.0006779482927953904 0.0012215220263759395 0.0012252343856492957 0.001228946744922652
          0.0032683330953717895 0.0032657520175536116 0.0032631709397354337 0.005193670692833172 0.005189009431101534 0.005184348169369896
          0.00042295068636406596 0.0004259001343616492 0.00042884958235923226 0.003350853732604956 0.0033529305506113404 0.003355007368617725
          0.004899204719824203 0.004865274496201641 0.004306291088528514 0.004894091005779648 0.0048602878341517195 0.0043023561590770885
          0.004888977291735094 0.004855301172101801 0.004298421229625664 0.001250112303267063 0.001255456478251773 0.001260800653236483
          0.0033530933966559266 0.0032350004079431337 0.0033495124716723104 0.003231820039953997 0.0033459315466886934 0.003228639671964861
          0.0014348750059954265 0.0014372510075040435 0.0014396270090126606 0.0017120576215788313 0.0017139655497030936 0.0017158734778273555
          0.0035200695595124323 0.0035170013973888758 0.003513933235265319 0.0004738096177660695 0.0004766986378244246 0.0004795876578827797
          0.0012567812231127882 0.0016468342362328718 0.0012577829095253405 0.0016476236610737016 0.0012587845959378923 0.0016484130859145312
          0.0017065670989240092 0.0017082671929228956 0.0017099672869217816 0.00030847620868172356 0.0003101742236196948 0.00031187223855766606
          0.003217463272658891 0.003216666428569859 0.0032158695844808267 0.003469874392025217 0.003467308023332931 0.003464741654640645
          0.005349647287969744 0.005344905724810146 0.0053401641616505485 0.0031419239757135495 0.00314125075524418 0.003140577534774811
          0.0031695116506896106 0.003093970035301221 0.003167105631065285 0.003092557449338743 0.00316469961144096 0.0030911448633762655
          0.0034235030171698355 0.0034214249600559646 0.003419346902942094 0.0028387408429420657 0.002893070942284178 0.002839076871180758
          0.002892331895579682 0.00283941289941945 0.0028915928488751864 0.003071881434413153 0.003070550797216843 0.0030692201600205325
          0.0028501231285335614 0.002849760205885464 0.0028493972832373668 0.0029949227374381727 0.0029942849261338205 0.0029936471148294683
          0.0022985004851232074 0.0023843609444174963 0.002302289259804206 0.0023882792879602794 0.002306078034485204 0.002392197631503062
          0.002796316698013385 0.0027979903175644884 0.002799663937115591 0.002937922111730496 0.0029385351306179075 0.002939148149505319
        </DataArray>
        <DataArray type="Float64" Name="pe22" format="ascii" RangeMin="-0.002815684155160389" RangeMax="-0.00015906674172901444">
          -0.001012106923892167 -0.0009716190506518782 -0.0007871572874401408 -0.0008619043651323557 -0.001011749858890821 -0.0009712770068959111
          -0.0007869300340424159 -0.0008617243583621536 -0.0010113927938894748 -0.000970934963139944 -0.000786702780644691 -0.0008615443515919515
          -0.001572851232783494 -0.0015103262413282373 -0.0015509234596317626 -0.0016356551952717742 -0.0015728028118061372 -0.0015105506149733145
          -0.0015510691572329443 -0.001635599945642881 -0.0015727543908287804 -0.0015107749886183912 -0.0015512148548341258 -0.0016355446960139878
          -0.000480135092480903 -0.000627673922813498 -0.0004799960933098572 -0.0006276051251528096 -0.0004798570941388115 -0.0006275363274921212
          -0.0021645050154365806 -0.0022135561343043096 -0.001894351294757263 -0.0019157520110187364 -0.002165955773169915 -0.002214662956092558
          -0.001894267242966638 -0.0019165218719116692 -0.0021674065309032495 -0.002215769777880807 -0.0018941831911760128 -0.0019172917328046017
          -0.0016363461684659071 -0.0017429971350496323 -0.0016365942184572095 -0.0017430171722763025 -0.001636842268448512 -0.0017430372095029734
          -0.00167327945010547 -0.0015976721686115705 -0.001622744807807055 -0.0017131230055573812 -0.0016744402627605283 -0.001599151391174504
          -0.00162372088898671 -0.0017133940139157202 -0.0016756010754155864 -0.0016006306137374378 -0.0016246969701663658 -0.0017136650222740594
          -0.0021517864186350426 -0.002355134482238768 -0.002224031514898571 -0.0020665736672118734 -0.0021523416539268375 -0.0023556620589116114
          -0.0022248364607280234 -0.0020673862490503997 -0.0021528968892186315 -0.002356189635584454 -0.002225641406557476 -0.002068198830888926
          -0.0009375964622866102 -0.0010554655568812865 -0.0009375084536697891 -0.001055141926169953 -0.0009374204450529678 -0.0010548182954586193
          -0.0014011982385194431 -0.0012904637579653467 -0.0017113704423015782 -0.0017616912688712626 -0.0014005208976463324 -0.0012891487355729937
          -0.0017106677807444946 -0.001761312153576398 -0.0013998435567732217 -0.0012878337131806408 -0.0017099651191874116 -0.0017609330382815334
          -0.0012665549480242613 -0.0012908593739526574 -0.0014426328871013352 -0.001266612082429628 -0.0012907004735466764 -0.0014424241543738972
          -0.001266669216834995 -0.0012905415731406954 -0.0014422154216464588 -0.0026065907118562864 -0.0027501044128264793 -0.0026885018014280223
          -0.0025733214711012903 -0.0026072458830951424 -0.0027511801657457797 -0.0026894674443384125 -0.002573838604972606 -0.0026079010543339992
          -0.0027522559186650805 -0.002690433087248802 -0.002574355738843922 -0.0018336452361266118 -0.0019199681411350672 -0.0018029948784891111
          -0.001791422010170582 -0.0018343646158098124 -0.001921183678830174 -0.00180405062065152 -0.0017923462494293684 -0.001835083995493013
          -0.0019223992165252812 -0.0018051063628139292 -0.0017932704886881546 -0.002070789656113445 -0.002071595595826211 -0.002072401535538977
          -0.001687034626383627 -0.0015994622592124235 -0.0015351883524296881 -0.0016884675702706665 -0.0016001742854776376 -0.001536492566409374
          -0.001689900514157706 -0.0016008863117428515 -0.00153779678038906 -0.0018520294170405423 -0.0020093225605268216 -0.001852419401962667
          -0.002010398626498896 -0.001852809386884792 -0.00201147469247097 -0.0024086266131490477 -0.0022715349953997734 -0.0024269144707004735
          -0.0025878755968102452 -0.0024102165893944913 -0.0022725981717032027 -0.0024281748455508858 -0.0025894975454106048 -0.0024118065656399336
          -0.002273661348006632 -0.002429435220401298 -0.0025911194940109634 -0.0008947463493344841 -0.0010590442317132151 -0.0007753554227217105
          -0.0005451131998601203 -0.0008935161735703076 -0.0010581706248322155 -0.0007744016335784257 -0.0005452505010074095 -0.0008922859978061312
          -0.001057297017951216 -0.000773447844435141 -0.0005453878021546988 -0.001981137519656466 -0.0018392846323558832 -0.0018669603347476126
          -0.001981254880518275 -0.001839313517853165 -0.0018670969215281474 -0.0019813722413800842 -0.0018393424033504471 -0.0018672335083086823
          -0.0003745983435838049 -0.0008176601586255042 -0.0003759288599993837 -0.0008159570514412399 -0.0003772593764149624 -0.0008142539442569757
          -0.0016674965088965391 -0.0017662980237117371 -0.001954701222238077 -0.001985530524255466 -0.0016668654149377972 -0.0017665667128076363
          -0.001955422135040504 -0.0019854308239205852 -0.0016662343209790553 -0.0017668354019035356 -0.00195614304784293 -0.001985331123585705
          -0.002119747930751779 -0.0019518298180303526 -0.0021203512076843666 -0.0019521606611495595 -0.0021209544846169533 -0.001952491504268766
          -0.0014442602657392199 -0.0015782412668539942 -0.0014442634840871693 -0.001578850811946877 -0.0014442667024351188 -0.0015794603570397601
          -0.00204159901353316 -0.0017792194022774206 -0.0020416653094375934 -0.0017788265935871554 -0.002041731605342026 -0.0017784337848968902
          -0.0010895218169535308 -0.0009942351278465838 -0.0009932162263807428 -0.0011266084137066977 -0.0010892175889700311 -0.0009941742857445927
          -0.000993164249520272 -0.001126345276290337 -0.0010889133609865316 -0.0009941134436426016 -0.0009931122726598014 -0.0011260821388739762
          -0.001423051069842368 -0.001336247012151025 -0.0014233110898582949 -0.0013369035442448256 -0.001423571109874222 -0.0013375600763386262
          -0.0012858735668468196 -0.0012854336770852055 -0.0012849937873235912 -0.001663196054284382 -0.0015554202951681194 -0.0016639640226395738
          -0.0015556231918585287 -0.0016647319909947657 -0.0015558260885489379 -0.0016875338590447298 -0.0017061102315895416 -0.0017051070769350122
          -0.0016884360812382177 -0.001707479441858072 -0.0017061697176948077 -0.0016893383034317054 -0.0017088486521266027 -0.001707232358454603
          -0.0013414608327375586 -0.0014618392362485085 -0.0011164908288822245 -0.001340941273206546 -0.0014618408595049042 -0.0011156605882445651
          -0.001340421713675533 -0.0014618424827612998 -0.0011148303476069057 -0.0014474883714041317 -0.0014493964359319294 -0.001451304500459727
          -0.0012429745531216268 -0.0012410764359275955 -0.001239178318733564 -0.0017271888376496456 -0.0017524727263007042 -0.0017276236020564403
          -0.0017527994232475134 -0.001728058366463235 -0.0017531261201943226 -0.0015760561249596838 -0.0015764414260214352 -0.0015768267270831863
          -0.0011232757685420926 -0.001328057617528981 -0.0013807728173559556 -0.0011235831542865235 -0.0013285911633399024 -0.001380537612680956
          -0.0011238905400309542 -0.001329124709150824 -0.001380302408005956 -0.0021931771363344274 -0.002267673427013105 -0.0021936256279784703
          -0.002268322587265615 -0.0021940741196225127 -0.002268971747518125 -0.0004352421220764909 -0.0003223156403185983 -0.00032477150552983507
          -0.00046643338688897326 -0.0004350969780479674 -0.00032249744004859645 -0.0003250276796707079 -0.00046628749667028657 -0.00043495183401944405
          -0.0003226792397785946 -0.00032528385381158073 -0.00046614160645159976 -0.0008907109275419327 -0.0006749749017869993 -0.0007234797039648755
          -0.0009330167378628629 -0.0008907090997950871 -0.0006748740106146814 -0.0007232836987734647 -0.0009328002628149888 -0.0008907072720482417
          -0.0006747731194423636 -0.0007230876935820538 -0.0009325837877671148 -0.001646706753177448 -0.0015073672894074068 -0.0016477829108252906
          -0.0016467801286585441 -0.0015074546635912528 -0.001648174310749276 -0.0016468535041396402 -0.001507542037775099 -0.0016485657106732618
          -0.001653263136144397 -0.0016540274190311652 -0.001654791701917933 -0.0016885651068829469 -0.0016889356984612933 -0.00168930629003964
          -0.00024366916089058762 -0.00020262231197547704 -0.0002442936870684059 -0.00020337372096917257 -0.0002449182132462242 -0.00020412512996286812
          -0.0004878896809681013 -0.0006416230449992613 -0.00048783236272132986 -0.0006415733867502017 -0.0004877750444745585 -0.0006415237285011423
          -0.0015240760157168513 -0.0015244948018028179 -0.0015249135878887838 -0.0011902708673043356 -0.0013135108125619565 -0.0012994643335733802
          -0.0011256986043820657 -0.0011903336857799964 -0.0013136211439982847 -0.0012994088108367844 -0.0011257633780306679 -0.0011903965042556574
          -0.0013137314754346127 -0.001299353288100189 -0.00112582815167927 -0.0014602050353935908 -0.0014603249095878341 -0.001460444783782077
          -0.0011813203103558058 -0.0011812429012510773 -0.001181165492146349 -0.0013689251131606978 -0.0011784153158560006 -0.0013685306882379787
          -0.0011781117492793201 -0.00136813626331526 -0.0011778081827026395 -0.001101488695342724 -0.0011023387056475352 -0.0011031887159523468
          -0.0010428212410290658 -0.001201341705947395 -0.0010426453225278014 -0.0012012656061469867 -0.0010424694040265367 -0.0012011895063465789
          -0.0011296195004520083 -0.0011301529664693385 -0.0011306864324866688 -0.0012319551856599274 -0.0012744064955261172 -0.0012316736025767365
          -0.0012741541559336993 -0.0012313920194935459 -0.0012739018163412813 -0.0012048112315061026 -0.0012045801952276097 -0.0012043491589491168
          -0.0011030834194856022 -0.0011031999297440621 -0.001103316440002522 -0.0013571486765565923 -0.0013571706174835502 -0.0013571925584105076
          -0.0009758961291853523 -0.0011969989582099167 -0.0009759522357921682 -0.0011978507136545912 -0.0009760083423989842 -0.0011987024690992658
          -0.0015250682374008172 -0.0015249100780962374 -0.001524751918791658 -0.001611731675249499 -0.0015943566429395275 -0.0016118524840393837
          -0.0015943245572522594 -0.001611973292829268 -0.001594292471564991 -0.002370249842054979 -0.002495966204141319 -0.002371212235731022
          -0.002370727605517515 -0.0024964079238827663 -0.002371701358214994 -0.0023712053689800517 -0.0024968496436242136 -0.002372190480698965
          -0.002770305452957046 -0.0026920936422843967 -0.0026638403960956474 -0.0027719402057266385 -0.0026940338567161383 -0.0026655102797932435
          -0.002773574958496232 -0.0026959740711478795 -0.00266718016349084 -0.0010363855213673737 -0.001367895187287868 -0.0010369526745767211
          -0.001369647020422988 -0.0010375198277860686 -0.0013713988535581081 -0.0016373361163291573 -0.001606510324702258 -0.0015666208866979827
          -0.0016375889824145097 -0.0016063417536218106 -0.0015665710406093832 -0.0016378418484998619 -0.0016061731825413631 -0.0015665211945207838
          -0.0017680484094203582 -0.0016958911541308532 -0.0017680417663696055 -0.001695831777638209 -0.0017680351233188534 -0.0016957724011455644
          -0.0007992658657696259 -0.0007990107293662295 -0.0007987555929628331 -0.0027246454718224972 -0.002812007630852643 -0.002726669073185698
          -0.002813845893006516 -0.0027286926745488985 -0.002815684155160389 -0.002768929378510706 -0.0026173013596638133 -0.0027702333849482777
          -0.0026181894396398696 -0.0027715373913858488 -0.0026190775196159254 -0.0023458318998261737 -0.002452952734565363 -0.00234646426171436
          -0.002453872050147166 -0.0023470966236025467 -0.002454791365728969 -0.002114101722536243 -0.0021150237868882487 -0.0021159458512402547
          -0.002525195410749674 -0.0024972903542743617 -0.0025269368974456634 -0.002499128684681895 -0.0025286783841416533 -0.0025009670150894295
          -0.002224155004924119 -0.0022245588315456615 -0.002224962658167204 -0.0013974720384899034 -0.0013975988029856278 -0.0013977255674813521
          -0.001874827588063031 -0.0018734021765302014 -0.001871976764997372 -0.0013595341109429496 -0.0013596890087542613 -0.001359843906565573
          -0.0013654083348119703 -0.001365522682029066 -0.0013656370292461618 -0.0015861005054677974 -0.001528441859133973 -0.0015864856622421657
          -0.0015274549196924601 -0.0015868708190165343 -0.001526467980250947 -0.0015067680125945987 -0.0014233638642417825 -0.0015069806045670195
          -0.0014234663566136427 -0.0015071931965394405 -0.0014235688489855026 -0.000961400560349815 -0.0009612123186213204 -0.0009610240768928261
          -0.0008513212971278993 -0.0008513242416577923 -0.0008513271861876856 -0.0013831415731452039 -0.0013832401869123096 -0.0013833388006794151
          -0.0017215965389883333 -0.0017226138236669812 -0.001723631108345629 -0.0008151525545979342 -0.0008159693524318377 -0.0008167861502657409
          -0.0007000402197138788 -0.0007000205798408643 -0.00070000093996785 -0.0020972924447000127 -0.0018620171701404062 -0.0020977668705889495
          -0.0018622267234013543 -0.0020982412964778868 -0.0018624362766623023 -0.002320809933871618 -0.002321758176632116 -0.002322706419392616
          -0.0025693700817233656 -0.0024339912238854626 -0.0025701957281634843 -0.0024344954095677327 -0.0025710213746036026 -0.0024349995952500023
          -0.001068919834729705 -0.0012316102405756832 -0.0010283411507063399 -0.0010689352464594588 -0.001231913031342092 -0.0010282630722911522
          -0.0010689506581892127 -0.0012322158221085005 -0.0010281849938759645 -0.0009887801633164483 -0.0009886212050654857 -0.0009884622468145229
          -0.00251814638570297 -0.0025194091904610473 -0.0025206719952191254 -0.0015017998123569767 -0.0015111134993735717 -0.0015021216974791993
          -0.0015113798033735202 -0.0015024435826014222 -0.0015116461073734688 -0.002511082863378162 -0.0023195817280707255 -0.002512524165868126
          -0.002320572233922955 -0.00251396546835809 -0.002321562739775185 -0.0021210861889679167 -0.0021215337947229373 -0.0021219814004779583
          -0.002247767723775395 -0.002082961391255445 -0.0022486409743020215 -0.0020832977472746658 -0.0022495142248286472 -0.0020836341032938856
          -0.0003906824331291234 -0.0004999735796142632 -0.0003955393191634034 -0.00028639060784560217 -0.0003916677066215671 -0.0005009827167062147
          -0.0003962250260635359 -0.00028761852017077463 -0.00039265298011401085 -0.0005019918537981664 -0.0003969107329636684 -0.00028884643249594714
          -0.000537693011132718 -0.0005376812118934661 -0.0005376694126542142 -0.0008821980805659977 -0.0008827640521203042 -0.0008833300236746108
          -0.001709061049864599 -0.0017431255557193617 -0.0017093787298695946 -0.0017436517792210756 -0.0017096964098745901 -0.0017441780027227897
          -0.0016526663057592416 -0.0016528832746426458 -0.00165310024352605 -0.0016962658270760075 -0.0016530305743695604 -0.0016965882702847357
          -0.0016529825774317078 -0.0016969107134934644 -0.0016529345804938548 -0.0012124101277025167 -0.0009489026259532999 -0.0012115183663100179
          -0.0009476818176662406 -0.0012106266049175189 -0.0009464610093791812 -0.0011853961845325585 -0.0011856344752040455 -0.0011858727658755326
          -0.0019310948599480554 -0.001965859261733876 -0.0019314242543099778 -0.001966064714376094 -0.0019317536486719 -0.0019662701670183124
          -0.0006959695592363806 -0.0007456714789420217 -0.0006271586460353126 -0.0005372515575417485 -0.0006956304502928416 -0.000745617894777327
          -0.0006271600672305346 -0.0005370603986752408 -0.0006952913413493027 -0.0007455643106126323 -0.0006271614884257566 -0.0005368692398087331
          -0.00165796416468465 -0.001657993036704987 -0.0016580219087253241 -0.00038729568791066654 -0.0002729299235373353 -0.00038746789396854536
          -0.00027374848945867653 -0.00038764010002642423 -0.00027456705538001766 -0.00181622894809386 -0.002094406255499705 -0.0018161062574207079
          -0.0020947923445605613 -0.0018159835667475562 -0.002095178433621417 -0.00209225369060747 -0.002092689061138626 -0.0020931244316697815
          -0.00155613404249128 -0.0015560940909963993 -0.001556054139501519 -0.0015960286155477005 -0.001595742270958668 -0.0015954559263696361
          -0.0005534051522272331 -0.0005532831877819839 -0.0005531612233367346 -0.0002954457725389864 -0.00029590996818609154 -0.0002963741638331967
          -0.0015127333861738841 -0.001849550109997156 -0.0015122125637003227 -0.0018496820561912845 -0.0015116917412267613 -0.0018498140023854135
          -0.0003391804061774869 -0.0003393810837146769 -0.0003395817612518668 -0.000661105664311757 -0.0006616594707274581 -0.0006622132771431593
          -0.0016402569775532162 -0.0016402755006331361 -0.0016402940237130556 -0.002653322922078117 -0.0026546765470393447 -0.002656030172000573
          -0.00021923615079080656 -0.00022012330549348692 -0.0002210104601961673 -0.0017637654241554395 -0.0017641670941785643 -0.0017645687642016891
          -0.0023976030167533573 -0.002388854347892341 -0.0020913327558468612 -0.0023985295173482926 -0.002389533599970056 -0.0020918564139337206
          -0.002399456017943227 -0.002390212852047771 -0.00209238007202058 -0.0006664242803350115 -0.0006671061156508926 -0.0006677879509667736
          -0.0016846093019805965 -0.0016303766362580272 -0.001684559882279311 -0.001630281694131525 -0.0016845104625780255 -0.001630186752005023
          -0.0007442843579257467 -0.0007439848452260284 -0.0007436853325263101 -0.0008698764189142401 -0.0008698207256758097 -0.0008697650324373795
          -0.0016903016842113427 -0.0016893470543917028 -0.0016883924245720626 -0.0002414893910779263 -0.0002423231509378196 -0.00024315691079771295
          -0.0006251245671644574 -0.0008186754525184312 -0.0006250519640679718 -0.0008185315451446028 -0.0006249793609714863 -0.0008183876377707747
          -0.0008718057782028422 -0.0008715076534570519 -0.0008712095287112616 -0.00015906674172901444 -0.0001595317429349032 -0.00015999674414079196
          -0.001703688830231409 -0.0017047581892902887 -0.0017058275483491688 -0.0017406291812467165 -0.001740951186429144 -0.0017412731916115717
          -0.002722574030840337 -0.002723862252832955 -0.0027251504748255742 -0.0015550589021033035 -0.0015548457460098275 -0.0015546325899163512
          -0.0016009958717706277 -0.001573073153933529 -0.0016010437843857828 -0.0015730957995753136 -0.0016010916970009375 -0.0015731184452170974
          -0.001810097034337545 -0.0018099332934908008 -0.001809769552644057 -0.0014872399504978608 -0.0014991443102851242 -0.001487905027328526
          -0.0014993845466631398 -0.0014885701041591915 -0.001499624783041155 -0.001569873604132336 -0.001570144799222289 -0.0015704159943122423
          -0.0014703967180891625 -0.0014706188158727712 -0.0014708409136563799 -0.0015751426118468111 -0.0015749541525297201 -0.001574765693212629
          -0.0012342270480055744 -0.0012662837503174124 -0.0012342908508159046 -0.0012671034099597188 -0.0012343546536262343 -0.001267923069602025
          -0.0014759144407240415 -0.0014765640279835361 -0.0014772136152430308 -0.001555252016365515 -0.001555733491164233 -0.0015562149659629513
        </DataArray>
        <DataArray type="Float64" Name="pe33" format="ascii" RangeMin="-0.0027091232090840716" RangeMax="-0.0001494094669527091">
          -0.001010378508358207 -0.0009725435441493535 -0.0007815321200125617 -0.0008505036324462772 -0.0010103678904624979 -0.0009724590435045972
          -0.0007820642696218528 -0.0008511704213577037 -0.0010103572725667887 -0.0009723745428598411 -0.000782596419231144 -0.0008518372102691297
          -0.0014874770953311896 -0.0014325819169378278 -0.0014463984137398351 -0.0015127517199845664 -0.0014867675226678877 -0.0014321312383947678
          -0.0014463890128206416 -0.0015126338558966214 -0.0014860579500045848 -0.0014316805598517078 -0.0014463796119014484 -0.001512515991808676
          -0.00048333420350986676 -0.0006352392837454074 -0.0004838041117696353 -0.0006360502115219006 -0.0004842740200294039 -0.0006368611392983937
          -0.0019163393291021884 -0.0019483483502780725 -0.001679121307283476 -0.0017044579366449252 -0.0019148495331266133 -0.001946468091504824
          -0.0016780610694305754 -0.001701885363312955 -0.001913359737151038 -0.0019445878327315755 -0.0016770008315776747 -0.001699312789980985
          -0.0014974704177265008 -0.0015793702826207043 -0.0014982235534467749 -0.0015797316768396367 -0.0014989766891670487 -0.001580093071058569
          -0.001559244606903161 -0.0014545376746777905 -0.0015036737711581797 -0.0016571612253398046 -0.0015565529222763591 -0.0014537304493013336
          -0.0015000753974268018 -0.0016507346291336435 -0.0015538612376495575 -0.001452923223924877 -0.001496477023695424 -0.001644308032927482
          -0.0021882634861416115 -0.0023524090633482223 -0.002208440578375984 -0.0020668047537065995 -0.0021862469134004093 -0.002347711307783844
          -0.002205069196501265 -0.0020655944570904783 -0.002184230340659207 -0.002343013552219466 -0.0022016978146265458 -0.002064384160474357
          -0.0009205922004007097 -0.0010442624713769605 -0.0009216974447040942 -0.0010446545880280678 -0.0009228026890074786 -0.001045046704679175
          -0.0015456954765792005 -0.0014320683643429407 -0.0018518383025672353 -0.0018886248971113012 -0.0015436710077320504 -0.0014317053616770858
          -0.0018497083152873607 -0.0018865994671657953 -0.0015416465388849005 -0.001431342359011231 -0.0018475783280074865 -0.0018845740372202898
          -0.0012806365176163573 -0.0013027658754449826 -0.0014692703816551228 -0.001279509864623028 -0.0013019008994110902 -0.0014688992529279159
          -0.0012783832116296991 -0.001301035923377198 -0.001468528124200709 -0.0026472999798595794 -0.0026926195132286612 -0.0026388320403550754
          -0.00258889831602816 -0.0026404068465481234 -0.002686346277303155 -0.0026321019695368713 -0.0025818536955404927 -0.0026335137132366673
          -0.0026800730413776485 -0.0026253718987186672 -0.002574809075052825 -0.0017886500545426062 -0.001836256277447208 -0.0016804901993962562
          -0.0017036853586725887 -0.0017871000320984016 -0.0018353176113602948 -0.0016801909559710435 -0.0017023435326278557 -0.001785550009654197
          -0.0018343789452733817 -0.0016798917125458307 -0.0017010017065831233 -0.0018348011386931534 -0.001834217205453838 -0.0018336332722145225
          -0.0015564195292025742 -0.0014476461828604437 -0.0013749938224465956 -0.0015542463535381252 -0.0014463376295308305 -0.0013742000761537546
          -0.0015520731778736758 -0.0014450290762012179 -0.001373406329860914 -0.0018535777486664389 -0.001964129603605037 -0.0018517087047079763
          -0.001962926134257398 -0.0018498396607495135 -0.001961722664909759 -0.0021398040288404525 -0.00201920817321673 -0.002186211211630473
          -0.002339180179787565 -0.002138132080124505 -0.0020188981651455846 -0.0021847456916663393 -0.0023361576829184186 -0.002136460131408558
          -0.0020185881570744394 -0.002183280171702206 -0.0023331351860492715 -0.0009976901958820093 -0.0011825418755462736 -0.0008638292257151588
          -0.0005954072856844454 -0.0009987466620922768 -0.0011815803942009898 -0.0008647522329463547 -0.0005986709815952384 -0.0009998031283025447
          -0.0011806189128557062 -0.0008656752401775506 -0.0006019346775060312 -0.001759717653252925 -0.0016539643025050331 -0.0016621472120797339
          -0.0017606436547968408 -0.0016544400988479924 -0.0016633759090759954 -0.0017615696563407562 -0.0016549158951909516 -0.0016646046060722567
          -0.00039629722579121156 -0.0009005519497287292 -0.0004008263597591136 -0.0009027393571088324 -0.0004053554937270155 -0.0009049267644889352
          -0.0015639523201041294 -0.001642671560584141 -0.0018721690211929445 -0.0019068519835228055 -0.001562845401411883 -0.0016419245235548123
          -0.001869906162797238 -0.001902930970098241 -0.0015617384827196368 -0.0016411774865254835 -0.0018676433044015315 -0.0018990099566736766
          -0.0018841975605664787 -0.0017405349828025353 -0.0018847390445004579 -0.0017408042505461276 -0.0018852805284344369 -0.00174107351828972
          -0.001497105466249068 -0.0016024098780794353 -0.0014931271750697442 -0.0015969335406263053 -0.00148914888389042 -0.001591457203173175
          -0.0019315847684742231 -0.0016538900441654962 -0.001928406384952069 -0.0016536796114398641 -0.001925228001429915 -0.0016534691787142323
          -0.0010667504515093126 -0.0009743256203908206 -0.0009627863999932604 -0.0010874450177133482 -0.0010680591603213164 -0.0009759409093509828
          -0.0009650004589081405 -0.0010896474660866953 -0.0010693678691333203 -0.0009775561983111452 -0.0009672145178230206 -0.001091849914460043
          -0.0012638554243908971 -0.0011867196381286124 -0.0012636731621533475 -0.0011850470359628389 -0.0012634908999157976 -0.0011833744337970652
          -0.0013618879313502395 -0.001358845708744317 -0.0013558034861383946 -0.0015171220409044243 -0.0014096366832511034 -0.0015177022006324392
          -0.0014105086542696298 -0.0015182823603604539 -0.0014113806252881562 -0.0016471646833932589 -0.0016110336000994393 -0.0016534622408885214
          -0.001644255794963761 -0.0016079059749696933 -0.0016482314089638528 -0.0016413469065342627 -0.001604778349839947 -0.0016430005770391835
          -0.0014402156551101422 -0.0015318238143949678 -0.001206812636474985 -0.0014381209861604408 -0.0015296909201039397 -0.0012048462064665414
          -0.0014360263172107394 -0.0015275580258129115 -0.001202879776458098 -0.0012837649846027096 -0.0012839905800755187 -0.001284216175548328
          -0.0013695703394913834 -0.0013701857535534945 -0.0013708011676156055 -0.0017359240967516198 -0.0017559282339184275 -0.0017330063964606677
          -0.0017525331272936469 -0.0017300886961697155 -0.0017491380206688665 -0.0016062118174087815 -0.0016037427251811122 -0.0016012736329534428
          -0.0010284993885717095 -0.0011893888380093054 -0.0012775912199772638 -0.001030358372792188 -0.0011914198231328926 -0.001277920469167166
          -0.0010322173570126666 -0.0011934508082564795 -0.0012782497183570676 -0.0021502314596824747 -0.002189618065931903 -0.0021442083234024666
          -0.002183617965450345 -0.002138185187122458 -0.0021776178649687873 -0.0004373713430067726 -0.0003202927949115056 -0.0003207932290847389
          -0.0004691769243922549 -0.00043796825421905624 -0.000321230936692932 -0.0003220547159499858 -0.0004701299985163562 -0.00043856516543133977
          -0.00032216907847435844 -0.00032331620281523285 -0.0004710830726404575 -0.000892315044630378 -0.0006786996244698055 -0.000722694667338838
          -0.0009319927686838817 -0.0008925022783871125 -0.0006796278231955485 -0.0007233560281912107 -0.000931928279314271 -0.0008926895121438472
          -0.0006805560219212915 -0.0007240173890435831 -0.0009318637899446603 -0.001663191692927083 -0.0015191064994239034 -0.0016455776133122019
          -0.0016616904899919866 -0.0015180905774523008 -0.0016433365330834348 -0.0016601892870568907 -0.0015170746554806986 -0.0016410954528546674
          -0.0015206587815774237 -0.0015194922144258355 -0.0015183256472742473 -0.0016738344293259536 -0.001666807297801021 -0.0016597801662760882
          -0.00024099664265254933 -0.00019577499638493686 -0.00024235743247533195 -0.0001973234095329954 -0.00024371822229811454 -0.000198871822681054
          -0.0004883861804507539 -0.0006476632361945552 -0.0004896900465533073 -0.0006487703660804019 -0.0004909939126558605 -0.000649877495966249
          -0.0013687068091114318 -0.0013696590054741394 -0.0013706112018368475 -0.0011898473783233012 -0.0013235247199998486 -0.0013151132378457458
          -0.0011277453565057603 -0.0011904234855232081 -0.0013237672421536346 -0.0013147770556532685 -0.001127681437043662 -0.0011909995927231153
          -0.0013240097643074204 -0.0013144408734607912 -0.001127617517581564 -0.001456437730694021 -0.0014556790505631785 -0.001454920370432336
          -0.0011720209461010323 -0.001172593524004769 -0.001173166101908506 -0.0013008972141042893 -0.0011206712064115575 -0.0013017721761693322
          -0.0011214479651493327 -0.0013026471382343754 -0.0011222247238871078 -0.0009801793837203687 -0.0009825194364100488 -0.000984859489099729
          -0.0010025044136885814 -0.0011509815647630093 -0.0010044193578042121 -0.0011531342141585005 -0.0010063343019198426 -0.0011552868635539915
          -0.0010153389935123047 -0.0010150029757817923 -0.0010146669580512796 -0.001193628352404848 -0.001216536619335501 -0.0011946076679592754
          -0.0012182907681785842 -0.001195586983513703 -0.0012200449170216674 -0.001182109987224921 -0.0011825781432293608 -0.0011830462992338002
          -0.0011048386495641457 -0.0011042035840753044 -0.001103568518586463 -0.0012816964834749785 -0.0012838455319943063 -0.001285994580513634
          -0.0008623265076056942 -0.0010589765948280903 -0.0008624103553091966 -0.0010580263152861486 -0.000862494203012699 -0.0010570760357442074
          -0.0014236847684506125 -0.001425336717190917 -0.0014269886659312215 -0.0014786037409585367 -0.001483483619509152 -0.0014768926993074711
          -0.0014824237102647733 -0.0014751816576564054 -0.0014813638010203946 -0.0024296621255894785 -0.0024916218526111877 -0.002395246686033432
          -0.00242472038862538 -0.0024851573206846273 -0.002390827341118443 -0.002419778651661281 -0.0024786927887580678 -0.002386407996203455
          -0.0026074143600300728 -0.0024381186203711646 -0.002475415436733116 -0.0026021532712658 -0.0024339205806267416 -0.0024709471304879306
          -0.0025968921825015264 -0.002429722540882318 -0.002466478824242745 -0.0008927277321022655 -0.0011953753492034776 -0.0008941082469261809
          -0.001196046353607773 -0.0008954887617500961 -0.0011967173580120683 -0.0015938054599514417 -0.001565989749744178 -0.0014959247001184832
          -0.0015920034795375263 -0.0015640549193062705 -0.0014944924587869364 -0.0015902014991236108 -0.001562120088868363 -0.0014930602174553901
          -0.0016034909121397027 -0.0015574741431053042 -0.0016023647685008526 -0.0015572441503295315 -0.001601238624862002 -0.0015570141575537591
          -0.0008106729072785339 -0.000811497045172589 -0.000812321183066644 -0.002466772377841965 -0.0026318692512608825 -0.0024621883686629423
          -0.0026266575646135873 -0.00245760435948392 -0.0026214458779662917 -0.0027091232090840716 -0.0026715456675582352 -0.0027029423907133673
          -0.0026646564612456515 -0.002696761572342663 -0.002657767254933067 -0.002325941405789609 -0.002391002854856897 -0.0023189454130793487
          -0.002383547957446269 -0.0023119494203690883 -0.002376093060035641 -0.0020620668081852323 -0.002059048624519485 -0.0020560304408537376
          -0.002226728414527121 -0.0022100678849868733 -0.00222341092577586 -0.0022071843437560046 -0.002220093437024599 -0.002204300802525137
          -0.0019443518714930364 -0.001942452775681701 -0.001940553679870366 -0.0013790514302536138 -0.0013794288651456119 -0.00137980630003761
          -0.0016360640587818475 -0.001636318220237399 -0.0016365723816929505 -0.001328747292333733 -0.0013296247353561 -0.0013305021783784675
          -0.0013211352071247626 -0.0013215176653062644 -0.0013219001234877658 -0.001396355147395063 -0.001319726063661937 -0.0013974414207727694
          -0.0013228840863040393 -0.0013985276941504757 -0.0013260421089461415 -0.0013980666575339512 -0.0013423696358014366 -0.0013996280691520842
          -0.001343207659634123 -0.001401189480770217 -0.0013440456834668095 -0.0009040178896489045 -0.0009057144298217607 -0.000907410969994617
          -0.0008572096475852426 -0.000857837734615007 -0.0008584658216447713 -0.0013245714266422433 -0.0013248135076667296 -0.001325055588691216
          -0.0016104692671424976 -0.0016092883526370796 -0.0016081074381316617 -0.0007079241773307725 -0.0007114543936671113 -0.0007149846100034499
          -0.0006027675270281801 -0.000604339258755428 -0.0006059109904826759 -0.0019316888471372006 -0.0016962894849066636 -0.0019309603637261007
          -0.0016976244859889106 -0.0019302318803150007 -0.0016989594870711572 -0.002171672411439215 -0.002168492541968474 -0.0021653126724977332
          -0.0025286922235819103 -0.0024286354631645247 -0.0025212720859509796 -0.002421343636815785 -0.0025138519483200493 -0.002414051810467044
          -0.0010767177667544122 -0.0012450589984156738 -0.0010385553638232526 -0.0010761646439033834 -0.001244084362193501 -0.0010385289474416518
          -0.0010756115210523544 -0.0012431097259713282 -0.0010385025310600511 -0.000997536834444091 -0.0009981823780319137 -0.0009988279216197368
          -0.0023821009740976886 -0.002377025437494598 -0.0023719499008915076 -0.0014423564279333143 -0.0014669463936751225 -0.0014419578987826093
          -0.0014665399871546703 -0.001441559369631904 -0.0014661335806342181 -0.002309630765584003 -0.002112980300013921 -0.0023067357088640333
          -0.002112113048900392 -0.002303840652144064 -0.002111245797786864 -0.0019073061631594084 -0.0019083802689858552 -0.001909454374812302
          -0.0020153684012738106 -0.0018504535545196363 -0.0020154493059234787 -0.0018518553593142814 -0.0020155302105731468 -0.0018532571641089262
          -0.0003510563720849244 -0.0004398834413218248 -0.0003658974916390218 -0.00026704141304303693 -0.0003538235143734427 -0.00044402808921457416
          -0.000369257901588692 -0.0002700675840054299 -0.000356590656661961 -0.00044817273710732336 -0.0003726183115383621 -0.00027309375496782287
          -0.0005322096880208618 -0.0005337262264934211 -0.0005352427649659803 -0.0007917107871018866 -0.000795259671106907 -0.0007988085551119272
          -0.0017098261125635201 -0.0016987297430388992 -0.0017075469216401395 -0.001696450184580172 -0.0017052677307167591 -0.0016941706261214447
          -0.001511914447846204 -0.0015138955460546437 -0.001515876644263083 -0.001670398953384279 -0.0016325551493284515 -0.0016682380843548368
          -0.0016295397169117396 -0.0016660772153253946 -0.0016265242844950285 -0.0013298704621797356 -0.001043115935638311 -0.001327913685857013
          -0.0010425831308298241 -0.0013259569095342902 -0.0010420503260213372 -0.0011931750107757255 -0.0011931845719250684 -0.0011931941330744116
          -0.0017238029761912506 -0.0017373387449610654 -0.0017258694884675207 -0.001739319135441608 -0.001727936000743791 -0.0017412995259221506
          -0.0006655307744273905 -0.000723714302296462 -0.0006142339433253586 -0.0005159077566273285 -0.0006676801628375324 -0.0007254911596805902
          -0.0006158967113816621 -0.0005179887673791205 -0.0006698295512476743 -0.0007272680170647183 -0.0006175594794379654 -0.0005200697781309123
          -0.0017049030547403269 -0.0017025818488460597 -0.0017002606429517922 -0.00037614665767396086 -0.0002632517747814337 -0.00037816617741475025
          -0.0002657150780042228 -0.00038018569715553963 -0.0002681783812270119 -0.001907117616676021 -0.0021809800898685253 -0.0019051708331458113
          -0.0021785482007865664 -0.0019032240496156018 -0.0021761163117046075 -0.0022028544093647003 -0.002199077055577919 -0.0021952997017911377
          -0.0015258962131116602 -0.0015244906605857312 -0.0015230851080598022 -0.0016812484552265231 -0.0016786657242704372 -0.0016760829933143515
          -0.0005086365462548337 -0.0005118026329686928 -0.0005149687196825519 -0.00026661913504683906 -0.00026839441297888295 -0.0002701696909109269
          -0.0016306808273618475 -0.0018957028137967906 -0.0016279502974678658 -0.0018936996836016729 -0.0016252197675738845 -0.001891696553406555
          -0.0003352599043234968 -0.0003368132179335101 -0.0003383665315435234 -0.0005604163620641818 -0.0005635749149218372 -0.0005667334677794928
          -0.0016280761178185735 -0.0016254765169204754 -0.0016228769160223778 -0.0025403477707550545 -0.0025343328840621883 -0.002528317997369323
          -0.00020371453557325932 -0.00020577682886816214 -0.0002078391221630649 -0.0015870883084495159 -0.0015887634564327759 -0.0015904386044160357
          -0.0025016017030708446 -0.0024764201483092993 -0.0022149583326816513 -0.0024955614884313547 -0.0024707542341816644 -0.0022104997451433675
          -0.0024895212737918657 -0.002465088320054029 -0.0022060411576050832 -0.0005836880229320513 -0.0005883503626008802 -0.0005930127022697093
          -0.0016684840946753303 -0.0016046237716851066 -0.001664952589392999 -0.001601538345822472 -0.0016614210841106674 -0.0015984529199598377
          -0.00069059064806968 -0.0006932661622780151 -0.0006959416764863503 -0.0008421812026645911 -0.0008441448240272835 -0.0008461084453899759
          -0.0018297678753010885 -0.0018276543429971725 -0.001825540810693256 -0.00023232022668814303 -0.00023437548688660486 -0.0002364307470850667
          -0.0006316566559483307 -0.0008281587837144405 -0.0006327309454573683 -0.0008290921159290985 -0.000633805234966406 -0.0008300254481437564
          -0.0008347613207211668 -0.0008367595394658432 -0.0008387577582105197 -0.0001494094669527091 -0.00015064248068479157 -0.00015187549441687405
          -0.0015137744424274814 -0.0015119082392795694 -0.0015100420361316574 -0.0017292452107784996 -0.0017263568369037864 -0.0017234684630290736
          -0.0026270732571294065 -0.00262104347197719 -0.0026150136868249734 -0.0015868650736102462 -0.001586405009234353 -0.0015859449448584603
          -0.0015685157789189822 -0.0015208968813676912 -0.0015660618466795024 -0.0015194616497634294 -0.0015636079144400227 -0.0015180264181591681
          -0.0016134059828322896 -0.0016114916665651634 -0.0016095773502980374 -0.0013515008924442052 -0.0013939266319990535 -0.0013511718438522316
          -0.0013929473489165422 -0.0013508427952602581 -0.0013919680658340309 -0.0015020078302808164 -0.0015004059979945533 -0.00149880416570829
          -0.001379726410444399 -0.0013791413900126927 -0.0013785563695809864 -0.001419780125591361 -0.0014193307736041004 -0.0014188814216168398
          -0.0010642734371176332 -0.0011180771941000842 -0.0010679984089883012 -0.0011211758780005606 -0.001071723380858969 -0.001124274561901037
          -0.0013204022572893435 -0.0013214262895809518 -0.0013224503218725603 -0.0013826700953649804 -0.001382801639453674 -0.0013829331835423678
        </DataArray>
        <DataArray type="Float64" Name="disp_x" format="ascii" RangeMin="0.000007083666450656598" RangeMax="0.000044743246323222495">
          0.00003155508298251639 0.00003150169022199547 0.000030012944396792725 0.000030098961284895213 0.00003155858077759384 0.000031505804375774136
          0.000030017315089651654 0.00003010278305831673 0.00003156924139952076 0.00003151757199729171 0.00003003130792749634 0.000030114863363892517
          0.000038844466663667517 0.00003622573851233812 0.00003515312826550511 0.00003676164744075502 0.00003884467637134437 0.00003622714203255548
          0.000035153842531027774 0.00003676121152200701 0.00003884542339525459 0.00003623155955871933 0.000035156261754705517 0.000036760005391531026
          0.000029635035322127476 0.00003078581142519297 0.000029638419671106412 0.00003078940742824648 0.00002964795545127431 0.00003080013709511878
          0.00003716104206486186 0.0000374395350434502 0.00003996251718650892 0.00003954704701177201 0.00003715627476945246 0.000037433263840295395
          0.00003995550773492777 0.00003954122375996063 0.00003714103035689548 0.000037415515107797196 0.00003993507158233318 0.00003952678280688728
          0.0000336635484533871 0.00003505899108376844 0.00003366361692641757 0.000035058318716328064 0.000033663632058108644 0.00003505566216417361
          0.000016580896779874945 0.000018225809957871056 0.000017813609638167578 0.000015602420955835518 0.000016577245102344607 0.000018220772766220136
          0.00001780756821096557 0.00001559959367926946 0.000016564845201000065 0.000018204870564526118 0.000017789075777382357 0.000015589900099339263
          0.00001680539265952681 0.000019656610647853612 0.000019841330752551658 0.000017369051539808438 0.000016810976863580908 0.000019660883315209996
          0.00001984512522944043 0.00001737338993147285 0.0000168287178234664 0.000019675742086053415 0.00001985849381843561 0.000017384728824366864
          0.000030199818163137523 0.00003148364738099004 0.000030202908924647607 0.000031486773273583644 0.00003021251601682138 0.0000314961500831276
          0.000011143368731094987 0.000010510921266463782 0.000012624306094815665 0.000013207660746496677 0.000011152110200315786 0.00001052107524186775
          0.000012633449498867018 0.000013215206535531925 0.000011179394176855696 0.000010553159535339802 0.000012660373091295728 0.00001323709746899537
          0.00003474281816933886 0.000034724038380013484 0.00003663281768765952 0.00003474715297371382 0.00003472826241076132 0.000036636937750403065
          0.00003476030902452685 0.00003474072975234566 0.00003664644409992567 0.000020779455042201655 0.000023910283617301997 0.000023197955794472416
          0.000020463025307072305 0.000020782031662874544 0.00002390974343473138 0.00002319815076264761 0.000020466217630489547 0.00002078955048895778
          0.00002390833035845002 0.000023199054672914443 0.000020474915608361835 0.000016831767350828792 0.000019040932834681025 0.000019755984420704075
          0.0000175612939599472 0.000016833790951121693 0.00001904268525293205 0.000019756177771405637 0.000017561642733814468 0.00001683913265786485
          0.000019047714990016485 0.000019757166400519012 0.000017562114395574616 0.00003696729208371596 0.00003696351816842043 0.00003695236681444021
          0.000017472235960727182 0.00001902643674428692 0.000019405250588234138 0.000017469319636906995 0.00001902325570565442 0.000019401772127883728
          0.00001746094548906387 0.000019013370783073226 0.000019391923892107246 0.000015860198639595174 0.00001816759863769961 0.000015863693180144033
          0.000018170711261208778 0.000015874215392023378 0.000018179999861075398 0.00003447556149568904 0.00003436452792812067 0.00003185013475041404
          0.00003154197148070561 0.00003447038970765719 0.00003436020068245653 0.00003184543261371235 0.000031537034777895244 0.00003445407830421898
          0.00003434655553915011 0.00003183147066871314 0.000031522832374986795 0.000008862043231561452 0.000009535664753267178 0.000008418741758653623
          0.000007630667690155176 0.0000088727703461323 0.00000954625233937326 0.000008429463408912231 0.00000764127863986952 0.000008903868930080615
          0.000009576419549329183 0.000008463341135858809 0.000007673542502296911 0.00003403626464395257 0.000035995188768637715 0.00003338176760892397
          0.00003403376838422155 0.00003599329125910315 0.00003338021760211678 0.000034026857910650556 0.00003598756471388016 0.00003337641284957063
          0.000007083666450656598 0.000008350374773074312 0.000007092882034419827 0.00000836128798407335 0.000007121603238221193 0.000008391799133342485
          0.000025217549647411386 0.00002220420399587256 0.000021495715536268264 0.000023972005313275932 0.000025216391050440988 0.00002220441737332845
          0.000021497222371183334 0.000023971505762032672 0.000025212875819351655 0.000022205122617169512 0.000021502371472831243 0.000023970482939226833
          0.00003429617325352287 0.000036589228132092174 0.000034292704144455806 0.000036586535474699485 0.000034281452475916184 0.00003657798920853326
          0.000011853543258628202 0.000013076470367962792 0.000011857106403439992 0.000013077778506698614 0.000011866857939148455 0.000013081886670661185
          0.00002627182620890717 0.000027477182039534174 0.00002626911806760194 0.00002747468358126385 0.000026259667764045926 0.00002746655807038372
          0.00003113648693597552 0.000030246952602455083 0.00002945335294513096 0.000030307265582430268 0.00003113899265092278 0.000030249450116690066
          0.00002945483567421604 0.00003030860049991628 0.00003114647322397392 0.000030256981645766247 0.000029459709069398375 0.000030313151427271742
          0.000021101393850733138 0.00002137725392099361 0.000021097401609038534 0.000021372917217032948 0.00002108421246968998 0.000021362059241365692
          0.000010727420792788825 0.000010733170503512205 0.000010750712446779407 0.000020310185418018498 0.000022608332950570795 0.00002030887994872312
          0.00002260765857216943 0.000020304659953408956 0.00002260520417540505 0.000015409836268498187 0.00001663010576059769 0.000015072746630162882
          0.000015410009598845908 0.000016628037131398075 0.0000150714470893416 0.000015411297773429082 0.000016621200499078534 0.000015068016511281299
          0.000011080179490113726 0.000012101683260560018 0.000009792819331434293 0.000011087667733098397 0.000012106991433181968 0.000009800707831688602
          0.000011109935631777866 0.000012122711891552555 0.000009824843551002336 0.000019904239581007053 0.00001990009399525683 0.000019888393159351195
          0.000010060402692079437 0.00001007106799686 0.000010104813379921012 0.000040011945909473084 0.000040918051434222824 0.00004001498445913255
          0.00004091997978291923 0.0000400233632294445 0.000040925762641956516 0.000013389151727003286 0.000013392342437694515 0.00001340246531079779
          0.000024869172269856266 0.000022909910095554217 0.000024817210453832153 0.00002486830492406882 0.000022907948230696826 0.00002481674973321078
          0.000024865218118637128 0.00002290335852245417 0.00002481561787216167 0.00002299470106805981 0.000025308225092897943 0.000022995555446555987
          0.00002530604039451993 0.000022998068624612407 0.00002529952215886283 0.000029019877461106224 0.000028214784783770766 0.00002805921606325132
          0.000029008403623608512 0.000029023474884233638 0.00002821841408774422 0.000028062776393449673 0.000029012305093823773 0.000029034428396151164
          0.000028229662367346295 0.00002807383781292032 0.000029024160596693806 0.00003137646019847626 0.000030022968677768395 0.000029965108035516407
          0.000031389179686887576 0.000031381539031391974 0.000030027703978201646 0.000029969959284230627 0.000031393856423051396 0.00003139685451573319
          0.000030042432903992538 0.00002998553127471861 0.00003140747577284855 0.00003891838058668613 0.00003695030501729216 0.00003854020638240001
          0.00003892188161201728 0.000036954292330177066 0.00003854380164048901 0.0000389338221924181 0.000036966857461545064 0.00003855437026489058
          0.00001858463766748472 0.000018581917684883125 0.00001857314222275812 0.00001392137901340667 0.000013921333135311975 0.000013922851256882534
          0.0000277534833869927 0.000027161820280905767 0.000027756683511862713 0.000027163864798228434 0.000027765893112170078 0.000027170204653016338
          0.000028852912217193392 0.00003015592184133922 0.00002885718612477306 0.000030160517772637613 0.000028869647280918505 0.000030173668107115337
          0.000020751203609366328 0.000020748494479800356 0.00002074003975841136 0.00003355192935742207 0.00003485927600788533 0.000034734648282695494
          0.00003301111555296915 0.00003355591819727583 0.00003486382274134188 0.0000347392691271552 0.00003301565072507707 0.00003356822291603085
          0.000034878077104501854 0.00003475339749695006 0.000033028607611016456 0.00003625801395788109 0.00003626293179954571 0.000036276154751313295
          0.000033324991539520454 0.000033328251955268494 0.00003333699980020145 0.000027533399298380665 0.000026738328559818357 0.000027531897277665032
          0.00002673772047630425 0.000027526851353503615 0.000026735804920648916 0.00002338049249427188 0.00002337663879991813 0.00002336385321371866
          0.00002828598704349656 0.00002908315780599936 0.00002828622247344337 0.000029083101927835153 0.000028286189153370403 0.00002908242778289656
          0.000022698157474443887 0.000022693518571973995 0.000022676783508036114 0.00003262118798209583 0.00003170480364434658 0.00003262358406618868
          0.0000317062742513045 0.000032630551944990476 0.00003171040561081706 0.0000331169380966095 0.000033119877217262546 0.00003312816533747301
          0.00003292822971548314 0.00003293328953363342 0.000032948548389457675 0.000030422731922124547 0.000030422953963530045 0.000030423432418312037
          0.000023333590272755667 0.00002185706739166943 0.000023328361899897478 0.000021852928574089166 0.0000233106364608887 0.00002184254451080973
          0.000028936414357794775 0.000028934943648358995 0.000028930423115804786 0.00004075633021114687 0.00004009456128021562 0.00004075314789284211
          0.00004009333214253634 0.00004074394029304259 0.00004008978665045115 0.000017916830670446906 0.00002005055654020927 0.000018275525367079475
          0.000017922283082370854 0.000020054864527755914 0.00001828093575688116 0.00001794129567244468 0.000020064907906586747 0.0000182983653645331
          0.00002746819965889045 0.00003141235536693979 0.000028661652952117995 0.000027465429704456224 0.000031407651211622834 0.000028658032024390334
          0.00002745703199211326 0.00003139424213473644 0.00002864580210292266 0.000022457993729213576 0.000020410717949041512 0.0000224533927453458
          0.00002040477898778776 0.000022440510445826753 0.000020385375294231495 0.00004297101750360263 0.000040971825792899297 0.00004159914385043656
          0.00004297086034136187 0.00004097238920599974 0.000041599135736942586 0.00004297032475394583 0.00004097418953227805 0.00004159897902317367
          0.000038747314551922026 0.00003798839322300479 0.00003874508503703017 0.00003798742332521832 0.00003873875235094977 0.00003798340763566871
          0.00003211653649756779 0.00003212086230455311 0.00003213383442241893 0.00003179174375071392 0.000028352137048271554 0.0000317869976091546
          0.00002834907826888468 0.000031772588292172985 0.000028339976744427717 0.000024848826401746446 0.000021376415458305623 0.000024847884105625425
          0.00002137838664602545 0.000024843849925160466 0.000021384365354055597 0.0000221275570104958 0.0000243653014843259 0.000022129668062441868
          0.000024364374376093175 0.000022136583747994522 0.000024360224180073533 0.000020617277214428553 0.00002062020023975021 0.000020628681171548034
          0.00003503379207003958 0.00003463294415241431 0.00003502794196000888 0.00003462761614438227 0.000035008739690871794 0.00003460995556543866
          0.00003799046909535529 0.000037983880115259445 0.000037963587904659554 0.00003562126922881564 0.00003562582049928691 0.000035639254293354876
          0.00004059410751427267 0.00004058665878223602 0.00004056228687450927 0.00003521473711116148 0.00003521834480672979 0.00003522899437753213
          0.00003491883724955637 0.00003492163240282754 0.000034929906525178177 0.00004201583237364556 0.000042820928048020444 0.000042008484631150404
          0.000042814425116855916 0.000041983926359428694 0.00004279494373536499 0.000032067132218967806 0.000033399462638370406 0.000032067489619303756
          0.00003340098296902462 0.00003206805267885667 0.000033405037794938324 0.00002650948596860584 0.00002650948444034678 0.000026509315901557825
          0.000031492332495610156 0.00003149751402633257 0.00003151330398839312 0.00003431713160370032 0.000034319534771793594 0.000034326624243015064
          0.000018041888850598527 0.000018040884605593495 0.00001803719148532868 0.000024433355846143538 0.00002442905521438332 0.000024414406752004864
          0.000024321123693879178 0.000024317348130564623 0.00002430575841178442 0.000028383648433832005 0.000029389302222512664 0.00002837985013924389
          0.000029386450069111384 0.000028367760161176235 0.000029378316988375963 0.00002756006450044519 0.00002755622850423738 0.0000275442486432949
          0.000022900309001488992 0.000021481465882472103 0.000022900732612999014 0.000021484310086589357 0.00002290258104288298 0.000021491526279001903
          0.00003301627566619898 0.00003487208199496226 0.00003321499178151644 0.000033021545299042304 0.00003487679343539694 0.00003321998591232207
          0.00003303676413378534 0.000034891276660438294 0.000033234893410050795 0.00003355018075631864 0.00003355462419609198 0.00003356799966740706
          0.00002676081139655823 0.000026757454803700158 0.000026746739851550434 0.00003683859007007214 0.000037047580526045996 0.00003684116457007566
          0.000037051351022331293 0.00003684825183286612 0.00003706263813888927 0.00002927354291184408 0.00002981008121454884 0.00002926942243978015
          0.00002980593524257243 0.000029256886465895554 0.00002979310427401518 0.000030348554143076235 0.000030344898011091665 0.000030333513657230346
          0.000032048556893712624 0.00003219507072053119 0.00003204474516767649 0.00003219225510958287 0.000032032522674728064 0.00003218267481283266
          0.00002561635779035603 0.000025647072406062022 0.000026563381641185515 0.000026469186877610202 0.000025614262754581197 0.00002564536662125671
          0.000026564715952350138 0.000026469749592359853 0.00002560708285022014 0.000025641672758847977 0.000026568875404709056 0.000026470631458624826
          0.00002874412305192512 0.00002874832890964243 0.00002876023050293049 0.000025174088268681365 0.00002517276521575571 0.000025169451247235286
          0.000014970147633887156 0.00001597467679444051 0.00001497289559629871 0.00001597592142405093 0.000014982224688910843 0.00001597872638589301
          0.00003067529895956883 0.00003067421905651959 0.00003067044683969978 0.00004240195603437868 0.0000405246056037312 0.00004240204008409351
          0.00004052593305457665 0.00004240256853507455 0.00004052909386317082 0.000010248463913704244 0.000009055435435682181 0.000010257606575180907
          0.000009065154329724451 0.000010284939188732605 0.000009094753243091142 0.00003511538856657049 0.00003512005321535749 0.00003513406737434525
          0.00003111256765371415 0.00003224591700155642 0.00003111039412042176 0.00003224393377688971 0.000031102238664782654 0.00003223698910488393
          0.000027709449624279145 0.00002885660782259408 0.000028758362283089607 0.000027647686778273223 0.00002771126597255209 0.000028859803845768333
          0.000028762265360788542 0.000027650139007020922 0.000027717213138822624 0.000028869259843886968 0.000028773479362247183 0.000027657633851794524
          0.00001380212324039424 0.00001380677661647036 0.000013820463571414997 0.00002753636102136735 0.000027018604791028328 0.000027539326653939834
          0.000027020696751572042 0.000027548350726067734 0.000027027804437101432 0.00001398228394823979 0.000015536903061012232 0.000013988618995622079
          0.000015543891639755953 0.00001400635653122859 0.00001556395479719884 0.000015096388067531552 0.000015103780425873209 0.00001512565448438825
          0.0000374245877662829 0.000037428913615621167 0.000037441905503235276 0.000012745985993704937 0.000012752243153221942 0.00001277181095797055
          0.000026592551781573702 0.000026594070038676468 0.000026598175025133355 0.00002560976563721204 0.000025608648799324764 0.000025605135988913858
          0.000011896478975171168 0.000014877741693753854 0.000011904031350549025 0.000014882509608653273 0.000011927223977397672 0.000014896558118520681
          0.00002787708515945997 0.000027880533550909272 0.000027890539250116503 0.00002487745392219706 0.00002487417074653421 0.00002486163230757319
          0.000038518622860826954 0.00003852227936956846 0.000038533630135872164 0.000025953745913946597 0.00002595162965274783 0.000025944908020779786
          0.000026391653439811143 0.000026391981244348018 0.00002639311914896838 0.00003223386331491943 0.000032233007219439694 0.00003222966035634541
          0.000018047220996017884 0.00001786022370154015 0.000014974861432076485 0.000018052467373608503 0.00001786587051913187 0.000014982691622505685
          0.00001806865612233905 0.00001788226475970418 0.000015006274054594861 0.000025497897410271437 0.000025496742323417546 0.00002549460374595921
          0.00003986384135911481 0.000038670680704016456 0.0000398662539380088 0.00003867384747843308 0.000039871659889864545 0.000038684506769264096
          0.000026533955013876877 0.00002653489883256493 0.000026536723572413152 0.000029066240749836752 0.000029068727517005037 0.000029075574441567104
          0.000012278669410596211 0.000012288714941083516 0.000012318879017735534 0.000027093241832431447 0.000027095575017421357 0.000027102295446467434
          0.000030387778217676185 0.000031731401442960307 0.000030391862024118486 0.00003173619413148776 0.000030403421037959655 0.00003175086159540281
          0.00002788483220474382 0.000027886041272065332 0.000027889364500746033 0.000026281631157462694 0.000026282379140337788 0.00002628396466385046
          0.00004129930853075198 0.00004129262408543058 0.00004127153911864545 0.00004172791735573734 0.00004172885449759226 0.00004173068981072375
          0.000025383909113343766 0.00002538244082981178 0.00002537784403087519 0.00003813989139476815 0.00003814377080311584 0.000038156201622789074
          0.000038761908926416354 0.00003886671930689777 0.000038765032437277926 0.00003886876393533249 0.000038773800212637347 0.000038873837935180706
          0.00003983990737062572 0.000039835217780852265 0.000039821534455777524 0.000042576214577754525 0.00004279449839987806 0.00004257273090844577
          0.00004279246375509756 0.0000425618154227794 0.000042786670003027546 0.00004367180983788564 0.00004367108238103972 0.000043668872930553426
          0.000044743246323222495 0.0000447413999514586 0.000044735161898305286 0.00004162327418052 0.00004161807331400333 0.00004160125719679536
          0.00004470529831841199 0.00004413732561770488 0.00004470152990478372 0.000044132144878463166 0.00004469234935627285 0.000044116630886459565
          0.00004265842104305665 0.00004265433302514502 0.000042639441318533844 0.000042174956025660695 0.0000421681903648644 0.000042144694775137455
        </DataArray>
        <DataArray type="Float64" Name="disp_y" format="ascii" RangeMin="-0.00001586805872012088" RangeMax="0">
          -0.000012050568527505658 -0.000012649150339054294 -0.000012957099842308052 -0.000012446161532044848 -0.000012052125763596808 -0.000012650554622509195
          -0.000012958992388527357 -0.00001244840588250092 -0.00001205685047693897 -0.000012654673372278658 -0.000012964834231138215 -0.000012455213127178798
          -0.000006982735018020715 -0.000008472688020375796 -0.000008267703238833744 -0.0000070819275638472126 -0.000006982599594377281 -0.000008473681560063988
          -0.000008269451287378035 -0.000007083211736216484 -0.0000069819652564447994 -0.000008476589814269184 -0.00000827472375084379 -0.000007086844379460644
          -0.000015390892115647255 -0.00001556084329338235 -0.000015391133076342584 -0.00001556120492545261 -0.000015391746105951986 -0.000015562089225171903
          -0.000002438709650132517 -0.0000012052765812561732 -0.0000010243043181928769 -0.0000020521810971838057 -0.0000024400822208599612 -0.0000012058443946324486
          -0.0000010239646201934213 -0.000002052288238891641 -0.000002444698265484275 -0.0000012069926944148395 -0.0000010212066895577833 -0.0000020542181959675613
          -0.000008258599121480533 -0.000007181124892074596 -0.000008261261407645131 -0.000007183295588183654 -0.000008269645309674152 -0.000007190170036496224
          -0.0000080092328420002 -0.000009224182052631264 -0.000009221312772427973 -0.000007653564290989337 -0.000008010868800267449 -0.000009226948160042072
          -0.000009223888710251865 -0.00000765442527829405 -0.000008017490783016777 -0.000009234735470996706 -0.000009231378879564848 -0.000007657274653152507
          -0.000003657175636155672 -0.00000463216655614883 -0.000005687460900721559 -0.000004952436502018666 -0.000003658991522870082 -0.000004635066782720517
          -0.000005691003699604993 -0.000004954733727216941 -0.000003664727210290219 -0.000004644677094224013 -0.000005701829406447452 -0.000004961320064419056
          -0.000011954012560892547 -0.000011538728736098579 -0.0000119565664384365 -0.000011540694588320188 -0.000011964296035164784 -0.000011546118200968367
          -0.0000015677640145110196 -7.332984076927007e-7 -9.3559424593155e-7 -0.0000019276556132936947 -0.0000015667003421156265 -7.322635832122784e-7
          -9.357142903273537e-7 -0.000001927949352497736 -0.0000015643387999154053 -7.286448050862176e-7 -9.353304049520114e-7 -0.0000019291681804080737
          -0.000014266611128135839 -0.000013484147511488591 -0.00001319580940040925 -0.000014267656019569251 -0.000013485149864843333 -0.000013196819000578372
          -0.000014271586963399666 -0.000013487371433249607 -0.00001319942479282278 -0.000001317034268629992 -0.0000014610106467286075 -0.000002818892004210741
          -0.000002580423955495574 -0.0000013179694660335306 -0.000001461883971045126 -0.0000028206327982992922 -0.0000025821001746566587 -0.0000013207354889742544
          -0.0000014652768108734052 -0.0000028260357603264857 -0.0000025868815692300373 -0.0000063160301899901556 -0.000007215659151991521 -0.00000818722978149464
          -0.000007173821564587191 -0.000006318228364105107 -0.000007219356462311628 -0.000008191573602552992 -0.000007176402799411442 -0.000006325076962775145
          -0.000007230733286838428 -0.000008204379014240933 -0.000007184663377930478 -0.000003692821197643985 -0.0000036949332388781483 -0.000003701246425181946
          -0.000008258887522901039 -0.00000914020577463889 -0.000009675141740431236 -0.000008261033972866115 -0.000009143647497396563 -0.000009678531643303125
          -0.0000082684334320599 -0.000009152938289217917 -0.00000968939354548061 -0.000005282396203314676 -0.0000061270427878802445 -0.0000052841269289642515
          -0.0000061299845971842946 -0.000005289415967713891 -0.000006138461324821647 -0.0000027301268811390624 -0.0000040167827992970555 -0.000004390791235714256
          -0.0000030147046584286252 -0.0000027323351486013727 -0.000004019918448786794 -0.000004394375193214826 -0.000003017454007326188 -0.000002740143853726695
          -0.000004028990979866666 -0.0000044050932423427724 -0.0000030261043363132334 -5.998324873910505e-7 -0.000001286892986468589 -0.000001129880274345333
          -5.669816001763584e-7 -5.984861736122162e-7 -0.0000012853152865086405 -0.0000011277662621568494 -5.652858478095996e-7 -5.920229174416253e-7
          -0.0000012799359733190008 -0.0000011228230274098863 -5.610052646090755e-7 -0.000006307166779472988 -0.000006092606141598435 -0.000007251418010788275
          -0.000006310369957820656 -0.0000060948503822072974 -0.000007254621605686909 -0.000006320327644105132 -0.000006100751996594255 -0.0000072638924930953274
          0 0 0 0 0 0
          -0.000009919364143321742 -0.000009131325834662067 -0.000008043430386704664 -0.00000843742239704582 -0.000009925688749165501 -0.00000913710689277735
          -0.000008048585016497712 -0.000008443459663350232 -0.000009944926559048084 -0.000009155144017206082 -0.000008064585128341124 -0.000008462402592292944
          -0.0000052207596566261854 -0.000004944568832184174 -0.0000052241179665146935 -0.000004946724148748307 -0.000005234118643736002 -0.000004953445868617224
          -0.000004246454548674944 -0.000005404837932522929 -0.0000042441737383422235 -0.0000054032685806678045 -0.000004237191929938899 -0.00000539826239494849
          -0.00000833150094837475 -0.000009344723418945548 -0.000008337725235906877 -0.000009350667319266159 -0.000008356724357937602 -0.000009369120280161891
          -0.00001120146886700252 -0.000011618056572059647 -0.00001164513464192345 -0.000011058085742193368 -0.000011203935175765923 -0.000011620851492276592
          -0.000011648702547314198 -0.000011061413823369133 -0.000011210893156873194 -0.000011629225480776166 -0.000011659237025535753 -0.000011071216901251984
          -0.00001027941990292836 -0.000010753079559434987 -0.000010283134626218523 -0.000010757114168029431 -0.000010293139331286529 -0.000010767986549984807
          -0.000003250130388548823 -0.000003247465312778049 -0.0000032396705486897076 -0.000009014289864281128 -0.00001003017813034999 -0.00000901883672395394
          -0.000010035985028818874 -0.00000903285551806897 -0.000010053098428648775 -0.000006430274086857352 -0.000007551330184258916 -0.00000686801769256806
          -0.0000064308245485765025 -0.000007552828808819257 -0.000006868697909880215 -0.000006431876323255499 -0.0000075578157212396905 -0.000006870375274324953
          -0.0000028387363545080016 -0.00000378359419441259 -0.0000024033676675398453 -0.0000028374004625645143 -0.000003782391356689317 -0.00000240060265026251
          -0.000002833236509530218 -0.0000037792430155806593 -0.0000023919162670559073 -0.000010232964438611146 -0.000010236639857892448 -0.000010247331400143547
          0 0 0 -0.000011282350303018206 -0.000010222990466326304 -0.000011282793057844631
          -0.000010222542348173598 -0.000011284152646063869 -0.000010220922047381232 -0.000004898051555219284 -0.000004897352660678504 -0.000004895397339646244
          -0.00001153594535248695 -0.000010768782360422638 -0.000010840323479986171 -0.000011542056392966042 -0.000010773951353321684 -0.000010846366038600901
          -0.00001156067398051608 -0.00001079009525409785 -0.000010864338911686434 -0.000007214580148171238 -0.000007130406562612057 -0.000007219853138028388
          -0.000007135855075305725 -0.000007235644257126988 -0.000007152034331878314 -0.000014824799255646432 -0.000014535087438387452 -0.000014296698283247922
          -0.000014373192812357268 -0.000014824989307792862 -0.00001453534239589289 -0.000014297172729698184 -0.000014373695785185889 -0.000014825564329371303
          -0.000014535595954850717 -0.000014298847367530287 -0.00001437505532266013 -0.000013913943524239325 -0.000013978220499051844 -0.000013478920744428228
          -0.00001330616704808274 -0.000013915255725514415 -0.000013979505843426512 -0.000013480562938444567 -0.000013307468574851664 -0.000013919599269284095
          -0.000013983648736789826 -0.000013485531217039987 -0.000013311460146575049 -0.000012281101562301624 -0.000012207998672275405 -0.000011335722334916227
          -0.000012281944399327066 -0.000012208828918185576 -0.000011336109735433923 -0.000012285820041349617 -0.00001221214374919472 -0.000011337604647369964
          -0.000008556541884122744 -0.000008559619195120616 -0.000008569253687626025 -0.000006439647771303564 -0.000006439451209238695 -0.0000064366917903956065
          -0.000014574692096307474 -0.000014234850220298063 -0.000014574799290640813 -0.000014235358511448588 -0.000014574939003611408 -0.00001423697485907104
          -0.00001397493650296392 -0.000014476546211651269 -0.0000139760910467012 -0.000014477639507375353 -0.000013978744247848448 -0.000014480859102188105
          -0.000009705126944799068 -0.000009709333239455491 -0.000009722216605549856 -0.000012082493661470491 -0.000012121438882100685 -0.000012718350096130138
          -0.000013030029927316934 -0.000012083330416986973 -0.000012122004209986718 -0.000012718960501844184 -0.000013030765577538692 -0.000012085748685911207
          -0.000012123780358139326 -0.000012720852965266311 -0.000013032557906637333 -0.000011523866086597874 -0.00001152447606990002 -0.000011525527363177247
          -0.000011370343954232257 -0.000011371574413515124 -0.000011375117062041918 -0.000010700312528323154 -0.000011363624196891553 -0.000010705743672319604
          -0.000011369324640059146 -0.000010721842716637271 -0.000011387153641989257 -0.000011511651036854766 -0.000011516901676971492 -0.000011531912197839226
          -0.000011597176741040585 -0.000010960748276796272 -0.000011601947988223538 -0.000010965196910075718 -0.000011615959075939856 -0.000010979122776427162
          -0.000011411248830639109 -0.000011416457332621682 -0.00001142879066504916 -0.000010455782664840399 -0.000010285617786848185 -0.000010458055573741991
          -0.000010288712589737682 -0.000010464348951966432 -0.000010297935751095418 -0.000010817665045300439 -0.000010819407008628915 -0.000010824262531308545
          -0.000013745690140314986 -0.00001374675060833917 -0.000013749291969326203 -0.000010193865555192455 -0.000010197910798996416 -0.000010210305890809756
          -0.000011933414521657157 -0.000011302829018943091 -0.000011938302734919386 -0.000011307870222933624 -0.000011955140705240609 -0.00001132462548617248
          -0.000009963250156455915 -0.000009968265129686365 -0.000009982556163379528 -0.000004383255319463949 -0.000005486290507989902 -0.000004382756290936905
          -0.0000054862708477604485 -0.000004382039395117022 -0.00000548647798696081 -0.0000023852032957941186 -0.0000036880243721192516 -0.0000032261906619754288
          -0.000002387126320441249 -0.000003690327830062938 -0.000003228228161566602 -0.00000239109718585679 -0.000003697985416289554 -0.0000032348692862723604
          -0.0000019088579098263854 -0.0000015184674494350593 -0.0000034826849344661353 -0.000001910301766733265 -0.0000015200092476280271 -0.0000034855028194369497
          -0.0000019142872887228843 -0.0000015250925957086366 -0.0000034939230334935163 -0.000011876425471363619 -0.000010765032927036295 -0.000011881848581256467
          -0.000010769547227836223 -0.000011899972792568144 -0.000010781829244041878 -0.00000704101322169086 -0.000007368858633245152 -0.0000062748659588056785
          -0.000007039016343446974 -0.0000073673570847321166 -0.000006273330775134698 -0.000007033259365797724 -0.000007362797153622724 -0.000006268928365313355
          -0.000004681059022782935 -0.0000058566893631569466 -0.000004682124846472527 -0.000005857946926385519 -0.000004685954741959053 -0.000005861482187100254
          -0.00001574761896848692 -0.0000157485842439106 -0.00001575117998373382 0 0 0
          0 0 0 0 0 0
          0 0 0 -0.000006028181540354828 -0.000005850404827204183 -0.000006032019610558573
          -0.0000058545582642881395 -0.000006044934934057091 -0.000005866401760227625 -0.000006867892275885463 -0.000006872279946616967 -0.000006884565005552477
          0 -0.0000013598178841976443 0 -0.0000013610439547504163 0 -0.000001364356875709423
          0 0 0 -0.000011005506560801461 -0.000011006084571129714 -0.000011007171527198542
          0 0 0 -0.000010460049984680152 -0.00001046097817663008 -0.00001046369921767798
          -0.000009910877982248536 -0.000009912249929044214 -0.000009916643429322504 -9.524236171600536e-7 0 -9.513507542642216e-7
          0 -9.438091661489187e-7 0 -0.00000927204323568571 -0.000009340934850378718 -0.000009275617491705903
          -0.000009343551714922319 -0.000009286021880300007 -0.000009351293108673953 -0.000011982997044497082 -0.00001198882810856083 -0.000012006993753364127
          -0.000014504754838532963 -0.000014506189249841951 -0.000014510387272990266 -0.00000954446500116833 -0.000009546450266212016 -0.000009552082612479062
          -0.00000787581004075985 -0.000007878824891434913 -0.000007887474791019278 -0.000012318420785076743 -0.000012323210306989077 -0.00001233941789349895
          -0.000012731645385043809 -0.000012736414648459407 -0.000012750013480005965 -0.000007751627548545067 -0.000008608095068707392 -0.000007756980099618893
          -0.00000861315649268953 -0.000007773063163254588 -0.000008628616406962452 -0.000006629656670030381 -0.000006634689975980908 -0.0000066497324425781735
          -0.000004375819419276788 -0.000005104548269270987 -0.000004378716101553754 -0.000005107897182219545 -0.000004386343824553559 -0.0000051165855171793475
          -0.000014433272390942912 -0.000015048531635094616 -0.000015136145233035884 -0.000014434666156806659 -0.000015050165719224586 -0.000015137716526781795
          -0.000014438958532255115 -0.000015054890484246613 -0.000015142551423058223 -0.000015861248912976283 -0.000015862968074752517 -0.00001586805872012088
          -0.0000053683434816934265 -0.000005372503947655596 -0.00000538486957223116 -0.000008922356991531465 -0.000009542801335258613 -0.000008923090903492325
          -0.000009543244709207123 -0.00000892539324545156 -0.000009544856084672951 -0.00000481216883208366 -0.000006039128057710078 -0.0000048161179796993574
          -0.000006043770123985811 -0.00000482802873486495 -0.000006057742964751571 -0.000007083515093428106 -0.000007088263245699881 -0.000007102933533873625
          -0.000005561719270290447 -0.000006581227291713014 -0.0000055659083050446195 -0.000006585296230094593 -0.000005578648909638188 -0.000006598501480674128
          -0.00001329753714872517 -0.00001303586493650308 -0.000013316079649413695 -0.000013554050430380721 -0.000013300517432750604 -0.0000130393555418376
          -0.000013318939726545589 -0.000013556243451192476 -0.000013309095307281138 -0.000013048818549635141 -0.000013327941335172301 -0.000013562683520106988
          -0.000013558657089527981 -0.000013560478336796099 -0.000013565791327370121 -0.00001216116039988649 -0.00001216712386792945 -0.000012185964679448217
          -0.000005532223994742224 -0.000006354081938917572 -0.000005533150187742318 -0.000006355351707888753 -0.0000055352149348679285 -0.0000063595450478677474
          -0.000009075569799874417 -0.000009079931196688712 -0.000009092947424166826 -0.00000806669822384901 -0.00000833827704792003 -0.000008064964342290057
          -0.000008337115608985455 -0.000008059842931967733 -0.000008332399087518784 -0.0000020199461046940777 -0.0000017115594296622785 -0.000002018493758199281
          -0.0000017090574211158333 -0.000002014466449984481 -0.000001701687360510131 -0.000015853886182479953 -0.00001585588564950675 -0.00001586283062801295
          -0.000007809154907031029 -0.000007238681268173365 -0.000007813661622599524 -0.000007242624880357331 -0.000007826344295572564 -0.000007254238323128365
          -0.000012670345031363805 -0.00001264777195693694 -0.00001311937355831508 -0.00001311751924905551 -0.000012674278106315857 -0.000012650845543550194
          -0.00001312191096453921 -0.000013120608106132989 -0.00001268624948073046 -0.000012659962905415332 -0.000013129671931901078 -0.000013129706251823714
          -0.000004468068813697322 -0.000004468377134888381 -0.000004469079490368986 -0.000013570749190422167 -0.000013689624989684799 -0.000013572851840359144
          -0.000013691393143339635 -0.000013579230980856995 -0.000013696592668071379 -0.000003030695273365099 -0.0000022533283399447828 -0.000003031442422571637
          -0.000002254535046976185 -0.0000030329595026686498 -0.0000022589800432244045 -0.0000011108288652475513 -0.0000011115882401622386 -0.0000011148951379855808
          -0.000010080619598401486 -0.000010080812686837975 -0.000010081593719107104 -0.0000034191402282224514 -0.00000341901115489209 -0.0000034190793184507314
          -0.000012972446376103581 -0.000012976506560401755 -0.000012988957386028968 -0.00001355224283282229 -0.00001355508448082525 -0.000013564075768754168
          -0.00000246941744581712 -0.000004165469618199632 -0.000002469041781397703 -0.0000041665871214655406 -0.0000024676100304188494 -0.000004170190708628842
          -0.00001396693749456015 -0.000013968092161414812 -0.000013971519208409875 -0.000012716575317530276 -0.000012721320403398451 -0.000012732285197916959
          -0.000010528042607007445 -0.000010528157916970302 -0.000010528391806743343 -0.000004014064701330943 -0.000004016945049206121 -0.000004026532596866239
          -0.000013777860826415594 -0.0000137794198742847 -0.000013783495143224087 -0.000008155653557770688 -0.000008159359987128729 -0.000008169888648311606
          0 -0.000001221457159212169 0 0 -0.0000012222374645780552 0
          0 -0.000001225215233746 0 -0.000012686217037580357 -0.000012690960735916888 -0.000012706119925491374
          -0.000009291729173232062 -0.000009405787577536334 -0.000009291162067486552 -0.000009405652051466427 -0.000009289731566921047 -0.000009405055168461371
          -0.000012523614151381039 -0.000012528898262289879 -0.000012544447333653979 -0.000012144842882257359 -0.00001214833423475537 -0.00001215865844802696
          0 0 0 -0.000013906526241618179 -0.000013907817790363976 -0.000013910975245100479
          -0.000015006453961298679 -0.000015114141622434467 -0.00001500720193175959 -0.00001511531987056933 -0.000015009095019941622 -0.000015119106309908224
          -0.000012162669157332456 -0.000012167278762863667 -0.000012181211815434984 -0.000013990989365888011 -0.000013991998657761315 -0.000013994977636602542
          -0.0000016858984374786992 -0.0000016851565552919573 -0.0000016842602087729241 -0.000009129454267078655 -0.000009128446730708054 -0.00000912469530333543
          -0.0000029905415647738794 -0.0000029928561654563147 -0.0000029982483823297142 -0.00001298460169499577 -0.00001298566348714606 -0.000012988521887890922
          -0.000008824813201032932 -0.000008023177450522544 -0.000008824482857227879 -0.00000802264691113277 -0.000008822285410032838 -0.000008020709002207792
          -0.000003222103087069427 -0.000003222875693108509 -0.000003224728729102995 -0.000003913514861024369 -0.00000482746868431324 -0.0000039118500625127295
          -0.0000048255790526868334 -0.000003906016216514147 -0.000004819951304437052 -0.000006001982965768436 -0.000005999617577664947 -0.000005992484686775051
          -0.000004955823534496799 -0.000004953118389613886 -0.00000494435819714558 -0.000003377245913476985 -0.0000033762070795801328 -0.0000033721386198967655
          0 -0.000001046487198870544 0 -0.00000104553595245571 0 -0.0000010430888174617573
          -0.0000033559419441548567 -0.000003354425669311423 -0.0000033491668494775732 -0.00000204928795178262 -0.000002048786109176525 -0.0000020489520166525955
        </DataArray>
        <DataArray type="Float64" Name="disp_z" format="ascii" RangeMin="-9.372321302575076e-7" RangeMax="0">
          0 0 0 0 -2.1137522255245004e-7 -2.0509485070116507e-7
          -1.7446911529158505e-7 -1.8400899951392476e-7 -4.227037923254163e-7 -4.1015241755824996e-7 -3.490211649910468e-7 -3.681060166711758e-7
          0 0 0 0 -2.7897331637990854e-7 -2.7351440696452183e-7
          -2.7270608803143785e-7 -2.810195308262953e-7 -5.579452602188413e-7 -5.466855891507768e-7 -5.453103325854933e-7 -5.620156227779418e-7
          0 0 -1.3166269037287014e-7 -1.5238470815659818e-7 -2.63460569805142e-7 -3.051036578147772e-7
          0 0 0 0 -3.3988198328074906e-7 -3.501718046872964e-7
          -3.1419741631309894e-7 -3.136609627016095e-7 -6.79257485858135e-7 -6.999910619339654e-7 -6.28340689807908e-7 -6.255393195300096e-7
          0 0 -2.7859655389433424e-7 -2.912844742969112e-7 -5.574924048584695e-7 -5.825098116057325e-7
          0 0 0 0 -2.934653920191401e-7 -2.6485040051342904e-7
          -2.8357267066673896e-7 -3.1536686456589906e-7 -5.861420358925838e-7 -5.289373121588664e-7 -5.65701780091141e-7 -6.286616379376186e-7
          0 0 0 0 -3.8380183612841763e-7 -4.141516920872848e-7
          -3.864963074001492e-7 -3.6605281761630083e-7 -7.671488247167047e-7 -8.270103331437867e-7 -7.721129020893987e-7 -7.319972222495987e-7
          0 0 -1.9518089906973544e-7 -2.1516462739086288e-7 -3.9071590275994436e-7 -4.304048177942121e-7
          0 0 0 0 -2.950318534560954e-7 -2.784802138821496e-7
          -3.422590660337006e-7 -3.464442721294705e-7 -5.887867311944326e-7 -5.576470244701504e-7 -6.836007724827338e-7 -6.923490032671102e-7
          0 0 0 -2.5153423339668197e-7 -2.573945000154711e-7 -2.767093311990427e-7
          -5.02424806536967e-7 -5.143722563260881e-7 -5.53849297707647e-7 0 0 0
          0 -4.5872086762693937e-7 -4.645248157132164e-7 -4.549789060005215e-7 -4.5246795191542255e-7 -9.147946182165221e-7
          -9.270016211665567e-7 -9.077118851124757e-7 -9.02738206180398e-7 0 0 0
          0 -3.278662532663929e-7 -3.3196444851351563e-7 -3.0737292192802384e-7 -3.1077778441528134e-7 -6.553499155193794e-7
          -6.637099456613865e-7 -6.148635422088216e-7 -6.207863480276474e-7 0 -3.3001868159727773e-7 -6.601818062486932e-7
          0 0 0 -2.862919761036466e-7 -2.715026697027929e-7 -2.6113784012100217e-7
          -5.717731824292292e-7 -5.421183437190739e-7 -5.232659070610743e-7 0 0 -3.3739833477475137e-7
          -3.5275022154968334e-7 -6.740319383268182e-7 -7.052007212584255e-7 0 0 0
          0 -3.765726666242832e-7 -3.564081928261465e-7 -3.835607017876538e-7 -4.06837284213475e-7 -7.525763299206106e-7
          -7.129276752705133e-7 -7.667193580866372e-7 -8.125972696903407e-7 0 0 0
          0 -2.0949942094784475e-7 -2.421824420315978e-7 -1.934836163536174e-7 -1.5302753487109788e-7 -4.1890218676306156e-7
          -4.833021724363305e-7 -3.880773900787634e-7 -3.07958254432066e-7 0 0 0
          -3.1461094946646855e-7 -3.0117561489230164e-7 -3.008977783397421e-7 -6.294352521198747e-7 -6.027327857615264e-7 -6.023542805353813e-7
          0 0 -1.1435080246513708e-7 -1.781385354761511e-7 -2.3174626096283046e-7 -3.5647619032191823e-7
          0 0 0 0 -2.914376223557175e-7 -3.0173509760366503e-7
          -3.399686920420045e-7 -3.4996826758547035e-7 -5.823250125346756e-7 -6.031659147378513e-7 -6.789771229945848e-7 -6.983891699684101e-7
          0 0 -3.3559256996634e-7 -3.114329236451484e-7 -6.715102007981459e-7 -6.230857178702778e-7
          0 0 -2.8374708148462766e-7 -3.020713343999294e-7 -5.664991067661727e-7 -6.025156974635311e-7
          0 0 -3.495578151979545e-7 -2.99181995531539e-7 -6.980210233474487e-7 -5.98190170405059e-7
          0 0 0 0 -2.1719552596377477e-7 -2.0335803760424214e-7
          -2.0013671031966835e-7 -2.177716571659385e-7 -4.3489860013288905e-7 -4.0730830199444367e-7 -4.013036907486112e-7 -4.36441930061471e-7
          0 0 -2.4259785167649933e-7 -2.3557622132574402e-7 -4.850043028270563e-7 -4.688333860190676e-7
          0 -2.6495867453913395e-7 -5.28897231103397e-7 0 0 -2.8147108892118673e-7
          -2.6342775421091817e-7 -5.632950803608792e-7 -5.272392975372757e-7 0 0 0
          -3.069765403121839e-7 -3.0048509271293746e-7 -3.0926815158779616e-7 -6.127966617919449e-7 -5.999190973351734e-7 -6.164215231057874e-7
          0 0 0 -2.766724050744064e-7 -2.901882604765623e-7 -2.410177566717423e-7
          -5.527205418950802e-7 -5.799074509323317e-7 -4.814873280669446e-7 0 -2.430922538452609e-7 -4.870692155302147e-7
          0 -2.548353903004207e-7 -5.103404780722711e-7 0 0 -3.20384693858918e-7
          -3.261579159708825e-7 -6.390328240609301e-7 -6.510688648988695e-7 0 -2.978608906258625e-7 -5.949895647865662e-7
          0 0 0 -2.1002971725000706e-7 -2.3122829335692345e-7 -2.4614930673019697e-7
          -4.205513025674749e-7 -4.6366621615645176e-7 -4.922465867160415e-7 0 0 -3.838784400917803e-7
          -3.886861647715978e-7 -7.652229484193678e-7 -7.748345071836102e-7 0 0 0
          0 -1.2502012755850994e-7 -1.0506087583735536e-7 -1.0412017236155982e-7 -1.2971388565814817e-7 -2.502933675461465e-7
          -2.099775387328482e-7 -2.0873668690178415e-7 -2.600191104778327e-7 0 0 0
          0 -1.9204641140468498e-7 -1.593505971520013e-7 -1.6533532480491164e-7 -1.9975909848381386e-7 -3.841145035540968e-7
          -3.1914307577262663e-7 -3.3091171722948497e-7 -3.994816728718161e-7 0 0 0
          -3.0942490838545446e-7 -2.876398758961498e-7 -3.091125608402041e-7 -6.18833835078914e-7 -5.747195812248165e-7 -6.181741793073334e-7
          0 -2.835634658293092e-7 -5.668721780438939e-7 0 -3.105618937567335e-7 -6.1838192573391e-7
          0 0 -9.275503837012227e-8 -8.306357662854787e-8 -1.8668050061567205e-7 -1.6710652279266238e-7
          0 0 -1.2965940616901486e-7 -1.5378560252884762e-7 -2.598990582198061e-7 -3.078695128815745e-7
          0 -2.561549019706949e-7 -5.131617132399e-7 0 0 0
          0 -2.3378861873960158e-7 -2.59342918048863e-7 -2.548905274780319e-7 -2.2453701053217572e-7 -4.677275339010721e-7
          -5.19800758292915e-7 -5.095465504399715e-7 -4.488670855580255e-7 0 -2.7711930187308905e-7 -5.534087556534784e-7
          0 -2.3236898985849917e-7 -4.6488093855615917e-7 0 0 -2.5153710780372863e-7
          -2.2602492267353754e-7 -5.033936723984451e-7 -4.519698021913685e-7 0 -1.956137870777958e-7 -3.915172531553407e-7
          0 0 -2.051907668675791e-7 -2.2548520535710365e-7 -4.1101382961797564e-7 -4.5179121045156935e-7
          0 -2.1614042490494825e-7 -4.345493106651081e-7 0 0 -2.353269056632139e-7
          -2.3749168364167813e-7 -4.710725771637327e-7 -4.757375040986087e-7 0 -2.35222804191008e-7 -4.705723437019182e-7
          0 -2.246853686891642e-7 -4.489670368978559e-7 0 -2.459999823565822e-7 -4.928042881577595e-7
          0 0 -1.8795273232801665e-7 -2.1472040169010633e-7 -3.760341214823774e-7 -4.2759382431233083e-7
          0 -2.652882394047602e-7 -5.314598629296061e-7 0 0 -2.805585879635166e-7
          -2.779887045267488e-7 -5.600359703193791e-7 -5.556371357159099e-7 0 0 0
          -4.2436030986969873e-7 -4.338763061833864e-7 -4.237872331157337e-7 -8.467669055580841e-7 -8.645719965313766e-7 -8.47325345537498e-7
          0 0 0 -4.509249104575522e-7 -4.266583921244601e-7 -4.2926863534289736e-7
          -9.000475492603187e-7 -8.519406313577332e-7 -8.569259064589475e-7 0 0 -1.7929289206670535e-7
          -2.33090092450515e-7 -3.590520545775578e-7 -4.6724031360817015e-7 0 0 0
          -2.969302323782736e-7 -2.932043452413134e-7 -2.822990924142952e-7 -5.933535965213158e-7 -5.857758817638707e-7 -5.640969245444426e-7
          0 0 -2.959572736956984e-7 -2.8652139487875494e-7 -5.914883596567869e-7 -5.731241696480207e-7
          0 -1.7914480919993752e-7 -3.5870484800672376e-7 0 0 -4.273789866237643e-7
          -4.513184395557524e-7 -8.529014925352503e-7 -9.011271255783282e-7 0 0 -4.6953416583403927e-7
          -4.682245297835563e-7 -9.372321302575076e-7 -9.342244409316008e-7 0 0 -4.134579287736268e-7
          -4.219737129582543e-7 -8.241989658781079e-7 -8.410821524032311e-7 0 -3.6864557524883885e-7 -7.364606205825056e-7
          0 0 -3.8498962695863205e-7 -3.9054362270388386e-7 -7.687621079256913e-7 -7.801979881607399e-7
          0 -3.3783927204748966e-7 -6.744125953317572e-7 0 -2.644009685471491e-7 -5.294533232559299e-7
          0 -2.883027609005023e-7 -5.766581994257692e-7 0 -2.546702420363286e-7 -5.100148438216333e-7
          0 -2.5591784283948116e-7 -5.120742142105857e-7 0 0 -2.650557731379763e-7
          -2.2778709086132028e-7 -5.30531385726228e-7 -4.5774694793838447e-7 0 0 -2.6307849328997525e-7
          -2.5616524761847197e-7 -5.26706897043234e-7 -5.126527763163437e-7 0 -1.8944975818283398e-7 -3.7950806502887446e-7
          0 -1.8680759157670393e-7 -3.7409453444006656e-7 0 -2.549466524638818e-7 -5.098690788235296e-7
          0 -2.987524797205123e-7 -5.970285157061498e-7 0 -1.4981910848083553e-7 -3.0117047384750947e-7
          0 -1.4235554339797374e-7 -2.8585245990889426e-7 0 0 -3.4331826565390074e-7
          -3.0680739401077347e-7 -6.863732801894409e-7 -6.14305288734263e-7 0 -3.833381520584644e-7 -7.65715220064184e-7
          0 0 -4.39792516278647e-7 -4.2610207777986144e-7 -8.770818270185908e-7 -8.49671947445512e-7
          0 0 0 -2.2090241111618985e-7 -2.459822476760391e-7 -2.14358864601381e-7
          -4.4133232529916427e-7 -4.914816764649674e-7 -4.286369469167699e-7 0 -2.0802935859406353e-7 -4.1624133579323635e-7
          0 -4.150033740044521e-7 -8.283977417904636e-7 0 0 -2.746845017487721e-7
          -2.7691262873589107e-7 -5.493106688704207e-7 -5.537992532211864e-7 0 0 -4.0264670273562654e-7
          -3.721460584316275e-7 -8.043570608125238e-7 -7.441583319422973e-7 0 -3.3816143633078286e-7 -6.769133572971746e-7
          0 0 -3.5641955048385123e-7 -3.2825457037064865e-7 -7.127256092220161e-7 -6.57386192035679e-7
          0 0 0 0 -1.04832893642599e-7 -1.1300242866796707e-7
          -1.0482191015110593e-7 -9.192395268019396e-8 -2.111311757537001e-7 -2.2874951565824055e-7 -2.1060785226464914e-7 -1.8574898463873502e-7
          0 -1.3387041781009757e-7 -2.683091211640997e-7 0 -1.6866719470255112e-7 -3.3913000509399335e-7
          0 0 -3.174768667516847e-7 -3.1419932734609754e-7 -6.34088347373883e-7 -6.28191548837295e-7
          0 -2.7880308132233816e-7 -5.584042578446416e-7 0 0 -3.094574959535592e-7
          -3.055451877367906e-7 -6.18445468894619e-7 -6.097406138382136e-7 0 0 -2.616026470028493e-7
          -2.1647474135779166e-7 -5.22410704245124e-7 -4.328788641849099e-7 0 -2.3707017566603446e-7 -4.742149760470195e-7
          0 0 -3.0940627076633727e-7 -3.089256050160589e-7 -6.199037441808079e-7 -6.18116669941398e-7
          0 0 0 0 -1.531309173826015e-7 -1.633125758841398e-7
          -1.467807139676702e-7 -1.320688042640059e-7 -3.070982949016306e-7 -3.274279363706105e-7 -2.944142781736033e-7 -2.6512991358103236e-7
          0 -3.155334533917033e-7 -6.30276443634659e-7 0 0 -1.1119848918920708e-7
          -9.467765989020418e-8 -2.2347476794665973e-7 -1.9021976197388407e-7 0 0 -3.4769306851060895e-7
          -3.81595792542115e-7 -6.949813134547476e-7 -7.624151178275714e-7 0 -3.9214949216622136e-7 -7.83130075338388e-7
          0 -2.860717180489282e-7 -5.715416269014253e-7 0 -3.134716791331831e-7 -6.258351492755905e-7
          0 -1.2731059716410492e-7 -2.5573030271137285e-7 0 -9.062927732030468e-8 -1.814798796685658e-7
          0 0 -3.0788508267092796e-7 -3.4756128234885334e-7 -6.145645405407066e-7 -6.943981324800117e-7
          0 -1.0644652089277277e-7 -2.1361544630830935e-7 0 -1.2625729387421854e-7 -2.509723926006458e-7
          0 -3.051183647750291e-7 -6.091497916941669e-7 0 -4.43889815895749e-7 -8.856428005785979e-7
          0 -8.332888405603895e-8 -1.6771789863430747e-7 0 -2.900721771321023e-7 -5.807018196431074e-7
          0 0 0 -4.415098372753743e-7 -4.334510636516438e-7 -3.947767927593904e-7
          -8.809038090244304e-7 -8.651744589884747e-7 -7.876006910749898e-7 0 -1.3422271078183354e-7 -2.717028797462829e-7
          0 0 -3.136305000408544e-7 -3.0268281016534055e-7 -6.258200612801818e-7 -6.045401871876352e-7
          0 -1.5506212094927035e-7 -3.1100887718629286e-7 0 -1.820271252242101e-7 -3.648011046552593e-7
          0 -3.3204976966941694e-7 -6.631124480618718e-7 0 -8.96825852629749e-8 -1.804505056044503e-7
          0 0 -1.509719885648604e-7 -1.8149071157303982e-7 -3.0228839269602257e-7 -3.6355298219291426e-7
          0 -1.8031120526929907e-7 -3.61508528824189e-7 0 -7.687608905067838e-8 -1.5415636417821652e-7
          0 -2.948951961649633e-7 -5.889919780417393e-7 0 -3.1859714935406527e-7 -6.360772637411264e-7
          0 -4.558750672944765e-7 -9.102075625947086e-7 0 -2.894576162236659e-7 -5.778913970526642e-7
          0 0 -2.955661136381661e-7 -2.8603318095403795e-7 -5.899597998189374e-7 -5.716189664888324e-7
          0 -3.017320719417213e-7 -6.024980249805201e-7 0 0 -2.575505274969602e-7
          -2.6738147888754893e-7 -5.149205648237251e-7 -5.342743234005179e-7 0 -2.8457303253601886e-7 -5.6845345444262e-7
          0 -2.6319422124911004e-7 -5.260605242783621e-7 0 -2.715030344375672e-7 -5.425120316654784e-7
          0 0 -2.025089711455279e-7 -2.1439586167916288e-7 -4.063126322461163e-7 -4.305109722141475e-7
          0 -2.517530452015927e-7 -5.043762478480602e-7 0 -2.6228348282818844e-7 -5.2404437923071e-7
        </DataArray>
      </PointData>
      <CellData>
        <DataArray type="Int32" Name="libmesh_elem_id" format="ascii" RangeMin="1392" RangeMax="3231">
          1392 1393 1402 1403 1418 1419
          1434 1435 1442 1443 1448 1449
          1454 1455 1478 1479 1500 1501
          1512 1513 1522 1523 1546 1547
          1572 1573 1582 1583 1590 1591
          1608 1609 1614 1615 1616 1617
          1630 1631 1638 1639 1650 1651
          1654 1655 1656 1657 1678 1679
          1682 1683 1684 1685 1704 1705
          1714 1715 1718 1719 1746 1747
          1760 1761 1762 1763 1772 1773
          1790 1791 1794 1795 1802 1803
          1816 1817 1824 1825 1832 1833
          1838 1839 1840 1841 1846 1847
          1848 1849 1852 1853 1856 1857
          1858 1859 1862 1863 1864 1865
          1874 1875 1876 1877 1878 1879
          1882 1883 1888 1889 1904 1905
          1906 1907 1910 1911 1916 1917
          1924 1925 1926 1927 1930 1931
          1936 1937 1946 1947 1950 1951
          1956 1957 1960 1961 1982 1983
          1996 1997 1998 1999 2026 2027
          2028 2029 2038 2039 2046 2047
          2048 2049 2052 2053 2054 2055
          2058 2059 2060 2061 2084 2085
          2088 2089 2096 2097 2102 2103
          2106 2107 2110 2111 2126 2127
          2136 2137 2138 2139 2144 2145
          2148 2149 2154 2155 2158 2159
          2162 2163 2164 2165 2170 2171
          2176 2177 2178 2179 2196 2197
          2200 2201 2202 2203 2204 2205
          2212 2213 2220 2221 2222 2223
          2224 2225 2226 2227 2228 2229
          2232 2233 2236 2237 2246 2247
          2250 2251 2252 2253 2254 2255
          2260 2261 2264 2265 2266 2267
          2274 2275 2282 2283 2308 2309
          2310 2311 2312 2313 2318 2319
          2324 2325 2328 2329 2346 2347
          2350 2351 2364 2365 2368 2369
          2370 2371 2402 2403 2416 2417
          2420 2421 2444 2445 2458 2459
          2462 2463 2466 2467 2468 2469
          2470 2471 2478 2479 2484 2485
          2488 2489 2490 2491 2502 2503
          2504 2505 2510 2511 2512 2513
          2524 2525 2550 2551 2566 2567
          2570 2571 2580 2581 2582 2583
          2602 2603 2608 2609 2616 2617
          2628 2629 2634 2635 2636 2637
          2640 2641 2642 2643 2644 2645
          2650 2651 2666 2667 2668 2669
          2684 2685 2690 2691 2696 2697
          2700 2701 2710 2711 2714 2715
          2716 2717 2726 2727 2750 2751
          2760 2761 2766 2767 2772 2773
          2782 2783 2798 2799 2802 2803
          2810 2811 2826 2827 2830 2831
          2838 2839 2860 2861 2868 2869
          2874 2875 2884 2885 2922 2923
          2928 2929 2934 2935 2938 2939
          2946 2947 2948 2949 2960 2961
          2962 2963 2964 2965 2974 2975
          2978 2979 2994 2995 2998 2999
          3004 3005 3008 3009 3020 3021
          3028 3029 3034 3035 3038 3039
          3040 3041 3042 3043 3050 3051
          3052 3053 3054 3055 3060 3061
          3066 3067 3072 3073 3076 3077
          3082 3083 3086 3087 3096 3097
          3100 3101 3102 3103 3112 3113
          3116 3117 3148 3149 3154 3155
          3158 3159 3166 3167 3182 3183
          3230 3231
        </DataArray>
        <DataArray type="Int32" Name="subdomain_id" format="ascii" RangeMin="107" RangeMax="107">
          107 107 107 107 107 107
          107 107 107 107 107 107
          107 107 107 107 107 107
          107 107 107 107 107 107
          107 107 107 107 107 107
          107 107 107 107 107 107
          107 107 107 107 107 107
          107 107 107 107 107 107
          107 107 107 107 107 107
          107 107 107 107 107 107
          107 107 107 107 107 107
          107 107 107 107 107 107
          107 107 107 107 107 107
          107 107 107 107 107 107
          107 107 107 107 107 107
          107 107 107 107 107 107
          107 107 107 107 107 107
          107 107 107 107 107 107
          107 107 107 107 107 107
          107 107 107 107 107 107
          107 107 107 107 107 107
          107 107 107 107 107 107
          107 107 107 107 107 107
          107 107 107 107 107 107
          107 107 107 107 107 107
          107 107 107 107 107 107
          107 107 107 107 107 107
          107 107 107 107 107 107
          107 107 107 107 107 107
          107 107 107 107 107 107
          107 107 107 107 107 107
          107 107 107 107 107 107
          107 107 107 107 107 107
          107 107 107 107 107 107
          107 107 107 107 107 107
          107 107 107 107 107 107
          107 107 107 107 107 107
          107 107 107 107 107 107
          107 107 107 107 107 107
          107 107 107 107 107 107
          107 107 107 107 107 107
          107 107 107 107 107 107
          107 107 107 107 107 107
          107 107 107 107 107 107
          107 107 107 107 107 107
          107 107 107 107 107 107
          107 107 107 107 107 107
          107 107 107 107 107 107
          107 107 107 107 107 107
          107 107 107 107 107 107
          107 107 107 107 107 107
          107 107 107 107 107 107
          107 107 107 107 107 107
          107 107 107 107 107 107
          107 107 107 107 107 107
          107 107 107 107 107 107
          107 107 107 107 107 107
          107 107 107 107 107 107
          107 107 107 107 107 107
          107 107 107 107 107 107
          107 107 107 107 107 107
          107 107 107 107 107 107
          107 107 107 107 107 107
          107 107 107 107 107 107
          107 107 107 107 107 107
          107 107 107 107 107 107
          107 107 107 107 107 107
          107 107 107 107 107 107
          107 107 107 107 107 107
          107 107 107 107 107 107
          107 107 107 107 107 107
          107 107 107 107 107 107
          107 107 107 107 107 107
          107 107 107 107 107 107
          107 107 107 107 107 107
          107 107
        </DataArray>
        <DataArray type="Int32" Name="processor_id" format="ascii" RangeMin="2" RangeMax="2">
          2 2 2 2 2 2
          2 2 2 2 2 2
          2 2 2 2 2 2
          2 2 2 2 2 2
          2 2 2 2 2 2
          2 2 2 2 2 2
          2 2 2 2 2 2
          2 2 2 2 2 2
          2 2 2 2 2 2
          2 2 2 2 2 2
          2 2 2 2 2 2
          2 2 2 2 2 2
          2 2 2 2 2 2
          2 2 2 2 2 2
          2 2 2 2 2 2
          2 2 2 2 2 2
          2 2 2 2 2 2
          2 2 2 2 2 2
          2 2 2 2 2 2
          2 2 2 2 2 2
          2 2 2 2 2 2
          2 2 2 2 2 2
          2 2 2 2 2 2
          2 2 2 2 2 2
          2 2 2 2 2 2
          2 2 2 2 2 2
          2 2 2 2 2 2
          2 2 2 2 2 2
          2 2 2 2 2 2
          2 2 2 2 2 2
          2 2 2 2 2 2
          2 2 2 2 2 2
          2 2 2 2 2 2
          2 2 2 2 2 2
          2 2 2 2 2 2
          2 2 2 2 2 2
          2 2 2 2 2 2
          2 2 2 2 2 2
          2 2 2 2 2 2
          2 2 2 2 2 2
          2 2 2 2 2 2
          2 2 2 2 2 2
          2 2 2 2 2 2
          2 2 2 2 2 2
          2 2 2 2 2 2
          2 2 2 2 2 2
          2 2 2 2 2 2
          2 2 2 2 2 2
          2 2 2 2 2 2
          2 2 2 2 2 2
          2 2 2 2 2 2
          2 2 2 2 2 2
          2 2 2 2 2 2
          2 2 2 2 2 2
          2 2 2 2 2 2
          2 2 2 2 2 2
          2 2 2 2 2 2
          2 2 2 2 2 2
          2 2 2 2 2 2
          2 2 2 2 2 2
          2 2 2 2 2 2
          2 2 2 2 2 2
          2 2 2 2 2 2
          2 2 2 2 2 2
          2 2 2 2 2 2
          2 2 2 2 2 2
          2 2 2 2 2 2
          2 2 2 2 2 2
          2 2 2 2 2 2
          2 2 2 2 2 2
          2 2 2 2 2 2
          2 2 2 2 2 2
          2 2 2 2 2 2
          2 2 2 2 2 2
          2 2 2 2 2 2
          2 2
        </DataArray>
      </CellData>
      <Points>
        <DataArray type="Float64" Name="Points" NumberOfComponents="3" format="ascii" RangeMin="0.0055128205128194" RangeMax="0.014586579917196396">
          0.010655961336451 0.0054415469453289 0 0.010738296327413 0.0059250363170334 0
          0.010252884061106 0.0059462536680524 0 0.010205117478458 0.0054994523140404 0
          0.010655961336451 0.0054415469453289 0.00015 0.010738296327413 0.0059250363170334 0.00015
          0.010252884061106 0.0059462536680524 0.00015 0.010205117478458 0.0054994523140404 0.00015
          0.010655961336451 0.0054415469453289 0.0003 0.010738296327413 0.0059250363170334 0.0003
          0.010252884061106 0.0059462536680524 0.0003 0.010205117478458 0.0054994523140404 0.0003
          0.011940440807394 0.0034141066074527 0 0.011459595517011 0.003824326979063 0
          0.011102612382238 0.0034627190197861 0 0.011355953963772 0.0030463545109029 0
          0.011940440807394 0.0034141066074527 0.00015 0.011459595517011 0.003824326979063 0.00015
          0.011102612382238 0.0034627190197861 0.00015 0.011355953963772 0.0030463545109029 0.00015
          0.011940440807394 0.0034141066074527 0.0003 0.011459595517011 0.003824326979063 0.0003
          0.011102612382238 0.0034627190197861 0.0003 0.011355953963772 0.0030463545109029 0.0003
          0.010057653370411 0.0084974472595183 0 0.01054988842507 0.0084422245958245 0
          0.010057653370411 0.0084974472595183 0.00015 0.01054988842507 0.0084422245958245 0.00015
          0.010057653370411 0.0084974472595183 0.0003 0.01054988842507 0.0084422245958245 0.0003
          0.011046194733105 0.00090743319272295 0 0.011064186406242 0.00044456569898216 0
          0.011549090679959 0.00043919238601916 0 0.011507246232172 0.00087204304167501 0
          0.011046194733105 0.00090743319272295 0.00015 0.011064186406242 0.00044456569898216 0.00015
          0.011549090679959 0.00043919238601916 0.00015 0.011507246232172 0.00087204304167501 0.00015
          0.011046194733105 0.00090743319272295 0.0003 0.011064186406242 0.00044456569898216 0.0003
          0.011549090679959 0.00043919238601916 0.0003 0.011507246232172 0.00087204304167501 0.0003
          0.010695724673322 0.003201084864495 0 0.010922769205465 0.002821493997395 0
          0.010695724673322 0.003201084864495 0.00015 0.010922769205465 0.002821493997395 0.00015
          0.010695724673322 0.003201084864495 0.0003 0.010922769205465 0.002821493997395 0.0003
          0.0063972422249218 0.0045440807567198 0 0.0065062213292024 0.0050164807168814 0
          0.0062389906493372 0.0053128670028646 0 0.0060512178389602 0.0047929387822649 0
          0.0063972422249218 0.0045440807567198 0.00015 0.0065062213292024 0.0050164807168814 0.00015
          0.0062389906493372 0.0053128670028646 0.00015 0.0060512178389602 0.0047929387822649 0.00015
          0.0063972422249218 0.0045440807567198 0.0003 0.0065062213292024 0.0050164807168814 0.0003
          0.0062389906493372 0.0053128670028646 0.0003 0.0060512178389602 0.0047929387822649 0.0003
          0.0077450758336629 0.0014176167893871 0 0.0081853433575 0.0016343392489207 0
          0.0081296210030831 0.0020475545417094 0 0.0077097822266787 0.0019577759081516 0
          0.0077450758336629 0.0014176167893871 0.00015 0.0081853433575 0.0016343392489207 0.00015
          0.0081296210030831 0.0020475545417094 0.00015 0.0077097822266787 0.0019577759081516 0.00015
          0.0077450758336629 0.0014176167893871 0.0003 0.0081853433575 0.0016343392489207 0.0003
          0.0081296210030831 0.0020475545417094 0.0003 0.0077097822266787 0.0019577759081516 0.0003
          0.010163700921554 0.0050965322104848 0 0.010539876174215 0.0050107335132671 0
          0.010163700921554 0.0050965322104848 0.00015 0.010539876174215 0.0050107335132671 0.00015
          0.010163700921554 0.0050965322104848 0.0003 0.010539876174215 0.0050107335132671 0.0003
          0.0067145785472978 0.00092067788586619 0 0.0066311284750677 0.00045344715700039 0
          0.0071039644964018 0.00045254776362746 0 0.0071622170579096 0.00091220258976311 0
          0.0067145785472978 0.00092067788586619 0.00015 0.0066311284750677 0.00045344715700039 0.00015
          0.0071039644964018 0.00045254776362746 0.00015 0.0071622170579096 0.00091220258976311 0.00015
          0.0067145785472978 0.00092067788586619 0.0003 0.0066311284750677 0.00045344715700039 0.0003
          0.0071039644964018 0.00045254776362746 0.0003 0.0071622170579096 0.00091220258976311 0.0003
          0.011832021157187 0.0073476785459853 0 0.011779780861271 0.0068646395959748 0
          0.012243708910156 0.0068324173193727 0 0.011832021157187 0.0073476785459853 0.00015
          0.011779780861271 0.0068646395959748 0.00015 0.012243708910156 0.0068324173193727 0.00015
          0.011832021157187 0.0073476785459853 0.0003 0.011779780861271 0.0068646395959748 0.0003
          0.012243708910156 0.0068324173193727 0.0003 0.0084907788898463 0.00044286110481525 0
          0.0089555217282148 0.00046389179151574 0 0.0088246864415892 0.00090448805343066 0
          0.0084146790711037 0.00087434414493667 0 0.0084907788898463 0.00044286110481525 0.00015
          0.0089555217282148 0.00046389179151574 0.00015 0.0088246864415892 0.00090448805343066 0.00015
          0.0084146790711037 0.00087434414493667 0.00015 0.0084907788898463 0.00044286110481525 0.0003
          0.0089555217282148 0.00046389179151574 0.0003 0.0088246864415892 0.00090448805343066 0.0003
          0.0084146790711037 0.00087434414493667 0.0003 0.0073198391209489 0.002802975731369 0
          0.007729981097025 0.0028801564362105 0 0.0077015154526268 0.0033237594367458 0
          0.0072927827923603 0.0032114269239825 0 0.0073198391209489 0.002802975731369 0.00015
          0.007729981097025 0.0028801564362105 0.00015 0.0077015154526268 0.0033237594367458 0.00015
          0.0072927827923603 0.0032114269239825 0.00015 0.0073198391209489 0.002802975731369 0.0003
          0.007729981097025 0.0028801564362105 0.0003 0.0077015154526268 0.0033237594367458 0.0003
          0.0072927827923603 0.0032114269239825 0.0003 0.011061956134478 0.0014022262787872 0
          0.011061956134478 0.0014022262787872 0.00015 0.011061956134478 0.0014022262787872 0.0003
          0.0067262777673885 0.0043003855308917 0 0.0070184374453973 0.0044097475846897 0
          0.0069143452336461 0.0047780273607631 0 0.0067262777673885 0.0043003855308917 0.00015
          0.0070184374453973 0.0044097475846897 0.00015 0.0069143452336461 0.0047780273607631 0.00015
          0.0067262777673885 0.0043003855308917 0.0003 0.0070184374453973 0.0044097475846897 0.0003
          0.0069143452336461 0.0047780273607631 0.0003 0.0072966772765568 0.0023596996909359 0
          0.0077191611848381 0.0024307703640478 0 0.0072966772765568 0.0023596996909359 0.00015
          0.0077191611848381 0.0024307703640478 0.00015 0.0072966772765568 0.0023596996909359 0.0003
          0.0077191611848381 0.0024307703640478 0.0003 0.010569749843509 0.00092230265866691 0
          0.010578573679683 0.0013844170604281 0 0.010145320905195 0.0014335884987508 0
          0.01008894187929 0.00096115561381429 0 0.010569749843509 0.00092230265866691 0.00015
          0.010578573679683 0.0013844170604281 0.00015 0.010145320905195 0.0014335884987508 0.00015
          0.01008894187929 0.00096115561381429 0.00015 0.010569749843509 0.00092230265866691 0.0003
          0.010578573679683 0.0013844170604281 0.0003 0.010145320905195 0.0014335884987508 0.0003
          0.01008894187929 0.00096115561381429 0.0003 0.0061669869081239 0.00049673093518566 0
          0.0062913293509889 0.00097410606592609 0 0.0059245902968253 0.0010856763727913 0
          0.0057061681768373 0.00065177476244477 0 0.0061669869081239 0.00049673093518566 0.00015
          0.0062913293509889 0.00097410606592609 0.00015 0.0059245902968253 0.0010856763727913 0.00015
          0.0057061681768373 0.00065177476244477 0.00015 0.0061669869081239 0.00049673093518566 0.0003
          0.0062913293509889 0.00097410606592609 0.0003 0.0059245902968253 0.0010856763727913 0.0003
          0.0057061681768373 0.00065177476244477 0.0003 0.010613957240618 0.0022894151744625 0
          0.011031068838334 0.0023895404946521 0 0.01053554486979 0.0026566023779455 0
          0.010613957240618 0.0022894151744625 0.00015 0.011031068838334 0.0023895404946521 0.00015
          0.01053554486979 0.0026566023779455 0.00015 0.010613957240618 0.0022894151744625 0.0003
          0.011031068838334 0.0023895404946521 0.0003 0.01053554486979 0.0026566023779455 0.0003
          0.0055128205128194 0 0 0.0060256410256386 0 0
          0.0055128205128194 0 0.00015 0.0060256410256386 0 0.00015
          0.0055128205128194 0 0.0003 0.0060256410256386 0 0.0003
          0.0087932726011055 0.003543484648519 0 0.0081725565838686 0.0034418576035907 0
          0.0081844882448281 0.0029554535172717 0 0.0086653225286358 0.0029358056411338 0
          0.0087932726011055 0.003543484648519 0.00015 0.0081725565838686 0.0034418576035907 0.00015
          0.0081844882448281 0.0029554535172717 0.00015 0.0086653225286358 0.0029358056411338 0.00015
          0.0087932726011055 0.003543484648519 0.0003 0.0081725565838686 0.0034418576035907 0.0003
          0.0081844882448281 0.0029554535172717 0.0003 0.0086653225286358 0.0029358056411338 0.0003
          0.010609256891376 0.0018508518753275 0 0.011063963632424 0.0019108783312894 0
          0.010609256891376 0.0018508518753275 0.00015 0.011063963632424 0.0019108783312894 0.00015
          0.010609256891376 0.0018508518753275 0.0003 0.011063963632424 0.0019108783312894 0.0003
          0.0061614658010566 0.0029736343202522 0 0.0061372854142827 0.0036106222238676 0
          0.0061614658010566 0.0029736343202522 0.00015 0.0061372854142827 0.0036106222238676 0.00015
          0.0061614658010566 0.0029736343202522 0.0003 0.0061372854142827 0.0036106222238676 0.0003
          0.0091223832784702 0.0028108558594978 0 0.0093224708097351 0.0032450014434347 0
          0.0091223832784702 0.0028108558594978 0.00015 0.0093224708097351 0.0032450014434347 0.00015
          0.0091223832784702 0.0028108558594978 0.0003 0.0093224708097351 0.0032450014434347 0.0003
          0.010365654248251 0.0046741943492533 0 0.010130092133721 0.0048347586786618 0
          0.0098673679311407 0.0047157860708196 0 0.010078628200493 0.0044157313734999 0
          0.010365654248251 0.0046741943492533 0.00015 0.010130092133721 0.0048347586786618 0.00015
          0.0098673679311407 0.0047157860708196 0.00015 0.010078628200493 0.0044157313734999 0.00015
          0.010365654248251 0.0046741943492533 0.0003 0.010130092133721 0.0048347586786618 0.0003
          0.0098673679311407 0.0047157860708196 0.0003 0.010078628200493 0.0044157313734999 0.0003
          0.0074225055052033 0.0045889494028562 0 0.0073125071067115 0.0049521547682488 0
          0.0074225055052033 0.0045889494028562 0.00015 0.0073125071067115 0.0049521547682488 0.00015
          0.0074225055052033 0.0045889494028562 0.0003 0.0073125071067115 0.0049521547682488 0.0003
          0.0061231952422177 0.002444135475079 0 0.0061231952422177 0.002444135475079 0.00015
          0.0061231952422177 0.002444135475079 0.0003 0.007634491258567 0.0037589111207536 0
          0.0080978935956725 0.0039120786728548 0 0.007634491258567 0.0037589111207536 0.00015
          0.0080978935956725 0.0039120786728548 0.00015 0.007634491258567 0.0037589111207536 0.0003
          0.0080978935956725 0.0039120786728548 0.0003 0.0067400809843091 0.0034207975388345 0
          0.0067100713183769 0.0039836679330495 0 0.0063054236008776 0.0041223407032968 0
          0.0067400809843091 0.0034207975388345 0.00015 0.0067100713183769 0.0039836679330495 0.00015
          0.0063054236008776 0.0041223407032968 0.00015 0.0067400809843091 0.0034207975388345 0.0003
          0.0067100713183769 0.0039836679330495 0.0003 0.0063054236008776 0.0041223407032968 0.0003
          0.0064429727892239 0.0018594619814901 0 0.0065003657821779 0.0023397297588745 0
          0.0060722038988066 0.0019538017587265 0 0.0064429727892239 0.0018594619814901 0.00015
          0.0065003657821779 0.0023397297588745 0.00015 0.0060722038988066 0.0019538017587265 0.00015
          0.0064429727892239 0.0018594619814901 0.0003 0.0065003657821779 0.0023397297588745 0.0003
          0.0060722038988066 0.0019538017587265 0.0003 0.0068255396015086 0.0051581133306003 0
          0.0068255396015086 0.0051581133306003 0.00015 0.0068255396015086 0.0051581133306003 0.0003
          0.0065384615384579 0 0 0.0065384615384579 0 0.00015
          0.0065384615384579 0 0.0003 0.012879713087233 0.0060908484912964 0
          0.012982043505355 0.0056371881930815 0 0.012879713087233 0.0060908484912964 0.00015
          0.012982043505355 0.0056371881930815 0.00015 0.012879713087233 0.0060908484912964 0.0003
          0.012982043505355 0.0056371881930815 0.0003 0.0065699942646101 0.0028542668018424 0
          0.0065699942646101 0.0028542668018424 0.00015 0.0065699942646101 0.0028542668018424 0.0003
          0.0084683943974961 0.0045583446766593 0 0.0079943718437571 0.0043747262241866 0
          0.0085823759797054 0.0040943119694046 0 0.0084683943974961 0.0045583446766593 0.00015
          0.0079943718437571 0.0043747262241866 0.00015 0.0085823759797054 0.0040943119694046 0.00015
          0.0084683943974961 0.0045583446766593 0.0003 0.0079943718437571 0.0043747262241866 0.0003
          0.0085823759797054 0.0040943119694046 0.0003 0.0085830886495109 0.0024681574500846 0
          0.0090044137010858 0.0023542069269131 0 0.0085830886495109 0.0024681574500846 0.00015
          0.0090044137010858 0.0023542069269131 0.00015 0.0085830886495109 0.0024681574500846 0.0003
          0.0090044137010858 0.0023542069269131 0.0003 0.0098857235699117 0.0079055319030787 0
          0.0095144479526816 0.0076594245921199 0 0.0094715724969347 0.0073263583858313 0
          0.0099283521138692 0.0073475677072736 0 0.0098857235699117 0.0079055319030787 0.00015
          0.0095144479526816 0.0076594245921199 0.00015 0.0094715724969347 0.0073263583858313 0.00015
          0.0099283521138692 0.0073475677072736 0.00015 0.0098857235699117 0.0079055319030787 0.0003
          0.0095144479526816 0.0076594245921199 0.0003 0.0094715724969347 0.0073263583858313 0.0003
          0.0099283521138692 0.0073475677072736 0.0003 0.010833716827414 0.0069257207373803 0
          0.010357413059119 0.0069077241183533 0 0.010300982556592 0.0064274708783385 0
          0.010786080808085 0.0064391381968206 0 0.010833716827414 0.0069257207373803 0.00015
          0.010357413059119 0.0069077241183533 0.00015 0.010300982556592 0.0064274708783385 0.00015
          0.010786080808085 0.0064391381968206 0.00015 0.010833716827414 0.0069257207373803 0.0003
          0.010357413059119 0.0069077241183533 0.0003 0.010300982556592 0.0064274708783385 0.0003
          0.010786080808085 0.0064391381968206 0.0003 0.012723582323863 0.006509831652106 0
          0.012251440655851 0.0062918667587536 0 0.012542392069256 0.0059723735377719 0
          0.012723582323863 0.006509831652106 0.00015 0.012251440655851 0.0062918667587536 0.00015
          0.012542392069256 0.0059723735377719 0.00015 0.012723582323863 0.006509831652106 0.0003
          0.012251440655851 0.0062918667587536 0.0003 0.012542392069256 0.0059723735377719 0.0003
          0.0071151184692216 0.0040272738406853 0 0.0071151184692216 0.0040272738406853 0.00015
          0.0071151184692216 0.0040272738406853 0.0003 0.005927800859391 0.0043689372395662 0
          0.005927800859391 0.0043689372395662 0.00015 0.005927800859391 0.0043689372395662 0.0003
          0.0092411258002763 0.0078319639415625 0 0.0089588909882048 0.0073942383853577 0
          0.0092411258002763 0.0078319639415625 0.00015 0.0089588909882048 0.0073942383853577 0.00015
          0.0092411258002763 0.0078319639415625 0.0003 0.0089588909882048 0.0073942383853577 0.0003
          0.009874674666521 0.0068715373563056 0 0.010410157305432 0.007394545582291 0
          0.009874674666521 0.0068715373563056 0.00015 0.010410157305432 0.007394545582291 0.00015
          0.009874674666521 0.0068715373563056 0.0003 0.010410157305432 0.007394545582291 0.0003
          0.0075354000991736 0.004186248288406 0 0.0075354000991736 0.004186248288406 0.00015
          0.0075354000991736 0.004186248288406 0.0003 0.01131847387487 0.0058224977902188 0
          0.011696082283392 0.0060272916092408 0 0.011725204011411 0.0063910302275778 0
          0.011265055974573 0.0064250601080915 0 0.01131847387487 0.0058224977902188 0.00015
          0.011696082283392 0.0060272916092408 0.00015 0.011725204011411 0.0063910302275778 0.00015
          0.011265055974573 0.0064250601080915 0.00015 0.01131847387487 0.0058224977902188 0.0003
          0.011696082283392 0.0060272916092408 0.0003 0.011725204011411 0.0063910302275778 0.0003
          0.011265055974573 0.0064250601080915 0.0003 0.012000241143886 0.0058170880130831 0
          0.012000241143886 0.0058170880130831 0.00015 0.012000241143886 0.0058170880130831 0.0003
          0.011120492592586 0.0052514705902296 0 0.011120492592586 0.0052514705902296 0.00015
          0.011120492592586 0.0052514705902296 0.0003 0.0092910901193945 0.0039260363263486 0
          0.0090503465409481 0.0043132092761106 0 0.0092910901193945 0.0039260363263486 0.00015
          0.0090503465409481 0.0043132092761106 0.00015 0.0092910901193945 0.0039260363263486 0.0003
          0.0090503465409481 0.0043132092761106 0.0003 0.007889027184575 0.0048982243533992 0
          0.007889027184575 0.0048982243533992 0.00015 0.007889027184575 0.0048982243533992 0.0003
          0.0094935553236164 0.004533528646427 0 0.0097061514105808 0.0041851036755216 0
          0.0094935553236164 0.004533528646427 0.00015 0.0097061514105808 0.0041851036755216 0.00015
          0.0094935553236164 0.004533528646427 0.0003 0.0097061514105808 0.0041851036755216 0.0003
          0.007602124101561 0.0050930903063015 0 0.007602124101561 0.0050930903063015 0.00015
          0.007602124101561 0.0050930903063015 0.0003 0.010723762445737 0.0044202706845482 0
          0.010410164583979 0.0041181159817359 0 0.010723762445737 0.0044202706845482 0.00015
          0.010410164583979 0.0041181159817359 0.00015 0.010723762445737 0.0044202706845482 0.0003
          0.010410164583979 0.0041181159817359 0.0003 0.01095205032792 0.0047963590452232 0
          0.01095205032792 0.0047963590452232 0.00015 0.01095205032792 0.0047963590452232 0.0003
          0.011303178752756 0.0069106117689346 0 0.011303178752756 0.0069106117689346 0.00015
          0.011303178752756 0.0069106117689346 0.0003 0.01003253261535 0.0038623502872685 0
          0.01003253261535 0.0038623502872685 0.00015 0.01003253261535 0.0038623502872685 0.0003
          0.0076528923620256 0.0053996878686031 0 0.0072494384034052 0.005322441352826 0
          0.0076528923620256 0.0053996878686031 0.00015 0.0072494384034052 0.005322441352826 0.00015
          0.0076528923620256 0.0053996878686031 0.0003 0.0072494384034052 0.005322441352826 0.0003
          0.0096442187720765 0.0035928190702974 0 0.0096442187720765 0.0035928190702974 0.00015
          0.0096442187720765 0.0035928190702974 0.0003 0.012013949131265 0.002158444108951 0
          0.012018063243501 0.0027123142038817 0 0.012013949131265 0.002158444108951 0.00015
          0.012018063243501 0.0027123142038817 0.00015 0.012013949131265 0.002158444108951 0.0003
          0.012018063243501 0.0027123142038817 0.0003 0.0080144547016537 0.00086684480617367 0
          0.008304219624614 0.0012703006012415 0 0.0080327132462595 0.0011721512048422 0
          0.0080144547016537 0.00086684480617367 0.00015 0.008304219624614 0.0012703006012415 0.00015
          0.0080327132462595 0.0011721512048422 0.00015 0.0080144547016537 0.00086684480617367 0.0003
          0.008304219624614 0.0012703006012415 0.0003 0.0080327132462595 0.0011721512048422 0.0003
          0.0094736490244467 0.0005865877812969 0 0.010068957850501 0.00047856930843549 0
          0.0096358530086744 0.0010887425154837 0 0.0094736490244467 0.0005865877812969 0.00015
          0.010068957850501 0.00047856930843549 0.00015 0.0096358530086744 0.0010887425154837 0.00015
          0.0094736490244467 0.0005865877812969 0.0003 0.010068957850501 0.00047856930843549 0.0003
          0.0096358530086744 0.0010887425154837 0.0003 0.0071984303565192 0.0057392272964834 0
          0.0067200519522164 0.0055550541115669 0 0.0071984303565192 0.0057392272964834 0.00015
          0.0067200519522164 0.0055550541115669 0.00015 0.0071984303565192 0.0057392272964834 0.0003
          0.0067200519522164 0.0055550541115669 0.0003 0.013091675611077 0.0041736873632184 0
          0.012621380555602 0.004071395146678 0 0.012601464682814 0.0035037767307713 0
          0.013091675611077 0.0041736873632184 0.00015 0.012621380555602 0.004071395146678 0.00015
          0.012601464682814 0.0035037767307713 0.00015 0.013091675611077 0.0041736873632184 0.0003
          0.012621380555602 0.004071395146678 0.0003 0.012601464682814 0.0035037767307713 0.0003
          0.01153639784925 0.0020208067996516 0 0.011496246026306 0.0025480504488598 0
          0.01153639784925 0.0020208067996516 0.00015 0.011496246026306 0.0025480504488598 0.00015
          0.01153639784925 0.0020208067996516 0.0003 0.011496246026306 0.0025480504488598 0.0003
          0.011043213382792 0.0084269911709333 0 0.011043213382792 0.0084269911709333 0.00015
          0.011043213382792 0.0084269911709333 0.0003 0.010128205128191 0 0
          0.0096153846153732 0 0 0.010128205128191 0 0.00015
          0.0096153846153732 0 0.00015 0.010128205128191 0 0.0003
          0.0096153846153732 0 0.0003 0.0091025641025551 0 0
          0.0085897435897353 0 0 0.0091025641025551 0 0.00015
          0.0085897435897353 0 0.00015 0.0091025641025551 0 0.0003
          0.0085897435897353 0 0.0003 0.0085182476127008 0.0020437661198126 0
          0.0089029205554566 0.0019047336662455 0 0.0085182476127008 0.0020437661198126 0.00015
          0.0089029205554566 0.0019047336662455 0.00015 0.0085182476127008 0.0020437661198126 0.0003
          0.0089029205554566 0.0019047336662455 0.0003 0.0081522818828449 0.0024947087352937 0
          0.0081522818828449 0.0024947087352937 0.00015 0.0081522818828449 0.0024947087352937 0.0003
          0.010641025641009 0 0 0.010579843756946 0.00045349299099366 0
          0.010641025641009 0 0.00015 0.010579843756946 0.00045349299099366 0.00015
          0.010641025641009 0 0.0003 0.010579843756946 0.00045349299099366 0.0003
          0.011153846153828 0 0 0.011153846153828 0 0.00015
          0.011153846153828 0 0.0003 0.011760912133753 0.0054122119446059 0
          0.011760912133753 0.0054122119446059 0.00015 0.011760912133753 0.0054122119446059 0.0003
          0.011666666666648 0 0 0.011666666666648 0 0.00015
          0.011666666666648 0 0.0003 0.011547825504055 0.0049713459697514 0
          0.011547825504055 0.0049713459697514 0.00015 0.011547825504055 0.0049713459697514 0.0003
          0.011349632014182 0.0045239710214715 0 0.011349632014182 0.0045239710214715 0.00015
          0.011349632014182 0.0045239710214715 0.0003 0.011997463288521 0.00046572766410539 0
          0.012179487179468 0 0 0.011997463288521 0.00046572766410539 0.00015
          0.012179487179468 0 0.00015 0.011997463288521 0.00046572766410539 0.0003
          0.012179487179468 0 0.0003 0.01039056673058 0.0035410773695937 0
          0.010772622187787 0.0038062315725381 0 0.01039056673058 0.0035410773695937 0.00015
          0.010772622187787 0.0038062315725381 0.00015 0.01039056673058 0.0035410773695937 0.0003
          0.010772622187787 0.0038062315725381 0.0003 0.0089323359070786 0.0047421281357296 0
          0.0089323359070786 0.0047421281357296 0.00015 0.0089323359070786 0.0047421281357296 0.0003
          0.010891746765568 0.007407252260552 0 0.010891746765568 0.007407252260552 0.00015
          0.010891746765568 0.007407252260552 0.0003 0.011089383238376 0.0041358143249023 0
          0.011089383238376 0.0041358143249023 0.00015 0.011089383238376 0.0041358143249023 0.0003
          0.007205317033861 0.0036141963404016 0 0.007205317033861 0.0036141963404016 0.00015
          0.007205317033861 0.0036141963404016 0.0003 0.0080269839945158 0.0054023282425744 0
          0.0080269839945158 0.0054023282425744 0.00015 0.0080269839945158 0.0054023282425744 0.0003
          0.0077721363879251 0.0058968168784219 0 0.0077721363879251 0.0058968168784219 0.00015
          0.0077721363879251 0.0058968168784219 0.0003 0.0095370253310475 0.0025850582106885 0
          0.009732219723835 0.0029713438236062 0 0.0095370253310475 0.0025850582106885 0.00015
          0.009732219723835 0.0029713438236062 0.00015 0.0095370253310475 0.0025850582106885 0.0003
          0.009732219723835 0.0029713438236062 0.0003 0.0094100372761059 0.0021522308351028 0
          0.0094100372761059 0.0021522308351028 0.00015 0.0094100372761059 0.0021522308351028 0.0003
          0.0087313387484914 0.001424359608332 0 0.0084651319029022 0.0017289788972556 0
          0.0087313387484914 0.001424359608332 0.00015 0.0084651319029022 0.0017289788972556 0.00015
          0.0087313387484914 0.001424359608332 0.0003 0.0084651319029022 0.0017289788972556 0.0003
          0.011363196701121 0.0073867521895413 0 0.011894488312007 0.0078344841271679 0
          0.011431801070778 0.0078815011129823 0 0.011363196701121 0.0073867521895413 0.00015
          0.011894488312007 0.0078344841271679 0.00015 0.011431801070778 0.0078815011129823 0.00015
          0.011363196701121 0.0073867521895413 0.0003 0.011894488312007 0.0078344841271679 0.0003
          0.011431801070778 0.0078815011129823 0.0003 0.011511795106494 0.0083968566041475 0
          0.011511795106494 0.0083968566041475 0.00015 0.011511795106494 0.0083968566041475 0.0003
          0.0093066157528448 0.0017085494075796 0 0.0093066157528448 0.0017085494075796 0.00015
          0.0093066157528448 0.0017085494075796 0.0003 0.011737204813157 0.0042624504192267 0
          0.011920232844873 0.0047153506313134 0 0.011737204813157 0.0042624504192267 0.00015
          0.011920232844873 0.0047153506313134 0.00015 0.011737204813157 0.0042624504192267 0.0003
          0.011920232844873 0.0047153506313134 0.0003 0.0097199155871303 0.0015315099671301 0
          0.0098040259351994 0.0019696894002764 0 0.0097199155871303 0.0015315099671301 0.00015
          0.0098040259351994 0.0019696894002764 0.00015 0.0097199155871303 0.0015315099671301 0.0003
          0.0098040259351994 0.0019696894002764 0.0003 0.0099068743951204 0.0023814903757239 0
          0.0099068743951204 0.0023814903757239 0.00015 0.0099068743951204 0.0023814903757239 0.0003
          0.010196799496301 0.0018655242590307 0 0.010252080701677 0.0022738797315184 0
          0.010196799496301 0.0018655242590307 0.00015 0.010252080701677 0.0022738797315184 0.00015
          0.010196799496301 0.0018655242590307 0.0003 0.010252080701677 0.0022738797315184 0.0003
          0.0082479601882269 0.0062087007836213 0 0.0083721174281176 0.0058457654542534 0
          0.0087793359412623 0.006030240425184 0 0.0086690881028679 0.0063945203238097 0
          0.0082479601882269 0.0062087007836213 0.00015 0.0083721174281176 0.0058457654542534 0.00015
          0.0087793359412623 0.006030240425184 0.00015 0.0086690881028679 0.0063945203238097 0.00015
          0.0082479601882269 0.0062087007836213 0.0003 0.0083721174281176 0.0058457654542534 0.0003
          0.0087793359412623 0.006030240425184 0.0003 0.0086690881028679 0.0063945203238097 0.0003
          0.0098103305116681 0.0063862496116293 0 0.0098103305116681 0.0063862496116293 0.00015
          0.0098103305116681 0.0063862496116293 0.0003 0.0084248193747317 0.0050261658136402 0
          0.0084248193747317 0.0050261658136402 0.00015 0.0084248193747317 0.0050261658136402 0.0003
          0.0069463016830039 0.0027787422025108 0 0.0070048409545821 0.0031125297586922 0
          0.0069463016830039 0.0027787422025108 0.00015 0.0070048409545821 0.0031125297586922 0.00015
          0.0069463016830039 0.0027787422025108 0.0003 0.0070048409545821 0.0031125297586922 0.0003
          0.010028456835002 0.0032748409090605 0 0.010028456835002 0.0032748409090605 0.00015
          0.010028456835002 0.0032748409090605 0.0003 0.013084530633285 0.0046685927017207 0
          0.012657407202949 0.0045740785705039 0 0.013084530633285 0.0046685927017207 0.00015
          0.012657407202949 0.0045740785705039 0.00015 0.013084530633285 0.0046685927017207 0.0003
          0.012657407202949 0.0045740785705039 0.0003 0.0063788755008874 0.0014091508241809 0
          0.0060137569775388 0.0015029488511318 0 0.0063788755008874 0.0014091508241809 0.00015
          0.0060137569775388 0.0015029488511318 0.00015 0.0063788755008874 0.0014091508241809 0.0003
          0.0060137569775388 0.0015029488511318 0.0003 0.01196380743939 0.0083394019710021 0
          0.01196380743939 0.0083394019710021 0.00015 0.01196380743939 0.0083394019710021 0.0003
          0.010073855840534 0.0027196155419985 0 0.010289681297386 0.0025561678844121 0
          0.010073855840534 0.0027196155419985 0.00015 0.010289681297386 0.0025561678844121 0.00015
          0.010073855840534 0.0027196155419985 0.0003 0.010289681297386 0.0025561678844121 0.0003
          0.0093223919318803 0.0053434698815888 0 0.009764317340127 0.0054658727348424 0
          0.0097769212248058 0.0059119658621614 0 0.0093027527337708 0.0057939169389015 0
          0.0093223919318803 0.0053434698815888 0.00015 0.009764317340127 0.0054658727348424 0.00015
          0.0097769212248058 0.0059119658621614 0.00015 0.0093027527337708 0.0057939169389015 0.00015
          0.0093223919318803 0.0053434698815888 0.0003 0.009764317340127 0.0054658727348424 0.0003
          0.0097769212248058 0.0059119658621614 0.0003 0.0093027527337708 0.0057939169389015 0.0003
          0.0068882925124701 0.0023177669638962 0 0.0068882925124701 0.0023177669638962 0.00015
          0.0068882925124701 0.0023177669638962 0.0003 0.0092499592325966 0.0063238181416562 0
          0.0089620052424248 0.0065330227489775 0 0.0092499592325966 0.0063238181416562 0.00015
          0.0089620052424248 0.0065330227489775 0.00015 0.0092499592325966 0.0063238181416562 0.0003
          0.0089620052424248 0.0065330227489775 0.0003 0.0072168253422346 0.001397514094839 0
          0.0076041066380058 0.00089936619415626 0 0.0072168253422346 0.001397514094839 0.00015
          0.0076041066380058 0.00089936619415626 0.00015 0.0072168253422346 0.001397514094839 0.0003
          0.0076041066380058 0.00089936619415626 0.0003 0.0075718226613923 0.00044755222139025 0
          0.0075718226613923 0.00044755222139025 0.00015 0.0075718226613923 0.00044755222139025 0.0003
          0.012116660000204 0.0051206445675074 0 0.012116660000204 0.0051206445675074 0.00015
          0.012116660000204 0.0051206445675074 0.0003 0.0068338524094732 0.0018398489073113 0
          0.0068338524094732 0.0018398489073113 0.00015 0.0068338524094732 0.0018398489073113 0.0003
          0.0088473960481577 0.0056214227923259 0 0.0088473960481577 0.0056214227923259 0.00015
          0.0088473960481577 0.0056214227923259 0.0003 0.0081402125110085 0.0066115625704341 0
          0.0081402125110085 0.0066115625704341 0.00015 0.0081402125110085 0.0066115625704341 0.0003
          0.0067824993802385 0.0013824026215467 0 0.0072591856110724 0.0018865642034293 0
          0.0067824993802385 0.0013824026215467 0.00015 0.0072591856110724 0.0018865642034293 0.00015
          0.0067824993802385 0.0013824026215467 0.0003 0.0072591856110724 0.0018865642034293 0.0003
          0.0094035295411974 0.0068662830960629 0 0.0094035295411974 0.0068662830960629 0.00015
          0.0094035295411974 0.0068662830960629 0.0003 0.0080770297303238 0.0057078658228848 0
          0.0080770297303238 0.0057078658228848 0.00015 0.0080770297303238 0.0057078658228848 0.0003
          0.012455160230445 0.0055307966461266 0 0.012455160230445 0.0055307966461266 0.00015
          0.012455160230445 0.0055307966461266 0.0003 0.0092134396095011 0.0012639463069257 0
          0.0092134396095011 0.0012639463069257 0.00015 0.0092134396095011 0.0012639463069257 0.0003
          0.0085681017610313 0.0067725899286886 0 0.0085681017610313 0.0067725899286886 0.00015
          0.0085681017610313 0.0067725899286886 0.0003 0.010337781301114 0.0029713007827362 0
          0.010337781301114 0.0029713007827362 0.00015 0.010337781301114 0.0029713007827362 0.0003
          0.0080769230769162 0 0 0.0080362994401078 0.00044130282391618 0
          0.0075641025640979 0 0 0.0080769230769162 0 0.00015
          0.0080362994401078 0.00044130282391618 0.00015 0.0075641025640979 0 0.00015
          0.0080769230769162 0 0.0003 0.0080362994401078 0.00044130282391618 0.0003
          0.0075641025640979 0 0.0003 0.0084157309119158 0.0054663429893237 0
          0.0084157309119158 0.0054663429893237 0.00015 0.0084157309119158 0.0054663429893237 0.0003
          0.012625060394875 0.0050215313919928 0 0.012340535819996 0.0049145470001145 0
          0.012625060394875 0.0050215313919928 0.00015 0.012340535819996 0.0049145470001145 0.00015
          0.012625060394875 0.0050215313919928 0.0003 0.012340535819996 0.0049145470001145 0.0003
          0.0088807280393962 0.0051824777758032 0 0.0088807280393962 0.0051824777758032 0.00015
          0.0088807280393962 0.0051824777758032 0.0003 0.00978640191627 0.0050564284414982 0
          0.00978640191627 0.0050564284414982 0.00015 0.00978640191627 0.0050564284414982 0.0003
          0.007051282051278 0 0 0.007051282051278 0 0.00015
          0.007051282051278 0 0.0003 0.0089738769927721 0.0068608682916542 0
          0.0089738769927721 0.0068608682916542 0.00015 0.0089738769927721 0.0068608682916542 0.0003
          0.010464396561549 0.007914442793445 0 0.010959162019398 0.0079079830093058 0
          0.010464396561549 0.007914442793445 0.00015 0.010959162019398 0.0079079830093058 0.00015
          0.010464396561549 0.007914442793445 0.0003 0.010959162019398 0.0079079830093058 0.0003
          0.0093768424757788 0.0049206652486621 0 0.0093768424757788 0.0049206652486621 0.00015
          0.0093768424757788 0.0049206652486621 0.0003 0.0084364690699339 0.0071912877673881 0
          0.0084364690699339 0.0071912877673881 0.00015 0.0084364690699339 0.0071912877673881 0.0003
          0.011870414872976 0.00080294526771027 0 0.011870414872976 0.00080294526771027 0.00015
          0.011870414872976 0.00080294526771027 0.0003 0.013048655853798 0.0051555709380823 0
          0.013048655853798 0.0051555709380823 0.00015 0.013048655853798 0.0051555709380823 0.0003
          0.0091480378790118 0.00093783666102615 0 0.0091480378790118 0.00093783666102615 0.00015
          0.0091480378790118 0.00093783666102615 0.0003 0.012592651705639 0.0068198098450163 0
          0.012592651705639 0.0068198098450163 0.00015 0.012592651705639 0.0068198098450163 0.0003
          0.012272070002081 0.0045810549534562 0 0.012153081904124 0.0040944528080542 0
          0.012272070002081 0.0045810549534562 0.00015 0.012153081904124 0.0040944528080542 0.00015
          0.012272070002081 0.0045810549534562 0.0003 0.012153081904124 0.0040944528080542 0.0003
          0.011634800364854 0.0014122839921498 0 0.011634800364854 0.0014122839921498 0.00015
          0.011634800364854 0.0014122839921498 0.0003 0.012451479243686 0.0021914486022899 0
          0.012674188674928 0.0028095410694266 0 0.012451479243686 0.0021914486022899 0.00015
          0.012674188674928 0.0028095410694266 0.00015 0.012451479243686 0.0021914486022899 0.0003
          0.012674188674928 0.0028095410694266 0.0003 0.013121586466294 0.0036708577033715 0
          0.013121586466294 0.0036708577033715 0.00015 0.013121586466294 0.0036708577033715 0.0003
          0.013248150362312 0.0031919567697963 0 0.013248150362312 0.0031919567697963 0.00015
          0.013248150362312 0.0031919567697963 0.0003 0.012096711335481 0.0017058387426491 0
          0.012096711335481 0.0017058387426491 0.00015 0.012096711335481 0.0017058387426491 0.0003
          0.012692307692288 0 0 0.012542896420733 0.00061304595643839 0
          0.012692307692288 0 0.00015 0.012542896420733 0.00061304595643839 0.00015
          0.012692307692288 0 0.0003 0.012542896420733 0.00061304595643839 0.0003
          0.012384518900215 0.0018567382086698 0 0.012384518900215 0.0018567382086698 0.00015
          0.012384518900215 0.0018567382086698 0.0003 0.012087580163866 0.0010424427844857 0
          0.012087580163866 0.0010424427844857 0.00015 0.012087580163866 0.0010424427844857 0.0003
          <InformationKey name="L2_NORM_RANGE" location="vtkDataArray" length="2">
            <Value index="0">
              0.0055128205128
            </Value>
            <Value index="1">
              0.014586579917
            </Value>
          </InformationKey>
        </DataArray>
      </Points>
      <Cells>
        <DataArray type="Int64" Name="connectivity" format="ascii" RangeMin="0" RangeMax="773">
          0 1 2 3 4 5
          6 7 4 5 6 7
          8 9 10 11 12 13
          14 15 16 17 18 19
          16 17 18 19 20 21
          22 23 30 31 32 33
          34 35 36 37 34 35
          36 37 38 39 40 41
          15 14 42 43 19 18
          44 45 19 18 44 45
          23 22 46 47 48 49
          50 51 52 53 54 55
          52 53 54 55 56 57
          58 59 60 61 62 63
          64 65 66 67 64 65
          66 67 68 69 70 71
          3 72 73 0 7 74
          75 4 7 74 75 4
          11 76 77 8 78 79
          80 81 82 83 84 85
          82 83 84 85 86 87
          88 89 99 100 101 102
          103 104 105 106 103 104
          105 106 107 108 109 110
          111 112 113 114 115 116
          117 118 115 116 117 118
          119 120 121 122 744 123
          30 33 745 124 34 37
          745 124 34 37 746 125
          38 41 48 126 127 128
          52 129 130 131 52 129
          130 131 56 132 133 134
          135 136 112 111 137 138
          116 115 137 138 116 115
          139 140 120 119 141 142
          143 144 145 146 147 148
          145 146 147 148 149 150
          151 152 153 154 155 156
          157 158 159 160 157 158
          159 160 161 162 163 164
          165 166 43 167 168 169
          45 170 168 169 45 170
          171 172 47 173 174 175
          153 156 176 177 157 160
          176 177 157 160 178 179
          161 164 180 181 182 183
          184 185 186 187 184 185
          186 187 188 189 190 191
          166 165 192 193 169 168
          194 195 169 168 194 195
          172 171 196 197 112 182
          181 113 116 186 185 117
          116 186 185 117 120 190
          189 121 204 205 180 183
          206 207 184 187 206 207
          184 187 208 209 188 191
          210 211 212 213 214 215
          216 217 214 215 216 217
          218 219 220 221 222 223
          128 127 224 225 131 130
          224 225 131 130 226 227
          134 133 154 153 79 78
          158 157 83 82 158 157
          83 82 162 161 87 86
          231 113 181 232 233 117
          185 234 233 117 185 234
          235 121 189 236 237 238
          239 199 240 241 242 201
          240 241 242 201 243 244
          245 203 246 247 228 248
          249 250 229 251 249 250
          229 251 252 253 230 254
          255 49 48 128 256 53
          52 131 256 53 52 131
          257 57 56 134 175 258
          79 153 177 259 83 157
          177 259 83 157 179 260
          87 161 267 237 199 198
          268 240 201 200 268 240
          201 200 269 243 203 202
          270 271 232 272 273 274
          234 275 273 274 234 275
          276 277 236 278 267 198
          228 247 268 200 229 250
          268 200 229 250 269 202
          230 253 183 279 280 204
          187 281 282 206 187 281
          282 206 191 283 284 208
          285 286 287 288 289 290
          291 292 289 290 291 292
          293 294 295 296 297 298
          299 300 301 302 303 304
          301 302 303 304 305 306
          307 308 261 309 310 311
          263 312 313 314 263 312
          313 314 265 315 316 317
          238 318 127 126 241 319
          130 129 241 319 130 129
          244 320 133 132 324 325
          287 286 326 327 291 290
          326 327 291 290 328 329
          295 294 330 298 331 288
          332 302 333 292 332 302
          333 292 334 306 335 296
          318 336 222 127 319 337
          224 130 319 337 224 130
          320 338 226 133 339 340
          341 342 343 344 345 346
          343 344 345 346 347 348
          349 350 300 1 339 342
          304 5 343 346 304 5
          343 346 308 9 347 350
          351 310 341 340 352 313
          345 344 352 313 345 344
          353 316 349 348 354 339
          1 0 355 343 5 4
          355 343 5 4 356 347
          9 8 357 358 272 180
          359 360 275 184 359 360
          275 184 361 362 278 188
          48 239 238 126 52 242
          241 129 52 242 241 129
          56 245 244 132 336 271
          363 222 337 274 364 224
          337 274 364 224 338 277
          365 226 51 321 239 48
          55 322 242 52 55 322
          242 52 59 323 245 56
          366 367 213 212 368 369
          217 216 368 369 217 216
          370 371 221 220 223 222
          363 372 225 224 364 373
          225 224 364 373 227 226
          365 374 375 210 213 376
          377 214 217 378 377 214
          217 378 379 218 221 380
          375 381 73 210 377 382
          75 214 377 382 75 214
          379 383 77 218 381 354
          0 73 382 355 4 75
          382 355 4 75 383 356
          8 77 297 300 342 384
          301 304 346 385 301 304
          346 385 305 308 350 386
          376 213 367 387 378 217
          369 388 378 217 369 388
          380 221 371 389 223 372
          390 391 225 373 392 393
          225 373 392 393 227 374
          394 395 396 357 180 205
          397 359 184 207 397 359
          184 207 398 361 188 209
          387 367 357 396 388 369
          359 397 388 369 359 397
          389 371 361 398 399 747
          748 400 401 749 750 402
          401 749 750 402 403 751
          752 404 405 102 406 407
          408 106 409 410 408 106
          409 410 411 110 412 413
          180 272 232 181 184 275
          234 185 184 275 234 185
          188 278 236 189 414 415
          144 416 417 418 148 419
          417 418 148 419 420 421
          152 422 423 424 255 391
          425 426 256 393 425 426
          256 393 427 428 257 395
          429 430 431 753 432 433
          434 754 432 433 434 754
          435 436 437 755 438 399
          400 439 440 401 402 441
          440 401 402 441 442 403
          404 443 447 415 414 448
          449 418 417 450 449 418
          417 450 451 421 420 452
          453 100 99 454 455 104
          103 456 455 104 103 456
          457 108 107 458 279 459
          460 280 281 461 462 282
          281 461 462 282 283 463
          464 284 279 465 62 459
          281 466 66 461 281 466
          66 461 283 467 70 463
          448 414 100 453 450 417
          104 455 450 417 104 455
          452 420 108 457 468 469
          415 447 470 471 418 449
          470 471 418 449 472 473
          421 451 753 431 748 756
          754 434 750 757 754 434
          750 757 755 437 752 758
          400 748 431 12 402 750
          434 16 402 750 434 16
          404 752 437 20 474 31
          469 468 475 35 471 470
          475 35 471 470 476 39
          473 472 399 438 744 759
          401 440 745 760 401 440
          745 760 403 442 746 761
          339 477 351 340 343 478
          352 344 343 478 352 344
          347 479 353 348 367 366
          358 357 369 368 360 359
          369 368 360 359 371 370
          362 361 480 32 31 474
          481 36 35 475 481 36
          35 475 482 40 39 476
          483 477 339 354 484 478
          343 355 484 478 343 355
          485 479 347 356 486 483
          354 381 487 484 355 382
          487 484 355 382 488 485
          356 383 183 182 465 279
          187 186 466 281 187 186
          466 281 191 190 467 283
          762 763 489 490 764 765
          491 492 764 765 491 492
          766 767 493 494 490 489
          32 480 492 491 36 481
          492 491 36 481 494 493
          40 482 387 495 496 376
          388 497 498 378 388 497
          498 378 389 499 500 380
          501 270 272 358 502 273
          275 360 502 273 275 360
          503 276 278 362 504 331
          298 297 505 333 302 301
          505 333 302 301 506 335
          306 305 507 486 381 375
          508 487 382 377 508 487
          382 377 509 488 383 379
          318 238 237 510 319 241
          240 511 319 241 240 511
          320 244 243 512 50 49
          255 424 54 53 256 426
          54 53 256 426 58 57
          257 428 363 513 390 372
          364 514 392 373 364 514
          392 373 365 515 394 374
          516 423 391 390 517 425
          393 392 517 425 393 392
          518 427 395 394 519 520
          205 204 521 522 207 206
          521 522 207 206 523 524
          209 208 525 519 204 280
          526 521 206 282 526 521
          206 282 527 523 208 284
          528 460 459 529 530 462
          461 531 530 462 461 531
          532 464 463 533 534 90
          535 536 537 93 538 539
          537 93 538 539 540 96
          541 542 546 525 280 460
          547 526 282 462 547 526
          282 462 548 527 284 464
          759 768 747 399 760 769
          749 401 760 769 749 401
          761 770 751 403 507 375
          376 496 508 377 378 498
          508 377 378 498 509 379
          380 500 483 486 549 550
          484 487 551 552 484 487
          551 552 485 488 553 554
          231 232 271 336 233 234
          274 337 233 234 274 337
          235 236 277 338 391 255
          128 223 393 256 131 225
          393 256 131 225 395 257
          134 227 525 546 555 556
          526 547 557 558 526 547
          557 558 527 548 559 560
          519 525 556 561 521 526
          558 562 521 526 558 562
          523 527 560 563 561 556
          564 565 562 558 566 567
          562 558 566 567 563 560
          568 569 570 571 572 573
          574 575 576 577 574 575
          576 577 578 579 580 581
          2 1 300 299 6 5
          304 303 6 5 304 303
          10 9 308 307 582 299
          298 330 583 303 302 332
          583 303 302 332 584 307
          306 334 585 363 271 270
          586 364 274 273 586 364
          274 273 587 365 277 276
          555 416 144 143 557 419
          148 147 557 419 148 147
          559 422 152 151 588 589
          237 267 590 591 240 268
          590 591 240 268 592 593
          243 269 396 594 495 387
          397 595 497 388 397 595
          497 388 398 596 499 389
          594 396 205 520 595 397
          207 522 595 397 207 522
          596 398 209 524 597 598
          430 429 599 600 433 432
          599 600 433 432 601 602
          436 435 603 246 248 604
          605 249 251 606 605 249
          251 606 607 252 254 608
          72 211 210 73 74 215
          214 75 74 215 214 75
          76 219 218 77 536 535
          609 543 539 538 610 544
          539 538 610 544 542 541
          611 545 612 561 565 613
          614 562 567 615 614 562
          567 615 616 563 569 617
          618 619 620 621 622 623
          624 625 622 623 624 625
          626 627 628 629 630 588
          267 247 631 590 268 250
          631 590 268 250 632 592
          269 253 633 634 573 572
          635 636 577 576 635 636
          577 576 637 638 581 580
          60 639 81 640 64 641
          85 642 64 641 85 642
          68 643 89 644 561 612
          520 519 562 614 522 521
          562 614 522 521 563 616
          524 523 510 231 336 318
          511 233 337 319 511 233
          337 319 512 235 338 320
          640 81 80 645 642 85
          84 646 642 85 84 646
          644 89 88 647 550 648
          477 483 552 649 478 484
          552 649 478 484 554 650
          479 485 630 247 246 651
          631 250 249 652 631 250
          249 652 632 253 252 653
          633 572 654 621 635 576
          655 625 635 576 655 625
          637 580 656 629 15 43
          166 439 19 45 169 441
          19 45 169 441 23 47
          172 443 660 639 661 651
          662 641 663 652 662 641
          663 652 664 643 665 653
          666 330 288 287 667 332
          292 291 667 332 292 291
          668 334 296 295 603 660
          651 246 605 662 652 249
          605 662 652 249 607 664
          653 252 571 570 516 669
          575 574 517 670 575 574
          517 670 579 578 518 671
          672 262 261 311 673 264
          263 314 673 264 263 314
          674 266 265 317 416 555
          546 675 419 557 547 676
          419 557 547 676 422 559
          548 677 570 573 678 657
          574 577 679 658 574 577
          679 658 578 581 680 659
          495 42 14 496 497 44
          18 498 497 44 18 498
          499 46 22 500 61 529
          459 62 65 531 461 66
          65 531 461 66 69 533
          463 70 13 507 496 14
          17 508 498 18 17 508
          498 18 21 509 500 22
          114 510 237 589 118 511
          240 591 118 511 240 591
          122 512 243 593 513 669
          516 390 514 670 517 392
          514 670 517 392 515 671
          518 394 594 681 42 495
          595 682 44 497 595 682
          44 497 596 683 46 499
          114 589 588 111 118 591
          590 115 118 591 590 115
          122 593 592 119 510 114
          113 231 511 118 117 233
          511 118 117 233 512 122
          121 235 681 594 520 612
          682 595 522 614 682 595
          522 614 683 596 524 616
          684 685 645 686 687 688
          646 689 687 688 646 689
          690 691 647 692 693 654
          572 571 694 655 576 575
          694 655 576 575 695 656
          580 579 675 546 460 528
          676 547 462 530 676 547
          462 530 677 548 464 532
          439 400 12 15 441 402
          16 19 441 402 16 19
          443 404 20 23 696 672
          648 697 698 673 649 699
          698 673 649 699 700 674
          650 701 702 618 621 654
          703 622 625 655 703 622
          625 655 704 626 629 656
          72 705 212 211 74 706
          216 215 74 706 216 215
          76 707 220 219 182 112
          136 465 186 116 138 466
          186 116 138 466 190 120
          140 467 708 686 645 80
          709 689 646 84 709 689
          646 84 710 692 647 88
          91 341 310 92 94 345
          313 95 94 345 313 95
          97 349 316 98 135 630
          651 661 137 631 652 663
          137 631 652 663 139 632
          653 665 666 287 325 711
          667 291 327 712 667 291
          327 712 668 295 329 713
          444 25 714 715 445 27
          716 717 445 27 716 717
          446 29 718 719 705 720
          366 212 706 721 368 216
          706 721 368 216 707 722
          370 220 331 504 715 714
          333 505 717 716 333 505
          717 716 335 506 719 718
          13 549 486 507 17 551
          487 508 17 551 487 508
          21 553 488 509 571 669
          513 693 575 670 514 694
          575 670 514 694 579 671
          515 695 102 405 685 99
          106 408 688 103 106 408
          688 103 110 411 691 107
          672 351 477 648 673 352
          478 649 673 352 478 649
          674 353 479 650 693 513
          363 585 694 514 364 586
          694 514 364 586 695 515
          365 587 285 714 25 24
          289 716 27 26 289 716
          27 26 293 718 29 28
          143 142 192 564 147 146
          194 566 147 146 194 566
          151 150 196 568 726 489
          763 771 727 491 765 772
          727 491 765 772 728 493
          767 773 534 536 715 504
          537 539 717 505 537 539
          717 505 540 542 719 506
          165 565 564 192 168 567
          566 194 168 567 566 194
          171 569 568 196 78 81
          639 660 82 85 641 662
          82 85 641 662 86 89
          643 664 136 135 661 63
          138 137 663 67 138 137
          663 67 140 139 665 71
          729 262 672 696 730 264
          673 698 730 264 673 698
          731 266 674 700 630 135
          111 588 631 137 115 590
          631 137 115 590 632 139
          119 592 702 585 270 501
          703 586 273 502 703 586
          273 502 704 587 276 503
          585 702 654 693 586 703
          655 694 586 703 655 694
          587 704 656 695 61 406
          528 529 65 409 530 531
          65 409 530 531 69 412
          532 533 414 732 101 100
          417 733 105 104 417 733
          105 104 420 734 109 108
          63 62 465 136 67 66
          466 138 67 66 466 138
          71 70 467 140 501 720
          618 702 502 721 622 703
          502 721 622 703 503 722
          626 704 720 501 358 366
          721 502 360 368 721 502
          360 368 722 503 362 370
          685 684 454 99 688 687
          456 103 688 687 456 103
          691 690 458 107 685 405
          640 645 688 408 642 646
          688 408 642 646 691 411
          644 647 30 141 469 31
          34 145 471 35 34 145
          471 35 38 149 473 39
          598 738 739 430 600 740
          741 433 600 740 741 433
          602 742 743 436 43 42
          681 167 45 44 682 170
          45 44 682 170 47 46
          683 173 678 711 325 723
          679 712 327 724 679 712
          327 724 680 713 329 725
          619 618 720 705 623 622
          721 706 623 622 721 706
          627 626 722 707 102 101
          528 406 106 105 530 409
          106 105 530 409 110 109
          532 412 549 13 12 739
          551 17 16 741 551 17
          16 741 553 21 20 743
          711 678 573 634 712 679
          577 636 712 679 577 636
          713 680 581 638 80 79
          258 708 84 83 259 709
          84 83 259 709 88 87
          260 710 738 598 696 697
          740 600 698 699 740 600
          698 699 742 602 700 701
          714 285 288 331 716 289
          292 333 716 289 292 333
          718 293 296 335 672 311
          310 351 673 314 313 352
          673 314 313 352 674 317
          316 353 430 739 12 431
          433 741 16 434 433 741
          16 434 436 743 20 437
          193 438 439 166 195 440
          441 169 195 440 441 169
          197 442 443 172 489 726
          33 32 491 727 37 36
          491 727 37 36 493 728
          41 40 444 715 536 543
          445 717 539 544 445 717
          539 544 446 719 542 545
          3 619 705 72 7 623
          706 74 7 623 706 74
          11 627 707 76 633 666
          711 634 635 667 712 636
          635 667 712 636 637 668
          713 638 384 534 504 297
          385 537 505 301 385 537
          505 301 386 540 506 305
          726 771 744 33 727 772
          745 37 727 772 745 37
          728 773 746 41 167 613
          565 165 170 615 567 168
          170 615 567 168 173 617
          569 171 675 732 414 416
          676 733 417 419 676 733
          417 419 677 734 420 422
          550 549 739 738 552 551
          741 740 552 551 741 740
          554 553 743 742 732 675
          528 101 733 676 530 105
          733 676 530 105 734 677
          532 109 63 661 639 60
          67 663 641 64 67 663
          641 64 71 665 643 68
          384 91 90 534 385 94
          93 537 385 94 93 537
          386 97 96 540 123 744
          438 193 124 745 440 195
          124 745 440 195 125 746
          442 197 406 61 60 407
          409 65 64 410 409 65
          64 410 412 69 68 413
          154 78 660 603 158 82
          662 605 158 82 662 605
          162 86 664 607 91 384
          342 341 94 385 346 345
          94 385 346 345 97 386
          350 349 405 407 60 640
          408 410 64 642 408 410
          64 642 411 413 68 644
          648 550 738 697 649 552
          740 699 649 552 740 699
          650 554 742 701 735 92
          310 309 736 95 313 312
          736 95 313 312 737 98
          316 315 633 582 330 666
          635 583 332 667 635 583
          332 667 637 584 334 668
          167 681 612 613 170 682
          614 615 170 682 614 615
          173 683 616 617 620 2
          299 582 624 6 303 583
          624 6 303 583 628 10
          307 584 582 633 621 620
          583 635 625 624 583 635
          625 624 584 637 629 628
          141 144 415 469 145 148
          418 471 145 148 418 471
          149 152 421 473 143 564
          556 555 147 566 558 557
          147 566 558 557 151 568
          560 559 2 620 619 3
          6 624 623 7 6 624
          623 7 10 628 627 11
          729 696 598 597 730 698
          600 599 730 698 600 599
          731 700 602 601 141 30
          123 142 145 34 124 146
          145 34 124 146 149 38
          125 150 154 603 604 155
          158 605 606 159 158 605
          606 159 162 607 608 163
          193 192 142 123 195 194
          146 124 195 194 146 124
          197 196 150 125
        </DataArray>
        <DataArray type="Int64" Name="offsets" format="ascii" RangeMin="8" RangeMax="3616">
          8 16 24 32 40 48
          56 64 72 80 88 96
          104 112 120 128 136 144
          152 160 168 176 184 192
          200 208 216 224 232 240
          248 256 264 272 280 288
          296 304 312 320 328 336
          344 352 360 368 376 384
          392 400 408 416 424 432
          440 448 456 464 472 480
          488 496 504 512 520 528
          536 544 552 560 568 576
          584 592 600 608 616 624
          632 640 648 656 664 672
          680 688 696 704 712 720
          728 736 744 752 760 768
          776 784 792 800 808 816
          824 832 840 848 856 864
          872 880 888 896 904 912
          920 928 936 944 952 960
          968 976 984 992 1000 1008
          1016 1024 1032 1040 1048 1056
          1064 1072 1080 1088 1096 1104
          1112 1120 1128 1136 1144 1152
          1160 1168 1176 1184 1192 1200
          1208 1216 1224 1232 1240 1248
          1256 1264 1272 1280 1288 1296
          1304 1312 1320 1328 1336 1344
          1352 1360 1368 1376 1384 1392
          1400 1408 1416 1424 1432 1440
          1448 1456 1464 1472 1480 1488
          1496 1504 1512 1520 1528 1536
          1544 1552 1560 1568 1576 1584
          1592 1600 1608 1616 1624 1632
          1640 1648 1656 1664 1672 1680
          1688 1696 1704 1712 1720 1728
          1736 1744 1752 1760 1768 1776
          1784 1792 1800 1808 1816 1824
          1832 1840 1848 1856 1864 1872
          1880 1888 1896 1904 1912 1920
          1928 1936 1944 1952 1960 1968
          1976 1984 1992 2000 2008 2016
          2024 2032 2040 2048 2056 2064
          2072 2080 2088 2096 2104 2112
          2120 2128 2136 2144 2152 2160
          2168 2176 2184 2192 2200 2208
          2216 2224 2232 2240 2248 2256
          2264 2272 2280 2288 2296 2304
          2312 2320 2328 2336 2344 2352
          2360 2368 2376 2384 2392 2400
          2408 2416 2424 2432 2440 2448
          2456 2464 2472 2480 2488 2496
          2504 2512 2520 2528 2536 2544
          2552 2560 2568 2576 2584 2592
          2600 2608 2616 2624 2632 2640
          2648 2656 2664 2672 2680 2688
          2696 2704 2712 2720 2728 2736
          2744 2752 2760 2768 2776 2784
          2792 2800 2808 2816 2824 2832
          2840 2848 2856 2864 2872 2880
          2888 2896 2904 2912 2920 2928
          2936 2944 2952 2960 2968 2976
          2984 2992 3000 3008 3016 3024
          3032 3040 3048 3056 3064 3072
          3080 3088 3096 3104 3112 3120
          3128 3136 3144 3152 3160 3168
          3176 3184 3192 3200 3208 3216
          3224 3232 3240 3248 3256 3264
          3272 3280 3288 3296 3304 3312
          3320 3328 3336 3344 3352 3360
          3368 3376 3384 3392 3400 3408
          3416 3424 3432 3440 3448 3456
          3464 3472 3480 3488 3496 3504
          3512 3520 3528 3536 3544 3552
          3560 3568 3576 3584 3592 3600
          3608 3616
        </DataArray>
        <DataArray type="UInt8" Name="types" format="ascii" RangeMin="12" RangeMax="12">
          12 12 12 12 12 12
          12 12 12 12 12 12
          12 12 12 12 12 12
          12 12 12 12 12 12
          12 12 12 12 12 12
          12 12 12 12 12 12
          12 12 12 12 12 12
          12 12 12 12 12 12
          12 12 12 12 12 12
          12 12 12 12 12 12
          12 12 12 12 12 12
          12 12 12 12 12 12
          12 12 12 12 12 12
          12 12 12 12 12 12
          12 12 12 12 12 12
          12 12 12 12 12 12
          12 12 12 12 12 12
          12 12 12 12 12 12
          12 12 12 12 12 12
          12 12 12 12 12 12
          12 12 12 12 12 12
          12 12 12 12 12 12
          12 12 12 12 12 12
          12 12 12 12 12 12
          12 12 12 12 12 12
          12 12 12 12 12 12
          12 12 12 12 12 12
          12 12 12 12 12 12
          12 12 12 12 12 12
          12 12 12 12 12 12
          12 12 12 12 12 12
          12 12 12 12 12 12
          12 12 12 12 12 12
          12 12 12 12 12 12
          12 12 12 12 12 12
          12 12 12 12 12 12
          12 12 12 12 12 12
          12 12 12 12 12 12
          12 12 12 12 12 12
          12 12 12 12 12 12
          12 12 12 12 12 12
          12 12 12 12 12 12
          12 12 12 12 12 12
          12 12 12 12 12 12
          12 12 12 12 12 12
          12 12 12 12 12 12
          12 12 12 12 12 12
          12 12 12 12 12 12
          12 12 12 12 12 12
          12 12 12 12 12 12
          12 12 12 12 12 12
          12 12 12 12 12 12
          12 12 12 12 12 12
          12 12 12 12 12 12
          12 12 12 12 12 12
          12 12 12 12 12 12
          12 12 12 12 12 12
          12 12 12 12 12 12
          12 12 12 12 12 12
          12 12 12 12 12 12
          12 12 12 12 12 12
          12 12 12 12 12 12
          12 12 12 12 12 12
          12 12 12 12 12 12
          12 12 12 12 12 12
          12 12 12 12 12 12
          12 12 12 12 12 12
          12 12 12 12 12 12
          12 12 12 12 12 12
          12 12 12 12 12 12
          12 12 12 12 12 12
          12 12 12 12 12 12
          12 12 12 12 12 12
          12 12 12 12 12 12
          12 12 12 12 12 12
          12 12
        </DataArray>
      </Cells>
    </Piece>
  </UnstructuredGrid>
</VTKFile>
