<?xml version="1.0"?>
<VTKFile type="UnstructuredGrid" version="0.1" byte_order="LittleEndian" header_type="UInt32" compressor="vtkZLibDataCompressor">
  <UnstructuredGrid>
    <Piece NumberOfPoints="780" NumberOfCells="454">
      <PointData>
        <DataArray type="Int32" Name="libmesh_node_id" format="ascii" RangeMin="1278" RangeMax="5063">
          1278 1279 1280 1281 1282 1283
          1284 1285 1286 1287 1288 1289
          1290 1291 1292 1293 1294 1295
          1296 1297 1298 1299 1300 1301
          1302 1303 1304 1305 1306 1307
          1308 1309 1310 1311 1312 1313
          1314 1315 1316 1317 1318 1319
          1320 1321 1322 1323 1324 1325
          1329 1330 1331 1332 1333 1334
          1335 1336 1337 1338 1339 1340
          1341 1342 1343 1344 1345 1346
          1347 1348 1349 1350 1351 1352
          1356 1357 1358 1359 1360 1361
          1362 1363 1364 1365 1366 1367
          1368 1369 1370 1371 1372 1373
          1374 1375 1376 1377 1378 1379
          1383 1384 1385 1386 1387 1388
          1389 1390 1391 1392 1393 1394
          1395 1396 1397 1398 1399 1400
          1401 1402 1403 1404 1405 1406
          1410 1411 1412 1413 1414 1415
          1416 1417 1418 1419 1420 1421
          1422 1423 1424 1425 1426 1427
          1428 1429 1430 1431 1432 1433
          1437 1438 1439 1440 1441 1442
          1443 1444 1445 1446 1447 1448
          1449 1450 1451 1452 1453 1454
          1455 1456 1457 1458 1459 1460
          1461 1462 1463 1464 1465 1466
          1467 1468 1469 1470 1471 1472
          1473 1474 1475 1476 1477 1478
          1479 1480 1481 1482 1483 1484
          1485 1486 1487 1488 1489 1490
          1491 1492 1493 1494 1495 1496
          1497 1498 1499 1500 1501 1502
          1503 1504 1505 1506 1507 1508
          1509 1510 1511 1512 1513 1514
          1515 1516 1517 1518 1519 1520
          1521 1522 1523 1524 1525 1526
          1527 1528 1529 1530 1531 1532
          1533 1534 1535 1536 1537 1538
          1539 1540 1541 1542 1543 1544
          1545 1546 1547 1548 1549 1550
          1551 1552 1553 1554 1555 1556
          1557 1558 1559 1560 1561 1562
          1563 1564 1565 1566 1567 1568
          1569 1570 1571 1572 1573 1574
          1575 1576 1577 1578 1579 1580
          1581 1582 1583 1584 1585 1586
          1587 1588 1589 1590 1591 1592
          1593 1594 1595 1596 1597 1598
          1599 1600 1601 1602 1603 1604
          1605 1606 1607 1608 1609 1610
          1611 1612 1613 1614 1615 1616
          1617 1618 1619 1620 1621 1622
          1623 1624 1625 1626 1627 1628
          1629 1630 1631 1632 1633 1634
          1635 1636 1637 1638 1639 1640
          1641 1642 1643 1644 1645 1646
          1647 1648 1649 1650 1651 1652
          1653 1654 1655 1656 1657 1658
          1659 1660 1661 1662 1663 1664
          1665 1666 1667 1668 1669 1670
          1671 1672 1673 1674 1675 1676
          1680 1681 1682 1683 1684 1685
          1686 1687 1688 1689 1690 1691
          1692 1693 1694 1695 1696 1697
          1698 1699 1700 1701 1702 1703
          1707 1708 1709 1710 1711 1712
          1713 1714 1715 1716 1717 1718
          1719 1720 1721 1722 1723 1724
          1725 1726 1727 1728 1729 1730
          1734 1735 1736 1737 1738 1739
          1740 1741 1742 1743 1744 1745
          1746 1747 1748 1749 1750 1751
          1752 1753 1754 1755 1756 1757
          1761 1762 1763 1764 1765 1766
          1767 1768 1769 1770 1771 1772
          1773 1774 1775 1776 1777 1778
          1779 1780 1781 1782 1783 1784
          1791 1792 1793 1794 1795 1796
          1797 1798 1799 1800 1801 1802
          1803 1804 1805 1806 1807 1808
          1809 1810 1811 1818 1819 1820
          1821 1822 1823 1824 1825 1826
          1827 1828 1829 1830 1831 1832
          1833 1834 1835 1836 1837 1838
          1845 1846 1847 1848 1849 1850
          1851 1852 1853 1854 1855 1856
          1857 1858 1859 1860 1861 1862
          1872 1873 1874 1875 1876 1877
          1878 1879 1880 1881 1882 1883
          1884 1885 1886 2184 2185 2186
          2187 2188 2189 2190 2191 2192
          2193 2194 2195 2196 2197 2198
          2199 2200 2201 2202 2203 2204
          2205 2206 2207 2208 2210 2211
          2212 2214 2215 2216 2218 2219
          2244 2246 2248 2262 2263 2264
          2265 2266 2267 2268 2269 2270
          2271 2272 2273 2592 2593 2594
          2595 2596 2597 2913 2914 2915
          2916 2917 2918 2919 2920 2921
          3336 3337 3338 3339 3340 3341
          3582 3583 3584 3585 3586 3587
          3688 3690 3692 3699 3700 3701
          3702 3703 3704 4161 4162 4163
          4164 4165 4166 4527 4528 4529
          4530 4531 4532 4536 4537 4538
          4539 4540 4541 4671 4672 4673
          4698 4699 4700 4701 4702 4703
          4725 4726 4727 4770 4771 4772
          4884 4885 4886 4905 4906 4907
          4983 4984 4985 5034 5035 5036
          5061 5062 5063 1863 1864 1865
          1887 1888 1889 1890 1891 1892
          1902 1899 1903 1900 1904 1901
          1905 1906 1907 1908 1909 1910
          1911 1912 1913 1914 1915 1916
          2209 2213 2217 2245 2247 2249
          2526 2525 2530 2529 2534 2533
          3234 3235 3236 3237 3238 3239
          3300 3301 3302 3303 3304 3305
          3366 3367 3368 3663 3665 3667
          3687 3386 3689 3389 3691 3392
          3705 3706 3707 3939 3940 3941
          3942 3943 3944 4467 4468 4469
          3455 3458 3461 3210 3120 3212
          3124 3214 3128 4441 4443 4445
          3119 3123 3127 3231 3232 3233
        </DataArray>
        <DataArray type="Float64" Name="resid_x" format="ascii" RangeMin="-0.02049539032433767" RangeMax="0.021227614780107373">
          0.00018000865690126489 0.0001205747244394928 0.00029883947792086474 0.00018836368010965998 0.00008777824004368995 0.00004010099384643695
          -6.459099566313853e-8 0.00003447847835857942 -0.000010282628560176477 0.000008315995630781003 -0.00001194828132611292 -0.000005295223254542236
          -0.00014464380635015317 -0.00009418788698845049 -0.0001644185573539403 -0.00006281417236397857 -0.00010059496081105124 -0.00003725153898681555
          -0.00003127784010104051 -0.00001515719598899068 -0.000006722651948010139 0.000012596169964851356 0.000074531426040636 0.000009060787014014693
          -0.00009757361883355742 -0.00003340827421549619 -0.000012026071734894117 -0.0000803225277286046 0.00015233255409974333 0.0001094565368999767
          -0.00017679777020696008 -7.102619115073594e-8 0.0062054042801040765 0.021227614780107373 0.0036313181627241065 0.005995582118456078
          -0.000021489496387694373 -0.00004007636169323092 -0.006483747245305871 -0.02049539032433767 -0.0052492095608052125 -0.0069712240668442504
          0.0000650424079582379 0.00005080860033324086 0.000007528216037222535 0.000024954085181327912 -0.0027863403988712676 -0.001971029931238988
          0.000013438520703346057 0.00008551276432910981 0.0000082006141486346 -0.00002586237437096628 0.00001575814657606145 -0.000004467912634531501
          -0.0000820680596964607 -0.00006997834244337753 -0.000035096503025577874 -0.00006850292611115805 -0.00005026298700006038 -3.8953606562586174e-8
          -0.000050588223502678886 0.00011763666096342718 0.0001875556097825637 -0.00013270931873599068 -0.000350822301158793 -0.0010267792367928408
          0.00006245919635983199 -0.000053122378299796935 -0.0017111360665778008 0.00009219226781853607 0.00004594568856841619 -0.003073583396079549
          -0.00006139889142886545 -0.00006891971952782683 -0.000043120240110994246 -0.00003184565575153897 0.000015368064906873258 0.000022786481780556755
          -0.000023960064009287407 -0.000029113714774986477 0.000020818677360701088 -0.000021713203925521896 0.00002714005947623832 -0.00003779287633864925
          -0.000040204223244799664 0.00004567081995787703 -0.0003882022539638541 -0.00015156734800969573 -0.00011345358844616626 -0.0015901011243322216
          -0.00005282596277833562 0.00002412606015589347 -0.0024663531032684816 -0.00010476466949649321 -0.00018631133490387697 -0.003664897266125511
          -0.000057630667473773656 -0.00013802281196007016 -0.000043111021888364576 0.000001322525915448125 -0.00000915362612197157 0.0000036800694251937216
          0.0000029336960167825055 0.000011165036610805146 0.000045891738215786404 -0.000025771186837886262 0.000360432771033814 0.00011704761055231216
          -0.00006139994239884317 -0.00036029480565424876 -0.00131903021455404 -0.0001214581131634418 -0.00002076886192803329 -0.0024035680065095377
          -0.00014909495664561234 -0.00013668422968482474 -0.003083456195257739 -0.00013011480776548012 -0.000036416794221061366 -0.0038681277483165744
          -0.00009032802821984376 -0.00022173972839212297 -0.00006386688003523489 -0.000004892071428841405 -0.000020718055686153036 -0.000009051425460704365
          0.000015981823098698555 -0.000009435005641655891 0.000006826316145236433 -0.000008679658481725028 0.0012809142964975706 -0.00007511555725070451
          -0.00004033935299352365 -0.0012465235987746404 -0.0022716355232264007 -0.00023133961206456277 -0.00011727780787484932 -0.0031912872498676137
          -0.00011937610972445611 -0.000013968128521391066 -0.0035445418624160396 -0.00018907596539596838 -0.0000624568646681034 -0.004611050407197226
          -0.00004625809940250747 -0.00017361443862284887 -0.000030448439371610903 0.000007982319740307275 -0.000016722288868287194 0.000027097662002262268
          0.000024573670155625393 0.000016518942497434352 -0.00025117097096849506 0.00009148466666619726 0.00002160833243536331 -0.0011788880421850223
          -0.0000320868557777132 0.000012862243867317602 -0.002779391310181012 -0.00012710891310607764 0.000024961157278902135 -0.003855928955793786
          -0.00008560964904358315 0.00004325303799390667 -0.004018935859246842 -0.00014112222309758948 0.00004322453741512078 -0.005249216559370495
          -0.00017522750781573393 -0.00023145554746939467 -0.00011543746115361131 -0.000036008700416978456 -0.00008807826954182474 0.0000113516701567562
          0.000014057299352998598 -0.0000028890066801068315 4.0082503538485525e-7 -0.000015294858998871064 0.00010665046290547764 -0.0006265476101461331
          0.000034053810304079946 -0.000008301615367578563 -0.002091256288948351 -0.000039707889967655063 -0.00003620437518447872 -0.003694051866366621
          -0.00014110373825149125 0.00007942971438357205 -0.004426284802110825 -0.000014868165152392976 0.0001386793621644955 -0.004466931649217187
          -0.0001733219922508411 0.00011243292515583647 -0.005626912606970791 -0.0002560218219951338 -0.00047811137310205254 -0.0001911505898899435
          -0.000008449606519356223 -0.00003468306184650771 0.00004177009095585049 0.000009511518272553587 0.0010681747728984448 0.00004988487764645555
          0.00005213743354293143 -0.000986940022636773 -0.0017096316077500617 0.000009167320045300187 0.00010434980869478139 -0.0031022013029762263
          -0.00018617746268922986 -0.00008921707101894327 -0.004584595581914819 -0.00022489930239544265 0.00005544421124792365 -0.005044573523496965
          -0.00012831102536159378 0.0000491356559590983 -0.004849825917912831 -0.00020133055022864 0.00022486451193692858 -0.005625733863949378
          -0.00020880760241404062 -0.00043464914607938 -0.00014788399106890893 0.000028410212412843805 -0.00003210480085957812 -0.000045067021631872706
          0.00009352488484903887 0.0004712885051949556 -0.0005938209790867788 -0.00005505391741955634 -0.00033812109279107716 -0.0025272086546355155
          -0.00003315387689717397 0.00012599883795427758 -0.004131418856467839 -0.000197872359628537 -0.000030351039468357044 -0.005337937876675358
          -0.00036933304674047207 -0.00007917022968984 -0.005575687705183796 -0.00037655091967714327 -0.00020222774865175097 -0.005016138097931666
          -0.0002675918087118312 0.00023588551618969333 -0.0051711963779270675 -0.00008417933377735665 -0.000210172633593686 -0.000028707887736345583
          0.00019977539370685804 -0.00009589836906354066 -0.0002781266187765752 -0.00009585557008406909 0.0003083920418474051 -0.001636668970649957
          0.0000023775729447450544 0.00003976584661335991 -0.0035625179070066793 0.000016533363274895407 0.0001866244591166577 -0.005053409915387164
          -0.00021527617921179854 -0.000021213664967767443 -0.0058717152846856635 -0.00038664664232879176 -0.00015386503543446395 -0.005777446106655315
          -0.0004905247077253705 -0.0003499922918663856 -0.004903223516814492 -0.0003072783094943965 0.00017989023385078795 -0.004771883008545252
          0.00001505513600719155 0.00000829972112015298 -0.00006435992776587796 0.00013137642186933363 0.00012455407323397338 -0.0008615659700188516
          -0.00001602912906895071 0.00009492658040910484 -0.0028354174487823514 -0.00006952901904799802 0.000006331995431096971 -0.004758621695806653
          -0.000021151825494225562 0.00016291263914469667 -0.005842614391840861 -0.0001375193322656898 0.0000464942680786784 -0.006166474203403549
          -0.00035678228095559206 -0.00010672013820123283 -0.005628542566611827 -0.00033951878535898317 0.00003468809806772555 -0.004617413184257568
          -0.0003236597435938293 0.0004781168727321372 -0.00468815782216403 0.00010367956848078563 0.0013110764785828621 0.0000018457190211762509
          0.00011332629844407194 -0.0010774199783507576 -0.002231479379089407 0.00004527920823571563 0.00012176561906329653 -0.004121921253791072
          -0.00011618534918600432 0.000029694234413568665 -0.005800635533700138 -0.00007360787967680693 0.00014261257780034953 -0.006457563463131422
          -0.0002798954352973837 -0.00009643176137164033 -0.006347283918616942 -0.00045842299818232846 -0.00015686171339179822 -0.005494082750113982
          -0.0006130766646572638 -0.00028132348409659613 -0.004340925034731491 -0.0005929049543311748 0.00002796895232037855 -0.002977863043408302
          0.00007459613685156796 0.00048740512692191373 -0.000867075794406702 -0.000008173350846352179 -0.00034247227243744405 -0.0033322354422526956
          0.000029141437539959014 0.00022855841281854694 -0.005352380849333649 -0.00004287771365518722 0.00012711035077339616 -0.006582379590263532
          -0.00013487267499456834 0.00007515693005766266 -0.006766992552845963 -0.0003682781983895822 -0.0001805936246164208 -0.006232054688876332
          -0.0006330840595270004 -0.0003202883006032664 -0.005080049675827425 -0.0008235993569440936 -0.00043654175219742797 -0.003805371112090228
          -0.0007687615247631285 0.00009460084793921908 -0.0023826827881689994 0.000013723089470119021 0.00009004996713635194 -0.0020527551740041616
          0.000008284313593343029 0.00010092945398021413 -0.004603588171151252 0.0001409107437777557 0.0003609372648742948 -0.006388959799522809
          0.000001634396223693102 0.0001493595997361652 -0.007166597409713038 -0.0002739308905708171 -0.00013990814903230842 -0.0068862073006079605
          -0.0005466639188149713 -0.0003623235764163013 -0.005867962128563775 -0.0007937993604230087 -0.0003848601127947049 -0.0044108285919683965
          -0.0011050819206976925 -0.0006151746961542415 -0.0030570102610214533 -0.0009883742854404076 0.0000691468721232269 -0.001453720345456766
          0.00024593231990799325 0.00046645856514970774 -0.005967451711867966 0.00013752731970484433 0.0003237297591636157 -0.007350299351958078
          -0.00015919707603462285 -0.000018117322378774503 -0.0075502214702587445 -0.000558701870946976 -0.0004055876314135176 -0.006745972274301071
          -0.0008220380778487524 -0.0005184146885888197 -0.005239259430175558 -0.0010355236043473326 -0.00047424226120984514 -0.0035317734546644886
          -0.0013430485854133423 -0.000547330197512963 -0.002020120019939675 -0.00111813928916904 0.0003048221639838644 -0.0005035093857790329
          0.0005002165911420775 0.000897494993782999 -0.007110317491695994 -0.000013518119690747454 0.00008042970404575911 -0.008084945682133693
          -0.0004515527719552992 -0.0003125639284076165 -0.00757267249783844 -0.0008320267433337136 -0.0005833781853423758 -0.006080033913963057
          -0.0009536279471751286 -0.00043621000075777516 -0.004159618718949432 -0.001197940971731093 -0.00044844433189439314 -0.0024264377803255854
          -0.001639434139393714 -0.0007583895976877031 -0.0011488336413414402 -0.0010320102831258282 0.0008656555257058329 0.0005645343483893228
          0.00033953919124662946 0.0005507986387591757 -0.008066901224541567 -0.00013678342045952974 -0.00010966529183065177 -0.008205064842183418
          -0.0006108011446936956 -0.0005300610528733429 -0.006957966503800428 -0.0009809802542095625 -0.0005970105973824857 -0.004884246981006868
          -0.0009705494127132397 -0.00022647849927892594 -0.0027234427728615174 -0.0011785119070868433 -0.00008286169822646627 -0.0011383773032624944
          -0.001971116533644235 -0.0009027073827585497 -0.0007470531448143802 -0.002079577732214233 -0.0005662390152334495 0.0003678573632042159
          -0.00001879408545679695 0.000021383086110660088 -0.00841794015043451 -0.00028677779271735204 -0.0004725703682328941 -0.007729363378138565
          -0.0006066465162026802 -0.0005598943165843195 -0.0057785410073130095 -0.001024902600645028 -0.0005539230390354533 -0.0034429457314546497
          -0.0010714445401749373 -0.00014596265494226657 -0.0011912189925977756 -0.001211165334964015 0.00013783249426513322 0.00010628273768631402
          -0.0020743078407594595 -0.0005925503219197381 -0.00003753169784026511 -0.0017496086490886853 0.00041244884835656137 0.0008883371057972766
          -0.00044413195689507745 -0.0012746580476807878 -0.006979454348877923 -0.00048498276366792936 -0.0005153990728317126 -0.004132957782923441
          -0.0009880370013988227 -0.0004719790217606601 -0.00177382147805627 -0.0010983153431611825 0.000013603481707313847 0.00034168660822953
          -0.0014449257688013972 0.000043700584440031776 0.0011090048131938701 -0.0027333552917792048 -0.001480564014267216 0.00022227996534596173
          -0.0020250558123060536 -0.000041998565520451336 0.0018731032567922412 -0.0008622804220017599 -0.0017371319285537368 -0.005358234030946818
          -0.0004567026169075561 -0.00042606468147621257 -0.0022662271720248484 -0.0008675390969541397 -0.00017386925762430394 0.00007679545292926804
          -0.001056073848322292 0.000168381283510044 0.0017803765166783947 -0.0018168718611892842 -0.0001952804854141732 0.0021113192077422127
          -0.0037552440149895006 -0.002845231822924177 0.0008401889633775639 -0.0033297824160305467 -0.0022287364460722436 0.002795139145340908
          -0.001185953595594924 -0.002473677335402158 -0.0039401310968631975 -0.000617749135214396 -0.00034863825593411946 -0.00019823620856040947
          -0.000931356942580841 -0.000042059297146401775 0.0017997155208773208 -0.0010552648895405525 0.00045372669040233404 0.0033262448439543846
          -0.0025777861980262884 -0.0011690182399544113 0.002803153622499721 -0.006152175504012369 -0.007350051361699528 0.0007034382769148806
          -0.0014080099510227484 -0.0025586382126903118 -0.0010878231391977522 -0.0010200446184347456 -0.0009776385781421482 0.0020669185761050812
          -0.0015949860518675862 -0.0013216427974773737 0.0034737563387743364 -0.0021073961120503526 -0.0015243441983043837 0.0044281898321729685
          -0.006088980647013464 -0.008425111735454571 0.0017837700754226304 0.0002483136196511637 -0.0016633034801163404 -0.0013378575978957308
          -0.00030903351152211656 0.0004018008882979984 -0.0025334269668402243 -0.0011999460814902108 -0.001073746062879799 0.0032249131027479727
          -0.0014091630711803305 -0.0015326136113054112 0.0007246177864050907 -0.0016305341717002264 -0.0013197720466391338 -0.0005299960481108812
          -0.0003610686437447441 -0.0033709695197563505 -0.002680425464980818 -0.00026043378254758665 0.00009391791809942873 -0.006548258468520807
          -0.004691508432615787 -0.004958457182621778 -0.005950844671847477 -0.001094782123836957 -0.006357510353725004 -0.003942837718299508
          -0.0023882940185977475 -0.010550825398147445 -0.006341476692064418 0.004360232813501064 0.0018266042628116708 0.0009863835807557564
          -0.007645123752364036 -0.012752121717245046 -0.003813849651226775 -0.0019994217565741934 -0.0010776146853990198 -0.003188762443701698
          -0.003749466843893323 -0.0015562570592213554 -0.000562152582959996 -0.006317588885273562 -0.006253403050495265 -0.001875012387301478
          -0.0018601711896906181 -0.0035268831174182225 -0.0017914628790416387 -0.00129823380176175 -0.0004343913135977928 -0.0026031206065972867
          0.00007493681719150658 -0.007330159337551212 -0.006420956120411603 -0.0024761601637566244 -0.0038450150485287438 -0.003319496484337492
          -0.0019017915386134732 -0.007048751996478586 -0.006769260540879785 0.000552867316625516 -0.0007775009084314277 0.00007394422718753901
          -0.0003235669316716816 -0.0006986582781065565 0.000022801186615684088 -0.0013791947473347221 -0.006332372802098085 -0.007343235729321496
          -0.001577463213452257 -0.005190305558273267 0.00035383749304768175 -0.007830821647367703 0.004624215114759522 0.0019010693323121552
          -0.0014051556803762466 -0.00273685544781177 -0.0033588006772173884 -0.004920182512178073 -0.005992868209515834 -0.0047252191587778825
          -0.00944729439457559 0.0010826653986404366 -0.00009308223236237367 -0.0031918166223992017 -0.003414930096302893 -0.000570941867135133
          -0.0013630553337855567 0.001234456101699699 0.0018085421688263104 -0.0010897038709709594 -0.002539291661675658 -0.0001159612962541301
          -0.004499358430316347 -0.0015295893740557842 -0.004003392942940054 -0.0009204912417253297 -0.001710976684748955 -0.0004110711701001968
          -0.0015095876318597101 -0.003963736959476272 -0.0037092828513816123 -0.00022537566831148936 0.000007724701690747793 -0.005913302296487011
          -0.00010505992980336387 -0.00007518403390371908 -0.00022466780408070264 0.000005043641269963928 -0.0041010399110690265 -0.004879513616839137
          -0.0013352262966561668 -0.0013718097134312046 -0.0022197715859801903 0.00010057391812035021 0.00036548860091301094 -0.0051085355897964035
          -0.005107523188916385 -0.00438881588046236 -0.0008674025262571661 -0.00028710221821448556 -0.00040145523118573223 -0.003899056179669902
          -0.0004505772655232221 -0.0007096760046803041 -0.007458645656651441 -0.00019578144719023527 -0.00014300049357807154 -0.006104103548922879
          -0.0002222319963531838 -0.00034550333683336376 -0.003287320774425506 -0.004339227383082012 -0.008260468321857672 0.0010961079216462721
          -0.0020922017801234816 -0.006642404646335365 -0.0006129258460907394 0.000060455491077249235 -0.0019364906215368904 0.0012799630317705812
          -0.0002985479686365977 -0.0014482582119743626 -0.0015150247805060246 -0.0035843274492890487 0.0035601936602027706 0.0011966521609227954
          -0.0024351390906196535 -0.0018397546205259907 0.004582141384362526 -0.0028715601219966302 -0.0020516992294394854 0.0047546999059595585
          -0.005957043919583516 -0.002983278378697385 0.0039003602082186006 -0.0002317528328537044 -0.0042256622461245286 -0.0011143260254176113
          -0.007873587253625303 -0.010947083476164465 -0.0006287950392458441 -0.00848015886561626 -0.012987033999845465 -0.005113395234605633
          -0.0032021787002527446 -0.002871012913558957 -0.009300868966935383 -0.00748611995434878 -0.004568190563507102 -0.000023734205884196058
          -0.0038590792539281438 -0.005495277821805367 -0.005358684564351179 -0.00699992308459052 -0.0010893816956842883 -0.0017643868495031967
          -0.001963397083351026 -0.0017801192188713344 -0.00539359903779868 -0.005460917645923047 -0.007937824430946705 -0.00688778721080574
          -0.0011510259427289782 -0.003667345979788905 -0.007831183082107174 -0.004667749051369796 -0.009403052832361425 -0.002496825731421737
          -0.0037579725422354215 -0.0014733065068357476 -0.005630195153232265 -0.00415261524903876 -0.0037431320936960333 -0.0035718930157564444
          -0.009434603938687225 -0.01463037740296258 -0.0027186657246272006 -0.006923746651652074 -0.005351387128388119 -0.010161569581222274
          -0.006621561450504743 -0.002847206779428735 -0.00008114296405459243 -0.004262892793083228 -0.002327170338257467 0.004753882733618653
          -0.0006762608912413981 -0.00234929466736844 -0.008189711304707359 -0.0003300786482105522 -0.00021984083299386725 -0.0005483849582255118
          -0.0003603469352846389 -0.008063770126654823 -0.012305256672464182 -0.00041594382850007605 -0.0011811775227563714 -0.008214599002934975
          -0.00021377729928140354 -0.00042721726390126946 -0.008348349328286986 -0.006330656614503383 -0.006352546642521162 -0.0017339385522614492
        </DataArray>
        <DataArray type="Float64" Name="resid_y" format="ascii" RangeMin="-0.9780053737442224" RangeMax="0.3761123913973975">
          0.000022602816104277945 -0.24824997615667263 0.0000684011916643884 -0.49803087396886603 -0.000008859397924554369 -0.2517747589926489
          0.0000036056033956288758 -0.22677814255247392 0.000004738887676436487 -0.4249099227216401 -0.00004631706356132692 -0.19718346009299753
          -0.00003813638236666028 -0.17856808668373136 -0.000020253239339948492 -0.32838670410592785 -0.000007994979590544848 -0.14894199811556202
          0.0000032688410816356095 -0.1006499826888338 0.000003606564555780345 -0.20242053257835774 -0.00004460853995134906 -0.10302259094854119
          -0.000024355129593884445 -0.027335447141330266 -0.000009492973868159994 -0.05682329556570957 -0.00008218303129302459 -0.03199009009835427
          0.000011650289414959214 0.08592431044797584 0.0035900220744696024 0.14895770089864946 0.0020747771444466073 0.0406354191751605
          0.00005667523532531735 0.19487596780561545 0.011582139471180121 0.3212001089404247 0.0035296673666700418 0.0564516181401056
          -0.000033482658390624614 0.24461092668237358 -0.000020912033839345923 0.3761123913973975 -0.000032720621320314613 0.09042814730812328
          0.0001587184216880616 0.00009458293617263525 0.00005208617998210541 -0.00005226457351339975 -0.000004195197375808646 -0.000058168543733222444
          -0.00009900624807820946 -0.000033353263950902656 -0.00007463389375025886 -0.00006408423176768041 0.00011871904098904179 -0.00008946486019455191
          -0.00007213106536488323 0.000050120195208159385 -0.0001819352247233912 -0.000016060015310506368 0.00008041475749657676 -0.0001660330763831458
          0.000028705218541986988 0.00012046559281669866 0.00010673357300980402 0.000045488502869294595 0.00005537255178243716 0.00007564324334352612
          -0.000001934283186774688 0.000040797848079934806 -0.00003084981681084065 -0.00006447013221931586 -0.000010808456277003331 -0.00007179110976175684
          -0.00008800907902406507 0.000017715246178051647 -0.00006184953732196741 -0.00009488080703694973 -0.00001536388157880042 -0.00009905617018392265
          0.000014604115738123605 0.00002887184869406617 -0.00006281179912653867 0.000010764979753039028 0.00017364703098567136 0.00007791190433240058
          0.00007040676794453637 0.00021074679353190462 0.00008808269390983559 -0.00004046200880819528 0.000047508150813696526 0.00012257237970991763
          -8.031526322060945e-7 0.000042210013312948824 -0.000010760538875359549 -0.00004575528197865719 0.00000790420728928598 -0.00007969704897684005
          -0.00008670243439959369 0.000010182559181629025 -0.00007182219234282139 -0.0001634773598089001 -0.0006393764742711402 -0.00026269456569315286
          -0.00010516234102694866 -0.00011921360316621832 -0.00023754257538502466 -0.00002895254345963716 0.00014985879112036637 0.0000023219445775546355
          0.00005289461078092361 0.0001743834597205951 0.00010339988396762534 -0.000012854783420335192 -0.000023355835856719853 0.00008186189498886332
          -0.00005193204539682972 0.0000040054206825040906 0.00000950683762998561 -0.000029618995620706023 0.00001785374386510663 -0.00003057507978324048
          -0.00006950481664715069 0.000033293067354278616 -0.00008713387627223845 -0.00011011448415378794 0.0006964270048871873 0.00005808495561293592
          -0.00001558060715917131 0.00037164383404439394 0.0001605831012617409 0.00001760937813619079 0.00022629910403931808 0.00008700922252724563
          0.00004834063712752523 0.00023728975713918632 0.00010480824813652312 -0.00004229564405985875 -0.00002389365481397787 0.00010334004662762575
          -0.00010712573605951847 0.00001672829718836477 -0.00011944484080270157 -0.00003694052971345285 0.00001195356194452768 -0.00009820705432296573
          -0.00007371263014040869 0.00001298959148651746 -0.0000810941541035115 -0.000005824848853322462 0.000048284661047670596 -0.00001809158307577996
          -0.000015492570499847647 0.0002435429891209373 0.00006320042281771077 0.00002847414556750305 0.00025839365144597615 0.00012360513014769703
          0.00007815806353944632 0.00023647054975350912 0.0001416280241524348 -0.00010739695724695797 -0.00009226962177111275 0.0001554486994460591
          -0.000005109800898184247 0.00006908844485220555 7.899543666978204e-7 -2.365773619505962e-7 0.00002552929749660704 -0.00011811754675686292
          -0.000006139196851245865 0.000007225771216839982 -0.00009516091800361448 -0.00010005437048341004 0.0000523918819355651 -0.00003599440383689201
          -0.00008556328949255176 0.00019483045114601638 0.00004911886006631061 0.00003741007846652655 0.00021238103643672623 0.00009197488005374677
          0.00006880252473995263 0.00022752555988675427 0.00016798535626955102 0.00011857545965085481 0.00028679076039939133 0.0002460624860867733
          -0.00003879606905438093 -0.000020393236625337874 0.00029136545344954357 0.0000026205949291147057 0.00005907985857123155 0.00001090612705414995
          -0.000009780306529122429 0.000030364639295121787 -0.0000829001173961591 -0.000013784508776648607 -0.000548786548296154 -0.00024100546028210657
          0.000015292064536959193 -0.00007354659685773757 -0.00007473016894327111 0.00005130456285284968 0.00019518985469940686 0.000013097905387282616
          0.000057008688612081304 0.00020526049279828706 0.00012457018832556788 0.00009007972010927068 0.00018446518887993424 0.0002021905357131315
          0.0002020981899814034 0.0003134731631408427 0.00031825832235160556 0.00005806381672274208 0.00003330049909966437 0.00039181718854464087
          -0.0001084021803961499 -0.0000968660812645794 -0.00003082246190791449 -0.000010186987947857773 -0.000007816412610939238 -0.00004899035447764044
          -0.00005425168713174555 0.0005817582781083852 0.00011509587839750313 0.00006303288449721611 0.00039812467400152096 0.00011562754116511975
          0.00009884604486093407 0.0002677740182234212 0.00015228521165328024 0.00008714451281433 0.00021380011191901582 0.00017151669729764674
          0.00010454594640979531 0.00011586062793866869 0.00021115485473777174 0.00024551875764577957 0.00024719983468263207 0.00032849086448122344
          0.000090487897835001 -0.000008007376392227261 0.00040537496249171134 -0.0000841977747591538 0.00001960070431000771 0.00004698578896172867
          -0.0001328718936541018 0.00004380719197857874 -0.000013038225465000775 -0.000044629123344852584 0.00009802983480400318 -0.00008616013421791635
          0.00009254445944550937 0.000206044852849252 0.00006213899197038408 0.00013176159300692936 0.0002828200727063024 0.00020324597530552158
          0.00011609341021096009 0.00020223981487393905 0.00022820520216126905 0.00009530679978098089 0.00003217842158059758 0.00023757421966807968
          0.00022744990250070374 0.00008956661759082496 0.00032323627188382553 0.0000806742390700721 -0.00012416642096702013 0.00047095906609948
          -0.0000054996271954127485 0.00006133525961588004 0.00007463979675081944 0.00011785518870999212 0.000053144173348812496 0.000028118794733522634
          0.00014639249269121635 0.00020985929649142143 0.00009096258185292694 0.00015651353265255796 0.00033232389183940336 0.00020048830229552062
          0.00011808157663661945 0.00024085725456346463 0.0002292774648378626 0.00011068983869394478 0.00007840567428502032 0.0002336367302472886
          0.00016766729925116186 -0.000010317097884571247 0.00031246910135795947 0.0003599532243025172 0.00020156669491094847 0.0005331931616531782
          0.00033501774976890664 0.00023024306049347978 0.0009016070359561951 0.00004300380252376945 -0.00047917952137102593 -0.00003146857441480022
          0.00011918720793371862 0.00005526722644488835 0.00012971700381869677 0.00021353565399268026 0.0003726728663033807 0.000250917498190395
          0.00019222381255556975 0.00030591508131572187 0.0002396204525021428 0.0001418175645296893 0.00010522626133185886 0.00020580321624741327
          0.00011624862357956234 -0.0000675732841381449 0.00022676866695159337 0.00017313635127902405 -0.0001640131203523576 0.00033464784773457046
          0.00032741575540054524 -0.00009427289733271449 0.000537593967087524 0.00042105313935975747 0.00005122721790517398 0.0007530763236493834
          0.00022091169262861143 0.0009403773699679929 0.00042200712473691726 0.00025299867558764566 0.0005639325200466616 0.00034720910248109416
          0.00029115407196023124 0.0004686101510497642 0.0003293503678728493 0.00018057774831803375 0.0002490860855223209 0.00025546639214146794
          0.00008949564700982959 -0.000044274657551524044 0.0002112267686326108 0.0001024340040566285 -0.00022932488272170426 0.00025322168732677675
          0.00023915580138955672 -0.00027856986558799646 0.00042259576528949627 0.000595973040898326 0.00016339106616558574 0.0008929055027729199
          0.000631186137023329 0.0003324900753223503 0.001140623637225724 0.0005022994990442897 0.0008539683440178525 0.00042731377895993683
          0.0004065876403838986 0.0006459385570677934 0.000371976514712713 0.0002632018289145943 0.00036758708334716506 0.0002865262172194738
          0.00013341100487618274 0.00007918811044427265 0.00023370947643863715 0.00009346838074014707 -0.00020829696975011025 0.00024970807393426275
          0.00015013639526562095 -0.00034182662549447906 0.0003490668898447069 0.0003615142599048826 -0.0002893228422394811 0.0005896247490541628
          0.0008092118898852529 0.0002077079791484339 0.0011198778446523706 0.0008146449278402957 0.00032646596786776484 0.0013593817538236248
          0.00029624807853984025 0.00043086487489341074 0.00026278130070481187 0.00017809664574142126 0.000217659555803551 0.0002509644088630747
          0.00010771371226669935 -0.00009480506242431908 0.00026123590302817856 0.00015128477262121853 -0.00031540151259956684 0.0003358211125725763
          0.0002595005523017835 -0.00041790178045608695 0.0004531403788053945 0.0005150758881117684 -0.0003401338664178605 0.0007042617650308974
          0.0010883000717883048 0.0003695289575263022 0.0013392631710897052 0.0011562514289361059 0.0006281590764805611 0.0016813506662161637
          0.0003057456223380939 0.0005612166348418768 0.00035751437938413844 0.00016125719634352276 0.00012333938368846997 0.00030250228149997227
          0.00011635849636654205 -0.00023476634716701472 0.0003301907079251154 0.00023873790055667365 -0.00037220435473167557 0.00043921620163717146
          0.00038912081097908224 -0.000397073186326119 0.0006058101185276166 0.0006338970754831419 -0.00034985171383531376 0.0008451906636961076
          0.0011177214101730643 0.0001465783858827785 0.0013893720183310587 0.0014779033109004747 0.0010232213747026209 0.0021436279435672057
          0.00033939575024899415 0.00060346628392971 0.00041120313884535076 0.0001352864216109806 -0.00005021605130284268 0.00037110609839241526
          0.00017096802135652123 -0.00041123556806066386 0.000391415474560064 0.00034766539236896765 -0.00046430709734046616 0.0005446221999106382
          0.0006214075414402859 -0.00029573854979277753 0.0008251082129050111 0.0009694143533267169 -0.00005682620861900689 0.0011520142895326269
          0.001263026093759112 0.00011497894814049836 0.0015962872741603351 0.0010574195954631826 -0.00011177304702583712 0.0018649780106759772
          0.0006828528115669918 0.001053609471401984 0.0005812185455937868 0.00026145686524740863 -0.00005308198603262704 0.00048438174363057973
          0.00027028528773365146 -0.00057256376185566 0.0005052597394601954 0.000517874236972804 -0.0004929987811675973 0.0007107005227599966
          0.0008513390121820952 -0.0001786647632004562 0.0010887829188842013 0.0012691207271490201 0.00015017195463398747 0.0014503226944777847
          0.001717660845738933 0.000715666730131792 0.0021534598283147743 0.001696866276261838 0.0011380258713838964 0.0023929672165089455
          0.00022917260513338755 -0.0004957367608714458 0.00031571173228811533 0.0003064765262721092 -0.0005979865352136737 0.0006583837522943503
          0.0007476784441867897 -0.0003499171463015281 0.0010169960227647407 0.0011210039306194797 -0.00007713983623236498 0.0013866810631338877
          0.0014826120137695908 0.00015889806153662756 0.0017107729395088866 0.0019402452058616682 0.0008701413447553263 0.0025589799075079744
          0.001304149996936288 0.0004235351426817857 0.0023015949126451996 0.00028322050333240423 -0.0001798349832052848 0.00044237345552317064
          0.0005542637679741003 -0.0005071454754729254 0.0008714580382306533 0.0010404950704899496 -0.00013878286319393696 0.0013926862529538009
          0.0014760423962585922 0.00012082132043822469 0.0017822469732908797 0.0017894874108749792 0.0002864749239284148 0.00206005348914029
          0.0022137570580082477 0.0009201968128340066 0.0027402622800068444 0.003193292019242344 0.003728026784689642 0.0035290711352770066
          0.00044662261360550737 -0.00013857397308558728 0.0007695986063956384 0.0008147039346419749 -0.00043652330995980204 0.00104994840559694
          0.0013889565248724756 0.00011820735792683612 0.0019007679456249926 0.0019345307678236279 0.0005283124844194242 0.0022960404759023723
          0.002121840683511511 0.00040795759322176384 0.00230323438930935 0.004101194499139593 0.0044863746296623375 0.003553325169937227
          0.0019288574312341378 0.0018676846658257085 0.0006651256187049648 0.0037028184122659402 0.0051578864609233 0.002963282138305101
          0.005471165376486509 0.007616674432831205 0.0046590762915569295 0.006414186742991768 0.009195282900127721 0.00526480982921107
          0.005790455597245003 0.00795839896839945 0.004338279545219703 0.00019031232241845802 0.00020579931186062717 0.00036359046063077355
          0.0012368993996706434 0.0004825845790951966 0.00009944651327745135 0.0010146712523511 0.0038803358973975577 0.0022769135270805166
          0.001990325796801279 0.0021677776374791485 0.00357489748568085 0.00011889692118399742 0.00012139329211440647 -0.000026148091608127477
          0.000010548789643183287 0.0004653005864797555 0.00019257856227582887 -0.00010989244522049274 0.00015144751931606137 0.0006160515446969606
          0.000303287354890977 0.00041060890409453515 0.0005924521222641088 0.0004463502627202187 0.004127514841384683 0.0007034193666099475
          0.0007563220889561517 0.008348568193921158 0.0008854965454334895 0.0012087726638959073 0.004886465271377816 0.0017148240094840006
          0.0037426834679358256 0.005803860097298386 0.003495128227215427 0.0010198896770372279 0.0003130262122476163 0.0010641621214022706
          0.002936511780845086 0.00034894486307962547 0.00014432517624034247 0.0021342732188340124 0.0031661641582166056 0.0009465042535634904
          0.0004908758466549701 0.001350212345488211 0.002013092678934958 0.00041496060442930416 0.0001101182208647633 0.0002562826172965438
          0.000030794150090607264 0.0003563861661465273 0.00038396875864743496 0.0013388454225537472 0.0006831022039038848 -0.00018305050262804046
          0.0014880706282651146 0.0019604511746650344 0.001703677114818225 0.001739558963583826 0.0025762895323029333 0.0028206395065780154
          -0.00008116376009009718 0.00007936292424359781 -0.00016253529504650643 -0.0001302341994878775 0.00020920887246905773 0.0000997087228647997
          0.0018172311278489284 0.0023503596579062813 0.0008377151987281062 -0.00007755007680632087 0.0024218805777799224 0.0012820581495015526
          0.0006548526716640274 0.001176017451397865 0.00086441234107619 0.005317162846598084 0.006030011172537708 0.008543766958648294
          0.008972007737855794 0.0050672383105563185 0.004741991032107748 0.004195043971148893 0.004164986705420412 0.004200233513924734
          0.0040450233557627335 0.003352647866337377 0.0028717273247887073 0.0008883707061839094 0.0012733490092892777 0.0008255136000981517
          0.0012682209324453766 0.0006530378429787792 0.000996751027092499 0.00033073059785604375 0.0004995774847660617 0.00005870812709146689
          -0.0004180536464922502 0.00041977036696103087 0.00021004057256574643 -0.00001874651211125622 -0.000030478516944432155 0.0002430342236826033
          -0.00010315894223383859 -0.000010445881311632599 -0.00019107008367186262 0.000004936378252357043 -0.0000187841449640902 0.00014972545791824832
          0.0008428652919134083 0.0006323836233823876 0.00047445188946401706 0.0001412341531317196 0.0002729045965635668 0.0002777070203255627
          0.003370861182731638 0.003770774802548865 0.002560064341232321 0.0002659109153154704 0.0005475884075517023 0.00028343932419480633
          -0.000025702137035205075 -0.00016717282091388563 0.00011906754351931337 0.00005655439295465525 0.00005779912116199437 0.00021156179020426213
          0.00018227181101346246 0.0003141575393530438 0.00023572841963659386 0.004891847765884472 0.005736108406040941 0.003246825716538365
          0.0011636933035434338 0.004896988161713911 0.005526363547513291 -0.0005746899687045781 0.0016889173484684328 0.003946910714556162
          0.0025627310576724627 0.0021677895689450055 0.007217339593191374 0.005847041659860053 0.005054585235227171 0.004011598752372003
          0.0043832005793924544 0.009993167077973819 0.006687180826751016 0.005243271246777037 0.011553303053595254 0.007783105176827676
          0.004830821983214717 0.008829303577189807 0.00671842750275764 -0.0004590960179189918 -0.00008516290207183363 0.003176654461280237
          0.0007385679562583181 0.002834957900219731 0.005590345602917324 0.0018739870385283686 0.0029201216617966153 0.00405842992502603
          0.001748436976080469 0.0034850317711420664 0.003607846396196948 0.008541157655657883 0.0021548617387378427 0.005013110337603599
          0.0015341196002027213 0.0024472317214517536 -0.0011599272104384495 0.0012349416314533512 0.0016731823915276112 0.0025801735138342163
          0.0008742652506560367 0.000004735287114088216 0.0007647292403304418 0.00012824161050006833 0.0011094024374208866 0.0011621844766691591
          0.00012228417911402945 0.0005757444596875549 0.000761931965693019 0.0008196488267584179 0.001003976017784125 0.0014724714094876967
          0.001956364417667479 0.0003614313669052932 0.0026878315966161193 0.00012577183121612046 0.002067614215613328 0.0013805053211010943
          0.007670884432303626 0.009907431863926536 0.006207592841048826 0.009294459209627237 0.007292469642985688 0.013540865500928367
          0.010790970611631812 0.007058778534362653 0.005694629321113642 0.0037541589620829208 0.00418386503124657 0.002952385190181206
          -0.00016173913828598785 -0.00020930562425280907 0.00023938270915968562 -0.4569315409737482 -0.00038430231237540635 -0.9780053737442224
          -0.0007637333318861739 -0.5994683174046588 -0.0002055150391070959 -0.00012830337544827985 -0.0005592576959505546 -0.00005348491676282485
          -0.00018276173738879242 -0.0003738094955248461 -0.000016575359735232498 0.0010396942425800748 0.0009951954050673728 0.003739029287382345
        </DataArray>
        <DataArray type="Float64" Name="resid_z" format="ascii" RangeMin="0" RangeMax="0">
          0 0 0 0 0 0
          0 0 0 0 0 0
          0 0 0 0 0 0
          0 0 0 0 0 0
          0 0 0 0 0 0
          0 0 0 0 0 0
          0 0 0 0 0 0
          0 0 0 0 0 0
          0 0 0 0 0 0
          0 0 0 0 0 0
          0 0 0 0 0 0
          0 0 0 0 0 0
          0 0 0 0 0 0
          0 0 0 0 0 0
          0 0 0 0 0 0
          0 0 0 0 0 0
          0 0 0 0 0 0
          0 0 0 0 0 0
          0 0 0 0 0 0
          0 0 0 0 0 0
          0 0 0 0 0 0
          0 0 0 0 0 0
          0 0 0 0 0 0
          0 0 0 0 0 0
          0 0 0 0 0 0
          0 0 0 0 0 0
          0 0 0 0 0 0
          0 0 0 0 0 0
          0 0 0 0 0 0
          0 0 0 0 0 0
          0 0 0 0 0 0
          0 0 0 0 0 0
          0 0 0 0 0 0
          0 0 0 0 0 0
          0 0 0 0 0 0
          0 0 0 0 0 0
          0 0 0 0 0 0
          0 0 0 0 0 0
          0 0 0 0 0 0
          0 0 0 0 0 0
          0 0 0 0 0 0
          0 0 0 0 0 0
          0 0 0 0 0 0
          0 0 0 0 0 0
          0 0 0 0 0 0
          0 0 0 0 0 0
          0 0 0 0 0 0
          0 0 0 0 0 0
          0 0 0 0 0 0
          0 0 0 0 0 0
          0 0 0 0 0 0
          0 0 0 0 0 0
          0 0 0 0 0 0
          0 0 0 0 0 0
          0 0 0 0 0 0
          0 0 0 0 0 0
          0 0 0 0 0 0
          0 0 0 0 0 0
          0 0 0 0 0 0
          0 0 0 0 0 0
          0 0 0 0 0 0
          0 0 0 0 0 0
          0 0 0 0 0 0
          0 0 0 0 0 0
          0 0 0 0 0 0
          0 0 0 0 0 0
          0 0 0 0 0 0
          0 0 0 0 0 0
          0 0 0 0 0 0
          0 0 0 0 0 0
          0 0 0 0 0 0
          0 0 0 0 0 0
          0 0 0 0 0 0
          0 0 0 0 0 0
          0 0 0 0 0 0
          0 0 0 0 0 0
          0 0 0 0 0 0
          0 0 0 0 0 0
          0 0 0 0 0 0
          0 0 0 0 0 0
          0 0 0 0 0 0
          0 0 0 0 0 0
          0 0 0 0 0 0
          0 0 0 0 0 0
          0 0 0 0 0 0
          0 0 0 0 0 0
          0 0 0 0 0 0
          0 0 0 0 0 0
          0 0 0 0 0 0
          0 0 0 0 0 0
          0 0 0 0 0 0
          0 0 0 0 0 0
          0 0 0 0 0 0
          0 0 0 0 0 0
          0 0 0 0 0 0
          0 0 0 0 0 0
          0 0 0 0 0 0
          0 0 0 0 0 0
          0 0 0 0 0 0
          0 0 0 0 0 0
          0 0 0 0 0 0
          0 0 0 0 0 0
          0 0 0 0 0 0
          0 0 0 0 0 0
          0 0 0 0 0 0
          0 0 0 0 0 0
          0 0 0 0 0 0
          0 0 0 0 0 0
          0 0 0 0 0 0
          0 0 0 0 0 0
          0 0 0 0 0 0
          0 0 0 0 0 0
          0 0 0 0 0 0
          0 0 0 0 0 0
          0 0 0 0 0 0
          0 0 0 0 0 0
          0 0 0 0 0 0
          0 0 0 0 0 0
          0 0 0 0 0 0
          0 0 0 0 0 0
          0 0 0 0 0 0
          0 0 0 0 0 0
          0 0 0 0 0 0
          0 0 0 0 0 0
          0 0 0 0 0 0
          0 0 0 0 0 0
          0 0 0 0 0 0
          0 0 0 0 0 0
          0 0 0 0 0 0
          0 0 0 0 0 0
        </DataArray>
        <DataArray type="Float64" Name="stress_zz" format="ascii" RangeMin="-5277602.428828179" RangeMax="6217729.293185034">
          -77789.38193124843 -161585.59727925452 -45833.3480943798 -93062.26464441429 -13877.31425751117 -24538.93200957403
          44731.37278673189 75975.91753911809 23736.54187750373 42478.85660165966 2741.7109682755668 8981.795664201236
          26733.65289966297 53584.61246156244 13691.17793056323 34198.638020093145 648.7029614635103 14812.663578623855
          -9961.009877898963 -161677.57773021772 -12774.758536090892 -122112.35175252004 -15588.507194282818 -82547.12577482239
          137579.92523596797 417582.80057729996 100562.98747679761 363345.65594444 63546.04971762722 309108.51131158
          -1496932.3304329575 -1288871.1639341454 -1502369.2984761419 -1292078.8786472417 -1507806.266519326 -1295286.593360338
          -1428633.3331359208 -1989233.0107264319 -1560857.39115206 -2084684.9743653913 -1693081.449168199 -2180136.938004351
          -2295837.5231539253 -3553870.8232006393 -1745131.8547950173 -3214668.0152635993 -1194426.1864361097 -2875465.2073265593
          3950.3579392596544 1327.498034276483 -1295.3618707066883 -1415.243737129731 -1524.803848404095 -1634.3639596784592
          -10927.239092694996 -19343.26447602673 -27759.289859358454 228108.4121179535 167862.6063419995 107616.80056604547
          -638021.6448620049 -627227.7315522931 -616433.818242581 -2070434.7584417644 -2066205.5336917746 -2061976.308941785
          -716097.7879693541 -868731.7958841464 -1021365.8037989385 96525.33663070196 453153.4551807137 809781.5737307253
          -2611.4683686605294 -1851.4019056773595 -1091.3354426941905 -19753.49093500608 -14341.33992545797 -8929.18891590986
          49109.28310957894 28972.577103788462 8835.871097998002 155312.0860563098 73414.80062497145 -8482.48480636689
          -1588252.3291463389 -1501487.4182540237 -1414722.5073617084 -2532679.4760746667 -2502220.9709335817 -2471762.4657924967
          -163175.16099041395 -319776.7769555069 -476378.39292059967 1680476.1186422047 1640453.1507207402 1600430.1827992764
          -10454.95285701326 -5786.49750123128 -1118.0421454492966 -18228.09195068652 -23788.59241521706 -29349.092879747597
          222408.33482835355 172161.06261495978 121913.79040156599 -547278.8456039322 -609112.0850322614 -670945.3244605908
          -2503334.9219064806 -2349022.318344348 -2194709.7147822143 -2239685.258087608 -2246304.6593454424 -2252924.060603277
          605799.1584023858 437024.58884946676 268250.019296548 1994266.8473107037 2134339.4093905278 2274411.971470351
          -20153.556678443365 -16226.733947388122 -12299.911216332875 69795.59721504607 46878.08040070044 23960.56358635481
          124051.16197532635 48222.05671257057 -27607.048550185234 -1568104.6268468846 -1562473.9168078552 -1556843.206768826
          -2947258.710806879 -2757292.255730486 -2567325.8006540937 -1532680.6970312304 -1628662.0444466393 -1724643.3918620478
          991171.7237981744 838475.9159585431 685780.1081189117 1962359.2795824693 2271506.808839804 2580654.3380971383
          -6880.019166057598 -15469.707537729935 -24059.395909402265 212318.5647500659 158231.99379144123 104145.42283281656
          -694159.6182626679 -735596.7224912214 -777033.8267197749 -2480342.694080736 -2403566.449583723 -2326790.2050867113
          -2592476.501805753 -2427962.350181624 -2263448.198557494 -1057440.4346779478 -1201670.9367970908 -1345901.4389162338
          999245.3730067641 874125.7064904367 749006.0399741096 2063880.5109642034 2379745.3705137526 2695610.2300633015
          -29248.790619473017 -28668.11997522813 -28087.44933098324 117751.82152777587 88401.11399085124 59050.4064539266
          -35683.31810829742 -112677.69853326627 -189672.07895823513 -1812105.212693215 -1789752.476993249 -1767399.7412932832
          -2859263.347956038 -2753731.2787764673 -2648199.2095968965 -1988420.9049095619 -1889270.3486854006 -1790119.7924612388
          -661383.2371677808 -813490.9390264425 -965598.6408851041 1113990.276611295 1024605.9194117673 935221.5622122395
          1934675.0011085165 2274346.364896771 2614017.728685026 -3143.6883656502614 -16770.988093425323 -30398.287821200385
          232822.80951122235 169618.73510592995 106414.6607006375 -971483.2170129274 -997580.6063151777 -1023677.9956174283
          -2758434.634313057 -2666763.7331166794 -2575092.831920302 -2566589.7986862897 -2489985.4008898237 -2413381.0030933577
          -1516145.6104281622 -1453168.8437967638 -1390192.0771653657 -130464.47175069543 -273731.0089252842 -416997.546099873
          1512004.2622942356 1443326.5519617647 1374648.8416292937 2013214.647219985 2357631.8372092014 2702049.027198418
          147463.17893843245 111966.11144423015 76469.04395002786 -152657.31328026357 -238596.7212104391 -324536.1291406146
          -2143982.0944263656 -2105037.919328316 -2066093.7442302674 -3134860.2321981145 -3014482.487427366 -2894104.7426566174
          -2109536.5190735348 -2078581.8804546036 -2047627.2418356724 -1050821.376665523 -1001826.8665640091 -952832.3564624952
          455708.0316773604 300788.24018624227 145868.4486951242 2171450.7280729967 2090337.102950333 2009223.4778276696
          2680775.152509694 3000743.773576658 3320712.3946436225 252425.5180990498 176322.46969036545 100219.42128168116
          -1205858.3680186316 -1232956.0378406683 -1260053.707662705 -3166492.466504544 -3056737.7496702075 -2946983.032835871
          -2829244.7609319775 -2751572.462333868 -2673900.1637357585 -1609237.3638906959 -1603306.3373309507 -1597375.310771205
          -377924.61184081994 -348783.0170132025 -319641.42218558496 1094174.732198208 955874.67352946 817574.6148607119
          2657491.454021344 2600470.059211019 2543448.664400695 3401595.8587856106 3602739.058976816 3803882.2591680214
          -190374.76347936626 -292979.7479735359 -395584.73246770556 -2478314.3318651356 -2430090.469989916 -2381866.6081146956
          -3602620.861155504 -3454323.5950698806 -3306026.3289842573 -2328827.524717303 -2299662.7940666704 -2270498.0634160377
          -938120.8880737143 -943959.2229881424 -949797.5579025703 433297.98145041894 438394.207877498 443490.43430457695
          1705483.7323109263 1629469.4554823118 1553455.1786536975 2409142.349666074 2386507.568126719 2363872.7865873636
          3527228.716067211 3646233.8373087845 3765238.9585503577 -1344348.38349374 -1386124.5552371966 -1427900.726980653
          -3692473.8779171193 -3563745.013484423 -3435016.149051727 -3293939.9781901487 -3193166.952705838 -3092393.9272215273
          -1694117.6353780765 -1698692.9187415661 -1703268.2021050558 -113960.8936271678 -128218.81299308561 -142476.73235900342
          1172267.1141455912 1164002.1391435296 1155737.164141468 2067142.3982350167 2013335.0763947782 1959527.75455454
          2583277.603288028 2525754.1618974083 2468230.7205067887 3620852.616685148 3732909.76051919 3844966.9043532326
          -2740256.6590878535 -2697118.5259190104 -2653980.392750167 -4330151.141064671 -4147946.9514994193 -3965742.7619341677
          -2693884.3144312133 -2649907.3485300173 -2605930.38262882 -859567.9564588559 -879888.6199457652 -900209.2834326746
          768081.2904541548 745498.3959771683 722915.5015001819 1884668.3566184072 1865730.2954571012 1846792.2342957957
          2492811.1620721444 2449828.427700428 2406845.693328711 3030631.8208561223 2979572.425615845 2928513.030375567
          2579089.9785790094 2619715.197451065 2660340.4163231207 -4199718.230500754 -4066145.5594404405 -3932572.8883801256
          -4056535.378046315 -3914340.916358688 -3772146.4546710607 -1884202.947139552 -1888032.6138467507 -1891862.2805539495
          126056.56516289295 96126.08279237128 66195.6004218497 1657911.964583245 1626800.344446628 1595688.7243100104
          2630793.7604879998 2605100.6253975686 2579407.490307137 3094119.5310002053 3069712.3404884776 3045305.149976749
          2925767.109944557 2891764.460000377 2857761.810056198 2484648.9813734004 2504295.9204670605 2523942.8595607206
          -3327296.560399109 -3227349.8309413474 -3127403.101483586 -746534.6646570807 -789295.9065559854 -832057.1484548902
          1238053.5276540774 1197377.981547813 1156702.435441548 2507427.184770484 2473941.9865256804 2440456.7882808773
          3229544.4753683684 3197149.139883899 3164753.8043994303 3533145.468922901 3509587.8090528427 3486030.149182786
          3170712.124982085 3158289.5958790495 3145867.0667760135 1506684.0902746366 1617736.899883335 1728789.7094920333
          -2346978.0478885286 -2235570.8075941433 -2124163.567299758 683940.7406509514 596434.1520426001 508927.5634342487
          2436048.8936040937 2387489.694717367 2338930.49583064 3317250.208665076 3287034.8568009166 3256819.5049367566
          3607059.7438312764 3566242.1079969117 3525424.472162547 3472566.956220227 3447875.396941768 3423183.8376633096
          2938535.146907126 2962696.858913428 2986858.57091973 1634837.6618838194 1796297.381497154 1957757.1011104882
          -1014698.9694522258 -837026.401386281 -659353.833320336 2226220.8035079045 2087791.4452791773 1949362.0870504505
          3575316.4502985417 3525730.523987008 3476144.597675474 4039934.1091593113 4012472.9925204357 3985011.875881559
          3878850.0647090627 3830119.1490196846 3781388.2333303075 2951244.964238501 2980427.309705811 3009609.655173121
          1210807.9825564243 1313243.9760480141 1415679.9695396032 637907.0818412462 548933.4157890085 459959.74973677064
          567586.2778800059 853788.7666768164 1139991.255473627 3690367.4755233494 3506384.4151057405 3322401.3546881313
          4503787.428251436 4457219.994204276 4410652.5601571165 4495622.64096165 4471788.024627868 4447953.408294086
          3881600.1556178723 3822901.1410418837 3764202.1264658947 2264515.2910827864 2382916.891599437 2501318.492116089
          -805425.8433324916 -590944.2723694815 -376462.7014064713 -2447795.8989396896 -2830056.4132934734 -3212316.9276472577
          4920966.145914435 4702561.505849605 4484156.8657847755 5122488.751720764 5077117.367816802 5031745.98391284
          4534387.689791494 4518567.449582221 4502747.20937295 3412483.216325207 3343212.319982941 3273941.4236406735
          1368778.6751659936 1528053.39398412 1687328.1128022466 -1601827.5606915993 -1459461.200002822 -1317094.8393140447
          -2440979.840701685 -3016499.749174413 -3592019.6576471413 5794436.898754798 5551797.512442649 5309158.126130502
          5357532.188934438 5305400.156394985 5253268.123855531 4161308.882189016 4150774.287787732 4140239.6933864476
          2642481.375525832 2562102.1944471076 2481723.013368383 578923.8834547658 762783.2274008644 946642.5713469629
          -1530643.4071350307 -1525994.1196150512 -1521344.832095072 -1817276.4382124036 -2378633.678759631 -2939990.9193068575
          6217729.293185034 5960325.77850076 5702922.263816485 5171093.602352053 5097272.046125444 5023450.489898833
          3480084.7001922107 3463137.9168427037 3446191.133493198 1782929.064346534 1695679.7604737997 1608430.4566010656
          -106907.1333197045 92944.84734534976 292796.828010404 -1919643.7620713045 -1968841.9241321061 -2018040.0861929075
          6078469.423202268 5829215.710786105 5579961.998369943 4477056.196258617 4383470.215270821 4289884.234283024
          2427176.2929349933 2408033.439330713 2388890.5857264325 659513.5395896859 582798.1261784422 506082.71276719845
          -1139920.5817787359 -955107.1931714361 -770293.8045641367 2424617.5831686007 1219649.9819026818 2147085.112335233
          1939197.9632263088 2235008.364643584 1205003.3576166525 2199154.8780484395 1820018.876210399 2045399.1461185669
          1190356.7333306235 2251224.6437616455 1700839.7891944884 13018.262161578983 -659273.2373685024 1512957.0634744333
          965011.8542387971 -307222.8693611376 -1009401.1637082871 1401503.1859837035 890394.8450468773 -627464.0008838542
          -1359529.0900480717 1290049.3084929737 815777.8358549576 1678462.5260866145 -1421296.5259949109 -2388427.4075919576
          2004584.7620868168 -1333209.8661235364 -2875275.245678956 2330706.998087019 -1245123.2062521623 -3362123.0837659547
          4456566.562430005 5012244.385580603 5567922.208731202 1997005.8984249365 3842040.956435946 2249081.7274849205
          2869645.586756926 2028126.6865979214 3977045.1664319127 2119216.3353039958 2708369.2826607637 2059247.4747709066
          4112049.376427879 1989350.943123071 2547092.9785646014 659126.9920573086 1411892.875744529 401196.6406759907
          1369306.2149457866 143266.2892946729 1326719.5541470442 4219168.481518782 4233128.500321764 993271.9952118206
          4293738.022881237 4476677.102863698 1156677.5906887914 4368307.564243692 4720225.705405634 1320083.1861657617
          1390728.6658021458 -549493.5331725688 1363007.4430361679 -762095.5952195628 1335286.2202701897 -974697.6572665566
          201401.2792994827 -270286.0251074765 -26203.21901818812 -217655.01658571418 -253807.71733585914 -165024.00806395191
          226223.03025445287 161008.4476347432 95793.86501503352 3145154.8357792543 4000416.817838303 3001002.683420035
          4091328.8952402803 2856850.531060816 4182240.972642257 -1075107.1642701868 -1445706.6767209517 -1193331.20135432
          -1965385.8356760803 -1311555.238438453 -2485064.994631209 4053742.063214261 1481642.8106633474 4227599.033416909
          1480689.3520720284 4401456.003619558 1479735.8934807098 2535248.7404285762 1780348.4531928771 2370369.101771667
          1700783.6004632553 2205489.463114759 1621218.747733634 725916.1880078356 826794.9199578436 927673.6519078515
          -279792.84207363415 92663.0594406072 -46137.593827289995 479792.6577971864 187517.65441905404 866922.2561537655
          385442.0241800817 16399.64408546008 -352642.7360091615 -2608295.1863851296 -2211176.4747821637 -1814057.7631791981
          -1896069.7441689298 -2653667.1221335637 -3411264.5000981987 -5277602.428828179 -4420465.638815153 -3563328.8488021293
          -1999273.5388710678 -2125119.0854684687 -2250964.6320658703 -2962813.2000824483 -2581599.6511126063 -2200386.1021427647
          -2989690.0989922285 -2503748.9197343066 -2017807.7404763855 -2816230.8681525826 -3229353.91406426 -3642476.9599759374
          -2905684.8136869 -2968003.582668512 -3030322.3516501244 -3847395.374220723 -4190510.7958553974 -4533626.217490072
          3123119.319460822 5223552.618522779 3014126.1094864598 4997924.891644576 2905132.8995120986 4772297.164766371
          830115.7684131588 809846.187293104 789576.606173049 -893981.4068068229 -952531.9564857637 -1011082.5061647044
          -2381197.7496576584 -2215672.778096849 -2050147.8065360403 -3533817.860822554 -3577012.0543498495 -3620206.2478771443
          -276298.1737294138 116344.61264616139 508987.3990217365 600619.2356148262 794251.6905094461 987884.1454040657
          1293149.4700506544 3671630.380434574 1063388.8983989917 3599697.6628449573 833628.3267473285 3527764.9452553405
          -980430.9318609105 -3254793.3672985453 -1020729.8112365853 -3300822.9379883157 -1061028.6906122603 -3346852.5086780866
          19941.786437090894 -461236.55675970984 100223.00490605077 -424730.48444846383 180504.22337501065 -388224.41213721794
          -594637.3137646351 -561651.1826672703 -528665.0515699054 -3426488.21043432 -3435219.355138724 -3443950.4998431285
          794058.9560165686 408586.36453883804 678847.1633226518 315553.2948326756 563635.3706287349 222520.22512651322
          2283891.3267287333 2345372.0771978283 2406852.8276669234 2037375.0881551178 3918656.27373197 2086475.587435666
          4089019.668290764 2135576.086716214 4259383.062849558 -1732384.6427183761 -1351066.7867184093 -969748.9307184429
          -1979666.2285076517 -1949560.2558492515 -1919454.2831908516 -3711747.1140980814 -3891614.1190903513 -3636220.3199676983
          -4083130.9298396474 -3560693.5258373152 -4274647.7405889435 -3118802.3412400195 -3171040.3092022436 -3223278.2771644676
          -4803298.785037301 -4938366.182102792 -5073433.579168284 -1071559.3691765647 -811327.0824966184 -551094.7958166719
        </DataArray>
        <DataArray type="Float64" Name="peeq" format="ascii" RangeMin="0" RangeMax="0.006220107053627795">
          0 0 0 0 0 0
          0.000003116380389817518 0.000006232760779635036 0.000001558190194908759 0.000003116380389817518 0 0
          0.000003116380389817518 0.000006232760779635036 0.000001558190194908759 0.000003116380389817518 0 0
          0 0 0 0 0 0
          0 0 0 0 0 0
          0.000013135972400664735 0.0000017173931844738757 0.000013995061405538437 0.0000023473508189508765 0.000014854150410412141 0.0000029773084534278778
          0.00011820896158938229 0.00008811266684347817 0.0001227547222784354 0.00009284089020845571 0.00012730048296748846 0.00009756911357343324
          0.00037277043176045613 0.00035215604072074503 0.00038361091236941417 0.00036287004533766976 0.00039445139297837226 0.00037358404995459454
          0 0 0 0 0 0
          0 0 0 0 0 0
          6.944933914910111e-7 9.146320693574975e-7 0.0000011347707472239839 0.000048727878102488836 0.000050077304828445074 0.000051426731554401304
          0.00021492820120493338 0.00021905921512468954 0.00022319022904444575 0.0004936917888980125 0.0005038391558170283 0.000513986522736044
          0 0 0 0 0 0
          0 0 0 0 0 0
          0.000013352850500947779 0.000014414152149086503 0.000015475453797225224 0.0001212933045626228 0.00012345656095390283 0.00012561981734518285
          0.0003733081645944591 0.00037689599858127163 0.0003804838325680841 0.0007020463914655585 0.0007106830453797999 0.0007193196992940411
          0 0 0 0 0 0
          0 0 0 8.069354825506626e-7 0.0000011638824336104758 0.0000015208293846702891
          0.000052904999085653056 0.00005500708680725566 0.00005710917452885827 0.0002456933715598283 0.0002482492293551238 0.00025080508715041925
          0.0005770281943710858 0.0005800887273947776 0.0005831492604184695 0.0009476974371771671 0.0009555022340845075 0.0009633070309918478
          0 0 0 0 0 0
          0 0 0 0.00001607238760204538 0.000017495797932031702 0.00001891920826201802
          0.00013546978472205165 0.00013857845112752947 0.00014168711753300732 0.0004233450734943743 0.00042545368016882784 0.00042756228684328153
          0.0008277662381948364 0.0008306056650997193 0.0008334450920046021 0.0012616284783028458 0.001268962527843923 0.0012762965773850004
          0 0 0 0 0 0
          0.000002694547886453895 0.000003333741816884639 0.000003972935747315383 0.00006437645950284427 0.00006723403715443879 0.0000700916148060333
          0.0002770297610677193 0.0002806229251478327 0.000284216089227946 0.0006552349244466516 0.0006567700209421283 0.0006583051174376051
          0.0011328929272202914 0.0011356225635493274 0.0011383521998783637 0.0016381185309985228 0.0016444341292583106 0.0016507497275180982
          0 0 0 0 0 0
          0 0 0 0.00002450128497753333 0.000026255744932004813 0.000028010204886476293
          0.00016438737178593849 0.00016837319957744223 0.00017235902736894592 0.00048233159549502375 0.00048552632996918084 0.0004887210644433377
          0.0009470205427995733 0.0009478883698100861 0.0009487561968205987 0.0014903519028070607 0.001492663561807168 0.0014949752208072752
          0.0020487436646254432 0.0020536277915268533 0.0020585119184282634 0 0 0
          0 0 0 0.000005250786815229138 0.000006110687812686116 0.000006970588810143094
          0.00008413634997005887 0.00008733190021959083 0.00009052745046912277 0.00032957375294222766 0.0003339168416674344 0.0003382599303926412
          0.0007526563637410939 0.0007551688024559301 0.0007576812411707661 0.0013003683779541058 0.0013003629974231619 0.0013003576168922181
          0.0018940165406818952 0.0018954679541405477 0.0018969193675992002 0.0024711359443970867 0.00247456282965295 0.002477989714908814
          0 0 0 0 5.4547907692344707e-8 1.0909581538468941e-7
          0.000032853163707972565 0.00003504116939265062 0.00003722917507732868 0.00019933011928139875 0.00020385141854985519 0.00020837271781831164
          0.0005615023439156543 0.0005655164807333598 0.0005695306175510652 0.0010869086760745927 0.0010885388965346575 0.0010901691169947223
          0.0017080283991706947 0.0017070198634154112 0.0017060113276601277 0.002332392533437653 0.002332604052012508 0.002332815570587363
          0.0028889643458630786 0.0028908249316843735 0.0028926855175056693 0 0 0
          0.00000666905437033022 0.000007847838779784701 0.000009026623189239185 0.00010060863064706907 0.00010444615399501728 0.00010828367734296547
          0.000383433988557789 0.0003882494534361775 0.00039306491831456603 0.0008622568238323793 0.0008654882250696174 0.0008687196263068556
          0.0014797125474891918 0.0014802051250785704 0.001480697702667949 0.0021525998149853278 0.0021505177126835287 0.0021484356103817297
          0.002783891490666493 0.002782656982612254 0.0027814224745580153 0.003302140147821412 0.0033020347461941947 0.0033019293445669786
          0 4.103338802743601e-8 8.206677605487202e-8 0.00003740475772533727 0.000040070341172157726 0.00004273592461897818
          0.00022734010396629987 0.00023268127132870922 0.0002380224386911186 0.0006392727570769903 0.0006436669069646893 0.0006480610568523884
          0.0012311066759980865 0.001233151112080143 0.0012351955481621994 0.0019231946811148627 0.0019223766959324826 0.0019215587107501023
          0.002621671618904653 0.002618494929990845 0.0026153182410770365 0.00324024503642405 0.003237443551739813 0.003234642067055575
          0.0038032694002346885 0.0038009421468025864 0.003798614893370483 0.000005903235073940399 0.000007127644208687698 0.000008352053343434996
          0.00010856303261070737 0.00011293293514460303 0.00011730283767849869 0.0004274600112764902 0.0004330352042250638 0.00043861039717363727
          0.0009704734401099832 0.000973889076253932 0.000977304712397881 0.0016635190129454973 0.0016640750600936099 0.0016646311072417224
          0.0024079486820615934 0.0024057838340624796 0.0024036189860633657 0.0031085994876397013 0.0031044231980886213 0.0031002469085375413
          0.0036888914547510377 0.003684723112867358 0.0036805547709836788 0.00410280276956904 0.004099770550697371 0.004096738331825705
          0.00003585747625648899 0.00003880938768258501 0.00004176129910868103 0.0002414195168175394 0.00024760084126590064 0.0002537821657142619
          0.0007063377734174298 0.0007113825732570319 0.0007164273730966343 0.001377516215163111 0.001379463626635974 0.001381411038108837
          0.0021525199996894956 0.0021513745941826993 0.002150229188675903 0.002920732925672815 0.002917155757529939 0.0029135785893870626
          0.003589832423965063 0.003584751306345 0.0035796701887249372 0.004091147706963319 0.004086067587582039 0.004080987468200758
          0.004385555190161263 0.004381324124852052 0.0043770930595428414 0.00010675295250244071 0.00011161124838415204 0.00011646954426586335
          0.00045569359214099386 0.0004623070842182227 0.0004689205762954514 0.0010709438927571733 0.001074758350444713 0.0010785728081322528
          0.0018563173963824613 0.0018564080197821958 0.0018564986431819303 0.00268515746794142 0.002682185080988365 0.0026792126940353095
          0.0034409645706775733 0.00343597243948569 0.0034309803082938064 0.004036122508593833 0.004030270086940008 0.004024417665286183
          0.004419263497881567 0.004413745846199758 0.0044082281945179505 0.004578046079444793 0.004573027625116455 0.004568009170788117
          0.0007610460440869978 0.0007670318664973104 0.000773017688907623 0.0015242591632232665 0.0015261857148719693 0.001528112266520672
          0.002397453069547825 0.0023953782577176286 0.0023933034458874327 0.003240138058565685 0.0032353935132622856 0.0032306489679588867
          0.00394149144819172 0.003935340463244133 0.003929189478296547 0.004426627919053615 0.004420251078669002 0.00441387423828439
          0.004660607993695566 0.004655093298116456 0.004649578602537346 0.004664053572563232 0.0046590068783118775 0.004653960184060523
          0.0011684193885857 0.0011729559010944385 0.001177492413603177 0.0020625834692027537 0.0020621516014500707 0.0020617197336973868
          0.0029849443573316476 0.0029805185270896845 0.0029760926968477215 0.0037919399376452985 0.003785591832863199 0.0037792437280811
          0.004391788387807116 0.004384980212066653 0.00437817203632619 0.004736762542227035 0.004730648868081077 0.004724535193935118
          0.0048184680612342705 0.004813273851074486 0.0048080796409147 0.00467382711644203 0.004668343070592682 0.004662859024743335
          0.0016852009152036078 0.0016876162814845094 0.0016900316477654112 0.0026745877847038865 0.002671659583386328 0.0026687313820687696
          0.003595976807082216 0.003589296598867585 0.0035826163906529547 0.004315276760799066 0.004307583836491111 0.004299890912183158
          0.004767687653556254 0.004760726094016899 0.004753764534477544 0.0049426326171155225 0.004937742100012193 0.004932851582908864
          0.00488215394678715 0.004877607277961498 0.004873060609135847 0.004656304102764804 0.00464899707967269 0.004641690056580575
          0.002310106184237809 0.0023100150993963686 0.002309924014554928 0.00333984604651713 0.003334688311530612 0.0033295305765440935
          0.004201866455242425 0.004193364301106433 0.004184862146970441 0.004784565832133542 0.0047760271943444906 0.004767488556555438
          0.005055398647870733 0.005048769454004163 0.005042140260137595 0.005040282632069449 0.005036869767486692 0.005033456902903936
          0.004828271069846578 0.004824219676809999 0.00482016828377342 0.004533299981572455 0.004523435250117005 0.004513570518661557
          0.004029646812318812 0.004022955767420102 0.004016264722521393 0.00477040700399318 0.004760736976656458 0.004751066949319734
          0.005171919953247414 0.0051632082411098125 0.0051544965289722095 0.005237279552115706 0.005231500846615744 0.00522572214111578
          0.005023164700445739 0.005020982757751429 0.005018800815057119 0.0046357593167629055 0.0046315977671644954 0.004627436217566085
          0.004169697541098432 0.004159687525537134 0.004149677509975837 0.00470949248340954 0.004702235135617232 0.004694977787824923
          0.00526639191453544 0.0052563041466230954 0.00524621637871075 0.005443935232000999 0.0054356646434067755 0.005427394054812555
          0.005278606627834276 0.005273980384187325 0.005269354140540376 0.004848748555130862 0.004847495882615636 0.0048462432101004085
          0.004261261970770906 0.004257201833782672 0.004253141696794438 0.0035952326751700924 0.003588599747856814 0.0035819668205435366
          0.005338631594434521 0.005331756648622257 0.0053248817028099926 0.005647679699575014 0.005637955037946785 0.005628230376318557
          0.00555699934184782 0.005549723987813178 0.005542448633778538 0.005132602845510844 0.005129389067579772 0.005126175289648701
          0.004473573814714649 0.004473516679677691 0.004473459544640733 0.0037020178575997978 0.003699463956948281 0.0036969100562967644
          0.005865129341970254 0.005859329003501567 0.00585352866503288 0.005861246903058928 0.005852702466044884 0.005844158029030839
          0.005461386742239286 0.0054558091128021876 0.005450231483365088 0.004764577198978209 0.004763335485306796 0.004762093771635384
          0.003900523355353954 0.003902394841361367 0.0039042663273687796 0.004092069765909343 0.004507613587351475 0.004533823750778764
          0.00433548548705188 0.004087909291521488 0.004501115859384029 0.00452781448369734 0.004328982573114598 0.004083748817133635
          0.004494618131416584 0.004521805216615917 0.004322479659177314 0.0034679046658451927 0.00374606991264624 0.003358261961178732
          0.003003840050526721 0.0034607749463676156 0.00373809433396909 0.0033549100094321114 0.0030016628951900857 0.0034536452268900384
          0.00373011875529194 0.0033515580576854893 0.0029994857398534507 0.003218977430726429 0.002904478823718308 0.00367363184306231
          0.003222731189751743 0.0029065674340042836 0.003667679664338707 0.003226484948777057 0.0029086560442902593 0.0036617274856151037
          0.0029331426953681187 0.0029398595763463838 0.0029465764573246493 0.004488767884551582 0.004350922967431356 0.004438933280846233
          0.0044298108380197015 0.004483299708289447 0.0043461512060069245 0.004430799554617674 0.004422344568100296 0.004477831532027311
          0.004341379444582495 0.0044226658283891135 0.00441487829818089 0.003057587596793824 0.002580240289438562 0.0030523221116243184
          0.0025803838989632674 0.003047056626454812 0.002580527508487973 0.003829713136415677 0.003264579207824905 0.0032974283571482197
          0.0038284907772260803 0.0032664516540131003 0.0032998422955699187 0.0038272684180364835 0.0032683241002012956 0.0033022562339916177
          0.0021272263198690625 0.002599984264174737 0.0021305855314082234 0.0025975503778276226 0.0021339447429473846 0.002595116491480509
          0.004086100550532551 0.0033932501271164185 0.004080497874500598 0.00339506750709087 0.004074895198468646 0.003396884887065322
          0.004118534141661006 0.004110514261808659 0.004102494381956312 0.003980343781193092 0.003363395189778097 0.003977810310607679
          0.0033655732140330614 0.003975276840022268 0.003367751238288026 0.004388214216609764 0.004095179613890834 0.004381662712343195
          0.004090400093328715 0.004375111208076626 0.004085620572766595 0.004210693341034676 0.004293706960459735 0.004206340417081451
          0.00428663565473642 0.004201987493128226 0.004279564349013105 0.0036783118556309026 0.004008316799671382 0.0036737536123153686
          0.004002554025443707 0.0036691953689998343 0.003996791251216033 0.001689574288965258 0.001696527542000366 0.001703480795035474
          0.0010565590516793445 0.0013051206675533337 0.001067686180741367 0.001314952513730408 0.0010788133098033892 0.0013247843599074824
          0.0038799064976639155 0.0038714294908258856 0.003862952483987855 0.0009044538414692883 0.0009159696585084275 0.000927485475547567
          0.004217687326251812 0.004206525138883404 0.004195362951514995 0.000728647978665494 0.0007408210600156434 0.0007529941413657925
          0.002146500796561128 0.0021475826938882493 0.0021486645912153716 0.0017154216654049832 0.0017200984965907668 0.0017247753277765505
          0.0014024556221301822 0.0014098478726087677 0.001417240123087353 0.0029259940454010843 0.0029235407306282563 0.0029210874158554275
          0.003019115701376839 0.003019196813255221 0.003019277925133603 0.002248053362273652 0.0022488572316695945 0.0022496611010655375
          0.00584523263749714 0.006220107053627795 0.005838892725494305 0.0062158859563416595 0.005832552813491473 0.006211664859055523
          0.005115466726044865 0.005112586455825878 0.0051097061856068896 0.004172620650455725 0.004174076819734368 0.004175532989013011
          0.003179587206925144 0.003183717233900484 0.003187847260875824 0.002295327744674097 0.0022978048788811806 0.0023002820130882643
          0.0022122506539223193 0.0022205297671367584 0.002228808880351197 0.002265699033258343 0.0022717466341364463 0.00227779423501455
          0.00439137140054057 0.004143856107060413 0.0043839739712920635 0.00414079135480714 0.004376576542043557 0.004137726602553866
          0.0024342459815047375 0.0024486948117024955 0.002437580174473512 0.0024523018475189314 0.002440914367442287 0.0024559088833353672
          0.0038374804257618046 0.004129148527618967 0.003832894865159325 0.004123481115110348 0.0038283093045568452 0.0041178137026017326
          0.0034891587780082464 0.0034850089198379206 0.003480859061667594 0.0024129244004698087 0.0024172904803922623 0.002421656560314716
          0.00435228413701391 0.004372375026518861 0.004344429894614895 0.004367452597539526 0.00433657565221588 0.004362530168560191
          0.0025436896540138388 0.0025474679526204104 0.0025512462512269816 0.0028238886858115253 0.003527196675430872 0.0028263476816752626
          0.0035303122666601504 0.0028288066775390003 0.003533427857889429 0.002225985430706334 0.002232308036474429 0.0022386306422425245
          0.003108318161982616 0.0031046674569157507 0.003101016751848885 0.0011820977424650146 0.0016707260728779962 0.0011891659911522944
          0.001674307116252945 0.0011962342398395742 0.0016778881596278938 0.002722481315362369 0.002719604881835809 0.002716728448309249
          0.002302306397831946 0.002301200356490069 0.002300094315148192 0.0016628494072058167 0.0016720742231937297 0.0016812990391816426
        </DataArray>
        <DataArray type="Float64" Name="pe11" format="ascii" RangeMin="0" RangeMax="0.006214837066630454">
          0 0 0 0 0 0
          0.0000031124597246926115 0.000006224919449385223 0.0000015562298623463057 0.0000031124597246926115 0 0
          0.0000031124597246926115 0.000006224919449385223 0.0000015562298623463057 0.0000031124597246926115 0 0
          0 0 0 0 0 0
          0 0 0 0 0 0
          0.00001313400129456916 0.000001717269136053515 0.000013993219693763344 0.0000023472036551854354 0.000014852438092957525 0.0000029771381743173553
          0.00011815285125508616 0.00008806441093621175 0.00012270401602045144 0.00009279743300962612 0.00012725518078581676 0.00009753045508304049
          0.00037253725414478783 0.0003519560565824706 0.00038337184690690406 0.0003626472457215213 0.0003942064396690203 0.000373338434860572
          0 0 0 0 0 0
          0 0 0 0 0 0
          6.944595970912301e-7 9.145846312925073e-7 0.0000011347096654937846 0.000048713909082969146 0.0000500643347890046 0.00005141476049504006
          0.0002147987256713631 0.00021893881168290097 0.0002230788976944388 0.0004933536263317105 0.0005035114670454911 0.0005136693077592716
          0 0 0 0 0 0
          0 0 0 0 0 0
          0.000013349745028993433 0.000014411029828809475 0.000015472314628625518 0.00012123207517447238 0.00012339854776466488 0.00012556502035485737
          0.0003729843332344431 0.000376586758778778 0.0003801891843231129 0.0007013969103966455 0.0007100476031157717 0.000718698295834898
          0 0 0 0 0 0
          0 0 0 8.068143867958544e-7 0.0000011636556643114302 0.0000015204969418270058
          0.00005288028531805528 0.00005498297692795847 0.00005708566853786165 0.00024549432003187244 0.0002480572381950425 0.0002506201563582126
          0.0005763450516300733 0.0005794254680911389 0.0005825058845522047 0.0009465272623637719 0.0009543587019167004 0.0009621901414696287
          0 0 0 0 0 0
          0 0 0 0.000016065636575462237 0.000017488333967860236 0.000018911031360258234
          0.00013536334105597475 0.00013847383386727174 0.00014158432667856868 0.0004228446213709494 0.0004249652861680242 0.0004270859509650991
          0.0008265401660027487 0.0008294038189621583 0.0008322674719215678 0.001259853138577701 0.0012672151818736148 0.001274577225169529
          0 0 0 0 0 0
          0.000002693450429329823 0.000003332258980316803 0.000003971067531303783 0.00006433049199182845 0.00006718610274787654 0.0000700417135039246
          0.0002767136250875385 0.00028031048696824435 0.0002839073488489502 0.0006542441392977354 0.0006557948792877795 0.0006573456192778236
          0.0011310228957193893 0.0011337736237081505 0.0011365243516969115 0.0016356992755070174 0.0016420226636175176 0.0016483460517280179
          0 0 0 0 0 0
          0 0 0 0.00002448471416806028 0.000026237500954293587 0.0000279902877405269
          0.0001642094823208446 0.00016819207822615885 0.00017217467413147306 0.0004816040909654454 0.00048480591823212607 0.00048800774549880683
          0.0009453769933671053 0.0009462613266738145 0.0009471456599805233 0.0014878654001517656 0.001490184410183213 0.0014925034202146604
          0.00204583081980286 0.0020506930284824166 0.002055555237161973 0 0 0
          0 0 0 0.000005247441135612789 0.000006106529515553731 0.000006965617895494674
          0.00008405060157429187 0.00008724197032473301 0.00009043333907517415 0.00032908216907434677 0.0003334216903091171 0.00033776121154388734
          0.0007512700494324643 0.0007537942764143711 0.0007563185033962781 0.0012979725777687106 0.0012979843383200936 0.0012979960988714766
          0.0018910628278744005 0.0018925047403345347 0.0018939466527946689 0.0024680799716527437 0.0024714518179168913 0.0024748236641810384
          0 0 0 0 5.451145285237838e-8 1.0902290570475677e-7
          0.000032821925461326974 0.000035006961405902293 0.00003719199735047762 0.0001990396117761016 0.0002035540398979542 0.0002080684680198068
          0.0005604247840955417 0.0005644373897932355 0.0005684499954909295 0.0010846354730121846 0.0010862817009367268 0.0010879279288612692
          0.0017048708707978178 0.0017038776129961598 0.0017028843551945014 0.0023291457583957532 0.0023293351351825115 0.0023295245119692694
          0.0028860282484246312 0.0028878082670428288 0.0028895882856610254 0 0 0
          0.000006663236837868199 0.000007840621738013668 0.000009018006638159136 0.0001004689814101533 0.00010429974441738407 0.00010813050742461484
          0.0003826819603078475 0.0003874896496873684 0.0003922973390668892 0.0008602649116002798 0.0008634988267743068 0.0008667327419483338
          0.0014764288193930722 0.00147693613714352 0.0014774434548939677 0.002148801853097331 0.0021467257622877814 0.0021446496714782313
          0.0027805125414212825 0.0027792475014847837 0.002777982461548285 0.003299402658249874 0.003299202018056105 0.0032990013778623362
          0 4.0996472449040233e-8 8.199294489808047e-8 0.000037356955633870105 0.00004001785701931105 0.000042678758404751984
          0.00022689604662901177 0.00023222628963086804 0.00023755653263272434 0.0006376758780538097 0.0006420651016685174 0.0006464543252832251
          0.0012278941827919775 0.0012299456042736093 0.0012319970257552413 0.0019189322882835656 0.0019181241421946608 0.0019173159961057562
          0.002617586104135868 0.0026144070950200357 0.0026112280859042023 0.003237256224711536 0.0032344225054936073 0.003231588786275679
          0.003801459030839617 0.003799043129852752 0.003796627228865887 0.000005896288125631996 0.000007118698214731455 0.000008341108303830914
          0.00010835846234589686 0.00011271793500191544 0.00011707740765793401 0.00042633768597456865 0.0004319007082054016 0.00043746373043623447
          0.0009675594478687477 0.0009709767505326405 0.0009743940531965333 0.0016589274306434006 0.0016594926453013213 0.0016600578599592418
          0.0024029876309039798 0.0024008246409032846 0.0023986616509025895 0.003104710965703423 0.0031005222981431565 0.0030963336305828886
          0.0036866302575368102 0.0036824264470020126 0.003678222636467215 0.004101620583312683 0.004098519111465493 0.004095417639618302
          0.000035794990400497355 0.00003873933052253115 0.00004168367064456493 0.0002407757088647858 0.000246938128662335 0.00025310054845988425
          0.0007039747495931157 0.0007090093816869102 0.0007140440137807047 0.0013728633110532053 0.0013748184843286253 0.0013767736576040452
          0.0021466702836391953 0.002145530032953115 0.002144389782267036 0.0029155848343529064 0.0029119951595212032 0.0029084054846895005
          0.003586546755891474 0.0035814359701661575 0.0035763251844408415 0.004089594074701554 0.0040844691915750625 0.00407934430844857
          0.00438491035798114 0.004380622637494031 0.004376334917006922 0.00010647373743076987 0.00011131347097097891 0.00011615320451118796
          0.0004540549724666607 0.0004606420882545629 0.0004672292040424652 0.001066656085036713 0.00107046429285313 0.0010742725006695469
          0.0018497560896519995 0.0018498529352041354 0.0018499497807562709 0.0026784893095825137 0.002675508731398715 0.0026725281532149164
          0.0034361983152616116 0.0034311760388741376 0.0034261537624866644 0.0040337303110010835 0.004027834038979147 0.00402193776695721
          0.004418415534236854 0.004412849256161382 0.004407282978085909 0.004577596478752697 0.0045725302980248765 0.004567464117297055
          0.0007575615982336263 0.0007635147907240215 0.0007694679832144168 0.001517464927387132 0.0015193871340244082 0.0015213093406616844
          0.002389249458260791 0.002387167465171947 0.002385085472083103 0.003233374864251991 0.003228597400394712 0.003223819936537433
          0.0039376187449297745 0.003931416742114318 0.003925214739298862 0.004425177784334872 0.004418749555723776 0.004412321327112679
          0.004660067971392186 0.004654517433149293 0.004648966894906401 0.004663140755423632 0.004658061453233826 0.004652982151044019
          0.0011620244015414175 0.0011665173527219143 0.0011710103039024116 0.0020531098120340346 0.0020526647383983907 0.0020522196647627467
          0.002975872121842523 0.0029714177131607493 0.0029669633044789754 0.003785973195174637 0.0037795641524903307 0.0037731551098060248
          0.0043891715505445525 0.0043822926152207176 0.004375413679896882 0.00473594208034243 0.004729771079597923 0.004723600078853416
          0.004817324084542381 0.004812097908570574 0.004806871732598766 0.0046707553796166935 0.0046652849806999176 0.004659814581783141
          0.001674910411788602 0.0016772557218110965 0.0016796010318335906 0.0026629355709715556 0.0026599646960200575 0.002656993821068559
          0.0035871986688272325 0.0035804656806585657 0.0035737326924898984 0.004310870290023611 0.004303099982281625 0.004295329674539638
          0.004766255191989352 0.004759223491211703 0.004752191790434056 0.0049415475648713104 0.0049366134490981825 0.004931679333325053
          0.004879200495194021 0.004874604132512301 0.00487000776983058 0.004650585122799769 0.004643259370067727 0.004635933617335684
          0.002295565221026562 0.0022953495513235935 0.0022951338816206246 0.0033273066170242355 0.0033220538035433267 0.0033168009900624174
          0.004194639217353926 0.004186060629671748 0.00417748204198957 0.004781961784168236 0.0047733452342814476 0.00476472868439466
          0.00505421734981743 0.005047543309929945 0.0050408692700424605 0.0050370508834995005 0.005033631619676413 0.005030212355853327
          0.004821260292710895 0.004817178761281362 0.004813097229851829 0.00452396540418255 0.004514066769777205 0.004504168135371861
          0.00401807709453968 0.004011228523840419 0.004004379953141159 0.004765587066797541 0.004755824594023975 0.004746062121250406
          0.005170401333459076 0.005161624444116072 0.00515284755477307 0.00523435907206329 0.005228570368702338 0.005222781665341386
          0.0050154458380970955 0.005013296942698283 0.00501114804729947 0.004623442242826209 0.004619299550188511 0.004615156857550813
          0.004156531511127952 0.004146528937342551 0.00413652636355715 0.0047006685856962 0.004693204989906229 0.004685741394116259
          0.005263768529308223 0.005253588340145374 0.005243408150982522 0.005441469757569338 0.005433160263273718 0.005424850768978097
          0.005271293521686166 0.005266696641988076 0.005262099762289989 0.004835141232250864 0.004833952676108099 0.004832764119965335
          0.004244704711361315 0.0042406705865419714 0.004236636461722628 0.0035803503860170173 0.003573661851378363 0.003566973316739709
          0.005333293725192718 0.005326204066626169 0.005319114408059619 0.005645343716575528 0.005635550114120404 0.00562575651166528
          0.005550345776995971 0.005543071339118215 0.005535796901240459 0.005118460459934604 0.005115314930232389 0.005112169400530172
          0.004454079024195924 0.004454097487578222 0.004454115950960521 0.003682876114186367 0.0036803076304195155 0.0036777391466526646
          0.005861952283152174 0.005855991514338769 0.0058500307455253645 0.005855323877839191 0.00584676539210909 0.00583820690637899
          0.005446777860728343 0.005441250040389408 0.005435722220050474 0.004742283743210124 0.004741130369295882 0.00473997699538164
          0.003876598018258782 0.0038785192237591687 0.0038804404292595556 0.004085729837101065 0.004505407636118777 0.00453277593652596
          0.0043328799367998334 0.0040815229319311926 0.004498855759953421 0.0045267315864834685 0.0043263607773732626 0.004077316026761318
          0.004492303883788065 0.004520687236440976 0.00431984161794669 0.0034651078923597567 0.003743854853659143 0.0033555939044660164
          0.003000755693692103 0.0034579063809431904 0.003735829570787637 0.0033521551779571875 0.0029985090850812735 0.0034507048695266236
          0.0037278042879161314 0.0033487164514483577 0.0029962624764704447 0.0032054842242465265 0.002891632121944349 0.0036592539072914957
          0.0032093001455350363 0.002893619754199558 0.003653300387042229 0.0032131160668235456 0.0028956073864547676 0.003647346866792962
          0.0029219810724600364 0.0029287630882614897 0.002935545104062943 0.004488334231796798 0.004350289360949572 0.004438482231612114
          0.0044290132257857415 0.0044828179623208056 0.004345446359027328 0.004430292711528137 0.004421499098433074 0.004477301692844812
          0.0043406033571050835 0.004422103191444159 0.004413984971080406 0.0030542826437908446 0.002577039993078791 0.003048934046792503
          0.0025771341142172793 0.0030435854497941617 0.0025772282353557674 0.0038220524468394676 0.0032545966376380468 0.0032868440286240317
          0.0038208633252230823 0.0032564880653320077 0.0032891771542646418 0.0038196742036066965 0.0032583794930259686 0.003291510279905252
          0.0021243772567874583 0.002596542950547294 0.0021277089998741 0.0025940228785466257 0.002131040742960742 0.0025915028065459584
          0.004075087046003794 0.003381932786617045 0.004069577197998341 0.0033837382497004845 0.004064067349992889 0.0033855437127839234
          0.004117430420185034 0.004109353754823911 0.004101277089462788 0.003975117928406399 0.0033549379072880196 0.003972584946928558
          0.0033571745874110457 0.003970051965450716 0.003359411267534072 0.004381835657843025 0.004085945598323512 0.004375321541481062
          0.004081135860568383 0.0043688074251191 0.004076326122813253 0.0042098421342232645 0.004293158502589554 0.004205399613651646
          0.0042860161546224955 0.004200957093080029 0.004278873806655437 0.0036761424097555583 0.004007017076895404 0.00367148110341112
          0.00400116356687356 0.0036668197970666796 0.003995310056851716 0.0016872928651730868 0.0016942360014299566 0.0017011791376868263
          0.0010555742719533703 0.0013034899121686443 0.001066646439994831 0.0013132931759786562 0.0010777186080362915 0.0013230964397886679
          0.0038781215493090414 0.0038695938436344945 0.0038610661379599454 0.0009034863697543818 0.0009149523424948872 0.0009264183152353925
          0.004205380299353763 0.004194242298155528 0.004183104296957294 0.000727709392581055 0.0007398352533671454 0.0007519611141532356
          0.0021433043112783234 0.00214428587778747 0.0021452674442966166 0.0017121462384574577 0.0017166926752937473 0.001721239112130037
          0.0013997824624720691 0.0014070379858473314 0.0014142935092225934 0.002911175236872693 0.0029085601533926884 0.002905945069912683
          0.0029999870566207705 0.002999990783482188 0.002999994510343607 0.0022356650314325167 0.002236236569347066 0.002236808107261615
          0.005830349903562423 0.006214837066630454 0.005824073553853782 0.006210575546406267 0.005817797204145141 0.006206314026182078
          0.005090026053053734 0.005087226440915053 0.005084426828776372 0.004143301407648214 0.004144811848585776 0.004146322289523338
          0.003154890880782104 0.003158995084960549 0.003163099289138993 0.00227970575258329 0.0022820503233274263 0.002284394894071563
          0.0022021309185730866 0.0022103908530346564 0.002218650787496226 0.002255841396547234 0.002261880197417191 0.0022679189982871485
          0.0043905373360809555 0.004141215473763536 0.004383072159555917 0.00413810798833171 0.004375606983030878 0.004135000502899884
          0.0024234732989840252 0.002438260854292884 0.0024268541800209964 0.0024418029651529253 0.002430235061057968 0.0024453450760129657
          0.003835525345992426 0.004127946661801532 0.0038308535059910923 0.004122221918447108 0.0038261816659897587 0.004116497175092684
          0.0034864325715379596 0.003482175625801838 0.003477918680065716 0.002402931736172886 0.002407197436392327 0.002411463136611768
          0.004351726586508451 0.004371516542016511 0.004343799553140777 0.004366526683031309 0.0043358725197731015 0.0043615368240461075
          0.0025340799614775207 0.002537981797919573 0.0025418836343616266 0.0028152247484659466 0.0035206103547323194 0.0028177719612093614
          0.0035237898055033206 0.0028203191739527766 0.003526969256274322 0.0022150315713134 0.0022211913645286893 0.0022273511577439787
          0.003104980178708308 0.003101218931092114 0.0030974576834759205 0.0011804173799904373 0.001667656008002147 0.001187408703655887
          0.001671147935695664 0.0011944000273213364 0.0016746398633891804 0.0027189053535206903 0.0027159201187109015 0.0027129348839011126
          0.0022980706479940032 0.002296871692800625 0.0022956727376072465 0.0016551664656625012 0.0016643434823922828 0.0016735204991220644
        </DataArray>
        <DataArray type="Float64" Name="pe22" format="ascii" RangeMin="-0.003210615203846575" RangeMax="0">
          0 0 0 0 0 0
          -0.0000014469855152258374 -0.0000028939710304516747 -7.234927576129187e-7 -0.0000014469855152258374 0 0
          -0.0000014469855152258374 -0.0000028939710304516747 -7.234927576129187e-7 -0.0000014469855152258374 0 0
          0 0 0 0 0 0
          0 0 0 0 0 0
          -0.000006657540272229402 -8.758299135796177e-7 -0.000007075700850432205 -0.0000011921362026757506 -0.000007493861428635007 -0.0000015084424917718835
          -0.0000610436891576171 -0.00004603264530803789 -0.00006298561831944486 -0.000048138456026372445 -0.00006492754748127262 -0.000050244266744707006
          -0.0001903890118589162 -0.0001772667257874079 -0.00019459391907271893 -0.0001815354843875495 -0.00019879882628652166 -0.00018580424298769108
          0 0 0 0 0 0
          0 0 0 0 0 0
          -3.473721623011595e-7 -4.5590635483374366e-7 -5.644405473663278e-7 -0.000024535305539590422 -0.000025140003390643577 -0.000025744701241696732
          -0.00010969786240108128 -0.00011128311872976373 -0.0001128683750584462 -0.00025350721018236596 -0.000256992247254269 -0.0002604772843261721
          0 0 0 0 0 0
          0 0 0 0 0 0
          -0.0000066376730117867645 -0.000007142435724974785 -0.000007647198438162805 -0.00006056839186232497 -0.00006143913463780686 -0.00006230987741328876
          -0.0001886382170681122 -0.00018974916767710805 -0.00019086011828610395 -0.0003552914297376313 -0.0003577027506877473 -0.0003601140716378633
          0 0 0 0 0 0
          0 0 0 -3.954030567154781e-7 -5.670487548323281e-7 -7.386944529491781e-7
          -0.00002609769110534384 -0.000027042701592279942 -0.00002798771207921605 -0.00012142935879923282 -0.00012227686577601953 -0.00012312437275280622
          -0.00028828411670171283 -0.00028883326199693137 -0.0002893824072921498 -0.0004747661487622529 -0.0004765984238970809 -0.0004784306990319089
          0 0 0 0 0 0
          0 0 0 -0.000007831703148460884 -0.000008483209581957928 -0.000009134716015454975
          -0.0000661288496269323 -0.00006739984256378836 -0.00006867083550064442 -0.00020691029286312314 -0.00020726043231235623 -0.0002076105717615894
          -0.00040965778496511354 -0.0004097786005771376 -0.00040989941618916167 -0.0006287804168214681 -0.0006302977589200894 -0.0006318151010187103
          0 0 0 0 0 0
          -0.0000012954618177028754 -0.0000015958435602477051 -0.000001896225302792535 -0.000031117918608853196 -0.0000323420853599992 -0.00003356625211114521
          -0.00013377383370811454 -0.00013501141266168308 -0.0001362489916152516 -0.00031703019939474485 -0.00031681456595352916 -0.00031659893251231343
          -0.0005566538634915154 -0.0005565217869155605 -0.0005563897103396058 -0.0008126436015281919 -0.0008138815790002355 -0.0008151195564722791
          0 0 0 0 0 0
          0 0 0 -0.000011741588176808477 -0.000012522172063833662 -0.000013302755950858849
          -0.0000787439432493653 -0.00008027151145686405 -0.00008179907966436279 -0.00023064266947132032 -0.0002313696025037745 -0.0002320965355362287
          -0.0004545636660555761 -0.00045384115573272887 -0.00045311864540988154 -0.0007282404370037858 -0.0007279145126322766 -0.0007275885882607674
          -0.0010126284490267925 -0.001013690425717533 -0.0010147524024082736 0 0 0
          0 0 0 -0.0000024986822998339405 -0.0000028939174963706937 -0.000003289152692907447
          -0.00004005729189317998 -0.00004136920925355058 -0.00004268112661392117 -0.00015652268240698718 -0.00015787121472894835 -0.00015921974705090954
          -0.00035708794603165196 -0.0003572284880642095 -0.0003573690300967671 -0.0006208229083210014 -0.0006197520691379905 -0.0006186812299549796
          -0.0009219022727716228 -0.0009214773722511203 -0.0009210524717306178 -0.0012183678293864843 -0.0012193875987369608 -0.001220407368087437
          0 0 0 0 -2.5626258525186894e-8 -5.125251705037379e-8
          -0.000015568527217653256 -0.000016518361794135805 -0.000017468196370618357 -0.00009415579860698822 -0.00009580365354131039 -0.00009745150847563253
          -0.0002645828247663206 -0.00026538892124922396 -0.00026619501773212734 -0.0005128540876513149 -0.0005124889713320239 -0.0005121238550127329
          -0.0008133587416361645 -0.0008121860382256352 -0.000811013334815106 -0.0011330874346209643 -0.0011327233302864358 -0.0011323592259519075
          -0.0014223019604862836 -0.0014233467048588894 -0.0014243914492314946 0 0 0
          -0.0000031453429828774876 -0.0000036816825329949816 -0.000004218022083112476 -0.000047338919834290706 -0.000048872636789572714 -0.00005040635374485473
          -0.0001796518496114899 -0.0001810201342887146 -0.0001823884189659393 -0.00040361218049879313 -0.0004037457062441788 -0.0004038792319895645
          -0.0006961169156841384 -0.0006953409002428932 -0.0006945648848016479 -0.0010255143796110086 -0.0010243488846578108 -0.0010231833897046128
          -0.0013529395514512948 -0.0013526847141908862 -0.0013524298769304775 -0.0016260597908145478 -0.0016270246670354487 -0.00162798954325635
          0 -1.90798308294583e-8 -3.81596616589166e-8 -0.00001753691479850863 -0.00001867751874089355 -0.000019818122683278473
          -0.00010600536291836933 -0.00010789439066047514 -0.00010978341840258098 -0.000297113161533866 -0.000297851733873299 -0.000298590306212732
          -0.0005736059032276972 -0.000573102393742945 -0.0005725988842581927 -0.000904688610857875 -0.0009036520672887444 -0.0009026155237196137
          -0.0012528452769491989 -0.0012518384985408517 -0.0012508317201325048 -0.0015814322048885437 -0.0015813517581588616 -0.00158127131142918
          -0.0018910199871394174 -0.0018920219315874919 -0.0018930238760355663 -0.0000027478142504417243 -0.0000032971860394383364 -0.0000038465578284349485
          -0.00005038735577700699 -0.00005208975955781552 -0.00005379216333862405 -0.00019735952631340484 -0.00019887070994356425 -0.00020038189357372371
          -0.0004479644117161072 -0.0004479378222497324 -0.00044791123278335764 -0.0007737310325278642 -0.0007727554649631931 -0.0007717798973985221
          -0.0011361929103711995 -0.0011351835633838622 -0.0011341742163965252 -0.0014942042254169267 -0.0014937197555989455 -0.0014932352857809643
          -0.0018112574878748362 -0.0018117408715818337 -0.0018122242552888312 -0.002048880885620475 -0.0020504238184439047 -0.0020519667512673345
          -0.000016529415061672407 -0.000017769477586506667 -0.000019009540111340927 -0.00011065024193158668 -0.00011276640404085458 -0.00011488256615012247
          -0.00032294025851171846 -0.00032369026460248956 -0.00032444027069326067 -0.0006331066649941535 -0.0006323526992931806 -0.0006315987335922077
          -0.0010028650297938205 -0.0010016878672777672 -0.001000510704761714 -0.0013865273713466518 -0.0013858338106336645 -0.0013851402499206779
          -0.0017394449510301146 -0.0017396556154885513 -0.001739866279946988 -0.0020218862148031224 -0.0020231398636575363 -0.002024393512511949
          -0.002200906450953134 -0.002202976608662944 -0.0022050467663727535 -0.000048457128682754286 -0.000050296035148854456 -0.00005213494161495464
          -0.00020604502281772882 -0.00020775665279487617 -0.00020946828277202355 -0.0004856341747828902 -0.0004854467424662298 -0.00048525931014956937
          -0.0008523782238985823 -0.0008511214775403183 -0.0008498647311820542 -0.0012574955754642372 -0.0012564589133854686 -0.0012554222513067002
          -0.0016477629652095886 -0.0016476188851662064 -0.0016474748051228244 -0.0019744098170511887 -0.001975277169430262 -0.001976144521809335
          -0.002202100440129025 -0.002203828360534091 -0.0022055562809391565 -0.0023138490626673862 -0.002315928943222763 -0.0023180088237781398
          -0.00033959644270251636 -0.00034037986441216064 -0.000341163286121805 -0.0006877723291023656 -0.0006867105951527395 -0.0006856488612031132
          -0.0011041370147384629 -0.0011027121862605394 -0.0011012873577826157 -0.0015300647595388516 -0.0015294858505159477 -0.0015289069414930433
          -0.0019079960620288336 -0.001908593033854846 -0.001909190005680858 -0.002189799458789926 -0.0021913045018650042 -0.002192809544940082
          -0.0023453361078641477 -0.0023471545125858624 -0.0023489729173075775 -0.0023784052521258897 -0.002380175758629129 -0.002381946265132368
          -0.0005157790544289206 -0.0005154452275723323 -0.0005151114007157441 -0.0009303382077615561 -0.0009287185364786148 -0.0009270988651956735
          -0.0013844615668978546 -0.0013832530429867187 -0.0013820445190755825 -0.0018105937402411805 -0.0018106718618628474 -0.0018107499834845147
          -0.0021531205596599457 -0.0021544525343957415 -0.0021557845091315364 -0.0023737068125675347 -0.00237585356839496 -0.0023780003242223854
          -0.0024526548970567053 -0.0024546601658290584 -0.002456665434601412 -0.002405931477991676 -0.002407668612747068 -0.00240940574750246
          -0.0007393119029564582 -0.0007380183159953102 -0.0007367247290341623 -0.0012125462634365559 -0.0012108686967117258 -0.001209191129986896
          -0.0016865134525843447 -0.0016859193685282107 -0.0016853252844720769 -0.0020887070591631487 -0.002089543866908523 -0.0020903806746538976
          -0.0023712977259159624 -0.0023731712311466082 -0.002375044736377254 -0.0025129169161349045 -0.002515509920784788 -0.0025181029254346707
          -0.00251654994028162 -0.0025191673950677347 -0.0025217848498538496 -0.002422731985628465 -0.0024247304224211987 -0.0024267288592139317
          -0.0010138482826667176 -0.0010121145826090744 -0.0010103808825514316 -0.0015306963910186823 -0.0015295205278927537 -0.001528344664766825
          -0.002000282864215152 -0.00200062207827294 -0.002000961292330727 -0.0023530471648769095 -0.002354736378903591 -0.0023564255929302723
          -0.0025544308908611296 -0.002556833314968198 -0.002559235739075266 -0.0026014210914848367 -0.002604447477144715 -0.0026074738628045937
          -0.0025188527992600286 -0.002522053824640524 -0.0025252548500210195 -0.0023769502095851223 -0.002378744736194962 -0.002380539262804802
          -0.0018772428280507281 -0.001877091230595737 -0.0018769396331407456 -0.002312593320148446 -0.0023140608530895857 -0.0023155283860307246
          -0.0025892016845514886 -0.00259184983313531 -0.002594497981719132 -0.0026903725665064155 -0.0026935571983439897 -0.002696741830181565
          -0.0026299273498216792 -0.002633742879598833 -0.002637558409375987 -0.0024415597378477684 -0.0024448872847214155 -0.0024482148315950625
          -0.0021903578463106496 -0.0021914087526846964 -0.002192459659058744 -0.00224035775819428 -0.0022416566492651398 -0.002242955540335999
          -0.002606131631245262 -0.0026088699588362814 -0.002611608286427301 -0.002776879589247458 -0.0027805650381591464 -0.0027842504870708345
          -0.0027558093288673753 -0.002759825664635855 -0.0027638420004043353 -0.002571094555017405 -0.002575394681095703 -0.002579694807174
          -0.0022613832721119884 -0.002263945865421179 -0.00226650845873037 -0.0018969976117472732 -0.0018967659507826123 -0.0018965342898179518
          -0.002602216710448831 -0.0026052559289421865 -0.002608295147435542 -0.0028568068231046365 -0.0028608816159077354 -0.0028649564087108344
          -0.0028878385101686025 -0.0028924336102581624 -0.0028970287103477223 -0.002719886977209861 -0.00272426605325452 -0.002728645129299178
          -0.0023976767812574273 -0.0024015009764248724 -0.0024053251715923166 -0.001977350526755441 -0.001978441631761041 -0.0019795327367666407
          -0.0029352321793722717 -0.0029401288539085135 -0.0029450255284447554 -0.0030317351210139465 -0.0030369859491573997 -0.0030422367773008533
          -0.00288924481129876 -0.0028942548522398 -0.002899264893180841 -0.002558428661723753 -0.0025623590764723043 -0.0025662894912208568
          -0.002107965928085471 -0.0021105600014042873 -0.002113154074723103 -0.0021670132221750607 -0.0023268756228936403 -0.002315519536682964
          -0.002242355534856441 -0.0021683483494245787 -0.002328268017455311 -0.0023170555745749056 -0.0022432439129228426 -0.0021696834766740973
          -0.002329660412016983 -0.0023185916124668473 -0.0022441322909892447 -0.0016914724779119057 -0.001827910469041718 -0.0016446452720419735
          -0.0014714829740919276 -0.0016907471778224107 -0.0018278662582754423 -0.001645121366849771 -0.0014715857707268798 -0.0016900218777329164
          -0.0018278220475091667 -0.0016455974616575685 -0.0014716885673618316 -0.0017430273508548988 -0.0015534906577129174 -0.0019542232710866242
          -0.0017448608916107466 -0.0015542641428447335 -0.001955010866255928 -0.0017466944323665944 -0.0015550376279765497 -0.001955798461425233
          -0.0016015470927950852 -0.00160309812974886 -0.0016046491667026342 -0.0022707128649478545 -0.0021893330318916485 -0.0022437003390200637
          -0.002258352732883769 -0.0022726024030154885 -0.0021910079316923544 -0.002244605476600286 -0.0022593881536993638 -0.002274491941083123
          -0.00219268283149306 -0.002245510614180508 -0.0022604235745149587 -0.0014826282703228736 -0.0012641447757992933 -0.0014815071971032198
          -0.0012641430941412418 -0.0014803861238835664 -0.00126414141248319 -0.002059499309882969 -0.0017770830679654478 -0.0017866593301699425
          -0.0020605194055493643 -0.0017778859443391074 -0.0017888042775302106 -0.0020615395012157597 -0.0017786888207127671 -0.0017909492248904786
          -0.001043179216995334 -0.001253141257001434 -0.0010434832402632167 -0.0012519994675050617 -0.001043787263531099 -0.0012508576780086893
          -0.0021639808453373594 -0.0018289681112708327 -0.0021653545798832725 -0.0018310532151390867 -0.002166728314429185 -0.0018331383190073407
          -0.0020386089157857314 -0.0020389769222252906 -0.00203934492866485 -0.002107329682160486 -0.001822860003285302 -0.0021086135578550014
          -0.0018239279595127348 -0.002109897433549517 -0.0018249959157401671 -0.0022895412281044255 -0.0021737636816241365 -0.0022912341926301137
          -0.00217574436542647 -0.0022929271571558024 -0.0021777250492288048 -0.002115433838246895 -0.0021572762547231233 -0.002116679881848347
          -0.0021580858812223786 -0.0021179259254497994 -0.002158895507721634 -0.0018070024508735525 -0.001992160388877802 -0.0018073320745738957
          -0.0019925202706335995 -0.0018076616982742391 -0.001992880152389397 -0.0008309837479400858 -0.0008319601621329829 -0.0008329365763258799
          -0.0005211408055018997 -0.0006432087806776479 -0.0005237775247445508 -0.0006450532494166457 -0.0005264142439872018 -0.0006468977181556437
          -0.0018953489094330495 -0.0018951682295296965 -0.001894987549626344 -0.00044868440879052614 -0.0004518313536571642 -0.000454978298523802
          -0.002234291577041077 -0.00223484353205159 -0.002235395487062103 -0.0003631071713527182 -0.0003669633755015082 -0.00037081957965029807
          -0.0010295871337345787 -0.001028522186361314 -0.0010274572389880493 -0.0008167039606458765 -0.0008165013213833868 -0.0008162986821208972
          -0.0006673503234451717 -0.0006684501013469218 -0.0006695498792486716 -0.0015534657532142839 -0.001552022311316569 -0.0015505788694188541
          -0.0016194699836125457 -0.0016192748262963382 -0.0016190796689801302 -0.0011948637457363175 -0.0011931361403311439 -0.0011914085349259702
          -0.003089306553702039 -0.0031970728081659834 -0.003095375785530782 -0.0032038440060062788 -0.003101445017359525 -0.003210615203846575
          -0.002750674626969236 -0.0027553870823177505 -0.002760099537666265 -0.002264953048547941 -0.002267717608422707 -0.0022704821682974726
          -0.0017270796394785479 -0.0017282007517885525 -0.001729321864098557 -0.001231507939309884 -0.0012305228635726326 -0.0012295377878353815
          -0.0012062046367147538 -0.001207622602965833 -0.001209040569216912 -0.0012373012150493487 -0.0012376406725332593 -0.0012379801300171698
          -0.0022390408454897527 -0.0021592014786800478 -0.002239618270816076 -0.002160622740386259 -0.002240195696142398 -0.002162044002092469
          -0.0013225499764341535 -0.0013195880267493213 -0.0013229712395426735 -0.0013206583353089863 -0.0013233925026511937 -0.0013217286438686514
          -0.0018842241348660757 -0.0020520401452131217 -0.0018843687745259898 -0.0020530386466961785 -0.001884513414185904 -0.0020540371481792353
          -0.0016912929562262187 -0.0016908157368303715 -0.0016903385174345243 -0.0013065596823062283 -0.0013072692481398448 -0.0013079788139734611
          -0.002191911739512783 -0.002226126247720799 -0.002192689535630206 -0.0022276180995615524 -0.0021934673317476287 -0.002229109951402306
          -0.0013885410900755962 -0.0013887866873503187 -0.0013890322846250413 -0.0015232293844544362 -0.0018905236732453742 -0.0015238049875425127
          -0.0018927473956817026 -0.0015243805906305892 -0.0018949711181180306 -0.0011989180024145666 -0.001199207486344673 -0.0011994969702747793
          -0.0014870382449727341 -0.00148597169766417 -0.0014849051503556057 -0.0005696621150494925 -0.0007897144829169138 -0.0005706936304557858
          -0.0007893821964828114 -0.0005717251458620792 -0.0007890499100487089 -0.0012872627616066414 -0.0012855198870134474 -0.0012837770124202535
          -0.0010769379148935824 -0.0010754326550447728 -0.0010739273951959633 -0.0009065864383466306 -0.0009077954512192857 -0.0009090044640919408
        </DataArray>
        <DataArray type="Float64" Name="pe33" format="ascii" RangeMin="-0.0030177642584644695" RangeMax="0">
          0 0 0 0 0 0
          -0.0000016654742094667748 -0.0000033309484189335496 -8.327371047333874e-7 -0.0000016654742094667748 0 0
          -0.0000016654742094667748 -0.0000033309484189335496 -8.327371047333874e-7 -0.0000016654742094667748 0 0
          0 0 0 0 0 0
          0 0 0 0 0 0
          -0.000006476461022339755 -8.414392224738973e-7 -0.000006917518843331136 -0.0000011550674525096846 -0.0000073585766643225165 -0.0000014686956825454719
          -0.00005710916209746907 -0.000042031765628173834 -0.00005971839770100661 -0.000044658976983253655 -0.00006232763330454414 -0.00004728618833833346
          -0.0001821482422858716 -0.00017468933079506263 -0.00018877792783418513 -0.00018111176133397174 -0.00019540761338249864 -0.0001875341918728809
          0 0 0 0 0 0
          0 0 0 0 0 0
          -3.470874347900704e-7 -4.5867827645876355e-7 -5.702691181274567e-7 -0.00002417860354337871 -0.000024924331398361017 -0.000025670059253343324
          -0.00010510086327028182 -0.0001076556929531372 -0.00011021052263599258 -0.00023984641614934463 -0.0002465192197912221 -0.00025319202343309955
          0 0 0 0 0 0
          0 0 0 0 0 0
          -0.00000671207201720667 -0.00000726859410383469 -0.000007825116190462712 -0.000060663683312147396 -0.000061959413126858 -0.00006325514294156859
          -0.00018434611616633084 -0.00018683759110166992 -0.000189329066037009 -0.00034610548065901414 -0.0003523448524280244 -0.0003585842241970348
          0 0 0 0 0 0
          0 0 0 -4.114113300803759e-7 -5.966069094791016e-7 -7.818024888778273e-7
          -0.00002678259421271144 -0.000027940275335678522 -0.000029097956458645598 -0.0001240649612326396 -0.00012578037241902298 -0.00012749578360540635
          -0.00028806093492836035 -0.00029059220609420756 -0.0002931234772600548 -0.000471761113601519 -0.00047776027801961935 -0.00048375944243771976
          0 0 0 0 0 0
          0 0 0 -0.000008233933427001346 -0.000009005124385902302 -0.000009776315344803258
          -0.00006923449142904245 -0.00007107399130348337 -0.00007291349117792427 -0.00021593432850782626 -0.00021770485385566793 -0.00021947537920350964
          -0.0004168823810376352 -0.0004196252183850206 -0.000422368055732406 -0.0006310727217562329 -0.0006369174229535256 -0.0006427621241508184
          0 0 0 0 0 0
          -0.000001397988611626948 -0.000001736415420069098 -0.000002074842228511248 -0.00003321257338297526 -0.00003484401738787733 -0.00003647546139277939
          -0.00014293979137942398 -0.00014529907430656125 -0.00014765835723369854 -0.0003372139399029905 -0.0003389803133342504 -0.0003407466867655103
          -0.0005743690322278739 -0.0005772518367925897 -0.0005801346413573055 -0.0008230556739788257 -0.0008281410846172822 -0.0008332264952557387
          0 0 0 0 0 0
          0 0 0 -0.0000127431259912518 -0.000013715328890459922 -0.000014687531789668042
          -0.00008546553907147925 -0.00008792056676929474 -0.00009037559446711024 -0.00025096142149412504 -0.00025343631572835156 -0.0002559112099625781
          -0.0004908133273115293 -0.0004924201709410856 -0.0004940270145706419 -0.0007596249631479799 -0.0007622698975509364 -0.000764914831953893
          -0.0010332023707760676 -0.0010370026027648833 -0.0010408028347536993 0 0 0
          0 0 0 -0.0000027487588357788486 -0.000003212612019183037 -0.0000036764652025872256
          -0.00004399330968111189 -0.00004587276107118243 -0.00004775221246125296 -0.00017255948666735957 -0.00017555047558016866 -0.00017854146449297774
          -0.0003941821034008122 -0.0003965657883501615 -0.0003989494732995109 -0.000677149669447709 -0.000678232269182103 -0.000679314868916497
          -0.0009691605551027777 -0.0009710273680834144 -0.0009728941810640511 -0.0012497121422662596 -0.0012520642191799305 -0.001254416296093601
          0 0 0 0 -2.888519432719147e-8 -5.777038865438294e-8
          -0.000017253398243673714 -0.00001848859961176649 -0.000019723800979859263 -0.00010488381316911332 -0.00010775038635664378 -0.00011061695954417426
          -0.000295841959329221 -0.0002990484685440116 -0.0003022549777588022 -0.0005717813853608699 -0.0005737927296047031 -0.0005758040738485363
          -0.0008915121291616531 -0.0008916915747705242 -0.0008918710203793955 -0.0011960583237747885 -0.0011966118048960753 -0.0011971652860173622
          -0.0014637262879383475 -0.001464461562183939 -0.0014651968364295304 0 0 0
          -0.00000351789385499071 -0.000004158939205018685 -0.000004799984555046659 -0.0000531300615758626 -0.000055427107627811336 -0.00005772415367976007
          -0.00020303011069635756 -0.0002064695153986537 -0.00020990892010094985 -0.00045665273110148663 -0.00045975312053012784 -0.0004628535099587692
          -0.0007803119037089336 -0.0007815952369006266 -0.0007828785700923196 -0.0011232874734863226 -0.0011223768776299709 -0.001121466281773619
          -0.001427572989969987 -0.0014265627872938973 -0.0014255525846178071 -0.0016733428674353262 -0.001672177351020656 -0.0016710118346059855
          0 -2.1916641619581915e-8 -4.383328323916383e-8 -0.00001982004083536148 -0.000021340338278417494 -0.0000228606357214735
          -0.00012089068371064241 -0.00012433189897039288 -0.00012777311423014333 -0.0003405627165199436 -0.0003442133677952183 -0.00034786401907049294
          -0.0006542882795642803 -0.0006568432105306644 -0.0006593981414970483 -0.0010142436774256902 -0.001014472074905916 -0.0010147004723861422
          -0.0013647408271866691 -0.0013625685964791833 -0.0013603963657716975 -0.0016558240198229915 -0.0016530707473347453 -0.001650317474846499
          -0.0019104390437002 -0.0019070211982652606 -0.0019036033528303203 -0.00000314847387519027 -0.000003821512175293117 -0.000004494550475395964
          -0.000057971106568889866 -0.00006062817544409992 -0.00006328524431930997 -0.00022897815966116378 -0.0002330299982618373 -0.0002370818368625108
          -0.0005195950361526404 -0.000523038928282908 -0.0005264828204131755 -0.0008851963981155364 -0.0008867371803381276 -0.000888277962560719
          -0.0012667947205327798 -0.001265641077519422 -0.0012644874345060638 -0.001610506740286496 -0.00160680254254421 -0.001603098344801924
          -0.0018753727696619736 -0.0018706855754201785 -0.0018659983811783838 -0.0020527396976922087 -0.0020480952930215877 -0.002043450888350967
          -0.000019265575338824938 -0.000020969852936024464 -0.000022674130533223987 -0.00013012546693319912 -0.0001341717246214804 -0.00013821798230976166
          -0.00038103449108139716 -0.0003853191170844205 -0.000389603743087444 -0.0007397566460590516 -0.0007424657850354444 -0.0007451749240118373
          -0.0011438052538453743 -0.0011438421656753477 -0.0011438790775053214 -0.0015290574630062543 -0.0015261613488875383 -0.0015232652347688224
          -0.0018471018048613584 -0.0018417803546776058 -0.0018364589044938527 -0.0020677078598984305 -0.002061329327917526 -0.002054950795936621
          -0.0021840039070280056 -0.002177646028831087 -0.0021712881506341687 -0.000058016608748015587 -0.000061017435822124445 -0.0000640182628962333
          -0.0002480099496489318 -0.0002528854354596867 -0.00025776092127044155 -0.0005810219102538223 -0.0005850175503869 -0.0005890131905199775
          -0.000997377865753417 -0.0009987314576638167 -0.0010000850495742166 -0.001420993734118276 -0.0014190498180132458 -0.0014171059019082162
          -0.0017884353500520224 -0.001783557153707931 -0.0017786789573638396 -0.0020593204939498935 -0.0020525568695488835 -0.002045793245147874
          -0.0022163150941078274 -0.0022090208956272897 -0.002201726697146752 -0.00226374741608531 -0.0022566013548021126 -0.0022494552935189154
          -0.00041796515553110976 -0.0004231349263118608 -0.0004283046970926118 -0.000829692598284766 -0.0008326765388716687 -0.0008356604794585713
          -0.0012851124435223275 -0.0012844552789114073 -0.0012837981143004875 -0.0017033101047131392 -0.0016991115498787644 -0.0016949129950443896
          -0.0020296226829009402 -0.002022823708259472 -0.002016024733618004 -0.0022353783255449453 -0.002227445053858771 -0.0022195117821725958
          -0.0023147318635280386 -0.0023073629205634305 -0.002299993977598823 -0.0022847355032977416 -0.0022778856946046966 -0.002271035885911651
          -0.0006462453471124967 -0.0006510721251495819 -0.0006558989031866673 -0.001122771604272478 -0.0011239462019197754 -0.0011251207995670726
          -0.001591410554944668 -0.0015881646701740302 -0.0015849187854033923 -0.0019753794549334566 -0.0019688922906274833 -0.00196240512632151
          -0.0022360509908846077 -0.002227840080824976 -0.0022196291707653444 -0.002362235267774894 -0.002353917511202962 -0.00234559975463103
          -0.002364669187485676 -0.0023574377427415154 -0.0023502062979973543 -0.002264823901625018 -0.0022576163679528492 -0.00225040883428068
          -0.0009355985088321438 -0.0009392374058157861 -0.0009428763027994286 -0.0014503893075349995 -0.0014490959993083315 -0.0014478026910816632
          -0.0019006852162428874 -0.001894546312130354 -0.001888407408017821 -0.0022221632308604623 -0.002213556115373102 -0.002204948999885741
          -0.002394957466073389 -0.0023860522600650954 -0.0023771470540568016 -0.002428630648736405 -0.0024211035283133934 -0.0024135764078903822
          -0.0023626505549124016 -0.0023554367374445653 -0.002348222919976729 -0.002227853137171304 -0.002218528947646528 -0.002209204758121752
          -0.001281716938359844 -0.0012832349687145186 -0.0012847529990691932 -0.001796610226005552 -0.0017925332756505725 -0.0017884563252955927
          -0.0021943563531387723 -0.002185438551398808 -0.0021765207496588436 -0.0024289146192913265 -0.0024186088553778567 -0.002408303091464388
          -0.0024997864589563 -0.002490709994961747 -0.002481633530967194 -0.0024356297920146634 -0.002429184142531698 -0.0024227384930487323
          -0.0023024074934508668 -0.0022951249366408378 -0.002287842379830809 -0.002147015194597428 -0.0021353220335822427 -0.0021236288725670575
          -0.002140834266488951 -0.0021341372932446815 -0.002127440320000413 -0.002452993746649095 -0.002441763740934388 -0.0024305337352196798
          -0.0025811996489075867 -0.0025697746109807616 -0.002558349573053937 -0.0025439865055568735 -0.0025350131703583472 -0.002526039835159822
          -0.0023855184882754154 -0.002379554063099449 -0.002373589637923483 -0.002181882504978441 -0.0021744122654670955 -0.0021669420259557504
          -0.0019661736648173027 -0.0019551201846578535 -0.0019440667044984049 -0.0024603108275019197 -0.0024515483406410896 -0.0024427858537802594
          -0.0026576368980629605 -0.0026447183813090905 -0.002631799864555221 -0.002664590168321879 -0.00265259522511457 -0.0026406002819072613
          -0.0025154841928187897 -0.0025068709773522213 -0.002498257761885652 -0.002264046677233458 -0.0022585579950123963 -0.002253069312791334
          -0.0019833214392493263 -0.001976724721120792 -0.0019701280029922577 -0.0016833527742697433 -0.00167689590059575 -0.0016704390269217566
          -0.002731077014743886 -0.002720948137683981 -0.002710819260624076 -0.00278853689347089 -0.0027746684982126674 -0.0027608001029544448
          -0.0026625072668273676 -0.0026506377288600517 -0.002638768190892736 -0.002398573482724743 -0.0023910488769778686 -0.002383524271230993
          -0.0020564022429384963 -0.00205259651115335 -0.002048790779368204 -0.0017055255874309251 -0.0017018659986584744 -0.0016982064098860236
          -0.0029267201037799003 -0.002915862660430254 -0.002905005217080607 -0.0028235887568252437 -0.00280977944295169 -0.0027959701290781363
          -0.0025575330494295827 -0.0025469951881496077 -0.0025364573268696327 -0.002183855081486371 -0.0021787712928235774 -0.002173687504160783
          -0.0017686320901733102 -0.0017679592223548812 -0.0017672863545364521 -0.001918716614926004 -0.0021785320132251353 -0.0022172563998429967
          -0.0020905244019433925 -0.001913174582506612 -0.002170587742498109 -0.002209676011908563 -0.0020831168644504187 -0.0019076325500872204
          -0.0021626434717710824 -0.0022020956239741287 -0.0020757093269574453 -0.0017736354144478501 -0.001915944384617425 -0.0017109486324240427
          -0.0015292727196001747 -0.0017671592031207786 -0.0019079633125121949 -0.0017070338111074156 -0.0015269233143543938 -0.0017606829917937068
          -0.0018999822404069644 -0.0017031189897907886 -0.001524573909108613 -0.0014624568733916277 -0.0013381414642314312 -0.0017050306362048709
          -0.0014644392539242888 -0.001339355611354824 -0.0016982895207862995 -0.0014664216344569502 -0.0013405697584782175 -0.0016915484053677278
          -0.0013204339796649507 -0.0013256649585126291 -0.001330895937360308 -0.002217621366848943 -0.002160956329057923 -0.0021947818925920496
          -0.0021706604929019727 -0.002210215559305316 -0.0021544384273349732 -0.00218568723492785 -0.0021621109447337097 -0.0022028097517616894
          -0.0021479205256120233 -0.0021765925772636507 -0.002153561396565447 -0.0015716543734679705 -0.0013128952172794975 -0.0015674268496892831
          -0.001312991020076037 -0.0015631993259105955 -0.0013130868228725771 -0.001762553136956499 -0.0014775135696725988 -0.001500184698454089
          -0.0017603439196737178 -0.0014786021209929 -0.0015003728767344307 -0.001758134702390937 -0.0014796906723132017 -0.0015005610550147728
          -0.0010811980397921243 -0.0013434016935458591 -0.0010842257596108836 -0.001342023411041564 -0.0010872534794296427 -0.0013406451285372688
          -0.0019111062006664347 -0.0015529646753462117 -0.001904222618115069 -0.0015526850345613972 -0.0018973390355637033 -0.0015524053937765825
          -0.0020788215043993025 -0.00207037683259862 -0.002061932160797937 -0.0018677882462459125 -0.0015320779040027175 -0.001863971389073556
          -0.0015332466278983113 -0.0018601545319011994 -0.0015344153517939051 -0.0020922944297385986 -0.0019121819166993744 -0.0020840873488509482
          -0.0019053914951419114 -0.0020758802679632974 -0.0018986010735844484 -0.0020944082959763696 -0.002135882247866431 -0.0020887197318032995
          -0.0021279302734001164 -0.0020830311676302287 -0.002119978298933802 -0.0018691399588820065 -0.002014856688017602 -0.0018641490288372232
          -0.0020086432962399606 -0.0018591580987924398 -0.0020024299044623184 -0.0008563091172330008 -0.0008622758392969735 -0.0008682425613609461
          -0.0005344334664514706 -0.0006602811314909966 -0.0005428689152502802 -0.0006682399265620104 -0.00055130436404909 -0.0006761987216330242
          -0.0019827726398759927 -0.0019744256141047967 -0.001966078588333601 -0.0004548019609638558 -0.00046312098883772315 -0.00047144001671159034
          -0.001971088722312686 -0.001959398766103938 -0.0019477088098951891 -0.0003646022212283369 -0.0003728718778656371 -0.00038114153450293734
          -0.0011137171775437446 -0.0011157636914261558 -0.001117810205308567 -0.0008954422778115809 -0.0009001913539103605 -0.0009049404300091398
          -0.0007324321390268972 -0.0007385878845004093 -0.0007447436299739216 -0.001357709483658409 -0.001356537842076119 -0.0013553662004938286
          -0.0013805170730082244 -0.0013807159571858504 -0.0013809148413634759 -0.0010408012856961987 -0.0010431004290159217 -0.0010453995723356448
          -0.002741043349860383 -0.0030177642584644695 -0.002728697768322999 -0.0030067315403999855 -0.0027163521867856148 -0.0029956988223355024
          -0.0023393514260844983 -0.0023318393585973025 -0.0023243272911101067 -0.0018783483591002727 -0.001877094240163069 -0.0018758401212258654
          -0.0014278112413035557 -0.001430794333171996 -0.0014337774250404362 -0.001048197813273406 -0.0010515274597547935 -0.001054857106236181
          -0.0009959262818583325 -0.0010027682500688233 -0.001009610218279314 -0.0010185401814978854 -0.001024239524883932 -0.0010299388682699783
          -0.0021514964905912023 -0.001982013995083488 -0.0021434538887398413 -0.0019774852479454512 -0.0021354112868884794 -0.0019729565008074143
          -0.0011009233225498715 -0.0011186728275435623 -0.0011038829404783229 -0.0011211446298439384 -0.001106842558406774 -0.0011236164321443145
          -0.0019513012111263498 -0.0020759065165884094 -0.001946484731465102 -0.0020691832717509287 -0.0019416682518038546 -0.002062460026913448
          -0.0017951396153117406 -0.0017913598889714658 -0.001787580162631191 -0.0010963720538666574 -0.001099928188252482 -0.0011034843226383068
          -0.0021598148469956684 -0.002145390294295712 -0.0021511100175105706 -0.0021389085834697566 -0.002142405188025473 -0.0021324268726438007
          -0.0011455388714019241 -0.0011491951105692545 -0.001152851349736585 -0.00129199536401151 -0.0016300866814869448 -0.0012939669736668487
          -0.001631042409821618 -0.001295938583322187 -0.001631998138156291 -0.001016113568898833 -0.0010219838781840161 -0.001027854187469199
          -0.0016179419337355736 -0.0016152472334279439 -0.0016125525331203146 -0.0006107552649409449 -0.0008779415250852327 -0.0006167150732001009
          -0.000881765739212852 -0.0006226748814592572 -0.0008855899533404713 -0.0014316425919140487 -0.001430400231697454 -0.0014291578714808592
          -0.0012211327331004206 -0.0012214390377558518 -0.0012217453424112831 -0.0007485800273158704 -0.0007565480311729968 -0.0007645160350301234
        </DataArray>
        <DataArray type="Float64" Name="disp_x" format="ascii" RangeMin="0.000001816935919800022" RangeMax="0.000027639656558986453">
          0.000002346473240287802 0.0000023451163585409627 0.000002346485109090333 0.0000023450573474265516 0.000002346429944665098 0.0000023451835459847113
          0.0000029001252669785407 0.000002896075295618333 0.0000028999652918658567 0.0000028976765581970174 0.0000028998352236373154 0.000002898534845031499
          0.0000034544269152266286 0.000003455973671290925 0.0000034544974184942876 0.0000034543040109490463 0.0000034543370668661654 0.0000034531434753970097
          0.000004010180033873284 0.0000040090037585073595 0.000004010015892802546 0.000004008914762274453 0.0000040097456138193545 0.000004008501537751947
          0.000004566882845128855 0.000004565377140900314 0.000004566835028164111 0.000004565269694021044 0.000004566341071623696 0.0000045648185218358
          0.0000051248944018734944 0.0000051222368126111326 0.000005125331239748213 0.000005122729913694686 0.000005126452847610523 0.000005123034152893018
          0.000005697308101517648 0.000005682663264351296 0.000005698680597151779 0.000005683664991832999 0.000005703866907103018 0.000005687345363533873
          0.0000063478670605471835 0.000006315522780707036 0.000006353993271118898 0.000006321482348014192 0.000006368281934017243 0.0000063402543789945755
          0.0000023495099595035237 0.0000023494704550330743 0.0000023493808605606955 0.0000029034734756532774 0.000002903466707422751 0.0000029033580680418726
          0.000003458367610364632 0.0000034582795728307902 0.0000034581352191991535 0.000004014761718992577 0.000004014628344188319 0.000004014208554082241
          0.0000045719735439344254 0.000004572202169363196 0.000004572254947346676 0.000005132626845877718 0.000005133609445480465 0.00000513704309058861
          0.000005738382019516191 0.00000574066643073442 0.000005747609101790631 0.000006444171989555602 0.0000064500787804753845 0.000006466317175718513
          0.000002353693001661193 0.000002353668099385409 0.000002353590813242662 0.000002908786821731825 0.0000029087557245275227 0.0000029086528882149596
          0.0000034647734676356697 0.0000034646957978276142 0.0000034645523380481796 0.000004022187474528918 0.0000040220837987298196 0.000004021592656304099
          0.000004580710152984191 0.000004581278815384507 0.000004582361874321384 0.000005152940812790156 0.000005155011378689027 0.000005162019826992728
          0.000005811316627263024 0.000005814912717683385 0.00000582552928074763 0.000006615846225473195 0.000006621520298062327 0.000006639450355906503
          0.0000023590566285303136 0.000002359041367758709 0.000002358978249477794 0.0000029156567373901895 0.000002915618886060218 0.000002915559904118352
          0.000003473518705710674 0.000003473413297097082 0.000003473086349710879 0.000004031794384583302 0.000004031975466952984 0.000004031999690798792
          0.000004592360357577519 0.000004593639187801127 0.0000045973485774956264 0.000005200442238047793 0.0000052037653808444735 0.000005214698742714042
          0.000005937898047629837 0.000005942278262766125 0.000005954966208273613 0.0000068443258441980515 0.000006850896111835813 0.000006870025926630789
          0.0000023652113299494 0.0000023652040702183435 0.000002365159168102476 0.0000029236552055388363 0.0000029235967135971096 0.0000029235360676731567
          0.0000034832181258062974 0.0000034831891037378677 0.0000034828272878966897 0.000004043501882259419 0.000004044005989004123 0.000004045210634238571
          0.000004618133507942589 0.000004620800286983959 0.0000046287276792072634 0.00000528785122670752 0.000005292278747858235 0.000005306737024728963
          0.000006124363369356299 0.000006129454135844686 0.000006143871115319864 0.000007153420980067863 0.000007160997417111788 0.000007183516236857235
          0.0000023715902560150976 0.0000023715649329159087 0.0000023715685213701144 0.0000029321294553149888 0.000002932063519316782 0.0000029318031063757553
          0.0000034931426279396846 0.000003493400080349701 0.0000034936630323821964 0.000004056983240750223 0.000004058355909033497 0.000004062698936921422
          0.00000467440416633786 0.00000467848670819306 0.000004690569343432922 0.0000054297096011211785 0.000005435118193842161 0.000005452555960789369
          0.000006386497737666808 0.000006392403571201485 0.000006409182256509729 0.000007568401935379922 0.000007576875199278021 0.000007602153783639705
          0.0000018169492412549702 0.0000018169478370354154 0.000001816935919800022 0.0000023777856502505898 0.0000023777382755351124 0.000002377675817056527
          0.0000029395005375244516 0.0000029395554263175358 0.0000029393892389097074 0.0000035020035150338714 0.0000035026893880234475 0.000003504588293855943
          0.00000408614419786181 0.000004089050201849908 0.000004097960624173192 0.000004773962513389261 0.000004779395914757205 0.00000479561783905255
          0.0000056432223764648105 0.000005649525542479251 0.000005669639911775556 0.000006746906073710368 0.000006753515521644167 0.00000677227957381646
          0.000008101815948972133 0.000008110722628157494 0.000008137388595177817 0.000001820896922660612 0.000001820872276616909 0.0000018208946170563424
          0.000002383242088123448 0.0000023831806594907893 0.000002382893104728575 0.000002945825160364121 0.000002946216543011347 0.0000029467922083940258
          0.000003512962637536781 0.0000035147436983455635 0.0000035203545421600747 0.000004146499107596179 0.000004150979789540132 0.0000041646792591689115
          0.00000493342008182223 0.0000049401583865305215 0.000004960213502647011 0.00000594572909549588 0.00000595279477042892 0.0000059753438531849386
          0.000007223733715034743 0.000007230760352095513 0.000007250586421719953 0.00000876718907093335 0.00000877607166643831 0.000008802505102659446
          0.0000018242925341467799 0.0000018242375156294588 0.0000018241289707768697 0.0000023868689770589755 0.0000023869840699225077 0.0000023869038430869717
          0.0000029501426715772667 0.000002951011360889077 0.0000029535841969984996 0.0000035423247253802324 0.0000035457954993677574 0.000003556333127348719
          0.000004253566537397734 0.000004259585796899948 0.0000042780216020296756 0.000005169629575743627 0.000005177486723200537 0.000005201043570837726
          0.000006353030056557008 0.0000063607542369914925 0.000006385173254727194 0.000007828612507523036 0.000007835669427740068 0.000007855634919248823
          0.000009572675684659812 0.00000958084676770142 0.000009604997193484426 0.0000018268813020830134 0.0000018268103144810844 0.000001826453405922377
          0.000002389698444343614 0.0000023901160812486855 0.000002390836556176045 0.0000029583264717139536 0.0000029605291840568912 0.0000029673199803794322
          0.00000360499885353924 0.0000036101760130095337 0.000003626017125319254 0.000004426019855165881 0.000004433530101011534 0.000004456265832922513
          0.000005501194545621611 0.000005509949415388746 0.000005536228255755676 0.000006878020048773444 0.000006885958780196032 0.000006911192703403809
          0.000008562840633550099 0.00000856976310575119 0.0000085889437789693 0.000010508804603617126 0.000010515657417452364 0.000010536204067799746
          0.0000018280364700402852 0.000001828149318996693 0.0000018280381919939782 0.0000023908656066829053 0.0000023918715968354174 0.0000023948622535386286
          0.0000029869147256306458 0.0000029909350029549036 0.0000030031287330512925 0.000003718157350344166 0.000003725089866563477 0.000003746256107123937
          0.0000046821921004318966 0.000004690933777572209 0.000004717458622121496 0.000005945470896594537 0.000005954642104751759 0.000005982341109811833
          0.000007533075965583281 0.000007541052346978667 0.000007565211892551357 0.000009421731315791582 0.00000942800443196384 0.00000944632642420286
          0.000011559237422733755 0.000011564622239039175 0.000011581350461534833 0.0000018294731055681316 0.0000018299664994080539 0.0000018307028762779688
          0.000002396923043077102 0.0000023993240080137985 0.000002406886866886524 0.0000030504165954316876 0.000003056357674504692 0.0000030745494088297556
          0.000003901814140286308 0.000003910381313478577 0.000003936391388358052 0.0000050414286698271245 0.000005051046443065623 0.000005080244573151173
          0.000006516300843200058 0.000006525616396166945 0.000006553540045131069 0.000008326890578539877 0.000008334456118462952 0.00000835782743795408
          0.000010436938309585037 0.000010442168273934549 0.000010457777342579545 0.000012779542382283408 0.000012783182561826199 0.000012792501766308457
          0.0000018303017162288117 0.0000018313483879980924 0.0000018344187411237086 0.0000024240268141217424 0.0000024285343739729573 0.0000024421911266441142
          0.000003167738300713641 0.0000031756893525405644 0.000003200014914968018 0.000004176212262015711 0.000004186117797962258 0.000004216177228034635
          0.000005522965890627676 0.000005533084890784313 0.000005563692277768642 0.000007229998353424645 0.000007238908661812083 0.000007265817425725195
          0.000009271993204238532 0.000009278678521403153 0.00000929877510719574 0.000011586406986850902 0.000011590410777882435 0.000011602367600057851
          0.000014080319831477336 0.00001408215865240883 0.000014087706353520695 0.0000018352621590221881 0.0000018377780787411014 0.0000018456919231901201
          0.000002487751462277965 0.0000024944537397265675 0.0000025149748058159685 0.0000033617713546599274 0.000003371561719080749 0.0000034014006977265197
          0.00000456438373301852 0.000004575221780007338 0.000004608116731655843 0.0000061462253075164395 0.000006156286112999606 0.00000618669665292505
          0.000008099005675058964 0.000008107017168375395 0.0000081310865463513 0.000010365955604809748 0.000010371204877079263 0.000010387062979852669
          0.000012858736314795117 0.00001286109813790444 0.000012868169562039364 0.00001547566620599513 0.000015475563167662854 0.00001547424750366898
          0.0000026086609121596646 0.0000026176460727670082 0.000002645373746115418 0.000003656901111189688 0.0000036681907871731628 0.000003702491987836783
          0.000005090740233851099 0.000005101916844125677 0.000005135784542927146 0.0000069281246683857285 0.000006937516290409971 0.000006965845021249055
          0.000009127470760535474 0.000009134048378226375 0.000009153845526290009 0.000011602979582568656 0.000011606383997483129 0.00001161637232879099
          0.0000142402044868523 0.000014240598905121503 0.000014241840362649309 0.00001692288091073364 0.00001692111557418633 0.000016915391670259762
          0.0000028138508773689517 0.0000028247792059596768 0.0000028589707925064143 0.000004080978816472822 0.000004093271998763603 0.000004130436175764165
          0.000005778863389990294 0.000005789654198455825 0.000005822247308009131 0.000007882693542071009 0.000007890702548651096 0.000007914795215253668
          0.00001031457735380759 0.000010319257676202758 0.000010333339803736197 0.000012965681617253105 0.000012967043969557104 0.000012970982347640664
          0.000015711634424261944 0.00001571009372677395 0.000015704903935970174 0.000018420586540874982 0.000018417623774779266 0.000018406159100051906
          0.000003132472488974687 0.000003144639129904868 0.0000031835286151689994 0.00000466311825088583 0.00000467569545855577 0.000004713337083305011
          0.0000066488209029098 0.000006658469880761187 0.0000066875296157272535 0.000009018636991315778 0.000009024622142096706 0.000009042573939086843
          0.000011658747881877422 0.00001166091767219653 0.000011667494997297876 0.000014437549921254876 0.000014436978850135787 0.000014434494362232057
          0.000017233316179061796 0.000017230870299872153 0.00001722389789724311 0.000019961949218229084 0.00001995647670813374 0.000019940963170617294
          0.0000035980417906746205 0.0000036104025852457244 0.000003651053908165324 0.000005431291003573774 0.0000054432392075510045 0.0000054784663115208546
          0.000007715811872233741 0.000007723590523366489 0.000007746924611226001 0.000010336800535206425 0.00001034029920814483 0.00001035076256545899
          0.000013151310947373037 0.000013150765568154251 0.000013149332058480922 0.00001601342749370379 0.000016010790799306065 0.00001600125915084163
          0.000018802572344942752 0.000018799148395430998 0.000018788359150097927 0.00002146162752682658 0.000021454471689124193 0.000021437280518794288
          0.0000064101575786213 0.000006420497647526303 0.000006450392437528976 0.000008989517931892486 0.00000899478557489516 0.000009010492068957138
          0.00001183217178107368 0.000011832852932376074 0.000011834881930771208 0.000014775760686103063 0.00001477256454846582 0.000014763237306001107
          0.000017671581889716838 0.000017667222151218823 0.000017651946507314028 0.000020414338527863702 0.000020409022212012954 0.00002039512667074357
          0.00002296793655905803 0.000022958526528658434 0.000022932506038089555 0.000007619537481591643 0.00000762737905955843 0.000007649269810382895
          0.000010473200058285343 0.000010475466147628043 0.000010482038724479143 0.000013492827918089499 0.000013490501651847266 0.000013483556734392883
          0.000016506482469686602 0.00001650069101537174 0.000016483718108000477 0.000019371227712720494 0.000019364995862798465 0.000019343585000571203
          0.000021991609352839 0.000021984047408871213 0.000021964073474060236 0.000024322042875544056 0.000024310695502166773 0.00002427628109604746
          0.000009071599827670344 0.000009076037318444625 0.000009087491017914943 0.000012160242906478469 0.000012159120444945092 0.000012155354089488748
          0.000015293100417024218 0.000015287615693381554 0.00001527122150939621 0.000018296492890133207 0.00001828811737148404 0.000018263278863622753
          0.000021036690295625108 0.000021028574261422485 0.000021001121635437722 0.000023433675433725766 0.000023424376599881564 0.000023400010202417846
          0.000010766438617768514 0.000010766678002395116 0.000010765591908539663 0.00001402620745892112 0.000014021386632528554 0.000014006297737131464
          0.00001718282866111307 0.000017174175508845093 0.00001714824912027576 0.000020071577229860886 0.000020060978629729382 0.000020029208222030358
          0.000022582680892549962 0.000022573023543947718 0.000022541455802365713 0.000022290031098057508 0.000019448171493976952 0.000017920190961637153
          0.000020244422279041654 0.00002228153995010934 0.00001944353585188 0.00001791767977819632 0.00002023895937874734 0.000022254688163499022
          0.000019430364198801022 0.000017910049588737935 0.00002022455906929719 0.000011512639350212015 0.00001242773342616949 0.000010865818155088205
          0.000009993347274200413 0.000011520019237311908 0.00001243409042086589 0.000010874168974939218 0.000010002955828749471 0.00001154076085690957
          0.000012451144434461358 0.00001090249161598092 0.000010034715296010898 0.000025130418087546583 0.000025564452089291917 0.000024148380220089957
          0.0000251174650821491 0.00002555176144335969 0.00002413582579369685 0.000025075520144692017 0.000025509022283499033 0.00002409238942497699
          0.000025680486038370014 0.00002567086819088313 0.000025642488020129092 0.000016335016827547885 0.00001481697777003758 0.000016651814686494268
          0.000018516964222638643 0.000016334934936995647 0.000014819367345952788 0.000016651668723101562 0.00001851373753726783 0.000016334838145210953
          0.000014826943199513039 0.000016653858089581715 0.00001850357795820056 0.000010429232793126394 0.000009166540481783483 0.000010438903751443903
          0.000009176984126416142 0.00001046618209742329 0.000009210824400664716 0.000023379861487235157 0.00002515232190873308 0.00002507289858445474
          0.000023371235128870665 0.000025143824644582688 0.00002506407417226804 0.00002334197268150924 0.00002511972213229654 0.00002503480886739358
          0.000008449412262120802 0.000009489696971100652 0.000008460231782514997 0.000009501125385754477 0.000008495065884668375 0.000009533807081103214
          0.000022791371120075506 0.000024790008598243433 0.000022781177709737582 0.00002477940009730062 0.000022748696813773464 0.00002474509816813695
          0.000014183133124462132 0.00001418660028779785 0.000014195271139953214 0.000022454792157148548 0.000024868350535036934 0.000022447146881232197
          0.00002486020846197134 0.000022424044420857103 0.00002483470254469683 0.00002088657183223722 0.000022616364123482253 0.000020880146988712275
          0.00002260767350867215 0.000020866176203325124 0.00002258154952928381 0.000013871323901461772 0.000014812090870606424 0.000013875095026809155
          0.000014814928567582254 0.00001388695564286667 0.000014822867281320646 0.00001182163593076726 0.000013120292009974838 0.000011828434423799816
          0.000013125552630703479 0.000011852005458595516 0.000013140885480800977 0.000007883092612962947 0.000007893735567992924 0.000007928061070183733
          0.000007235699624496255 0.0000074755000246010265 0.00000724669133277914 0.000007485634776643738 0.00000727564722232132 0.00000751631920597146
          0.000012846521859849881 0.000012852910151535681 0.000012869391937384687 0.00000699790928753975 0.000007008387359770937 0.000007045883691650659
          0.0000227945504829951 0.00002278534214787472 0.000022754989016947755 0.000006813024290673688 0.000006822824672030194 0.00000685497797329021
          0.000008734136113923499 0.000008747118606821573 0.000008784562314673992 0.000008151267707784995 0.000008164528555635488 0.000008207150946977883
          0.000007744203403102701 0.000007757792051078513 0.000007798050108305064 0.00002546697641628337 0.000025455596619102307 0.00002541897000698176
          0.00002467432641789205 0.0000246647941442699 0.00002463887437684435 0.000026377744537048596 0.000026367716562267872 0.00002633608858297377
          0.000016021025712183516 0.000012685928084810055 0.000016012276755365355 0.000012681274917531453 0.00001598535953030289 0.000012665914907605449
          0.000019084475656152658 0.00001907304208752061 0.000019038500669691313 0.00002174133729416312 0.000021729304823093224 0.00002169293928808959
          0.000023930805217260033 0.000023920962708653208 0.000023888713478853515 0.000025673228151702178 0.000025664692294239794 0.000025641300559354474
          0.000026981292019926545 0.000026972484709445695 0.000026947465567966345 0.000027073868826274424 0.00002706698103318118 0.000027047823813475435
          0.000018188387139690862 0.000020994436204565147 0.000018185490485205168 0.000020987568379779085 0.00001817534853221169 0.000020966426950608964
          0.00002731097908813443 0.000027059716647358206 0.000027303643614849756 0.000027052128898262524 0.000027282162797821997 0.000027031194097282815
          0.000013339311475118017 0.000014913395360414914 0.000013343941920353796 0.000014915355254288007 0.000013356383120334933 0.000014921389767639457
          0.000011898757424078818 0.000011906062749413597 0.000011928305949926951 0.000026992060395680683 0.000026984111600951334 0.000026962392703973493
          0.000016067861790023197 0.000017424442825177932 0.000016068267610336973 0.000017423366822487806 0.00001607146768203117 0.000017420800318470227
          0.00002734632887478145 0.000027340093728828548 0.00002732064391884824 0.000026884831991427625 0.000024260355707339175 0.00002687982488579686
          0.000024253758747861395 0.000026866170759849098 0.000024232061762488923 0.000026539227517770053 0.00002652836235968807 0.000026491431633813934
          0.000010701051500471373 0.000010711056768428752 0.000010741611922816886 0.000007251308592345567 0.000007939345886652795 0.000007263961916462303
          0.000007953614643267953 0.000007303510196301578 0.000007997036698101763 0.000009751447269935275 0.000009763892983312257 0.000009801657197708058
          0.000008931710831944287 0.00000894568293771086 0.00000898987541231309 0.000027639656558986453 0.000027632346405571165 0.000027614574648874858
        </DataArray>
        <DataArray type="Float64" Name="disp_y" format="ascii" RangeMin="-0.000017277539278843665" RangeMax="0">
          -1.406769010039381e-7 0 -1.4072394284223753e-7 0 -1.4067376674128473e-7 0
          -1.4337426960370708e-7 0 -1.432822648837988e-7 0 -1.433688612590615e-7 0
          -1.4622094598711468e-7 0 -1.461229873835391e-7 0 -1.4619932739522387e-7 0
          -1.4936660215007648e-7 0 -1.4941480341494113e-7 0 -1.493545348110219e-7 0
          -1.5431246192886982e-7 0 -1.5428600823631937e-7 0 -1.5434001145074372e-7 0
          -1.5961200505900744e-7 0 -1.5920843979053178e-7 0 -1.5821354164866523e-7 0
          -1.7888411839948086e-7 0 -1.7798205385937217e-7 0 -1.750712902802973e-7 0
          -2.4479479913471736e-7 0 -2.435967186846824e-7 0 -2.405962395878178e-7 0
          -2.8176036857733794e-7 -2.817317534480479e-7 -2.816777630907343e-7 -2.8617475507787543e-7 -2.8616922637596566e-7 -2.8609266225187865e-7
          -2.9186451166884403e-7 -2.9185533614658026e-7 -2.9176885863609825e-7 -2.9903212669816466e-7 -2.990142519711219e-7 -2.9894959995930106e-7
          -3.086685361786174e-7 -3.0854201231725373e-7 -3.0844595797111955e-7 -3.2328635381474017e-7 -3.224511469248853e-7 -3.20267201103604e-7
          -3.716132018516203e-7 -3.698262454147039e-7 -3.64047962236384e-7 -4.928458635202136e-7 -4.905423626311404e-7 -4.827203203573898e-7
          -4.2286649350650104e-7 -4.228413428524647e-7 -4.2276044992240257e-7 -4.291340333911678e-7 -4.2910031673277125e-7 -4.290096519624079e-7
          -4.3751084349036896e-7 -4.37475044652284e-7 -4.373686108008138e-7 -4.487572089205911e-7 -4.487346163054801e-7 -4.4873993969950445e-7
          -4.631777476794733e-7 -4.627162964639408e-7 -4.617483704205272e-7 -4.94974789444955e-7 -4.935234554576883e-7 -4.892515231088404e-7
          -5.876119491135592e-7 -5.850855916339173e-7 -5.770746013166685e-7 -7.890932081577046e-7 -7.858941383670263e-7 -7.759110020185454e-7
          -5.641898030993241e-7 -5.641561777900716e-7 -5.640549353315238e-7 -5.723118767901404e-7 -5.722698567569865e-7 -5.72150953941418e-7
          -5.831444808857043e-7 -5.831276861245108e-7 -5.830070390718284e-7 -5.981054717236882e-7 -5.979291303926372e-7 -5.977502713370368e-7
          -6.20837926774016e-7 -6.198857502617883e-7 -6.173209383350835e-7 -6.829164911150702e-7 -6.807857425515248e-7 -6.74022422557938e-7
          -8.395469414665172e-7 -8.36364809847646e-7 -8.265901235793851e-7 -0.0000011304741161051407 -0.0000011264958475075574 -0.000001115246687921733
          -7.058219669201678e-7 -7.057825038007767e-7 -7.056632912727428e-7 -7.156414331718337e-7 -7.156012391554603e-7 -7.154576880648235e-7
          -7.290068995484556e-7 -7.289600113759776e-7 -7.289426539475403e-7 -7.469921104760415e-7 -7.464228362658174e-7 -7.452019535884712e-7
          -7.868699688910267e-7 -7.85208268834703e-7 -7.802249975074271e-7 -8.983082302911931e-7 -8.954174891327843e-7 -8.864557666105839e-7
          -0.0000011336729023437086 -0.000001129747005948031 -0.0000011178248313131473 -0.000001524717030517304 -0.000001520097357837904 -0.000001505981623171154
          -8.477442611625828e-7 -8.477004927153857e-7 -8.475808381705715e-7 -8.591881452728837e-7 -8.591791470844899e-7 -8.590873439751821e-7
          -8.745794020108398e-7 -8.743222509305998e-7 -8.739743621270388e-7 -8.996511315077394e-7 -8.984816880511352e-7 -8.952608192565523e-7
          -9.71553990368749e-7 -9.690849561353828e-7 -9.613363776879082e-7 -0.0000011500090111728246 -0.0000011462864605724835 -0.0000011349012414952194
          -0.0000014802203609258506 -0.0000014755345063544891 -0.0000014613170322269547 -0.0000019909051945627156 -0.0000019856888587483963 -0.0000019695696138743794
          -9.79970933434491e-7 -9.79932557952072e-7 -9.798191121105734e-7 -9.897470077715195e-7 -9.897200374433563e-7 -9.89595481932616e-7
          -0.0000010029297497330306 -0.0000010028679643612051 -0.0000010029056336437429 -0.0000010203355852055556 -0.000001019673200480293 -0.0000010181196433991306
          -0.0000010631842665270065 -0.000001061245427823378 -0.0000010553629942114998 -0.0000011867118784881922 -0.0000011833294226234319 -0.0000011728322378482205
          -0.000001449050730302273 -0.0000014444704951629733 -0.000001430395940862755 -0.0000018918052141779643 -0.0000018864333455819207 -0.000001870134046335359
          -0.0000025382068914135132 -0.0000025326324944697425 -0.000002515497271867541 -0.000001120782912221926 -0.0000011207463081552535 -0.000001120638942306358
          -0.000001131835689003881 -0.0000011318364190468195 -0.0000011318096966892408 -0.0000011462007156415575 -0.000001145888982473055 -0.0000011453819871733316
          -0.0000011713968651453573 -0.0000011700397329358026 -0.0000011662858077646946 -0.0000012494259598246458 -0.0000012466005628020792 -0.000001237797767384491
          -0.000001444451851901313 -0.0000014401456941663525 -0.0000014268538211432667 -0.000001809407843800514 -0.0000018040104046125798 -0.0000017874138265285382
          -0.00000237954811811548 -0.0000023736016721427985 -0.000002355517294248223 -0.0000031702950855439762 -0.0000031646536419142825 -0.0000031471329206566363
          -0.0000012612893128948027 -0.0000012612693213997656 -0.0000012611639777909305 -0.0000012737514768854827 -0.0000012736897622678849 -0.0000012737634589291217
          -0.0000012902095842463165 -0.0000012894521031501818 -0.0000012876182546271162 -0.0000013355936497408706 -0.0000013334267508029161 -0.0000013268020904312839
          -0.0000014705749089341905 -0.0000014667684440647853 -0.0000014550285716778286 -0.0000017582742770433928 -0.0000017531147332615451 -0.0000017371786910175755
          -0.00000224484945292328 -0.0000022388390734406564 -0.0000022203702605869643 -0.0000029534918789848703 -0.00000294736943113333 -0.00000292831323141304
          -0.000003888739274306883 -0.000003883097317621886 -0.000003865976552775805 -0.0000014014491167744146 -0.0000014014616845212702 -0.0000014014626195419786
          -0.0000014149154559132225 -0.0000014145455512248975 -0.0000014139405111008651 -0.000001440433378616312 -0.0000014389238985833353 -0.0000014347549925695911
          -0.0000015250798898187726 -0.000001521946320303865 -0.000001512177902692404 -0.0000017394491790944004 -0.000001734674797408879 -0.0000017198613546394015
          -0.000002141657630509409 -0.000002135748324530074 -0.0000021175469268992896 -0.0000027667479609252844 -0.0000027604159482466883 -0.000002741121013171551
          -0.0000036212273990802353 -0.0000036149725975916116 -0.000003596672248346634 -0.00000469225978992578 -0.000004687135011019973 -0.0000046704413635438625
          -0.0000015409314008088334 -0.0000015408584023060377 -0.0000015409484651467695 -0.0000015568824080588792 -0.000001556080710511242 -0.000001554107091620161
          -0.0000016049300678627331 -0.0000016025467481818657 -0.0000015952544093247 -0.000001752636197835386 -0.0000017484238225864834 -0.0000017353656694022473
          -0.000002070367968218318 -0.000002064673509175882 -0.000002047027150994143 -0.0000026075627991145363 -0.000002601070252896841 -0.000002581174247642852
          -0.000003382297165975433 -0.000003375772813604677 -0.0000033560332855426543 -0.000004385131523870331 -0.000004379150019913942 -0.000004360851166067963
          -0.000005579698114046249 -0.000005574945087323474 -0.000005560474046496808 -0.0000016790139426388055 -0.0000016786546947081398 -0.0000016780577901879673
          -0.0000017048888435554923 -0.0000017032641457129033 -0.0000016988344640135415 -0.0000017959100772610044 -0.0000017924592888715024 -0.0000017817038610204475
          -0.000002032046355891502 -0.0000020267475281022128 -0.0000020102837733102978 -0.0000024779121064678795 -0.0000024714095242676306 -0.000002451375350510617
          -0.0000031674366205437285 -0.00000316057304275576 -0.000003139623903172267 -0.000004099722518111964 -0.000004093277655328068 -0.000004073541565201093
          -0.000005245769588893859 -0.000005240283945636977 -0.0000052233351628486236 -0.000006573298380721672 -0.000006569340982207631 -0.000006556758163537616
          -0.0000018167989445174252 -0.0000018159545674255725 -0.0000018139454409316083 -0.000001866259242235764 -0.0000018636626329756833 -0.000001855781659974426
          -0.000002026735918635762 -0.000002022078745421198 -0.0000020075782639970265 -0.000002379089013898789 -0.0000023727552663164465 -0.0000023531202663889952
          -0.0000029763541487075585 -0.000002969242396418062 -0.0000029473601006361336 -0.0000038319432125846375 -0.00000382499974566815 -0.000003803791445643307
          -0.000004924000362934142 -0.000004918012586285658 -0.000004899812124311799 -0.00000620851976858127 -0.000006203909381484083 -0.000006190311495350956
          -0.000007630718176602282 -0.000007627916179313057 -0.000007619004377552193 -0.0000019589609316594614 -0.000001957229759227465 -0.0000019525943999446974
          -0.0000020533280652353476 -0.0000020495116710580617 -0.000002037571342010144 -0.0000023125352850768516 -0.0000023066043771958795 -0.0000022881082758689552
          -0.000002810252481898995 -0.000002803032159362966 -0.000002780713832950876 -0.0000035796259655598274 -0.000003572195837361125 -0.000003549407692266444
          -0.0000046093001492355375 -0.000004602641574976809 -0.000004582325960747865 -0.0000058553047216663135 -0.0000058501362400120595 -0.00000583452838512702
          -0.00000725664993739756 -0.000007253417244742099 -0.00000724355431962464 -0.000008746195492066688 -0.000008745038103789279 -0.000008741026293101292
          -0.0000022807961721390374 -0.0000022755518573773214 -0.0000022591182113853087 -0.0000026713508163753972 -0.000002664192749717207 -0.0000026418994163434626
          -0.000003342060969738847 -0.0000033341988856331244 -0.000003309966174135272 -0.000004298991474954678 -0.00000429163076183525 -0.000004269175146730732
          -0.000005503086606862193 -0.000005497144303968501 -0.000005479069409834254 -0.000006887461337857572 -0.000006883485854489603 -0.0000068712620250801975
          -0.000008375752173464728 -0.000008373788096829369 -0.00000836822959440758 -0.00000990080892758461 -0.000009900819463838395 -0.000009901876403790376
          -0.00000256582548824256 -0.0000025590149161264822 -0.000002537683129114896 -0.0000031230454317151746 -0.0000031148459491982514 -0.0000030894137137021764
          -0.000003990142486229737 -0.000003981996165709927 -0.000003956974920302942 -0.000005141187208285614 -0.0000051343188170598125 -0.0000051134276028899335
          -0.000006510159721540808 -0.0000065053337004040255 -0.000006490812897888738 -0.000008010322848994183 -0.000008007778282930573 -0.000008000206198438047
          -0.000009552005943406392 -0.000009551564080609061 -0.00000954981205362832 -0.000011066191225109104 -0.00001106716463542654 -0.000011069675969333666
          -0.0000029299594054371104 -0.0000029216062113186494 -0.0000028954804232989957 -0.0000036880480826720967 -0.000003679130106324193 -0.000003651656933859619
          -0.000004767551582142504 -0.000004759580026146354 -0.00000473521147420295 -0.000006108316764315047 -0.000006102343333416313 -0.000006084185662338466
          -0.000007620960290491728 -0.000007617515935601863 -0.0000076072283557231495 -0.000009206141725081643 -0.000009205209211396975 -0.000009202756122941163
          -0.000010770214536987976 -0.000010771112372574307 -0.000010774733792033735 -0.00001224401366643422 -0.000012246167966184556 -0.000012250140916582564
          -0.0000033985653046531775 -0.0000033888952941484996 -0.000003358839237653011 -0.000004385876226802554 -0.000004376714990103234 -0.000004348745062537623
          -0.000005683090688721499 -0.000005675807171463886 -0.00000565365578403134 -0.0000071976556142464864 -0.000007192952074312706 -0.00000717871389046615
          -0.000008822479427863985 -0.000008820560684665592 -0.00000881485197595854 -0.000010453671465948904 -0.00001045438560403436 -0.000010456450940989054
          -0.000012004937418535224 -0.000012007437525366086 -0.000012015329271159591 -0.000013420191326077794 -0.000013424427108176397 -0.0000134354528509159
          -0.000005232987167039584 -0.000005224162601566473 -0.000005197468297598855 -0.000006740059004842251 -0.0000067339713974352815 -0.000006715549272010017
          -0.000008400809226322317 -0.00000839776112475095 -0.000008388532434626585 -0.00001009822471158531 -0.000010098090303041292 -0.000010097666464641199
          -0.00001173209090437822 -0.000011734592854408184 -0.00001174152912546959 -0.00001322906463216739 -0.000013233529839401679 -0.000013246404255668635
          -0.000014551521654200571 -0.000014558244984788649 -0.000014576960668707013 -0.0000062409206450272584 -0.000006233037720764898 -0.000006209439593197014
          -0.000007935062829160058 -0.000007930699511392104 -0.000007917463473390152 -0.000009702268785304641 -0.000009701301137606512 -0.000009698251589384775
          -0.00001142465193495254 -0.000011426738275939359 -0.000011432805270668003 -0.000013012554596147245 -0.00001301718756918092 -0.000013030749009608487
          -0.000014407978466537914 -0.00001441455141747651 -0.000014434612811005634 -0.000015576846288953532 -0.000015584869147611 -0.00001560999045272531
          -0.000007414590676068732 -0.000007408353781992315 -0.000007389765681649864 -0.000009256036728444888 -0.000009253968623038997 -0.000009247561478712762
          -0.000011076392165335088 -0.000011077987976359524 -0.000011082574114810407 -0.000012765757553313558 -0.000012770425818360773 -0.000012784261356209083
          -0.000014250689677692344 -0.000014257575659662543 -0.000014278415959949513 -0.000015489198532091032 -0.000015497445836567027 -0.000015522668968188175
          -0.000008749265263460905 -0.000008745441433016348 -0.000008734083673089477 -0.000010678775771151665 -0.000010679545495875503 -0.000010681796347050355
          -0.00001248366636755056 -0.000012488174608031504 -0.000012501721758445813 -0.000014071337615248117 -0.000014078555720102446 -0.00001410043383748273
          -0.00001539181975633828 -0.000015400478782684253 -0.00001542710313187903 -0.00001299659945929744 -0.000011362469545211883 -0.000010178023642335253
          -0.000011505322128599407 -0.000013000943703983645 -0.000011364214079723671 -0.000010178550744173316 -0.000011507730015651607 -0.00001301181068927277
          -0.000011368864349826793 -0.000010180718497089391 -0.000011515498272372092 -0.000004457096284550388 -0.00000533145456888391 -0.000004519470760309555
          -0.0000037266881729955836 -0.000004452730177499893 -0.000005327987999463869 -0.000004514738542827335 -0.0000037215264032545444 -0.0000044392099195194394
          -0.0000053173624989420084 -0.0000045005548824695444 -0.0000037057047215927926 -0.000015351083250177557 -0.000016040216896528894 -0.000015043425402985856
          -0.000015357982526526365 -0.000016048244424120856 -0.00001504990417763341 -0.00001537911670467315 -0.00001607593990241454 -0.000015072874252507233
          -0.000015566171108480246 -0.00001557254682657907 -0.000015595131436185126 -0.000008959779688441724 -0.00000779904251216605 -0.000008830240077967785
          -0.000010194145365998136 -0.00000895892772813649 -0.000007797112830221554 -0.000008829626589055711 -0.00001019520365360794 -0.000008956634650797078
          -0.000007789796726451492 -0.000008827992271457636 -0.000010198879240856621 -0.0000034793601768344135 -0.0000029609678409358485 -0.000003474733172445767
          -0.000002955544621724485 -0.0000034601944842499436 -0.0000029387684878703033 -0.000013489968503139118 -0.000014605721033715253 -0.000014759710279105758
          -0.000013493993264683243 -0.000014610916619734051 -0.000014765169021191096 -0.000013509590674022784 -0.0000146276660035558 -0.000014780843385278411
          -0.000002269972419043461 -0.0000026292337861111474 -0.000002264647339227921 -0.0000026245646129323404 -0.0000022479831917233738 -0.0000026100274489744327
          -0.000013840547598578767 -0.000014844454973107827 -0.000013846479217815715 -0.000014850442211680717 -0.000013863136976518604 -0.00001487381602421588
          -0.000006706201495468579 -0.000006703657402290719 -0.000006697252891063891 -0.000012776189947171616 -0.000014205571261790205 -0.000012780459426426977
          -0.000014210811350940181 -0.000012792656764998057 -0.000014229303644579919 -0.000012493922882462605 -0.000013431312736198079 -0.000012496978658241333
          -0.000013436621040642655 -0.000012505345464900721 -0.000013451927091801347 -0.000007054625325724562 -0.000007492480175109941 -0.000007051655419866849
          -0.000007490286444518892 -0.000007043096858852079 -0.000007484552373207223 -0.000005320975430082399 -0.000006296086541788068 -0.000005317035468860322
          -0.000006292812452225523 -0.0000053047747446955406 -0.000006283583440484787 -0.0000016888920066344925 -0.0000016841830269425445 -0.0000016687238478307396
          -8.509756345692612e-7 -0.000001223803819676174 -8.479349663848018e-7 -0.0000012198838049237014 -8.389951115381178e-7 -0.0000012071374247787888
          -0.0000058037682531607585 -0.000005800736676642788 -0.000005792871923006187 -5.181505610911725e-7 -5.1713517163348e-7 -5.108113682662347e-7
          -0.000014121325164553212 -0.000014127132977541082 -0.000014144111332530194 -2.7472962652946155e-7 -2.7388752716971766e-7 -2.7282512243414565e-7
          -0.000001910949282267877 -0.0000019066975577121832 -0.000001892724060347989 -0.0000012853991626312512 -0.0000012832322691128209 -0.0000012734720994137797
          -9.670987295261656e-7 -9.64499154940471e-7 -9.615257362664715e-7 -0.000016456478665230214 -0.000016465043975745055 -0.000016491924285296898
          -0.00001642823028464211 -0.000016436990250624724 -0.000016464183193623828 -0.00001718444455332897 -0.000017192210980044864 -0.00001721722534858058
          -0.000012162828135655802 -0.00001022542836879494 -0.000012166875000620493 -0.00001022480042569654 -0.00001217931453880332 -0.000010223040743209068
          -0.000013869785909966609 -0.000013877216924304436 -0.000013900017271929484 -0.000015283053790794114 -0.00001529225711088019 -0.000015320744548214778
          -0.00001638680744235419 -0.000016396162316917963 -0.000016425363136074487 -0.000017200440700053522 -0.000017208752541566455 -0.000017234679516213065
          -0.000016588578789891073 -0.000016595047714708896 -0.00001661398693174512 -0.000016377485747181884 -0.00001638397796853746 -0.00001640267014924633
          -0.000009576836480202034 -0.000011567534043825087 -0.000009577644460862524 -0.000011570359878120091 -0.000009580330342016375 -0.000011578518352991694
          -0.000015868997108427842 -0.000015921391995271135 -0.000015874310024356485 -0.000015927136271742732 -0.000015888412969531924 -0.000015943995904110826
          -0.0000053532825525418185 -0.000006787922895615752 -0.000005350630605079661 -0.000006785994917455124 -0.000005342487729533562 -0.000006779830316171436
          -0.000004112345559951194 -0.000004109358086651936 -0.000004100670908406612 -0.00001610008105013692 -0.000016106942321929947 -0.000016126215793365217
          -0.000008051064992880548 -0.000008626005500103103 -0.000008050724953700946 -0.00000862674062582107 -0.00000804702787866035 -0.000008628461367720732
          -0.00001565829098429452 -0.00001566413668211078 -0.000015679169212495426 -0.000015116467301242746 -0.000013598853929627925 -0.000015122837765767112
          -0.000013604081296907417 -0.000015144605268129126 -0.000013618032304511982 -0.00001682242447700033 -0.000016829887681849983 -0.000016852924098575907
          -0.000003053507794104108 -0.0000030505047775809843 -0.0000030410302341993475 0 -7.251684347322029e-7 0
          -7.231120771608133e-7 0 -7.181536263166514e-7 -0.000002184004660183012 -0.0000021813301219859896 -0.000002173780316544704
          -0.0000014461404014416274 -0.0000014437984317971874 -0.0000014390046041331545 -0.00001725525208650852 -0.000017260866732818055 -0.000017277539278843665
        </DataArray>
        <DataArray type="Float64" Name="disp_z" format="ascii" RangeMin="-0.000001028649372724846" RangeMax="0">
          0 0 -5.8024339806900304e-8 -5.758036809956827e-8 -1.1603742522342449e-7 -1.1557479131142325e-7
          0 0 -5.783725401861141e-8 -5.8786950152249665e-8 -1.1572207623114544e-7 -1.1657925547210971e-7
          0 0 -5.754307798028892e-8 -5.848665108020636e-8 -1.1514161508376174e-7 -1.1599068061255944e-7
          0 0 -5.716753891360565e-8 -5.672744400829476e-8 -1.142607601192785e-7 -1.1377282230116886e-7
          0 0 -5.6481581475557005e-8 -5.662736680589262e-8 -1.1318446423043288e-7 -1.134031983905013e-7
          0 0 -5.548780380175204e-8 -5.495222872663195e-8 -1.1118347414312109e-7 -1.0985975951744853e-7
          0 0 -6.135396969485103e-8 -5.831818599308203e-8 -1.2394862099045433e-7 -1.1796161857990136e-7
          0 0 -7.732882817609229e-8 -7.382760233549727e-8 -1.5879573647830165e-7 -1.5086702985049471e-7
          0 -5.810700405982241e-8 -1.1621848390961445e-7 0 -5.79164429681408e-8 -1.1583364092228053e-7
          0 -5.767530107273648e-8 -1.1530338306331087e-7 0 -5.7293655884842575e-8 -1.1461547582871668e-7
          0 -5.605070443350927e-8 -1.1242889844601447e-7 0 -5.7993420464206385e-8 -1.1624141789571007e-7
          0 -6.980477727519617e-8 -1.4118252395701797e-7 0 -8.690861311193307e-8 -1.761978245329323e-7
          0 -5.823840922021749e-8 -1.1647448113169744e-7 0 -5.805414147538434e-8 -1.161177308622793e-7
          0 -5.784341811188426e-8 -1.1563322296570811e-7 0 -5.7372838597518774e-8 -1.1487610563356369e-7
          0 -5.610355414719644e-8 -1.1282138930080753e-7 0 -6.306845986550825e-8 -1.2669457983731464e-7
          0 -8.319213574774717e-8 -1.679698205359042e-7 0 -1.0691208802107861e-7 -2.1540131611974732e-7
          0 -5.8395522215807275e-8 -1.1680265115126731e-7 0 -5.8279093790135324e-8 -1.1652100641563827e-7
          0 -5.809257118490391e-8 -1.1621010026809675e-7 0 -5.700876302379152e-8 -1.142616959514708e-7
          0 -5.854286508063626e-8 -1.179837356137985e-7 0 -7.355200300857787e-8 -1.4786596639357846e-7
          0 -1.0015696142357764e-7 -2.0173060425373818e-7 0 -1.2502979166590748e-7 -2.513541861266023e-7
          0 -5.860332948903664e-8 -1.1721387210317452e-7 0 -5.852669696147489e-8 -1.1699579671046282e-7
          0 -5.823898363434128e-8 -1.1663916901000422e-7 0 -5.719817796314732e-8 -1.1498302474049296e-7
          0 -6.474144044978562e-8 -1.3083288811016061e-7 0 -8.872822107386505e-8 -1.779897738813138e-7
          0 -1.2017092548666068e-7 -2.4188644443643825e-7 0 -1.4786169556134418e-7 -2.973151286169879e-7
          0 -5.885299557633573e-8 -1.1766343302076425e-7 0 -5.88106296394691e-8 -1.17673850584876e-7
          0 -5.785239396926849e-8 -1.1595025926293519e-7 0 -6.037952552494171e-8 -1.2174959054082475e-7
          0 -7.669097189191437e-8 -1.5497647121579714e-7 0 -1.0776819556839338e-7 -2.1587721733859646e-7
          0 -1.4442093269755676e-7 -2.9045842180011654e-7 0 -1.766561430419124e-7 -3.547712944979565e-7
          0 -5.909295364877923e-8 -1.1817877160255528e-7 0 -5.908252946168136e-8 -1.1813325898214725e-7
          0 -5.876204447100029e-8 -1.1769754953542705e-7 0 -5.853724889908235e-8 -1.1778832071806553e-7
          0 -6.813885183591171e-8 -1.3770045618439612e-7 0 -9.402480612795433e-8 -1.8952664114248568e-7
          0 -1.3171756796314084e-7 -2.6366284491740853e-7 0 -1.7278247811026085e-7 -3.4704913164543646e-7
          0 -2.0835161116264354e-7 -4.178460630265279e-7 0 -5.932145795359294e-8 -1.185822698375806e-7
          0 -5.930761620687657e-8 -1.1870481258348339e-7 0 -5.825929462985913e-8 -1.1685307985666018e-7
          0 -6.241601931888715e-8 -1.2589041262179824e-7 0 -8.190008500852093e-8 -1.6549334465688659e-7
          0 -1.1648631675465999e-7 -2.3424437542526472e-7 0 -1.6073548179155818e-7 -3.214563055307348e-7
          0 -2.0509179129430952e-7 -4.1134350566065736e-7 0 -2.412758402260825e-7 -4.833178206717556e-7
          0 -5.951785851620406e-8 -1.1902239647167028e-7 0 -5.906071200142973e-8 -1.1830340249750307e-7
          0 -5.940246817115992e-8 -1.1964862485907275e-7 0 -7.138588279748463e-8 -1.4439100474079074e-7
          0 -1.0123731260154844e-7 -2.0405046791195538e-7 0 -1.441915807978494e-7 -2.894696789217263e-7
          0 -1.941176071229377e-7 -3.87803797372947e-7 0 -2.405845626671682e-7 -4.815687976213862e-7
          0 -2.7454080445592176e-7 -5.495473926744666e-7 0 -5.970846537712418e-8 -1.195024961101879e-7
          0 -5.848511580589588e-8 -1.1743196997794764e-7 0 -6.37898857288186e-8 -1.288339407761433e-7
          0 -8.67186541568055e-8 -1.7529214932650049e-7 0 -1.2633829597104224e-7 -2.541126299453593e-7
          0 -1.7659006705451006e-7 -3.538586319984595e-7 0 -2.3001665476520017e-7 -4.59231466791749e-7
          0 -2.766869384975118e-7 -5.535108893806423e-7 0 -3.064845381395306e-7 -6.122591708256859e-7
          0 -5.937677987400933e-8 -1.1895894011561074e-7 0 -5.983291508803252e-8 -1.2063691684576032e-7
          0 -7.372492406351777e-8 -1.4932663453962332e-7 0 -1.0821262960069751e-7 -2.181930098260904e-7
          0 -1.5726738111753684e-7 -3.15662810673308e-7 0 -2.1299680878479776e-7 -4.2612768270431544e-7
          0 -2.6635034487819077e-7 -5.317285414141494e-7 0 -3.083326472598106e-7 -6.156142514089984e-7
          0 -3.4040912123225204e-7 -6.801562274039543e-7 0 -5.87554220186373e-8 -1.1793173635159298e-7
          0 -6.442745374905081e-8 -1.3027861383501508e-7 0 -9.054151399151658e-8 -1.8325812610924053e-7
          0 -1.3622966713048117e-7 -2.740056640839829e-7 0 -1.9313741924439254e-7 -3.8691997618330406e-7
          0 -2.515958938499185e-7 -5.028457693548997e-7 0 -3.0370303699297477e-7 -6.059333099996269e-7
          0 -3.450371722874768e-7 -6.885285384900968e-7 0 -3.6582996944633235e-7 -7.301396533010433e-7
          0 -5.998371554034013e-8 -1.2106034612859872e-7 0 -7.488826591460862e-8 -1.5194880965088352e-7
          0 -1.1436665633155231e-7 -2.308246671701875e-7 0 -1.7066493674111545e-7 -3.4249372348727195e-7
          0 -2.3310092589789072e-7 -4.6625115015652774e-7 0 -2.91822429870657e-7 -5.826059721470384e-7
          0 -3.400572276318373e-7 -6.782022268436173e-7 0 -3.7207585890040575e-7 -7.417392582604041e-7
          0 -3.885789316196702e-7 -7.752202532005004e-7 0 -6.467568474196746e-8 -1.3098788236578398e-7
          0 -9.321296061282692e-8 -1.8900022547144671e-7 0 -1.457378299360837e-7 -2.9330383537951597e-7
          0 -2.107713309288819e-7 -4.221198444977261e-7 0 -2.7589865338062475e-7 -5.510686784308225e-7
          0 -3.3151487180232165e-7 -6.612863362267787e-7 0 -3.717722960285146e-7 -7.41179022375958e-7
          0 -3.9516007636182406e-7 -7.878267880919773e-7 0 -4.0050162631035535e-7 -7.983374284793566e-7
          0 -1.2002215811628246e-7 -2.4264361966132617e-7 0 -1.848665237942523e-7 -3.710282144273034e-7
          0 -2.5542440193269336e-7 -5.106179166074406e-7 0 -3.192161871001712e-7 -6.369013692030214e-7
          0 -3.683316086761284e-7 -7.342148371002041e-7 0 -3.983128026112374e-7 -7.938489468187297e-7
          0 -4.0826224765541247e-7 -8.139929358059536e-7 0 -4.035782060112123e-7 -8.055522508167055e-7
          0 -1.5583599466480786e-7 -3.142009947306234e-7 0 -2.3088531668055193e-7 -4.622031722849124e-7
          0 -3.028153959734721e-7 -6.044021664976603e-7 0 -3.6059002172628676e-7 -7.188884420353385e-7
          0 -3.9922537560066056e-7 -7.955702070293136e-7 0 -4.1737646950609006e-7 -8.317717114884368e-7
          0 -4.1505225983948995e-7 -8.275027115717898e-7 0 -3.9444420213611324e-7 -7.875998052271361e-7
          0 -2.0122122569471032e-7 -4.047569155391966e-7 0 -2.820312502990758e-7 -5.633677897507063e-7
          0 -3.503924662823209e-7 -6.985134441308684e-7 0 -3.9795264568363256e-7 -7.928977678079197e-7
          0 -4.2235937431174167e-7 -8.415829936621077e-7 0 -4.2494631172364435e-7 -8.475811674586502e-7
          0 -4.130050954966082e-7 -8.239543446169725e-7 0 -3.9729130378297263e-7 -7.91469404933802e-7
          0 -2.5518785147062086e-7 -5.122223821010012e-7 0 -3.355512603075264e-7 -6.692003286875193e-7
          0 -3.9505694669997705e-7 -7.869084113262461e-7 0 -4.2882966881873233e-7 -8.541210479689752e-7
          0 -4.372512887409288e-7 -8.712688977173803e-7 0 -4.238106790644618e-7 -8.459775171731025e-7
          0 -3.98453147966695e-7 -7.950261977030447e-7 0 -3.816617203106732e-7 -7.58352526337875e-7
          0 -3.8805839104432315e-7 -7.731690802844745e-7 0 -4.338197249319538e-7 -8.636975779352533e-7
          0 -4.5095843170089026e-7 -8.980638306826298e-7 0 -4.4266540684456807e-7 -8.821394452509159e-7
          0 -4.1504789271902084e-7 -8.289091163962923e-7 0 -3.819310772668912e-7 -7.61328285939566e-7
          0 -3.608729146204361e-7 -7.174383895511882e-7 0 -4.359816389542068e-7 -8.682588436142005e-7
          0 -4.6395882781617513e-7 -9.234281566146672e-7 0 -4.624707036797194e-7 -9.209553426197486e-7
          0 -4.374444914035192e-7 -8.71781382930703e-7 0 -3.9654208837934173e-7 -7.920265599686696e-7
          0 -3.5164057002775017e-7 -6.999958692660867e-7 0 -3.1526538214734797e-7 -6.27736439122486e-7
          0 -4.7593210430217065e-7 -9.477022827069125e-7 0 -4.827580163996373e-7 -9.60668238753159e-7
          0 -4.611530376582848e-7 -9.182903619589663e-7 0 -4.187136410960799e-7 -8.345755419927559e-7
          0 -3.6345826563307815e-7 -7.263492806595422e-7 0 -3.0789545682259576e-7 -6.132686901157418e-7
          0 -5.042309098729117e-7 -0.000001004135731959844 0 -4.868535378852112e-7 -9.687769767892431e-7
          0 -4.438376005392858e-7 -8.840205601118562e-7 0 -3.841472125425199e-7 -7.662502227369462e-7
          0 -3.172650446771764e-7 -6.349613567934521e-7 0 0 0
          0 -3.489141107324868e-7 -3.8646354078496477e-7 -3.902809252665855e-7 -3.732662285233391e-7 -6.949471790745256e-7
          -7.701022815949509e-7 -7.781275547184038e-7 -7.441739469003495e-7 0 0 0
          0 -3.306790773706706e-7 -3.5403135375660523e-7 -3.1837057909116784e-7 -2.910642695663103e-7 -6.581165338769714e-7
          -7.044602964912219e-7 -6.357404498612383e-7 -5.815702720689849e-7 0 0 0
          -2.636620974668334e-7 -2.476661341525483e-7 -3.1680986602635663e-7 -5.299209092495272e-7 -4.965546935172507e-7 -6.291573301433033e-7
          0 -2.349885916017263e-7 -4.7208987440132776e-7 0 0 0
          0 -3.9478980554731805e-7 -3.8131371154508135e-7 -3.919287277923211e-7 -3.890092380114403e-7 -7.870915124698924e-7
          -7.610064753610933e-7 -7.801529412290586e-7 -7.744572491334123e-7 0 0 -2.9676369928468517e-7
          -2.570368441521251e-7 -5.9124430048678e-7 -5.147923751769556e-7 0 0 0
          -3.1483322325092294e-7 -2.6558415393671e-7 -2.713239676751869e-7 -6.301723188678653e-7 -5.31818273096794e-7 -5.426278389417921e-7
          0 0 -2.2022127752509843e-7 -2.6064151989494165e-7 -4.424806884189076e-7 -5.198237673434297e-7
          0 0 -3.4968971884878677e-7 -2.854171714151309e-7 -6.9596231488839e-7 -5.714136855858669e-7
          0 -3.706260402879284e-7 -7.377889803096991e-7 0 0 -3.389540123776951e-7
          -2.811475645346257e-7 -6.759807964384252e-7 -5.627610952662556e-7 0 0 -3.7106655201631146e-7
          -3.59175007682886e-7 -7.377803452037808e-7 -7.167326628880811e-7 0 0 -3.70250461459309e-7
          -3.793252893224634e-7 -7.38355229224626e-7 -7.557156483928068e-7 0 0 -3.408042363000471e-7
          -3.650262007972364e-7 -6.803557021419777e-7 -7.285149541956924e-7 0 -1.8435318337937207e-7 -3.7249305446126866e-7
          0 0 -1.3602781255639033e-7 -1.5296479580868474e-7 -2.7807501637321297e-7 -3.104260091497997e-7
          0 -3.601406127277827e-7 -7.170600767608887e-7 0 -1.1997573108490708e-7 -2.4526971494219026e-7
          0 -3.609437961121944e-7 -7.176867956427505e-7 0 -9.981771629595349e-8 -1.991610739778827e-7
          0 -2.2464913001133755e-7 -4.492698177193699e-7 0 -1.8827832322674714e-7 -3.7835489385753887e-7
          0 -1.6093121823811353e-7 -3.1876675742858774e-7 0 -2.6266561443301455e-7 -5.256123765709762e-7
          0 -2.5621215886439186e-7 -5.115814611934544e-7 0 -2.1009828172461887e-7 -4.217051835264108e-7
          0 0 -4.7256658188357494e-7 -5.165210408747437e-7 -9.405322021898618e-7 -0.000001028649372724846
          0 -4.082951262668698e-7 -8.138355290687955e-7 0 -3.3455344538411e-7 -6.684402236107269e-7
          0 -2.623350335285508e-7 -5.264726861303073e-7 0 -2.040455176254495e-7 -4.086720960450009e-7
          0 -1.9201426801535166e-7 -3.8781925840662997e-7 0 -2.0059777999244704e-7 -4.029972503028857e-7
          0 0 -3.9165719968970844e-7 -3.555029195929394e-7 -7.805029050885063e-7 -7.092387721432563e-7
          0 0 -2.1777047414342038e-7 -2.1767394077710608e-7 -4.366703272493082e-7 -4.354954077677943e-7
          0 0 -3.515855650737125e-7 -3.7332393531342786e-7 -7.021022341692559e-7 -7.447658543228365e-7
          0 -3.3013587820054087e-7 -6.590532278451177e-7 0 -2.1253900307340992e-7 -4.2642985426516217e-7
          0 0 -3.8324774617516347e-7 -3.8399522463711085e-7 -7.632932659268295e-7 -7.653627734577249e-7
          0 -2.117167185779646e-7 -4.250353239754683e-7 0 0 -2.376390197572895e-7
          -2.9828481188021396e-7 -4.7612984881152744e-7 -5.977714334930021e-7 0 -1.927524428490289e-7 -3.8748307372260566e-7
          0 -3.028684408164863e-7 -6.050471281957487e-7 0 0 -1.4721893065470427e-7
          -1.9938005619124476e-7 -2.982672534443483e-7 -4.0083297735073053e-7 0 -2.7529597566885474e-7 -5.502716931121775e-7
          0 -2.5020398334535614e-7 -5.013997343521177e-7 0 -1.5742859371912674e-7 -3.1839487435514136e-7
        </DataArray>
      </PointData>
      <CellData>
        <DataArray type="Int32" Name="libmesh_elem_id" format="ascii" RangeMin="776" RangeMax="3207">
          776 777 778 779 780 781
          782 783 784 785 786 787
          788 789 794 795 796 797
          798 799 800 801 802 803
          804 805 806 807 812 813
          814 815 816 817 818 819
          820 821 822 823 824 825
          830 831 832 833 834 835
          836 837 838 839 840 841
          842 843 848 849 850 851
          852 853 854 855 856 857
          858 859 860 861 866 867
          868 869 870 871 872 873
          874 875 876 877 878 879
          884 885 886 887 888 889
          890 891 892 893 894 895
          896 897 900 901 902 903
          904 905 906 907 908 909
          910 911 912 913 914 915
          918 919 920 921 922 923
          924 925 926 927 928 929
          930 931 932 933 936 937
          938 939 940 941 942 943
          944 945 946 947 948 949
          950 951 954 955 956 957
          958 959 960 961 962 963
          964 965 966 967 968 969
          972 973 974 975 976 977
          978 979 980 981 982 983
          984 985 986 987 990 991
          992 993 994 995 996 997
          998 999 1000 1001 1002 1003
          1004 1005 1008 1009 1010 1011
          1012 1013 1014 1015 1016 1017
          1018 1019 1020 1021 1022 1023
          1028 1029 1030 1031 1032 1033
          1034 1035 1036 1037 1038 1039
          1040 1041 1046 1047 1048 1049
          1050 1051 1052 1053 1054 1055
          1056 1057 1058 1059 1064 1065
          1066 1067 1068 1069 1070 1071
          1072 1073 1074 1075 1076 1077
          1082 1083 1084 1085 1086 1087
          1088 1089 1090 1091 1092 1093
          1094 1095 1102 1103 1104 1105
          1106 1107 1108 1109 1110 1111
          1112 1113 1120 1121 1122 1123
          1124 1125 1126 1127 1128 1129
          1130 1131 1138 1139 1140 1141
          1142 1143 1144 1145 1146 1147
          1148 1149 1156 1157 1158 1159
          1160 1161 1162 1163 1164 1165
          1166 1167 1174 1175 1176 1177
          1178 1179 1180 1181 1182 1183
          1374 1375 1376 1377 1378 1379
          1384 1385 1388 1389 1404 1405
          1458 1459 1536 1537 1542 1543
          1624 1625 1648 1649 1658 1659
          1672 1673 1770 1771 1810 1811
          1818 1819 1828 1829 1830 1831
          1866 1867 2074 2075 2078 2079
          2116 2117 2124 2125 2288 2289
          2290 2291 2336 2337 2342 2343
          2348 2349 2352 2353 2356 2357
          2358 2359 2424 2425 2452 2453
          2464 2465 2496 2497 2526 2527
          2530 2531 2532 2533 2554 2555
          2560 2561 2590 2591 2594 2595
          2622 2623 2736 2737 2740 2741
          2762 2763 2768 2769 2794 2795
          2800 2801 2864 2865 2890 2891
          2904 2905 2920 2921 2956 2957
          2986 2987 3018 3019 3036 3037
          3088 3089 3114 3115 3144 3145
          3156 3157 3176 3177 3184 3185
          3190 3191 3206 3207
        </DataArray>
        <DataArray type="Int32" Name="subdomain_id" format="ascii" RangeMin="105" RangeMax="107">
          105 105 105 105 105 105
          105 105 105 105 105 105
          105 105 105 105 105 105
          105 105 105 105 105 105
          105 105 105 105 105 105
          105 105 105 105 105 105
          105 105 105 105 105 105
          105 105 105 105 105 105
          105 105 105 105 105 105
          105 105 105 105 105 105
          105 105 105 105 105 105
          105 105 105 105 105 105
          105 105 105 105 105 105
          105 105 105 105 105 105
          105 105 105 105 105 105
          105 105 105 105 105 105
          105 105 105 105 105 105
          105 105 105 105 105 105
          105 105 105 105 105 105
          105 105 105 105 105 105
          105 105 105 105 105 105
          105 105 105 105 105 105
          105 105 105 105 105 105
          105 105 105 105 105 105
          105 105 105 105 105 105
          105 105 105 105 105 105
          105 105 105 105 105 105
          105 105 105 105 105 105
          105 105 105 105 105 105
          105 105 105 105 105 105
          105 105 105 105 105 105
          105 105 105 105 105 105
          105 105 105 105 105 105
          105 105 105 105 105 105
          105 105 105 105 105 105
          105 105 105 105 105 105
          105 105 105 105 105 105
          105 105 105 105 105 105
          105 105 105 105 105 105
          105 105 105 105 105 105
          105 105 105 105 105 105
          105 105 105 105 105 105
          105 105 105 105 105 105
          105 105 105 105 105 105
          105 105 105 105 105 105
          105 105 105 105 105 105
          105 105 105 105 105 105
          105 105 105 105 105 105
          105 105 105 105 105 105
          105 105 105 105 105 105
          105 105 105 105 105 105
          105 105 105 105 105 105
          105 105 105 105 105 105
          105 105 105 105 105 105
          107 107 107 107 107 107
          107 107 107 107 107 107
          107 107 107 107 107 107
          107 107 107 107 107 107
          107 107 107 107 107 107
          107 107 107 107 107 107
          107 107 107 107 107 107
          107 107 107 107 107 107
          107 107 107 107 107 107
          107 107 107 107 107 107
          107 107 107 107 107 107
          107 107 107 107 107 107
          107 107 107 107 107 107
          107 107 107 107 107 107
          107 107 107 107 107 107
          107 107 107 107 107 107
          107 107 107 107 107 107
          107 107 107 107 107 107
          107 107 107 107 107 107
          107 107 107 107 107 107
          107 107 107 107 107 107
          107 107 107 107
        </DataArray>
        <DataArray type="Int32" Name="processor_id" format="ascii" RangeMin="6" RangeMax="6">
          6 6 6 6 6 6
          6 6 6 6 6 6
          6 6 6 6 6 6
          6 6 6 6 6 6
          6 6 6 6 6 6
          6 6 6 6 6 6
          6 6 6 6 6 6
          6 6 6 6 6 6
          6 6 6 6 6 6
          6 6 6 6 6 6
          6 6 6 6 6 6
          6 6 6 6 6 6
          6 6 6 6 6 6
          6 6 6 6 6 6
          6 6 6 6 6 6
          6 6 6 6 6 6
          6 6 6 6 6 6
          6 6 6 6 6 6
          6 6 6 6 6 6
          6 6 6 6 6 6
          6 6 6 6 6 6
          6 6 6 6 6 6
          6 6 6 6 6 6
          6 6 6 6 6 6
          6 6 6 6 6 6
          6 6 6 6 6 6
          6 6 6 6 6 6
          6 6 6 6 6 6
          6 6 6 6 6 6
          6 6 6 6 6 6
          6 6 6 6 6 6
          6 6 6 6 6 6
          6 6 6 6 6 6
          6 6 6 6 6 6
          6 6 6 6 6 6
          6 6 6 6 6 6
          6 6 6 6 6 6
          6 6 6 6 6 6
          6 6 6 6 6 6
          6 6 6 6 6 6
          6 6 6 6 6 6
          6 6 6 6 6 6
          6 6 6 6 6 6
          6 6 6 6 6 6
          6 6 6 6 6 6
          6 6 6 6 6 6
          6 6 6 6 6 6
          6 6 6 6 6 6
          6 6 6 6 6 6
          6 6 6 6 6 6
          6 6 6 6 6 6
          6 6 6 6 6 6
          6 6 6 6 6 6
          6 6 6 6 6 6
          6 6 6 6 6 6
          6 6 6 6 6 6
          6 6 6 6 6 6
          6 6 6 6 6 6
          6 6 6 6 6 6
          6 6 6 6 6 6
          6 6 6 6 6 6
          6 6 6 6 6 6
          6 6 6 6 6 6
          6 6 6 6 6 6
          6 6 6 6 6 6
          6 6 6 6 6 6
          6 6 6 6 6 6
          6 6 6 6 6 6
          6 6 6 6 6 6
          6 6 6 6 6 6
          6 6 6 6 6 6
          6 6 6 6 6 6
          6 6 6 6 6 6
          6 6 6 6 6 6
          6 6 6 6 6 6
          6 6 6 6
        </DataArray>
      </CellData>
      <Points>
        <DataArray type="Float64" Name="Points" NumberOfComponents="3" format="ascii" RangeMin="0.0018888888888872" RangeMax="0.010555613193541787">
          0.0018888888888873 0.00041379310344749 0 0.0018888888888872 0 0
          0.0018888888888873 0.00041379310344749 0.00015 0.0018888888888872 0 0.00015
          0.0018888888888873 0.00041379310344749 0.0003 0.0018888888888872 0 0.0003
          0.0023333333333313 0.00041379310344749 0 0.0023333333333311 0 0
          0.0023333333333313 0.00041379310344749 0.00015 0.0023333333333311 0 0.00015
          0.0023333333333313 0.00041379310344749 0.0003 0.0023333333333311 0 0.0003
          0.0027777777777734 0.00041379310344749 0 0.0027777777777731 0 0
          0.0027777777777734 0.00041379310344749 0.00015 0.0027777777777731 0 0.00015
          0.0027777777777734 0.00041379310344749 0.0003 0.0027777777777731 0 0.0003
          0.003222222222218 0.00041379310344749 0 0.0032222222222177 0 0
          0.003222222222218 0.00041379310344749 0.00015 0.0032222222222177 0 0.00015
          0.003222222222218 0.00041379310344749 0.0003 0.0032222222222177 0 0.0003
          0.0036666666666636 0.00041379310344749 0 0.0036666666666634 0 0
          0.0036666666666636 0.00041379310344749 0.00015 0.0036666666666634 0 0.00015
          0.0036666666666636 0.00041379310344749 0.0003 0.0036666666666634 0 0.0003
          0.0041111111111091 0.00041379310344749 0 0.004111111111109 0 0
          0.0041111111111091 0.00041379310344749 0.00015 0.004111111111109 0 0.00015
          0.0041111111111091 0.00041379310344749 0.0003 0.004111111111109 0 0.0003
          0.0045555555555554 0.00041379310344749 0 0.0045555555555553 0 0
          0.0045555555555554 0.00041379310344749 0.00015 0.0045555555555553 0 0.00015
          0.0045555555555554 0.00041379310344749 0.0003 0.0045555555555553 0 0.0003
          0.005 0.00041379310344749 0 0.005 0 0
          0.005 0.00041379310344749 0.00015 0.005 0 0.00015
          0.005 0.00041379310344749 0.0003 0.005 0 0.0003
          0.0018888888888875 0.00082758620689497 0 0.0018888888888875 0.00082758620689497 0.00015
          0.0018888888888875 0.00082758620689497 0.0003 0.0023333333333315 0.00082758620689497 0
          0.0023333333333315 0.00082758620689497 0.00015 0.0023333333333315 0.00082758620689497 0.0003
          0.0027777777777737 0.00082758620689497 0 0.0027777777777737 0.00082758620689497 0.00015
          0.0027777777777737 0.00082758620689497 0.0003 0.0032222222222183 0.00082758620689497 0
          0.0032222222222183 0.00082758620689497 0.00015 0.0032222222222183 0.00082758620689497 0.0003
          0.0036666666666638 0.00082758620689497 0 0.0036666666666638 0.00082758620689497 0.00015
          0.0036666666666638 0.00082758620689497 0.0003 0.0041111111111093 0.00082758620689497 0
          0.0041111111111093 0.00082758620689497 0.00015 0.0041111111111093 0.00082758620689497 0.0003
          0.0045555555555554 0.00082758620689497 0 0.0045555555555554 0.00082758620689497 0.00015
          0.0045555555555554 0.00082758620689497 0.0003 0.005 0.00082758620689497 0
          0.005 0.00082758620689497 0.00015 0.005 0.00082758620689497 0.0003
          0.0018888888888876 0.0012413793103426 0 0.0018888888888876 0.0012413793103426 0.00015
          0.0018888888888876 0.0012413793103426 0.0003 0.0023333333333317 0.0012413793103426 0
          0.0023333333333317 0.0012413793103426 0.00015 0.0023333333333317 0.0012413793103426 0.0003
          0.002777777777774 0.0012413793103426 0 0.002777777777774 0.0012413793103426 0.00015
          0.002777777777774 0.0012413793103426 0.0003 0.0032222222222186 0.0012413793103426 0
          0.0032222222222186 0.0012413793103426 0.00015 0.0032222222222186 0.0012413793103426 0.0003
          0.003666666666664 0.0012413793103426 0 0.003666666666664 0.0012413793103426 0.00015
          0.003666666666664 0.0012413793103426 0.0003 0.0041111111111095 0.0012413793103426 0
          0.0041111111111095 0.0012413793103426 0.00015 0.0041111111111095 0.0012413793103426 0.0003
          0.0045555555555554 0.0012413793103426 0 0.0045555555555554 0.0012413793103426 0.00015
          0.0045555555555554 0.0012413793103426 0.0003 0.005 0.0012413793103426 0
          0.005 0.0012413793103426 0.00015 0.005 0.0012413793103426 0.0003
          0.0018888888888877 0.0016551724137901 0 0.0018888888888877 0.0016551724137901 0.00015
          0.0018888888888877 0.0016551724137901 0.0003 0.0023333333333319 0.0016551724137901 0
          0.0023333333333319 0.0016551724137901 0.00015 0.0023333333333319 0.0016551724137901 0.0003
          0.0027777777777743 0.0016551724137901 0 0.0027777777777743 0.0016551724137901 0.00015
          0.0027777777777743 0.0016551724137901 0.0003 0.0032222222222189 0.0016551724137901 0
          0.0032222222222189 0.0016551724137901 0.00015 0.0032222222222189 0.0016551724137901 0.0003
          0.0036666666666642 0.0016551724137901 0 0.0036666666666642 0.0016551724137901 0.00015
          0.0036666666666642 0.0016551724137901 0.0003 0.0041111111111096 0.0016551724137901 0
          0.0041111111111096 0.0016551724137901 0.00015 0.0041111111111096 0.0016551724137901 0.0003
          0.0045555555555555 0.0016551724137901 0 0.0045555555555555 0.0016551724137901 0.00015
          0.0045555555555555 0.0016551724137901 0.0003 0.005 0.0016551724137901 0
          0.005 0.0016551724137901 0.00015 0.005 0.0016551724137901 0.0003
          0.0018888888888879 0.0020689655172371 0 0.0018888888888879 0.0020689655172371 0.00015
          0.0018888888888879 0.0020689655172371 0.0003 0.002333333333332 0.0020689655172371 0
          0.002333333333332 0.0020689655172371 0.00015 0.002333333333332 0.0020689655172371 0.0003
          0.0027777777777746 0.0020689655172371 0 0.0027777777777746 0.0020689655172371 0.00015
          0.0027777777777746 0.0020689655172371 0.0003 0.0032222222222192 0.0020689655172371 0
          0.0032222222222192 0.0020689655172371 0.00015 0.0032222222222192 0.0020689655172371 0.0003
          0.0036666666666643 0.0020689655172371 0 0.0036666666666643 0.0020689655172371 0.00015
          0.0036666666666643 0.0020689655172371 0.0003 0.0041111111111098 0.0020689655172371 0
          0.0041111111111098 0.0020689655172371 0.00015 0.0041111111111098 0.0020689655172371 0.0003
          0.0045555555555555 0.0020689655172371 0 0.0045555555555555 0.0020689655172371 0.00015
          0.0045555555555555 0.0020689655172371 0.0003 0.005 0.0020689655172371 0
          0.005 0.0020689655172371 0.00015 0.005 0.0020689655172371 0.0003
          0.001888888888888 0.0024827586206843 0 0.001888888888888 0.0024827586206843 0.00015
          0.001888888888888 0.0024827586206843 0.0003 0.0023333333333322 0.0024827586206843 0
          0.0023333333333322 0.0024827586206843 0.00015 0.0023333333333322 0.0024827586206843 0.0003
          0.0027777777777749 0.0024827586206843 0 0.0027777777777749 0.0024827586206843 0.00015
          0.0027777777777749 0.0024827586206843 0.0003 0.0032222222222196 0.0024827586206843 0
          0.0032222222222196 0.0024827586206843 0.00015 0.0032222222222196 0.0024827586206843 0.0003
          0.0036666666666645 0.0024827586206843 0 0.0036666666666645 0.0024827586206843 0.00015
          0.0036666666666645 0.0024827586206843 0.0003 0.0041111111111099 0.0024827586206843 0
          0.0041111111111099 0.0024827586206843 0.00015 0.0041111111111099 0.0024827586206843 0.0003
          0.0045555555555555 0.0024827586206843 0 0.0045555555555555 0.0024827586206843 0.00015
          0.0045555555555555 0.0024827586206843 0.0003 0.005 0.0024827586206843 0
          0.005 0.0024827586206843 0.00015 0.005 0.0024827586206843 0.0003
          0.0014444444444442 0.0028965517241314 0 0.0014444444444442 0.0028965517241314 0.00015
          0.0014444444444442 0.0028965517241314 0.0003 0.0018888888888881 0.0028965517241314 0
          0.0018888888888881 0.0028965517241314 0.00015 0.0018888888888881 0.0028965517241314 0.0003
          0.0023333333333324 0.0028965517241314 0 0.0023333333333324 0.0028965517241314 0.00015
          0.0023333333333324 0.0028965517241314 0.0003 0.0027777777777753 0.0028965517241314 0
          0.0027777777777753 0.0028965517241314 0.00015 0.0027777777777753 0.0028965517241314 0.0003
          0.0032222222222199 0.0028965517241314 0 0.0032222222222199 0.0028965517241314 0.00015
          0.0032222222222199 0.0028965517241314 0.0003 0.0036666666666647 0.0028965517241314 0
          0.0036666666666647 0.0028965517241314 0.00015 0.0036666666666647 0.0028965517241314 0.0003
          0.0041111111111101 0.0028965517241314 0 0.0041111111111101 0.0028965517241314 0.00015
          0.0041111111111101 0.0028965517241314 0.0003 0.0045555555555556 0.0028965517241314 0
          0.0045555555555556 0.0028965517241314 0.00015 0.0045555555555556 0.0028965517241314 0.0003
          0.005 0.0028965517241314 0 0.005 0.0028965517241314 0.00015
          0.005 0.0028965517241314 0.0003 0.0014444444444442 0.0033103448275785 0
          0.0014444444444442 0.0033103448275785 0.00015 0.0014444444444442 0.0033103448275785 0.0003
          0.0018888888888882 0.0033103448275785 0 0.0018888888888882 0.0033103448275785 0.00015
          0.0018888888888882 0.0033103448275785 0.0003 0.0023333333333326 0.0033103448275785 0
          0.0023333333333326 0.0033103448275785 0.00015 0.0023333333333326 0.0033103448275785 0.0003
          0.0027777777777756 0.0033103448275785 0 0.0027777777777756 0.0033103448275785 0.00015
          0.0027777777777756 0.0033103448275785 0.0003 0.0032222222222202 0.0033103448275785 0
          0.0032222222222202 0.0033103448275785 0.00015 0.0032222222222202 0.0033103448275785 0.0003
          0.0036666666666649 0.0033103448275785 0 0.0036666666666649 0.0033103448275785 0.00015
          0.0036666666666649 0.0033103448275785 0.0003 0.0041111111111102 0.0033103448275785 0
          0.0041111111111102 0.0033103448275785 0.00015 0.0041111111111102 0.0033103448275785 0.0003
          0.0045555555555556 0.0033103448275785 0 0.0045555555555556 0.0033103448275785 0.00015
          0.0045555555555556 0.0033103448275785 0.0003 0.005 0.0033103448275785 0
          0.005 0.0033103448275785 0.00015 0.005 0.0033103448275785 0.0003
          0.0014444444444443 0.0037241379310256 0 0.0014444444444443 0.0037241379310256 0.00015
          0.0014444444444443 0.0037241379310256 0.0003 0.0018888888888884 0.0037241379310256 0
          0.0018888888888884 0.0037241379310256 0.00015 0.0018888888888884 0.0037241379310256 0.0003
          0.0023333333333328 0.0037241379310256 0 0.0023333333333328 0.0037241379310256 0.00015
          0.0023333333333328 0.0037241379310256 0.0003 0.0027777777777759 0.0037241379310256 0
          0.0027777777777759 0.0037241379310256 0.00015 0.0027777777777759 0.0037241379310256 0.0003
          0.0032222222222205 0.0037241379310256 0 0.0032222222222205 0.0037241379310256 0.00015
          0.0032222222222205 0.0037241379310256 0.0003 0.003666666666665 0.0037241379310256 0
          0.003666666666665 0.0037241379310256 0.00015 0.003666666666665 0.0037241379310256 0.0003
          0.0041111111111104 0.0037241379310256 0 0.0041111111111104 0.0037241379310256 0.00015
          0.0041111111111104 0.0037241379310256 0.0003 0.0045555555555556 0.0037241379310256 0
          0.0045555555555556 0.0037241379310256 0.00015 0.0045555555555556 0.0037241379310256 0.0003
          0.005 0.0037241379310256 0 0.005 0.0037241379310256 0.00015
          0.005 0.0037241379310256 0.0003 0.0014444444444444 0.0041379310344727 0
          0.0014444444444444 0.0041379310344727 0.00015 0.0014444444444444 0.0041379310344727 0.0003
          0.0018888888888885 0.0041379310344727 0 0.0018888888888885 0.0041379310344727 0.00015
          0.0018888888888885 0.0041379310344727 0.0003 0.002333333333333 0.0041379310344727 0
          0.002333333333333 0.0041379310344727 0.00015 0.002333333333333 0.0041379310344727 0.0003
          0.0027777777777762 0.0041379310344727 0 0.0027777777777762 0.0041379310344727 0.00015
          0.0027777777777762 0.0041379310344727 0.0003 0.0032222222222208 0.0041379310344727 0
          0.0032222222222208 0.0041379310344727 0.00015 0.0032222222222208 0.0041379310344727 0.0003
          0.0036666666666652 0.0041379310344727 0 0.0036666666666652 0.0041379310344727 0.00015
          0.0036666666666652 0.0041379310344727 0.0003 0.0041111111111105 0.0041379310344727 0
          0.0041111111111105 0.0041379310344727 0.00015 0.0041111111111105 0.0041379310344727 0.0003
          0.0045555555555557 0.0041379310344727 0 0.0045555555555557 0.0041379310344727 0.00015
          0.0045555555555557 0.0041379310344727 0.0003 0.005 0.0041379310344727 0
          0.005 0.0041379310344727 0.00015 0.005 0.0041379310344727 0.0003
          0.0014444444444444 0.0045517241379199 0 0.0014444444444444 0.0045517241379199 0.00015
          0.0014444444444444 0.0045517241379199 0.0003 0.0018888888888886 0.0045517241379199 0
          0.0018888888888886 0.0045517241379199 0.00015 0.0018888888888886 0.0045517241379199 0.0003
          0.0023333333333331 0.0045517241379199 0 0.0023333333333331 0.0045517241379199 0.00015
          0.0023333333333331 0.0045517241379199 0.0003 0.0027777777777765 0.0045517241379199 0
          0.0027777777777765 0.0045517241379199 0.00015 0.0027777777777765 0.0045517241379199 0.0003
          0.0032222222222211 0.0045517241379199 0 0.0032222222222211 0.0045517241379199 0.00015
          0.0032222222222211 0.0045517241379199 0.0003 0.0036666666666654 0.0045517241379199 0
          0.0036666666666654 0.0045517241379199 0.00015 0.0036666666666654 0.0045517241379199 0.0003
          0.0041111111111107 0.0045517241379199 0 0.0041111111111107 0.0045517241379199 0.00015
          0.0041111111111107 0.0045517241379199 0.0003 0.0045555555555557 0.0045517241379199 0
          0.0045555555555557 0.0045517241379199 0.00015 0.0045555555555557 0.0045517241379199 0.0003
          0.005 0.0045517241379199 0 0.005 0.0045517241379199 0.00015
          0.005 0.0045517241379199 0.0003 0.0014444444444445 0.0049655172413669 0
          0.0014444444444445 0.0049655172413669 0.00015 0.0014444444444445 0.0049655172413669 0.0003
          0.0018888888888888 0.0049655172413669 0 0.0018888888888888 0.0049655172413669 0.00015
          0.0018888888888888 0.0049655172413669 0.0003 0.0023333333333333 0.0049655172413669 0
          0.0023333333333333 0.0049655172413669 0.00015 0.0023333333333333 0.0049655172413669 0.0003
          0.0027777777777768 0.0049655172413669 0 0.0027777777777768 0.0049655172413669 0.00015
          0.0027777777777768 0.0049655172413669 0.0003 0.0032222222222214 0.0049655172413669 0
          0.0032222222222214 0.0049655172413669 0.00015 0.0032222222222214 0.0049655172413669 0.0003
          0.0036666666666656 0.0049655172413669 0 0.0036666666666656 0.0049655172413669 0.00015
          0.0036666666666656 0.0049655172413669 0.0003 0.0041111111111108 0.0049655172413669 0
          0.0041111111111108 0.0049655172413669 0.00015 0.0041111111111108 0.0049655172413669 0.0003
          0.0045555555555557 0.0049655172413669 0 0.0045555555555557 0.0049655172413669 0.00015
          0.0045555555555557 0.0049655172413669 0.0003 0.005 0.0049655172413669 0
          0.005 0.0049655172413669 0.00015 0.005 0.0049655172413669 0.0003
          0.0014444444444445 0.0053793103448139 0 0.0014444444444445 0.0053793103448139 0.00015
          0.0014444444444445 0.0053793103448139 0.0003 0.0018888888888889 0.0053793103448139 0
          0.0018888888888889 0.0053793103448139 0.00015 0.0018888888888889 0.0053793103448139 0.0003
          0.0023333333333335 0.0053793103448139 0 0.0023333333333335 0.0053793103448139 0.00015
          0.0023333333333335 0.0053793103448139 0.0003 0.0027777777777771 0.0053793103448139 0
          0.0027777777777771 0.0053793103448139 0.00015 0.0027777777777771 0.0053793103448139 0.0003
          0.0032222222222217 0.0053793103448139 0 0.0032222222222217 0.0053793103448139 0.00015
          0.0032222222222217 0.0053793103448139 0.0003 0.0036666666666658 0.0053793103448139 0
          0.0036666666666658 0.0053793103448139 0.00015 0.0036666666666658 0.0053793103448139 0.0003
          0.004111111111111 0.0053793103448139 0 0.004111111111111 0.0053793103448139 0.00015
          0.004111111111111 0.0053793103448139 0.0003 0.0045555555555558 0.0053793103448139 0
          0.0045555555555558 0.0053793103448139 0.00015 0.0045555555555558 0.0053793103448139 0.0003
          0.005 0.0053793103448139 0 0.005 0.0053793103448139 0.00015
          0.005 0.0053793103448139 0.0003 0.0014444444444446 0.0057931034482612 0
          0.0014444444444446 0.0057931034482612 0.00015 0.0014444444444446 0.0057931034482612 0.0003
          0.001888888888889 0.0057931034482612 0 0.001888888888889 0.0057931034482612 0.00015
          0.001888888888889 0.0057931034482612 0.0003 0.0023333333333337 0.0057931034482612 0
          0.0023333333333337 0.0057931034482612 0.00015 0.0023333333333337 0.0057931034482612 0.0003
          0.0027777777777774 0.0057931034482612 0 0.0027777777777774 0.0057931034482612 0.00015
          0.0027777777777774 0.0057931034482612 0.0003 0.003222222222222 0.0057931034482612 0
          0.003222222222222 0.0057931034482612 0.00015 0.003222222222222 0.0057931034482612 0.0003
          0.0036666666666659 0.0057931034482612 0 0.0036666666666659 0.0057931034482612 0.00015
          0.0036666666666659 0.0057931034482612 0.0003 0.0041111111111112 0.0057931034482612 0
          0.0041111111111112 0.0057931034482612 0.00015 0.0041111111111112 0.0057931034482612 0.0003
          0.0045555555555558 0.0057931034482612 0 0.0045555555555558 0.0057931034482612 0.00015
          0.0045555555555558 0.0057931034482612 0.0003 0.005 0.0057931034482612 0
          0.005 0.0057931034482612 0.00015 0.005 0.0057931034482612 0.0003
          0.0018888888888891 0.0062068965517097 0 0.0018888888888891 0.0062068965517097 0.00015
          0.0018888888888891 0.0062068965517097 0.0003 0.0023333333333339 0.0062068965517097 0
          0.0023333333333339 0.0062068965517097 0.00015 0.0023333333333339 0.0062068965517097 0.0003
          0.0027777777777778 0.0062068965517097 0 0.0027777777777778 0.0062068965517097 0.00015
          0.0027777777777778 0.0062068965517097 0.0003 0.0032222222222224 0.0062068965517097 0
          0.0032222222222224 0.0062068965517097 0.00015 0.0032222222222224 0.0062068965517097 0.0003
          0.0036666666666661 0.0062068965517097 0 0.0036666666666661 0.0062068965517097 0.00015
          0.0036666666666661 0.0062068965517097 0.0003 0.0041111111111113 0.0062068965517097 0
          0.0041111111111113 0.0062068965517097 0.00015 0.0041111111111113 0.0062068965517097 0.0003
          0.0045555555555558 0.0062068965517097 0 0.0045555555555558 0.0062068965517097 0.00015
          0.0045555555555558 0.0062068965517097 0.0003 0.005 0.0062068965517097 0
          0.005 0.0062068965517097 0.00015 0.005 0.0062068965517097 0.0003
          0.0018888888888893 0.0066206896551586 0 0.0018888888888893 0.0066206896551586 0.00015
          0.0018888888888893 0.0066206896551586 0.0003 0.002333333333334 0.0066206896551586 0
          0.002333333333334 0.0066206896551586 0.00015 0.002333333333334 0.0066206896551586 0.0003
          0.0027777777777781 0.0066206896551586 0 0.0027777777777781 0.0066206896551586 0.00015
          0.0027777777777781 0.0066206896551586 0.0003 0.0032222222222227 0.0066206896551586 0
          0.0032222222222227 0.0066206896551586 0.00015 0.0032222222222227 0.0066206896551586 0.0003
          0.0036666666666663 0.0066206896551586 0 0.0036666666666663 0.0066206896551586 0.00015
          0.0036666666666663 0.0066206896551586 0.0003 0.0041111111111115 0.0066206896551586 0
          0.0041111111111115 0.0066206896551586 0.00015 0.0041111111111115 0.0066206896551586 0.0003
          0.0045555555555559 0.0066206896551586 0 0.0045555555555559 0.0066206896551586 0.00015
          0.0045555555555559 0.0066206896551586 0.0003 0.005 0.0066206896551586 0
          0.005 0.0066206896551586 0.00015 0.005 0.0066206896551586 0.0003
          0.0018888888888894 0.0070344827586082 0 0.0018888888888894 0.0070344827586082 0.00015
          0.0018888888888894 0.0070344827586082 0.0003 0.0023333333333342 0.0070344827586082 0
          0.0023333333333342 0.0070344827586082 0.00015 0.0023333333333342 0.0070344827586082 0.0003
          0.0027777777777784 0.0070344827586082 0 0.0027777777777784 0.0070344827586082 0.00015
          0.0027777777777784 0.0070344827586082 0.0003 0.003222222222223 0.0070344827586082 0
          0.003222222222223 0.0070344827586082 0.00015 0.003222222222223 0.0070344827586082 0.0003
          0.0036666666666665 0.0070344827586082 0 0.0036666666666665 0.0070344827586082 0.00015
          0.0036666666666665 0.0070344827586082 0.0003 0.0041111111111116 0.0070344827586082 0
          0.0041111111111116 0.0070344827586082 0.00015 0.0041111111111116 0.0070344827586082 0.0003
          0.0045555555555559 0.0070344827586082 0 0.0045555555555559 0.0070344827586082 0.00015
          0.0045555555555559 0.0070344827586082 0.0003 0.005 0.0070344827586082 0
          0.005 0.0070344827586082 0.00015 0.005 0.0070344827586082 0.0003
          0.0018888888888895 0.0074482758620575 0 0.0018888888888895 0.0074482758620575 0.00015
          0.0018888888888895 0.0074482758620575 0.0003 0.0023333333333344 0.0074482758620575 0
          0.0023333333333344 0.0074482758620575 0.00015 0.0023333333333344 0.0074482758620575 0.0003
          0.0027777777777787 0.0074482758620575 0 0.0027777777777787 0.0074482758620575 0.00015
          0.0027777777777787 0.0074482758620575 0.0003 0.0032222222222233 0.0074482758620575 0
          0.0032222222222233 0.0074482758620575 0.00015 0.0032222222222233 0.0074482758620575 0.0003
          0.0036666666666666 0.0074482758620576 0 0.0036666666666666 0.0074482758620576 0.00015
          0.0036666666666666 0.0074482758620576 0.0003 0.0041111111111118 0.0074482758620576 0
          0.0041111111111118 0.0074482758620576 0.00015 0.0041111111111118 0.0074482758620576 0.0003
          0.0045555555555559 0.0074482758620576 0 0.0045555555555559 0.0074482758620576 0.00015
          0.0045555555555559 0.0074482758620576 0.0003 0.005 0.0074482758620575 0
          0.005 0.0074482758620575 0.00015 0.005 0.0074482758620575 0.0003
          0.0023333333333346 0.0078620689655065 0 0.0023333333333346 0.0078620689655065 0.00015
          0.0023333333333346 0.0078620689655065 0.0003 0.002777777777779 0.0078620689655065 0
          0.002777777777779 0.0078620689655065 0.00015 0.002777777777779 0.0078620689655065 0.0003
          0.0032222222222236 0.0078620689655065 0 0.0032222222222236 0.0078620689655065 0.00015
          0.0032222222222236 0.0078620689655065 0.0003 0.0036666666666668 0.0078620689655065 0
          0.0036666666666668 0.0078620689655065 0.00015 0.0036666666666668 0.0078620689655065 0.0003
          0.0041111111111119 0.0078620689655065 0 0.0041111111111119 0.0078620689655065 0.00015
          0.0041111111111119 0.0078620689655065 0.0003 0.004555555555556 0.0078620689655065 0
          0.004555555555556 0.0078620689655065 0.00015 0.004555555555556 0.0078620689655065 0.0003
          0.005 0.0078620689655065 0 0.005 0.0078620689655065 0.00015
          0.005 0.0078620689655065 0.0003 0.0023333333333348 0.0082758620689564 0
          0.0023333333333348 0.0082758620689564 0.00015 0.0023333333333348 0.0082758620689564 0.0003
          0.0027777777777793 0.0082758620689564 0 0.0027777777777793 0.0082758620689564 0.00015
          0.0027777777777793 0.0082758620689564 0.0003 0.0032222222222239 0.0082758620689564 0
          0.0032222222222239 0.0082758620689564 0.00015 0.0032222222222239 0.0082758620689564 0.0003
          0.003666666666667 0.0082758620689564 0 0.003666666666667 0.0082758620689564 0.00015
          0.003666666666667 0.0082758620689564 0.0003 0.0041111111111121 0.0082758620689564 0
          0.0041111111111121 0.0082758620689564 0.00015 0.0041111111111121 0.0082758620689564 0.0003
          0.004555555555556 0.0082758620689564 0 0.004555555555556 0.0082758620689564 0.00015
          0.004555555555556 0.0082758620689564 0.0003 0.005 0.0082758620689564 0
          0.005 0.0082758620689564 0.00015 0.005 0.0082758620689564 0.0003
          0.002333333333335 0.0086896551724064 0 0.002333333333335 0.0086896551724064 0.00015
          0.002333333333335 0.0086896551724064 0.0003 0.0027777777777796 0.0086896551724064 0
          0.0027777777777796 0.0086896551724064 0.00015 0.0027777777777796 0.0086896551724064 0.0003
          0.0032222222222242 0.0086896551724064 0 0.0032222222222242 0.0086896551724064 0.00015
          0.0032222222222242 0.0086896551724064 0.0003 0.0036666666666672 0.0086896551724064 0
          0.0036666666666672 0.0086896551724064 0.00015 0.0036666666666672 0.0086896551724064 0.0003
          0.0041111111111122 0.0086896551724064 0 0.0041111111111122 0.0086896551724064 0.00015
          0.0041111111111122 0.0086896551724064 0.0003 0.004555555555556 0.0086896551724064 0
          0.004555555555556 0.0086896551724064 0.00015 0.004555555555556 0.0086896551724064 0.0003
          0.0023333333333351 0.0091034482758539 0 0.0023333333333351 0.0091034482758539 0.00015
          0.0023333333333351 0.0091034482758539 0.0003 0.0027777777777799 0.0091034482758539 0
          0.0027777777777799 0.0091034482758539 0.00015 0.0027777777777799 0.0091034482758539 0.0003
          0.0032222222222245 0.0091034482758539 0 0.0032222222222245 0.0091034482758539 0.00015
          0.0032222222222245 0.0091034482758539 0.0003 0.0036666666666673 0.0091034482758539 0
          0.0036666666666673 0.0091034482758539 0.00015 0.0036666666666673 0.0091034482758539 0.0003
          0.0041111111111124 0.0091034482758539 0 0.0041111111111124 0.0091034482758539 0.00015
          0.0041111111111124 0.0091034482758539 0.0003 0.0058597010152523 0.0063127004857001 0
          0.0053951839928307 0.0062556571299739 0 0.0053921082338215 0.005828945826549 0
          0.0057916174309905 0.0058352682535246 0 0.0058597010152523 0.0063127004857001 0.00015
          0.0053951839928307 0.0062556571299739 0.00015 0.0053921082338215 0.005828945826549 0.00015
          0.0057916174309905 0.0058352682535246 0.00015 0.0058597010152523 0.0063127004857001 0.0003
          0.0053951839928307 0.0062556571299739 0.0003 0.0053921082338215 0.005828945826549 0.0003
          0.0057916174309905 0.0058352682535246 0.0003 0.0057558905586118 0.0030553709280972 0
          0.0057130501801562 0.0035159257865852 0 0.005360618756523 0.0035837068269911 0
          0.0053739732009329 0.0031599138809835 0 0.0057558905586118 0.0030553709280972 0.00015
          0.0057130501801562 0.0035159257865852 0.00015 0.005360618756523 0.0035837068269911 0.00015
          0.0053739732009329 0.0031599138809835 0.00015 0.0057558905586118 0.0030553709280972 0.0003
          0.0057130501801562 0.0035159257865852 0.0003 0.005360618756523 0.0035837068269911 0.0003
          0.0053739732009329 0.0031599138809835 0.0003 0.0056439388514995 0.0075162532529611 0
          0.0053753336003136 0.0081134227852172 0 0.0053162760057692 0.0077147827843445 0
          0.0056439388514995 0.0075162532529611 0.00015 0.0053753336003136 0.0081134227852172 0.00015
          0.0053162760057692 0.0077147827843445 0.00015 0.0056439388514995 0.0075162532529611 0.0003
          0.0053753336003136 0.0081134227852172 0.0003 0.0053162760057692 0.0077147827843445 0.0003
          0.0059025575310583 0.0073410103875386 0 0.0059025575310583 0.0073410103875386 0.00015
          0.0059025575310583 0.0073410103875386 0.0003 0.005369078903807 0.0054112957512825 0
          0.0053441966179727 0.0050059769161847 0 0.0056930202847481 0.0049554676612008 0
          0.0057606246390047 0.0053811345728149 0 0.005369078903807 0.0054112957512825 0.00015
          0.0053441966179727 0.0050059769161847 0.00015 0.0056930202847481 0.0049554676612008 0.00015
          0.0057606246390047 0.0053811345728149 0.00015 0.005369078903807 0.0054112957512825 0.0003
          0.0053441966179727 0.0050059769161847 0.0003 0.0056930202847481 0.0049554676612008 0.0003
          0.0057606246390047 0.0053811345728149 0.0003 0.0057438065986578 0.0025718646608386 0
          0.0053684283361675 0.002728434685479 0 0.0057438065986578 0.0025718646608386 0.00015
          0.0053684283361675 0.002728434685479 0.00015 0.0057438065986578 0.0025718646608386 0.0003
          0.0053684283361675 0.002728434685479 0.0003 0.0061712548385041 0.0061513410385421 0
          0.006445117357903 0.0062971891343806 0 0.0062246515840748 0.0066057171706914 0
          0.0061712548385041 0.0061513410385421 0.00015 0.006445117357903 0.0062971891343806 0.00015
          0.0062246515840748 0.0066057171706914 0.00015 0.0061712548385041 0.0061513410385421 0.0003
          0.006445117357903 0.0062971891343806 0.0003 0.0062246515840748 0.0066057171706914 0.0003
          0.0053553835295756 0.0022900157905326 0 0.0057116151882083 0.0021168511926722 0
          0.0053553835295756 0.0022900157905326 0.00015 0.0057116151882083 0.0021168511926722 0.00015
          0.0053553835295756 0.0022900157905326 0.0003 0.0057116151882083 0.0021168511926722 0.0003
          0.0054233068561349 0.007134337670225 0 0.0059254586078826 0.006969673542248 0
          0.0054233068561349 0.007134337670225 0.00015 0.0059254586078826 0.006969673542248 0.00015
          0.0054233068561349 0.007134337670225 0.0003 0.0059254586078826 0.006969673542248 0.0003
          0.0057792643598707 0.0040250905144168 0 0.0057792643598707 0.0040250905144168 0.00015
          0.0057792643598707 0.0040250905144168 0.0003 0.0061880810420103 0.0058441905555885 0
          0.0066005814160285 0.0059502230786403 0 0.0061880810420103 0.0058441905555885 0.00015
          0.0066005814160285 0.0059502230786403 0.00015 0.0061880810420103 0.0058441905555885 0.0003
          0.0066005814160285 0.0059502230786403 0.0003 0.0054017220983371 0.0066575347525889 0
          0.0057115805714605 0.0066548075405697 0 0.0054017220983371 0.0066575347525889 0.00015
          0.0057115805714605 0.0066548075405697 0.00015 0.0054017220983371 0.0066575347525889 0.0003
          0.0057115805714605 0.0066548075405697 0.0003 0.005332609719228 0.0047287620137874 0
          0.0055816175545808 0.004587255111362 0 0.005332609719228 0.0047287620137874 0.00015
          0.0055816175545808 0.004587255111362 0.00015 0.005332609719228 0.0047287620137874 0.0003
          0.0055816175545808 0.004587255111362 0.0003 0.0053693194142364 0.0039518184911864 0
          0.0054474185858658 0.0042751360204936 0 0.0053693194142364 0.0039518184911864 0.00015
          0.0054474185858658 0.0042751360204936 0.00015 0.0053693194142364 0.0039518184911864 0.0003
          0.0054474185858658 0.0042751360204936 0.0003 0.0053395672611724 0.0018614292474742 0
          0.0053395672611724 0.0018614292474742 0.00015 0.0053395672611724 0.0018614292474742 0.0003
          0.0053367365074525 0.0010378216876611 0 0.0053236825500972 0.0014543115259673 0
          0.0053367365074525 0.0010378216876611 0.00015 0.0053236825500972 0.0014543115259673 0.00015
          0.0053367365074525 0.0010378216876611 0.0003 0.0053236825500972 0.0014543115259673 0.0003
          0.0056326688189693 0.0038271453778623 0 0.0056326688189693 0.0038271453778623 0.00015
          0.0056326688189693 0.0038271453778623 0.0003 0.0053236477572007 0.00066751117045644 0
          0.0053236477572007 0.00066751117045644 0.00015 0.0053236477572007 0.00066751117045644 0.0003
          0.0052365987891119 0.0074441888076402 0 0.0052365987891119 0.0074441888076402 0.00015
          0.0052365987891119 0.0074441888076402 0.0003 0.0052651323069134 0.00040272801788152 0
          0.0052651323069134 0.00040272801788152 0.00015 0.0052651323069134 0.00040272801788152 0.0003
          0.005675081773805 0.0016743369040255 0 0.005675081773805 0.0016743369040255 0.00015
          0.005675081773805 0.0016743369040255 0.0003 0.0056481668838523 0.0012062671985027 0
          0.0056481668838523 0.0012062671985027 0.00015 0.0056481668838523 0.0012062671985027 0.0003
          0.0055517738097912 0.00099492145317098 0 0.0055517738097912 0.00099492145317098 0.00015
          0.0055517738097912 0.00099492145317098 0.0003 0.005 0.0086896551724064 0
          0.005 0.0086896551724064 0.00015 0.005 0.0086896551724064 0.0003
          0.0045555555555561 0.0091034482758539 0 0.0045555555555561 0.0091034482758539 0.00015
          0.0045555555555561 0.0091034482758539 0.0003 0.005 0.0091034482758539 0
          0.005 0.0091034482758539 0.00015 0.005 0.0091034482758539 0.0003
          0.0027777777777802 0.0095172413793029 0 0.0023333333333353 0.0095172413793029 0
          0.0027777777777802 0.0095172413793029 0.00015 0.0023333333333353 0.0095172413793029 0.00015
          0.0027777777777802 0.0095172413793029 0.0003 0.0023333333333353 0.0095172413793029 0.0003
          0.0032222222222248 0.0095172413793029 0 0.0032222222222248 0.0095172413793029 0.00015
          0.0032222222222248 0.0095172413793029 0.0003 0.0036666666666675 0.0095172413793029 0
          0.0036666666666675 0.0095172413793029 0.00015 0.0036666666666675 0.0095172413793029 0.0003
          0.0041111111111126 0.0095172413793029 0 0.0041111111111126 0.0095172413793029 0.00015
          0.0041111111111126 0.0095172413793029 0.0003 0.0045555555555561 0.0095172413793029 0
          0.0045555555555561 0.0095172413793029 0.00015 0.0045555555555561 0.0095172413793029 0.0003
          0.0058653844060618 0.0079194158644502 0 0.0058653844060618 0.0079194158644502 0.00015
          0.0058653844060618 0.0079194158644502 0.0003 0.0061750164335738 0.0074760206739226 0
          0.0061750164335738 0.0074760206739226 0.00015 0.0061750164335738 0.0074760206739226 0.0003
          0.0060512178389602 0.0047929387822649 0 0.0062389906493372 0.0053128670028646 0
          0.0060512178389602 0.0047929387822649 0.00015 0.0062389906493372 0.0053128670028646 0.00015
          0.0060512178389602 0.0047929387822649 0.0003 0.0062389906493372 0.0053128670028646 0.0003
          0.0068354780286894 0.0065149558629347 0 0.0065694481807909 0.0068273110654121 0
          0.0068354780286894 0.0065149558629347 0.00015 0.0065694481807909 0.0068273110654121 0.00015
          0.0068354780286894 0.0065149558629347 0.0003 0.0065694481807909 0.0068273110654121 0.0003
          0.0061614658010566 0.0029736343202522 0 0.0061372854142827 0.0036106222238676 0
          0.0061614658010566 0.0029736343202522 0.00015 0.0061372854142827 0.0036106222238676 0.00015
          0.0061614658010566 0.0029736343202522 0.0003 0.0061372854142827 0.0036106222238676 0.0003
          0.0061231952422177 0.002444135475079 0 0.0061231952422177 0.002444135475079 0.00015
          0.0061231952422177 0.002444135475079 0.0003 0.0063586074578252 0.0071353312088165 0
          0.0063586074578252 0.0071353312088165 0.00015 0.0063586074578252 0.0071353312088165 0.0003
          0.005927800859391 0.0043689372395662 0 0.0063054236008776 0.0041223407032968 0
          0.005927800859391 0.0043689372395662 0.00015 0.0063054236008776 0.0041223407032968 0.00015
          0.005927800859391 0.0043689372395662 0.0003 0.0063054236008776 0.0041223407032968 0.0003
          0.0070635342364542 0.0061542378287001 0 0.0070635342364542 0.0061542378287001 0.00015
          0.0070635342364542 0.0061542378287001 0.0003 0.0071984303565192 0.0057392272964834 0
          0.0067200519522164 0.0055550541115669 0 0.0071984303565192 0.0057392272964834 0.00015
          0.0067200519522164 0.0055550541115669 0.00015 0.0071984303565192 0.0057392272964834 0.0003
          0.0067200519522164 0.0055550541115669 0.0003 0.0053754057810206 0.0085370600870078 0
          0.0053754057810206 0.0085370600870078 0.00015 0.0053754057810206 0.0085370600870078 0.0003
          0.0060722038988066 0.0019538017587265 0 0.0060722038988066 0.0019538017587265 0.00015
          0.0060722038988066 0.0019538017587265 0.0003 0.0055128205128194 0 0
          0.0057061681768373 0.00065177476244477 0 0.0055128205128194 0 0.00015
          0.0057061681768373 0.00065177476244477 0.00015 0.0055128205128194 0 0.0003
          0.0057061681768373 0.00065177476244477 0.0003 0.0060137569775388 0.0015029488511318 0
          0.0060137569775388 0.0015029488511318 0.00015 0.0060137569775388 0.0015029488511318 0.0003
          0.0059245902968253 0.0010856763727913 0 0.0059245902968253 0.0010856763727913 0.00015
          0.0059245902968253 0.0010856763727913 0.0003 0.0057785311780113 0.0084598603588589 0
          0.0057785311780113 0.0084598603588589 0.00015 0.0057785311780113 0.0084598603588589 0.0003
          <InformationKey name="L2_NORM_RANGE" location="vtkDataArray" length="2">
            <Value index="0">
              0.0018888888889
            </Value>
            <Value index="1">
              0.010555613194
            </Value>
          </InformationKey>
        </DataArray>
      </Points>
      <Cells>
        <DataArray type="Int64" Name="connectivity" format="ascii" RangeMin="0" RangeMax="779">
          6 0 1 7 8 2
          3 9 8 2 3 9
          10 4 5 11 12 6
          7 13 14 8 9 15
          14 8 9 15 16 10
          11 17 18 12 13 19
          20 14 15 21 20 14
          15 21 22 16 17 23
          24 18 19 25 26 20
          21 27 26 20 21 27
          28 22 23 29 30 24
          25 31 32 26 27 33
          32 26 27 33 34 28
          29 35 36 30 31 37
          38 32 33 39 38 32
          33 39 40 34 35 41
          42 36 37 43 44 38
          39 45 44 38 39 45
          46 40 41 47 51 48
          0 6 52 49 2 8
          52 49 2 8 53 50
          4 10 54 51 6 12
          55 52 8 14 55 52
          8 14 56 53 10 16
          57 54 12 18 58 55
          14 20 58 55 14 20
          59 56 16 22 60 57
          18 24 61 58 20 26
          61 58 20 26 62 59
          22 28 63 60 24 30
          64 61 26 32 64 61
          26 32 65 62 28 34
          66 63 30 36 67 64
          32 38 67 64 32 38
          68 65 34 40 69 66
          36 42 70 67 38 44
          70 67 38 44 71 68
          40 46 75 72 48 51
          76 73 49 52 76 73
          49 52 77 74 50 53
          78 75 51 54 79 76
          52 55 79 76 52 55
          80 77 53 56 81 78
          54 57 82 79 55 58
          82 79 55 58 83 80
          56 59 84 81 57 60
          85 82 58 61 85 82
          58 61 86 83 59 62
          87 84 60 63 88 85
          61 64 88 85 61 64
          89 86 62 65 90 87
          63 66 91 88 64 67
          91 88 64 67 92 89
          65 68 93 90 66 69
          94 91 67 70 94 91
          67 70 95 92 68 71
          99 96 72 75 100 97
          73 76 100 97 73 76
          101 98 74 77 102 99
          75 78 103 100 76 79
          103 100 76 79 104 101
          77 80 105 102 78 81
          106 103 79 82 106 103
          79 82 107 104 80 83
          108 105 81 84 109 106
          82 85 109 106 82 85
          110 107 83 86 111 108
          84 87 112 109 85 88
          112 109 85 88 113 110
          86 89 114 111 87 90
          115 112 88 91 115 112
          88 91 116 113 89 92
          117 114 90 93 118 115
          91 94 118 115 91 94
          119 116 92 95 123 120
          96 99 124 121 97 100
          124 121 97 100 125 122
          98 101 126 123 99 102
          127 124 100 103 127 124
          100 103 128 125 101 104
          129 126 102 105 130 127
          103 106 130 127 103 106
          131 128 104 107 132 129
          105 108 133 130 106 109
          133 130 106 109 134 131
          107 110 135 132 108 111
          136 133 109 112 136 133
          109 112 137 134 110 113
          138 135 111 114 139 136
          112 115 139 136 112 115
          140 137 113 116 141 138
          114 117 142 139 115 118
          142 139 115 118 143 140
          116 119 147 144 120 123
          148 145 121 124 148 145
          121 124 149 146 122 125
          150 147 123 126 151 148
          124 127 151 148 124 127
          152 149 125 128 153 150
          126 129 154 151 127 130
          154 151 127 130 155 152
          128 131 156 153 129 132
          157 154 130 133 157 154
          130 133 158 155 131 134
          159 156 132 135 160 157
          133 136 160 157 133 136
          161 158 134 137 162 159
          135 138 163 160 136 139
          163 160 136 139 164 161
          137 140 165 162 138 141
          166 163 139 142 166 163
          139 142 167 164 140 143
          174 171 144 147 175 172
          145 148 175 172 145 148
          176 173 146 149 177 174
          147 150 178 175 148 151
          178 175 148 151 179 176
          149 152 180 177 150 153
          181 178 151 154 181 178
          151 154 182 179 152 155
          183 180 153 156 184 181
          154 157 184 181 154 157
          185 182 155 158 186 183
          156 159 187 184 157 160
          187 184 157 160 188 185
          158 161 189 186 159 162
          190 187 160 163 190 187
          160 163 191 188 161 164
          192 189 162 165 193 190
          163 166 193 190 163 166
          194 191 164 167 198 195
          168 171 199 196 169 172
          199 196 169 172 200 197
          170 173 201 198 171 174
          202 199 172 175 202 199
          172 175 203 200 173 176
          204 201 174 177 205 202
          175 178 205 202 175 178
          206 203 176 179 207 204
          177 180 208 205 178 181
          208 205 178 181 209 206
          179 182 210 207 180 183
          211 208 181 184 211 208
          181 184 212 209 182 185
          213 210 183 186 214 211
          184 187 214 211 184 187
          215 212 185 188 216 213
          186 189 217 214 187 190
          217 214 187 190 218 215
          188 191 219 216 189 192
          220 217 190 193 220 217
          190 193 221 218 191 194
          225 222 195 198 226 223
          196 199 226 223 196 199
          227 224 197 200 228 225
          198 201 229 226 199 202
          229 226 199 202 230 227
          200 203 231 228 201 204
          232 229 202 205 232 229
          202 205 233 230 203 206
          234 231 204 207 235 232
          205 208 235 232 205 208
          236 233 206 209 237 234
          207 210 238 235 208 211
          238 235 208 211 239 236
          209 212 240 237 210 213
          241 238 211 214 241 238
          211 214 242 239 212 215
          243 240 213 216 244 241
          214 217 244 241 214 217
          245 242 215 218 246 243
          216 219 247 244 217 220
          247 244 217 220 248 245
          218 221 252 249 222 225
          253 250 223 226 253 250
          223 226 254 251 224 227
          255 252 225 228 256 253
          226 229 256 253 226 229
          257 254 227 230 258 255
          228 231 259 256 229 232
          259 256 229 232 260 257
          230 233 261 258 231 234
          262 259 232 235 262 259
          232 235 263 260 233 236
          264 261 234 237 265 262
          235 238 265 262 235 238
          266 263 236 239 267 264
          237 240 268 265 238 241
          268 265 238 241 269 266
          239 242 270 267 240 243
          271 268 241 244 271 268
          241 244 272 269 242 245
          273 270 243 246 274 271
          244 247 274 271 244 247
          275 272 245 248 279 276
          249 252 280 277 250 253
          280 277 250 253 281 278
          251 254 282 279 252 255
          283 280 253 256 283 280
          253 256 284 281 254 257
          285 282 255 258 286 283
          256 259 286 283 256 259
          287 284 257 260 288 285
          258 261 289 286 259 262
          289 286 259 262 290 287
          260 263 291 288 261 264
          292 289 262 265 292 289
          262 265 293 290 263 266
          294 291 264 267 295 292
          265 268 295 292 265 268
          296 293 266 269 297 294
          267 270 298 295 268 271
          298 295 268 271 299 296
          269 272 300 297 270 273
          301 298 271 274 301 298
          271 274 302 299 272 275
          306 303 276 279 307 304
          277 280 307 304 277 280
          308 305 278 281 309 306
          279 282 310 307 280 283
          310 307 280 283 311 308
          281 284 312 309 282 285
          313 310 283 286 313 310
          283 286 314 311 284 287
          315 312 285 288 316 313
          286 289 316 313 286 289
          317 314 287 290 318 315
          288 291 319 316 289 292
          319 316 289 292 320 317
          290 293 321 318 291 294
          322 319 292 295 322 319
          292 295 323 320 293 296
          324 321 294 297 325 322
          295 298 325 322 295 298
          326 323 296 299 327 324
          297 300 328 325 298 301
          328 325 298 301 329 326
          299 302 333 330 303 306
          334 331 304 307 334 331
          304 307 335 332 305 308
          336 333 306 309 337 334
          307 310 337 334 307 310
          338 335 308 311 339 336
          309 312 340 337 310 313
          340 337 310 313 341 338
          311 314 342 339 312 315
          343 340 313 316 343 340
          313 316 344 341 314 317
          345 342 315 318 346 343
          316 319 346 343 316 319
          347 344 317 320 348 345
          318 321 349 346 319 322
          349 346 319 322 350 347
          320 323 351 348 321 324
          352 349 322 325 352 349
          322 325 353 350 323 326
          354 351 324 327 355 352
          325 328 355 352 325 328
          356 353 326 329 360 357
          330 333 361 358 331 334
          361 358 331 334 362 359
          332 335 363 360 333 336
          364 361 334 337 364 361
          334 337 365 362 335 338
          366 363 336 339 367 364
          337 340 367 364 337 340
          368 365 338 341 369 366
          339 342 370 367 340 343
          370 367 340 343 371 368
          341 344 372 369 342 345
          373 370 343 346 373 370
          343 346 374 371 344 347
          375 372 345 348 376 373
          346 349 376 373 346 349
          377 374 347 350 378 375
          348 351 379 376 349 352
          379 376 349 352 380 377
          350 353 381 378 351 354
          382 379 352 355 382 379
          352 355 383 380 353 356
          387 384 360 363 388 385
          361 364 388 385 361 364
          389 386 362 365 390 387
          363 366 391 388 364 367
          391 388 364 367 392 389
          365 368 393 390 366 369
          394 391 367 370 394 391
          367 370 395 392 368 371
          396 393 369 372 397 394
          370 373 397 394 370 373
          398 395 371 374 399 396
          372 375 400 397 373 376
          400 397 373 376 401 398
          374 377 402 399 375 378
          403 400 376 379 403 400
          376 379 404 401 377 380
          405 402 378 381 406 403
          379 382 406 403 379 382
          407 404 380 383 411 408
          384 387 412 409 385 388
          412 409 385 388 413 410
          386 389 414 411 387 390
          415 412 388 391 415 412
          388 391 416 413 389 392
          417 414 390 393 418 415
          391 394 418 415 391 394
          419 416 392 395 420 417
          393 396 421 418 394 397
          421 418 394 397 422 419
          395 398 423 420 396 399
          424 421 397 400 424 421
          397 400 425 422 398 401
          426 423 399 402 427 424
          400 403 427 424 400 403
          428 425 401 404 429 426
          402 405 430 427 403 406
          430 427 403 406 431 428
          404 407 435 432 408 411
          436 433 409 412 436 433
          409 412 437 434 410 413
          438 435 411 414 439 436
          412 415 439 436 412 415
          440 437 413 416 441 438
          414 417 442 439 415 418
          442 439 415 418 443 440
          416 419 444 441 417 420
          445 442 418 421 445 442
          418 421 446 443 419 422
          447 444 420 423 448 445
          421 424 448 445 421 424
          449 446 422 425 450 447
          423 426 451 448 424 427
          451 448 424 427 452 449
          425 428 453 450 426 429
          454 451 427 430 454 451
          427 430 455 452 428 431
          459 456 432 435 460 457
          433 436 460 457 433 436
          461 458 434 437 462 459
          435 438 463 460 436 439
          463 460 436 439 464 461
          437 440 465 462 438 441
          466 463 439 442 466 463
          439 442 467 464 440 443
          468 465 441 444 469 466
          442 445 469 466 442 445
          470 467 443 446 471 468
          444 447 472 469 445 448
          472 469 445 448 473 470
          446 449 474 471 447 450
          475 472 448 451 475 472
          448 451 476 473 449 452
          477 474 450 453 478 475
          451 454 478 475 451 454
          479 476 452 455 483 480
          459 462 484 481 460 463
          484 481 460 463 485 482
          461 464 486 483 462 465
          487 484 463 466 487 484
          463 466 488 485 464 467
          489 486 465 468 490 487
          466 469 490 487 466 469
          491 488 467 470 492 489
          468 471 493 490 469 472
          493 490 469 472 494 491
          470 473 495 492 471 474
          496 493 472 475 496 493
          472 475 497 494 473 476
          498 495 474 477 499 496
          475 478 499 496 475 478
          500 497 476 479 504 501
          480 483 505 502 481 484
          505 502 481 484 506 503
          482 485 507 504 483 486
          508 505 484 487 508 505
          484 487 509 506 485 488
          510 507 486 489 511 508
          487 490 511 508 487 490
          512 509 488 491 513 510
          489 492 514 511 490 493
          514 511 490 493 515 512
          491 494 516 513 492 495
          517 514 493 496 517 514
          493 496 518 515 494 497
          519 516 495 498 520 517
          496 499 520 517 496 499
          521 518 497 500 525 522
          501 504 526 523 502 505
          526 523 502 505 527 524
          503 506 528 525 504 507
          529 526 505 508 529 526
          505 508 530 527 506 509
          531 528 507 510 532 529
          508 511 532 529 508 511
          533 530 509 512 534 531
          510 513 535 532 511 514
          535 532 511 514 536 533
          512 515 537 534 513 516
          538 535 514 517 538 535
          514 517 539 536 515 518
          687 537 516 519 688 538
          517 520 688 538 517 520
          689 539 518 521 543 540
          522 525 544 541 523 526
          544 541 523 526 545 542
          524 527 546 543 525 528
          547 544 526 529 547 544
          526 529 548 545 527 530
          549 546 528 531 550 547
          529 532 550 547 529 532
          551 548 530 533 552 549
          531 534 553 550 532 535
          553 550 532 535 554 551
          533 536 690 552 534 537
          691 553 535 538 691 553
          535 538 692 554 536 539
          693 690 537 687 694 691
          538 688 694 691 538 688
          695 692 539 689 696 697
          540 543 698 699 541 544
          698 699 541 544 700 701
          542 545 702 696 543 546
          703 698 544 547 703 698
          544 547 704 700 545 548
          705 702 546 549 706 703
          547 550 706 703 547 550
          707 704 548 551 708 705
          549 552 709 706 550 553
          709 706 550 553 710 707
          551 554 711 708 552 690
          712 709 553 691 712 709
          553 691 713 710 554 692
          555 556 557 558 559 560
          561 562 559 560 561 562
          563 564 565 566 567 568
          569 570 571 572 573 574
          571 572 573 574 575 576
          577 578 579 714 580 581
          582 715 583 584 582 715
          583 584 585 716 586 587
          579 588 717 714 582 589
          718 715 582 589 718 715
          585 590 719 716 591 592
          593 594 595 596 597 598
          595 596 597 598 599 600
          601 602 594 558 557 591
          598 562 561 595 598 562
          561 595 602 566 565 599
          603 567 570 604 605 571
          574 606 605 571 574 606
          607 575 578 608 555 609
          610 611 559 612 613 614
          559 612 613 614 563 615
          616 617 594 593 720 721
          598 597 722 723 598 597
          722 723 602 601 724 725
          726 727 611 610 728 729
          614 613 728 729 614 613
          730 731 617 616 567 732
          733 568 571 734 735 572
          571 734 735 572 575 736
          737 576 604 618 619 603
          606 620 621 605 606 620
          621 605 608 622 623 607
          567 603 738 732 571 605
          739 734 571 605 739 734
          575 607 740 736 579 624
          625 588 582 626 627 589
          582 626 627 589 585 628
          629 590 625 741 717 588
          627 742 718 589 627 742
          718 589 629 743 719 590
          744 630 733 745 746 631
          735 747 746 631 735 747
          748 632 737 749 633 634
          610 609 635 636 613 612
          635 636 613 612 637 638
          616 615 634 750 726 610
          636 751 728 613 636 751
          728 613 638 752 730 616
          555 558 633 609 559 562
          635 612 559 562 635 612
          563 566 637 615 753 750
          634 754 755 751 636 756
          755 751 636 756 757 752
          638 758 639 640 625 624
          641 642 627 626 641 642
          627 626 643 644 629 628
          625 611 727 741 627 614
          729 742 627 614 729 742
          629 617 731 743 634 633
          721 754 636 635 723 756
          636 635 723 756 638 637
          725 758 580 759 687 519
          583 760 688 520 583 760
          688 520 586 761 689 521
          581 580 519 498 584 583
          520 499 584 583 520 499
          587 586 521 500 592 645
          646 593 596 647 648 597
          596 647 648 597 600 649
          650 601 651 652 300 273
          653 654 301 274 653 654
          301 274 655 656 302 275
          569 651 273 246 573 653
          274 247 573 653 274 247
          577 655 275 248 556 405
          381 557 560 406 382 561
          560 406 382 561 564 407
          383 565 570 569 246 219
          574 573 247 220 574 573
          247 220 578 577 248 221
          557 381 354 591 561 382
          355 595 561 382 355 595
          565 383 356 599 604 570
          219 192 606 574 220 193
          606 574 220 193 608 578
          221 194 640 555 611 625
          642 559 614 627 642 559
          614 627 644 563 617 629
          618 604 192 165 620 606
          193 166 620 606 193 166
          622 608 194 167 657 618
          165 141 658 620 166 142
          658 620 166 142 659 622
          167 143 660 661 117 93
          662 663 118 94 662 663
          118 94 664 665 119 95
          661 657 141 117 663 658
          142 118 663 658 142 118
          665 659 143 119 762 738
          603 619 763 739 605 621
          763 739 605 621 764 740
          607 623 429 639 624 453
          430 641 626 454 430 641
          626 454 431 643 628 455
          666 568 733 630 667 572
          735 631 667 572 735 631
          668 576 737 632 669 660
          93 69 670 662 94 70
          670 662 94 70 671 664
          95 71 592 327 300 645
          596 328 301 647 596 328
          301 647 600 329 302 649
          721 633 558 594 723 635
          562 598 723 635 562 598
          725 637 566 602 744 720
          593 646 746 722 597 648
          746 722 597 648 748 724
          601 650 477 453 624 672
          478 454 626 673 478 454
          626 673 479 455 628 674
          327 592 591 354 328 596
          595 355 328 596 595 355
          329 600 599 356 669 675
          765 766 670 676 767 768
          670 676 767 768 671 677
          769 770 639 429 405 556
          641 430 406 560 641 430
          406 560 643 431 407 564
          581 672 624 579 584 673
          626 582 584 673 626 582
          587 674 628 585 678 619
          618 657 679 621 620 658
          679 621 620 658 680 623
          622 659 42 43 765 675
          44 45 767 676 44 45
          767 676 46 47 769 677
          646 645 300 652 648 647
          301 654 648 647 301 654
          650 649 302 656 619 678
          771 762 621 679 772 763
          621 679 772 763 623 680
          773 764 744 646 652 630
          746 648 654 631 746 648
          654 631 748 650 656 632
          678 681 774 771 679 682
          775 772 679 682 775 772
          680 683 776 773 681 678
          657 661 682 679 658 663
          682 679 658 663 683 680
          659 665 666 630 652 651
          667 631 654 653 667 631
          654 653 668 632 656 655
          651 569 568 666 653 573
          572 667 653 573 572 667
          655 577 576 668 681 684
          766 774 682 685 768 775
          682 685 768 775 683 686
          770 776 759 580 714 777
          760 583 715 778 760 583
          715 778 761 586 716 779
          672 581 498 477 673 584
          499 478 673 584 499 478
          674 587 500 479 639 556
          555 640 641 560 559 642
          641 560 559 642 643 564
          563 644 675 669 69 42
          676 670 70 44 676 670
          70 44 677 671 71 46
          684 681 661 660 685 682
          663 662 685 682 663 662
          686 683 665 664 660 669
          766 684 662 670 768 685
          662 670 768 685 664 671
          770 686
        </DataArray>
        <DataArray type="Int64" Name="offsets" format="ascii" RangeMin="8" RangeMax="3632">
          8 16 24 32 40 48
          56 64 72 80 88 96
          104 112 120 128 136 144
          152 160 168 176 184 192
          200 208 216 224 232 240
          248 256 264 272 280 288
          296 304 312 320 328 336
          344 352 360 368 376 384
          392 400 408 416 424 432
          440 448 456 464 472 480
          488 496 504 512 520 528
          536 544 552 560 568 576
          584 592 600 608 616 624
          632 640 648 656 664 672
          680 688 696 704 712 720
          728 736 744 752 760 768
          776 784 792 800 808 816
          824 832 840 848 856 864
          872 880 888 896 904 912
          920 928 936 944 952 960
          968 976 984 992 1000 1008
          1016 1024 1032 1040 1048 1056
          1064 1072 1080 1088 1096 1104
          1112 1120 1128 1136 1144 1152
          1160 1168 1176 1184 1192 1200
          1208 1216 1224 1232 1240 1248
          1256 1264 1272 1280 1288 1296
          1304 1312 1320 1328 1336 1344
          1352 1360 1368 1376 1384 1392
          1400 1408 1416 1424 1432 1440
          1448 1456 1464 1472 1480 1488
          1496 1504 1512 1520 1528 1536
          1544 1552 1560 1568 1576 1584
          1592 1600 1608 1616 1624 1632
          1640 1648 1656 1664 1672 1680
          1688 1696 1704 1712 1720 1728
          1736 1744 1752 1760 1768 1776
          1784 1792 1800 1808 1816 1824
          1832 1840 1848 1856 1864 1872
          1880 1888 1896 1904 1912 1920
          1928 1936 1944 1952 1960 1968
          1976 1984 1992 2000 2008 2016
          2024 2032 2040 2048 2056 2064
          2072 2080 2088 2096 2104 2112
          2120 2128 2136 2144 2152 2160
          2168 2176 2184 2192 2200 2208
          2216 2224 2232 2240 2248 2256
          2264 2272 2280 2288 2296 2304
          2312 2320 2328 2336 2344 2352
          2360 2368 2376 2384 2392 2400
          2408 2416 2424 2432 2440 2448
          2456 2464 2472 2480 2488 2496
          2504 2512 2520 2528 2536 2544
          2552 2560 2568 2576 2584 2592
          2600 2608 2616 2624 2632 2640
          2648 2656 2664 2672 2680 2688
          2696 2704 2712 2720 2728 2736
          2744 2752 2760 2768 2776 2784
          2792 2800 2808 2816 2824 2832
          2840 2848 2856 2864 2872 2880
          2888 2896 2904 2912 2920 2928
          2936 2944 2952 2960 2968 2976
          2984 2992 3000 3008 3016 3024
          3032 3040 3048 3056 3064 3072
          3080 3088 3096 3104 3112 3120
          3128 3136 3144 3152 3160 3168
          3176 3184 3192 3200 3208 3216
          3224 3232 3240 3248 3256 3264
          3272 3280 3288 3296 3304 3312
          3320 3328 3336 3344 3352 3360
          3368 3376 3384 3392 3400 3408
          3416 3424 3432 3440 3448 3456
          3464 3472 3480 3488 3496 3504
          3512 3520 3528 3536 3544 3552
          3560 3568 3576 3584 3592 3600
          3608 3616 3624 3632
        </DataArray>
        <DataArray type="UInt8" Name="types" format="ascii" RangeMin="12" RangeMax="12">
          12 12 12 12 12 12
          12 12 12 12 12 12
          12 12 12 12 12 12
          12 12 12 12 12 12
          12 12 12 12 12 12
          12 12 12 12 12 12
          12 12 12 12 12 12
          12 12 12 12 12 12
          12 12 12 12 12 12
          12 12 12 12 12 12
          12 12 12 12 12 12
          12 12 12 12 12 12
          12 12 12 12 12 12
          12 12 12 12 12 12
          12 12 12 12 12 12
          12 12 12 12 12 12
          12 12 12 12 12 12
          12 12 12 12 12 12
          12 12 12 12 12 12
          12 12 12 12 12 12
          12 12 12 12 12 12
          12 12 12 12 12 12
          12 12 12 12 12 12
          12 12 12 12 12 12
          12 12 12 12 12 12
          12 12 12 12 12 12
          12 12 12 12 12 12
          12 12 12 12 12 12
          12 12 12 12 12 12
          12 12 12 12 12 12
          12 12 12 12 12 12
          12 12 12 12 12 12
          12 12 12 12 12 12
          12 12 12 12 12 12
          12 12 12 12 12 12
          12 12 12 12 12 12
          12 12 12 12 12 12
          12 12 12 12 12 12
          12 12 12 12 12 12
          12 12 12 12 12 12
          12 12 12 12 12 12
          12 12 12 12 12 12
          12 12 12 12 12 12
          12 12 12 12 12 12
          12 12 12 12 12 12
          12 12 12 12 12 12
          12 12 12 12 12 12
          12 12 12 12 12 12
          12 12 12 12 12 12
          12 12 12 12 12 12
          12 12 12 12 12 12
          12 12 12 12 12 12
          12 12 12 12 12 12
          12 12 12 12 12 12
          12 12 12 12 12 12
          12 12 12 12 12 12
          12 12 12 12 12 12
          12 12 12 12 12 12
          12 12 12 12 12 12
          12 12 12 12 12 12
          12 12 12 12 12 12
          12 12 12 12 12 12
          12 12 12 12 12 12
          12 12 12 12 12 12
          12 12 12 12 12 12
          12 12 12 12 12 12
          12 12 12 12 12 12
          12 12 12 12 12 12
          12 12 12 12 12 12
          12 12 12 12 12 12
          12 12 12 12 12 12
          12 12 12 12 12 12
          12 12 12 12 12 12
          12 12 12 12 12 12
          12 12 12 12 12 12
          12 12 12 12
        </DataArray>
      </Cells>
    </Piece>
  </UnstructuredGrid>
</VTKFile>
