<?xml version="1.0"?>
<VTKFile type="UnstructuredGrid" version="0.1" byte_order="LittleEndian" header_type="UInt32" compressor="vtkZLibDataCompressor">
  <UnstructuredGrid>
    <Piece NumberOfPoints="756" NumberOfCells="468">
      <PointData>
        <DataArray type="Int32" Name="libmesh_node_id" format="ascii" RangeMin="120" RangeMax="2168">
          120 121 122 123 124 125
          126 127 128 129 130 131
          132 133 134 135 136 137
          138 139 140 141 142 143
          144 145 146 147 148 149
          150 151 152 153 154 155
          156 157 158 159 160 161
          162 163 164 165 166 167
          168 169 170 171 172 173
          174 175 176 177 178 179
          240 241 242 243 244 245
          246 247 248 249 250 251
          252 253 254 255 256 257
          258 259 260 261 262 263
          264 265 266 267 268 269
          330 331 332 333 334 335
          336 337 338 339 340 341
          342 343 344 345 346 347
          348 349 350 351 352 353
          354 355 356 357 358 359
          420 421 422 423 424 425
          426 427 428 429 430 431
          432 433 434 435 436 437
          438 439 440 441 442 443
          444 445 446 447 448 449
          510 511 512 513 514 515
          516 517 518 519 520 521
          522 523 524 525 526 527
          528 529 530 531 532 533
          534 535 536 537 538 539
          600 601 602 603 604 605
          606 607 608 609 610 611
          612 613 614 615 616 617
          618 619 620 621 622 623
          624 625 626 627 628 629
          690 691 692 693 694 695
          696 697 698 699 700 701
          702 703 704 705 706 707
          708 709 710 711 712 713
          714 715 716 717 718 719
          780 781 782 783 784 785
          786 787 788 789 790 791
          792 793 794 795 796 797
          798 799 800 801 802 803
          804 805 806 807 808 809
          876 877 878 879 880 881
          882 883 884 885 886 887
          888 889 890 891 892 893
          894 895 896 897 898 899
          900 901 902 903 904 905
          906 907 908 909 910 911
          912 913 914 915 916 917
          918 919 920 921 922 923
          924 925 926 927 928 929
          930 931 932 933 934 935
          936 937 938 939 940 941
          942 943 944 945 946 947
          948 949 950 951 952 953
          954 955 956 957 958 959
          960 961 962 963 964 965
          966 967 968 969 970 971
          972 973 974 975 976 977
          978 979 980 981 982 983
          984 985 986 987 988 989
          990 991 992 993 994 995
          996 997 998 999 1000 1001
          1002 1003 1004 1005 1006 1007
          1008 1009 1010 1011 1012 1013
          1014 1015 1016 1017 1018 1019
          1020 1021 1022 1023 1024 1025
          1026 1027 1028 1029 1030 1031
          1032 1033 1034 1035 1036 1037
          1038 1039 1040 1041 1042 1043
          1044 1045 1046 1047 1048 1049
          1050 1051 1052 1053 1054 1055
          1056 1057 1058 1059 1060 1061
          1062 1063 1064 1065 1066 1067
          1068 1069 1070 1071 1072 1073
          1074 1075 1076 1077 1078 1079
          1080 1081 1082 1083 1084 1085
          1086 1087 1088 1089 1090 1091
          1092 1093 1094 1095 1096 1097
          1098 1099 1100 1101 1102 1103
          1104 1105 1106 1107 1108 1109
          1110 1111 1112 1113 1114 1115
          1116 1117 1118 1119 1120 1121
          1122 1123 1124 1125 1126 1127
          1128 1129 1130 1131 1132 1133
          1134 1135 1136 1137 1138 1139
          1140 1141 1142 1143 1144 1145
          1146 1147 1148 1149 1150 1151
          1152 1153 1154 1155 1156 1157
          1158 1159 1160 1161 1162 1163
          1164 1165 1166 1167 1168 1169
          1170 1171 1172 1173 1174 1175
          1176 1177 1178 1179 1180 1181
          1182 1183 1184 1185 1186 1187
          1188 1189 1190 1191 1192 1193
          1194 1195 1196 1197 1198 1199
          1200 1201 1202 1203 1204 1205
          1206 1207 1208 1209 1210 1211
          1212 1213 1214 1215 1216 1217
          1218 1219 1220 1221 1222 1223
          1224 1225 1226 1227 1228 1229
          1230 1231 1232 1233 1234 1235
          1236 1237 1238 1239 1240 1241
          1242 1243 1244 1245 1246 1247
          1248 1249 1250 1251 1252 1253
          1254 1255 1256 1257 1258 1259
          1260 1261 1262 1263 1264 1265
          1266 1267 1268 1269 1270 1271
          1893 1894 1895 1896 1897 1898
          1920 1921 1922 1923 1924 1925
          1947 1948 1949 1974 1975 1976
          2001 2002 2003 2028 2029 2030
          2055 2056 2057 2112 2113 2114
          2115 2116 2117 2124 2125 2126
          2127 2128 2129 2130 2131 2132
          2133 2134 2135 2148 2149 2150
          2151 2152 2153 2164 2166 2168
          1926 1899 1927 1900 1928 1901
          1950 1951 1952 1953 1954 1955
          1977 1978 1979 2004 2005 2006
          2031 2032 2033 2058 2059 2060
          2142 2144 2146 2163 2143 2096
          2165 2145 2100 2167 2147 2104
        </DataArray>
        <DataArray type="Float64" Name="resid_x" format="ascii" RangeMin="-18.73454078122748" RangeMax="0.3932614764217666">
          -0.000008850170273966285 -8.498958169564762 -0.000010854891971945335 -16.996183289981317 0.000007749644576726666 -8.495831516300543
          6.830008381086827e-8 -8.480344806450152 -0.000005258070157942996 -16.95839288148038 -0.00003049603964733194 -8.474509563729406
          0.00003934737907851371 -8.461567117345034 0.000024943101385233035 -16.926008492766048 -0.000010259647383215054 -8.457747888608342
          0.00006434345291239651 -8.4735799909531 0.00004491860635358336 -16.98338550041879 -8.844460781531893e-7 -8.504022769532607
          0.00008328141529556632 -8.543231266384822 0.003914728742056894 -17.250619633856928 0.0009213750950385347 -8.750754874712252
          -0.010266867101926813 -8.751991855932975 -0.007726002763519091 -17.774433238523013 0.0035889974399507807 -9.23968509560582
          -0.0028868447377403683 -8.890525414699606 -0.006724184707675995 -17.998789891126847 -0.0017991426105288255 -9.526628758169007
          -0.00014814716479349954 -9.01215785648554 -0.0009228131391951777 -18.16778307694411 -0.002365940902536501 -9.610289850805966
          -0.0010193347815432574 -9.380298801768168 -0.0013653651174303505 -18.73454078122748 0.00018923345806776126 -9.326967298947636
          0.0007535609911291652 -5.7827559078368305 0.002535413941721132 -11.421985997449365 0.005764281784798708 -5.123116024467046
          0.0001663764984405347 0.000040959875325263795 -0.00005250976396453666 -0.00002319630728564448 -0.00014687211472796946 -0.00014038216224232514
          -0.0000932084687557122 -0.00022270709494520702 -0.00014296436421989966 -0.00017155847737182484 -0.00033658757622756497 -0.0001996094331886411
          -0.00022404011652987776 0.001017808594871994 0.008125380420954897 0.0001562101055627707 -0.01224734692642393 -0.0025042572068549873
          -0.0006560536007089723 -0.0010108492027782745 -0.0028838107412960667 -0.0010743860783861692 -0.001744807710698737 -0.0033756750679314607
          -0.001855341553976153 -0.002751691901710096 0.0008498935070999636 0.0001256635281814411 0.001508086967509481 0.008600655124520573
          0.000005867468075848592 -0.000024438762595835328 0.000008744260342474774 0.0000264228337689687 -0.00002806301968405478 -0.000022284752815515674
          0.00002236767421948116 -0.00002519431022829366 -0.00004519710486317052 0.00001138855460247612 0.0025365184922465644 0.00048822130497860883
          -0.00007042217330965883 0.004332318209186781 -0.008045967801146858 0.0001399115095317427 -0.0008928891661037497 -0.004787087296808323
          0.0002444807087211842 0.0004455955825930502 -0.003434886614416044 0.00038401595233494845 0.00048348753565274905 -0.003258720890519484
          -0.00016895486325285702 -0.0011595917704330105 0.0015185540359912153 0.0004623155523910995 -0.00043301751807780023 0.008477612307112366
          0.00004925668817268303 0.000018299509858543672 0.000054497141747766875 0.000041949663924789604 -0.000020730283537773175 -0.000020899980095023807
          0.00002825964691233196 0.0006160096137604043 0.002233625490660529 -0.00008429632702089407 0.008259925403228507 0.009683207302945362
          -0.00027857407987763594 -0.00707420166101258 -0.0039257890809238916 0.0001587785178411849 0.0004394050689038309 -0.0029930200311465427
          0.0009078104526309971 0.0015000525668664721 -0.003255378411491705 0.0006187800288044443 0.0008341441207369016 -0.002276752842670149
          -0.0008597492061444001 -0.0021739430384730696 0.0018502234968513775 -0.00009951537333252602 -0.0016265022444985622 0.006960089127170388
          0.000048168773831847034 0.00007869829343931656 0.0001120930182594293 0.00006338791388316167 0.0005089449888906472 0.0018127321795233797
          0.002593182895810564 0.007258362018072617 0.005172462404317457 0.00959333345839486 -0.0019606305773596233 -0.012395605374180718
          -0.00023857086658196636 -0.0024688270141677293 -0.003288967134413845 0.0006017196019065807 0.0009639978895705781 -0.003318131751618658
          0.0012083460539926705 0.0019078680763922051 -0.002751265375279921 0.00009924367816704915 -0.00009530880312613732 -0.0014952807098911336
          -0.0009402724466669454 -0.0014072352964387136 0.003536185144409565 -0.00026456067775004755 -0.0008038654438282666 0.007789903433403689
          0.00009135674982552189 0.00015022980013057463 0.000303690829212222 0.0014331616955338689 0.005655202143942439 -0.00025444253893880386
          0.002293787653499635 0.004027478322432998 -0.009059369836807107 -0.009662264305214663 -0.00945177433460298 -0.0025054110225743997
          0.00032806734620205447 0.0005862344911635731 -0.0031924499160176367 0.0009062581124199554 0.0016303600130607165 -0.0029955680517037564
          0.0007546372931681589 0.0013637038073648355 -0.0020095505159760663 -0.0001305655303607267 -0.000426669728909701 -0.00023219834611776236
          0.0000037164035928682893 0.0003469012030334895 0.005988474659770482 -0.0017528889897361344 -0.0010176859237402969 0.007937878475333449
          0.0031120561557731463 0.006638459184465262 0.006074031607800734 0.009644047671959477 0.013284889754219265 0.0008215403681743894
          -0.004995331893220545 -0.011703937232055317 -0.0019309702482166458 0.00026951366565874935 0.0005143222145829185 -0.0028748744809217186
          0.0008231292582836502 0.0013527485548934237 -0.0032184720518504406 0.0005360871236366194 0.001093978491393699 -0.002881755024762178
          -0.0002471284630161108 -0.0001319183093793086 -0.0015818396906865928 0.000493052501111535 0.0007184971883624769 0.001891601718607916
          0.0011205724519136595 0.0019639009559515586 0.007669027696681319 -0.0008572714157586425 -0.0009347980011420454 0.0058273805727312444
          0.0022046999584084404 0.004655688895262244 0.0021933492927113107 -0.008340405940662876 -0.01425517318320857 -0.0029273841784167587
          0.0004910156207937888 0.001095797262083309 -0.0021215149410869216 0.0003519706043091375 0.0007568911478914586 -0.00315201734575421
          0.0005879164226811895 0.0010224067773139112 -0.003279197286317981 -0.00035997817330368775 -0.0005146961098461134 -0.002943728690239844
          -0.0004984927207258849 -0.0006177124132209499 -0.0006102781552455028 0.001232222540640926 0.002558093205539791 0.004808386106376794
          0.0005814063965781102 0.0014080882314040366 0.007731399666739414 -0.0005889696743055506 -0.00047507390275858263 0.004433127046157281
          -0.0008242551854227287 -0.0016958730872627115 -0.004711378766850238 0.00010083423388529411 -0.00007616861068271419 -0.003970869007315692
          0.00010537419797973513 0.00016646558269339806 -0.0028694575031904535 -0.000616390634294639 -0.0008732165310272322 -0.001637400256083943
          -0.0006338685569309277 -0.00041789008790704685 0.0013006593975255498 0.00041003065016731455 0.0013474456760240727 0.005372010270240146
          -0.0002211707250445727 0.000001220654369582519 0.006768293716805651 -0.00044432807097027904 -0.0009563629016904329 0.003941716780213156
          -0.0005780331953455162 0.00007693511561640554 -0.0029541874519502208 -0.002839091252117787 0.008335452178577271 -0.08947293936948514
          -0.007252493405471336 -0.005586536368839046 0.00604093805210261 0.012705995393316072 -0.008429359137886505 -0.0028187752856350806
          -0.0013703222137592258 -0.0035598847014674043 0.05129217472078079 -0.006521861799670249 0.17521778202362473 -0.0021297214365459186
          -0.0041241553944301595 -0.0013154768695306587 -0.003008954698999186 0.16583188554670297 -0.02651446931869475 -0.0488528402292805
          0.3932614764217666 -0.1259795957134187 -0.7323696555690002 0.001265904385858052 0.0005724878272428402 -0.0008169599048893916
          -0.0011550026504122402 0.0009252073296260876 0.000002512580738134318 -0.0033427250684806564 -0.0037900486399324307 0.0031366969673018996
          0.006032363074011893 0.002422918194935786 -0.0006284198571489263 0.0929581329895316 0.014712142294187436 0.0025485908567666193
          -0.11142635113874921 0.1908610962402022 0.042700611527372645 0.048795129224246114 -0.020173757615018828 0.15314026138846115
          0.15208885714907366 -0.07754838140464748 -0.3650682292831786 -0.000326668677843589 -0.00023677078860617762 -0.0034067589373470986
          -0.0035568073270966227 -0.002219715790644061 0.00007070466370029393 -0.005347998764076767 -0.005558853378121009 0.003472205481186652
          0.004196767237974575 0.0016165690107857733 0.0019984503765495543 -0.003283883309393887 0.0008350287810476864 -0.0022791572583558684
          0.0010695100197524177 -0.007872011878044538 -0.0016116457580309662 -0.004140477429954548 -0.0020341496631857137 -0.002865212665767114
          0.0031682202038442187 0.0005677151315898743 -0.0013381343111612543 -0.0015352575375149335 -0.002608591401106919 -0.003355274976952982
          -0.005391408335513548 -0.0007152058927564209 -0.0009990720358512561 -0.0025061828608548 -0.0016049385266544425 -0.004766408271059119
          -0.0033388208262165042 0.0004593197877618138 0.00416994431901252 -0.0024124658662426426 -0.0013899597287276683 -0.0003160128964240158
          -0.0009301001719733692 -0.0014458630507346235 0.0008145892531220972 -0.025425994906074046 0.004101416911439837 0.00986439567972884
          -0.02325954670923376 -0.0762188822148685 0.03526985674870056 0.0009038713278943789 -0.0014371860080791832 -0.0002247370490262579
          -1.483910719212388 0.0010788728902526579 0.0000334241927925083 -0.0000309384517925837 -2.9016968545433195 0.000015034514269318677
          0.0018611665852311665 0.0004660478212515917 -1.1779367959257234 -0.00178522015906446 0.0005205975927303208 -0.003249117620785391
          -0.0037582815366934974 0.0023641803071366985 0.005007445718872794 -0.0012277735596177841 -0.0006259143834129732 -0.0012580456679214258
          -0.004953276879398172 -0.00430526344561144 -0.0016543739642651545 -0.003792979680902253 -0.010236135468628893 -0.0019977507266133454
          -0.0004389325625187013 -0.001955562522017562 -0.004723333611015179 0.006456583480486278 -0.0016362909157306982 0.007308312053263044
          0.0059129797892544245 0.00927017570100297 -0.0049288236994203816 0.011455282722082905 0.01302947811277988 0.006876613754265071
          -0.0036727016209135988 0.007656607546396188 0.01947989956533236 -0.00008612228998591039 -0.00042100705810022704 -0.004759930922621655
          -0.0017634417256931212 -0.0004436039419166288 -0.0009917261613488458 -0.03209655100181658 -0.003960183058969221 -0.00029515112655700837
          0.000056125529956610465 -0.248884506578157 -0.0038636961071411013 -0.003100111605429001 -0.003927979140494475 -0.004752205973903578
          -0.006108271964551215 0.00040064909985315644 0.001964496319968756 -0.0029346988405349883 -0.0021632742812893735 0.005590017328851782
          0.05886296345976838 0.0036956505736090994 -0.007647486814365889 -0.4790122443194068 -0.09916721165537429 0.078040012150312
          -0.0022458117570380853 -0.06688747785296045 -0.0014956453237402467 -0.15586798323907414 -0.1163937768794635 -0.06562416479106947
          0.1384465582971217 0.024438166940207395 0.02875037766520805 -0.0008704326818000374 0.004929260234961708 -0.002213579237090757
          -0.003244646205212573 -0.000028159483305589816 0.011869361532997585 -0.0013104699622173976 -0.003056096046613374 0.005946691579614305
          0.012720326897540879 0.002966623595485496 0.008975886587283086 -1.355523995463969 0.00015191906623146512 -1.4672908022264073
          -2.695852792789059 -0.0003828953409326097 -2.8653249857705982 -1.097582873623374 0.0013975883157240077 -1.1430087376092068
          0.0006569701591578984 -0.002388701699228113 0.0014601158147837991 -0.003761195316317578 0.0014346949967367559 0.0019087755789841676
          0.0181827644019954 -0.0005164475206578811 0.11039290246502798 -0.0015875807271976683 -0.015596939187456443 -0.13852821783791908
          0.09779799659832888 -0.0819324938395653 0.06303315892674016 -0.0669326367211192 -0.022356820937199595 0.05640519891618073
          -1.322971706318477 0.0017740690665767334 0.0010423188249708976 -1.4638719783485783 -2.6092273158909034 -0.0004034202930547348
          0.0027345276261912174 -2.8296958513512163 -1.1543226876454293 0.0011999525734324168 0.0034403438538505304 -1.229462758364242
          -0.0037429561082592544 -0.0037988469392549185 -0.006526130260605445 -0.0054214861163045525 -0.0034848909697742236 -0.009805519173085475
          0.004172153144975876 0.007274203159268078 0.0009506916785602115 -0.002239336623731332 -0.005008504237180689 -0.030984157621616666
          -0.02341494317374626 -0.06250183829651171 -0.05460699517486989 -0.004850358612385586 -0.002218588610283012 -0.006932314167380271
          -0.002851152778668764 0.004572383234348054 0.003697649736577935 0.004121453763939575 0.007245134358983996 0.007659534698496645
          0.016594672338564376 0.0067354484518584445 0.006670239480607298 0.002694002932367656 0.028413201081533557 0.002128521365482694
          0.020518245631847065 -0.00040533752065718964 0.004128145133333705 -0.0008317655051900616 -0.005713348819529451 -0.0016223123329365957
          0.13349793175957314 -0.0075040437798412005 -0.002084413562973144 0.3517052928960834 -0.0028023237714231777 -0.00038311855786359386
          0.00023018467129976017 -0.008507130928161466 -0.004788665775948164 -0.0011250750800781972 -0.006682943480458059 -0.0039620594657681085
          0.0011351749026029534 -0.0017509366960251072 -0.002881730803570348 -0.00028491225878690685 -0.0002247858458511165 -1.4238015343682142
          0.0013730721667480905 0.0015182915766829286 -2.8004903081872503 0.0011032225731754108 0.0025981272910041153 -1.1251869991363286
          -1.2872934222611474 -2.5523917325777936 -1.1033380896083966 -0.000054006560874082093 -0.0004507882936880189 -0.006186939948539388
          -0.0031291287728849593 -0.0005542213044888375 -0.0009235007714036569 -0.00956959109118699 -0.004197938808542724 -0.00033187117103274794
          -0.00012048716648720148 -0.0031007227185388397 -0.0009183337468009339 -0.0015896534298137643 0.0001617882657378722 -0.0028835590648984555
          -0.0026821165372478695 0.0009343200809655006 0.0023475903205542603 -0.00495833869549505 -0.00489259659822253 -0.007842905123849268
          -0.008960232925702106 -0.0018051057563936643 -0.00258046078290705 0.0023215561003658847 0.003922745067580682 0.0010906517121482828
          0.005882330862515647 0.002470679782997698 0.008596553380197491 -0.0008601558075973514 -0.006115941585092877 -0.00219989935443321
          -0.0011503558210801401 0.011261908526378317 0.016222496989285462 -0.003833986878665957 -0.005441977593304802 -0.001590539923659394
          -0.0019299654010607181 -0.0037776081626379465 -0.001341358060101605 0.08603930084907989 0.005905600069906564 0.16179225618099036
          0.03135624431216416 0.04336936883785725 -0.003855575759209851 -0.006277382816803012 -0.010501767126953498 -0.004190060264002593
          0.044142954121738937 0.054936865958357894 0.033150539892446235 -0.002482166663125389 0.0047464500785564905 -0.15185284424922554
          -0.021375556633586923 -0.04732313942825961 -0.012174815905288794 -0.0007883254532222717 -0.0012353318014205472 -0.0006485575584538328
          -0.0006136070067377479 0.002777648277646816 0.03875907249701905 0.00612854123569162 0.026863355932583932 0.014641836075748649
          -0.9594952507178984 -1.8758369423579893 -0.8432943668728431 -1.4104970043644094 -2.7794459229640447 -1.1515362114052272
          -0.002715860973951656 -0.004023619384481231 -0.0029313151007696048 -0.004518268098103054 -0.005264112565915122 -0.002825753209404522
          -0.0008413395807025381 -0.0013536676815366633 -0.003275459057396901 -0.0019622382684838513 -0.0026142594475278003 -0.0024570663409759774
          -0.0004552880279007354 -0.0002523977540747069 -0.0009657105735279004 -0.0024578047281318405 -0.0035318844925615878 -0.0011242517595881907
          -0.0025505535972829563 -0.0032584305258058777 -0.00035382637159209196 -0.005287986489511454 -0.008283968687854859 8.676236502580537e-7
          -0.006639257024803946 -0.010088058398435962 0.0007608109785000039 -0.007936057760741022 -0.01168045505081583 -0.0003634794446982781
          -0.00664952738519653 -0.01036227596692374 -0.0016918227816093978 -0.002728649421796847 -0.05264562435039366 -0.0037735812311621153
          -0.017611793984939228 -0.0007998146338374923 -0.0012175615795228523 0.09258392771805252 -0.008886938707384662 -0.004463451426636955
          -0.07100034424546742 0.010682521715072946 -0.017213586963127803 -0.009104486699868297 -0.024415849175679627 -0.005286949707261623
          -0.008534778843324098 -0.005073472397043144 -0.0034136235109154534 -0.0029056420046056353 -0.0032304904484050656 -0.0023237740832636744
          0.00891448745228618 -0.025343308481050375 0.0011678041330895894 -0.006224969345552611 -0.01141408552596368 -0.006590027192505787
          0.00010517838400048163 -0.0016100409689165929 -0.0030293254055848706 -0.004528530140808229 -0.0008999653694132803 -0.0022950567042627767
          -0.0041009979910828775 -0.005383835245380553 0.0005212756684498387 -0.0007383529679234613 -0.0021350563209221463 0.00011974327945374341
          -0.004039547369567131 -0.008473258447942555 -0.00024972176750459596 -0.006177707715048442 -0.01155846758915402 -0.0009599149856134304
          -0.007075116780270285 -0.013714545205147033 -0.002359994376844199 -0.00642514668963301 -0.012090390830204356 -0.005248720624489778
          -0.006155532790655727 0.009855667887478603 -0.013759973833558092 -0.004675810934073876 -0.009287828134707521 -0.0014161648409083405
          -0.007526273144808471 -0.01322827264751325 -0.005196519497439489 -0.005596693515166784 -0.0077229916997696435 -0.006524449844732327
        </DataArray>
        <DataArray type="Float64" Name="resid_y" format="ascii" RangeMin="-0.765805246612584" RangeMax="0.43060676927126496">
          0.0001574230036188451 0.00008558542852730999 0.00030109343583301085 0.0002846882163049236 0.00014204579344112567 0.00020840130458235628
          0.000020676906254235572 0.00011465379542209553 0.00004034599607612155 0.0003972354289868696 0.000038811458022008916 0.00029929451109768357
          0.00007186111025796194 0.0002102290341670643 0.00006321353963675835 0.0005897076999444029 0.00005085599608702085 0.0003999325490492145
          0.00010127787523322995 0.0003035866806715415 0.00007740843347750492 0.0008029213500474475 0.00005835866993308958 0.0005274812991953315
          0.00014146053192834462 0.00041245040528606336 -0.0004693804808532376 0.0010839009369292274 -0.00016046179513548586 0.00069822943510775
          0.0000138169440683511 0.00022004644993492417 -0.00047567214679994363 0.00034316055487265684 0.0005648469190485672 0.0013569256504168958
          0.0012798057959583775 0.0007469093253754666 0.002694914648598501 0.00246198697369171 0.00025048810951117106 0.0008012118116864642
          0.000676620758558566 0.0007899473863216544 0.0016671370346338366 0.0017618887275956951 -0.0006193309530397317 0.000002065325137190488
          0.0013732695436007858 0.0013630908616463766 0.002655314804612563 0.0022718330277536336 -0.0023341125538128282 -0.0012227141958145449
          -0.00015783576220240736 0.0008480294176086423 0.0020627392509500186 0.0012627522220344245 -0.0026816307433104314 -0.0013315458666978697
          0.00028073606071354895 0.0004384140412493909 0.00021181101063907914 0.00028904612866537116 0.0004122345732071597 0.00024058306160368303
          0.00046109331429011746 0.0006910557456076827 0.0003933864638591411 0.0006248002470138417 0.0009557775583474426 0.0005446027077796178
          0.0008238986418714206 -0.00010644038280274715 -0.0006567550866816152 0.0008034324742634824 0.00382985448748302 0.0018706578655550699
          0.0011668153920367796 0.002096567170498803 0.0006099494352106438 0.0010848723902006085 0.0015242119211995586 -0.0004941520330876692
          0.0009247604684985977 0.0007820908278533545 -0.00213587068332316 -0.0004384156271535211 0.0008913814338035175 -0.0026785842620720146
          0.000166360122700826 0.00027885757332263283 0.00015331335734231066 0.00010174083610937912 0.00004867687731785475 0.00008677388386478524
          0.00015705857099924947 0.00007783707036168597 0.00013195444343902518 0.00022308341362741553 -0.0002920798479024572 0.00002253079624683907
          0.0005253826595434906 0.00006680676611692249 0.00013261716635293297 0.0003628812278591992 0.0009144583293476671 0.0007504061949200613
          0.0003270102692032595 0.0004777926150057732 -0.00005147988560044725 -0.00008268929584709372 -0.0004799952950359787 -0.000835775828367108
          0.0003864913221605648 -0.0003210639291472417 -0.0018909815983507161 0.0017085036207993287 0.0020392540209940857 -0.001977169832282216
          0.00015251119328391072 0.0002348062082910829 0.00011250962357300942 0.00010498431824632753 0.000046831256483317873 0.00006509321298173165
          0.00016678744849128648 -0.000013844525573798727 -0.0002490120609162441 0.00019250796405075044 -0.002012504089819067 -0.00045477790317138833
          0.00009359767147650022 0.002512845574189366 0.0008045450436956203 0.0004074924958785836 0.0006044405446388873 0.00031253688329394014
          -0.00003636673282125802 -0.0002473727821185323 -0.0002939915253890868 -0.0004431435948362705 -0.0011475967217401684 -0.0009490636270941544
          -0.00018486621119895297 0.00007932234965796203 -0.0005769261443224205 0.0009659427634950424 0.0024682246041066724 -0.00024904283050813936
          0.00015153090535474645 0.00023375220751908898 0.00010304393306992399 0.00009356142302428122 -0.00003767248602987161 -0.00027044729019580493
          -0.0004531741859733415 -0.0012879654286217512 -0.0007289844814913071 0.00003971393643825705 0.0008605891912273449 0.001331477117869781
          0.00037030148829348547 0.0009125754089898581 0.0005292289319015903 0.0002098440321061379 0.0002425668297124095 0.0001973846533207535
          -0.000221047625135945 -0.0005812257370630403 -0.0002847857133644327 -0.00018694280710579436 -0.0007691002550010706 -0.0005981397508506986
          -0.000038714735177025617 0.00023874664915879418 0.000016600585678941404 0.0012669918593642311 0.002336544724901515 0.0005762566962257132
          0.0001521591581526427 0.0001902230391144788 0.000050746457880612716 -0.00014295072650952288 -0.0007495318793172973 -0.0006959549793946335
          -0.0007693045817322164 -0.00047176068815872607 0.0007437392681258481 0.0017466378365967872 0.0016110670058295112 0.0004428711327581214
          0.00028742647537967 0.0004497041180474212 0.00037523997037388485 -0.00007543867658541675 -0.0002592833222997172 0.000014716119351625492
          -0.0000319140554305708 -0.00029556014930651187 -0.0001611070255154376 0.0004486599000538549 0.00013290377903307782 -0.00008232918777922871
          0.00045584126201242414 0.0005682969927928161 0.00012368929259738703 0.0007152341363123732 0.0017092878846934056 0.00020723281677081928
          -0.0003243049699891698 -0.0013138427754390003 -0.0006137603407622982 -0.0004975151054199629 -0.000581296969792984 0.00048144078586748185
          0.0007832014548990671 0.00196746939119161 0.00020164952243328926 0.00021775866162244625 0.00030476439300781283 0.0003061827533705416
          0.000004279872274837691 -0.00001638134965725735 0.0002331684521145981 -0.00015045824238207883 -0.000420664394889996 -0.000027839838217760815
          0.00032431849610992103 0.00043711347127139977 0.0001404786155967952 0.0006651983468187184 0.0005569948744196529 0.00020157054603818503
          0.0014621973514481468 0.0014440458493826247 0.000596394910649195 0.0012613657363481218 0.0003383822956068965 0.00033511241414841547
          -0.0012117132945297648 -0.001560681106864581 -0.00017567767849238636 0.0012396567606073328 0.0014749298953438683 0.00048469916672873314
          0.00003706014929555357 -0.00007106038375315205 0.00007519289575902421 0.00008089017030058973 0.00009977334261886475 0.00027556143813323164
          -0.00009590510380370204 -0.00035047450684641546 0.00018213038841843887 0.00003244127278893838 -0.00020944726157535272 0.00006591251103039986
          0.00045346737139817517 0.0005816357250327253 0.00020815492685991033 0.0005481755422402645 0.00043933342741125925 0.00007965104199900847
          0.0014563550402817982 0.0018389255601790055 0.0009124122956145342 0.0012126613303513195 0.0018860986832524712 0.0007302709764658022
          0.00029322889054561596 0.0007526209884362034 0.0005605785337002844 0.0006606712909442702 0.0011633956005701052 0.0005107311907481815
          0.00024764024957713016 -0.00007163862231596152 -0.000022029596115524797 0.00017867728159443041 -0.0004462676914207542 -0.00016580690508610774
          0.00006258515842566537 -0.0009634396622897612 -0.00006792201846064078 0.0005528587933305018 0.0004860780091290595 0.0012597232221461807
          0.002866597457193365 0.004249877004998612 0.003713504964555081 0.002768201887736854 0.0049683697840055 0.0019242673189039383
          -0.000048794377160564506 0.00030303355819016886 0.0008186186883307051 0.00015645689369743476 0.04263203562147682 -0.047656869086056375
          0.00036351264917815554 -0.0009221362389121301 0.027981735347067715 -0.00674783157410172 -0.002803843668801813 -0.000016691618553582588
          -0.0008914712115460632 -0.000644754041992413 0.03261340388464579 -0.0005956950167950673 -0.046715496738502615 0.00012180128955650155
          0.0005272599025656372 0.00003532181557391531 0.00011368495558498198 0.3455454388484918 0.021280408354253155 0.0636236380455054
          -0.032096262932530914 0.03751269667695423 -0.765805246612584 -0.0008351761822655845 -0.0017523731841805924 0.0019287120215973896
          -0.0006630524482391098 0.000040394827493517305 0.0006803639829863848 0.002900778602856119 -0.0003975592800510297 -0.0004666585026774639
          0.00046389358597864055 0.00192281393848992 0.0005230638325694481 0.01718294108873286 -0.012050802306487668 -0.01387423623953346
          -0.006646003913514907 -0.012556508042434023 -0.1648175831165264 -0.22422998569563624 0.07830318531058789 0.17733731565983457
          -0.12465173077492187 -0.1078690595788663 0.43060676927126496 0.0005603817738561445 -0.0008377582518803994 0.000948806644039013
          0.0012183411377929415 0.001389710079397477 0.00013563688401879714 0.0006980215454659433 0.00044498720135235925 0.0001642676674711574
          0.0004778174201902352 -0.0002863375304075211 -0.00003855130147170649 -0.004944243984376984 0.0005556459033540517 0.001542328379796551
          0.0009694714304833152 -0.006891677477645575 0.0024198944133760336 0.0032561138647214938 -0.00355111358955984 -0.0027211022687940734
          0.0017786695852131107 0.0013928370420546003 -0.0011933855369158086 0.0006814728030123396 0.0013765748707252057 0.0011948601263183645
          0.0026674309067780677 0.0008039479848274689 0.0018525312480513478 0.00040046121873170415 0.0016310799496151995 0.002940474228932094
          0.0014968491425253472 0.0014669937710260345 -0.0023242078520668563 -0.0007701157673163893 0.000186312933715925 0.000997567222412947
          -0.00028559474499320614 -0.01209413039591551 0.06294169593933707 0.017987490082753996 -0.011158299991201326 -0.039378415049309
          0.06764302613648027 0.12762880316665867 -0.05173084327382673 -0.0006261450729157557 0.00027241950901796264 -0.00038384027521702916
          -0.00021162451981615593 -0.00013397096834110497 0.0023476887602174035 0.00014100805505745293 -0.0003568840066594525 -0.0007043501391274399
          0.00031527820524140937 -0.0012568199200736025 -0.00028323610162675483 -0.001478691850227476 -0.0036560890814288094 0.0010287614889291086
          -0.006747975490839608 0.0016659460604404597 0.000492515162840601 0.0008401821155607503 0.00035402615915065827 0.0002196059828817598
          0.0013322528122812066 0.002696036564087345 0.001480260857407864 0.0009458162726625752 0.002367226192514199 0.0014736746886724883
          0.0009414581565465319 0.0006720265517447255 0.0018548395765370929 -0.008702952428597421 -0.0030564841445251956 -0.0007831995903861411
          -0.00047667184677175484 -0.009206389609829002 -0.004282475159758881 -0.00015395542477131263 0.0006075976743761258 0.001546775209718354
          -0.0017134604318669866 0.0002310278951141581 0.0013560023045287861 -0.00029135353288003984 -0.0007804058749431401 0.001588800141656986
          -0.0003298077702972805 -0.0006611898700297492 -0.0009191519745937009 0.13016548125277336 -0.0007018043333451435 -0.0008321856887937018
          -0.00026767276775660487 0.2384994763421652 -0.0004375628094136705 0.0009380856643180779 0.0013590212017545872 0.0013815245409340218
          0.0034391030675820985 0.00027131366889120503 0.004089642328783311 -0.0008624470947676821 0.002198242018602109 -0.00016289995715930428
          0.013215628127789342 -0.021674993124410985 0.21168864769013382 -0.0010466424081330486 0.0014743978388160328 -0.010973784702697498
          -0.11264151400259093 0.015122525040680707 -0.00006802320275090673 -0.1497808492570696 -0.004923365014730036 0.03810182945595808
          0.09719000336084752 -0.0553729960933429 -0.004792681301973439 0.0029880641836481717 0.0010896221079272073 0.005849193255823226
          0.0031585764115978354 0.0003262007058054753 -0.009201089464115242 0.0045003982639648665 0.004495709936025133 -0.001739146301233535
          -0.003777772965010754 -0.011811734048309597 0.0003528153381855137 0.0002844013139916557 -0.000022257322865620877 -0.0005606379436237235
          0.0007989507800205131 -0.0006839744327219455 -0.0001801184670446876 0.00048164233550654356 -0.0007896876546677895 -0.00023837118766154713
          -0.0003353563467822229 0.001934526255289247 -0.0006101194764922407 0.004112634373834037 -0.00021321296756644792 0.0017610118081337611
          0.003724096081230255 -0.0012212761746867584 -0.0017866035514562117 -0.007788550230146685 -0.0493755808934363 -0.07209191108858874
          -0.029956161680858573 -0.040134532929674886 0.00048018629874946317 -0.06520097295051128 0.014079722356931862 -0.02046457745765481
          -0.0015077189200426097 -0.0007920050460865531 0.0003835379664706151 -0.00030544280817776555 -0.0016830402367088437 -0.0003766784122241629
          0.000972979771064475 -0.0004612131990705398 -0.0004883868335008312 -0.0005185939390796937 -0.0007936277828133886 -0.0006420248546379192
          -0.00026249872094726706 0.0024788106590875048 -0.0015965897471546947 -0.0009606301887018359 0.0036850832044754145 -0.0008933359062532897
          -0.00017123688608916554 0.0008355263524295886 0.0003832648182142684 -0.0008139094805601488 0.0020539173729393068 -0.004357521401897976
          0.0003068717872052873 -0.050444492203108926 -0.007677400483322827 0.0024869499597321293 0.0018516653776378539 0.0034671710739607037
          0.0028187407081331772 0.0009944648161946124 0.0024418848620003514 -0.008632674741134772 -0.024367211616975304 -0.008141939138002763
          -0.024568312320610186 -0.00044823429430497497 -0.015242349468095773 0.003455833581896328 0.008164269477893032 0.0052608769533501465
          -0.019892686720383607 0.004230408253912563 -0.005755047253845638 -0.0008066258238246847 0.0017710732198024971 -0.0006704133033995086
          0.04981024549083857 0.002033777781652396 -0.0008175910574053369 0.20041293817446293 0.0010137082124131317 0.00006003699027177026
          -0.0007069963628161258 0.0013066135664622225 -0.014855002988663213 -0.001226578480970672 0.006906498936447458 -0.0018419464802524876
          -0.00013480359359116512 0.0030722410706785497 0.0018287371780078554 0.000314459956704094 0.0028935664904196634 -0.0005229527948969054
          -0.00012302970543351388 0.003351443825376832 -0.000791408062265686 -0.0008326863614533525 0.0005458287665461165 -0.00011611707218557588
          0.0012736844963404867 0.0014083703777341833 0.0005451825572528254 -0.000004940427619191945 -0.00024282927345531044 0.0029524424769327186
          -0.0005706199779422546 0.000255968373213962 0.00010854075179977593 0.0038929097649092297 -0.0007165857181715436 0.00026917127536942205
          0.0004023152088575184 0.0011912856483822787 -0.001133652356585961 0.0006870898773275805 0.0015847753025807487 0.0029039663292305673
          0.004969352141327488 0.0005542450830316736 0.001384429675373472 0.0002303931421743545 0.003961977264816674 0.00047419613549779666
          0.008150523383852077 0.00017770089540228642 0.0016256514294659711 -0.0013766108534110089 -0.0000956603629072017 -0.00007540647217030294
          -0.0013779788806024817 -0.0009430956419951564 -0.001077050080002473 0.00034433491836255437 0.005841337261840218 -0.0021455472272812748
          0.01151318001699242 -0.005651203661478615 0.01554528998307958 0.0028900934924236494 0.0021327638790115404 0.0023229642583726734
          0.004560016926286714 0.007599047680826865 0.004116093514266561 0.017348541180278537 0.05919305854045337 0.03210331807698761
          0.12174467944344584 -0.0026852672333260025 0.06330860469167232 0.001993149101462588 0.004433218767294689 0.001841316326375242
          -0.015305427521770165 0.10541219728148118 0.0014837479778809781 -0.0002856050844926433 -0.11135107933001517 -0.40760046668176664
          0.01280797265227894 0.005005238965075237 0.0017993359992379832 0.00025568471504275325 -0.0002436287926952524 -0.0001651267568593684
          -0.0007736751847938761 0.028573912702006224 0.09513494255755944 -0.0012807565528504816 0.00021867677332892965 0.0036475862133413806
          -0.0015201924586120963 -0.0021098230564959974 -0.0009354399110965157 0.0006003894024977363 0.0017132258006293533 0.0003650840086668744
          0.0008860095330411911 0.0008034954363724048 0.00006921113195794415 0.0011866045347517142 0.001585777327752818 0.00012220716814511506
          0.001581521646045303 0.0032629371415409114 0.0019134136323127882 0.0022300822500900264 0.004242441159325039 0.0023835383916177427
          0.0004066476544412889 0.00003765414113082732 0.00020923957197400977 0.002987429073293482 0.005689984414091007 0.0026776957004793767
          0.0004291266427475793 -0.0006575333646432341 0.00023927475448089208 0.0014999269386633818 0.0012847879507926763 0.0021939578806574045
          0.0028193873376630707 0.0030153902212881056 0.0034247933788575935 0.004739697207372218 0.007312027049368286 0.005375952874274559
          0.0021426021655868155 0.002641639486982039 0.0025422456489004874 0.0018766563804211711 0.06060935920143129 0.004084512885619507
          0.015648849187121228 0.002611688194626288 0.00040979229214765933 -0.002611060438537982 0.0015778338680133286 0.0004813391364908992
          -0.07551598302296669 -0.019109441446307746 0.004755343428458292 0.0016447066567109314 -0.01718848159416883 0.006750661562548582
          0.0030776586216046398 0.0015310757120616525 0.0035072900314834232 0.003093706964289955 0.002715727314323582 0.001218776204473665
          0.029389812475969133 0.028811432076752606 -0.0011430828827537487 0.004833245241145465 0.008358621432930355 0.003023362789782491
          -0.0005451319996813142 0.0032125142934707057 -0.0007768126784815643 0.00879695009858511 0.0015026655885843343 0.006284612396539185
          0.004282538212893816 0.0070759606138915965 0.005309503095535462 0.0041381163292221745 0.004125813379706467 0.005012460918904338
          0.0030579751671928057 0.0037363790529800767 0.0031257594176923864 0.0049717235454654896 0.004717624792045072 0.004594759468518839
          0.004098066315189719 0.002363836679565967 0.0036121665012704973 0.0036941750819472485 -0.00012007125649549089 0.0020736942412982184
          0.006339752829896073 0.009565711904071073 0.0049249232399959375 0.0048730163496816525 0.0035709991036395883 -0.00007136224696452365
          0.0016139833492736788 0.006924301069621663 0.00016949394199639034 0.0008775152523255031 0.004115825851189803 0.00225628498198982
        </DataArray>
        <DataArray type="Float64" Name="resid_z" format="ascii" RangeMin="0" RangeMax="0">
          0 0 0 0 0 0
          0 0 0 0 0 0
          0 0 0 0 0 0
          0 0 0 0 0 0
          0 0 0 0 0 0
          0 0 0 0 0 0
          0 0 0 0 0 0
          0 0 0 0 0 0
          0 0 0 0 0 0
          0 0 0 0 0 0
          0 0 0 0 0 0
          0 0 0 0 0 0
          0 0 0 0 0 0
          0 0 0 0 0 0
          0 0 0 0 0 0
          0 0 0 0 0 0
          0 0 0 0 0 0
          0 0 0 0 0 0
          0 0 0 0 0 0
          0 0 0 0 0 0
          0 0 0 0 0 0
          0 0 0 0 0 0
          0 0 0 0 0 0
          0 0 0 0 0 0
          0 0 0 0 0 0
          0 0 0 0 0 0
          0 0 0 0 0 0
          0 0 0 0 0 0
          0 0 0 0 0 0
          0 0 0 0 0 0
          0 0 0 0 0 0
          0 0 0 0 0 0
          0 0 0 0 0 0
          0 0 0 0 0 0
          0 0 0 0 0 0
          0 0 0 0 0 0
          0 0 0 0 0 0
          0 0 0 0 0 0
          0 0 0 0 0 0
          0 0 0 0 0 0
          0 0 0 0 0 0
          0 0 0 0 0 0
          0 0 0 0 0 0
          0 0 0 0 0 0
          0 0 0 0 0 0
          0 0 0 0 0 0
          0 0 0 0 0 0
          0 0 0 0 0 0
          0 0 0 0 0 0
          0 0 0 0 0 0
          0 0 0 0 0 0
          0 0 0 0 0 0
          0 0 0 0 0 0
          0 0 0 0 0 0
          0 0 0 0 0 0
          0 0 0 0 0 0
          0 0 0 0 0 0
          0 0 0 0 0 0
          0 0 0 0 0 0
          0 0 0 0 0 0
          0 0 0 0 0 0
          0 0 0 0 0 0
          0 0 0 0 0 0
          0 0 0 0 0 0
          0 0 0 0 0 0
          0 0 0 0 0 0
          0 0 0 0 0 0
          0 0 0 0 0 0
          0 0 0 0 0 0
          0 0 0 0 0 0
          0 0 0 0 0 0
          0 0 0 0 0 0
          0 0 0 0 0 0
          0 0 0 0 0 0
          0 0 0 0 0 0
          0 0 0 0 0 0
          0 0 0 0 0 0
          0 0 0 0 0 0
          0 0 0 0 0 0
          0 0 0 0 0 0
          0 0 0 0 0 0
          0 0 0 0 0 0
          0 0 0 0 0 0
          0 0 0 0 0 0
          0 0 0 0 0 0
          0 0 0 0 0 0
          0 0 0 0 0 0
          0 0 0 0 0 0
          0 0 0 0 0 0
          0 0 0 0 0 0
          0 0 0 0 0 0
          0 0 0 0 0 0
          0 0 0 0 0 0
          0 0 0 0 0 0
          0 0 0 0 0 0
          0 0 0 0 0 0
          0 0 0 0 0 0
          0 0 0 0 0 0
          0 0 0 0 0 0
          0 0 0 0 0 0
          0 0 0 0 0 0
          0 0 0 0 0 0
          0 0 0 0 0 0
          0 0 0 0 0 0
          0 0 0 0 0 0
          0 0 0 0 0 0
          0 0 0 0 0 0
          0 0 0 0 0 0
          0 0 0 0 0 0
          0 0 0 0 0 0
          0 0 0 0 0 0
          0 0 0 0 0 0
          0 0 0 0 0 0
          0 0 0 0 0 0
          0 0 0 0 0 0
          0 0 0 0 0 0
          0 0 0 0 0 0
          0 0 0 0 0 0
          0 0 0 0 0 0
          0 0 0 0 0 0
          0 0 0 0 0 0
          0 0 0 0 0 0
          0 0 0 0 0 0
          0 0 0 0 0 0
          0 0 0 0 0 0
          0 0 0 0 0 0
        </DataArray>
        <DataArray type="Float64" Name="stress_zz" format="ascii" RangeMin="-57442364.876481585" RangeMax="95547609.0696685">
          33386.3513664669 -4720.059341485293 2713.867464502743 -22295.783746312365 -27958.616437461413 -39871.50815113944
          190031.28120292406 102983.6466986498 98375.30336945034 37180.82266530908 6719.325535976581 -28622.001368031622
          647450.6785331012 476853.2306750819 383639.3636623533 278180.9743508416 119828.04879160544 79508.71802660127
          1784378.9764711657 1687682.7937389358 1158446.5215711433 1059170.458238419 532514.0666711212 430658.1227379021
          2460713.427862221 3350550.4668965833 1499713.2429777433 2116297.1050587753 538713.0580932656 882043.7432209664
          -973452.730782513 -108524.44677683548 -885685.3918766001 -225837.3518443891 -797918.0529706874 -343150.25691194274
          -4654787.93403036 -5230717.54744556 -3518937.715592878 -3977235.6817496517 -2383087.497155396 -2723753.816053744
          -4573432.506262613 -6015573.238881055 -2873733.620098048 -4147489.9875574317 -1174034.7339334828 -2279406.736233809
          -1779097.263261355 -2318620.8660191223 -1523633.624172673 -2131238.0279477127 -1268169.9850839912 -1943855.1898763028
          11212552.386925412 5910454.574635647 7030475.8151423875 2345375.1382288905 2848399.24335936 -1219704.2981778658
          156765.06503202755 85830.75670278196 14896.448373536365 459582.42098604527 282032.360547352 104482.3001086587
          1098601.2767818784 682541.4667879371 266481.6567939958 1783880.695641448 1184742.836270754 585604.9769000598
          202333.72843990463 -72877.07500162754 -348087.87844315975 -2701251.689362956 -2106420.634639011 -1511589.579915066
          -2863041.370049653 -2032750.9057714525 -1202460.4414932514 -1272249.5533783722 2263.884919183096 1276777.3232167382
          -617166.3391252573 -272165.62269726244 72835.0937307328 -707210.4324069642 -3197118.2791166315 -5687026.125826298
          383702.4936385073 241720.05097500558 99737.60831150379 888640.3366518525 570148.2224707429 251656.10828963327
          1513705.6971134753 995972.9299475396 478240.16278160404 765025.1584699498 367267.0303811482 -30491.097707653593
          -2424708.2694794047 -1946329.091125526 -1467949.9127716476 -3233740.080968006 -2297871.8183801286 -1362003.5557922507
          -77846.98151761293 291563.80825866386 660974.5980349407 2181787.9987548497 2925201.558970379 3668615.1191859087
          -268335.29216773715 135836.8892770512 540009.0707218397 -2658579.5405810527 -3263137.1995115606 -3867694.8584420667
          687354.136502874 451979.08017451275 216604.02384615157 1245864.7042173136 828383.4875173256 410902.27081733744
          1092258.9083448995 592373.0421575338 92487.17597016803 -1814670.3122706648 -1617695.3899327768 -1420720.467594888
          -4320784.111014279 -3162294.2807138297 -2003804.4504133805 -1821933.241283802 -1034399.9896408023 -246866.73799780256
          2730244.2716940483 2607298.315475739 2484352.359257429 4643690.034218707 4845512.755701547 5047335.477184384
          176476.3451380378 303387.73392990057 430299.12272176263 -6334956.678380051 -7008537.558174752 -7682118.437969452
          862939.9114053539 585507.5794559029 308075.2475064518 776258.2099979492 428223.69399394345 80189.1779899376
          -1631926.0195146732 -1455268.5428050417 -1278611.0660954097 -5171040.1438064175 -3795223.743638456 -2419407.3434704933
          -4411342.688461994 -2883957.2586984257 -1356571.8289348576 232933.5963192688 644212.7837933833 1055491.9712674979
          4582512.755985077 4138045.6082375096 3693578.4604899436 5893104.541835191 5473708.074366308 5054311.606897424
          1384976.5505813966 735279.9065282717 85583.26247514714 -7242747.160759918 -8604621.097199086 -9966495.033638256
          220274.01458262216 143263.9156017946 66253.81662096705 -2205335.560386376 -1636537.7341512926 -1067739.9079162094
          -6332659.30103135 -4433869.500189018 -2535079.6993466876 -7117097.071535406 -4671189.5644190125 -2225282.057302619
          -3170293.7326920643 -1705509.2047325259 -240724.6767729876 1609131.0641642301 1796352.430559727 1983573.7969552232
          5415990.5599506255 4749147.714047731 4082304.868144838 6347973.369097665 5178730.6996227885 4009488.030147913
          2898819.5572111267 1255142.8132858675 -388533.93063939176 37504.30849858845 -2433045.5219143024 -4903595.352327193
          -2655854.1647017663 -1813984.545764394 -972114.9268270219 -7208413.04696839 -4983368.097908147 -2758323.1488479013
          -9389045.700121298 -6338768.587647814 -3288491.475174331 -6752019.836325094 -4334689.36860911 -1917358.9008931275
          -2036698.263998902 -892517.6456445957 251662.97270971112 2306018.897384122 2273002.2621133667 2239985.626842612
          5650944.156028981 4684748.779062173 3718553.402095366 6625117.49909272 4729234.272952114 2833351.04681151
          5437995.317931332 2914022.4602837954 390049.6026362594 4432485.061310403 1958911.8826173474 -514661.296075708
          -6190054.049158808 -5173770.717764427 -4157487.3863700465 -9017093.769664437 -7660221.457768826 -6303349.145873215
          -7575035.093890119 -6993792.86167322 -6412550.629456321 -3664731.363556491 -4209457.8777680425 -4754184.391979594
          410374.36918956554 -863482.2015983949 -2137338.7723863553 3752666.144467881 2230350.1334395814 708034.1224112834
          5737027.881570735 4495893.56329739 3254759.245024046 6052852.75154225 5112873.155691924 4172893.5598415975
          6343479.051995001 6047582.904253157 5751686.756511312 4728042.407030917 5735339.409621621 6742636.4122123225
          -3193366.6297602253 -4818629.368102517 -6443892.106444808 -248943.00166696415 -2509711.6022385024 -4770480.202810041
          2232823.926494073 -43084.38076355995 -2318992.688021193 3880081.520237328 2187995.1288835984 495908.7375298684
          4345290.529612043 3785017.940555754 3224745.351499465 3722522.707484241 4196608.01095884 4670693.31443344
          5117565.400578411 6857903.281729585 8598241.162880758 5880979.440522873 8382046.898729791 10883114.35693671
          16386981.813243464 4280668.461262204 11503686.950226352 12599818.955057614 18165389.494604014 5934284.79093785
          5727044.276153674 7217709.8341012895 19943797.175964553 7587901.120613498 -49598.39791900477 1835600.7131449636
          16157088.803494561 8873422.599176755 11063919.54000738 5782872.388174107 5970750.276520199 2692322.177171459
          19811708.498123385 16815598.229464166 22684738.673324067 21756547.33881367 4781663.906230878 13046159.99710624
          23701386.17950396 -7252270.417002411 3407581.320888412 21036992.073563717 11259661.817465393 42995592.50388332
          27874767.62725515 16258633.26096152 8709634.874810329 36093769.28852418 21726874.657460205 11480274.448359326
          6159607.932155265 29191946.073165044 15578981.687665265 -41727750.86842416 -53125729.18311653 -18360214.524228193
          -43980429.4645635 -13498439.474353205 -35299138.835746706 -444226.9986285139 -26689357.90694759 14730871.919717742
          -17472548.48837688 17471760.52697116 -9398286.349331677 -431383.4633732857 -2412487.4611992612 9789593.901593171
          2699163.4306651857 724111.0723099036 -1459274.7514391467 9086893.824198898 2267238.4169045193 1879605.6079930929
          -506062.0416790317 8384193.746804624 1835313.4031438525 -6772487.279381996 8987295.43449902 -5844423.315181784
          -16981554.566372287 -3482361.833891703 12275353.448632877 -3709227.904123705 -12570738.834775984 -192236.388401411
          15563411.462766733 -1574032.4930656254 -8159923.103179683 5802816.578404959 6410634.8861595765 7599507.88525519
          5124821.054690191 9396199.192105418 3839007.223220803 12823975.23711448 3074333.656606484 11372176.536272915
          1411398.155181559 9920377.835431352 -251537.3462433659 -976099.4495924609 5870655.465109976 -2863126.0715755373
          -45984663.16160277 12844038.31648587 8087606.022788558 -17421192.78400332 -33943194.520492375 26664176.0825642
          10304556.580467138 -31979259.4964311 -21901725.87938199 18129607.96423043 21627977.325584874 25172650.862730544
          17246049.113752816 12492434.896517135 16386588.14784876 19353570.812546737 12232663.436360344 6855261.828803837
          11145198.970112648 13534490.76236293 7219277.758967872 -12662054.538808478 4852828.0871834485 -14927005.53554601
          -1151756.9097426208 -17191956.532283545 -7156341.90666869 5256418.404136195 3363874.4751203493 3870620.901847985
          5141986.220649981 3271058.102756868 2378729.4884964456 2500371.196928054 2831516.6101219533 1285697.8013775419
          1393584.5018725423 1130121.492008124 521046.9995939252 60939274.98331437 95547609.0696685 28608909.03814665
          33596232.37984775 44892831.014733106 82434567.65736052 25219391.148086444 24123607.677407254 28846387.04615184
          69321526.24505255 21829873.25802624 14650982.974966746 11984497.962762944 8936852.233065376 18528234.722115
          26490409.660651356 -7216570.355307782 -10703181.311909093 6423774.381539669 8938083.478382094 -26417638.67337851
          -30343214.856883556 -5680685.959035661 -8614242.703887168 5967915.327218021 -1171218.1548131765 9856143.485595005
          1535124.9569545067 13744371.643971993 4241468.06872219 6506142.511881251 3962612.5394380214 1419082.5669947923
          -9088683.80832351 -12295708.631395387 2978508.846634508 -6559035.350444527 15045701.501592522 -822362.0694936663
          -18758685.903868463 -29887573.513472315 -2225718.675099447 -21348019.589250244 -23301815.789145328 -6605996.766231382
          -23937353.27463203 -16716058.064818338 -10986274.857363323 -10291270.740818173 -36751314.40907344 13060906.93440754
          13578711.217469813 -14748388.770209372 -35196368.87217234 14309408.512498576 9516132.884264635 -19205506.79960057
          -33641423.33527124 15557910.090589607 5453554.551059459 31068686.087187156 23064695.730491713 30655557.65329367
          24134325.304172777 15733279.247468218 21902439.21816383 17199964.521158405 8401862.764444727 13149320.78303399
          2387882.1266251635 -1810805.5151040251 4398286.344899357 -3613982.6074315165 6408690.563173552 -5417159.699759007
          -17797727.271468583 -42401445.10698312 -921007.4101023814 -46001158.56954192 15955712.45126382 -49600872.03210073
          -57442364.876481585 -27665843.485508967 -34568286.96962024 -22132040.699836764 -11694209.0627589 -16598237.914164556
          48548315.27368663 53931425.40872979 43863572.22618637 33973257.42124283 43844728.81858054 46840100.99881073
          36653810.46144018 28795151.31856454 39141142.36347444 39748776.58889167 29444048.696694 23617045.215886243
          -4046926.24996332 2480302.35700043 -167991.98660340637 -2468093.201657383 2915055.6164622568 -1092845.0946977115
          -889260.1533514448 3349808.875924084 -2017698.202792017 -2443576.7515755803 7194784.746625961 -5158514.8969338685
          1023662.0810443355 -7873453.042292155 -5147460.58453729 -4372443.737360268 -437369.6774321797 -2936669.0592069053
          -74718.03971486562 -1500894.3810535423 287933.5980024459 -20011236.90066844 -42652890.21786376 -13666006.473946227
          -38776463.00799685 -7320776.04722401 -34900035.79812993 -26121786.977681205 -15488896.823395692 -19006541.396961305
          -10683258.739000972 -11891295.816241404 -5877620.654606247 19016883.80785743 8933232.012044655 9375736.683419172
          1987695.1948121935 2610121.9730123943 378228.00884066336 -15041493.418233048 -3712988.0660198675 -8619280.665737845
          -4207993.397985046 -2915958.7201857576 -3816846.6687312843 -3658311.953906579 -1799536.1065652228 1052945.8571735735
          -3108630.509828112 -683113.4929446881 5922738.383078431 23983163.956842 25852048.64312594 17647011.629500117
          18259289.07422277 22468634.951695167 12502619.200339518 12535414.19160354 19085221.260264404 7358226.771178918
          28842906.954441816 26307907.88238107 23772908.81032032 -36297.50155367551 934496.4889558651 -522669.9825342592
          -3499477.9253826523 -1112084.5401468368 -138035.29860200637 -1454960.7606867577 -4438296.492327752 -2187871.578739998
          -1210567.086159878 -2387251.538839256 -5377115.059272851 37127746.87781072 14078560.575862914 31931374.18600878
          7805763.031027097 26735001.494206846 1532965.4861912827 4125689.6728682667 3489860.511366442 1621294.3740161264
          384464.34699817235 -883100.9248360142 -2720931.817370097 40016735.58263674 -1771182.00510962 34133984.578100584
          -4111457.221810612 28251233.57356442 -6451732.438511607 57112632.62876323 -4144941.7421282604 46894411.9960057
          -9152575.097405357 36676191.36324816 -14160208.452682452 4246586.080136565 2565351.5630394137 884117.0459422625
          -153908.76402933523 856083.8489796906 1866076.4619887162 381116.6646201927 -13693926.604128748 12789762.228264935
          -26409502.692691162 25198407.791909672 -39125078.78125358 -11332646.049220854 -5811511.355883469 -290376.6625460796
          -37794850.99623519 -30976652.106844615 -24158453.217454046 27228032.759889066 8896351.00378698 -9435330.752315108
          -6487183.345562145 -5456994.274102831 -4426805.2026435165 1556676.4526582458 349554.2240187215 -857568.0046208028
          -54112223.250320196 -52352864.95252176 -50593506.65472332 29842390.33262837 20510627.154349897 11178863.976071427
          61417968.46464975 53865406.5523103 46312844.639970854 5305552.739762967 435731.5156352415 -4434089.708492485
          -1428957.9318165032 -2399303.2811019258 -3369648.630387348 736052.3639916186 -18616576.63177832 -37969205.627548255
          1865863.39864539 1703938.5919219516 1542013.785198513 3691552.889520932 4055631.51299477 4419710.136468608
          2580696.688062544 2562130.513322703 2543564.3385828612 3281866.051159233 3650538.8032648433 4019211.5553704537
          2697662.578142235 2809891.445049846 2922120.3119574566 2016608.8221121589 2239150.218116741 2461691.6141213235
          831985.5636609235 760939.7852320124 689894.0068031013 1375642.6809706702 1345797.568512401 1315952.4560541315
          2465969.7748290477 2563451.9936882174 2660934.212547387 1235293.7218309874 -1797072.5089382357 61206.44755917477
          -2510115.5915703676 -1112880.8267126381 -3223158.674202499 -1953797.9208739246 208786.31676098803 1584880.3463446219
          -1498723.2142778353 -1680360.855754152 -28070.047656818206 1151425.932150926 -1363584.2125630432 -1406923.7906343797
          -264926.4120746245 717971.5179572307 -1228445.210848251 1800833.007767394 1398147.4130874996 995461.8184076054
          -1043597.6494394004 -706818.6163698176 -370039.5833002351 856492.7874471066 586253.1922387625 316013.59703041834
          2354616.462370522 3486428.1018896336 2159163.3549792273 3301904.2052534083 1963710.2475879332 3117380.3086171835
          2070421.7062388202 2316119.6472672815 2561817.588295743 462665.00233134103 293842.86778610526 125020.73324086954
          55481.96628798894 78825.25588659465 102168.54548520013 -2124883.0930796117 -2469430.504039216 -2813977.91499882
          -2795122.752199526 -3217140.6209732047 -3639158.4897468835 -554350.7168486513 -393877.59224740136 -233404.46764615108
          158532.22245554347 418108.9196603821 677685.6168652205 1086663.1187396473 868817.0287770728 776925.0787417121
          1019284.1391709875 530000.9100102263 560523.0205752322 951905.1596023277 191184.79124338 344120.9624087522
        </DataArray>
        <DataArray type="Float64" Name="peeq" format="ascii" RangeMin="0" RangeMax="0.030636408154052677">
          0 0 0 0 0 0
          0 0 0 0 0 0
          0 0 0 0 0 0
          0 0 0 0 0 0
          0 0 0.0000015944816811131626 0 0.0000031889633622263253 0
          0.00007766268930067882 0.00005191411784019451 0.0001041618412508983 0.00007752291925056971 0.00013066099320111776 0.00010313172066094493
          0.0005504273284538086 0.0004784801902247441 0.000610676955191106 0.0005430029240480647 0.0006709265819284035 0.0006075256578713853
          0.0018580974357257864 0.0017652017291247646 0.0019018332760892544 0.0018155142345411715 0.001945569116452723 0.0018658267399575784
          0.004698821928730883 0.004705474231453387 0.004613136636944109 0.0046110609080139385 0.004527451345157334 0.004516647584574488
          0.008812689393071189 0.008465403282120646 0.00847984867377419 0.00813943071829888 0.008147007954477198 0.007813458154477114
          0 0 0 0 0 0
          0 0 0 0 0 0
          0.000008283764215000413 0.00001519570773921568 0.000022107651263430948 0.00016514620716542378 0.00019508720951451819 0.0002250282118636126
          0.0007624573556150314 0.0008106371735104271 0.0008588169914058228 0.002117507644423853 0.0021434450339100257 0.002169382423396199
          0.0046793198550342295 0.0046138550125044584 0.0045483901699746865 0.007781477155427247 0.007577401652412325 0.007373326149397402
          0 0 0 0 0 0
          0 0 0 0 0.0000014417029142722674 0.0000028834058285445348
          0.00004806512488509034 0.00006392519698349295 0.00007978526908189557 0.00034024237024539715 0.00037333589800356206 0.000406429425761727
          0.0010981618688357775 0.0011273729819699597 0.0011565840951041424 0.002489654767846688 0.0024907469596083 0.0024918391513699106
          0.004639594389497726 0.00459723164167308 0.004554868893848433 0.006976098585837658 0.006912331026602522 0.0068485634673673855
          0 0 0 0 0 0
          0 1.7938907401519725e-7 3.587781480303945e-7 0.00001019339336876703 0.00001985428085072234 0.00002951516833267766
          0.00015128214413205357 0.00017942250894796541 0.00020756287376387725 0.0006188509273105495 0.0006479015102112103 0.000676952093111871
          0.0015204090931733236 0.0015254895563103234 0.0015305700194473237 0.0028949205271995414 0.0028695214577462587 0.002844122388292976
          0.004565625588618196 0.004541483092574496 0.004517340596530795 0.005697842409330322 0.005734684325849419 0.005771526242368515
          0 0 0 0 1.4281661302795084e-7 2.856332260559017e-7
          0.0000014548621880034695 0.000008380262176313199 0.000015305662164622924 0.00006485773847713887 0.00009086397981416612 0.00011687022115119338
          0.00035385574015824847 0.0003888333349369584 0.0004238109297156684 0.00098698325317174 0.001002274274314547 0.0010175652954573541
          0.001973509685933051 0.0019536895079825573 0.0019338693300320646 0.003246406769091869 0.0031998510404495327 0.0031532953118071955
          0.004420124925322955 0.004406918831329659 0.004393712737336365 0.0048481397722958145 0.004933527192464603 0.005018914612633393
          0 2.7267175968342754e-8 5.453435193668551e-8 5.211944047273886e-7 0.000005125912966746998 0.000009730631528766607
          0.000035199253578835264 0.00005537431636518432 0.00007554937915153339 0.00021812235999680158 0.00025110997446432934 0.00028409758893185714
          0.000668368696131213 0.00069123305198831 0.000714097407845407 0.0014108872097724579 0.0014041944447821108 0.0013975016797917639
          0.0023959430021695013 0.002355885419579579 0.0023158278369896563 0.0034689605040279896 0.0034154785922771774 0.0033619966805263648
          0.004157922997857832 0.004158408027232303 0.004158893056606773 0.00408034404617609 0.004190309525520643 0.004300275004865196
          7.231408614715985e-7 0.000002349740601482226 0.000003976340341492853 0.000028685757925479106 0.000038034027932855345 0.00004738229794023159
          0.00016335678189689854 0.00018038234328351916 0.00019740790467013977 0.0004975101153716369 0.0005077719042141236 0.0005180336930566102
          0.0010697866236555995 0.001059325572128669 0.0010488645206017382 0.0018480735508204472 0.001813858369209792 0.0017796431875991368
          0.002731402920139017 0.0026819854265269097 0.0026325679329148024 0.003513963084028556 0.0034770406740922953 0.003440118264156036
          0.003765349301411474 0.00379533130199862 0.003825313302585766 0.0033313669876700214 0.003454626698298587 0.003577886408927153
          0.000022387396053481383 0.000025913025182115207 0.000029438654310749033 0.00013294423473411097 0.0001380149388289361 0.00014308564292376126
          0.0004035056262809752 0.00040001483173520824 0.00039652403718944124 0.0008668211623782537 0.0008451377708235976 0.0008234543792689412
          0.0015056013807112777 0.001465328236899387 0.0014250550930874966 0.002243371759065743 0.002193282628795059 0.002143193498524375
          0.002938387556540586 0.0028957908903819215 0.0028531942242232566 0.0033792087280155054 0.0033715389402811857 0.0033638691525468664
          0.0032624876038729045 0.003318731073995663 0.0033749745441184207 0.0026124633314316883 0.0027257655577048205 0.0028390677839779522
          0.0007612022993814175 0.000749352376789508 0.0007375024541975984 0.001286548703604822 0.0012612378170166745 0.001235926930428527
          0.001905902378627593 0.0018706580462620167 0.0018354137138964408 0.0025150677129372333 0.0024791605816952434 0.0024432534504532535
          0.0029638219068568 0.002940777959255662 0.002917734011654525 0.0030684385653228815 0.0030746327367732894 0.003080826908223697
          0.0026542422171137057 0.002697261785701877 0.002740281354290049 0.001945497021909568 0.002013328751403381 0.002081160480897194
          0 0 0 0 0.0004155926778537443 0.0010296057534150388
          0.0000020045056790282515 0 0.0008311853557074885 0.0020592115068300775 0.000004009011358056503 0
          0 0 0.00012114051787522787 0 0.00024228103575045574 0
          0 0 0 0.00027757157604378104 0.00003733473050451098 0.00012099967038415829
          0.0005551431520875621 0.00007466946100902196 0.00024199934076831657 0.012996222596669878 0.01175932410351634 0.015561724930612445
          0.015587567101569407 0.012470480136534961 0.011486024565608533 0.014977825083480665 0.014852372901682492 0.011944737676400044
          0.011212725027700725 0.014393925236348887 0.014117178701795581 0.0032040418637678085 0.001964494264588855 0.003373997191608715
          0.00365408297538679 0.004867604322370597 0.003367341479135535 0.005738770493118983 0.005753865483941181 0.0065311667809733855
          0.004770188693682215 0.008103543794629253 0.00785364799249557 0.007142938402516009 0.007039534067654276 0.008730670804314021
          0.008416149191510423 0.007179904231751625 0.007168140500055013 0.008682600008732583 0.008314128204081988 0.007216870060987238
          0.0072967469324557496 0.008634529213151143 0.008212107216653554 0.0028879521717060652 0.0034222874619681794 0.002147114140623579
          0.0014029639901665153 0.0031720059803537898 0.0036695558891057032 0.0023551855356936644 0.0016352911355902882 0.0034560597890015148
          0.003916824316243227 0.00256325693076375 0.0018676182810140607 0.0018942062203483258 0.0025702541215543275 0.0020215463955021973
          0.0027381137132070983 0.002148886570656069 0.002905973304859869 0.010242674033572688 0.009001470297349027 0.01001536422111756
          0.009021568865106952 0.009788054408662433 0.009041667432864879 0.000007264178620147327 0 0
          0.00035593084216720513 0.0005829121515324164 0.00047844781729246906 0.0005565711305669099 0.0017150875557103787 0.0011585601244446853
          0.0009568956345849381 0.0011131422611338198 0.0030742442692535525 0.011264725355768203 0.01122124421679072 0.013854648221000482
          0.012788477993632544 0.010747359663668897 0.01073189052309314 0.013159823039141708 0.012146789696514193 0.010229993971569592
          0.010242536829395561 0.012464997857282932 0.011505101399395845 0.01200042028923594 0.01678316235442214 0.011829770734513837
          0.016281443512117223 0.011659121179791737 0.0157797246698123 0 0 0
          0 0 0 0 0 0
          0 0 0 0.023245443461550275 0.02947348871557179 0.027835620552020296
          0.020653440395891627 0.02251377365366594 0.028163946473346548 0.026527050342802134 0.02012087619698797 0.02178210384578161
          0.026854404231121308 0.02521848013358397 0.019588311998084317 0 0 0
          0 0.0007713887970630779 0.0007973612367663793 0.0005517357550557048 0.000511488572265624 0.0015427775941261558
          0.0015947224735327586 0.0011034715101114097 0.001022977144531248 0.004283178497903813 0.004175755382774787 0.004540688614213401
          0.004480365148151158 0.004798198730522989 0.004784974913527527 0.010267495346064614 0.009943422562125914 0.00961934977818721
          0.00011971590879007096 0.00017581621028966694 0.0018115251175480928 0.0029362699092341333 0.003503334326306115 0.005696723608178599
          0.0018362103473999309 0.0008483456445126145 0.000050691584095794646 0.004633305476050142 0.0025892245616326403 0.0012600177793759921
          0.0074304006047003525 0.004330103478752666 0.0024693439746561897 0.004954682489453768 0.0039783224227649934 0.008821894752819196
          0.008583384340150163 0.005449222411125453 0.004791993452909182 0.009733589887873872 0.00879516709224253 0.00594376233279714
          0.00560566448305337 0.010645285022928549 0.009006949844334899 0.015024031253679553 0.016335918073943353 0.01788563310078699
          0.01421102109402777 0.015456367308350575 0.01682974213439464 0.013398010934375988 0.014576816542757798 0.015773851168002288
          0.0014561807129902828 0.0033196811553521774 0.0015907580602290646 0.0035069281176776817 0.0017253354074678463 0.0036941750800031864
          0.0037260386273754464 0.003922831716836863 0.005156843474305349 0.0054718187190206545 0.006587648321235251 0.007020805721204444
          0.001000365558843002 0.0003011666691588525 0.0013286895167908253 0.0005013958951158798 0.001657013474738648 0.0007016251210729069
          0.02541094009396959 0.024229047522034444 0.02719315566870313 0.02810675262943105 0.02368027956162952 0.02268192697982737
          0.0255894035534853 0.026318018651195825 0.02194961902928945 0.02113480643762029 0.023985651438267468 0.024529284672960595
          0.005464814326663521 0.005231359109912652 0.006983704826666345 0.0057099015210682474 0.005597315720980807 0.007226221854518404
          0.005954988715472976 0.005963272332048962 0.007468738882370464 0 0 0.00002574111461677084
          0.000013779456712315756 0.00005148222923354168 0.00002755891342463151 0.0055005575125522035 0.004290073332842087 0.005657209678329613
          0.004471820134275337 0.005813861844107023 0.004653566935708587 0.0028213914860780597 0.00296442833652537 0.0031578402159512815
          0.0033909877116080093 0.0034942889458245033 0.0038175470866906496 0.0011082932309709832 0.00036881589912445516 0.001384833404428329
          0.0005122389863207305 0.001661373577885675 0.000655662073517006 0 0 0
          0.000005681076951731729 0 0 0.000011362153903463459 0 0
          0.0006838346527613158 0.0001948100182232847 0.000670617409989021 0.0007460148253403508 0.00023109352386024357 0.000792896837676256
          0.000808194997919386 0.0002673770294972024 0.0009151762653634911 0.01876138959126209 0.021459827674330818 0.02126840749535119
          0.017654522659907995 0.020096493587884085 0.019882970487762476 0.016547655728553896 0.018733159501437353 0.01849753348017376
          0.022911758471055803 0.02137036925916507 0.01982898004727434 0 0 0
          0 0 0 0 0 0
          0 0 0 0.01867975217027212 0.021403203719440437 0.017695710046069648
          0.020283397816014806 0.01671166792186717 0.01916359191258917 0 0 0
          0 0 0 0.029612266113518065 0.023437384770308305 0.02810648502175153
          0.02235080526073115 0.02660070392998501 0.021264225751154 0.01337234854888985 0.014757292821952173 0.013433192629153821
          0.015311266754951864 0.013494036709417795 0.015865240687951556 0 0 0
          0.0012786440809874268 0.0013523258802288496 0.0014260076794702721 0.006778189692671151 0.005175980837238231 0.008375579088383002
          0.006729934085547139 0.009972968484094851 0.008283887333856045 0.0011387146756830062 0.0013223683963028315 0.0015060221169226565
          0.0017646133455396218 0.0036194057933191886 0.005474198241098756 0 0.000005681076951731729 0.000011362153903463459
          0.00004194156829829006 0.00007878362322609015 0.00011562567815389024 0 0 0
          0.0022975500804550634 0.003839946103343285 0.005382342126231508 0.012966738534617328 0.013867688757324104 0.014768638980030876
          0.030636408154052677 0.029051549310231028 0.02746669046640938 0.010980487437339969 0.010481209203901358 0.009981930970462748
          0 0 0 0 0.0005198004495949076 0.0010396008991898152
          0.0017239157670616387 0.0017125301656786963 0.001701144564295754 0.0020524654112633193 0.0020476725673818485 0.0020428797235003786
          0.002206509678156855 0.002192958489013609 0.0021794072998703624 0.0023120808993430135 0.002308232433040651 0.0023043839667382885
          0.0025878707635464127 0.0025759589944161715 0.0025640472252859295 0.0027421866883281377 0.002736601651395105 0.0027310166144620725
          0.002538808492004216 0.0025444113423482174 0.0025500141926922187 0.0019082916551453597 0.0019240108415805078 0.001939730028015656
          0.000993237206457122 0.0010117300195363668 0.0010302228326156122 0.0008226036355212417 0.0003638007984144864 0.0008570830902348242
          0.00038362514397609343 0.0008915625449484065 0.00040344948953770053 0.00001553025029979962 0 0
          0.00007193237681356504 0.000014908191333509343 0 0 0.0000764037842546727 0.000014286132367219065
          0 0 0.00008087519169578036 0 0 0
          0.00018975187756301812 0.00019222628605617778 0.00019470069454933747 0 0 0
          0.002153485472647255 0.002137523185051927 0.0021509490457504226 0.002133096195899197 0.0021484126188535905 0.0021286692067464673
          0.0024068912377934516 0.0024051148168991957 0.0024033383960049403 0.001985182357062561 0.0019853285577081225 0.0019854747583536838
          0.002258089887028067 0.002259435085702202 0.0022607802843763363 0.0018174408072038266 0.0018224221843825901 0.0018274035615613539
          0.0011342130837939312 0.001140319398798016 0.0011464257138021003 0.00045365068617100185 0.0004564007320011032 0.0004591507778312046
          0.00006479678806772973 0.0000648355585242493 0.00006487432898076884 0 0 0
          0 0 0 0 0 0
        </DataArray>
        <DataArray type="Float64" Name="pe11" format="ascii" RangeMin="-0.0021889209242187836" RangeMax="0.030061570349076857">
          0 0 0 0 0 0
          0 0 0 0 0 0
          0 0 0 0 0 0
          0 0 0 0 0 0
          0 0 0.0000015611255762022677 0 0.0000031222511524045353 0
          0.00007571983755997871 0.00005059956560078202 0.00010097334037180937 0.00007499320826170567 0.00012622684318364002 0.00009938685092262933
          0.0005333104576346677 0.000462877574208604 0.0005878545167641902 0.000521444550829347 0.0006423985758937127 0.00058001152745009
          0.0017825870915512921 0.0016882639435292109 0.0018144423363944413 0.001725831170661491 0.00184629758123759 0.001763398397793771
          0.004433246479475727 0.004413880786666139 0.0043385763854907064 0.004310456223495992 0.0042439062915056855 0.004207031660325847
          0.008248842933246509 0.007851475640594793 0.007927641540252864 0.007528030900645879 0.0076064401472592195 0.007204586160696966
          0 0 0 0 0 0
          0 0 0 0 0 0
          0.00000812391765956149 0.000014874367361355264 0.000021624817063149037 0.0001612516334332185 0.00018984745145805067 0.00021844326948288294
          0.0007413015202755607 0.0007845386900469032 0.0008277758598182457 0.0020461832032375848 0.0020625088069641537 0.002078834410690722
          0.004476363951921942 0.004403328035434575 0.0043302921189472075 0.007399315800833981 0.007207199175618539 0.007015082550403097
          0 0 0 0 0 0
          0 0 0 0 0.0000014237267474885726 0.000002847453494977145
          0.000047095670491366674 0.00006261671231118902 0.00007813775413101138 0.00033276463820182774 0.0003644889240283087 0.0003962132098547898
          0.0010717462728443282 0.001097206998233998 0.0011226677236236679 0.0024253429803878894 0.0024198609593063425 0.0024143789382247956
          0.004505292611116357 0.0044585379385577665 0.004411783265999175 0.006749899667220047 0.006700371027406981 0.006650842387593917
          0 0 0 0 0 0
          0 1.780618126111685e-7 3.56123625222337e-7 0.000010043381150958031 0.00001957421933644125 0.00002910505752192447
          0.0001484121447196519 0.00017603381479206455 0.0002036554848644772 0.0006062927230609 0.0006341729353410303 0.0006620531476211606
          0.0014893609310756898 0.0014920265417548409 0.0014946921524339918 0.002840262967968302 0.002811365441605528 0.002782467915242754
          0.004485707103608785 0.004460905520201459 0.004436103936794133 0.00557393181310504 0.0056223218302704795 0.00567071184743592
          0 0 0 0 1.4209424791228246e-7 2.841884958245649e-7
          0.0000014424549727651374 0.000008307343108902459 0.00001517223124503978 0.00006387407025403087 0.0000895777134256997 0.00011528135659736855
          0.0003475808586283784 0.0003819693045803831 0.00041635775053238766 0.0009687807158657959 0.0009832264029148627 0.0009976720899639293
          0.0019403450427542752 0.0019192265119635458 0.001898107981172817 0.0032034624209782963 0.003155835335817605 0.0031082082506569153
          0.004374117840627876 0.004363308685720553 0.0043524995308132286 0.004759436908698851 0.004854457795843331 0.004949478682987812
          0 2.715280217354536e-8 5.430560434709072e-8 5.17898372032474e-7 0.000005094631270881012 0.00000967136416972955
          0.00003480797151361748 0.00005482525404640388 0.00007484253657919027 0.00021488445716000173 0.0002475730287989235 0.0002802616004378452
          0.0006570665827707993 0.000679594597984778 0.0007021226131987566 0.0013876401705176385 0.0013804860171567801 0.0013733318637959217
          0.0023642488470253416 0.0023235680424225557 0.0022828872378197708 0.003438745109445 0.0033855297386478633 0.0033323143678507263
          0.004128473980938289 0.00413246850881848 0.004136463036698672 0.004002205275922342 0.004118575084439532 0.004234944892956722
          7.188167835107975e-7 0.0000023372952411379593 0.000003955773698765121 0.000028426015004780782 0.00003773092995720401 0.00004703584490962724
          0.00016135257167298976 0.00017836015432329483 0.00019536773697359988 0.0004899053577322723 0.0005003759765259321 0.0005108465953195919
          0.00105233350044039 0.0010422392415723777 0.0010321449827043654 0.0018216099428425756 0.001787399966770526 0.0017531899906984769
          0.002704690249512784 0.0026548230612162766 0.0026049558729197694 0.0034954321266017032 0.003458895459700813 0.0034223587927999224
          0.0037411313828807826 0.003773997414386291 0.0038068634458918 0.003256419967027632 0.003382641957835325 0.003508863948643018
          0.000022217516944157183 0.000025709694728675 0.000029201872513192816 0.00013159829702079045 0.0001365934469740194 0.00014158859692724838
          0.00039813410183746665 0.00039465313608764714 0.0003911721703378277 0.0008532960419266222 0.0008318788852883443 0.0008104617286500664
          0.001482672320453599 0.0014427686004185902 0.0014028648803835813 0.00221696175660487 0.002166807579757536 0.002116653402910202
          0.00291909555779706 0.002875749847041225 0.0028324041362853894 0.0033689955636248695 0.003360725880000642 0.003352456196376414
          0.003234541746831931 0.0032914032373847456 0.0033482647279375606 0.002535146919981548 0.002647644738732323 0.0027601425574830985
          0.0007527864213220697 0.0007408486342450546 0.0007289108471680394 0.0012714979550057961 0.0012460876293983085 0.0012206773037908211
          0.0018866390741561498 0.0018512627969958545 0.0018158865198355592 0.002498350222081792 0.0024622098891224423 0.0024260695561630925
          0.0029544113845953223 0.0029309828176241237 0.0029075542506529243 0.0030583416308768716 0.003064137816102149 0.0030699340013274263
          0.0026188155683196245 0.0026611977601677054 0.0027035799520157863 0.0018722536044823701 0.001937548999475319 0.002002844394468268
          0 0 0 0 -0.000012915202944114609 -0.00041033082449707194
          9.142976403207202e-7 0 -0.000025830405888229218 -0.000820661648994144 0.0000018285952806414405 0
          0 0 -0.00002266071368342822 0 -0.00004532142736685644 0
          0 0 0 0.00009123441629707552 -0.00000950366878369873 0.000012647038968728427
          0.00018246883259415104 -0.00001900733756739746 0.000025294077937456855 0.012358426342186719 0.011057595063850794 0.014814467931754928
          0.014912972987969257 0.011855717503604446 0.01084615917481967 0.014273321066118476 0.014205855509548126 0.011353008665022174
          0.01063472328578855 0.013732174200482018 0.013498738031126993 0.0012856364768392826 0.00023198192464252872 -0.001451250832542963
          0.0005727872223246373 0.0020283501059173066 0.0002374319142971582 -0.00033744216220709766 0.002281841702170854 0.0027710637349953305
          0.00024288190395178755 0.0007763665081287677 0.003990896182017072 0.0069316964781331114 0.006776206986386969 0.008316972085134575
          0.008085416245575178 0.006994960085390193 0.00693273199385592 0.008321979468092218 0.008019863041314353 0.007058223692647272
          0.00708925700132487 0.008326986851049859 0.007954309837053529 0.002665479008796017 0.0032556178883000526 0.0019910824185211747
          0.0012566524230131946 0.0029406177746118065 0.003503386627596146 0.0021896816134281843 0.0014716838602933365 0.0032157565404275956
          0.0037511553668922383 0.002388280808335193 0.001686715297573478 0.001797483438637078 0.002456374112562022 0.0019194816167214255
          0.002622642424123538 0.002041479794805773 0.0027889107356850536 0.00970841227109541 0.00843750556801994 0.009545663211028772
          0.008529121252315775 0.009382914150962133 0.008620736936611613 0.0000021192476342048644 0 0
          0.00001024274749246538 0.00004005039401945462 0.0002241399895617639 0.00011981392760827223 -0.0005917496508294654 0.00007798154040470435
          0.0004482799791235278 0.00023962785521654446 -0.0011937420491513965 0.010544570054485926 0.010570118696183855 0.013252596531621558
          0.012129441745832794 0.010036753751556257 0.010104696346581149 0.012556833865594965 0.011486831783256381 0.009528937448626588
          0.009639273996978445 0.011861071199568377 0.01084422182067997 0.010996699531175796 0.015714816041159884 0.010921425319349335
          0.015326512780998594 0.010846151107522873 0.014938209520837303 0 0 0
          0 0 0 0 0 0
          0 0 0 0.019863625258739265 0.0279085716278994 0.026580293459573356
          0.018325379259774326 0.019491008991598287 0.026664087789044767 0.02531197956888196 0.018062994153578253 0.01911839272445731
          0.025419603950190127 0.02404366567819057 0.017800609047382183 0 0 0
          0 -0.0002134216078313723 -0.000019186692066451522 0.00003096334351415295 -0.00016701629820824345 -0.0004268432156627446
          -0.000038373384132903044 0.0000619266870283059 -0.0003340325964164869 0.004110354538098882 0.003939031279151162 0.004380259864750281
          0.004248080011879609 0.0046501651914016805 0.004557128744608056 0.009746167919096573 0.009459760463949418 0.009173353008802263
          0.00001693117474989242 -0.0000154224585911417 -0.00016805009223867836 -0.0010730372666628073 -0.00035303135922724915 -0.0021306520747344728
          -0.001145434840677162 -0.0004302156233618671 -0.000024187508565463407 -0.0016671778824479727 -0.0012186460747758841 -0.0007448822569849271
          -0.0021889209242187836 -0.0020070765261899015 -0.001465577005404391 0.004500822330163455 0.0031837966319044485 0.006748025806952851
          0.0076340391387594965 0.004943169760475397 0.003595232249300113 0.007400542951528442 0.007904674318775907 0.005385517190787338
          0.004006667866695778 0.008053060096104035 0.00817530949879232 0.014496293406824755 0.015776561673098002 0.017455459175420077
          0.013666656399095579 0.014886066941957907 0.01636432739952971 0.012837019391366404 0.013995572210817812 0.015273195623639338
          0.001368067771431812 0.003184062426196217 0.001493856043077202 0.0033738004187880213 0.0016196443147225921 0.003563538411379826
          -0.0019234735848711237 -0.00018481829965411836 0.0002103832288291692 0.0018084410691264225 0.002344240042529462 0.0038017004379069636
          0.0008363762880032195 0.00025528599855933527 0.0011285871071854373 0.00043271721548606107 0.0014207979263676557 0.0006101484324127867
          0.025099798537120393 0.023794356534699787 0.02665485476045783 0.02771646755785193 0.023323421053576477 0.022231125918481892
          0.024993917140633388 0.025874754548530367 0.021547043570032558 0.020667895302263997 0.023332979520808945 0.024033041539208804
          0.00523475672905622 0.004911572480449848 0.006610531702089552 0.005498769792690175 0.005284031160507876 0.006883606201393819
          0.005762782856324131 0.005656489840565904 0.007156680700698087 0 0 0.000022356361415558347
          0.000010176432021105797 0.00004471272283111669 0.000020352864042211593 0.005333777287040439 0.004151080371339148 0.005510793171188295
          0.0043426827813655405 0.0056878090553361535 0.004534285191391933 0.0025550698031014825 0.002593694156507805 0.002874204033824704
          0.002880417043716727 0.0031933382645479252 0.003167139930925649 0.0009635462735341369 0.00033932323580676516 0.0012153450931004124
          0.0004683414072379202 0.0014671439126666883 0.0005973595786690753 0 0 0
          0.0000024483374464277233 0 0 0.0000048966748928554466 0 0
          0.000638141155984542 0.00018310081864386313 0.0006260281319311989 0.0006935886198894473 0.00021503225049863926 0.0007365376157300457
          0.0007490360837943528 0.0002469636823534154 0.0008470470995288926 0.018340862484031217 0.02114469391466383 0.021016690904470184
          0.017211522254571596 0.01974857752132709 0.019582720423768914 0.016082182025111975 0.018352461127990355 0.01814874994306764
          0.02261578539563025 0.021034096268827896 0.019452407142025542 0 0 0
          0 0 0 0 0 0
          0 0 0 0.01811928913485939 0.020706914851083717 0.017155979512699752
          0.019637474682039118 0.016192669890540124 0.018568034512994522 0 0 0
          0 0 0 0.028999889770400838 0.022430433967629997 0.027381106166077324
          0.02142650183118495 0.025762322561753814 0.020422569694739906 0.011613289512778936 0.011302667763222618 0.011854977038114058
          0.01189535383279367 0.012096664563449176 0.012488039902364722 0 0 0
          0.0011993567559827722 0.0012672562925611257 0.0013351558291394788 0.0034623076257014438 0.0019912857190276397 0.004509173656759687
          0.0033055139307063964 0.0055560396878179315 0.004619742142385153 0.0010336758124981015 0.0012019738424024586 0.0013702718723068157
          -0.000932037184804862 -0.0007324678648026485 -0.0005328985448004352 0 0.0000024483374464277233 0.0000048966748928554466
          0.00003890375401754468 0.00007155070823004498 0.00010419766244254528 0 0 0
          -0.0009975949754653184 -0.0010704408611200299 -0.0011432867467747413 0.008455855316860088 0.009185965301330088 0.009916075285800088
          0.030061570349076857 0.028380863885314644 0.026700157421552434 0.010231134409255868 0.009730717496631082 0.009230300584006295
          0 0 0 0 -0.00009281061924625769 -0.00018562123849251539
          0.0017152348424882297 0.0017037548680143065 0.0016922748935403833 0.0020502220199345067 0.0020453665461192473 0.0020405110723039875
          0.0021989971698442665 0.002185339187056136 0.0021716812042680052 0.0023102796765902085 0.002306430822508784 0.0023025819684273606
          0.002582979854502578 0.0025710448327601484 0.002559109811017719 0.0027361709437894255 0.002730737442040386 0.0027253039402913475
          0.002521602621068524 0.002527389284002882 0.00253317594693724 0.0018743432621988365 0.0018895367915283275 0.0019047303208578187
          0.0009591142670839067 0.0009762471820963913 0.0009933800971088757 0.0007820105502429962 0.0003494405525562654 0.0008137567282658163
          0.0003675609139904775 0.0008455029062886362 0.0003856812754246896 0.00001522963749424926 0 0
          0.00006980073687035334 0.000014592121428787302 0 0 0.00007382942911200654 0.000013954605363325344
          0 0 0.00007785812135365973 0 0 0
          0.00018598218784944808 0.00018811311392540883 0.00019024404000136957 0 0 0
          0.0021494088120660175 0.0021360602622308815 0.0021469350382888304 0.0021316364806848067 0.0021444612645116433 0.002127212699138732
          0.0024025771613275394 0.002400877611621448 0.002399178061915357 0.001976484001907761 0.0019767153235588234 0.0019769466452098866
          0.0022469119325529896 0.0022483091309134567 0.0022497063292739247 0.0017981273691082852 0.0018028823901446158 0.0018076374111809465
          0.0011140495111567248 0.0011195424520926336 0.0011250353930285424 0.00044368692426402046 0.0004459642312635429 0.0004482415382630653
          0.00006378531156224726 0.00006375725741276957 0.00006372920326329193 0 0 0
          0 0 0 0 0 0
        </DataArray>
        <DataArray type="Float64" Name="pe22" format="ascii" RangeMin="-0.013858192443802039" RangeMax="0.0014660502012593347">
          0 0 0 0 0 0
          0 0 0 0 0 0
          0 0 0 0 0 0
          0 0 0 0 0 0
          0 0 -5.082642938025556e-7 0 -0.0000010165285876051112 0
          -0.00002354676378760955 -0.000015387950690485723 -0.000029139495619364996 -0.000020848208114179957 -0.000034732227451120444 -0.00002630846553787419
          -0.00015301841381633522 -0.00012874723109539872 -0.00015569104544901365 -0.00013262845690856993 -0.00015836367708169213 -0.00013650968272174116
          -0.00045099126097160536 -0.00040736194747951424 -0.00042922916620416647 -0.00038537387851481086 -0.0004074670714367276 -0.00036338580955010754
          -0.0009046537431200496 -0.0008256878091520248 -0.0008584711185752494 -0.0007745338126144736 -0.0008122884940304496 -0.0007233798160769226
          -0.0015147200807042133 -0.0012400016066985257 -0.0014508888386069144 -0.0011665858924395501 -0.0013870575965096157 -0.001093170178180574
          0 0 0 0 0 0
          0 0 0 0 0 0
          -0.0000028696879109485463 -0.000004975865784611064 -0.0000070820436582735805 -0.00005276738263714097 -0.000058882911678880145 -0.00006499844072061932
          -0.0002275915398596052 -0.00022713763827767627 -0.00022668373669574736 -0.0005764796542393959 -0.0005557767499310089 -0.000535073845622622
          -0.0011049863981718792 -0.0010724455419711878 -0.0010399046857704963 -0.0017115054853702768 -0.0016862231724125776 -0.0016609408594548784
          0 0 0 0 0 0
          0 0 0 0 -5.292347145287866e-7 -0.0000010584694290575731
          -0.000016970580688489134 -0.00002174029262675659 -0.000026510004565024044 -0.00011468959743764487 -0.00012095745766010479 -0.00012722531788256472
          -0.00035310947984662673 -0.00034861049344108786 -0.0003441115070355491 -0.0007654529922339526 -0.0007473833815315658 -0.0007293137708291791
          -0.001347898973167329 -0.0013343094208036403 -0.0013207198684399516 -0.0020393397856804827 -0.0020665016242900963 -0.00209366346289971
          0 0 0 0 0 0
          0 -7.123123043647801e-8 -1.4246246087295602e-7 -0.0000039198615909483704 -0.000007375259460494035 -0.0000108306573300397
          -0.000055392865368148234 -0.00006381142150324317 -0.00007222997763833811 -0.00021856420938504045 -0.00022287752502831264 -0.0002271908406715848
          -0.0005218628969594158 -0.0005137248483805528 -0.0005055867998016898 -0.0009853706805000855 -0.0009718833965587514 -0.0009583961126174172
          -0.0015680844706550635 -0.0015722981612001806 -0.0015765118517452972 -0.0020632337409597122 -0.002108758241883206 -0.0021542827428067
          0 0 0 0 -5.909151399726125e-8 -1.181830279945225e-7
          -5.919226249953867e-7 -0.0000032979294561183546 -0.0000060039362872413225 -0.00002518523236793418 -0.00003442900509266495 -0.00004367277781739571
          -0.0001334509778626711 -0.00014336316784443746 -0.0001532753578262038 -0.00036247841036411824 -0.00036258869008666794 -0.0003626989698092176
          -0.0007169605856561234 -0.0007069848729601153 -0.0006970091602641075 -0.0011991997314712852 -0.0011914269347206002 -0.001183654137969915
          -0.0017174142946929506 -0.0017330058549896972 -0.0017485974152864439 -0.002032792152188965 -0.0020829792856962796 -0.002133166419203595
          0 -1.1458677731766608e-8 -2.2917355463533215e-8 -2.1371599446109672e-7 -0.000002083177947796093 -0.00000395263990113109
          -0.000014010213488277723 -0.00002179149642165169 -0.000029572779355025662 -0.00008497981501119115 -0.00009636688057285262 -0.00010775394613451406
          -0.0002557420426047031 -0.0002612156951950356 -0.0002666893477853682 -0.0005347222877437633 -0.0005300588956705025 -0.0005253955035972417
          -0.0009168929724777863 -0.0009072804875233844 -0.0008976680025689825 -0.0013750380031088661 -0.0013729051590855737 -0.0013707723150622817
          -0.0017704533402033073 -0.0017914737562297863 -0.0018124941722562646 -0.0019051598652681807 -0.0019529462679005018 -0.0020007326705328227
          -2.9466648514278126e-7 -9.658650413608846e-7 -0.000001637063597578988 -0.000011385030524684653 -0.00001517350168652853 -0.00001896197284837241
          -0.00006367864990092013 -0.00007034301514497357 -0.00007700738038902702 -0.000191169215069093 -0.0001948797803726784 -0.00019859034567626383
          -0.00041016686136421216 -0.00040675878688883405 -0.0004033507124134559 -0.0007195167077237959 -0.0007109219779995105 -0.000702327248275225
          -0.001100400462068287 -0.0010930690484203145 -0.001085737634772342 -0.0014909988406946744 -0.0014945098483430007 -0.0014980208559913267
          -0.0017342954910145572 -0.0017578984334450398 -0.0017815013758755221 -0.0016882535109310499 -0.0017315032119507713 -0.0017747529129704927
          -0.000008931177586957541 -0.000010291561290283929 -0.000011651944993610313 -0.000051852640415868655 -0.000053640180100596466 -0.00005542771978532428
          -0.00015390251456286677 -0.0001523361464157217 -0.0001507697782685766 -0.00032772887208688703 -0.0003202848427283457 -0.0003128408133698044
          -0.0005787164062127659 -0.0005674499379223292 -0.0005561834696318924 -0.0008992894097546415 -0.0008891329388136836 -0.0008789764678727259
          -0.0012501262654260005 -0.001247282552349125 -0.0012444388392722494 -0.0015393939448577212 -0.0015500694220112723 -0.0015607448991648237
          -0.0016174829239290758 -0.0016440924135095684 -0.0016707019030900608 -0.0014116511647135363 -0.0014494799700761776 -0.0014873087754388192
          -0.00030375951707883674 -0.00029833471866873957 -0.00029290992025864245 -0.0005140352221439535 -0.0005050703642591341 -0.0004961055063743147
          -0.0007819148628114786 -0.0007728647795060626 -0.0007638146962006467 -0.001083603247954348 -0.0010787980235993624 -0.001073992799244377
          -0.0013588682183480478 -0.0013623209601416968 -0.0013657737019353462 -0.001501006259954881 -0.001514876161191984 -0.001528746062429087
          -0.0013906705698632541 -0.0014117967748912487 -0.0014329229799192433 -0.001094396565725765 -0.00111730435912421 -0.0011402121525226547
          0 0 0 0 -0.00012839755776616847 -0.00004532795718264374
          -3.2284621417574236e-8 0 -0.00025679511553233694 -0.00009065591436528748 -6.456924283514847e-8 0
          0 0 0.000013935626561435882 0 0.000027871253122871765 0
          0 0 0 -0.00009107172289398017 0.000009851920174887693 -0.000014152597629798225
          -0.00018214344578796035 0.000019703840349775387 -0.00002830519525959645 -0.0031891096493776028 -0.0030139656123641377 -0.004583524710567618
          -0.00434586776823073 -0.003048649399940317 -0.003019911964481242 -0.004362257698805903 -0.004055157238521125 -0.002908189150503031
          -0.0030258583165983467 -0.0041409906870441895 -0.0037644467088115197 0.00003857484563416637 -0.00014821036673452216 0.00013157269325800276
          -0.0006526660884804621 0.00008158812932390042 0.0003625703368760524 0.0000859551839165991 -0.000772957135779473 0.00012460141301363448
          0.000873351040486627 0.0000403376745751955 -0.000893248183078484 -0.002418529900938794 -0.0024361643872852804 -0.0024191990162130543
          -0.002341736574612655 -0.0024976458285581636 -0.0025394795540809784 -0.0025143608415464968 -0.0023979334497774953 -0.002576761756177533
          -0.0026427947208766756 -0.002609522666879939 -0.0024541303249423353 -0.0014941581948911416 -0.001690500100199566 -0.001123423749300809
          -0.0007091096629092545 -0.0015708713222383902 -0.00177344421792435 -0.0011798890692428464 -0.0007730740077452858 -0.0016475844495856386
          -0.0018563883356491338 -0.001236354389184884 -0.0008370383525813169 -0.0010659702626470268 -0.0013947212242955004 -0.0011036781747352329
          -0.0014431624819736756 -0.001141386086823439 -0.0014916037396518508 -0.002569443668615248 -0.0024696175247055164 -0.0026171267794209137
          -0.0026030961295186 -0.0026648098902265784 -0.0027365747343316834 -8.136554147332892e-7 0 0
          0.00004071559224678635 -0.00015075982676788355 -0.00023179251297440696 -0.00010485358144313667 -0.00011326285601768152 -0.00030070599812103376
          -0.000463585025948814 -0.0002097071628862734 -0.0002672413042821494 -0.0019386492146518507 -0.002170755538913019 -0.003386052401500929
          -0.002688943482953719 -0.0018212687761349497 -0.002076169800922906 -0.0031363294816385825 -0.0024903485849898477 -0.0017038883376180485
          -0.0019815840629327924 -0.0028866065617762357 -0.002291753687025977 -0.003204190242847548 -0.00575570137526798 -0.0032491140716738288
          -0.0055441580604429705 -0.00329403790050011 -0.005332614745617961 0 0 0
          0 0 0 0 0 0
          0 0 0 -0.009180890285746032 -0.013492540246400172 -0.012800842464858372
          -0.008050210218182665 -0.008829607483886276 -0.01244491175208519 -0.011760669792621838 -0.007844509437280853 -0.00847832468202652
          -0.011397283257770213 -0.010720497120385301 -0.007638808656379041 0 0 0
          0 0.0003027388615686051 0.00003955720307873028 -0.00004402003949720836 0.00020337201356546475 0.0006054777231372102
          0.00007911440615746056 -0.00008804007899441672 0.0004067440271309295 -0.0019908264981318485 -0.0020242268536102125 -0.002090284509743157
          -0.0021205254446375224 -0.002189742521354465 -0.002216824035664833 -0.0023685771353561336 -0.0023477203135220666 -0.002326863491687999
          -0.000024208203534799352 -0.000006969503153102869 -0.000720801916490245 -0.0002975159591044248 -0.0014173956294456906 -0.0005880624150557468
          0.00041177350407396604 0.00016233162588596652 0.000013140035973570554 0.00010101741012646056 0.0008141909135726507 0.00027429794086937043
          -0.00020973868382104504 0.0014660502012593347 0.0005354558457651704 -0.001632387689504479 -0.0007409366751151175 -0.0016710049801075433
          -0.0021248460676416728 -0.0017479464979265934 -0.0007667233887078477 -0.0020533770569382956 -0.0022907640537538853 -0.0018635053063487082
          -0.0007925101023005779 -0.002435749133769049 -0.002456682039866098 -0.003988436993577236 -0.00472154292307232 -0.005836463541450181
          -0.0036507382186470524 -0.0042954472461939255 -0.0052245596230161 -0.0033130394437168704 -0.0038693515693155314 -0.0046126557045820206
          -0.0007996133290825146 -0.0016751065332456403 -0.0008366486799505274 -0.0017344942980622032 -0.0008736840308185405 -0.0017938820628787661
          0.0005824110316761314 -0.0004997365853821241 -0.0009391177535873267 -0.0013313046948183064 -0.0024606465388507847 -0.0021628728042544887
          -0.0003533355212254204 -0.00012000615450353998 -0.00046036079350055106 -0.00018468659662164853 -0.0005673860657756818 -0.00024936703873975713
          -0.010801100311670218 -0.010021092908284984 -0.011885537024482869 -0.012122482867216611 -0.009530625579490028 -0.008923267615956677
          -0.01058038716959147 -0.01065400002170222 -0.008260150847309838 -0.007825442323628369 -0.009275237314700072 -0.009185517176187825
          -0.002281175376725313 -0.0020602912340458423 -0.0022203279795811022 -0.002379173060218318 -0.0021992923094104654 -0.002374136358146536
          -0.002477170743711322 -0.0023382933847750876 -0.002527944736711969 0 0 -0.000009918793834224765
          -0.000003878549647740576 -0.00001983758766844953 -0.000007757099295481151 -0.0022320547275180348 -0.0019508712665862993 -0.00231905679342604
          -0.0020257173940857096 -0.0024060588593340453 -0.00210056352158512 -0.001295748664512965 -0.0010758392396976717 -0.0013947817877033965
          -0.0010763853572421126 -0.0014938149108938272 -0.001076931474786554 -0.0004908325088586058 -0.00019127053056036743 -0.0005641612372002422
          -0.00024318483326135105 -0.0006374899655418784 -0.0002950991359623347 0 0 0
          -0.0000021308013188727543 0 0 -0.0000042616026377455086 0 0
          -0.000377231348080616 -0.00010463016211220583 -0.0003576196886735305 -0.00039508358925313377 -0.00011746058970611894 -0.00039806652283704154
          -0.0004129358304256516 -0.00013029101730003206 -0.0004385133570005525 -0.006431404550088422 -0.008343434161664281 -0.008395004601079545
          -0.005783696917857204 -0.007444559551977495 -0.007438929044097901 -0.005135989285625985 -0.006545684942290707 -0.0064828534871162555
          -0.009300335227693614 -0.00823175033306923 -0.0071631654384448455 0 0 0
          0 0 0 0 0 0
          0 0 0 -0.006362467336511371 -0.00839535180024746 -0.005837170521725109
          -0.007664669182319863 -0.005311873706938849 -0.006933986564392264 0 0 0
          0 0 0 -0.013474646858629645 -0.01005635789605223 -0.012134753430626852
          -0.009293635859984363 -0.010794860002624055 -0.008530913823916493 -0.003722730134077688 -0.004172509615511598 -0.003950509799790519
          -0.004610863714157798 -0.004178289465503351 -0.005049217812803997 0 0 0
          -0.0007330495478727878 -0.000753961360639968 -0.0007748731734071482 0.00008619548077318314 0.0001024603241264084 -0.0004925836308048434
          -0.00035158681136973196 -0.00107136274238287 -0.0008056339468658723 -0.0006006896126568593 -0.000654172479509654 -0.0007076553463624489
          0.0005182992071983167 -0.0007418407343297853 -0.002001980675857887 0 -0.0000021308013188727543 -0.0000042616026377455086
          -0.000021621136493494467 -0.00003638422433813311 -0.000051147312182771757 0 0 0
          0.0008269266285615433 -0.0002306491048389654 -0.001288224838239474 -0.002423592814053865 -0.0029443495405416745 -0.003465106267029484
          -0.013858192443802039 -0.012446114429917717 -0.011034036416033396 -0.0017483647300131431 -0.0016252670260808646 -0.0015021693221485858
          0 0 0 0 0.00019873369600628064 0.0003974673920125613
          -0.0007704275658796849 -0.0007682982797068288 -0.0007661689935339728 -0.0009976148321245058 -0.0009991774993023696 -0.0010007401664802334
          -0.0010165740805345455 -0.0010164401544702174 -0.001016306228405889 -0.0011581324359986292 -0.0011613717973051644 -0.0011646111586116996
          -0.0012396764326182445 -0.0012427432500772676 -0.0012458100675362908 -0.0013693212602947705 -0.001376037901969791 -0.0013827545436448112
          -0.0013162680159533103 -0.0013253847100244726 -0.0013345014040956353 -0.0010238270873202968 -0.0010315038324834533 -0.0010391805776466098
          -0.0005555054844827623 -0.0005592949405955897 -0.000563084396708417 -0.0004746437834022726 -0.00020199221751039458 -0.0004819846682337984
          -0.00020623993677190564 -0.0004893255530653243 -0.00021048765603341667 -0.000008057919036048348 0 0
          -0.00003903690259302106 -0.000007574741736802234 0 0 -0.00004013637974677062 -0.000007091564437556118
          0 0 -0.00004123585690052019 0 0 0
          -0.00010179556805435439 -0.00010084298506325661 -0.00009989040207215883 0 0 0
          -0.001120953647426743 -0.0010858463439102277 -0.0011232965066313683 -0.0010874587063592588 -0.0011256393658359938 -0.0010890710688082898
          -0.0012412874764226576 -0.0012458301849592127 -0.0012503728934957679 -0.0010552244657659824 -0.0010578418634539012 -0.0010604592611418201
          -0.0011928933573344136 -0.0011978045489500742 -0.0012027157405657349 -0.0009744733704145301 -0.000978271113157985 -0.0009820688559014391
          -0.0006107261194774219 -0.0006119870951690025 -0.0006132480708605831 -0.00024291858904218317 -0.00024219345770451904 -0.00024146832636685493
          -0.000034096159086934314 -0.000033622654243099784 -0.00003314914939926525 0 0 0
          0 0 0 0 0 0
        </DataArray>
        <DataArray type="Float64" Name="pe33" format="ascii" RangeMin="-0.016203377905274804" RangeMax="0.0027187144897945483">
          0 0 0 0 0 0
          0 0 0 0 0 0
          0 0 0 0 0 0
          0 0 0 0 0 0
          0 0 -0.0000010528612823997117 0 -0.0000021057225647994235 0
          -0.00005217307377236917 -0.00003521161491029628 -0.00007183384475244438 -0.000054145000147525707 -0.00009149461573251957 -0.00007307838538475514
          -0.0003802920438183325 -0.00033413034311320525 -0.00043216347131517645 -0.00038881609392077686 -0.0004840348988120203 -0.0004435018447283486
          -0.0013315958305796865 -0.0012809019960496966 -0.0013852131701902744 -0.0013404572921466799 -0.0014388305098008622 -0.001400012588243663
          -0.003528592736355677 -0.0035881929775141135 -0.003480105266915456 -0.003535922410881519 -0.0034316177974752352 -0.0034836518442489237
          -0.006734122852542286 -0.006611474033896263 -0.006476752701645941 -0.00636144500820633 -0.006219382550749596 -0.006111415982516397
          0 0 0 0 0 0
          0 0 0 0 0 0
          -0.000005254229748612942 -0.000009898501576744198 -0.000014542773404875454 -0.00010848425079607751 -0.00013096453977917054 -0.00015344482876226354
          -0.0005137099804159553 -0.0005574010517692268 -0.0006010921231224982 -0.0014697035489981882 -0.0015067320570331443 -0.0015437605650681
          -0.0033713775537500597 -0.0033308824934633833 -0.003290387433176707 -0.005687810315463657 -0.005520976003205904 -0.005354141690948152
          0 0 0 0 0 0
          0 0 0 0 -8.944920329597859e-7 -0.0000017889840659195718
          -0.000030125089802877544 -0.000040876419684432436 -0.000051627749565987315 -0.0002180750407641828 -0.00024353146636820389 -0.000268987891972225
          -0.0007186367929977013 -0.00074859650479291 -0.0007785562165881187 -0.001659889988153936 -0.0016724775777747763 -0.001685065167395616
          -0.003157393637949019 -0.0031242285177541154 -0.003091063397559211 -0.0047105598815394695 -0.0046338694031167645 -0.004557178924694059
          0 0 0 0 0 0
          0 -1.0683058217469049e-7 -2.1366116434938098e-7 -0.000006123519560009662 -0.00001219895987594721 -0.00001827440019188476
          -0.00009301927935150362 -0.00011222239328882136 -0.00013142550722613906 -0.00038772851367585944 -0.00041129541031271756 -0.0004348623069495756
          -0.0009674980341162735 -0.0009783016933742875 -0.0009891053526323015 -0.0018548922874682152 -0.0018394820450467748 -0.0018240718026253347
          -0.0029176226329537076 -0.002888607359001263 -0.002859592085048818 -0.0035106980721452633 -0.003513563588387195 -0.003516429104629127
          0 0 0 0 -8.30027339150213e-8 -1.660054678300426e-7
          -8.505323477697502e-7 -0.000005009413652784103 -0.000009168294957798457 -0.00003868883788609667 -0.000055148708333034745 -0.00007160857877997281
          -0.00021412988076570724 -0.00023860613673594552 -0.00026308239270618386 -0.0006063023055016775 -0.0006206377128281945 -0.0006349731201547116
          -0.001223384457098151 -0.00121224163900343 -0.001201098820908709 -0.0020042626895070076 -0.0019644084010970024 -0.001924554112686997
          -0.0026567035459349126 -0.0026303028307308406 -0.0026039021155267687 -0.0027266447565098524 -0.0027714785101470092 -0.002816312263784167
          0 -1.569412444177875e-8 -3.13882488835575e-8 -3.0418237757137704e-7 -0.0000030114533230849185 -0.0000057187242685984605
          -0.00002079775802533974 -0.000033033757624752174 -0.0000452697572241646 -0.00012990464214881057 -0.0001512061482260708 -0.00017250765430333105
          -0.0004013245401660962 -0.0004183789027897423 -0.00043543326541338836 -0.0008529178827738751 -0.0008504271214862775 -0.0008479363601986798
          -0.0014473558745475542 -0.0014162875548991707 -0.0013852192352507872 -0.00206370710633613 -0.002012624579562285 -0.0019615420527884404
          -0.0023580206407349705 -0.0023409947525886822 -0.002323968864442394 -0.002097045410654147 -0.002165628816539012 -0.002234212222423877
          -4.241502983680164e-7 -0.0000013714301997770738 -0.0000023187101011861313 -0.000017040984480096128 -0.000022557428270675472 -0.000028073872061254813
          -0.00009767392177206961 -0.00010801713917832124 -0.00011836035658457285 -0.0002987361426631792 -0.0003054961961532536 -0.0003122562496433281
          -0.0006421666390761778 -0.0006354804546835436 -0.0006287942702909095 -0.0011020932351187797 -0.0010764779887710157 -0.0010508627424232516
          -0.0016042897874444964 -0.0015617540127959614 -0.0015192182381474266 -0.002004433285907024 -0.0019643856113578076 -0.0019243379368085907
          -0.0020068358918662182 -0.0020160989809412436 -0.0020253620700162694 -0.0015681664560965758 -0.0016511387458845459 -0.0017341110356725161
          -0.000013286339357199642 -0.000015418133438391074 -0.000017549927519582505 -0.0000797456566049218 -0.00008295326687342294 -0.00008616087714192408
          -0.00024423158727459985 -0.00024231698967192545 -0.000240402392069251 -0.0005255671698397352 -0.0005115940425599986 -0.000497620915280262
          -0.0009039559142408331 -0.0008753186624962609 -0.0008466814107516887 -0.0013176723468502282 -0.001277674640943852 -0.0012376769350374757
          -0.001668969292371058 -0.0016284672946920984 -0.0015879652970131387 -0.0018296016187671444 -0.0018106564579893655 -0.0017917112972115864
          -0.0016170588229028502 -0.0016473108238751722 -0.0016775628248474946 -0.0011234957552680091 -0.0011981647686561423 -0.0012728337820442758
          -0.00044902690424323296 -0.0004425139155763148 -0.0004360009269093968 -0.0007574627328618424 -0.0007410172651391744 -0.0007245717974165062
          -0.0011047242113446712 -0.0010783980174897917 -0.0010520718236349121 -0.0014147469741274434 -0.0013834118655230792 -0.001352076756918715
          -0.0015955431662472732 -0.001568661857482425 -0.001541780548717577 -0.0015573353709219886 -0.0015492616549101627 -0.0015411879388983368
          -0.0012281449984563684 -0.0012494009852764543 -0.0012706569720965406 -0.0007778570387566041 -0.0008202446403511082 -0.0008626322419456121
          0 0 0 0 0.00014131276070904593 0.00045565878167045434
          -8.820130189031459e-7 0 0.00028262552141809186 0.0009113175633409087 -0.0000017640260378062918 0
          0 0 0.000008725087121992333 0 0.000017450174243984666 0
          0 0 0 -1.626934030968957e-7 -3.4825139118896434e-7 0.0000015055586610696688
          -3.2538680619379075e-7 -6.965027823779287e-7 0.000003011117322139337 -0.009169316692809 -0.008043629451486307 -0.010230943221187148
          -0.010567105219738493 -0.008807068103663957 -0.007826247210337686 -0.009911063367312196 -0.01015069827102696 -0.008444819514518913
          -0.007608864969189064 -0.009591183513437244 -0.009734291322315427 -0.0013242113224718132 -0.00008377155790765063 0.0013196781392868224
          0.00007987886615704845 -0.0021099382352327035 -0.0006000022511610759 0.0002514869783114194 -0.0015088845663820028 -0.0028956651479935943
          -0.001116232944414501 -0.0008167041826639837 -0.003097647998921054 -0.004513166577194138 -0.0043400425991013646 -0.005897773068921107
          -0.005743679670962287 -0.004497314256831783 -0.004393252439774474 -0.005807618626545118 -0.005621929591536548 -0.004481461936469429
          -0.004446462280447584 -0.00571746418416913 -0.005500179512110809 -0.0011713208139048632 -0.0015651177881004712 -0.0008676586692203626
          -0.0005475427601039386 -0.0013697464523733953 -0.0017299424096717717 -0.001009792544185333 -0.0006986098525480482 -0.0015681720908419271
          -0.0018947670312430723 -0.0011519264191503036 -0.0008496769449921578 -0.0007315131759900503 -0.0010616528882665187 -0.0008158034419861911
          -0.0011794799421498577 -0.0009000937079823319 -0.0012973069960331967 -0.007138968602479826 -0.005967888043313699 -0.00692853643160735
          -0.0059260251227960786 -0.00671810426073487 -0.005884162202278458 -0.0000013055922194715717 0 0
          -0.000050958339739250664 0.00011070943274855302 0.000007652523412641148 -0.000014960346165135584 0.0007050125068475331 0.00022272445771657763
          0.000015305046825282296 -0.000029920692330271178 0.001460983353434317 -0.00860592083983407 -0.008399363157270807 -0.00986654413012061
          -0.009440498262879071 -0.008215484975421312 -0.008028526545658218 -0.009420504383956384 -0.008996483198266542 -0.007825049111008552
          -0.0076576899340456295 -0.008974464637792157 -0.00855246813365401 -0.007792509288327571 -0.009959114665891592 -0.0076723112476736145
          -0.009782354720554626 -0.007552113207019657 -0.009605594775217663 0 0 0
          0 0 0 0 0 0
          0 0 0 -0.01068273497299312 -0.014416031381499196 -0.013779450994714903
          -0.010275169041591556 -0.010661401507708494 -0.014219176036968512 -0.013551309776264859 -0.010218484716295302 -0.010640068042423869
          -0.014022320692437827 -0.013323168557814812 -0.010161800390999044 0 0 0
          0 -0.00008931725373723459 -0.000020370511012279807 0.00001305669598305483 -0.00003635571535722249 -0.00017863450747446918
          -0.000040741022024559614 0.00002611339196610966 -0.00007271143071444497 -0.0021195280399670074 -0.0019148044255409234 -0.00228997535500708
          -0.002127554567242038 -0.002460422670047153 -0.0023403047089431525 -0.007377590783740262 -0.007112040150427118 -0.006846489517113974
          0.000007277028784906198 0.000022391961744243797 0.000888852008725127 0.0013705532257693963 0.001770426988665348 0.0027187144897945483
          0.0007336613366040121 0.00026788399747529616 0.000011047472591892821 0.0015661604723446335 0.00040445516122459034 0.00047058431612042575
          0.002398659608085255 0.0005410263249738844 0.0009301211596489587 -0.0028684346406585974 -0.002442859956788667 -0.005077020826844555
          -0.005509193071117069 -0.003195223262548014 -0.002828508860590962 -0.005347165894585136 -0.005613910265020051 -0.00352201188443743
          -0.0032141577643932575 -0.005617310962325717 -0.0057186274589230346 -0.010507856413247516 -0.011055018750025673 -0.011618995633969892
          -0.010015918180448547 -0.010590619695764006 -0.01113976777651364 -0.009523979947649579 -0.010126220641502339 -0.010660539919057388
          -0.0005684544423492965 -0.0015089558929505665 -0.000657207363126673 -0.0016393061207258042 -0.0007459602839040496 -0.001769656348501042
          0.0013410625531969902 0.0006845548850363462 0.0007287345247659005 -0.00047713637430591365 0.00011640649633481081 -0.0016388276336481735
          -0.0004830407667777983 -0.00013527984405579504 -0.0006682263136848841 -0.0002480306188644119 -0.0008534118605919699 -0.0003607813936730288
          -0.014298698225450178 -0.013773263626414803 -0.014769317735974966 -0.01559398469063533 -0.013792795474087613 -0.013307858302525996
          -0.014413529971045747 -0.015220754526834742 -0.013286892722725048 -0.012842452978637191 -0.014057742206116525 -0.014847524363034154
          -0.0029535813523307985 -0.0028512812464038173 -0.004390203722507767 -0.0031195967324716863 -0.00308473885109708 -0.00450946984324632
          -0.003285612112612574 -0.0033181964557903432 -0.004628735963984875 0 0 -0.000012437567581333576
          -0.000006297882373365218 -0.000024875135162667152 -0.000012595764746730437 -0.0031017225595223203 -0.002200209104752815 -0.0031917363777621425
          -0.0023169653872797866 -0.0032817501960019637 -0.0024337216698067576 -0.0012593211385884984 -0.001517854916810089 -0.0014794222461212696
          -0.0018040316864744775 -0.0016995233536540406 -0.0020902084561388663 -0.00047271376467552997 -0.0001480527052463976 -0.0006511838559001682
          -0.00022515657397656887 -0.0008296539471248065 -0.00030226044270674013 0 0 0
          -3.1753612755497064e-7 0 0 -6.350722551099413e-7 0 0
          -0.0002609098079039258 -0.00007847065653165727 -0.00026840844325766786 -0.00029850503063631343 -0.00009757166079252032 -0.00033847109289300375
          -0.00033610025336870117 -0.00011667266505338337 -0.0004085337425283396 -0.01190945793394279 -0.012801259752999544 -0.012621686303390639
          -0.011427825336714426 -0.012304017969349688 -0.012143791379671053 -0.010946192739486063 -0.011806776185699834 -0.011665896455951463
          -0.013315450167936636 -0.012802345935758783 -0.012289241703580932 0 0 0
          0 0 0 0 0 0
          0 0 0 -0.01175682179834801 -0.01231156305083625 -0.011318808990974708
          -0.011972805499719545 -0.010880796183601405 -0.01163404794860284 0 0 0
          0 0 0 -0.01552524291177118 -0.012374076071577709 -0.015246352735459033
          -0.01213286597120084 -0.014967462559146891 -0.011891655870823973 -0.007890559378700916 -0.007130158147710629 -0.007904467238321194
          -0.007284490118626218 -0.007918375097941476 -0.007438822089541809 0 0 0
          -0.0004663072081099841 -0.0005132949319211573 -0.0005602826557323304 -0.0035485031064738134 -0.0020937460431538174 -0.004016590025949197
          -0.0029539271193350764 -0.004484676945424581 -0.0038141081955163354 -0.00043298619984124143 -0.0005478013628928035 -0.0006626165259443654
          0.0004137379776077453 0.001474308599134107 0.0025348792206604685 0 -3.1753612755497064e-7 -6.350722551099413e-7
          -0.000017282617524050214 -0.00003516648389191186 -0.00005305035025977351 0 0 0
          0.0001706683469039344 0.0013010899659593965 0.0024315115850148585 -0.006032262502805852 -0.006241615760778156 -0.00645096901875046
          -0.016203377905274804 -0.01593474945540904 -0.015666121005543272 -0.008482769679242722 -0.008105450470550222 -0.007728131261857723
          0 0 0 0 -0.00010592307676002421 -0.00021184615352004842
          -0.0009448072766085446 -0.0009354565883074776 -0.0009261059000064103 -0.0010526071878100007 -0.0010461890468168775 -0.0010397709058237543
          -0.0011824230893097208 -0.0011688990325859183 -0.001155374975862116 -0.0011521472405915788 -0.0011450590252036197 -0.0011379708098156606
          -0.001343303421884333 -0.0013283015826828803 -0.0013132997434814277 -0.001366849683494654 -0.0013546995400705948 -0.0013425493966465357
          -0.001205334605115213 -0.0012020045739784086 -0.0011986745428416037 -0.0008505161748785397 -0.000858032959044874 -0.0008655497432112084
          -0.00040360878260114433 -0.00041695224150080135 -0.00043029570040045847 -0.00030736676684072346 -0.00014744833504587072 -0.00033177206003201753
          -0.00016132097721857178 -0.0003561773532233116 -0.00017519361939127284 -0.000007171718458200903 0 0
          -0.000030763834277332266 -0.000007017379691985063 0 0 -0.0000336930493652359 -0.000006863040925769223
          0 0 -0.00003662226445313954 0 0 0
          -0.00008418661979509366 -0.0000872701288621522 -0.00009035363792921072 0 0 0
          -0.0010284551646392742 -0.0010502139183206534 -0.0010236385316574614 -0.0010441777743255478 -0.001018821898675649 -0.0010381416303304422
          -0.0011612896849048813 -0.001155047426662235 -0.001148805168419589 -0.0009212595361417787 -0.0009188734601049223 -0.0009164873840680661
          -0.0010540185752185753 -0.0010505045819633825 -0.0010469905887081894 -0.0008236539986937548 -0.0008246112769866307 -0.0008255685552795068
          -0.0005033233916793027 -0.0005075553569236309 -0.0005117873221679591 -0.0002007683352218373 -0.00020377077355902378 -0.00020677321189621032
          -0.000029689152475312934 -0.000030134603169669796 -0.00003058005386402666 0 0 0
          0 0 0 0 0 0
        </DataArray>
        <DataArray type="Float64" Name="disp_x" format="ascii" RangeMin="0" RangeMax="0.000009484525225038538">
          1.410388350402313e-7 0 1.4103408678769145e-7 0 1.4098464565588678e-7 0
          1.4026198369834974e-7 0 1.40270123869374e-7 0 1.401695868612647e-7 0
          1.391283527645954e-7 0 1.3923099039934388e-7 0 1.3907517536566817e-7 0
          1.379398001879087e-7 0 1.3838743887957104e-7 0 1.3864598064097444e-7 0
          1.37188539620542e-7 0 1.3868759158020714e-7 0 1.4057559583163978e-7 0
          1.3711049665242645e-7 0 1.4028357142232194e-7 0 1.5011594621506776e-7 0
          1.7125206784909964e-7 0 1.7896505243708045e-7 0 2.0359241525191698e-7 0
          2.9549589029785775e-7 0 3.020310094674465e-7 0 3.246214546613439e-7 0
          5.625422963730945e-7 0 5.56744036201178e-7 0 5.422903659022216e-7 0
          0.0000011535728881462273 0 0.0000011122708051876235 0 9.772153679287376e-7 0
          2.820926214041994e-7 2.821049144590617e-7 2.8202562369894946e-7 2.8052158507795965e-7 2.806140803705597e-7 2.804872138618201e-7
          2.7817179971540585e-7 2.785368214354014e-7 2.784883668043612e-7 2.756993284037209e-7 2.7695324839972663e-7 2.781304310002495e-7
          2.7400454421290206e-7 2.76976589104301e-7 2.8221699503499797e-7 2.785266270292793e-7 2.844936603986451e-7 3.07437508441093e-7
          3.608239217752953e-7 3.752595140699597e-7 4.2062362012282657e-7 6.150913271030413e-7 6.265907958130367e-7 6.662380029078888e-7
          0.0000011475779629327662 0.0000011352225323388883 0.0000011054236053283979 0.000002253790583519161 0.0000021801103158015946 0.0000019441205041691876
          4.2314345742188176e-7 4.2323720966615294e-7 4.2319872873911123e-7 4.207265150294428e-7 4.2108975224146476e-7 4.211706063610349e-7
          4.1696532446776525e-7 4.1794963417028073e-7 4.1872828312367624e-7 4.131827189688599e-7 4.158172557853569e-7 4.193473686464244e-7
          4.1073236583885096e-7 4.148757401012787e-7 4.266511450130043e-7 4.3169890804920006e-7 4.429954851117062e-7 4.818302009380566e-7
          5.84935578792507e-7 6.035313096518404e-7 6.632079978494415e-7 9.802750048868023e-7 9.937462495552494e-7 0.0000010400030421618494
          0.0000017651591538119721 0.0000017461753408710777 0.0000017008234122893366 0.0000032604984720188197 0.000003167906345743631 0.000002879035163911341
          5.641238681768962e-7 5.644396176416127e-7 5.646411745775458e-7 5.607348018695133e-7 5.61675771625083e-7 5.625338396295858e-7
          5.553234200586624e-7 5.57584491933806e-7 5.607473134865622e-7 5.50530118319294e-7 5.543518594572013e-7 5.623907883175533e-7
          5.501240931305963e-7 5.569876508293497e-7 5.828657826932913e-7 6.113680090252635e-7 6.280946319294727e-7 6.815812021662934e-7
          8.557576837896966e-7 8.759444060967295e-7 9.416999612046331e-7 0.0000014036124980078457 0.0000014151233901326275 0.0000014554879733773972
          0.0000024142970530624434 0.000002389015377377623 0.0000023268719990744066 0.000004143165987338488 0.00000404745959693197 0.0000037569944868117632
          7.049148925797404e-7 7.056890243930153e-7 7.065496557279626e-7 7.003103192525364e-7 7.022921177344768e-7 7.052989050534019e-7
          6.935647297968598e-7 6.974846238029641e-7 7.047945954962882e-7 6.875901034996361e-7 6.930515105365597e-7 7.118902397855907e-7
          7.033904647635334e-7 7.168210392773416e-7 7.612181679891081e-7 8.300954514242912e-7 8.501155595279616e-7 9.13341981843873e-7
          0.0000011814443261470865 0.0000012004814270250845 0.0000012629850815424342 0.000001885431042008531 0.0000018913590554162005 0.0000019143055631479055
          0.0000030801827846255063 0.0000030487275159372078 0.0000029690850038562957 0.000004906545718497823 0.0000048205208637989 0.000004560839833747188
          8.45367535817712e-7 8.468523526291853e-7 8.493670393896606e-7 8.396229316904999e-7 8.431502680288874e-7 8.498137665920143e-7
          8.317533629528729e-7 8.371560775387505e-7 8.533445196419801e-7 8.297853341605642e-7 8.417046426164582e-7 8.801080636422186e-7
          8.885146868901138e-7 9.074346942163814e-7 9.667270504558912e-7 0.0000010962606434419827 0.0000011171987309983633 0.0000011835149840504894
          0.0000015640262216889274 0.0000015789478741644288 0.0000016288832214052515 0.0000024134302869616073 0.00000241150567890054 0.0000024098303731132197
          0.0000037403891504590076 0.0000037043074917238058 0.0000036079909353257505 0.0000055514373712400915 0.000005481847761313443 0.000005267804475443565
          9.856434802916088e-7 9.880425970349614e-7 9.933270900906358e-7 9.794405398218486e-7 9.838322152235977e-7 9.971654345936093e-7
          9.732756721223119e-7 9.828194982480495e-7 0.0000010150872253373175 9.989963136374947e-7 0.0000010155102320786664 0.0000010689730960809013
          0.0000011179387621899852 0.0000011380033588389398 0.0000012038595306536826 0.0000014161224963062822 0.0000014342920837554284 0.0000014943465288757404
          0.000001997408386722426 0.000002006068686786333 0.0000020365007773216354 0.0000029656467658646565 0.000002956582804750935 0.000002929934724027784
          0.000004366428176184551 0.000004330567940144818 0.000004224442111906365 0.000006089027894706235 0.000006038979687893086 0.000005874465816723255
          0.0000011266499432074618 0.0000011290154198409716 0.0000011380105537962118 0.0000011233986314276361 0.0000011282636733945838 0.0000011512871887053874
          0.0000011391856749847905 0.0000011486592742326465 0.0000011894261616734745 0.0000012112266815509389 0.0000012244843738828163 0.000001279712801614623
          0.0000014015121884528168 0.0000014157906210554468 0.0000014735185845292739 0.0000017902893777547592 0.0000018012757588148804 0.0000018440755192798858
          0.000002468348370300828 0.000002470690155988536 0.000002479318980671665 0.0000035144354241120895 0.0000035033576383213195 0.0000034609186814851492
          0.000004931599805877021 0.000004904602383477906 0.000004805552820274763 0.000006531366271813304 0.000006503125907321353 0.000006390094311722689
          0.0000013380617902626065 0.0000013480121810074703 0.000001380476658753151 0.0000014694155184149183 0.0000014813257784875221 0.0000015188124825749102
          0.000001736107706357426 0.000001747319024651692 0.000001780855507970526 0.00000220789365045681 0.000002214735056576765 0.000002232866053214843
          0.0000029582339985654764 0.000002956919282118123 0.0000029483500619305906 0.000004039599699271874 0.000004027219310495786 0.0000039847838192051745
          0.000005424942160625758 0.000005402347342888918 0.000005330288783359466 0.000006893173017857414 0.000006873100503803712 0.000006810016219859484
          0.000008573280167173099 0.00000836725176151077 0.000008372346179284949 0.000008584815347591782 0.000008569641910235717 0.000008329152366532256
          0.00000836788089217822 0.000008583086668417286 0.00000854997349449507 0.000008444382535956292 0.000008389271715084679 0.000008599201581854902
          0.000008777652191038189 0.000008793851647531762 0.00000876691386546043 0.00000879435885654352 0.00000881287214433995 0.000008808233233361067
          0.000008764629532441843 0.000008912160047070778 0.000008917797333783524 0.000008745744715829408 0.000008912888954011372 0.000008914193955231939
          0.000008793334169768119 0.00000890949540141523 0.000008888425365748169 0.0000023159595902687065 0.0000035940040645740026 0.00000295327590405513
          0.000002069897853638527 0.0000022050192043994576 0.0000034355790227183586 0.000002796140282290897 0.0000019550050566248715 0.000001859248610434175
          0.000002939183810878845 0.000002327017661277269 0.0000016223796105457038 0.000007655658985007754 0.000007719192620497288 0.00000804253851539783
          0.000008043945272353016 0.0000075859785562111336 0.000007667249399308842 0.000008309169322813533 0.000008103348467024321 0.0000074211816768890765
          0.000007352323645636193 0.000008919834133121308 0.000008170208699983545 0.000004369347189973717 0.000004904848553040811 0.000004093484230054308
          0.000003573960437435897 0.000004250815446318121 0.000004766363082153765 0.000003950210152832931 0.0000034591582917286786 0.000003876297356653102
          0.000004334005110808043 0.0000035050889714510353 0.000003090887964479143 0.000006877970964780235 0.000006429490242707791 0.000006958467290615614
          0.000007346912127778607 0.00000681355281301323 0.000006354814425982478 0.0000069162964492206244 0.000007309391193705059 0.000006589602579482068
          0.000006121090565168328 0.000006772581824402823 0.000007170801066785773 0.000006978811906020348 0.000006631326041941204 0.000006954280428733477
          0.000006591747979987538 0.000006864543610127756 0.0000064526287506513024 0.0000034587559280932838 0.000004547133579298941 0.00000332107719408863
          0.0000043827058286459 0.000002891268429048197 0.000003869878725712771 0.000008660260681320478 0.000008821305051841412 0.000008857261662024439
          0.000008648244915005335 0.000008662052679682978 0.00000881133343889794 0.000008837758792508612 0.000008649240528003811 0.000008568530427086231
          0.00000873124762026333 0.000008730706422540823 0.000008518560571671907 6.3992248386686e-7 0.0000014236236399621935 0.0000010907838269251863
          0 6.151436801549312e-7 0.0000013681118135223858 0.0000010357941791286417 0 5.216016247751334e-7
          0.0000011732285591533909 8.676894245264007e-7 0 0.000004351767271891788 0.000003935961267239464 0.000004167765159649938
          0.0000037426528221858254 0.0000035845524853921045 0.0000031340583474744888 0.000008351336912889069 0.0000083082455591995 0.000008570349666574418
          0.00000861869822028485 0.000008350092741616644 0.000008306171983251664 0.000008570526269793104 0.000008619850343434127 0.000008350667165346241
          0.000008303605720898696 0.000008573630904688282 0.000008627951984514511 0.000005643795122542532 0.000003158982470330734 0.0000031295924180347664
          0.0000051548146904051984 0.000005541274794725064 0.0000030905435336897463 0.0000030337656927439703 0.000004984265477681867 0.000004807234844713924
          0.0000025794464797471648 0.000002450374942911382 0.00000411693622426703 0.000009071754859939525 0.000008968967845153569 0.00000894385776660285
          0.000009057499209138479 0.000009029589048640232 0.000008934855210465671 0.000008917373998266785 0.000009041900863609115 0.000009143472481257485
          0.00000894472038041798 0.000008951366310985774 0.000008988561535770822 0.00000608281435147803 0.000006331726278032873 0.000005989739149526141
          0.000006237339953829534 0.000005692272791646554 0.000005918878653846269 0.000002594968657455832 0.0000024945746835813814 0.000002168054601603385
          0.000008467288600910241 0.000008257559143907542 0.000008457201821215019 0.00000823023136155295 0.000008328075709157462 0.000008790345763340123
          0.00000803098530242865 0.000007957013760069332 0.000008134645922588218 0.000008225195783781421 0.00000791140666904046 0.000008120222231463265
          0.000009175684889137524 0.000007790023085516468 0.000008100400688614978 0.00000647475308469729 0.000007022094386881692 0.00000659686946869523
          0.000005497952125697685 0.0000063292147857492185 0.000006891077254718194 0.000006400974969462662 0.000005300251996722506 0.000005865140249167917
          0.000006511496879519899 0.0000058747481285760315 0.000004704418263821039 0 0.0000011072978968816738 0
          0 0.0000010445219436913021 0 0 8.670323812906796e-7 0
          0.0000072951437359461474 0.0000062791891887895416 0.000007272727739217042 0.0000062150751791517695 0.000007194380092112628 0.000006022138627281072
          0.000008272213023298972 0.00000855109111350615 0.000008438992424399517 0.000008437011535385224 0.000008585193763475318 0.000007994656103399739
          0.000007583488854333371 0.000007825618482998867 0.000007539317283180392 0.00000780707239742225 0.0000072986430103686675 0.000007723278748572803
          0 0.0000012663865420444232 0.0000015960106270165042 0 0 0.0000011956001738251388
          0.0000015252073787397148 0 0 9.300979414146858e-7 0.0000011699977931092653 0
          0.000005723456543330395 0.000006158528400685229 0.000005367988734641285 0.000005601092411413459 0.000006034416935499421 0.000005214134581357163
          0.000005215188736326508 0.0000056203634369820554 0.000004736592221926469 0.000008115255775571902 0.000008195935144781092 0.000008107948238667629
          0.000008190215360979233 0.000008098666803761459 0.00000818884344867675 0.000005257557290076309 0.000005769929595277928 0.000005148145038296637
          0.000005683832074031261 0.000004813863589303907 0.000005425939662927093 0.000007104520857813847 0.000007169145135268392 0.000007037163541357565
          0.00000707996351700493 0.000006767197713780434 0.000006741139502583117 0.000007466671018541671 0.000007750282238600675 0.000007423251349997816
          0.000007734872941620091 0.000007250717282144075 0.000007681882360401368 0.000009035607885801906 0.000008923942255321908 0.000009025217265798483
          0.000009027434148441373 0.000008924036513815752 0.000009024627995602894 0.000009037946828434404 0.00000893362562447369 0.000009030427339208075
          0.000007734804133094773 0.000008042445942892956 0.000007626782761048307 0.00000772600772648998 0.000008041101375591381 0.000007611104969032135
          0.000007698182777424684 0.000008034124987291495 0.000007557529423605505 0.0000010484156899453962 8.659799503112541e-7 0
          9.859094058207653e-7 8.188129162199153e-7 0 7.871964647605539e-7 6.446862262020921e-7 0
          0 0 0 0.000009020163515006168 0.000008923201700373618 0.000008894706280271677
          0.000009022088876000334 0.000009021024560795286 0.000008924891591071578 0.000008896443747402943 0.00000902318300859958 0.000009030023911365165
          0.000008934532504584689 0.000008905890918150208 0.000009031780691246842 0.00000198522015093329 0.000002385106718112696 0.00000187094308925702
          0.0000022538877596821862 0.0000015100754684043237 0.0000018179129806532846 0.000008927697303191479 0.000009020784966829559 0.000008929449115834156
          0.000009020771024921853 0.000008938247137355407 0.000009030270980341527 0.0000017230238907041763 0.0000033478090450761873 0.0000016678279617889873
          0.0000031981414519973818 0.0000013184983225286924 0.0000025142709144336046 0.000005397941094845984 0.000006406604908923645 0.000005184794764695215
          0.000006243691420104957 0.000004506556382373424 0.000005531608009660181 0.000008802772094755424 0.000008804406091126992 0.000008815831285226974
          0.000007349686915260423 0.000007331161055842296 0.000007280526135152775 0.000007615163696414882 0.00000790902610769465 0.000007506639159439893
          0.00000799016353074169 0.000007128177212768863 0.000007445264643823854 0.000007394093647518326 0.000007370622663999024 0.0000072759314923476075
          0.000008288902397799185 0.000008333376418915612 0.000008544212950965092 0.000009045666031356236 0.000009038026040690072 0.000008984446418966447
          0.000008026734767865816 0.000008020897249531993 0.00000800937873841966 0.000008819613063108578 0.000008821956591986105 0.00000882895771024706
          0.000008265625037979507 0.000008528767994931446 0.000008739036433662623 0.000007523228899374605 0.000007430647901445007 0.000006727325773324076
          0 0 0 0 0 0
          0.00000902723009000201 0.00000902868690498528 0.00000903629897815167 0.000009075731765904384 0.000009015378415165386 0.000009179589713065385
          0.000002711917887460093 0.0000027159350807830226 0.000002722918945318614 0.000004159700435851536 0.000004159310304084947 0.000004161995685075085
          0.00000325164017422687 0.0000032520724022719706 0.000003248012464883756 0.0000048802670735979764 0.0000048763421176161915 0.000004868619537230911
          0.000003974029308983092 0.0000039699023079488725 0.000003953891435956925 0.000004882479210231462 0.000004873741564168194 0.000004847445161974941
          0.00000594369066445479 0.000005931510129203793 0.0000058994403058237 0.0000070486765285890965 0.000007037188922119628 0.0000070084932066510855
          0.000008004507362939268 0.000008000651969686412 0.000007988347088257565 0.000007805843858215351 0.000008073242837606988 0.00000779964904231955
          0.00000807486532705249 0.000007779938718759639 0.00000806506773817161 0.000008594910088216224 0.000008828203820258567 0.00000861425628679495
          0.000008335241853861644 0.000008591041419755617 0.000008829191913741383 0.000008614005012377396 0.000008336012937290482 0.000008588569756108395
          0.000008831545472453694 0.000008615563911849521 0.000008333143110438442 0.000008860014871533046 0.000008861567984924891 0.000008866744049192483
          0.000008375030029812594 0.000008372757268794162 0.000008366481616804755 0.000009195821127248465 0.000009197025436466401 0.000009201401807439054
          0.00000649701333249486 0.000005713640035194753 0.000006492742185291008 0.000005712125738770539 0.000006478838810215745 0.000005706507702031023
          0.000005720016654891163 0.000005712930809668523 0.000005694671321136328 0.000007311339187650355 0.000007304728024110571 0.000007283658266620382
          0.0000066292256500532645 0.000006620172786623271 0.00000659349557412587 0.000007520787457153575 0.000007511800444403719 0.000007482067675677859
          0.000008273311551935218 0.00000826762145115992 0.000008243862902999533 0.000008771008436262983 0.000008768233646139365 0.000008758848301344439
          0.000008852127393646917 0.000008851117410045257 0.000008848676776197743 0.00000948023726185552 0.000009081354252963447 0.000009443396475304037
          0.000009481248555146752 0.000009081721077898494 0.000009443922793597787 0.000009484525225038538 0.000009083643933037594 0.000009445356942347578
        </DataArray>
        <DataArray type="Float64" Name="disp_y" format="ascii" RangeMin="-0.000008187407951466551" RangeMax="-0.000002537794022525628">
          -0.0000025383024808807745 -0.0000025380145808009493 -0.000002538250722598264 -0.000002537960339088423 -0.0000025380933439168403 -0.000002537794022525628
          -0.0000026482665528029363 -0.000002647808043298151 -0.000002648183242697173 -0.0000026477296733675954 -0.000002647968134439777 -0.0000026475006672260185
          -0.000002751648897325516 -0.0000027508386379350586 -0.0000027514473447366826 -0.000002750643391115696 -0.000002750971650399222 -0.000002750180083464469
          -0.0000028452820589382203 -0.0000028437430709583125 -0.000002844776223730388 -0.000002843343884752563 -0.000002843737602268692 -0.0000028423324945791755
          -0.000002926542476050252 -0.000002923726095807126 -0.000002924476730070382 -0.000002921970934832031 -0.0000029212703900019997 -0.0000029196863759208654
          -0.0000029950176585244112 -0.0000029900246499419986 -0.0000029876994786979757 -0.0000029829095454587912 -0.0000029709046619808193 -0.000002967495209480317
          -0.0000030698737753368547 -0.000003056650533273138 -0.0000030546619378873437 -0.0000030413570730548626 -0.0000030078602494631955 -0.0000029951905321737837
          -0.0000032116445580988766 -0.0000031828688099422114 -0.00000318072569521561 -0.0000031516547375012176 -0.0000030828931427484985 -0.0000030527489900269446
          -0.0000034835599540913286 -0.000003426685459222171 -0.0000034348241880674045 -0.0000033760768576885594 -0.0000032519933801711405 -0.000003185938812174809
          -0.000003931261158754885 -0.000003820134562194933 -0.000003867685294249314 -0.0000037545458325397375 -0.0000036071047872902242 -0.0000034708118227331356
          -0.0000025391622097456382 -0.0000025391085044848856 -0.0000025389650340791156 -0.0000026496207716136195 -0.000002649510147676541 -0.0000026493134807720807
          -0.0000027540533650460546 -0.0000027537943264736957 -0.000002753246126361985 -0.000002849918772153386 -0.0000028490500693735995 -0.000002847738545606094
          -0.0000029347674125298515 -0.0000029316898708377174 -0.000002925708871036933 -0.000003011134084728706 -0.00000300333267460458 -0.0000029827189704814055
          -0.0000031117354275388443 -0.000003096756937601694 -0.000003048327975780365 -0.0000032997994778453934 -0.0000032698893336799053 -0.0000031754408203726864
          -0.000003648643590709118 -0.0000036043909529368383 -0.0000034425729441775288 -0.000004242307512039371 -0.0000041883476397935605 -0.000003984956474940919
          -0.0000025405829410173783 -0.0000025405036374388516 -0.000002540371567167629 -0.000002651842580123005 -0.0000026516606602088957 -0.0000026514129799401726
          -0.0000027580791126695693 -0.0000027576173936631484 -0.000002756914721615199 -0.0000028576769261503303 -0.0000028560626401966383 -0.0000028534337646098266
          -0.0000029482823079901227 -0.0000029438184796900747 -0.000002933372886688429 -0.0000030423457355118786 -0.0000030343754077529267 -0.0000030090354792081833
          -0.000003188071415271805 -0.0000031732717868922786 -0.0000031230248437921702 -0.0000034495126307895538 -0.0000034215299750404693 -0.0000033334404882692494
          -0.0000039121074302486705 -0.000003874818706543487 -0.000003743366062315179 -0.0000046374707764463744 -0.000004599468276910524 -0.0000044743245202108634
          -0.000002542548602415441 -0.0000025423974510142316 -0.000002542219549683141 -0.000002654871770583588 -0.0000026545135002676213 -0.0000026540595902490873
          -0.000002763811759593875 -0.000002762831909357873 -0.0000027615301416897704 -0.000002868222433791575 -0.000002865326758020329 -0.0000028593805981754665
          -0.000002968947198343268 -0.0000029634790150009244 -0.0000029481524447579495 -0.000003096519153070982 -0.0000030884014376880643 -0.0000030585391058852586
          -0.0000033052306939495574 -0.000003290634739039044 -0.0000032395540120801195 -0.0000036603436830309363 -0.0000036354148057237805 -0.0000035574558659738348
          -0.000004243940471595336 -0.000004215195230738826 -0.0000041194019218307305 -0.000005086500666944054 -0.000005067838880260044 -0.000005018952030112681
          -0.000002545046564164756 -0.0000025447262607537106 -0.0000025443370077583677 -0.0000026587493311647072 -0.000002657983873067926 -0.000002657021938457869
          -0.000002771217434900769 -0.0000027691776283716106 -0.0000027654170135370566 -0.0000028815319713260402 -0.0000028773339550045808 -0.0000028672122995355002
          -0.0000030029185900026093 -0.0000029975704422399183 -0.0000029780075601931 -0.000003181133271628623 -0.000003172533740298007 -0.0000031391168857251757
          -0.0000034673940279645826 -0.0000034533051935817 -0.0000034038289412349125 -0.000003925200116786756 -0.000003904558193461298 -0.00000384049584353419
          -0.000004615124706768905 -0.0000045962214435394805 -0.000004537877884816747 -0.000005526069798106757 -0.000005519272559141645 -0.000005520870254192164
          -0.0000025480966143950778 -0.000002547446678985051 -0.000002546586299506643 -0.0000026635969051425517 -0.0000026620285386635928 -0.0000026591477834386325
          -0.000002779541187846001 -0.0000027762364572692165 -0.000002768831584244595 -0.000002901285364106042 -0.0000028971421988354694 -0.0000028834283234187313
          -0.00000305964441825658 -0.0000030539193854235525 -0.000003030344443714879 -0.0000033009173547930732 -0.0000032918469593506756 -0.000003256974896508154
          -0.000003674376148891719 -0.000003661233832618979 -0.0000036166243572157185 -0.000004231017122056513 -0.000004215645756501179 -0.000004168391576610382
          -0.0000049994250738649745 -0.000004988977370053667 -0.00000496354950649904 -0.000005914422360371267 -0.000005918143611937909 -0.000005953495830051491
          -0.0000025518378446337305 -0.0000025506210809202988 -0.000002548354864729534 -0.000002668723053088694 -0.0000026662356300450412 -0.0000026603148160515345
          -0.000002790757366598579 -0.0000027872746058765767 -0.000002776562314644883 -0.0000029371058603510205 -0.0000029326340459954406 -0.0000029147188272935685
          -0.0000031441711554320008 -0.0000031374495939780203 -0.0000031108516226889446 -0.000003457571601727246 -0.0000034480649906151224 -0.0000034142032517071966
          -0.000003920511209627386 -0.000003908833310053632 -0.000003872206614149709 -0.000004561941472968436 -0.000004551908817301377 -0.000004522369773016045
          -0.000005372185690308043 -0.000005369425270301815 -0.000005370809503267835 -0.000006256139968180742 -0.000006266205348135031 -0.000006317835274775508
          -0.0000025557756064616863 -0.0000025538352491955506 -0.0000025492672717334897 -0.000002675743928198671 -0.0000026727746177493533 -0.0000026638781919556304
          -0.0000028135266146706934 -0.0000028093328654084736 -0.000002794352596093379 -0.00000299508958249998 -0.000002988991786481136 -0.000002966695379630983
          -0.000003259065232304601 -0.0000032507913674504364 -0.000003222250747176151 -0.000003647861293987357 -0.0000036383024432284863 -0.000003607588680818262
          -0.000004194051170976783 -0.000004185194363342324 -0.00000415887826070998 -0.0000049008939608504084 -0.000004897161956068121 -0.000004885194611829654
          -0.000005720300611087107 -0.000005724081060659799 -0.000005744489968729646 -0.000006550083169581137 -0.000006561399984643001 -0.000006618332476035787
          -0.0000028536061459495983 -0.0000028482499932178146 -0.00000282804090026379 -0.0000030779059318699763 -0.0000030702736782524515 -0.000003043713294500847
          -0.0000034027400079339877 -0.00000339335613391849 -0.0000033643713554503326 -0.000003863704409331645 -0.000003854387947004838 -0.000003829603066709644
          -0.000004480176046165536 -0.000004473433746773171 -0.000004460571165835777 -0.000005233201362898966 -0.000005233405732099566 -0.000005240529031733422
          -0.000006042783895453535 -0.000006050679913021531 -0.000006087037397126324 -0.000006777031750530151 -0.000006792113256746278 -0.000006841175803709733
          -0.000006786951413179564 -0.000006783778557908675 -0.0000069383000513873935 -0.000006988698202050062 -0.00000680994602641363 -0.000006814403988379011
          -0.000006955832262202431 -0.000007005625933936903 -0.0000068472135924531385 -0.000006857878380459495 -0.00000700651025309933 -0.000007029411605001148
          -0.00000685611518298262 -0.0000070167872448500156 -0.0000068788349053803584 -0.000007029369015789796 -0.000006896858967221316 -0.000007053905391133512
          -0.000006681991001458264 -0.000006859158834853858 -0.000006723363198274164 -0.000006688525097550557 -0.000006884318090633943 -0.000006729838141347746
          -0.000006840207765653805 -0.000006908283672433539 -0.000006890795323027648 -0.000004421721920932831 -0.00000478550686955281 -0.00000471783019559872
          -0.0000045590777531712355 -0.000004354609944246741 -0.000004734857095611647 -0.00000465279727949349 -0.000004474821399347158 -0.000004059891513045721
          -0.000004508094834166045 -0.000004324800835870391 -0.000004102918392506732 -0.000005967048895167526 -0.0000063284606600751145 -0.000006284870178743249
          -0.000006013080277630705 -0.000006052741618675545 -0.000006469095742332065 -0.000006403187696894303 -0.000006039870690187667 -0.000005893932298561051
          -0.000006507095172620661 -0.00000589861890587709 -0.000006005606131643312 -0.000005103333577489237 -0.0000053112502753255355 -0.000004923811249827646
          -0.000004759577251178566 -0.000005082292142981024 -0.0000053000939418284205 -0.000004899931112058989 -0.000004722096490929227 -0.000005026483000142247
          -0.000005261886582489229 -0.000004791641033802834 -0.000004588854032246719 -0.0000063932738285152186 -0.000006245956441438816 -0.0000065930112430505726
          -0.000006662633278541863 -0.000006410250986336784 -0.000006255262698856706 -0.00000660493555348419 -0.000006680117340446145 -0.000006500181144611325
          -0.000006330139159009151 -0.000006682082371400773 -0.00000676154842895372 -0.000006767730096157556 -0.000006512442456773057 -0.000006781963299370577
          -0.000006523470868041314 -0.000006848029093841807 -0.0000065883918018338875 -0.000004699169365481492 -0.0000050310933086141 -0.000004654772069063267
          -0.000005022447630556035 -0.000004472381765705347 -0.000004945290972955311 -0.000006494898911978951 -0.000006507531331424141 -0.000006315839434588636
          -0.0000062222811955395585 -0.000006534470298486626 -0.000006527801644146943 -0.000006353431319457796 -0.000006258208859282259 -0.000006559908176093346
          -0.000006656022357467973 -0.000006518050715015562 -0.000006616223120108732 -0.000003957473141838627 -0.000004095597549126757 -0.000004181039726868657
          -0.000004016588689954803 -0.000003890309009647285 -0.000004028997533046688 -0.000004107810143812459 -0.000003942810624990645 -0.0000035985379598737243
          -0.000003749383040380024 -0.000003778122046042942 -0.0000036137552188820662 -0.0000050427517482441345 -0.000005064202744600638 -0.00000500972142942745
          -0.000005000475708559398 -0.000004822815150807647 -0.000004676258115161002 -0.0000070925268092771225 -0.000007288155386429133 -0.000007327736401434902
          -0.000007183715129449101 -0.000007109456416055343 -0.000007300087231651826 -0.000007337193304833494 -0.000007193945681626199 -0.000007146263909666081
          -0.000007326768866866651 -0.000007358798865381407 -0.000007219135082412908 -0.0000067357282461531435 -0.000007434996787042916 -0.000006682405262975694
          -0.000005859598123560022 -0.0000065761852162648684 -0.000007168267082714414 -0.000006451116496058355 -0.0000057603461695311555 -0.0000061406337501162535
          -0.000005960484800424246 -0.000005531608387265861 -0.000005532265906067112 -0.000006482280265148895 -0.0000064685644418984846 -0.000006575270713072969
          -0.000006625198713668626 -0.000006511118096565311 -0.000006494502089655578 -0.000006587224892734803 -0.0000066455199035940115 -0.000006621335077856514
          -0.0000067057106506956 -0.000006783468020394752 -0.000006809423781411343 -0.000005978049416140151 -0.000006048995397888743 -0.000005984544157985622
          -0.000006059516646572643 -0.0000060416812129145204 -0.000006130020249533564 -0.000004386279249074801 -0.000004327142989973439 -0.000004105266838057354
          -0.000006558693537324012 -0.00000662228595325745 -0.000006616145211176021 -0.000006653953660442105 -0.000006649901517526191 -0.000006408388052525485
          -0.000006543757299354585 -0.0000065393980305035554 -0.000006732058605844094 -0.000006326610128597552 -0.00000654894786409967 -0.000006732611726612346
          -0.00000592921158379624 -0.00000669180869637055 -0.000006873288806378882 -0.000005813503908160169 -0.000005868816391109282 -0.000005398343246325413
          -0.0000052856017065268925 -0.000005851246239216809 -0.000005927006887974841 -0.0000054435105222444295 -0.000005303861818095397 -0.000005896594134007681
          -0.000005920449361375961 -0.000005557468352490707 -0.000005291319134736437 -0.0000042314590852824005 -0.0000044649931988416955 -0.0000044666987624095755
          -0.000004142743467283068 -0.0000043648851412569344 -0.000004356067203697971 -0.000003763129137124019 -0.000003958222293624885 -0.000003915897486370196
          -0.000006861052722301139 -0.000006275432650417709 -0.000006876749312983086 -0.00000628455445356016 -0.0000069466337694664345 -0.000006349017234299799
          -0.000006220228943446454 -0.000006044152581318586 -0.00000635527212806618 -0.000005921648601561399 -0.000006158509497678966 -0.0000062978028332208576
          -0.000006480177544612687 -0.000006709921430423654 -0.0000065004778072697185 -0.000006728804735294838 -0.000006594761885978671 -0.0000068287821925728996
          -0.000006100860714373385 -0.0000056128226676111606 -0.000006259498795817174 -0.000006797820509727847 -0.000005859316799843462 -0.000005402696038110163
          -0.000006011288775596589 -0.000006512764035782139 -0.000004814951298768224 -0.000004636430756227393 -0.000005015281984043358 -0.00000516535538929556
          -0.000005744750581814339 -0.000005834676444217618 -0.0000054415862630347575 -0.000005747521352090515 -0.000005851614234811608 -0.000005439888497073148
          -0.000005776530416422363 -0.000005891543522713775 -0.000005409409549947919 -0.000006945932724564452 -0.000006872324086111721 -0.000006968101063542191
          -0.000006894203358377997 -0.00000703326861998644 -0.000006962858119862697 -0.000005583328400418795 -0.000005930487289881784 -0.0000055756617247118045
          -0.000005930232441860673 -0.0000055864079520088215 -0.0000059749387724027165 -0.000006354880010074041 -0.000006180913192458823 -0.000006379268724201997
          -0.000006236778473048452 -0.000006470205875507951 -0.000006323864179691943 -0.000006593104111335689 -0.000006877891096861526 -0.000006610151827003871
          -0.000006901124096766968 -0.000006695425833437719 -0.000006969735700968068 -0.000006882385174843546 -0.000006979022781772837 -0.0000069999951798379
          -0.0000069057256687107 -0.00000699466350512896 -0.000007013580626310361 -0.000006914989338291948 -0.000007011296538502702 -0.000007033914580716349
          -0.000007129334776322175 -0.000007231778301503858 -0.000006943332193412507 -0.000007142420471011394 -0.0000072458224730990205 -0.0000069605450031110346
          -0.0000071888055307458956 -0.000007285316652609096 -0.0000070261587156946195 -0.000004698197002041154 -0.000005110568412458217 -0.000004966892740210395
          -0.0000045695203519482185 -0.000004939497212923507 -0.000004807545545072731 -0.0000040883731957779015 -0.000004320757513236165 -0.000004200820238610243
          -0.000005495454812707918 -0.000005292983580702875 -0.000004494214397422727 -0.000007202810772289332 -0.000007166458481340054 -0.000007254022756838014
          -0.000007293750438167702 -0.000007210884261583921 -0.0000071754130029225784 -0.000007261857546901128 -0.00000730070929039807 -0.000007231121564198598
          -0.000007195896173057389 -0.000007281784512108362 -0.0000073192220909880475 -0.0000048667523678416215 -0.00000527340292109827 -0.00000474650823133394
          -0.000005127269745279498 -0.00000428292690013455 -0.00000460339438691664 -0.0000070809045932442295 -0.000007105272351962973 -0.000007091502368361806
          -0.000007115013760322403 -0.000007112637480930747 -0.000007135497971462659 -0.0000067199857645443615 -0.000005797973868799823 -0.00000645225299226385
          -0.000005628603547753653 -0.000005301328544362554 -0.000005036015312571973 -0.000005333696508931347 -0.0000056104525790421525 -0.0000053089087440672515
          -0.000005582969949551493 -0.000005157829232489334 -0.000005721941471100953 -0.000007156824037809769 -0.00000716665419357253 -0.00000718755280191195
          -0.0000069802316541587775 -0.000006996658159154276 -0.0000070431789674021876 -0.000005469265487495849 -0.000005297587149318089 -0.000005562959622053401
          -0.000005442018479328357 -0.000005803500381712786 -0.000005953818756172915 -0.000006774720630913284 -0.000006789418748388574 -0.000006861167108457297
          -0.00000630956222815055 -0.0000063108008618000305 -0.000006585138677137835 -0.0000067634028446792205 -0.000006768137245671772 -0.0000069277496324187276
          -0.000007050819149085001 -0.00000707183356326003 -0.0000071230694847258355 -0.00000736123913857304 -0.0000073683452155575845 -0.000007386231705092889
          -0.000005986605493131599 -0.000006228922995254461 -0.000006497217496422407 -0.0000058461203685307305 -0.000005808251497663264 -0.000006256897876307963
          -0.000007525264194878399 -0.0000071969047690169545 -0.000005516705579711275 -0.00000389916570140125 -0.000003830481919527725 -0.0000035323780752154352
          -0.000007379191143116657 -0.000007385446661562843 -0.000007401796274569817 -0.0000063438886011167304 -0.0000063787299312037655 -0.0000064944229452030335
          -0.0000035856819316181647 -0.000003578912880300374 -0.000003558588691318006 -0.000004274438585410269 -0.000004271092627759117 -0.000004260904562374913
          -0.000004098469830282207 -0.000004093146207810692 -0.0000040769772605949375 -0.000004897720606661552 -0.000004896374550565905 -0.000004892377188914947
          -0.0000047358733342363585 -0.000004733618067668893 -0.000004726130727094925 -0.0000054748659208674176 -0.000005476963969111832 -0.000005482449123455935
          -0.0000062502347041667575 -0.000006258372076976802 -0.000006280338948513312 -0.000006955779045736964 -0.000006967225728254253 -0.0000070069325257414045
          -0.0000074846090585586825 -0.0000074954883668589905 -0.0000075337698089373245 -0.000007277715408492691 -0.000007408882950234953 -0.000007290826387230705
          -0.000007420765032433209 -0.000007330662052365942 -0.000007454861094955713 -0.000007708183216509153 -0.000007776722934517913 -0.000007542800021265138
          -0.00000749341361114314 -0.000007714826894652266 -0.00000778115355810002 -0.0000075493032241460045 -0.00000749999327515185 -0.000007729617284609838
          -0.000007793162801358425 -0.000007566773348452593 -0.000007523504592888007 -0.0000075773627921060724 -0.000007582883095261346 -0.000007597607991817894
          -0.00000763607287018837 -0.0000076443179820916 -0.000007666719337627911 -0.000007906892490294871 -0.000007910406845135098 -0.000007920271076056794
          -0.000005668108394606907 -0.000005018999780252146 -0.00000567006702415003 -0.000005018704756043562 -0.00000567617172667447 -0.000005018010721965306
          -0.000005589877205061474 -0.000005591351354335462 -0.000005595969145412963 -0.00000632003535707646 -0.000006324380236212443 -0.0000063377922376154755
          -0.0000063031680339164325 -0.000006307980830069839 -0.000006323080374137163 -0.0000069643244351520934 -0.000006972147645315157 -0.000006997075411560238
          -0.000007490327523026321 -0.000007499193213268742 -0.000007528171390614894 -0.000007823983888035818 -0.000007830434302701622 -0.000007850904150377429
          -0.000007912784777680403 -0.000007917487124072804 -0.000007929056651472013 -0.000008176204529293271 -0.000007986018322029936 -0.000008171273249599155
          -0.000008178785189919396 -0.000007989306706698925 -0.00000817332242367677 -0.000008187407951466551 -0.0000079983960344329 -0.000008179737683848964
        </DataArray>
        <DataArray type="Float64" Name="disp_z" format="ascii" RangeMin="-0.00000550727141621133" RangeMax="9.470865411968024e-7">
          0 0 -6.405766740846038e-8 -6.407731148436965e-8 -1.281172656026814e-7 -1.281447151548758e-7
          0 0 -6.436765185943057e-8 -6.443229199622417e-8 -1.287963618288615e-7 -1.2887907586137942e-7
          0 0 -6.481718309070543e-8 -6.49676934223831e-8 -1.2987704834557767e-7 -1.300799908972334e-7
          0 0 -6.553749703527792e-8 -6.58428098143564e-8 -1.3197667774379015e-7 -1.3227776177853214e-7
          0 0 -6.617132225383434e-8 -6.648074324220877e-8 -1.3540890645867842e-7 -1.3583409953464533e-7
          0 0 -7.01623883774957e-8 -6.812608535706663e-8 -1.4813343839776415e-7 -1.441628513973308e-7
          0 0 -1.118633921036485e-7 -1.044183195660576e-7 -2.447467241276273e-7 -2.307716154707271e-7
          0 0 -2.398478483819665e-7 -2.3089245092336675e-7 -5.072186977331852e-7 -4.915845680092725e-7
          0 0 -5.263096448161987e-7 -5.236493869310356e-7 -0.0000010528589240371972 -0.0000010503035750114894
          0 0 -0.0000011794990577837964 -0.0000012387784713431034 -0.0000022777927161834486 -0.0000023814645226879502
          0 -6.398673866625011e-8 -1.280247944217939e-7 0 -6.415432756353013e-8 -1.2854940623208164e-7
          0 -6.434988282869982e-8 -1.2923809100954134e-7 0 -6.464972950184222e-8 -1.312668969808996e-7
          0 -6.597486523144637e-8 -1.346426275383012e-7 0 -7.713999584608854e-8 -1.641447504774883e-7
          0 -1.332036078372427e-7 -2.840261574845995e-7 0 -2.654560082541144e-7 -5.518390822065897e-7
          0 -5.30188709895302e-7 -0.0000010543935096983432 0 -0.0000010323259451771663 -0.000002009485293442144
          0 -6.383045895893298e-8 -1.2784691482084544e-7 0 -6.376080420745318e-8 -1.2807178635832562e-7
          0 -6.349648571054974e-8 -1.2835328602381917e-7 0 -6.371417355320626e-8 -1.3012968876700297e-7
          0 -6.720633352929412e-8 -1.383786789407867e-7 0 -9.231523165824552e-8 -1.9737101144486556e-7
          0 -1.6560527376281515e-7 -3.4369447065519263e-7 0 -3.024740771398929e-7 -6.14699734430816e-7
          0 -5.310335092401814e-7 -0.0000010505003721122236 0 -8.484787342462824e-7 -0.0000016718199884337765
          0 -6.35591271555374e-8 -1.2757018790303918e-7 0 -6.315041239068196e-8 -1.274022465085332e-7
          0 -6.258709461063943e-8 -1.2766005346457976e-7 0 -6.36935343217798e-8 -1.3000027635911044e-7
          0 -7.34553437055746e-8 -1.5621738868493475e-7 0 -1.1794108084142498e-7 -2.47340672344161e-7
          0 -2.0541538481147838e-7 -4.1669473245552587e-7 0 -3.422391515904748e-7 -6.816736939024285e-7
          0 -5.234130323157939e-7 -0.0000010282333220247758 0 -6.643086780073861e-7 -0.0000013315172982791216
          0 -6.319274046026653e-8 -1.2722167078120305e-7 0 -6.254174944406821e-8 -1.270582758520453e-7
          0 -6.268442079823584e-8 -1.2791635948474674e-7 0 -6.618943298071738e-8 -1.3982077814045612e-7
          0 -9.072751037539071e-8 -1.9405982186995937e-7 0 -1.518239678492344e-7 -3.111870941076644e-7
          0 -2.4781800590551826e-7 -4.933934795959217e-7 0 -3.7460132724699833e-7 -7.348618909446705e-7
          0 -5.013257053564579e-7 -9.80885741798697e-7 0 -5.049176213194358e-7 -0.0000010337935304036402
          0 -6.291557071230237e-8 -1.2721026432526496e-7 0 -6.296812877697844e-8 -1.279960224090785e-7
          0 -6.520808902880661e-8 -1.3560273239449152e-7 0 -7.902265316266913e-8 -1.692932671984331e-7
          0 -1.2066625915423273e-7 -2.5010600387007686e-7 0 -1.9140969999130668e-7 -3.8404445254373273e-7
          0 -2.864133667731837e-7 -5.624706087060559e-7 0 -3.902098760836016e-7 -7.594660282600336e-7
          0 -4.6140447399898903e-7 -9.055171250135837e-7 0 -3.7534420138181896e-7 -7.80539102929118e-7
          0 -6.361092342600124e-8 -1.2830683121179845e-7 0 -6.634326250971344e-8 -1.34488687602509e-7
          0 -7.726256186555349e-8 -1.6008866339792263e-7 0 -1.0760169919515464e-7 -2.191102193583343e-7
          0 -1.6067227558017407e-7 -3.203858046608242e-7 0 -2.3322912909711412e-7 -4.579945815101309e-7
          0 -3.144596722494875e-7 -6.131918556509171e-7 0 -3.832818727369878e-7 -7.481970999848597e-7
          0 -4.0122955985707695e-7 -7.987003560114211e-7 0 -2.7128201038412713e-7 -5.79162519537542e-7
          0 -6.701120101379713e-8 -1.3307713151349418e-7 0 -7.751242590694522e-8 -1.5455665257463126e-7
          0 -1.0354089439547906e-7 -2.0312657233084972e-7 0 -1.473423663234279e-7 -2.8520115107750026e-7
          0 -2.0646553756154569e-7 -3.978405000286316e-7 0 -2.7123872487632077e-7 -5.241956920511922e-7
          0 -3.2659111636052167e-7 -6.376402750653428e-7 0 -3.524666034059461e-7 -6.993943043161931e-7
          0 -3.232711277872433e-7 -6.660840112843375e-7 0 -1.8827029878862047e-7 -4.1662943306915463e-7
          0 -1.3265577915310638e-7 -2.682040396674226e-7 0 -1.8507275837060844e-7 -3.700299387438698e-7
          0 -2.439601135015146e-7 -4.834667555995106e-7 0 -2.945026823975395e-7 -5.808738526287009e-7
          0 -3.2015063843827703e-7 -6.312501315089801e-7 0 -3.076643094359738e-7 -6.073438138300344e-7
          0 -2.4775387222023163e-7 -4.968549455129039e-7 0 -1.3487641102842087e-7 -2.7443154018483744e-7
          0 0 0 0 4.312570320592741e-9 -1.3308427877605506e-8
          -2.2692418442810782e-8 -1.1737193013409067e-8 -2.4738136462260743e-8 -2.95134175350632e-8 -5.2019168121951216e-8 -3.14944132231236e-8
          0 0 2.3740282942101536e-10 -4.861371487481836e-9 7.183968374230528e-9 -1.3778488964119492e-8
          0 0 0 7.21068938146675e-9 8.083821785717588e-9 1.4029059870052153e-8
          7.729801311277083e-8 6.5125774821780425e-9 -5.946082220903267e-8 0 0 0
          0 -0.0000014669175525550217 -0.0000012848550532584997 -0.000001612831788594139 -0.0000016681618895521906 -0.000002822963470979498
          -0.0000025009417760799497 -0.0000031427999261667975 -0.000003222170953092985 0 0 0
          0 -2.3816463092555348e-7 -2.056598837299821e-7 7.048906672837278e-7 -1.5184032041822128e-7 -5.978829230240048e-7
          -3.4493321518714025e-7 3.0899130724297383e-7 -8.592742923064475e-7 0 0 0
          0 -7.448397934016772e-7 -7.158080552983276e-7 -9.604251403148731e-7 -9.503309561164781e-7 -0.000001475995159267001
          -0.0000014440392101785338 -0.0000018956210172896268 -0.0000018625216953271487 0 0 0
          0 -2.1105995948363543e-7 -2.715037983825229e-7 -1.6492532482525286e-7 -1.1552326020571599e-7 -4.695055489888772e-7
          -5.887539475346612e-7 -3.9005726893269045e-7 -2.9863472789550024e-7 0 0 -1.455255843743486e-7
          -2.0018439345674185e-7 -3.110243341843593e-7 -4.5196646579335147e-7 0 0 -0.0000011362042011210748
          -9.850725111674883e-7 -0.000002193700572804594 -0.0000019672199176848267 0 0 0
          0 3.8995130957828914e-9 1.2529376971702054e-8 -9.047034160389345e-9 8.474719278296858e-9 -7.22751176009176e-8
          5.898533531409677e-8 5.297654942316852e-9 -1.0341550228863866e-7 0 0 0
          0 -0.000001376662771016642 -0.0000013472691927861455 -0.000001569844869232443 -0.0000015172659253551135 -0.000002636933760451131
          -0.000002574100349136726 -0.0000030047606969211836 -0.0000029128997147112736 0 0 -0.0000012427347810872474
          -0.0000015494003058072869 -0.0000024179379559944784 -0.000003101990671750448 0 0 0
          0 -2.8749523730953232e-8 -3.8322671720347566e-8 -2.8367308408437104e-8 -2.024010540972274e-8 -6.516135142462885e-8
          -7.930532529330343e-8 -5.975700172231054e-8 -4.344666277752001e-8 0 0 0
          0 -0.0000017170732738386096 -0.00000236599497665684 -0.000002111012518058493 -0.0000015995478304449686 -0.0000034743236584993945
          -0.000004709768470121733 -0.000004097727535947359 -0.0000032028616061230296 0 0 0
          0 1.7093351054265803e-8 -3.0087843213461023e-9 1.7197942283653607e-8 2.767082189234178e-8 -1.4308883641350466e-7
          -2.9655475161795127e-8 5.2469177699492876e-8 7.234028544673853e-8 0 0 -3.702416698118566e-7
          -3.423382188534653e-7 -7.90712333994842e-7 -7.752287051423978e-7 0 -0.0000011904228012197562 -0.000002301040011207094
          0 0 1.0155860359006995e-8 -7.121953786836142e-8 -3.4595750363747044e-8 9.470865411968024e-7
          0 0 0 9.127097292773268e-8 -5.195222624244052e-8 -1.6089898974549444e-8
          7.542188461424109e-7 -2.1918118214683447e-7 -7.914240977390802e-8 0 0 0
          0 -4.740998454713653e-7 -3.7669182644354957e-7 -7.308820199165415e-7 -8.72579401505577e-7 -0.0000010768121076267847
          -9.676285658116706e-7 -0.0000015836968412777405 -0.0000017607743436678115 0 0 0
          -0.0000016536640713855266 -0.00000173800137194202 -0.0000018173325290387942 -0.0000031432626779476686 -0.0000033628333448858445 -0.000003500934120812256
          0 0 -1.1285589699552786e-7 -2.7238605483418113e-7 -2.545112767540319e-7 -5.939459699459687e-7
          0 0 2.5221305883879384e-7 1.0710521667562424e-7 5.11345165768464e-8 -4.1013504529384533e-7
          0 0 -1.1900141293113124e-7 -6.514073037867028e-8 -2.995169860222932e-7 -1.6098310643200273e-7
          0 0 0 0 -0.000002207960558599663 -0.0000021222438751928853
          -0.0000023050354000789588 -0.000002439818771305233 -0.000004240521159463668 -0.0000040987526990565726 -0.000004537015468792071 -0.000004772224338129592
          0 0 0 -5.049295925288409e-7 -4.699251115253202e-7 -7.023768627312591e-7
          -0.0000010608356490761094 -0.000001026352126262089 -0.0000014471663351788316 0 0 -3.5705319206572715e-8
          -2.8970480004449164e-8 -8.044906321860815e-8 -6.936231108034379e-8 0 0 -5.288560370387334e-7
          -3.8169995431915193e-7 -0.0000010822350640771811 -7.986497585939363e-7 0 0 -2.1494122615842265e-7
          -2.699396953210277e-7 -5.048603988110608e-7 -6.138646165916308e-7 0 0 -1.132310098099304e-7
          -6.770440837813183e-8 -3.0197434860605064e-7 -1.5455090603103102e-7 0 0 0
          2.3203820410647455e-8 3.902192369678747e-9 7.398542405228377e-9 -1.5425981062449045e-8 -1.2923357293747473e-9 7.171310707952584e-9
          0 0 0 -7.83300998015136e-8 -5.298347922285669e-8 -7.8460136497379e-8
          -1.730765181694648e-7 -1.1302786245234041e-7 -1.7101930355551088e-7 0 0 0
          -0.0000018523865443885234 -0.0000019847214336818403 -0.0000019375798027513873 -0.0000035652824925006964 -0.000003832720136516532 -0.000003764383045645923
          0 -0.0000020508553618021884 -0.000003944799968637101 0 0 0
          0 -8.848840374295434e-10 -4.768829029384331e-9 -9.978749447666512e-9 -4.918902029831866e-9 -3.3116248523726556e-9
          -1.0571851897578456e-8 -2.051410606738241e-8 -9.447193237635117e-9 0 0 -0.0000018365168622420618
          -0.000001939758475647555 -0.00000351202642999151 -0.000003795526065576103 0 0 -8.799990226210976e-10
          3.231298206832909e-9 -5.107892269355917e-9 2.4485378530157947e-9 0 0 -0.000002380504893141426
          -0.0000019548034530057374 -0.000004728304393906322 -0.0000038313500149549174 0 0 -0.000001229231788697942
          -0.0000011627490902547916 -0.0000024571694623699564 -0.000002371336707208756 0 -1.0487558898785028e-8 -2.190860727664443e-8
          0 -1.092241036114661e-7 -2.3578578578932147e-7 0 0 -6.736333747422623e-7
          -3.939155378509755e-7 -0.0000013772167629283953 -9.291121941237994e-7 0 -1.0655878271831638e-7 -2.3513994460123024e-7
          0 -7.523851978368197e-8 7.381290837926822e-7 0 2.9298341515271432e-8 7.66761281698497e-8
          0 -4.6501447167753447e-8 -1.0446959298737834e-7 0 -1.831522051148361e-8 -3.913893135426278e-8
          0 -6.222961169547428e-8 5.19612994888331e-7 0 -8.650373075391845e-7 -0.0000018327928417032013
          0 -0.0000027866104078865626 -0.00000550727141621133 0 -0.000001371507477068694 -0.0000026324982664643863
          0 -8.145884427884793e-9 -1.8410819012162054e-8 0 3.445440872605064e-9 -8.990122054974876e-8
          0 -2.08878064123439e-7 -4.119090636185309e-7 0 -2.2224880581335494e-7 -4.435376642726605e-7
          0 -2.443478790256237e-7 -4.815726885221027e-7 0 -2.359873645785685e-7 -4.708527374919291e-7
          0 -2.675362312051891e-7 -5.282689742970092e-7 0 -2.699495879029312e-7 -5.353376873726008e-7
          0 -2.4400394480214325e-7 -4.868847404052689e-7 0 -1.8368007786516446e-7 -3.74768086193739e-7
          0 -9.317599087745312e-8 -1.9163615715947793e-7 0 0 -8.791711321265141e-8
          -6.931474837935413e-8 -1.9630092510254384e-7 -1.4394133623992945e-7 0 0 0
          0 -4.811470476454664e-8 -3.758618689766163e-8 -3.466929055555304e-8 -4.9834230452850074e-8 -9.850107002030877e-8
          -7.500749918044763e-8 -7.314193251089527e-8 -9.84329419155429e-8 0 -2.4525595966130757e-8 -4.5914219595893294e-8
          0 -5.984909989281043e-8 -1.1775357638183923e-7 0 -2.3509670546871603e-8 -4.781211045207494e-8
          0 0 -2.1523883860789522e-7 -2.2076468275865815e-7 -4.279760928365403e-7 -4.3861931595089416e-7
          0 -2.3561996181423653e-7 -4.699833660815686e-7 0 -1.9562461045749316e-7 -3.897416950485182e-7
          0 -2.1695532402748371e-7 -4.3276335106953267e-7 0 -1.7748708223799364e-7 -3.5454371949337397e-7
          0 -1.2238722746440675e-7 -2.454995378338058e-7 0 -7.0790907112266e-8 -1.4195521616833887e-7
          0 -5.240920244078867e-8 -1.0725410973946815e-7 0 0 0
          -3.0724834977050174e-8 -4.1976117345653737e-8 -4.439691811498429e-8 -6.036247043238085e-8 -8.442294254816304e-8 -8.934390411286936e-8
        </DataArray>
      </PointData>
      <CellData>
        <DataArray type="Int32" Name="libmesh_elem_id" format="ascii" RangeMin="40" RangeMax="1373">
          40 41 42 43 44 45
          46 47 48 49 50 51
          52 53 54 55 56 57
          98 99 100 101 102 103
          104 105 106 107 108 109
          110 111 112 113 114 115
          156 157 158 159 160 161
          162 163 164 165 166 167
          168 169 170 171 172 173
          214 215 216 217 218 219
          220 221 222 223 224 225
          226 227 228 229 230 231
          272 273 274 275 276 277
          278 279 280 281 282 283
          284 285 286 287 288 289
          330 331 332 333 334 335
          336 337 338 339 340 341
          342 343 344 345 346 347
          388 389 390 391 392 393
          394 395 396 397 398 399
          400 401 402 403 404 405
          446 447 448 449 450 451
          452 453 454 455 456 457
          458 459 460 461 462 463
          508 509 510 511 512 513
          514 515 516 517 518 519
          520 521 522 523 524 525
          526 527 528 529 530 531
          532 533 534 535 536 537
          538 539 540 541 542 543
          544 545 546 547 548 549
          550 551 552 553 554 555
          556 557 558 559 560 561
          562 563 564 565 566 567
          568 569 570 571 572 573
          574 575 576 577 578 579
          580 581 582 583 584 585
          586 587 588 589 590 591
          592 593 594 595 596 597
          598 599 600 601 602 603
          604 605 606 607 608 609
          610 611 612 613 614 615
          616 617 618 619 620 621
          622 623 624 625 626 627
          628 629 630 631 632 633
          634 635 636 637 638 639
          640 641 642 643 644 645
          646 647 648 649 650 651
          652 653 654 655 656 657
          658 659 660 661 662 663
          664 665 666 667 668 669
          670 671 672 673 674 675
          676 677 678 679 680 681
          682 683 684 685 686 687
          688 689 690 691 692 693
          694 695 696 697 698 699
          700 701 702 703 704 705
          706 707 708 709 710 711
          712 713 714 715 716 717
          718 719 720 721 722 723
          724 725 726 727 728 729
          730 731 732 733 734 735
          736 737 738 739 740 741
          742 743 744 745 746 747
          748 749 750 751 752 753
          754 755 756 757 758 759
          760 761 762 763 764 765
          766 767 768 769 770 771
          1186 1187 1188 1189 1190 1191
          1204 1205 1206 1207 1208 1209
          1222 1223 1224 1225 1240 1241
          1242 1243 1258 1259 1260 1261
          1276 1277 1278 1279 1300 1301
          1304 1305 1306 1307 1314 1315
          1316 1317 1326 1327 1328 1329
          1330 1331 1338 1339 1344 1345
          1348 1349 1356 1357 1358 1359
          1360 1361 1366 1367 1372 1373
        </DataArray>
        <DataArray type="Int32" Name="subdomain_id" format="ascii" RangeMin="103" RangeMax="143">
          103 103 103 103 103 103
          103 103 103 103 103 103
          103 103 103 103 103 103
          103 103 103 103 103 103
          103 103 103 103 103 103
          103 103 103 103 103 103
          103 103 103 103 103 103
          103 103 103 103 103 103
          103 103 103 103 103 103
          103 103 103 103 103 103
          103 103 103 103 103 103
          103 103 103 103 103 103
          103 103 103 103 103 103
          103 103 103 103 103 103
          103 103 103 103 103 103
          103 103 103 103 103 103
          103 103 103 103 103 103
          103 103 103 103 103 103
          103 103 103 103 103 103
          103 103 103 103 103 103
          103 103 103 103 103 103
          103 103 103 103 103 103
          103 103 103 103 103 103
          103 103 103 103 103 103
          103 103 103 103 103 103
          103 103 103 103 103 103
          103 103 104 104 104 104
          104 104 104 104 104 104
          104 104 104 104 104 104
          104 104 104 104 104 104
          104 104 104 104 104 104
          104 104 104 104 104 104
          104 104 104 104 104 104
          104 104 104 104 104 104
          104 104 104 104 104 104
          104 104 104 104 104 104
          104 104 104 104 104 104
          104 104 104 104 104 104
          104 104 104 104 104 104
          104 104 104 104 104 104
          104 104 104 104 104 104
          104 104 104 104 104 104
          104 104 104 104 104 104
          104 104 104 104 104 104
          104 104 104 104 104 104
          104 104 104 104 104 104
          104 104 104 104 104 104
          104 104 104 104 104 104
          104 104 104 104 104 104
          104 104 104 104 104 104
          104 104 104 104 104 104
          104 104 104 104 104 104
          104 104 104 104 104 104
          104 104 104 104 104 104
          104 104 104 104 104 104
          104 104 104 104 104 104
          104 104 104 104 104 104
          104 104 104 104 104 104
          104 104 104 104 104 104
          141 141 141 141 141 141
          141 141 141 141 141 141
          141 141 141 141 141 141
          141 141 141 141 141 141
          141 141 141 141 141 141
          141 141 141 141 141 141
          141 141 141 141 141 141
          141 141 141 141 141 141
          141 141 141 141 141 141
          105 105 105 105 105 105
          105 105 105 105 105 105
          105 105 105 105 105 105
          105 105 105 105 105 105
          105 105 105 105 106 106
          106 106 106 106 106 106
          106 106 106 106 106 106
          106 106 106 106 106 106
          106 106 106 106 106 106
          143 143 143 143 143 143
        </DataArray>
        <DataArray type="Int32" Name="processor_id" format="ascii" RangeMin="5" RangeMax="5">
          5 5 5 5 5 5
          5 5 5 5 5 5
          5 5 5 5 5 5
          5 5 5 5 5 5
          5 5 5 5 5 5
          5 5 5 5 5 5
          5 5 5 5 5 5
          5 5 5 5 5 5
          5 5 5 5 5 5
          5 5 5 5 5 5
          5 5 5 5 5 5
          5 5 5 5 5 5
          5 5 5 5 5 5
          5 5 5 5 5 5
          5 5 5 5 5 5
          5 5 5 5 5 5
          5 5 5 5 5 5
          5 5 5 5 5 5
          5 5 5 5 5 5
          5 5 5 5 5 5
          5 5 5 5 5 5
          5 5 5 5 5 5
          5 5 5 5 5 5
          5 5 5 5 5 5
          5 5 5 5 5 5
          5 5 5 5 5 5
          5 5 5 5 5 5
          5 5 5 5 5 5
          5 5 5 5 5 5
          5 5 5 5 5 5
          5 5 5 5 5 5
          5 5 5 5 5 5
          5 5 5 5 5 5
          5 5 5 5 5 5
          5 5 5 5 5 5
          5 5 5 5 5 5
          5 5 5 5 5 5
          5 5 5 5 5 5
          5 5 5 5 5 5
          5 5 5 5 5 5
          5 5 5 5 5 5
          5 5 5 5 5 5
          5 5 5 5 5 5
          5 5 5 5 5 5
          5 5 5 5 5 5
          5 5 5 5 5 5
          5 5 5 5 5 5
          5 5 5 5 5 5
          5 5 5 5 5 5
          5 5 5 5 5 5
          5 5 5 5 5 5
          5 5 5 5 5 5
          5 5 5 5 5 5
          5 5 5 5 5 5
          5 5 5 5 5 5
          5 5 5 5 5 5
          5 5 5 5 5 5
          5 5 5 5 5 5
          5 5 5 5 5 5
          5 5 5 5 5 5
          5 5 5 5 5 5
          5 5 5 5 5 5
          5 5 5 5 5 5
          5 5 5 5 5 5
          5 5 5 5 5 5
          5 5 5 5 5 5
          5 5 5 5 5 5
          5 5 5 5 5 5
          5 5 5 5 5 5
          5 5 5 5 5 5
          5 5 5 5 5 5
          5 5 5 5 5 5
          5 5 5 5 5 5
          5 5 5 5 5 5
          5 5 5 5 5 5
          5 5 5 5 5 5
          5 5 5 5 5 5
          5 5 5 5 5 5
        </DataArray>
      </CellData>
      <Points>
        <DataArray type="Float64" Name="Points" NumberOfComponents="3" format="ascii" RangeMin="0.0082758620689774" RangeMax="0.013139935358843113">
          0.00011111111111123 0.0082758620689751 0 0 0.0082758620689774 0
          0.00011111111111123 0.0082758620689751 0.00015 0 0.0082758620689774 0.00015
          0.00011111111111123 0.0082758620689751 0.0003 0 0.0082758620689774 0.0003
          0.00011111111111125 0.0086896551724226 0 0 0.0086896551724246 0
          0.00011111111111125 0.0086896551724226 0.00015 0 0.0086896551724246 0.00015
          0.00011111111111125 0.0086896551724226 0.0003 0 0.0086896551724246 0.0003
          0.00011111111111126 0.0091034482758696 0 0 0.0091034482758716 0
          0.00011111111111126 0.0091034482758696 0.00015 0 0.0091034482758716 0.00015
          0.00011111111111126 0.0091034482758696 0.0003 0 0.0091034482758716 0.0003
          0.00011111111111128 0.0095172413793168 0 0 0.0095172413793185 0
          0.00011111111111128 0.0095172413793168 0.00015 0 0.0095172413793185 0.00015
          0.00011111111111128 0.0095172413793168 0.0003 0 0.0095172413793185 0.0003
          0.00011111111111129 0.0099310344827632 0 0 0.0099310344827645 0
          0.00011111111111129 0.0099310344827632 0.00015 0 0.0099310344827645 0.00015
          0.00011111111111129 0.0099310344827632 0.0003 0 0.0099310344827645 0.0003
          0.00011111111111131 0.01034482758621 0 0 0.01034482758621 0
          0.00011111111111131 0.01034482758621 0.00015 0 0.01034482758621 0.00015
          0.00011111111111131 0.01034482758621 0.0003 0 0.01034482758621 0.0003
          0.00011111111111132 0.010758620689657 0 0 0.010758620689657 0
          0.00011111111111132 0.010758620689657 0.00015 0 0.010758620689657 0.00015
          0.00011111111111132 0.010758620689657 0.0003 0 0.010758620689657 0.0003
          0.00011111111111134 0.011172413793104 0 0 0.011172413793104 0
          0.00011111111111134 0.011172413793104 0.00015 0 0.011172413793104 0.00015
          0.00011111111111134 0.011172413793104 0.0003 0 0.011172413793104 0.0003
          0.00011111111111135 0.011586206896551 0 0 0.011586206896551 0
          0.00011111111111135 0.011586206896551 0.00015 0 0.011586206896551 0.00015
          0.00011111111111135 0.011586206896551 0.0003 0 0.011586206896551 0.0003
          0.00011111111111137 0.012 0 0 0.012 0
          0.00011111111111137 0.012 0.00015 0 0.012 0.00015
          0.00011111111111137 0.012 0.0003 0 0.012 0.0003
          0.00022222222222243 0.0082758620689727 0 0.00022222222222243 0.0082758620689727 0.00015
          0.00022222222222243 0.0082758620689727 0.0003 0.00022222222222246 0.0086896551724206 0
          0.00022222222222246 0.0086896551724206 0.00015 0.00022222222222246 0.0086896551724206 0.0003
          0.00022222222222249 0.0091034482758676 0 0.00022222222222249 0.0091034482758676 0.00015
          0.00022222222222249 0.0091034482758676 0.0003 0.00022222222222253 0.0095172413793151 0
          0.00022222222222253 0.0095172413793151 0.00015 0.00022222222222253 0.0095172413793151 0.0003
          0.00022222222222256 0.0099310344827619 0 0.00022222222222256 0.0099310344827619 0.00015
          0.00022222222222256 0.0099310344827619 0.0003 0.0002222222222226 0.010344827586209 0
          0.0002222222222226 0.010344827586209 0.00015 0.0002222222222226 0.010344827586209 0.0003
          0.00022222222222263 0.010758620689656 0 0.00022222222222263 0.010758620689656 0.00015
          0.00022222222222263 0.010758620689656 0.0003 0.00022222222222266 0.011172413793103 0
          0.00022222222222266 0.011172413793103 0.00015 0.00022222222222266 0.011172413793103 0.0003
          0.0002222222222227 0.011586206896551 0 0.0002222222222227 0.011586206896551 0.00015
          0.0002222222222227 0.011586206896551 0.0003 0.00022222222222273 0.012 0
          0.00022222222222273 0.012 0.00015 0.00022222222222273 0.012 0.0003
          0.00033333333333363 0.0082758620689704 0 0.00033333333333363 0.0082758620689704 0.00015
          0.00033333333333363 0.0082758620689704 0.0003 0.00033333333333368 0.0086896551724185 0
          0.00033333333333368 0.0086896551724185 0.00015 0.00033333333333368 0.0086896551724185 0.0003
          0.00033333333333373 0.0091034482758657 0 0.00033333333333373 0.0091034482758657 0.00015
          0.00033333333333373 0.0091034482758657 0.0003 0.00033333333333379 0.0095172413793133 0
          0.00033333333333379 0.0095172413793133 0.00015 0.00033333333333379 0.0095172413793133 0.0003
          0.00033333333333384 0.0099310344827607 0 0.00033333333333384 0.0099310344827607 0.00015
          0.00033333333333384 0.0099310344827607 0.0003 0.00033333333333389 0.010344827586208 0
          0.00033333333333389 0.010344827586208 0.00015 0.00033333333333389 0.010344827586208 0.0003
          0.00033333333333394 0.010758620689656 0 0.00033333333333394 0.010758620689656 0.00015
          0.00033333333333394 0.010758620689656 0.0003 0.000333333333334 0.011172413793103 0
          0.000333333333334 0.011172413793103 0.00015 0.000333333333334 0.011172413793103 0.0003
          0.00033333333333405 0.011586206896551 0 0.00033333333333405 0.011586206896551 0.00015
          0.00033333333333405 0.011586206896551 0.0003 0.0003333333333341 0.012 0
          0.0003333333333341 0.012 0.00015 0.0003333333333341 0.012 0.0003
          0.00044444444444486 0.0082758620689681 0 0.00044444444444486 0.0082758620689681 0.00015
          0.00044444444444486 0.0082758620689681 0.0003 0.00044444444444493 0.0086896551724165 0
          0.00044444444444493 0.0086896551724165 0.00015 0.00044444444444493 0.0086896551724165 0.0003
          0.00044444444444501 0.0091034482758637 0 0.00044444444444501 0.0091034482758637 0.00015
          0.00044444444444501 0.0091034482758637 0.0003 0.00044444444444508 0.0095172413793116 0
          0.00044444444444508 0.0095172413793116 0.00015 0.00044444444444508 0.0095172413793116 0.0003
          0.00044444444444516 0.0099310344827594 0 0.00044444444444516 0.0099310344827594 0.00015
          0.00044444444444516 0.0099310344827594 0.0003 0.00044444444444523 0.010344827586207 0
          0.00044444444444523 0.010344827586207 0.00015 0.00044444444444523 0.010344827586207 0.0003
          0.00044444444444531 0.010758620689655 0 0.00044444444444531 0.010758620689655 0.00015
          0.00044444444444531 0.010758620689655 0.0003 0.00044444444444538 0.011172413793103 0
          0.00044444444444538 0.011172413793103 0.00015 0.00044444444444538 0.011172413793103 0.0003
          0.00044444444444546 0.011586206896551 0 0.00044444444444546 0.011586206896551 0.00015
          0.00044444444444546 0.011586206896551 0.0003 0.00044444444444553 0.012 0
          0.00044444444444553 0.012 0.00015 0.00044444444444553 0.012 0.0003
          0.00055555555555597 0.0082758620689657 0 0.00055555555555597 0.0082758620689657 0.00015
          0.00055555555555597 0.0082758620689657 0.0003 0.00055555555555605 0.0086896551724145 0
          0.00055555555555605 0.0086896551724145 0.00015 0.00055555555555605 0.0086896551724145 0.0003
          0.00055555555555613 0.0091034482758618 0 0.00055555555555613 0.0091034482758618 0.00015
          0.00055555555555613 0.0091034482758618 0.0003 0.00055555555555621 0.0095172413793099 0
          0.00055555555555621 0.0095172413793099 0.00015 0.00055555555555621 0.0095172413793099 0.0003
          0.00055555555555629 0.0099310344827581 0 0.00055555555555629 0.0099310344827581 0.00015
          0.00055555555555629 0.0099310344827581 0.0003 0.00055555555555636 0.010344827586206 0
          0.00055555555555636 0.010344827586206 0.00015 0.00055555555555636 0.010344827586206 0.0003
          0.00055555555555644 0.010758620689655 0 0.00055555555555644 0.010758620689655 0.00015
          0.00055555555555644 0.010758620689655 0.0003 0.00055555555555652 0.011172413793102 0
          0.00055555555555652 0.011172413793102 0.00015 0.00055555555555652 0.011172413793102 0.0003
          0.0005555555555566 0.011586206896551 0 0.0005555555555566 0.011586206896551 0.00015
          0.0005555555555566 0.011586206896551 0.0003 0.00055555555555667 0.012 0
          0.00055555555555667 0.012 0.00015 0.00055555555555667 0.012 0.0003
          0.00066666666666675 0.0082758620689634 0 0.00066666666666675 0.0082758620689634 0.00015
          0.00066666666666675 0.0082758620689634 0.0003 0.00066666666666679 0.0086896551724125 0
          0.00066666666666679 0.0086896551724125 0.00015 0.00066666666666679 0.0086896551724125 0.0003
          0.00066666666666684 0.0091034482758598 0 0.00066666666666684 0.0091034482758598 0.00015
          0.00066666666666684 0.0091034482758598 0.0003 0.00066666666666688 0.0095172413793081 0
          0.00066666666666688 0.0095172413793081 0.00015 0.00066666666666688 0.0095172413793081 0.0003
          0.00066666666666693 0.0099310344827568 0 0.00066666666666693 0.0099310344827568 0.00015
          0.00066666666666693 0.0099310344827568 0.0003 0.00066666666666697 0.010344827586205 0
          0.00066666666666697 0.010344827586205 0.00015 0.00066666666666697 0.010344827586205 0.0003
          0.00066666666666701 0.010758620689654 0 0.00066666666666701 0.010758620689654 0.00015
          0.00066666666666701 0.010758620689654 0.0003 0.00066666666666706 0.011172413793102 0
          0.00066666666666706 0.011172413793102 0.00015 0.00066666666666706 0.011172413793102 0.0003
          0.0006666666666671 0.01158620689655 0 0.0006666666666671 0.01158620689655 0.00015
          0.0006666666666671 0.01158620689655 0.0003 0.00066666666666715 0.012 0
          0.00066666666666715 0.012 0.00015 0.00066666666666715 0.012 0.0003
          0.00077777777777787 0.0082758620689611 0 0.00077777777777787 0.0082758620689611 0.00015
          0.00077777777777787 0.0082758620689611 0.0003 0.00077777777777791 0.0086896551724104 0
          0.00077777777777791 0.0086896551724104 0.00015 0.00077777777777791 0.0086896551724104 0.0003
          0.00077777777777794 0.0091034482758578 0 0.00077777777777794 0.0091034482758578 0.00015
          0.00077777777777794 0.0091034482758578 0.0003 0.00077777777777797 0.0095172413793064 0
          0.00077777777777797 0.0095172413793064 0.00015 0.00077777777777797 0.0095172413793064 0.0003
          0.000777777777778 0.0099310344827555 0 0.000777777777778 0.0099310344827555 0.00015
          0.000777777777778 0.0099310344827555 0.0003 0.00077777777777803 0.010344827586205 0
          0.00077777777777803 0.010344827586205 0.00015 0.00077777777777803 0.010344827586205 0.0003
          0.00077777777777806 0.010758620689654 0 0.00077777777777806 0.010758620689654 0.00015
          0.00077777777777806 0.010758620689654 0.0003 0.00077777777777809 0.011172413793101 0
          0.00077777777777809 0.011172413793101 0.00015 0.00077777777777809 0.011172413793101 0.0003
          0.00077777777777813 0.01158620689655 0 0.00077777777777813 0.01158620689655 0.00015
          0.00077777777777813 0.01158620689655 0.0003 0.00077777777777816 0.012 0
          0.00077777777777816 0.012 0.00015 0.00077777777777816 0.012 0.0003
          0.0008888888888888 0.0082758620689588 0 0.0008888888888888 0.0082758620689588 0.00015
          0.0008888888888888 0.0082758620689588 0.0003 0.00088888888888881 0.0086896551724084 0
          0.00088888888888881 0.0086896551724084 0.00015 0.00088888888888881 0.0086896551724084 0.0003
          0.00088888888888882 0.0091034482758559 0 0.00088888888888882 0.0091034482758559 0.00015
          0.00088888888888882 0.0091034482758559 0.0003 0.00088888888888883 0.0095172413793047 0
          0.00088888888888883 0.0095172413793047 0.00015 0.00088888888888883 0.0095172413793047 0.0003
          0.00088888888888884 0.0099310344827542 0 0.00088888888888884 0.0099310344827542 0.00015
          0.00088888888888884 0.0099310344827542 0.0003 0.00088888888888885 0.010344827586204 0
          0.00088888888888885 0.010344827586204 0.00015 0.00088888888888885 0.010344827586204 0.0003
          0.00088888888888885 0.010758620689653 0 0.00088888888888885 0.010758620689653 0.00015
          0.00088888888888885 0.010758620689653 0.0003 0.00088888888888886 0.011172413793101 0
          0.00088888888888886 0.011172413793101 0.00015 0.00088888888888886 0.011172413793101 0.0003
          0.00088888888888887 0.01158620689655 0 0.00088888888888887 0.01158620689655 0.00015
          0.00088888888888887 0.01158620689655 0.0003 0.00088888888888888 0.012 0
          0.00088888888888888 0.012 0.00015 0.00088888888888888 0.012 0.0003
          0.001 0.0091034482758539 0 0.001 0.0091034482758539 0.00015
          0.001 0.0091034482758539 0.0003 0.001 0.0095172413793029 0
          0.001 0.0095172413793029 0.00015 0.001 0.0095172413793029 0.0003
          0.001 0.0099310344827529 0 0.001 0.0099310344827529 0.00015
          0.001 0.0099310344827529 0.0003 0.001 0.010344827586203 0
          0.001 0.010344827586203 0.00015 0.001 0.010344827586203 0.0003
          0.001 0.010758620689653 0 0.001 0.010758620689653 0.00015
          0.001 0.010758620689653 0.0003 0.001 0.0111724137931 0
          0.001 0.0111724137931 0.00015 0.001 0.0111724137931 0.0003
          0.001 0.01158620689655 0 0.001 0.01158620689655 0.00015
          0.001 0.01158620689655 0.0003 0.001 0.012 0
          0.001 0.012 0.00015 0.001 0.012 0.0003
          0.00067947077571632 0.012798245728111 0 0.00068678568032061 0.012710429785181 0
          0.00076344362314339 0.012698069087358 0 0.00078000626700894 0.012788238676479 0
          0.00067947077571632 0.012798245728111 0.00015 0.00068678568032061 0.012710429785181 0.00015
          0.00076344362314339 0.012698069087358 0.00015 0.00078000626700894 0.012788238676479 0.00015
          0.00067947077571632 0.012798245728111 0.0003 0.00068678568032061 0.012710429785181 0.0003
          0.00076344362314339 0.012698069087358 0.0003 0.00078000626700894 0.012788238676479 0.0003
          0.0007101811699723 0.012881232243155 0 0.00078737528777453 0.012884598822829 0
          0.0007101811699723 0.012881232243155 0.00015 0.00078737528777453 0.012884598822829 0.00015
          0.0007101811699723 0.012881232243155 0.0003 0.00078737528777453 0.012884598822829 0.0003
          0.00063149088332091 0.012876508075697 0 0.00071156048039536 0.012943694476106 0
          0.00064992343237843 0.012944046337553 0 0.00063149088332091 0.012876508075697 0.00015
          0.00071156048039536 0.012943694476106 0.00015 0.00064992343237843 0.012944046337553 0.00015
          0.00063149088332091 0.012876508075697 0.0003 0.00071156048039536 0.012943694476106 0.0003
          0.00064992343237843 0.012944046337553 0.0003 0.00014271480927744 0.012184528409521 0
          0.00021074182908597 0.012239195039162 0 0.00014617236906556 0.012274772666576 0
          0.00010836971036758 0.0122326927564 0 0.00014271480927744 0.012184528409521 0.00015
          0.00021074182908597 0.012239195039162 0.00015 0.00014617236906556 0.012274772666576 0.00015
          0.00010836971036758 0.0122326927564 0.00015 0.00014271480927744 0.012184528409521 0.0003
          0.00021074182908597 0.012239195039162 0.0003 0.00014617236906556 0.012274772666576 0.0003
          0.00010836971036758 0.0122326927564 0.0003 0.00040316247653445 0.012523054457121 0
          0.00050524235438491 0.012516470580574 0 0.00047556583290331 0.012611926172403 0
          0.00040677839563254 0.01259579728731 0 0.00040316247653445 0.012523054457121 0.00015
          0.00050524235438491 0.012516470580574 0.00015 0.00047556583290331 0.012611926172403 0.00015
          0.00040677839563254 0.01259579728731 0.00015 0.00040316247653445 0.012523054457121 0.0003
          0.00050524235438491 0.012516470580574 0.0003 0.00047556583290331 0.012611926172403 0.0003
          0.00040677839563254 0.01259579728731 0.0003 0.00038389728538556 0.012111104172094 0
          0.00037958632650406 0.012195366170904 0 0.00029855370140418 0.012181148574691 0
          0.00029802321336891 0.012105931916082 0 0.00038389728538556 0.012111104172094 0.00015
          0.00037958632650406 0.012195366170904 0.00015 0.00029855370140418 0.012181148574691 0.00015
          0.00029802321336891 0.012105931916082 0.00015 0.00038389728538556 0.012111104172094 0.0003
          0.00037958632650406 0.012195366170904 0.0003 0.00029855370140418 0.012181148574691 0.0003
          0.00029802321336891 0.012105931916082 0.0003 0.00062435778703091 0.012280526392523 0
          0.00063694887874418 0.012191685157308 0 0.00075163746499696 0.012211869018538 0
          0.0007101306235237 0.012330652999586 0 0.00062435778703091 0.012280526392523 0.00015
          0.00063694887874418 0.012191685157308 0.00015 0.00075163746499696 0.012211869018538 0.00015
          0.0007101306235237 0.012330652999586 0.00015 0.00062435778703091 0.012280526392523 0.0003
          0.00063694887874418 0.012191685157308 0.0003 0.00075163746499696 0.012211869018538 0.0003
          0.0007101306235237 0.012330652999586 0.0003 0.00090036231429234 0.012108977226849 0
          0.00080269198720626 0.012096984730608 0 0.00090036231429234 0.012108977226849 0.00015
          0.00080269198720626 0.012096984730608 0.00015 0.00090036231429234 0.012108977226849 0.0003
          0.00080269198720626 0.012096984730608 0.0003 0.00023865656240352 0.012177237347116 0
          0.00029061852669854 0.01224857812735 0 0.00023865656240352 0.012177237347116 0.00015
          0.00029061852669854 0.01224857812735 0.00015 0.00023865656240352 0.012177237347116 0.0003
          0.00029061852669854 0.01224857812735 0.0003 0.00056164385173704 0.012835416164401 0
          0.00056508360468666 0.012898794448667 0 0.00049240387645224 0.012913175910861 0
          0.00046984631090009 0.012828989929731 0 0.00056164385173704 0.012835416164401 0.00015
          0.00056508360468666 0.012898794448667 0.00015 0.00049240387645224 0.012913175910861 0.00015
          0.00046984631090009 0.012828989929731 0.00015 0.00056164385173704 0.012835416164401 0.0003
          0.00056508360468666 0.012898794448667 0.0003 0.00049240387645224 0.012913175910861 0.0003
          0.00046984631090009 0.012828989929731 0.0003 0.000050495613361417 0.012066083920595 0
          0.00011131843390441 0.012086989142678 0 0.000069577205110887 0.012153607960951 0
          0 0.012111111111109 0 0.000050495613361417 0.012066083920595 0.00015
          0.00011131843390441 0.012086989142678 0.00015 0.000069577205110887 0.012153607960951 0.00015
          0 0.012111111111109 0.00015 0.000050495613361417 0.012066083920595 0.0003
          0.00011131843390441 0.012086989142678 0.0003 0.000069577205110887 0.012153607960951 0.0003
          0 0.012111111111109 0.0003 0.00022470825547396 0.012306913365418 0
          0.00017103954025546 0.012340304715306 0 0.00022470825547396 0.012306913365418 0.00015
          0.00017103954025546 0.012340304715306 0.00015 0.00022470825547396 0.012306913365418 0.0003
          0.00017103954025546 0.012340304715306 0.0003 0.00085640575367095 0.012657655614724 0
          0.001 0.012571428571438 0 0.001 0.012714285714292 0
          0.00089085524488654 0.012778191533234 0 0.00085640575367095 0.012657655614724 0.00015
          0.001 0.012571428571438 0.00015 0.001 0.012714285714292 0.00015
          0.00089085524488654 0.012778191533234 0.00015 0.00085640575367095 0.012657655614724 0.0003
          0.001 0.012571428571438 0.0003 0.001 0.012714285714292 0.0003
          0.00089085524488654 0.012778191533234 0.0003 0.00017101007138246 0.012530153689505 0
          0.000086824088695593 0.01250759612347 0 0.00010015626416536 0.012463076177022 0
          0.00018026894988108 0.012457509098897 0 0.00017101007138246 0.012530153689505 0.00015
          0.000086824088695593 0.01250759612347 0.00015 0.00010015626416536 0.012463076177022 0.00015
          0.00018026894988108 0.012457509098897 0.00015 0.00017101007138246 0.012530153689505 0.0003
          0.000086824088695593 0.01250759612347 0.0003 0.00010015626416536 0.012463076177022 0.0003
          0.00018026894988108 0.012457509098897 0.0003 0.00055555555555552 0.013 0
          0.00054972466987376 0.012958523613261 0 0.00059017772624368 0.012950117696029 0
          0.00061111111111072 0.013 0 0.00055555555555552 0.013 0.00015
          0.00054972466987376 0.012958523613261 0.00015 0.00059017772624368 0.012950117696029 0.00015
          0.00061111111111072 0.013 0.00015 0.00055555555555552 0.013 0.0003
          0.00054972466987376 0.012958523613261 0.0003 0.00059017772624368 0.012950117696029 0.0003
          0.00061111111111072 0.013 0.0003 0.00056012017374448 0.012193168747791 0
          0.00054338833040714 0.012250054231166 0 0.00056012017374448 0.012193168747791 0.00015
          0.00054338833040714 0.012250054231166 0.00015 0.00056012017374448 0.012193168747791 0.0003
          0.00054338833040714 0.012250054231166 0.0003 0.00020164702899907 0.012111009853496 0
          0.00020164702899907 0.012111009853496 0.00015 0.00020164702899907 0.012111009853496 0.0003
          0.00058698867508036 0.01276393301723 0 0.00061242021253103 0.012689969395149 0
          0.00058698867508036 0.01276393301723 0.00015 0.00061242021253103 0.012689969395149 0.00015
          0.00058698867508036 0.01276393301723 0.0003 0.00061242021253103 0.012689969395149 0.0003
          0.00054704952286259 0.01264760123259 0 0.00058547756026548 0.012574831423214 0
          0.00066845126455385 0.012625352450745 0 0.00054704952286259 0.01264760123259 0.00015
          0.00058547756026548 0.012574831423214 0.00015 0.00066845126455385 0.012625352450745 0.00015
          0.00054704952286259 0.01264760123259 0.0003 0.00058547756026548 0.012574831423214 0.0003
          0.00066845126455385 0.012625352450745 0.0003 0.00040316497174951 0.012375710115571 0
          0.00038996592658543 0.012448925709731 0 0.00030251984068288 0.012451026681152 0
          0.00030273327950676 0.012339921797294 0 0.00040316497174951 0.012375710115571 0.00015
          0.00038996592658543 0.012448925709731 0.00015 0.00030251984068288 0.012451026681152 0.00015
          0.00030273327950676 0.012339921797294 0.00015 0.00040316497174951 0.012375710115571 0.0003
          0.00038996592658543 0.012448925709731 0.0003 0.00030251984068288 0.012451026681152 0.0003
          0.00030273327950676 0.012339921797294 0.0003 0 0.012166666666663 0
          0.000060257043043922 0.012213388328671 0 0 0.012222222222217 0
          0 0.012166666666663 0.00015 0.000060257043043922 0.012213388328671 0.00015
          0 0.012222222222217 0.00015 0 0.012166666666663 0.0003
          0.000060257043043922 0.012213388328671 0.0003 0 0.012222222222217 0.0003
          0.00086766031505541 0.012218873949421 0 0.00070802748250363 0.01210226547145 0
          0.00086766031505541 0.012218873949421 0.00015 0.00070802748250363 0.01210226547145 0.00015
          0.00086766031505541 0.012218873949421 0.0003 0.00070802748250363 0.01210226547145 0.0003
          0.00045681564832724 0.012667985356076 0 0.00038302222240927 0.012678606196169 0
          0.00045681564832724 0.012667985356076 0.00015 0.00038302222240927 0.012678606196169 0.00015
          0.00045681564832724 0.012667985356076 0.0003 0.00038302222240927 0.012678606196169 0.0003
          0.00057343997443155 0.012462111372123 0 0.00067467937701806 0.012497336760124 0
          0.00057343997443155 0.012462111372123 0.00015 0.00067467937701806 0.012497336760124 0.00015
          0.00057343997443155 0.012462111372123 0.0003 0.00067467937701806 0.012497336760124 0.0003
          0 0.012388888888886 0 0.00004805763346656 0.012364070531781 0
          0.000052775834931525 0.012418323433379 0 0 0.012444444444443 0
          0 0.012388888888886 0.00015 0.00004805763346656 0.012364070531781 0.00015
          0.000052775834931525 0.012418323433379 0.00015 0 0.012444444444443 0.00015
          0 0.012388888888886 0.0003 0.00004805763346656 0.012364070531781 0.0003
          0.000052775834931525 0.012418323433379 0.0003 0 0.012444444444443 0.0003
          0.0004655657017567 0.012222981448331 0 0.0004403524252846 0.012306679111378 0
          0.00036518397892919 0.012268658791136 0 0.0004655657017567 0.012222981448331 0.00015
          0.0004403524252846 0.012306679111378 0.00015 0.00036518397892919 0.012268658791136 0.00015
          0.0004655657017567 0.012222981448331 0.0003 0.0004403524252846 0.012306679111378 0.0003
          0.00036518397892919 0.012268658791136 0.0003 0.00079059026611164 0.012574208252283 0
          0.00074033738884001 0.012629472897336 0 0.00079059026611164 0.012574208252283 0.00015
          0.00074033738884001 0.012629472897336 0.00015 0.00079059026611164 0.012574208252283 0.0003
          0.00074033738884001 0.012629472897336 0.0003 0.00049134001885305 0.012124425854677 0
          0.00060162315338905 0.012101782274206 0 0.00049134001885305 0.012124425854677 0.00015
          0.00060162315338905 0.012101782274206 0.00015 0.00049134001885305 0.012124425854677 0.0003
          0.00060162315338905 0.012101782274206 0.0003 0.00055165526617401 0.012365152711649 0
          0.00046621557592763 0.012427373679685 0 0.00055165526617401 0.012365152711649 0.00015
          0.00046621557592763 0.012427373679685 0.00015 0.00055165526617401 0.012365152711649 0.0003
          0.00046621557592763 0.012427373679685 0.0003 0.00065175768920993 0.012395993188634 0
          0.00078658012555766 0.01242031863996 0 0.00065175768920993 0.012395993188634 0.00015
          0.00078658012555766 0.01242031863996 0.00015 0.00065175768920993 0.012395993188634 0.0003
          0.00078658012555766 0.01242031863996 0.0003 0.00072222222222142 0.013 0
          0.00076767785213736 0.012949407633443 0 0.00077777777777722 0.013 0
          0.00072222222222142 0.013 0.00015 0.00076767785213736 0.012949407633443 0.00015
          0.00077777777777722 0.013 0.00015 0.00072222222222142 0.013 0.0003
          0.00076767785213736 0.012949407633443 0.0003 0.00077777777777722 0.013 0.0003
          0.001 0.01228571428572 0 0.001 0.012428571428581 0
          0.00085243404696798 0.012340254950119 0 0.001 0.01228571428572 0.00015
          0.001 0.012428571428581 0.00015 0.00085243404696798 0.012340254950119 0.00015
          0.001 0.01228571428572 0.0003 0.001 0.012428571428581 0.0003
          0.00085243404696798 0.012340254950119 0.0003 0.000047305708530005 0.012255757186949 0
          0.000035989657241992 0.012305788523607 0 0 0.012277777777773 0
          0.000047305708530005 0.012255757186949 0.00015 0.000035989657241992 0.012305788523607 0.00015
          0 0.012277777777773 0.00015 0.000047305708530005 0.012255757186949 0.0003
          0.000035989657241992 0.012305788523607 0.0003 0 0.012277777777773 0.0003
          0 0.01233333333333 0 0 0.01233333333333 0.00015
          0 0.01233333333333 0.0003 0.00088888888888861 0.013 0
          0.00086852226729803 0.012945143609779 0 0.00092105077811413 0.012923509600428 0
          0.0009444444444442 0.013 0 0.00088888888888861 0.013 0.00015
          0.00086852226729803 0.012945143609779 0.00015 0.00092105077811413 0.012923509600428 0.00015
          0.0009444444444442 0.013 0.00015 0.00088888888888861 0.013 0.0003
          0.00086852226729803 0.012945143609779 0.0003 0.00092105077811413 0.012923509600428 0.0003
          0.0009444444444442 0.013 0.0003 0.000088322519872331 0.012287262323421 0
          0.000098057359918883 0.01234321954228 0 0.000088322519872331 0.012287262323421 0.00015
          0.000098057359918883 0.01234321954228 0.00015 0.000088322519872331 0.012287262323421 0.0003
          0.000098057359918883 0.01234321954228 0.0003 0.00082037799021753 0.012949927278989 0
          0.00083333333333302 0.013 0 0.00082037799021753 0.012949927278989 0.00015
          0.00083333333333302 0.013 0.00015 0.00082037799021753 0.012949927278989 0.0003
          0.00083333333333302 0.013 0.0003 0.000055423585756317 0.01245648439217 0
          0.00011750487062481 0.01240389197138 0 0.000055423585756317 0.01245648439217 0.00015
          0.00011750487062481 0.01240389197138 0.00015 0.000055423585756317 0.01245648439217 0.0003
          0.00011750487062481 0.01240389197138 0.0003 0.00022703795328819 0.012397087263253 0
          0.00024412512388832 0.012487409031957 0 0.00022703795328819 0.012397087263253 0.00015
          0.00024412512388832 0.012487409031957 0.00015 0.00022703795328819 0.012397087263253 0.0003
          0.00024412512388832 0.012487409031957 0.0003 0.00086622784349606 0.012879340816766 0
          0.00086622784349606 0.012879340816766 0.00015 0.00086622784349606 0.012879340816766 0.0003
          0.001 0.01214285714286 0 0.001 0.01214285714286 0.00015
          0.001 0.01214285714286 0.0003 0.00032807036377433 0.012530514194312 0
          0.00032139380548758 0.012616977778981 0 0.00032807036377433 0.012530514194312 0.00015
          0.00032139380548758 0.012616977778981 0.00015 0.00032807036377433 0.012530514194312 0.0003
          0.00032139380548758 0.012616977778981 0.0003 0.00078653837511981 0.012300730611142 0
          0.00078653837511981 0.012300730611142 0.00015 0.00078653837511981 0.012300730611142 0.0003
          0.00050187285486533 0.012723776617989 0 0.00050187285486533 0.012723776617989 0.00015
          0.00050187285486533 0.012723776617989 0.0003 0.00066666666666612 0.013 0
          0.00066666666666612 0.013 0.00015 0.00066666666666612 0.013 0.0003
          0.00086640285866826 0.012499721374928 0 0.00086640285866826 0.012499721374928 0.00015
          0.00086640285866826 0.012499721374928 0.0003 0.001 0.012857142857146 0
          0.001 0.012857142857146 0.00015 0.001 0.012857142857146 0.0003
          0.00043301270230906 0.012750000000722 0 0.00043301270230906 0.012750000000722 0.00015
          0.00043301270230906 0.012750000000722 0.0003 0.00025000000019401 0.01256698729822 0
          0.00025000000019401 0.01256698729822 0.00015 0.00025000000019401 0.01256698729822 0.0003
          0 0.0125 0 0 0.0125 0.00015
          0 0.0125 0.0003 0 0.012055555555554 0
          0 0.012055555555554 0.00015 0 0.012055555555554 0.0003
          0.001 0.013 0 0.001 0.013 0.00015
          0.001 0.013 0.0003 0.0005 0.013 0
          0.0005 0.013 0.00015 0.0005 0.013 0.0003
          0.0014444444444451 0.0095172413793029 0 0.0014444444444451 0.0095172413793029 0.00015
          0.0014444444444451 0.0095172413793029 0.0003 0.0018888888888902 0.0095172413793029 0
          0.0018888888888902 0.0095172413793029 0.00015 0.0018888888888902 0.0095172413793029 0.0003
          0.0014444444444452 0.0099310344827529 0 0.0014444444444452 0.0099310344827529 0.00015
          0.0014444444444452 0.0099310344827529 0.0003 0.0018888888888903 0.0099310344827529 0
          0.0018888888888903 0.0099310344827529 0.00015 0.0018888888888903 0.0099310344827529 0.0003
          0.0014444444444452 0.010344827586203 0 0.0014444444444452 0.010344827586203 0.00015
          0.0014444444444452 0.010344827586203 0.0003 0.0014444444444453 0.010758620689653 0
          0.0014444444444453 0.010758620689653 0.00015 0.0014444444444453 0.010758620689653 0.0003
          0.0014444444444453 0.0111724137931 0 0.0014444444444453 0.0111724137931 0.00015
          0.0014444444444453 0.0111724137931 0.0003 0.0014444444444454 0.01158620689655 0
          0.0014444444444454 0.01158620689655 0.00015 0.0014444444444454 0.01158620689655 0.0003
          0.0014444444444455 0.012 0 0.0014444444444455 0.012 0.00015
          0.0014444444444455 0.012 0.0003 0.0011659770658264 0.012184916069452 0
          0.0011978981211319 0.012291694091132 0 0.0011659770658264 0.012184916069452 0.00015
          0.0011978981211319 0.012291694091132 0.00015 0.0011659770658264 0.012184916069452 0.0003
          0.0011978981211319 0.012291694091132 0.0003 0.0014134281085546 0.012468353283698 0
          0.001412897365997 0.01265802692797 0 0.0011710921098332 0.012660749606473 0
          0.0011928404820732 0.012464476127519 0 0.0014134281085546 0.012468353283698 0.00015
          0.001412897365997 0.01265802692797 0.00015 0.0011710921098332 0.012660749606473 0.00015
          0.0011928404820732 0.012464476127519 0.00015 0.0014134281085546 0.012468353283698 0.0003
          0.001412897365997 0.01265802692797 0.0003 0.0011710921098332 0.012660749606473 0.0003
          0.0011928404820732 0.012464476127519 0.0003 0.0011801499871676 0.012824831216028 0
          0.0011801499871676 0.012824831216028 0.00015 0.0011801499871676 0.012824831216028 0.0003
          0.0014335559245349 0.012265987585326 0 0.0014335559245349 0.012265987585326 0.00015
          0.0014335559245349 0.012265987585326 0.0003 0.0014444444444455 0.013 0
          0.0014444444444455 0.013 0.00015 0.0014444444444455 0.013 0.0003
          0.0023333333333355 0.0099310344827529 0 0.0023333333333353 0.0095172413793029 0
          0.0023333333333355 0.0099310344827529 0.00015 0.0023333333333353 0.0095172413793029 0.00015
          0.0023333333333355 0.0099310344827529 0.0003 0.0023333333333353 0.0095172413793029 0.0003
          0.0018888888888904 0.010344827586203 0 0.0018888888888904 0.010344827586203 0.00015
          0.0018888888888904 0.010344827586203 0.0003 0.0023333333333357 0.010344827586203 0
          0.0023333333333357 0.010344827586203 0.00015 0.0023333333333357 0.010344827586203 0.0003
          0.0018888888888905 0.010758620689653 0 0.0018888888888905 0.010758620689653 0.00015
          0.0018888888888905 0.010758620689653 0.0003 0.0018888888888907 0.0111724137931 0
          0.0018888888888907 0.0111724137931 0.00015 0.0018888888888907 0.0111724137931 0.0003
          0.0018888888888908 0.01158620689655 0 0.0018888888888908 0.01158620689655 0.00015
          0.0018888888888908 0.01158620689655 0.0003 0.0018888888888909 0.012 0
          0.0018888888888909 0.012 0.00015 0.0018888888888909 0.012 0.0003
          0.0017386847932316 0.012348636106575 0 0.0017386847932316 0.012348636106575 0.00015
          0.0017386847932316 0.012348636106575 0.0003 0.0018888888888909 0.013 0
          0.001702980389272 0.012655949584096 0 0.0020604062010233 0.012679406151259 0
          0.0018888888888909 0.013 0.00015 0.001702980389272 0.012655949584096 0.00015
          0.0020604062010233 0.012679406151259 0.00015 0.0018888888888909 0.013 0.0003
          0.001702980389272 0.012655949584096 0.0003 0.0020604062010233 0.012679406151259 0.0003
          <InformationKey name="L2_NORM_RANGE" location="vtkDataArray" length="2">
            <Value index="0">
              0.008275862069
            </Value>
            <Value index="1">
              0.013139935359
            </Value>
          </InformationKey>
        </DataArray>
      </Points>
      <Cells>
        <DataArray type="Int64" Name="connectivity" format="ascii" RangeMin="0" RangeMax="755">
          1 0 6 7 3 2
          8 9 3 2 8 9
          5 4 10 11 7 6
          12 13 9 8 14 15
          9 8 14 15 11 10
          16 17 13 12 18 19
          15 14 20 21 15 14
          20 21 17 16 22 23
          19 18 24 25 21 20
          26 27 21 20 26 27
          23 22 28 29 25 24
          30 31 27 26 32 33
          27 26 32 33 29 28
          34 35 31 30 36 37
          33 32 38 39 33 32
          38 39 35 34 40 41
          37 36 42 43 39 38
          44 45 39 38 44 45
          41 40 46 47 43 42
          48 49 45 44 50 51
          45 44 50 51 47 46
          52 53 49 48 54 55
          51 50 56 57 51 50
          56 57 53 52 58 59
          0 60 63 6 2 61
          64 8 2 61 64 8
          4 62 65 10 6 63
          66 12 8 64 67 14
          8 64 67 14 10 65
          68 16 12 66 69 18
          14 67 70 20 14 67
          70 20 16 68 71 22
          18 69 72 24 20 70
          73 26 20 70 73 26
          22 71 74 28 24 72
          75 30 26 73 76 32
          26 73 76 32 28 74
          77 34 30 75 78 36
          32 76 79 38 32 76
          79 38 34 77 80 40
          36 78 81 42 38 79
          82 44 38 79 82 44
          40 80 83 46 42 81
          84 48 44 82 85 50
          44 82 85 50 46 83
          86 52 48 84 87 54
          50 85 88 56 50 85
          88 56 52 86 89 58
          60 90 93 63 61 91
          94 64 61 91 94 64
          62 92 95 65 63 93
          96 66 64 94 97 67
          64 94 97 67 65 95
          98 68 66 96 99 69
          67 97 100 70 67 97
          100 70 68 98 101 71
          69 99 102 72 70 100
          103 73 70 100 103 73
          71 101 104 74 72 102
          105 75 73 103 106 76
          73 103 106 76 74 104
          107 77 75 105 108 78
          76 106 109 79 76 106
          109 79 77 107 110 80
          78 108 111 81 79 109
          112 82 79 109 112 82
          80 110 113 83 81 111
          114 84 82 112 115 85
          82 112 115 85 83 113
          116 86 84 114 117 87
          85 115 118 88 85 115
          118 88 86 116 119 89
          90 120 123 93 91 121
          124 94 91 121 124 94
          92 122 125 95 93 123
          126 96 94 124 127 97
          94 124 127 97 95 125
          128 98 96 126 129 99
          97 127 130 100 97 127
          130 100 98 128 131 101
          99 129 132 102 100 130
          133 103 100 130 133 103
          101 131 134 104 102 132
          135 105 103 133 136 106
          103 133 136 106 104 134
          137 107 105 135 138 108
          106 136 139 109 106 136
          139 109 107 137 140 110
          108 138 141 111 109 139
          142 112 109 139 142 112
          110 140 143 113 111 141
          144 114 112 142 145 115
          112 142 145 115 113 143
          146 116 114 144 147 117
          115 145 148 118 115 145
          148 118 116 146 149 119
          120 150 153 123 121 151
          154 124 121 151 154 124
          122 152 155 125 123 153
          156 126 124 154 157 127
          124 154 157 127 125 155
          158 128 126 156 159 129
          127 157 160 130 127 157
          160 130 128 158 161 131
          129 159 162 132 130 160
          163 133 130 160 163 133
          131 161 164 134 132 162
          165 135 133 163 166 136
          133 163 166 136 134 164
          167 137 135 165 168 138
          136 166 169 139 136 166
          169 139 137 167 170 140
          138 168 171 141 139 169
          172 142 139 169 172 142
          140 170 173 143 141 171
          174 144 142 172 175 145
          142 172 175 145 143 173
          176 146 144 174 177 147
          145 175 178 148 145 175
          178 148 146 176 179 149
          150 180 183 153 151 181
          184 154 151 181 184 154
          152 182 185 155 153 183
          186 156 154 184 187 157
          154 184 187 157 155 185
          188 158 156 186 189 159
          157 187 190 160 157 187
          190 160 158 188 191 161
          159 189 192 162 160 190
          193 163 160 190 193 163
          161 191 194 164 162 192
          195 165 163 193 196 166
          163 193 196 166 164 194
          197 167 165 195 198 168
          166 196 199 169 166 196
          199 169 167 197 200 170
          168 198 201 171 169 199
          202 172 169 199 202 172
          170 200 203 173 171 201
          204 174 172 202 205 175
          172 202 205 175 173 203
          206 176 174 204 207 177
          175 205 208 178 175 205
          208 178 176 206 209 179
          180 210 213 183 181 211
          214 184 181 211 214 184
          182 212 215 185 183 213
          216 186 184 214 217 187
          184 214 217 187 185 215
          218 188 186 216 219 189
          187 217 220 190 187 217
          220 190 188 218 221 191
          189 219 222 192 190 220
          223 193 190 220 223 193
          191 221 224 194 192 222
          225 195 193 223 226 196
          193 223 226 196 194 224
          227 197 195 225 228 198
          196 226 229 199 196 226
          229 199 197 227 230 200
          198 228 231 201 199 229
          232 202 199 229 232 202
          200 230 233 203 201 231
          234 204 202 232 235 205
          202 232 235 205 203 233
          236 206 204 234 237 207
          205 235 238 208 205 235
          238 208 206 236 239 209
          210 240 243 213 211 241
          244 214 211 241 244 214
          212 242 245 215 213 243
          246 216 214 244 247 217
          214 244 247 217 215 245
          248 218 216 246 249 219
          217 247 250 220 217 247
          250 220 218 248 251 221
          219 249 252 222 220 250
          253 223 220 250 253 223
          221 251 254 224 222 252
          255 225 223 253 256 226
          223 253 256 226 224 254
          257 227 225 255 258 228
          226 256 259 229 226 256
          259 229 227 257 260 230
          228 258 261 231 229 259
          262 232 229 259 262 232
          230 260 263 233 231 261
          264 234 232 262 265 235
          232 262 265 235 233 263
          266 236 234 264 267 237
          235 265 268 238 235 265
          268 238 236 266 269 239
          246 270 273 249 247 271
          274 250 247 271 274 250
          248 272 275 251 249 273
          276 252 250 274 277 253
          250 274 277 253 251 275
          278 254 252 276 279 255
          253 277 280 256 253 277
          280 256 254 278 281 257
          255 279 282 258 256 280
          283 259 256 280 283 259
          257 281 284 260 258 282
          285 261 259 283 286 262
          259 283 286 262 260 284
          287 263 261 285 288 264
          262 286 289 265 262 286
          289 265 263 287 290 266
          264 288 291 267 265 289
          292 268 265 289 292 268
          266 290 293 269 294 295
          296 297 298 299 300 301
          298 299 300 301 302 303
          304 305 306 294 297 307
          308 298 301 309 308 298
          301 309 310 302 305 311
          312 306 313 314 315 308
          316 317 315 308 316 317
          318 310 319 320 321 322
          323 324 325 326 327 328
          325 326 327 328 329 330
          331 332 333 334 335 336
          337 338 339 340 337 338
          339 340 341 342 343 344
          345 346 347 348 349 350
          351 352 349 350 351 352
          353 354 355 356 357 358
          359 360 361 362 363 364
          361 362 363 364 365 366
          367 368 267 369 370 237
          268 371 372 238 268 371
          372 238 269 373 374 239
          375 347 376 322 377 351
          378 326 377 351 378 326
          379 355 380 330 381 382
          383 384 385 386 387 388
          385 386 387 388 389 390
          391 392 393 394 395 396
          397 398 399 400 397 398
          399 400 401 402 403 404
          323 322 405 406 327 326
          407 408 327 326 407 408
          331 330 409 410 411 412
          413 414 415 416 417 418
          415 416 417 418 419 420
          421 422 423 424 425 426
          427 428 429 430 427 428
          429 430 431 432 433 434
          435 436 437 438 439 440
          441 442 439 440 441 442
          443 444 445 446 447 358
          357 448 449 362 361 450
          449 362 361 450 451 366
          365 452 54 87 453 394
          56 88 454 398 56 88
          454 398 58 89 455 402
          456 457 295 294 458 459
          299 298 458 459 299 298
          460 461 303 302 457 462
          463 464 459 465 466 467
          459 465 466 467 461 468
          469 470 456 294 312 381
          458 298 315 385 458 298
          315 385 460 302 318 389
          471 472 473 474 475 476
          477 478 475 476 477 478
          479 480 481 482 483 395
          484 485 486 399 487 488
          486 399 487 488 489 403
          490 491 370 492 359 493
          372 494 363 495 372 494
          363 495 374 496 367 497
          237 370 493 207 238 372
          495 208 238 372 495 208
          239 374 497 209 336 335
          498 499 340 339 500 501
          340 339 500 501 344 343
          502 503 463 334 504 505
          466 338 506 507 466 338
          506 507 469 342 508 509
          510 511 512 513 514 515
          516 517 514 515 516 517
          518 519 520 521 522 523
          524 346 525 526 527 350
          525 526 527 350 528 529
          530 354 531 532 464 505
          533 534 467 507 533 534
          467 507 535 536 470 509
          537 147 177 538 539 148
          178 540 539 148 178 540
          541 149 179 542 523 543
          544 471 526 545 546 475
          526 545 546 475 529 547
          548 479 549 360 550 505
          551 364 552 507 551 364
          552 507 553 368 554 509
          555 313 556 557 558 316
          559 560 558 316 559 560
          561 319 562 563 564 565
          566 492 567 568 569 494
          567 568 569 494 570 571
          572 496 573 574 575 485
          576 577 578 488 576 577
          578 488 579 580 581 491
          582 574 511 510 583 577
          515 514 583 577 515 514
          584 580 519 518 87 117
          348 453 88 118 352 454
          88 118 352 454 89 119
          356 455 504 334 544 543
          506 338 546 545 506 338
          546 545 508 342 548 547
          585 586 587 588 589 590
          591 592 589 590 591 592
          593 594 595 596 574 597
          598 511 577 599 600 515
          577 599 600 515 580 601
          602 519 375 322 321 453
          377 326 325 454 377 326
          325 454 379 330 329 455
          557 556 603 604 560 559
          605 606 560 559 605 606
          563 562 607 608 425 609
          512 610 429 611 516 612
          429 611 516 612 433 613
          520 614 207 493 538 177
          208 495 540 178 208 495
          540 178 209 497 542 179
          615 473 616 426 617 477
          618 430 617 477 618 430
          619 481 620 434 297 414
          621 307 301 418 622 309
          301 418 622 309 305 422
          623 311 492 369 624 564
          494 371 625 567 494 371
          625 567 496 373 626 570
          627 333 336 628 629 337
          340 630 629 337 340 630
          631 341 344 632 360 633
          566 550 364 634 569 552
          364 634 569 552 368 635
          572 554 457 456 636 462
          459 458 637 465 459 458
          637 465 461 460 638 468
          357 360 549 543 361 364
          551 545 361 364 551 545
          365 368 553 547 295 464
          532 296 299 467 534 300
          299 467 534 300 303 470
          536 304 639 314 313 555
          640 317 316 558 640 317
          316 558 641 320 319 561
          471 474 524 523 475 478
          527 526 475 478 527 526
          479 482 530 529 426 610
          406 615 430 612 408 617
          430 612 408 617 434 614
          410 619 504 543 549 505
          506 545 551 507 506 545
          551 507 508 547 553 509
          566 565 642 550 569 568
          643 552 569 568 643 552
          572 571 644 554 610 512
          511 598 612 516 515 600
          612 516 515 600 614 520
          519 602 621 414 645 587
          622 418 646 591 622 418
          646 591 623 422 647 595
          405 474 615 406 407 478
          617 408 407 478 617 408
          409 482 619 410 381 384
          636 456 385 388 637 458
          385 388 637 458 389 392
          638 460 648 499 498 636
          649 501 500 637 649 501
          500 637 650 503 502 638
          616 651 423 426 618 652
          427 430 618 652 427 430
          620 653 431 434 324 597
          573 484 328 599 576 487
          328 599 576 487 332 601
          579 490 642 412 411 531
          643 416 415 533 643 416
          415 533 644 420 419 535
          538 358 447 537 540 362
          449 539 540 362 449 539
          542 366 451 541 524 376
          347 346 527 378 351 350
          527 378 351 350 530 380
          355 354 627 651 616 473
          629 652 618 477 629 652
          618 477 631 653 620 481
          405 322 376 474 407 326
          378 478 407 326 378 478
          409 330 380 482 306 307
          556 313 308 309 559 316
          308 309 559 316 310 311
          562 319 345 117 147 537
          349 118 148 539 349 118
          148 539 353 119 149 541
          414 297 296 411 418 301
          300 415 418 301 300 415
          422 305 304 419 621 586
          603 307 622 590 605 309
          622 590 605 309 623 594
          607 311 544 334 333 472
          546 338 337 476 546 338
          337 476 548 342 341 480
          348 347 375 453 352 351
          377 454 352 351 377 454
          356 355 379 455 531 505
          550 642 533 507 552 643
          533 507 552 643 535 509
          554 644 321 324 484 395
          325 328 487 399 325 328
          487 399 329 332 490 403
          598 597 323 406 600 599
          327 408 600 599 327 408
          602 601 331 410 447 448
          522 537 449 450 525 539
          449 450 525 539 451 452
          528 541 513 512 609 654
          517 516 611 655 517 516
          611 655 521 520 613 656
          604 603 586 585 606 605
          590 589 606 605 590 589
          608 607 594 593 463 462
          335 334 466 465 339 338
          466 465 339 338 469 468
          343 342 438 437 314 639
          442 441 317 640 442 441
          317 640 446 445 320 641
          436 383 382 437 440 387
          386 441 440 387 386 441
          444 391 390 445 393 657
          55 54 397 658 57 56
          397 658 57 56 401 659
          59 58 312 314 437 382
          315 317 441 386 315 317
          441 386 318 320 445 390
          346 345 537 522 350 349
          539 525 350 349 539 525
          354 353 541 528 498 335
          462 636 500 339 465 637
          500 339 465 637 502 343
          468 638 369 267 291 624
          371 268 292 625 371 268
          292 625 373 269 293 626
          358 538 493 359 362 540
          495 363 362 540 495 363
          366 542 497 367 394 453
          321 395 398 454 325 399
          398 454 325 399 402 455
          329 403 587 645 660 588
          591 646 661 592 591 646
          661 592 595 647 662 596
          448 543 523 522 450 545
          526 525 450 545 526 525
          452 547 529 528 472 333
          627 473 476 337 629 477
          476 337 629 477 480 341
          631 481 436 435 663 383
          440 439 664 387 440 439
          664 387 444 443 665 391
          411 296 532 531 415 300
          534 533 415 300 534 533
          419 304 536 535 609 425
          424 654 611 429 428 655
          611 429 428 655 613 433
          432 656 492 566 633 359
          494 569 634 363 494 569
          634 363 496 572 635 367
          393 394 54 397 398 56
          397 398 56 401 402 58
          413 414 645 417 418 646
          417 418 646 421 422 647
          628 627 651 630 629 652
          630 629 652 632 631 653
          117 348 345 118 352 349
          118 352 349 119 356 353
          565 642 412 568 643 416
          568 643 416 571 644 420
          457 295 464 459 299 467
          459 299 467 461 303 470
          463 464 505 466 467 507
          466 467 507 469 470 509
          499 336 628 501 340 630
          501 340 630 503 344 632
          384 636 648 388 637 649
          388 637 649 392 638 650
          492 369 370 494 371 372
          494 371 372 496 373 374
          473 474 615 477 478 617
          477 478 617 481 482 619
          381 382 312 385 386 315
          385 386 315 389 390 318
          471 472 544 475 476 546
          475 476 546 479 480 548
          582 574 575 583 577 578
          583 577 578 584 580 581
          312 306 294 315 308 298
          315 308 298 318 310 302
          524 376 474 527 378 478
          527 378 478 530 380 482
          396 393 657 400 397 658
          400 397 658 404 401 659
          483 395 396 486 399 400
          486 399 400 489 403 404
          357 448 543 361 450 545
          361 450 545 365 452 547
          485 573 484 488 576 487
          488 576 487 491 579 490
          621 586 587 622 590 591
          622 590 591 623 594 595
          324 597 323 328 599 327
          328 599 327 332 601 331
          603 307 556 605 309 559
          605 309 559 607 311 562
          610 425 426 612 429 430
          612 429 430 614 433 434
          360 633 359 364 634 363
          364 634 363 368 635 367
          598 610 406 600 612 408
          600 612 408 602 614 410
          574 597 573 577 599 576
          577 599 576 580 601 579
          672 276 273 666 673 277
          274 667 673 277 274 667
          674 278 275 668 675 672
          666 669 676 673 667 670
          676 673 667 670 677 674
          668 671 720 675 669 721
          722 676 670 723 722 676
          670 723 724 677 671 725
          678 279 276 672 679 280
          277 673 679 280 277 673
          680 281 278 674 726 678
          672 675 727 679 673 676
          727 679 673 676 728 680
          674 677 729 726 675 720
          730 727 676 722 730 727
          676 722 731 728 677 724
          681 282 279 678 682 283
          280 679 682 283 280 679
          683 284 281 680 732 681
          678 726 733 682 679 727
          733 682 679 727 734 683
          680 728 684 285 282 681
          685 286 283 682 685 286
          283 682 686 287 284 683
          735 684 681 732 736 685
          682 733 736 685 682 733
          737 686 683 734 687 288
          285 684 688 289 286 685
          688 289 286 685 689 290
          287 686 738 687 684 735
          739 688 685 736 739 688
          685 736 740 689 686 737
          690 291 288 687 691 292
          289 688 691 292 289 688
          692 293 290 689 741 690
          687 738 742 691 688 739
          742 691 688 739 743 692
          689 740 693 694 564 624
          695 696 567 625 695 696
          567 625 697 698 570 626
          699 700 701 702 703 704
          705 706 703 704 705 706
          707 708 709 710 702 701
          412 565 706 705 416 568
          706 705 416 568 710 709
          420 571 413 701 711 645
          417 705 712 646 417 705
          712 646 421 709 713 647
          690 741 744 714 691 742
          745 715 691 742 745 715
          692 743 746 716 714 699
          702 694 715 703 706 696
          715 703 706 696 716 707
          710 698 694 702 565 564
          696 706 568 567 696 706
          568 567 698 710 571 570
          747 717 748 749 750 718
          751 752 750 718 751 752
          753 719 754 755 699 744
          748 700 703 745 751 704
          703 745 751 704 707 746
          754 708 711 701 700 717
          712 705 704 718 712 705
          704 718 713 709 708 719
          714 694 693 690 715 696
          695 691 715 696 695 691
          716 698 697 692 291 690
          693 624 292 691 695 625
          292 691 695 625 293 692
          697 626 711 717 660 645
          712 718 661 646 712 718
          661 646 713 719 662 647
          714 699 744 715 703 745
          715 703 745 716 707 746
          748 700 717 751 704 718
          751 704 718 754 708 719
          413 701 412 417 705 416
          417 705 416 421 709 420
        </DataArray>
        <DataArray type="Int64" Name="offsets" format="ascii" RangeMin="8" RangeMax="3624">
          8 16 24 32 40 48
          56 64 72 80 88 96
          104 112 120 128 136 144
          152 160 168 176 184 192
          200 208 216 224 232 240
          248 256 264 272 280 288
          296 304 312 320 328 336
          344 352 360 368 376 384
          392 400 408 416 424 432
          440 448 456 464 472 480
          488 496 504 512 520 528
          536 544 552 560 568 576
          584 592 600 608 616 624
          632 640 648 656 664 672
          680 688 696 704 712 720
          728 736 744 752 760 768
          776 784 792 800 808 816
          824 832 840 848 856 864
          872 880 888 896 904 912
          920 928 936 944 952 960
          968 976 984 992 1000 1008
          1016 1024 1032 1040 1048 1056
          1064 1072 1080 1088 1096 1104
          1112 1120 1128 1136 1144 1152
          1160 1168 1176 1184 1192 1200
          1208 1216 1224 1232 1240 1248
          1256 1264 1272 1280 1288 1296
          1304 1312 1320 1328 1336 1344
          1352 1360 1368 1376 1384 1392
          1400 1408 1416 1424 1432 1440
          1448 1456 1464 1472 1480 1488
          1496 1504 1512 1520 1528 1536
          1544 1552 1560 1568 1576 1584
          1592 1600 1608 1616 1624 1632
          1640 1648 1656 1664 1672 1680
          1688 1696 1704 1712 1720 1728
          1736 1744 1752 1760 1768 1776
          1784 1792 1800 1808 1816 1824
          1832 1840 1848 1856 1864 1872
          1880 1888 1896 1904 1912 1920
          1928 1936 1944 1952 1960 1968
          1976 1984 1992 2000 2008 2016
          2024 2032 2040 2048 2056 2064
          2072 2080 2088 2096 2104 2112
          2120 2128 2136 2144 2152 2160
          2168 2176 2184 2192 2200 2208
          2216 2224 2232 2240 2248 2256
          2264 2272 2280 2288 2296 2304
          2312 2320 2328 2336 2344 2352
          2360 2368 2376 2384 2392 2400
          2408 2416 2424 2432 2440 2448
          2456 2464 2472 2480 2488 2496
          2504 2512 2520 2528 2536 2544
          2552 2560 2568 2576 2584 2592
          2600 2608 2616 2624 2632 2640
          2648 2656 2664 2672 2680 2688
          2696 2704 2712 2720 2728 2736
          2744 2752 2760 2768 2776 2784
          2792 2800 2808 2816 2824 2832
          2838 2844 2850 2856 2862 2868
          2874 2880 2886 2892 2898 2904
          2910 2916 2922 2928 2934 2940
          2946 2952 2958 2964 2970 2976
          2982 2988 2994 3000 3006 3012
          3018 3024 3030 3036 3042 3048
          3054 3060 3066 3072 3078 3084
          3090 3096 3102 3108 3114 3120
          3126 3132 3138 3144 3150 3156
          3164 3172 3180 3188 3196 3204
          3212 3220 3228 3236 3244 3252
          3260 3268 3276 3284 3292 3300
          3308 3316 3324 3332 3340 3348
          3356 3364 3372 3380 3388 3396
          3404 3412 3420 3428 3436 3444
          3452 3460 3468 3476 3484 3492
          3500 3508 3516 3524 3532 3540
          3548 3556 3564 3572 3580 3588
          3594 3600 3606 3612 3618 3624
        </DataArray>
        <DataArray type="UInt8" Name="types" format="ascii" RangeMin="12" RangeMax="13">
          12 12 12 12 12 12
          12 12 12 12 12 12
          12 12 12 12 12 12
          12 12 12 12 12 12
          12 12 12 12 12 12
          12 12 12 12 12 12
          12 12 12 12 12 12
          12 12 12 12 12 12
          12 12 12 12 12 12
          12 12 12 12 12 12
          12 12 12 12 12 12
          12 12 12 12 12 12
          12 12 12 12 12 12
          12 12 12 12 12 12
          12 12 12 12 12 12
          12 12 12 12 12 12
          12 12 12 12 12 12
          12 12 12 12 12 12
          12 12 12 12 12 12
          12 12 12 12 12 12
          12 12 12 12 12 12
          12 12 12 12 12 12
          12 12 12 12 12 12
          12 12 12 12 12 12
          12 12 12 12 12 12
          12 12 12 12 12 12
          12 12 12 12 12 12
          12 12 12 12 12 12
          12 12 12 12 12 12
          12 12 12 12 12 12
          12 12 12 12 12 12
          12 12 12 12 12 12
          12 12 12 12 12 12
          12 12 12 12 12 12
          12 12 12 12 12 12
          12 12 12 12 12 12
          12 12 12 12 12 12
          12 12 12 12 12 12
          12 12 12 12 12 12
          12 12 12 12 12 12
          12 12 12 12 12 12
          12 12 12 12 12 12
          12 12 12 12 12 12
          12 12 12 12 12 12
          12 12 12 12 12 12
          12 12 12 12 12 12
          12 12 12 12 12 12
          12 12 12 12 12 12
          12 12 12 12 12 12
          12 12 12 12 12 12
          12 12 12 12 12 12
          12 12 12 12 12 12
          12 12 12 12 12 12
          12 12 12 12 12 12
          12 12 12 12 12 12
          12 12 12 12 12 12
          12 12 12 12 12 12
          12 12 12 12 12 12
          12 12 12 12 12 12
          13 13 13 13 13 13
          13 13 13 13 13 13
          13 13 13 13 13 13
          13 13 13 13 13 13
          13 13 13 13 13 13
          13 13 13 13 13 13
          13 13 13 13 13 13
          13 13 13 13 13 13
          13 13 13 13 13 13
          12 12 12 12 12 12
          12 12 12 12 12 12
          12 12 12 12 12 12
          12 12 12 12 12 12
          12 12 12 12 12 12
          12 12 12 12 12 12
          12 12 12 12 12 12
          12 12 12 12 12 12
          12 12 12 12 12 12
          13 13 13 13 13 13
        </DataArray>
      </Cells>
    </Piece>
  </UnstructuredGrid>
</VTKFile>
