<?xml version="1.0"?>
<VTKFile type="UnstructuredGrid" version="0.1" byte_order="LittleEndian" header_type="UInt32" compressor="vtkZLibDataCompressor">
  <UnstructuredGrid>
    <Piece NumberOfPoints="774" NumberOfCells="452">
      <PointData>
        <DataArray type="Int32" Name="libmesh_node_id" format="ascii" RangeMin="2286" RangeMax="4991">
          2286 2287 2288 2289 2290 2291
          2292 2293 2294 2295 2296 2297
          2340 2341 2342 2343 2344 2345
          2346 2347 2348 2349 2350 2351
          2400 2401 2403 2404 2406 2407
          2412 2413 2414 2415 2416 2417
          2418 2419 2420 2421 2422 2423
          2487 2488 2489 2490 2491 2492
          2523 2524 2525 2526 2527 2528
          2529 2530 2531 2532 2533 2534
          2550 2551 2552 2553 2554 2555
          2556 2557 2558 2559 2560 2561
          2580 2581 2582 2583 2584 2585
          2685 2686 2687 2688 2689 2690
          2691 2692 2693 2694 2695 2696
          2698 2699 2700 2702 2703 2704
          2706 2707 2708 2796 2797 2798
          2799 2800 2801 2802 2803 2804
          2805 2806 2807 2838 2839 2840
          2841 2842 2843 2844 2845 2846
          2847 2848 2849 2881 2883 2885
          2949 2950 2951 2952 2953 2954
          2955 2956 2957 3054 3055 3056
          3057 3058 3059 3093 3094 3095
          3096 3097 3098 3099 3100 3101
          3102 3103 3104 3117 3118 3119
          3120 3121 3122 3123 3124 3125
          3126 3127 3128 3195 3196 3197
          3198 3199 3200 3201 3202 3203
          3210 3211 3212 3213 3214 3215
          3216 3217 3218 3219 3220 3221
          3222 3223 3224 3225 3226 3227
          3252 3253 3254 3255 3256 3257
          3300 3301 3302 3303 3304 3305
          3306 3307 3308 3309 3310 3311
          3318 3319 3320 3321 3322 3323
          3324 3325 3326 3327 3328 3329
          3330 3331 3332 3333 3334 3335
          3366 3367 3368 3378 3379 3380
          3381 3382 3383 3384 3385 3386
          3387 3388 3389 3390 3391 3392
          3453 3454 3455 3456 3457 3458
          3459 3460 3461 3483 3484 3485
          3492 3493 3494 3525 3526 3528
          3529 3531 3532 3543 3544 3545
          3564 3565 3566 3567 3568 3569
          3570 3571 3572 3588 3589 3590
          3591 3592 3593 3609 3610 3611
          3612 3613 3614 3615 3616 3617
          3618 3619 3620 3630 3631 3632
          3633 3634 3635 3636 3637 3638
          3639 3640 3641 3654 3655 3656
          3657 3658 3659 3660 3661 3662
          3684 3685 3686 3687 3689 3691
          3693 3694 3695 3696 3697 3698
          3708 3709 3710 3711 3712 3713
          3735 3736 3737 3738 3739 3740
          3741 3742 3743 3744 3745 3746
          3747 3748 3749 3762 3763 3764
          3771 3772 3773 3774 3775 3776
          3777 3778 3779 3786 3787 3788
          3795 3796 3797 3798 3799 3800
          3801 3802 3803 3804 3805 3806
          3807 3808 3809 3816 3817 3818
          3834 3835 3836 3837 3838 3839
          3846 3847 3848 3849 3850 3851
          3861 3862 3863 3882 3884 3885
          3887 3888 3890 3900 3901 3902
          3903 3904 3905 3906 3907 3908
          3924 3925 3926 3927 3928 3929
          3930 3931 3932 3939 3940 3941
          3942 3943 3944 3954 3955 3956
          3958 3959 3960 3962 3963 3964
          3969 3970 3971 3972 3973 3974
          3993 3994 3995 4032 4033 4034
          4035 4036 4037 4053 4054 4055
          4056 4057 4058 4059 4060 4061
          4062 4063 4064 4089 4090 4091
          4104 4105 4106 4107 4108 4109
          4116 4117 4118 4128 4129 4130
          4167 4168 4169 4170 4171 4172
          4185 4186 4187 4208 4209 4212
          4213 4216 4217 4233 4234 4235
          4236 4237 4238 4254 4255 4256
          4257 4258 4259 4269 4270 4271
          4272 4273 4274 4284 4285 4286
          4287 4288 4289 4290 4291 4292
          4293 4294 4295 4302 4303 4304
          4314 4315 4316 4317 4318 4319
          4320 4321 4322 4323 4324 4325
          4326 4327 4328 4338 4339 4340
          4344 4345 4346 4350 4351 4352
          4353 4354 4355 4365 4366 4367
          4368 4369 4370 4371 4372 4373
          4374 4375 4376 4377 4378 4379
          4380 4381 4382 4383 4384 4385
          4386 4387 4388 4389 4390 4391
          4398 4399 4400 4416 4417 4418
          4422 4423 4424 4425 4426 4427
          4428 4429 4430 4434 4435 4436
          4437 4438 4439 4440 4441 4442
          4443 4444 4445 4458 4459 4460
          4482 4483 4484 4485 4486 4487
          4488 4489 4490 4491 4492 4493
          4494 4495 4496 4497 4498 4499
          4500 4501 4502 4506 4507 4508
          4509 4510 4511 4518 4519 4520
          4521 4522 4523 4545 4546 4547
          4566 4567 4568 4569 4570 4571
          4572 4573 4574 4599 4600 4601
          4602 4603 4604 4605 4606 4607
          4611 4612 4613 4647 4648 4649
          4650 4651 4652 4653 4654 4655
          4656 4657 4658 4677 4678 4679
          4689 4690 4691 4692 4693 4694
          4695 4696 4697 4716 4717 4718
          4743 4744 4745 4746 4747 4748
          4749 4750 4751 4779 4780 4781
          4788 4789 4790 4800 4801 4802
          4803 4804 4805 4806 4807 4808
          4809 4810 4811 4830 4831 4832
          4872 4873 4874 4902 4903 4904
          4923 4924 4925 4968 4969 4970
          4986 4987 4988 4989 4990 4991
          2880 2882 2884 3883 3873 3886
          3876 3889 3879 3957 3961 3965
          3875 3878 3881 4119 4120 4121
          4206 4207 4210 4211 4214 4215
          4347 4348 4349 4251 4252 4253
        </DataArray>
        <DataArray type="Float64" Name="resid_x" format="ascii" RangeMin="-0.03084269917142457" RangeMax="0.0019427966215186387">
          -0.00008294134495923089 0.00048727612649379637 0.0002741504144596618 0.000979835763921244 -0.002279869579262961 -0.0006980080047354065
          -0.005005164722271083 -0.0030431477881283087 -0.012893240669056283 -0.01515920195616971 -0.0158765525923501 -0.012802073991680096
          -0.003941445874394489 0.000913108704944321 0.0007602488086189685 0.0019427966215186387 -0.010251493808288714 -0.0005010745866620425
          -0.001364482774786846 -0.00027879482485992924 -0.020114782547937082 -0.011042644842405025 -0.008888795875050648 -0.010948549054162982
          -0.02015174969325706 -0.004061267460865103 -0.028370925166901984 -0.006213046682320922 -0.02238953416216649 -0.01162141456236565
          -0.0015971283181119844 -0.00021806088080467134 -0.00008364761080414951 -0.001576603767118101 -0.004773035163106343 -0.0021097578581121823
          -0.0037076966395823696 -0.007217021346646035 -0.004470800788515916 -0.0031093090043476934 -0.003889958539196048 -0.006220202186677071
          -0.003678428676799017 -0.002149528994194405 -0.0018971979560240548 -0.0017618815290250112 -0.006496789220479915 -0.007293626788509755
          0.0001219630940374472 0.0006353356773234342 -0.0023389014357562132 -0.002580195875781399 0.00015143783832272106 0.0007470124079689278
          -0.006227884448716026 -0.007436432803260118 0.0018615787616331758 0.0018981017124144461 0.001543670984927914 -0.002767931827985848
          0.0001294201513588611 0.0003725878978750874 0.00035980287429460134 0.000019546564741901307 -0.000009071934441884366 0.00029015475255622647
          0.00011171841171808694 -0.0019598038161401377 -0.008911097621938868 -0.004641827163923029 -0.0054150093957003875 -0.007688564546008081
          -0.001186517745676241 -0.0013988513971581185 -0.0020034997539974952 -0.00306527138731294 -0.007940697500595562 -0.010006672240821857
          -0.00021760220219313453 -0.00009448933790068281 0.00018143054915764623 -0.00005272494781749515 -0.0006095055311332587 -0.0004151909915934837
          0.00001607141444015525 -0.00045756244510108957 -0.009964371120616988 -0.011969825425942382 -0.009570950445757731 -0.008525168865243238
          -0.010189722536079415 -0.012256215906236712 -0.0049218075634147596 -0.01968759191208136 -0.008103881086144682 -0.001279125588683705
          -0.018999030538594752 -0.016407751828269035 -0.0096987019292607 0.0005701854571933396 0.0005819853177881917 0.00019197143676841222
          0.0008291442587875508 0.0004250747939922306 0.00039849148531256873 -0.000304275247990482 -0.00019649415293931938 -0.004023015331315882
          -0.002072474318928652 -0.0027806314370071306 -0.00435754251024445 0.00007050973287281437 0.00005402135148013798 -0.00006059798547486395
          -0.00005799809941109402 -0.0006070276491882964 -0.0012309345406062988 -0.0010768365279618664 -0.002067907112500489 -0.00417884347773434
          -0.0051854828322044355 -0.004418179084098028 -0.003921590149472909 -0.007751784407131979 -0.0128046491084568 -0.008402160347002585
          -0.0012232428347696 -0.0010863506474354523 -0.001847970209788219 -0.0013924516914132212 -0.0017224994797633286 -0.002329991156057698
          -0.0010963199074636165 -0.0009419203721385827 -0.0015428336579623725 -0.0008319338132354304 -0.0011991639364987705 -0.0008041934793174832
          -0.0017264064449546979 -0.005581305784831514 -0.006219746334856779 -0.005042186367469448 -0.004499325528142251 0.00012146075389241062
          0.00024536803407659846 -0.004032769678803838 -0.002877879765936342 -0.00012595751084676365 0.0002425434935409143 -0.002329935008316575
          -0.002334478895679837 0.000518705950820042 0.0009327221510133654 -0.0004255667785102446 -0.0003544287760317566 -0.001154109655729485
          -0.0016541402114391701 -0.00044865778979463755 -0.0002711282609211274 -0.002638890093784596 -0.003035715677199846 -0.013676923127556861
          -0.010131604403783356 -0.01109596209854935 -0.016306796487423725 -0.00021977746369961082 -0.0010797828026927192 -0.0018802869120815302
          -0.0017471273239486607 -0.0026767724804246384 -0.0018020185581564263 -0.004509079108982128 -0.007846555508242758 -0.004071785235035819
          -0.0014840239483016049 0.00008161190647548722 -0.0023368434606254596 0.0003151114355022244 -0.010842395109137648 -0.007290200576944628
          0.0002095594645465937 -0.0013309836672243947 -0.0020769588589399923 0.000570392488184801 0.00027162603070518543 -0.0019018098632335168
          -0.0022716379006721965 0.00034496523041394056 -0.004708164316744146 -0.006433478727773334 -0.006767263075117214 -0.0034276565427324712
          -0.003104195459453507 -0.006496667922252897 -0.0015976652047262618 -0.009461370524123325 -0.003291716047375104 -0.00848197150218688
          -0.0013603053111630459 -0.0012363131896719892 -0.003804613839598403 -0.00392205879201768 -0.007648433947053945 -0.005951542199566617
          -0.0027744177390212066 -0.003457354259606582 -0.0006558144236756824 -0.0012728760687590324 -0.001536547387261944 -0.0027003264388429926
          -0.0009407239940066869 -0.0026426772647640817 -0.0005159106000496294 0.0004574124229264065 -0.0022557236619844545 -0.0053369844709521
          -0.002765233771007125 -0.0017330490893835426 -0.007131796972352333 -0.006440948530923585 -0.005612704324969187 -0.006927723288463361
          -0.002466021909762528 -0.0011266475994524683 -0.002172144612516025 -0.001320058472470187 -0.0014699822936685703 -0.0015310915456643315
          -0.0013634921904301933 -0.0035648588322665375 -0.008288035749203004 -0.0018327607197559104 -0.0023541001055829014 -0.0018742692803868088
          -0.0025268713861503755 -0.0032861056483453055 -0.005522540818946098 -0.0009389495457208241 -0.0006862872177109125 -0.0012261939582582926
          -0.001188721133890347 -0.0007994329198739436 -0.0033717330018685487 -0.0038292336064005283 -0.0010162456429201328 -0.0027023967595400933
          -0.00012729771699682146 0.00008889987557747503 -0.0013016267527667935 -0.0002964971303622832 -0.00002129120507543547 -0.003236614172632102
          -0.007411677252136428 -0.006104240546602746 -0.009453532273347776 -0.0037931486528846037 -0.002373895436596385 -0.0005286693455266445
          -0.0003183526595140762 -0.00029371361641050697 -0.0065308210038868 -0.010946001091614477 -0.016609070303800877 -0.02490821844000024
          -0.0261590922036099 -0.020730197868946476 -0.018986932515158372 -0.0004867941882356064 -0.00041991577516586887 -0.005214721001090439
          -0.00012822895961939196 -0.002150876069258789 -0.002744912422476542 -0.0003062073281512312 -0.001983124222070476 -0.001373341433424713
          -0.004443616564906883 -0.004408845673344874 -0.006119805892843111 -0.0010592442354839804 -0.0006452378880235088 -0.0012205996169774025
          -0.0002704964758137862 -0.004324561001686433 -0.0013439242535544516 -0.008122012978489579 -0.000721725097562298 0.0000602197813952543
          -0.0005431661300026036 -0.016881286033559206 -0.004077746420983797 -0.002078177089782862 -0.00694322664098479 -0.023550801743724037
          -0.008941267597074254 -0.012914200256105346 -0.017995536551097757 -0.0001796783522047818 -0.0026549429689062265 -0.0029096522110849676
          -0.00023973463043880372 -0.0017073123858217798 -0.0064520296825385515 -0.004349283072806465 -0.0028796785794531488 -0.014967924215694595
          -0.017675782430278453 -0.017496052389306627 -0.01750393758987201 -0.007042242563787937 0.0005136280741950827 0.0003176560548459051
          -0.015973139415750737 -0.0003940372162727357 -0.002976423567745634 -0.016733431286400702 -0.01431282545657675 -0.009757823561664658
          -0.003352790048538168 -0.002250586214765704 -0.0016058859565735162 -0.0030334917768808367 -0.004738601381655272 -0.002683629679001598
          -0.01676962214136113 -0.01276043407759797 -0.02411059494683876 -0.017199251480708 -0.016461150490969967 -0.01740119668307827
          -0.010611333503303122 -0.012090743180515062 -0.006645522027509898 -0.0061447928005415875 -0.016084472765223623 -0.017100454786906027
          -0.006954717344843431 -0.00333297793491516 -0.002213282719565779 -0.008674899155676874 -0.002216148989112432 -0.006336629597305077
          -0.008863456704622408 -0.004423697387124115 -0.0005949580572092716 -0.0022581796768514906 -0.008514738404698186 -0.018646918162493087
          -0.005913755970306078 -0.011935133251142815 -0.01812812884968462 -0.010735474284685687 -0.005438056537297342 -0.014430686511798463
          -0.008742401693730972 -0.00491899507720861 -0.015340422109499263 -0.0016413549341955935 -0.002486745118042588 0.0002093916382723826
          -0.0016649881371049169 -0.003484833873372617 -0.005789707637087194 -0.005036128545283347 -0.003881827347427702 -0.0029799634369487293
          -0.004767975174951644 -0.003191667235289408 -0.0034364348597399896 -0.00171192992083391 -0.005985638188056086 -0.0054903282768590245
          -0.0033576541922313297 -0.0017176454286103038 -0.0007954839363595312 -0.004319302654761742 -0.002958875218453727 -0.003106230757199069
          -0.001321251251742872 -0.008745740192792173 -0.007509171161375505 -0.007660763684372962 -0.0032620580830931 -0.010862035672547954
          -0.010219892367284267 -0.006476630517077808 -0.01757750365974431 -0.00418348471924801 -0.0010105952101858717 -0.005565544280363488
          -0.0008820529057018689 -0.0019495131790343567 -0.00004098324735490877 -0.0020124594434145493 0.00035952165508845724 -0.0019000290714923374
          -0.005134918066847877 -0.0006559103999571603 -0.0036210576882663714 -0.011785782522179211 -0.015989210211367677 -0.023514668499152513
          -0.02418848386907335 -0.012846907834020982 -0.017673227209778375 -0.000688636995569869 -0.001234010625043247 -0.0009449201192026635
          0.00008142995837356892 -0.0013223269066049426 -0.00097244406906416 -0.005047500867105814 -0.004101325249188825 -0.0036084605113080315
          -0.002833369065444291 -0.0009506820842704045 -0.0035954841025933604 -0.0014206085713595051 0.00032628652863575525 -0.002233152719139042
          -0.001400569592142853 -0.0003831276783738957 -0.001030614730367141 -0.0060308543575695595 -0.0050045904149738085 -0.008748696806518907
          -0.006026316977103541 -0.001589469445986147 0.0007101314044772877 -0.013153593364823024 -0.006873724022773864 -0.01977600038664562
          -0.02808415729649738 -0.011207532719232027 -0.026166349774572772 -0.018803150015227033 -0.012214813310081674 -0.01895972020908765
          -0.012568916925697948 -0.012339402374530906 -0.009506569364569728 -0.00411855626868185 -0.0054352859824371436 -0.006509331195004631
          -0.012630545675914817 -0.012606153297062939 -0.015279296460343872 -0.0012242955048318294 -0.0016252633112028292 -0.00006128123638671212
          -0.0015083180741708446 -0.00004238782626941884 -0.0015608298490858985 -0.0011909427803535877 -0.00021935267148709414 -0.0002226096146564771
          0.00012215999217524143 -0.0008114284249556292 -0.0017739026734888697 -0.0017157471986433137 -0.0003412644722233793 -0.001754367402558188
          -0.00028659091752913923 -0.004371462663759207 -0.0015290980485396233 -0.0036642027860582793 -0.002548953179231539 -0.0059321473596716245
          -0.0033410219509235617 -0.009354612205766166 -0.0018660417907740978 -0.005208002211476881 -0.00025117829510712397 -0.0022752430096950604
          -0.0037000007401966073 -0.0016131739399583012 -0.0008901940138157372 -0.008650643582741147 -0.00040932184455311216 -0.013008436162774473
          -0.00281303752315587 -0.0008558690545346082 -0.0010842670211186345 -0.007054729343378696 0.0002780680921059542 -0.011591723356438877
          -0.006442341987846989 0.0000688440340923524 -0.009860401437352673 -0.014098411198869343 -0.0077873922669740026 -0.01954572935889365
          -0.010906737516912735 -0.006671115009195372 -0.0037165958394957954 -0.006909099617332326 -0.008508058788336825 -0.0018515029459070798
          -0.002805789885410803 -0.004705794150615006 -0.007444352188038295 -0.004614748832817206 -0.002088664455568434 -0.006329751725775878
          -0.007582386612315695 -0.0014523751690020958 -0.015217343089205748 -0.01140158443985495 -0.0024281913683816825 -0.009380946216142938
          -0.004336502816413734 -0.002079838377028409 -0.002634855357154464 -0.003304452272922198 -0.002829743980821142 -0.0016093651776056817
          -0.004930463948420893 -0.0065594134450162045 -0.0031520011356169775 -0.002639123413739952 -0.0027242625363044226 -0.00016975421997500462
          0.00029142295119921613 -0.00018470543505610948 -0.001070217177843169 -0.0027919807971974464 -0.0004734423370846841 -0.0002202758914480185
          -0.0012189359753138618 -0.0024534578922530415 -0.00019364275497268935 -0.0030101162182587515 -0.0031820621771467827 -0.0035906029598580247
          -0.00827058610383169 -0.01254269217928261 -0.0009527194493923474 -0.003551637744723557 -0.027535206528135348 -0.000823937621291293
          -0.0134770106031743 -0.024694905755472618 -0.012775990493385514 -0.005220049959445916 -0.00605629364931648 -0.014005938983419064
          -0.0028580551607078064 -0.0008468793105729233 -0.0005000253113216502 -0.005127763404271235 -0.005345713831095722 0.0004322263734843901
          0.0005474595555075012 -0.010925838680570621 -0.009376747911147731 -0.005233600351365553 -0.002792259983627865 -0.0015547065977967733
          0.0001632479918698415 -0.0003700221705065232 0.00036419198124937324 -0.0026963994124602486 0.0004707797477503384 -0.0002169545263641659
          -0.00592671695859881 -0.005413165824901256 -0.002237759617675472 -0.0027623735334514343 -0.0012111603808513394 -0.0018601409882301745
          -0.003969153008784865 -0.0012570299482090874 -0.0000763778930004122 0.00026976228298325466 -0.008133505054361834 -0.0018949871123252748
          -0.0024653088986341665 -0.001469512613123669 -0.0074573734053640095 -0.004446778722537736 -0.00761209836687371 -0.006070313504526581
          -0.008936577963290837 -0.002696853079544148 -0.013580291032684322 -0.005757412566702591 -0.003649005868192834 -0.005808251705490264
          -0.002612793539221947 -0.0030124481154896188 -0.0019956206642266494 -0.0020343320183888736 -0.004547838496971046 -0.0023768925590621492
          -0.005484507247096593 0.0004753937414053999 -0.002253186911239269 -0.015098326671964202 -0.003187663791847317 -0.030587415982672894
          -0.00008142098920727037 -0.022091501114061884 -0.006611794446826025 -0.00039388006218921134 -0.0013259522476403163 0.000015055897773841309
          -0.002928730014755132 -0.00813857941915419 -0.01035274443583134 -0.01555804944643846 -0.03084269917142457 -0.02492085136251987
          -0.0036834069952158544 -0.0037345036239885276 0.00010713248441973633 -0.002102802828508721 -0.00020564517262844362 -0.001541921922497247
          -0.0000638254036706698 -0.005509183497922621 -0.008563655127648673 -0.0030834499909495605 0.00017478785768076932 -0.0066100251800040866
          -0.00512836496936675 -0.0026176541722486846 -0.005903122783220027 -0.011519977554012684 -0.012219183495973063 -0.008890471409393363
          -0.002727036056127119 -0.0021312926448606717 -0.00653474234480278 -0.010523513828761821 -0.0027259460978044103 -0.004191317893290858
          -0.001874049976222203 -0.013555208348117631 -0.004202133942801112 -0.0008969036514292483 -0.0015896253882345945 -0.0004773597153580056
          -0.0006211396492856736 -0.007717037014002948 -0.007468572511078797 -0.0007873088891017233 -0.00012775400458497899 -0.007835927894400463
          -0.006621794493647526 0.0007692435993502666 -0.009980708834063545 -0.0012362793222404633 -0.0009436732672130077 -0.007390587835836904
          -0.008615953303888979 -0.006438856685365479 -0.009323787833025676 -0.009900518722850471 -0.01696282487557177 -0.009855870985729709
          -0.0007898016592102763 -0.0026617163546687195 -0.0003964052408536034 -0.0017807434266217115 -0.008101886338111264 -0.006806380469995155
          -0.00894717121295674 -0.0019580096156754934 -0.01175146658504822 -0.005514633367249111 -0.004004784950995877 -0.0024455360399082693
          -0.008779573907406135 0.0011069615244043707 -0.012910162356621457 -0.0036821810280969203 -0.00047901266988414903 -0.0004967978788261718
          -0.0062635758402453945 -0.008190824647405393 -0.008320881546176828 -0.006486556491806517 -0.000800294876234342 -0.0020618219983120634
          -0.0005873967853586848 -0.0015714796094234984 -0.00035305628573745196 -0.0002517444313481221 -0.0004923382685104727 -0.0001857503052660192
          -0.0030831645739652913 -0.00601173058462301 -0.004282381575143823 -0.0056605972164049945 -0.00042135493328743223 -0.003726115949686637
          -0.007427610784184857 -0.00696968725514413 -0.0003914666959250468 -0.004444716418280592 -0.006696848494167185 -0.006977553398117564
          -0.006933228479482523 -0.0015853603386783988 -0.006306715964503162 -0.008310021651100286 -0.006640886941995827 -0.00867969807364588
          -0.0005327255904870043 -0.00048212858979646 -0.005564922189362775 -0.008710371060738797 -0.0016458485347223828 -0.007810287384989678
          -0.010397517905555986 -0.012548180302976775 -0.0035241674726087524 -0.00862294616133319 -0.012300544620821974 -0.01598118410608773
          -0.007700647451987841 -0.002617142142560258 -0.005888182993361912 -0.011061681224714626 -0.013439699374279357 -0.010105819440429542
          -0.013325223335522107 -0.017530748456027645 -0.00736819256408916 -0.022468157123148202 -0.029384528035979685 -0.018895491822592092
          -0.003998576511979657 -0.0016453093900792304 -0.001245118405450274 -0.018669348118939055 -0.025662463104866973 -0.016860572947489327
          -0.013401565122214354 -0.01535810527116066 -0.0027230033679486176 -0.003672942434644444 -0.006795019859000551 -0.009735007273937502
          -0.010230632568918097 -0.019193516157788082 -0.006037822767488876 -0.013836823701669942 -0.013229399342145953 -0.02145884067016368
          -0.021108588409617823 -0.0105575800856883 -0.01112390937389307 -0.0170958860747219 -0.024584359386330412 -0.013258316247799051
          -0.014366368219953074 -0.013743214615342225 -0.012043900486929715 -0.009077386219670025 -0.010657499700077011 -0.004923906909914955
          -0.005578102566381027 -0.014807108312202999 -0.012313230116406615 -0.025784822222359338 -0.006808396295624242 -0.013870135451849563
          -0.013390192938252277 -0.013619718946230819 -0.007141540170231941 -0.015273169196446723 -0.01955204297030555 -0.007551029200532966
        </DataArray>
        <DataArray type="Float64" Name="resid_y" format="ascii" RangeMin="-1.1548016908509329" RangeMax="1.0503185107325632">
          -0.000034946352500453415 -0.0005836491057293058 -0.00008468063691666194 -0.0009218937453895903 0.0015823709314828904 0.000668832025649102
          0.0030460509436172345 0.0012873375509477314 0.006232517120864728 0.007112062925728191 0.007260474720589216 0.006089895300549569
          0.002448775157138733 -0.0005389330381091878 -0.0007811250262545755 -0.001176326072127809 0.00568289139677923 0.00004844130865178098
          -0.0005502667544334261 0.0011068463876213186 0.008858986709540662 0.003989992540838733 0.004349921080822661 0.005975481604180322
          0.011688518303143325 0.006891391179515982 0.014989241544971388 0.013909154161031306 0.00968260412047639 0.008653355561095477
          -0.0013977976800979598 -0.0003231660604130493 0.00004529485885018669 -0.0019046905801361202 -0.002322191390999137 0.0003686745995767349
          0.0009727218893414991 -0.004155573321574957 0.00010303644002706246 0.0013612716792247917 0.0013734925038149104 -0.0010427704402827531
          -0.0005602821084558923 -0.0009298542186587239 0.00024064467220659413 0.0013183992814262968 0.0038625426519004885 0.004229626752485602
          0.000020280851445730885 -0.00003144718678693703 0.0028782797954297057 0.0016175954533486359 0.00008519961039313295 0.0004229984992615843
          0.006843542379249334 0.0031134450178650214 0.0004131061996028029 0.0007010105847808923 0.003748451915499551 0.0015368086967945532
          -0.00032730296782812474 0.000013999764281513727 -0.00045579760284386595 -0.00042991256270291656 -0.000551999088123839 0.00035422342896213044
          -0.00033017172560367847 -0.0003461005856673083 0.00022220213868642813 0.0009237473037562172 0.0008628561239686361 0.0004372520986804518
          0.0021920188480143987 0.004215857773210842 0.0023591755748689214 0.003721909245548303 0.004257577402366264 0.0051434441849794975
          -0.00036230763098674124 -0.00024350973446507496 -0.000124258496196461 -0.0002477629907818857 -0.0007132853739798273 -0.0005031156725168184
          -0.00009412064532787756 -0.00040507230622460755 -0.00036931011485796805 -0.00029655830370223235 -0.00006834875586503308 -0.00015932048431155366
          -0.0013314100398991446 0.011925144063579918 0.010055684306268506 -0.0002807707548301841 0.007617812497801024 0.009126307539861267
          0.006879278012808743 0.008080631900945767 0.006805034446984937 -0.00016500138751557314 -0.0002667703349070469 -0.0003684610318039627
          -0.00016429836560952205 -0.0002075726611917572 -0.0004072536073937653 -0.0006554149586140839 -0.0003041469979319644 0.0002922409601372744
          0.0002095522098182756 0.0003895023141386039 0.0002732376963194699 -0.00029099040688715383 -0.0004363065650128256 -0.0005893536135428423
          -0.0004978337813834818 -0.00032566632217850833 -0.00027978414159757214 -0.0006270202497202226 -0.0005485959493971987 0.00036276909074556274
          0.0010923449358236081 0.0010492505252479023 0.0002963442571836186 0.0014254488195849097 0.0012232368698709833 0.0018466507504212998
          0.0007952234804781688 -0.0002300981546643488 0.00032860922381616753 0.0004503702888805222 -0.0003627991131579522 0.0015972237041451676
          0.0007506484241729949 0.0008958142897499966 0.0024020999257378106 0.00029282990137624587 0.00209587864148 -0.0003350497313251988
          0.0014297661455760918 -0.000008297442795096588 0.001019271332502493 0.0004458625978339681 0.0012772744625263455 -0.000014350168884430525
          -0.00024807358517636713 0.0010583314964083268 0.0004419100909086038 -0.0001440941828879383 -0.00007545860904517587 0.0016225238162981825
          0.001085004220235497 0.0006584892568236855 0.0012230657391445465 -0.00039161794886011236 -0.00008348952804637655 -0.0000488895257803601
          -0.0006348906417137368 -0.0007749208064735669 -0.0003428828185063626 -0.0001405239832980576 -0.0012578441401061013 -0.0005057291366392658
          -0.00025393293251230187 0.00020520363070714032 -0.0002906320573769494 -0.00010720483239246015 0.0019841533979101933 0.00030788374357017256
          0.00027747668549196747 0.0002148494359821007 0.002579325122745363 0.0019198122981076982 0.002783170975048599 0.002980303413222543
          -0.546144533627846 -0.4645663077977963 -1.1548016908509329 -0.967215927247071 -0.6778186976581795 -0.668940433657728
          -0.0006243563370099126 -0.0008820318347620426 -0.00018555247752156945 -0.0008890489128431343 -0.0009698787705715861 -0.0011795585926051982
          0.0007385386503531433 -0.00028109133220793545 0.0038524141234874965 0.0022922387719437887 0.0030366315461233806 0.0025924461020481807
          0.0015174088657825546 0.005052596983210478 -0.0007801835614537622 0.004745098420085164 0.0008725156252188948 0.0031281706140581095
          -0.00009737427755363015 -0.0002601388424186557 -0.0007107324355423716 -0.0002212996048015503 2.0377364462476066e-8 0.00011684839512654532
          0.0018497904542823518 0.0012112499794119935 0.0008943425549539086 0.00023146888806885313 0.0025756494517403805 0.003418194099519628
          0.0017138799764858381 0.001754153891797422 -0.00008567171813803065 0.00009369589280099067 0.0005365456414609948 0.0035951848141670684
          0.0013242321094606713 0.0023081459284787914 0.0024629040059244156 0.003785434344116545 0.0033048512394432406 0.003911506800938755
          -0.00009837590224964776 -0.00039793830457043877 0.0005410410648628572 0.0008716592621131197 0.0022125640505761823 0.002228958116306523
          -0.00020594618493102734 -0.0005133323105250831 -0.000007470049605329265 0.001568647319658209 0.002262825619703146 0.0007296645922060252
          0.0010504239036484009 0.0016021352593248023 0.002605049527610981 -0.0003850827930153948 0.00031746728081819 -0.000035487840231732126
          -0.0010164413280473149 -0.0002107585003013751 -0.000527869954190574 -0.00016898055744741201 0.0005996188750549414 0.0004827081555029422
          -0.00041919881433016837 -0.000568109124797489 -0.0005122208170557641 -0.0008694146735437336 -0.0012284680510002977 -0.0014480855249645597
          -0.0004757843508280679 -0.0005136146984578982 -0.0006207002857260835 0.0019815366373810983 0.0012806175620580507 0.0019280861694135898
          -0.4824787097614724 -0.9766470239598061 -0.5989455671929407 0.0007321682523395018 0.009081808479913356 0.003436204941786633
          0.008341271614994927 0.006753030186110551 0.007937198332540779 -0.0005987902148528179 -0.0016882166455972347 -0.0004788844676673065
          0.00006496897737182095 0.002257506199045467 0.0023909518444440447 -0.00008672982500670945 -0.00021497362564365519 0.003271015207850142
          0.002105213463454103 0.001982387338620828 0.004865160049747963 0.0011443109233528759 0.0015704278466834726 -0.0002346596981824267
          -0.000035457573795236175 0.0014051224597100842 0.0014005108097436686 0.006837120670723701 0.0033283574342875266 -0.00024996893225248673
          0.00006257693966194022 0.014564062210578987 0.007924263754817001 -0.00034547488965130935 0.0016134865519860653 0.01236476812088505
          0.00662755698838359 0.004606211733855892 0.005077112648926629 -0.00004430543124300801 0.002662648070910323 0.005273417530445829
          0.0018179839744605075 0.00018518455959148916 0.0015994895663118958 0.004305601858414249 0.003957351711054491 0.005092315974148776
          0.004526950466244489 0.007091229790346404 0.00894526366927434 -0.00009051854117766989 -0.0009744748328888442 -0.00007462031919078238
          0.002323674408460402 -0.0003692948898476045 0.003911163613513513 0.005679561144168524 0.00783787739548883 0.006926326641335051
          0.001430388704472818 0.00029804547993977915 0.0007400686518254651 0.0012158337976838768 0.0018919389920868945 0.0013997544570747422
          0.010915494787241159 0.008967562973871412 0.016300186663984056 0.01561845642158971 0.009043523572882087 0.01110185848608386
          0.009726062692897053 0.008982602423131508 0.0053636988993454315 0.004960520213009689 0.006503860420614044 0.007186559161908412
          0.004017043273910233 0.001716559272567919 0.0016970015956762601 0.0020324604784900946 -0.0005395181345963229 0.0008145755632314733
          0.002602724584737065 0.000510931742352172 0.0009818391972277601 0.00029134656110696433 0.0046358679356527654 0.007416305839285153
          0.004789246357671348 0.007196755435057434 0.010000979914394859 0.004340621669430458 0.002641817060489521 0.007837976847910738
          0.005169137929796702 0.0020762168541133136 0.0068638392577900775 0.0007201648432069996 0.0011142815258985694 0.0010598634644809757
          0.0023922917691143186 0.0038601001321608708 0.004299428528255211 0.002743050447855999 0.001477947476376279 0.003348769145837982
          0.00021531267162946954 0.000492898386220797 0.001233226771789886 0.0029761254682270644 0.0042895478479989535 0.005194388085081381
          0.0018826193286466952 0.001162768025494143 0.0015441672293921294 0.00325840661282846 0.003681980107676161 0.0016966867572099156
          0.0021223086395404656 0.004252056403416339 0.0038658752696679455 0.005533446487701529 0.001261503030962903 0.004731370608755926
          0.005521510878015834 0.0022712304937855254 0.0069556662155461635 0.00327878522296271 0.0008880696729306192 0.0031329264605649276
          0.0011690107796831772 0.002028118329540432 0.000231986552252067 0.0008019902882157037 0.0018661103958461933 0.0022498183009591888
          0.0033315258104592016 0.0008093887435462743 0.0033528468855431037 0.0031354304108584252 0.008607380551324935 0.006219492310216845
          0.008156286435692231 0.003518121193508389 0.004930352260807479 0.00046642261511578575 0.0014759654944864198 0.0007580514450255815
          0.00042483148520697234 0.0008085009036556956 0.0005076935620310086 0.000386108766137927 0.0006060113418013824 0.0002900311942602152
          -0.0010522501119656913 0.000044579477990525085 0.0003379125676405345 -0.0007394018592309648 0.000578043864541522 0.0007226854263660681
          0.0010997263747365704 0.0014328758853036083 0.0015854043992103752 0.0080867986323655 0.006178412683302659 0.011843170641572032
          0.009219220033028774 0.006059029236984315 0.00481060802426414 0.0058815409523564205 0.0031493217610048807 0.003800312556430298
          0.012110708444320939 0.007547741664927693 0.010184629824117983 0.009315728385899447 0.00770736953715738 0.011336858404729512
          0.00439460646547947 0.004729396526767238 0.007327327678463114 0.0003404751400940542 0.004065810566573971 0.0024395473724336536
          0.012220173801977957 0.01726600135233236 0.009803550152055751 0.4680245388439871 0.37850899774236024 0.9487011440606261
          0.7663901591950246 0.5257199067631534 0.4408439029132229 0.14976485144781237 -0.0395412059564309 0.314133107949763
          -0.059726859651255904 0.24881436345103666 0.06814877302394728 0.00036689337975241015 0.0006854545230779441 -0.00048233327176459145
          -0.0006924337571124137 0.0010492251252899043 0.0007865283573040699 0.0022761907970872963 0.0004940496894123569 0.0012320872480592049
          0.5219744377466077 -0.00017354978842784585 1.0503185107325632 0.0004920408508412716 0.533655497716775 0.0011728000338335418
          0.4939387590695155 0.9861717246445817 0.4461866240621199 0.0049793872478371415 0.00029723952544008503 0.005103682083477903
          0.41487155377652124 0.8096645965482689 0.2727253646109031 0.004178097055683436 -0.0012224165516099839 0.0036583953278442327
          0.005489244852858739 -0.000609558647374827 0.002988061873521068 -0.0022240008760632812 0.5465032069987206 -0.0029873813670697746
          1.0364123882489202 -0.0006777409802740386 0.3019611662991373 0.005187717530653807 0.007446101006370762 0.001022827909451074
          0.0020753582994600395 0.0024800674300055336 0.0033182835948824263 0.002574385546752378 0.0007263627539469408 0.0028874520565737027
          0.006653990572567214 0.003080681016899789 0.007776171812092114 0.008635934448893712 0.0013159525881119571 0.003333546971479251
          0.0019307692237438834 0.0006325608373322911 0.0007285425580223215 0.002213853521065956 0.0013196671832751417 0.0021874040201770306
          0.007407895239521456 0.01132158095879321 0.007331059619463232 0.001488091350013765 0.0016750420238439423 -0.0000651772879516066
          0.00004560065316092099 0.0014915575873089837 0.002388513191077274 0.0013642524077650264 -0.0008419801231484281 0.0011701190551656887
          0.0005763778062457536 0.0008948246902885093 -0.001027104653047721 0.0007490449524191201 0.0002823791460598857 0.0009458776106151118
          0.004262628804539814 0.0030892507424847004 0.0002245082390313069 0.0015606880752903618 0.01039167701531632 0.0028230166999582418
          0.00826606998620516 0.012166757193714212 0.008085207597280819 0.011853983099846865 0.01460673137327348 0.00977350875482036
          0.001726982954031557 -0.00011905331581706091 0.0008559242905885577 0.004327587661381721 0.002668718555958585 -0.001509377848887869
          -0.0011832661542129502 0.0021972511707693543 0.002797923092591581 0.0024056870350659537 0.0017827583612242126 0.000677527110485826
          -0.00009121468927658638 0.000794799089186643 0.0006795357827840132 0.001731508644567309 -0.0001199609555600778 0.0012495176206722136
          0.0018767519899723778 0.001061658184783515 -0.00039261735145544596 -0.000039945083006670545 0.0011222327328224563 0.0008557014451393147
          0.001605620305150074 0.0003317293051068662 0.0003041502550241576 -0.00010541797024210542 0.004625825453270005 0.0017971619112738535
          0.00221630403006046 0.0027523021789847835 0.005137999432921314 0.0032000329731404487 0.0045337913156603404 0.004799362298573029
          0.005464500283909823 0.0010608130624542023 0.005283638624872439 0.004054344799634457 0.0024592550476278396 0.0037469601251017837
          0.00015810895858026086 0.0005391372539950354 -0.0003131480722068092 0.00009449466160094122 0.00011489213230639339 0.0003733062381111249
          0.0026481094873597455 -0.0006403799926533449 0.0024098002905229288 0.002610743819533981 0.003387695460555791 0.003363628463767393
          0.0004517337127926402 0.005913060816326615 0.00417082311102019 -0.00016045516266932625 -0.0005994100210983122 -0.0004020727596011908
          -0.0015585611970747593 -0.00026107532010882784 -0.0005257914266763031 0.011776095517633256 0.02079306401194614 0.01245865445387312
          0.0024232807681879576 0.001511537899599874 0.0003435146739177719 0.0013239342778186836 0.0012662086081556279 0.0011356920141534221
          0.00031288043568150625 0.0009401856875693448 0.004689627488560444 0.0020749614398506977 0.0009096774711137567 0.0017929609059518514
          0.004223025094612004 0.005140874719823774 0.003384714514018977 0.004396097632727941 0.006498737489371312 0.006364974296934334
          -0.00017715403971296784 -0.0009295969386827474 -0.00021395919241096184 0.004414712974366276 0.0009071613136379109 0.002163778846078563
          0.0012793987500581971 0.006353025240991225 0.002031354636350763 -0.0005817762911269897 -0.00043304291052514987 -0.0005787247182386102
          -0.0011009188055746688 -0.0001030087211967845 -0.0004003809217916765 -0.00016859311509187513 -0.00048757716157121767 -0.000195712497494116
          0.003995783890677493 -0.0008383749594691181 0.0034778371187520474 -0.0001250161403285044 -0.0005752888785786059 -0.00014196022737916758
          0.0060658344796427205 0.006251552324210624 0.005609180001303143 0.009611787488779944 0.013905710485775491 0.00750919085402435
          0.000031754388111981946 -0.00013626628967566834 -0.00020111161419805734 -0.0005209419949422367 -0.00013247591806836434 -0.000033642072127859635
          0.007529683792893066 0.0018709769492492312 0.0048691197840406986 0.0033021299071465116 0.001709538786742848 0.0019420948734791832
          0.006756105440569177 0.0022687293758340554 0.007634891493381424 0.0013607690156490493 -0.00039382813733302227 0.0005078891287632614
          0.0060951283816110535 0.007403254631792727 0.0056713690677200335 0.003240904942105702 0.0006095539163094438 0.0017364051330254204
          -0.10800991563807649 0.00021255322193663995 -0.1755522341992053 -0.19363384956039537 0.00013230538871961128 -0.3309960179786103
          -0.022540018502354375 0.00024979745139908083 -0.11948171888935255 0.0038374677605984564 0.00015701817345381563 0.00168337060223267
          0.006775809575316205 0.0040831260680801035 -0.0014092091188013106 -0.00041537756022666517 0.0017064002150846136 0.0010188048494177426
          0.0033906814184038736 -0.0011495750282348172 0.0019959339812205545 0.0077412716426705774 0.007622071780503226 0.005541759724087714
          -0.3351774966676193 -0.6630031446634056 -0.34651447183704165 0.005742566348288847 -0.000713900884407842 0.0023397814340114648
          0.0058144202072178686 0.004597348318718331 0.0017293445765183824 0.002320894520084771 0.005328079604223268 0.006473926054272883
          0.007508443205474707 0.005896664370512471 0.004927671810769425 0.0068192954972034515 0.009253467996844126 0.0057461991642433
          -0.0005755319231268846 -0.0014349679904907472 -0.000801371764563158 0.008555747526740654 0.001469939544608334 0.003163499339855394
          0.0007668727065838765 0.0002658900923462326 0.00041244663255057823 0.012793724821331731 0.01759638091648233 0.00985981119536336
          0.005201306959601006 0.005606390540880524 -0.001511589361492309 -0.00016873759898787533 0.0011344317445292212 0.0022641192153250306
          0.0028189353593398112 0.0038870044981363593 0.0013434945986756965 0.004146969023099904 0.006198483114708858 0.0060504879112105725
          0.01082822305925879 0.003175811278211968 0.005832316569796714 0.01072034380194592 0.014396089447638392 0.00825241695139673
          0.007226926165018327 0.006404104238215913 0.005806601915294807 0.007674679885646685 0.011615263893817007 0.0057326302129449
          0.44949243478503 -0.005248289924894123 0.876574017304637 -0.00807459259430704 0.3427017270441794 -0.0014516469000673826
          0.005240413271244912 0.0070704816364887645 0.0037129631158076184 -0.0047443727525783574 -0.010066301985456216 -0.003699117869572277
        </DataArray>
        <DataArray type="Float64" Name="resid_z" format="ascii" RangeMin="0" RangeMax="0">
          0 0 0 0 0 0
          0 0 0 0 0 0
          0 0 0 0 0 0
          0 0 0 0 0 0
          0 0 0 0 0 0
          0 0 0 0 0 0
          0 0 0 0 0 0
          0 0 0 0 0 0
          0 0 0 0 0 0
          0 0 0 0 0 0
          0 0 0 0 0 0
          0 0 0 0 0 0
          0 0 0 0 0 0
          0 0 0 0 0 0
          0 0 0 0 0 0
          0 0 0 0 0 0
          0 0 0 0 0 0
          0 0 0 0 0 0
          0 0 0 0 0 0
          0 0 0 0 0 0
          0 0 0 0 0 0
          0 0 0 0 0 0
          0 0 0 0 0 0
          0 0 0 0 0 0
          0 0 0 0 0 0
          0 0 0 0 0 0
          0 0 0 0 0 0
          0 0 0 0 0 0
          0 0 0 0 0 0
          0 0 0 0 0 0
          0 0 0 0 0 0
          0 0 0 0 0 0
          0 0 0 0 0 0
          0 0 0 0 0 0
          0 0 0 0 0 0
          0 0 0 0 0 0
          0 0 0 0 0 0
          0 0 0 0 0 0
          0 0 0 0 0 0
          0 0 0 0 0 0
          0 0 0 0 0 0
          0 0 0 0 0 0
          0 0 0 0 0 0
          0 0 0 0 0 0
          0 0 0 0 0 0
          0 0 0 0 0 0
          0 0 0 0 0 0
          0 0 0 0 0 0
          0 0 0 0 0 0
          0 0 0 0 0 0
          0 0 0 0 0 0
          0 0 0 0 0 0
          0 0 0 0 0 0
          0 0 0 0 0 0
          0 0 0 0 0 0
          0 0 0 0 0 0
          0 0 0 0 0 0
          0 0 0 0 0 0
          0 0 0 0 0 0
          0 0 0 0 0 0
          0 0 0 0 0 0
          0 0 0 0 0 0
          0 0 0 0 0 0
          0 0 0 0 0 0
          0 0 0 0 0 0
          0 0 0 0 0 0
          0 0 0 0 0 0
          0 0 0 0 0 0
          0 0 0 0 0 0
          0 0 0 0 0 0
          0 0 0 0 0 0
          0 0 0 0 0 0
          0 0 0 0 0 0
          0 0 0 0 0 0
          0 0 0 0 0 0
          0 0 0 0 0 0
          0 0 0 0 0 0
          0 0 0 0 0 0
          0 0 0 0 0 0
          0 0 0 0 0 0
          0 0 0 0 0 0
          0 0 0 0 0 0
          0 0 0 0 0 0
          0 0 0 0 0 0
          0 0 0 0 0 0
          0 0 0 0 0 0
          0 0 0 0 0 0
          0 0 0 0 0 0
          0 0 0 0 0 0
          0 0 0 0 0 0
          0 0 0 0 0 0
          0 0 0 0 0 0
          0 0 0 0 0 0
          0 0 0 0 0 0
          0 0 0 0 0 0
          0 0 0 0 0 0
          0 0 0 0 0 0
          0 0 0 0 0 0
          0 0 0 0 0 0
          0 0 0 0 0 0
          0 0 0 0 0 0
          0 0 0 0 0 0
          0 0 0 0 0 0
          0 0 0 0 0 0
          0 0 0 0 0 0
          0 0 0 0 0 0
          0 0 0 0 0 0
          0 0 0 0 0 0
          0 0 0 0 0 0
          0 0 0 0 0 0
          0 0 0 0 0 0
          0 0 0 0 0 0
          0 0 0 0 0 0
          0 0 0 0 0 0
          0 0 0 0 0 0
          0 0 0 0 0 0
          0 0 0 0 0 0
          0 0 0 0 0 0
          0 0 0 0 0 0
          0 0 0 0 0 0
          0 0 0 0 0 0
          0 0 0 0 0 0
          0 0 0 0 0 0
          0 0 0 0 0 0
          0 0 0 0 0 0
          0 0 0 0 0 0
          0 0 0 0 0 0
          0 0 0 0 0 0
          0 0 0 0 0 0
        </DataArray>
        <DataArray type="Float64" Name="stress_zz" format="ascii" RangeMin="-5710617.859622436" RangeMax="5465814.011147945">
          -1290639.144764645 -537376.5512972735 -1062836.630459174 -2155765.9069370376 -1382967.4751497924 -613159.8098366333
          -1085471.356746429 -2162345.6630833666 -1475295.8055349397 -688943.0683759929 -1108106.0830336842 -2168925.419229695
          386489.8159075004 127726.26407893759 370249.2570650415 895401.7908891602 391348.112512677 78880.90297495911
          346117.73491230555 899992.132101532 396206.4091178536 30035.54187098064 321986.21275956964 904582.4733139037
          -1185128.488388196 -662426.9043701745 -1253631.468332068 -619358.9657401721 -1322134.4482759398 -576291.0271101694
          -1772352.5439936365 -289505.179068811 -293967.99135033845 -2964430.767372209 -1738603.7945715426 -271443.29661718063
          -482603.4414173238 -3246024.927928171 -1704855.0451494493 -253381.4141655501 -671238.8914843091 -3527619.088484132
          887661.276621991 2078086.424481712 837460.8485702936 2027532.678789516 787260.4205185964 1976978.9330973201
          1967406.9034710065 3983707.6903226003 3933434.431840946 1367304.4293645332 2008992.9482796744 4275033.096728058
          3858676.682843376 1121091.8279410605 2050578.9930883422 4566358.503133515 3783918.933845806 874879.2265175878
          2242871.9686787827 2464694.4785130084 1666221.7529479088 1935223.4297106457 2351914.7536166147 2445546.903073923
          1772663.9739165276 2101700.0983707346 2460957.5385544454 2426399.327634838 1879106.194885146 2268176.7670308235
          -3152515.3300333614 -1924955.4540115083 -3176272.6263806527 -2010055.0680372408 -3200029.9227279434 -2095154.6820629733
          -963313.9375369097 2231426.9024781426 4139653.0061972383 2305847.0871028425 -1014515.1445557219 2312107.758705344
          4030070.5574508333 2261258.2903801138 -1065716.351574534 2392788.614932545 3920488.108704429 2216669.493657384
          1199536.761642766 1285784.8112911512 2552706.7401092597 1159408.0905243596 1219524.1511519968 2681625.734335319
          1119279.419405953 1153263.4910128424 2810544.7285613785 3135148.343989406 2640758.035634721 1484458.3609734445
          3098668.9259520303 3038287.4193944433 2680455.872394717 1566378.144549996 2961186.111051354 2941426.494799481
          2720153.7091547125 1648297.9281265475 2823703.296150678 258749.18816153565 286305.8377071977 950426.0953592712
          488689.0982343852 180607.83867708303 393924.7092164236 1054621.7884713456 426670.6495274443 102466.4891926304
          501543.5807256495 1158817.4815834197 364652.2008205033 244315.33454494088 331295.20405520056 418275.07356546045
          2168653.3425876372 3297185.711514782 1701002.1877942607 2198814.019548412 3370715.0503895315 1851347.7049710231
          2228974.696509187 3444244.389264281 2001693.2221477851 1117329.36451973 445515.5424901701 1044843.4406188265
          552955.9261608461 972357.516717923 660396.3098315223 933289.9389627586 1855880.6090892886 2697197.758354216
          2543844.7826231616 955753.5164887484 1886172.5952575905 2695415.947486284 2566034.97772088 978217.0940147381
          1916464.5814258927 2693634.1366183525 2588225.172818599 -1342389.4257357102 -4376418.306860031 -5334709.052688355
          -4161960.0879772315 -1524416.6396810464 -4612126.597938051 -5522663.456155395 -4414479.416922221 -1706443.8536263828
          -4847834.889016071 -5710617.859622436 -4666998.74586721 4018600.520854639 2294077.1870464785 3804736.520184779
          4061325.120053858 2332719.1979308017 3878716.445757589 4104049.7192530762 2371361.208815125 3952696.371330399
          -3937853.7939663087 2882190.090919746 -3841822.9295625505 2891725.9056192534 -3745792.0651587914 2901261.720318761
          396550.08609797526 1238894.9267310984 -898639.2268957393 -808474.9236379801 358561.23477828444 1272119.4096698845
          -914540.7707255785 -949430.4342511597 320572.3834585937 1305343.8926086708 -930442.3145554175 -1090385.944864339
          2822161.2241523447 1914207.218997655 2825079.33827152 1997657.305396454 2827997.452390695 2081107.3917952531
          -105916.38204114971 -553227.08678789 -21218.424105450453 -520727.84037078376 63479.53383024881 -488228.59395367734
          1248094.9739391147 1740521.6369903767 1168146.1817882124 1779712.1598596135 1088197.3896373103 1818902.6827288503
          -2397909.1332521117 -3381904.22393818 -3607393.249597079 -2258621.160029893 -2449880.8049549577 -3445858.3555304445
          -3605963.127732342 -2217983.5212672614 -2501852.4766578036 -3509812.487122709 -3604533.005867606 -2177345.8825046313
          1977510.457935703 -2468490.7766670613 1998174.9279162302 -2880862.6739738802 2018839.3978967571 -3293234.571280699
          -762670.6282364612 -729951.67628202 -697232.7243275791 1735069.7542997045 2440298.3453504974 1767267.9788866898
          2456002.9167030836 1799466.203473675 2471707.4880556697 605108.1327608258 1037059.3662816137 391281.64724081155
          606966.1713326226 1011086.5184493391 287937.4611904977 608824.2099044198 985113.6706170642 184593.27514018386
          -1650745.6914127064 -1294026.5817844132 -2252641.5074986275 -1599801.9289054493 -1194663.7873916337 -2221373.339641898
          -1548858.1663981918 -1095300.9929988543 -2190105.1717851693 2990654.5679987865 3266670.4507668773 3542686.333534967
          4207868.087255851 4492732.35813413 4777596.62901241 126619.332818945 479055.14592411974 56449.2979908766
          483181.023706618 -13720.736837192148 487306.90148911614 -371388.5182522414 -217343.37344547972 -63298.22863871814
          -2174958.0309059806 1279593.0122561508 121559.9628790677 -2191015.475403065 1361798.4333913552 70573.05887797539
          -2207072.9199001486 1444003.8545265594 19586.154876883083 -372570.8567589696 685850.3252507197 -538310.2986209668
          539866.6431417495 -704049.7404829642 393882.9610327795 -1163005.5525669071 -1119817.5852261698 -1544286.856722366
          -1514508.9996374347 -1244522.038032439 -1148530.8077283374 -1586667.1233259381 -1591918.5180300993 -1326038.5234979708
          -1177244.0302305052 -1629047.3899295102 -1669328.0364227642 578585.5512278695 -470192.70706680726 -256722.27819365304
          726530.2625240575 544546.8201478012 -453722.0415883142 -266031.50017324934 654362.9077177688 510508.0890677327
          -437251.37610982126 -275340.7221528457 582195.5529114801 1492667.7140231791 654469.3496390724 -152484.7198828531
          1543159.1614951114 641723.2612799081 -249012.66969541434 1593650.608967044 628977.1729207437 -345540.61950797547
          2958796.8349112635 3006581.451348756 3054366.0677862484 795977.1525911707 669264.2906599614 542551.4287287521
          -565573.1874486897 -1186875.0373118783 -514905.8892597895 -1102146.2261984707 -464238.5910708893 -1017417.415085063
          -605470.7787132323 -728991.8664387037 -607427.1909281262 -687196.9625768022 -609383.6031430202 -645402.0587149006
          4183236.316001893 4298123.008582891 4413009.70116389 164491.1313585891 -356609.8522324818 971779.7288589592
          1166041.861853112 209707.44381191052 -409563.5292882127 957256.6902553312 1242196.037099245 254923.75626523196
          -462517.20634394354 942733.651651703 1318350.212345378 -357717.1780847474 -400925.8644721222 -444134.55085949705
          -151909.4074733382 -107166.65085127478 -62423.89422921126 -1933118.3721232486 -3749942.5260111494 -1945921.6453124417
          -3820703.0253181662 -1958724.9185016355 -3891463.524625183 -677060.096443386 -727660.9347402046 -778261.7730370231
          -4108939.0748097794 -2602797.7121485802 -4101678.395996048 -2539516.07476638 -4094417.717182317 -2476234.43738418
          -4047748.0076866825 -4817801.3647489585 -5587854.721811234 -1161580.015929569 -994951.9881830501 -1127209.8122087123
          -949306.9433864283 -1092839.6084878556 -903661.8985898067 -843802.5069921818 -839968.1117924533 -836133.7165927249
          643183.2868093869 631961.1592058282 620739.0316022695 -994653.7509929986 -969387.9711784447 -944122.1913638907
          -3083153.8924138844 -1974359.3596239786 -3521102.2550830524 -2319997.455820459 -3959050.6177522196 -2665635.5520169395
          155246.3303469562 215915.69234653452 276585.0543461128 -2622127.9506232017 -584180.4849471033 -2802502.6942917276
          -621849.145762876 -2982877.437960254 -659517.8065786487 4074613.0701444554 1611159.8400235022 2440048.3718532827
          4010368.5266288803 1472693.9123917434 2233857.4545983765 3946123.9831133066 1334227.9847599848 2027666.5373434706
          2070479.9503491004 1936067.4369995603 2184175.0396013483 2080280.1727666047 1912418.1536776228 2152880.7433739486
          2090080.395184109 1888768.8703556857 2121586.447146549 2153273.8129371237 4133125.388166367 2203008.1334323836
          4319006.135115823 2252742.453927644 4504886.882065279 825524.003912159 761078.2197708816 408078.48196062
          894007.4151008339 765637.7658991037 409753.94180872076 962490.8262895085 770197.312027326 411429.4016568215
          -644035.2506312808 416673.44062379113 -698523.9877875115 454393.4109872153 -753012.7249437422 492113.3813506395
          171630.30928636173 163621.57361286096 155612.83793936015 1274893.7295758533 2108159.4472168377 1230711.3437122088
          2129332.766786464 1186528.9578485643 2150506.08635609 2721348.0309727704 2367225.3199055954 2695111.949958153
          2241191.254553735 2668875.8689435353 2115157.1892018737 -159554.10567159194 349157.54610719637 -372797.65710273106
          200053.76047309296 -586041.2085338703 50949.97483898944 -879914.7309749066 -812523.3777025717 -745132.024430237
          1211871.6805009777 683311.6220301212 1277370.1847615666 704681.7697491398 1342868.689022156 726051.9174681585
          1524258.1085017822 1618995.4264645404 1713732.7444272991 749933.6586082358 834413.50646058 918893.3543129243
          2123036.9274518443 2206964.7216264033 2290892.515800962 1150475.7951065109 1288891.2453187238 1427306.6955309368
          -91859.87302836018 -44979.38361413569 1901.1058000887278 -1450486.3439392154 1914745.2449710357 -1599819.721384207
          2245201.837275914 -1749153.0988291984 2575658.4295807923 -13821.439334792769 -326420.4645217306 -37220.90054947536
          -310349.8112975795 -60620.36176415795 -294279.15807342844 -3557433.065715348 -3596131.3052340145 -3634829.544752682
          159100.92089579202 178974.47087273066 198848.0208496694 -468778.4939683154 -447699.4455471827 -426620.39712604985
          1843554.5041234195 1825349.7816458244 1807145.0591682303 864486.4498829374 1279379.2561738256 1694272.0624647136
          -1021606.8560967867 -1026806.4328141235 -1032006.0095314601 2672284.6847211593 2095630.7402556008 2693921.6003509373
          2168669.1803842043 2715558.515980715 2241707.6205128077 1974669.89683457 1991912.4819269702 2009155.0670193704
          1029810.5514709093 1244279.747110342 1005582.954347636 1068705.8799707603 981355.3572243627 893132.0128311788
          915904.6083647674 536031.1524110918 683410.4609969 876518.973504339 540903.3246818751 653707.1850717053
          837133.3386439106 545775.4969526583 624003.9091465102 412231.3033354523 386139.98733062425 360048.67132579617
          1754098.7123675032 1786236.0517779656 1818373.3911884283 831296.1961151818 1767297.6002192553 835394.0821144558
          1834304.453888385 839491.9681137298 1901311.3075575144 2394731.197011484 3119509.862800495 2429712.950206943
          3149150.853338618 2464694.703402402 3178791.843876741 3916763.274374855 4009127.6279104664 4101491.981446078
          3342881.542718095 4555759.907272319 3308655.7565282574 4676509.352349736 3274429.97033842 4797258.797427151
          -4027261.2334132567 1515525.9923313467 -2117130.5106163057 -4184595.4519940885 -4122717.046342493 1905978.8583188576
          -2083321.60667208 -4117770.455052876 -4218172.859271728 2296431.7243063687 -2049512.7027278547 -4050945.4581116633
          -1099740.911681557 -1034015.068459324 -968289.2252370908 -1780858.621494564 -1711329.5473190015 -1641800.4731434379
          -293245.66643230163 -75961.16752992831 -404657.2083442499 -266742.791874427 -516068.7502561982 -457524.41621892573
          650764.2210294137 684134.3682779958 717504.5155265781 78185.42473484314 209039.11913566335 145295.13518884053
          68098.77242177236 212404.84564283796 -72841.57429211852 -2513395.10049529 -3398458.691116668 -2515118.99625778
          -3475611.8119091396 -2516842.89202027 -3552764.932701612 625749.5697454348 693472.9509146466 761196.3320838582
          3647605.798019302 4957508.717436815 3802320.2573780254 5211661.3642923795 3957034.7167367483 5465814.011147945
          -3977399.450744995 -3365185.327826406 -2440969.0689974083 -3196072.4796489216 -3994526.1890329486 -3296280.8784590457
          -2383942.680529385 -3271918.4651361518 -4011652.927320901 -3227376.4290916855 -2326916.2920613615 -3347764.4506233805
          -152531.91986645147 -165441.33993948138 -178350.76001251134 -2757059.9959875713 -4157490.1855823807 -2776494.5341260685
          -4038104.2369120703 -2795929.0722645656 -3918718.2882417594 353092.2444273073 3577848.191988062 332171.0955860663
          3765904.951846079 311249.94674482534 3953961.7117040963 3704722.4288538825 3813070.960881522 3921419.4929091614
          1733918.2422898118 1737893.726030452 1741869.2097710918 -493169.5968145842 -549119.9489484336 -605070.301082283
          -1624510.402785554 -1707038.4228771336 -1789566.442968713 -3532133.1562331393 -3642942.0792649053 -3753751.0022966713
          -1402175.992317978 429963.7770987498 -1435022.048252468 326003.8355025479 -1467868.1041869582 222043.893906346
          -1709548.1502142737 -1777155.0419066055 -1844761.9335989372 2773441.006600008 3473747.9636775083 4174054.9207550082
          1013489.6090287002 976647.7175554704 939805.8260822404 1323492.204359541 1281273.1581853447 1239054.1120111486
          -4102688.2065786575 -4117416.873692884 -4132145.5408071107 2186752.922948471 2219145.9487867877 2251538.974625105
          3203687.1455483483 3127257.158314882 4459197.330006633 3150812.553180376 3143535.2814791035 4481887.107212535
          3097937.9608124043 3159813.404643324 4504576.884418437 1425194.956974334 1829994.5189530372 2234794.0809317413
          212050.2339993515 1165400.816733224 29378.644644914348 918198.1783918495 -153292.94470952285 670995.5400504747
          -3293934.4681484606 -3370058.5916213905 -3446182.7150943214 -3844372.0730845546 -3822990.0901419153 -3801608.107199274
          4963029.790758835 4912937.008688895 4862844.226618955 -3772101.026365567 -3717684.7749410174 -3663268.5235164673
          -268010.46354696754 282834.80451673025 -204334.4917816842 316739.8922241826 -140658.52001640078 350644.97993163485
          -4509382.471429014 -4523499.267205504 -4537616.062981996 -1993636.7446214769 -2101404.1777236634 -2209171.61082585
          -4175253.6024956275 -4723060.8862085445 -5270868.169921459 95638.55689351328 120276.99032727862 144915.42376104402
          1002552.1775399729 996480.1964589771 990408.2153779812 2918614.2435195833 3183352.4616811736 3448090.679842764
          1257326.5927320297 990292.9216277276 1110936.9873767016 959374.5067868392 964547.3820213733 928456.091945951
          -1062597.1430108626 -1153109.989370856 -1243622.8357308498 -1311567.9871934755 -379317.8851282353 -1336957.2626222756
          -403603.77655160706 -1362346.5380510762 -427889.6679749788 725687.6598088014 700511.7932041766 675335.9265995517
          261058.48365813677 226486.26617230833 191914.04868647983 -1300300.8199490244 -1384290.2720419134 -1468279.7241348021
          -672379.0909891967 -2273045.362437573 -477324.4276957747 -2192092.313730297 -282269.76440235274 -2111139.265023022
          -1128516.4489016614 -1114178.786738593 -1099841.1245755246 -2061974.9130565433 -2164111.7722251806 -2266248.6313938177
        </DataArray>
        <DataArray type="Float64" Name="peeq" format="ascii" RangeMin="0.0012653280417502064" RangeMax="0.008125608159976004">
          0.003827819518107347 0.0037031886135624713 0.0032123192484199477 0.0034247234044103305 0.0038272033947977335 0.003702475230257454
          0.003212227392808644 0.003424877777878666 0.0038265872714881204 0.0037017618469524375 0.0032121355371973396 0.003425032151347002
          0.005352584299640928 0.005128372420208412 0.005204507418236381 0.005454291253459632 0.005351404289240837 0.005128276833451377
          0.005204863649417749 0.005453965977290382 0.005350224278840747 0.005128181246694341 0.0052052198805991184 0.0054536407011211326
          0.0022056556242392223 0.0026255780715020217 0.0022058436765961973 0.0026262677760032866 0.002206031728953172 0.0026269574805045516
          0.006698871697055509 0.0068183100453192425 0.006190456841905282 0.006230297948409179 0.006698852664903388 0.0068173323374670055
          0.006188540835805371 0.006227638248038179 0.006698833632751268 0.0068163546296147685 0.00618662482970546 0.006224978547667179
          0.005355948925877334 0.005636300443253034 0.005357505626843493 0.005637021377976021 0.005359062327809654 0.005637742312699007
          0.004829512371135214 0.004609247895347193 0.004697832963031985 0.004970794955816628 0.004827884632937712 0.004610716749240439
          0.004694647026258119 0.004962786744148696 0.004826256894740211 0.004612185603133685 0.0046914610894842525 0.0049547785324807634
          0.006537454520772241 0.007065018542909404 0.006707042271417598 0.0062590050462278495 0.006535576052228124 0.00705968981530338
          0.006703643426642635 0.006258275840670658 0.0065336975836840045 0.007054361087697357 0.006700244581867671 0.006257546635113465
          0.0036352264643872913 0.003950918066049675 0.0036360911249360152 0.003950827368102324 0.0036369557854847396 0.003950736670154974
          0.004661907450272165 0.004381331179164143 0.0055136806576950945 0.005610888687316616 0.004657143608674241 0.004377534957109951
          0.005509535896199506 0.005607507222393121 0.004652379767076317 0.004373738735055759 0.00550539113470392 0.005604125757469625
          0.004390126561389042 0.004481098883129032 0.004874415239798039 0.004388665877037607 0.004479714575101019 0.004873666770808136
          0.0043872051926861725 0.004478330267073006 0.004872918301818232 0.007764024021597464 0.008051060312062432 0.007902410460747342
          0.007655207022495121 0.007756044853174378 0.008044594589792307 0.007895095000566926 0.0076468091945218215 0.007748065684751292
          0.008038128867522183 0.00788777954038651 0.007638411366548524 0.005498597556821642 0.005764831202569806 0.005395539887370281
          0.005311718296765814 0.005497408749390127 0.005764811420238368 0.005396303868859531 0.005311374860557113 0.005496219941958614
          0.005764791637906932 0.0053970678503487786 0.005311031424348412 0.0064654313785372786 0.006465763602078562 0.006466095825619843
          0.004867790766454974 0.004661246217049686 0.004477986297892852 0.004867510146469341 0.004661370826592133 0.004479428469238917
          0.004867229526483709 0.00466149543613458 0.004480870640584984 0.005625688754787563 0.0060510607426312694 0.005623485052845152
          0.006050521760828203 0.00562128135090274 0.006049982779025135 0.007178631628957648 0.0068537375017592595 0.007179222656139642
          0.007565352193604238 0.007179210449711302 0.006855340690598022 0.0071799234330116365 0.007564442080751206 0.007179789270464957
          0.006856943879436785 0.0071806242098836305 0.007563531967898177 0.003210597544767679 0.0036755434792325524 0.0027774388061381516
          0.002059513087466483 0.0032077446457916027 0.0036707518289978373 0.0027751127831201466 0.002062833637368348 0.0032048917468155275
          0.0036659601787631217 0.002772786760102142 0.002066154187270212 0.0061390999479048695 0.00588756061977877 0.00585040143565909
          0.0061411093233023645 0.005888379167188506 0.005852804266930129 0.00614311869869986 0.005889197714598242 0.005855207098201167
          0.0014842283539622722 0.0029692190914667456 0.0014919782393898607 0.0029672961630168703 0.0014997281248174492 0.0029653732345669946
          0.005298074917492604 0.005410166473845867 0.005954592237378697 0.006124737798274964 0.0052952531899589424 0.00540908576309658
          0.005952025587050384 0.006118961400438442 0.005292431462425279 0.005408005052347294 0.005949458936722069 0.006113185002601919
          0.0064850884002315016 0.006170302787653544 0.006487171493190685 0.006171139303129567 0.006489254586149868 0.006171975818605589
          0.004401087416144973 0.004704630150537738 0.004396125788312444 0.004698536798945385 0.004391164160479914 0.004692443447353032
          0.006285042986137526 0.005621661378821133 0.006280591474118325 0.005620545539190428 0.006276139962099125 0.005619429699559721
          0.004040122112189011 0.003790211361145327 0.003768928637330568 0.004117543420267517 0.004041214368296512 0.003791859094252023
          0.0037712201506953282 0.004119796903501144 0.004042306624404012 0.0037935068273587187 0.0037735116640600893 0.00412205038673477
          0.004278293763959979 0.0040579750390573165 0.004278778375752397 0.004057006315311393 0.004279262987544814 0.004056037591565468
          0.0040375896263907165 0.004032932824402977 0.004028276022415237 0.00497295425490234 0.00480822087756594 0.004974731480697726
          0.004809356898817949 0.004976508706493115 0.0048104929200699555 0.00497893211845041 0.00495366202007479 0.004961008296701201
          0.0049770868628121745 0.004952005498519325 0.0049557464020699325 0.004975241607173937 0.004950348976963861 0.004950484507438664
          0.004308813762545117 0.00454375821923019 0.0036377282745645697 0.004304971459341394 0.004541335203777669 0.003633317385397028
          0.00430112915613767 0.004538912188325146 0.0036289064962294866 0.0042435385169480744 0.004246986070509153 0.004250433624070231
          0.004239583997986108 0.004236168277508965 0.004232752557031821 0.005649663512060492 0.005746334839730518 0.005646289056099188
          0.005742168929176875 0.005642914600137883 0.005738003018623233 0.004763015265401407 0.00476109004982171 0.004759164834242013
          0.003823811292050257 0.004190311732676536 0.0045187354594862054 0.0038265346876965355 0.004193640068846385 0.004518376065091219
          0.003829258083342814 0.004196968405016236 0.004518016670696233 0.00668004821349674 0.006877374525326039 0.00667232505019828
          0.006869947768668573 0.00666460188689982 0.0068625210120111056 0.0021356692698086223 0.0018240008950345303 0.0018462261670540575
          0.0022710343783400953 0.002135781872850661 0.0018250045768595834 0.001847861626211753 0.002271506550702035 0.0021358944758926987
          0.0018260082586846367 0.001849497085369448 0.002271978723063975 0.0034476659567481923 0.002877538259133974 0.003027396238207026
          0.0035806979913738657 0.00344759054106258 0.0028780841901881603 0.0030274555181579654 0.0035800642884915605 0.0034475151253769687
          0.002878630121242347 0.003027514798108905 0.0035794305856092557 0.005411306592400653 0.005066575652974923 0.005443140947075095
          0.005409409421370921 0.005065281497712968 0.005440512105671123 0.00540751225034119 0.005063987342451013 0.00543788326426715
          0.004835383677471868 0.004835664980454376 0.004835946283436883 0.004935498822405474 0.004926972558543897 0.00491844629468232
          0.0015635715383200465 0.001443022964369114 0.0015662111048507022 0.0014462330369900238 0.001568850671381358 0.0014494431096109335
          0.002355215183474928 0.002756316930810909 0.002356201550381662 0.002757256813808017 0.002357187917288397 0.002758196696805126
          0.004566377631712637 0.004568438979087938 0.004570500326463238 0.004264062457726682 0.004582344301339015 0.004532832483851761
          0.004077076530834995 0.004265024912169142 0.004582897030230596 0.004532348480012992 0.004077032006500177 0.004265987366611603
          0.004583449759122176 0.004531864476174223 0.004076987482165358 0.004960169996716458 0.004959356457842213 0.004958542918967967
          0.004255195789166874 0.004256107292092107 0.00425701879501734 0.004647957678114564 0.004138844868672831 0.0046479740210506795
          0.0041387100916292765 0.004647990363986793 0.004138575314585724 0.0035926489093628783 0.0035969441576794658 0.003601239405996054
          0.00386192965738165 0.0042787762608938055 0.003863455368355293 0.004281059416810548 0.0038649810793289358 0.004283342572727291
          0.003627324069254629 0.0036273992819084795 0.0036274744945623306 0.004397886712455882 0.004491362000029079 0.004398871012499118
          0.004493250008928173 0.0043998553125423525 0.004495138017827268 0.004325691311076681 0.004326225932182329 0.004326760553287979
          0.003995159304975144 0.003994332608563633 0.0039935059121521226 0.004667157170826363 0.004669910629353343 0.004672664087880323
          0.003238387129387195 0.0037089255078010318 0.0032385659923174458 0.003709090889439018 0.003238744855247697 0.003709256271077004
          0.0050330716197968615 0.005034844038211762 0.0050366164566266625 0.005537032179357262 0.005459695005310914 0.0055345011633709746
          0.005457937032549352 0.005531970147384685 0.005456179059787788 0.007152780979022916 0.007435046172325668 0.007120678244516593
          0.007147184045241542 0.007427319332094245 0.0071157099894302266 0.007141587111460169 0.007419592491862822 0.007110741734343863
          0.008036466060020005 0.007817452469187722 0.00776659281094653 0.008032210581876356 0.007815368713233274 0.007763384459843511
          0.008027955103732708 0.007813284957278826 0.007760176108740493 0.003283217009073732 0.004033450681261763 0.003286051534954237
          0.004037061574703368 0.003288886060834743 0.004040672468144973 0.005547402104906924 0.005460708892423607 0.005387575903775858
          0.005545577604956193 0.005457888476050782 0.0053857348014611905 0.005543753105005463 0.0054550680596779574 0.005383893699146523
          0.00583804395116469 0.005640429930537422 0.005836197409674753 0.005639743836754791 0.005834350868184814 0.005639057742972161
          0.0030925164435543864 0.0030929598614811366 0.0030934032794078864 0.007895065095617538 0.008125608159976004 0.007892659062970315
          0.008121808632766557 0.007890253030323091 0.008118009105557112 0.008100132090821562 0.007805206932941229 0.008094145896694745
          0.00779758094658745 0.008088159702567932 0.007789954960233672 0.007077038777555835 0.0073420679009844735 0.007068563689910479
          0.007333212768524285 0.007060088602265122 0.007324357636064095 0.006391823198798079 0.006388719325727673 0.006385615452657268
          0.007453371440729823 0.007388011382257874 0.0074520531486887 0.007387348021629276 0.007450734856647578 0.00738668466100068
          0.006840029218148379 0.006838171064894736 0.006836312911641093 0.004798523741262108 0.004799406393664077 0.004800289046066046
          0.0061257479526010215 0.006123863131238941 0.00612197830987686 0.004703055856803492 0.004704839337612718 0.004706622818421944
          0.004728963272990744 0.0047301061802211605 0.004731249087451577 0.005536789283801233 0.005381050021340516 0.005538096745578391
          0.005383444492889867 0.005539404207355549 0.005385838964439218 0.005031227607338174 0.004867433014567688 0.00503368986961076
          0.004868826181258286 0.005036152131883347 0.0048702193479488835 0.0035433055036012285 0.003544700299887444 0.0035460950961736597
          0.003314436989772591 0.0033149473571716065 0.0033154577245706226 0.004781494047688771 0.004782334823828957 0.004783175599969143
          0.005066507863800539 0.005066825767583246 0.005067143671365952 0.002880309300301188 0.002886495531229982 0.0028926817621587756
          0.0025430771518413827 0.002545554207941729 0.002548031264042076 0.006389044809968939 0.005809488984971977 0.006388702271536246
          0.005811703881265746 0.006388359733103553 0.005813918777559516 0.006954257279344432 0.006951290881016829 0.006948324482689224
          0.007623217587552425 0.007303528338650733 0.007614630395279839 0.007294714073110387 0.007606043203007254 0.007285899807570041
          0.003881584150972263 0.004263689464594566 0.003738602682092466 0.003880680656163448 0.004262746737590547 0.003738274204701055
          0.0038797771613546337 0.004261804010586529 0.0037379457273096434 0.003587639407076822 0.0035881197263205014 0.0035886000455641804
          0.007444959876799211 0.007439948314183814 0.00743493675156842 0.0051012228964630695 0.005114274092790621 0.00510131789922813
          0.0051142024397967025 0.005101412901993191 0.005114130786802784 0.00738282916927639 0.006910926704810641 0.007381500274340572
          0.0069116601533021176 0.007380171379404754 0.006912393601793595 0.006415372763753102 0.006417977236851901 0.006420581709950698
          0.006745410424065477 0.006331034136441474 0.006747524252941181 0.006334192699916563 0.006749638081816885 0.006337351263391653
          0.0018555518944008385 0.002150744302050587 0.0019819976102404056 0.0016600886103792854 0.0018611244525533813 0.0021583407399739184
          0.001987611737306347 0.0016661346735691524 0.001866697010705924 0.0021659371778972505 0.0019932258643722877 0.0016721807367590196
          0.002508644884356415 0.002509900005987704 0.0025111551276189937 0.003170215985781915 0.003176024759373039 0.003181833532964164
          0.0051476178486917915 0.005175399235179332 0.005145557877697684 0.005173775825380798 0.005143497906703576 0.005172152415582264
          0.005332036994721445 0.0053352171833206015 0.005338397371919757 0.005663028626910053 0.005557888670591787 0.0056606400432612485
          0.00555358062405875 0.005658251459612443 0.005549272577525713 0.004040897238307603 0.003231531190470808 0.004035676319705887
          0.0032275395330398386 0.00403045540110417 0.003223547875608869 0.004096439499284881 0.0040967662891077585 0.004097093078930637
          0.005955561766275661 0.0060384648889177635 0.005959431740204037 0.0060422137158148955 0.005963301714132414 0.0060459625427120274
          0.002919050136932211 0.003095221755938238 0.0027662519805133497 0.0024809279834933644 0.0029204637985014315 0.0030966656398309835
          0.002767628482112483 0.0024825444071398884 0.0029218774600706515 0.0030981095237237297 0.0027690049837116176 0.0024841608307864128
          0.005099422811463115 0.005096593413678502 0.005093764015893891 0.002043554826733582 0.0016763462698149106 0.0020460306446075304
          0.001680827170695654 0.0020485064624814796 0.0016853080715763975 0.005688845250543212 0.0064445940826266335 0.005685906573775581
          0.00644210923417492 0.005682967897007949 0.006439624385723205 0.006476958070918476 0.0064727909208471945 0.006468623770775913
          0.005228325870940229 0.005226390496205791 0.0052244551214713515 0.005027874464627855 0.005023820273274188 0.00501976608192052
          0.002425902479155717 0.00242981569608588 0.002433728913016043 0.0015863154116744654 0.0015897527396896757 0.0015931900677048857
          0.004891104301801119 0.005699406877985747 0.0048860727758733066 0.00569664294666428 0.004881041249945493 0.005693879015342812
          0.001906396211072253 0.0019083402784315416 0.0019102843457908295 0.002481940274731273 0.0024875127552382585 0.002493085235745244
          0.0054455022248683415 0.005441938956952701 0.0054383756890370605 0.007788110379268276 0.007782149358552812 0.007776188337837348
          0.0014555110937281108 0.0014596550370400056 0.0014637989803519007 0.005595553610521883 0.00559883473614806 0.005602115861774238
          0.00727411264690638 0.007231291862790156 0.0064957131201530014 0.007267664556042004 0.0072250396326502256 0.0064907047217885195
          0.007261216465177628 0.007218787402510293 0.006485696323424037 0.0025896302553740534 0.0025974363614056357 0.0026052424674372185
          0.005604521490862161 0.005456879476674073 0.005599473797025467 0.005452381380675029 0.005594426103188773 0.005447883284675985
          0.0029487347124882274 0.002951511810527268 0.002954288908566308 0.003435443749665422 0.003437207459025916 0.0034389711683864106
          0.0054638231365189225 0.005459252045968772 0.005454680955418621 0.0015784341894723628 0.0015823750444556113 0.0015863158994388598
          0.002669109053808851 0.0031900792938110057 0.0026700619067595477 0.0031908077306222363 0.0026710147597102433 0.0031915361674334664
          0.003398060987379417 0.0033994084663464944 0.0034007559453135723 0.0012653280417502064 0.0012677041346086403 0.001270080227467074
          0.005804036875192664 0.005802402132749518 0.00580076739030637 0.005744853047016154 0.005741338968036048 0.0057378248890559425
          0.007962568024888454 0.00795670346357551 0.007950838902262567 0.005161347822234113 0.005160558838652225 0.005159769855070336
          0.005395412282964534 0.005336673968341061 0.00539198605477957 0.005334645872030776 0.005388559826594604 0.005332617775720491
          0.005967020878111587 0.005963998970989658 0.00596097706386773 0.005264957602094826 0.005271518451899782 0.005265303429208234
          0.005270753166634888 0.005265649256321643 0.005269987881369992 0.00541502342201863 0.005413527760045509 0.005412032098072386
          0.005214678048620174 0.005214394567884032 0.005214111087147889 0.005468591065311818 0.00546719235443508 0.005465793643558344
          0.0047567930488665 0.004838431534691761 0.004761526278041248 0.004843233217117444 0.004766259507215997 0.004848034899543127
          0.005239807775459873 0.0052415604138303035 0.005243313052200734 0.005455727755307822 0.005456032628220429 0.005456337501133036
        </DataArray>
        <DataArray type="Float64" Name="pe11" format="ascii" RangeMin="0.0012649285757154226" RangeMax="0.008123183575246714">
          0.003827151596761529 0.003702637419672938 0.003211704121114733 0.0034237355142649095 0.003826516982090778 0.0037019137296766674
          0.0032115969566786236 0.0034238555988186153 0.0038258823674200285 0.0037011900396803953 0.0032114897922425134 0.0034239756833723215
          0.005351393530451174 0.00512696634816149 0.00520168799399586 0.005451475389110573 0.005350175038774109 0.005126816283878875
          0.005201976359660108 0.00545109361751687 0.005348956547097045 0.005126666219596258 0.005202264725324357 0.005450711845923168
          0.0022054016540038416 0.002625304039797261 0.002205581898503283 0.0026259852949810833 0.002205762143002725 0.0026266665501649055
          0.006693474187472322 0.0068128915763580765 0.0061858881641067755 0.0062260742492571824 0.00669332030101999 0.006811785844234699
          0.0061839170565194355 0.006223257531480188 0.0066931664145676575 0.006810680112111323 0.0061819459489320955 0.006220440813703196
          0.005351007522302284 0.005631397970375417 0.005352498947269159 0.00563206391543144 0.005353990372236035 0.005632729860487465
          0.004827197644641091 0.004605750035711561 0.0046948171514221045 0.004969832694970793 0.004825516771121986 0.004607202387775591
          0.004691576575759575 0.004961737156692673 0.0048238358976028795 0.004608654739839621 0.004688336000097046 0.004953641618414552
          0.006535432639482421 0.007062215869120791 0.006703460015657252 0.006256974484993594 0.006533580142700583 0.007056886418515408
          0.006700106962129185 0.0062562956864183885 0.006531727645918746 0.007051556967910025 0.006696753908601118 0.006255616887843181
          0.0036335406401827725 0.003949805976963979 0.0036343390051094306 0.00394967795422065 0.003635137370036089 0.003949549931477321
          0.004658256011600949 0.004377497250526443 0.005511245314717049 0.005608832388976875 0.004653547843421016 0.0043736986517409005
          0.00550712090263011 0.005605481221382467 0.004648839675241084 0.004369900052955358 0.005502996490543171 0.0056021300537880585
          0.004389694675747227 0.004480630817453524 0.00487380851276317 0.004388242587474752 0.004479252351213036 0.004873058121425938
          0.0043867904992022765 0.004477873884972546 0.004872307730088706 0.007763330273762699 0.008049796884952571 0.007900293996876504
          0.007653686448543279 0.007755359489444359 0.008043282517024474 0.007892933675690356 0.007645276901909896 0.007747388705126019
          0.008036768149096374 0.007885573354504207 0.007636867355276513 0.005497053456902574 0.00576129927340827 0.005390985483417048
          0.005309651318923166 0.005495909188476872 0.005761346655221926 0.005391838146745366 0.0053093461360506555 0.005494764920051171
          0.005761394037035583 0.005392690810073684 0.005309040953178146 0.0064597582600207015 0.006459998549105092 0.006460238838189482
          0.00486525689197404 0.004657386621241181 0.00447335051322707 0.004864932034340373 0.004657496099558685 0.0044747507505094805
          0.004864607176706706 0.0046576055778761866 0.004476150987791892 0.00562462405925496 0.006048691779162419 0.005622446670976277
          0.0060481987851600735 0.005620269282697594 0.006047705791157728 0.007172412039335702 0.006846787652915033 0.007171908804642224
          0.007559148882308288 0.007172874196149077 0.006848309655904107 0.0071725256696907845 0.007558133016343444 0.007173336352962452
          0.006849831658893183 0.007173142534739345 0.007557117150378597 0.0032061493157264035 0.003670831328188344 0.0027717947780849252
          0.002055225200021718 0.003203280963269599 0.003666081552122445 0.0027693518979799736 0.0020584217652006042 0.0032004126108127933
          0.003661331776056545 0.002766909017875022 0.002061618330379491 0.006131838969949915 0.005882465517580892 0.00584323607434086
          0.006133805350029459 0.0058832407546111735 0.005845600323712064 0.006135771730109003 0.005884015991641453 0.005847964573083269
          0.0014817903240900512 0.0029655520240969542 0.0014894260774473318 0.0029635339066220773 0.0014970618308046124 0.0029615157891472
          0.005288988817653112 0.005403358564045631 0.005948719690703263 0.006116000622349285 0.005286117547853121 0.005402346689832282
          0.005946216187888833 0.006110219538681055 0.00528324627805313 0.005401334815618933 0.005943712685074402 0.006104438455012824
          0.006477818198366154 0.006164956200403776 0.006479843131954424 0.006165744230838954 0.006481868065542696 0.006166532261274131
          0.004398728493753577 0.004703159176080914 0.004393659183704931 0.004696992785449911 0.0043885898736562845 0.004690826394818908
          0.0062750353609872045 0.005611790393747127 0.006270489186023252 0.005610559815218023 0.006265943011059297 0.005609329236688918
          0.004037968972240337 0.0037877918201043356 0.003764787713683915 0.0041133456361844055 0.004038997315423711 0.0037893491512314575
          0.0037669500573503274 0.0041155010461271496 0.004040025658607085 0.0037909064823585807 0.0037691124010167405 0.0041176564560698944
          0.004271538969354061 0.004050173960080384 0.004272096069299088 0.004049132969733386 0.004272653169244116 0.004048091979386388
          0.004034305226903714 0.004029514474128561 0.004024723721353408 0.004967739857764015 0.004800975228357054 0.004969638813754241
          0.00480221719217128 0.004971537769744466 0.004803459155985506 0.004977912786424389 0.004951947825003 0.00495998856475474
          0.004976038481060261 0.004950257829212941 0.004954641698938512 0.004974164175696134 0.004948567833422882 0.004949294833122284
          0.004306021751162904 0.004541859960298768 0.0036336297459334792 0.0043021127834559445 0.004539355539319293 0.003629080281155918
          0.004298203815748986 0.0045368511183398194 0.0036245308163783555 0.004237683392680887 0.004241154323089386 0.004244625253497888
          0.004236155747275516 0.004232675107561705 0.0042291944678478945 0.005649089896722132 0.005745805235818857 0.005645729394352553
          0.00574164979237494 0.005642368891982975 0.005737494348931021 0.004761872228873221 0.004759885275530908 0.004757898322188594
          0.003814800870055325 0.0041822344922494495 0.004509965779460724 0.0038176089330471835 0.004185747198222213 0.00450960864192661
          0.003820416996039042 0.004189259904194977 0.004509251504392496 0.006673306793898701 0.0068697087476147405 0.006665611533834111
          0.006862231573009 0.00665791627376952 0.006854754398403259 0.002135366024841017 0.0018237352479102983 0.0018459805161774624
          0.0022706908882246042 0.0021354700655524393 0.0018247360267052888 0.0018476116516895976 0.002271150524203108 0.002135574106263861
          0.001825736805500279 0.0018492427872017331 0.002271610160181612 0.0034472048015204565 0.002877105789969046 0.003026925739921766
          0.003580169628845069 0.003447128183935187 0.00287764548617254 0.0030269777571269195 0.003579529391415314 0.003447051566349916
          0.0028781851823760345 0.0030270297743320725 0.0035788891539855583 0.005410627031345103 0.005065936909610924 0.00544262055998276
          0.005408729307365216 0.0050646436803543 0.005439992326758226 0.005406831583385329 0.005063350451097676 0.005437364093533692
          0.004832001105980862 0.004832332246691606 0.004832663387402352 0.004934792863002684 0.004926172770173119 0.004917552677343553
          0.0015632610155414165 0.0014427988975686287 0.0015658959346888492 0.0014460119312980965 0.001568530853836282 0.0014492249650275638
          0.0023548539216085886 0.002755905535847078 0.002355828087878231 0.002756835356128854 0.002356802254147873 0.0027577651764106297
          0.004560714842678928 0.004562923754978651 0.0045651326672783744 0.004263463538171048 0.004581680273576978 0.004532243868007369
          0.0040765268992078866 0.00426441537668293 0.00458222767869292 0.0045317586265210385 0.004076472728680997 0.004265367215194812
          0.004582775083808861 0.004531273385034709 0.004076418558154108 0.004959576487500492 0.004958761590910219 0.0049579466943199466
          0.004254561749089971 0.004255461744797033 0.004256361740504096 0.00463941473390772 0.004130074287622789 0.004639312098101062
          0.004129828375806388 0.004639209462294403 0.004129582463989988 0.003584192968601449 0.0035886496942385813 0.003593106419875712
          0.0038552709309881633 0.00427191114191658 0.0038566375852387585 0.0042740673813657214 0.0038580042394893545 0.004276223620814862
          0.0036189029678622077 0.0036189331969524534 0.003618963426042699 0.004396061872444799 0.00448776988890894 0.0043970129286937405
          0.004489599136248108 0.0043979639849426825 0.004491428383587275 0.004324703765444728 0.004325220939759754 0.00432573811407478
          0.003994715867595353 0.0039938903470773095 0.0039930648265592665 0.00466093296987943 0.004663601602432373 0.004666270234985315
          0.003228678753090766 0.003699969176231125 0.0032287526797414065 0.0037000857976387377 0.0032288266063920466 0.0037002024190463502
          0.005025045162891472 0.0050267189474325165 0.005028392731973561 0.0055351054601482635 0.005458137547323417 0.0055324861330503
          0.005456322908277604 0.005529866805952337 0.0054545082692317925 0.007151141732681112 0.0074328083686371425 0.0071184510615682145
          0.007145556423116142 0.007425056699415037 0.007113482748301948 0.0071399711135511695 0.0074173050301929305 0.007108514435035684
          0.008033307173447007 0.007812569003204473 0.007761237258485744 0.008028955672444433 0.007810344559655344 0.00775794430312174
          0.00802460417144186 0.007808120116106215 0.007754651347757735 0.0032730732130541594 0.004025841040036171 0.003276019807030609
          0.004029528729667182 0.003278966401007058 0.004033216419298193 0.005546434596690427 0.005460145535543798 0.005386695936145288
          0.005544603128041264 0.0054573187102680415 0.005384846234762601 0.0055427716593921 0.005454491884992283 0.005382996533379914
          0.005834932378088659 0.0056375131860256595 0.00583301473591098 0.0056367759044304655 0.005831097093733303 0.005636038622835271
          0.0030921837681743393 0.003092614030658897 0.003093044293143455 0.007890844958174409 0.008123183575246714 0.00788827455422467
          0.008119264653169912 0.007885704150274932 0.00811534573109311 0.00809921424049664 0.007804732968492058 0.00809317726242706
          0.007797127525616716 0.008087140284357478 0.007789522082741375 0.007072194305165067 0.00733636779636618 0.0070637221704797125
          0.007327478843183532 0.007055250035794357 0.007318589890000884 0.006387180774126605 0.006384141240971322 0.0063811017078160386
          0.007447587569043911 0.0073822735267461154 0.007446104132700615 0.007381459944961649 0.007444620696357318 0.007380646363177182
          0.006834062139345977 0.0068320912752959225 0.0068301204112458675 0.00479793761697878 0.004798813762414678 0.004799689907850576
          0.006119995756411098 0.0061181407713399244 0.006116285786268752 0.004702416525300324 0.004704186386316819 0.004705956247333313
          0.004728087867986068 0.00472921081807202 0.004730333768157972 0.005532056405719702 0.005375041844042109 0.005533398671177304
          0.0053776148062189295 0.005534740936634905 0.00538018776839575 0.0050259319186053844 0.004864467056252066 0.0050283262012703325
          0.004865804989181599 0.005030720483935281 0.004867142922111133 0.003535406978782147 0.0035367279376594344 0.003538048896536722
          0.003314016592793421 0.003314524416443005 0.0033150322400925898 0.004780009059533471 0.004780813151719343 0.004781617243905214
          0.005063849923835191 0.005064217312815608 0.005064584701796025 0.0028719850332795745 0.0028782535858154195 0.0028845221383512654
          0.00253462487353414 0.002537063198894408 0.0025395015242546753 0.006379377933387569 0.005800106401205534 0.006378940923215468
          0.005802217275316804 0.006378503913043368 0.0058043281494280724 0.006945972226825152 0.006942937585517592 0.00693990294421003
          0.007619732720266956 0.007300116392131955 0.007611107896154557 0.007291270673983463 0.0076024830720421545 0.007282424955834969
          0.0038811381288107786 0.0042632989259670595 0.0037381814752109836 0.0038802398624008185 0.00426236392870059 0.003737852523225705
          0.0038793415959908592 0.00426142893143412 0.003737523571240426 0.003587281560061759 0.0035877533845298645 0.00358822520899797
          0.007438387725412593 0.00743332212393767 0.007428256522462747 0.0051004730128179215 0.0051136902091145926 0.005100532973125528
          0.005113592199444764 0.005100592933433134 0.005113494189774935 0.007375688332176589 0.006902261685911949 0.007374285827755856
          0.006902946659554228 0.007372883323335123 0.006903631633196508 0.006405717566808057 0.0064082885063668936 0.00641085944592573
          0.0067371535291506236 0.006322158646358474 0.006739211202042988 0.006325292229179541 0.006741268874935352 0.00632842581200061
          0.0018521864708024758 0.0021464776418018954 0.001979305622363599 0.0016585764340141043 0.0018577412395629272 0.0021541909566464195
          0.0019849987729758487 0.001664647396733069 0.0018632960083233788 0.002161904271490944 0.001990691923588099 0.0016707183594520335
          0.002508095675055508 0.002509337381966791 0.002510579088878075 0.0031616019290053267 0.003167571456416507 0.0031735409838276867
          0.005146970641548302 0.005174579027175562 0.00514491877408951 0.005172964671579582 0.005142866906630717 0.005171350315983604
          0.00532440668669092 0.005327503266899927 0.0053305998471089334 0.00566238595381832 0.00555738555470482 0.005659994531609992
          0.005553077747377688 0.005657603109401663 0.0055487699400505585 0.004037180459139225 0.0032270086071667 0.0040319433906631785
          0.0032228812367137375 0.004026706322187131 0.0032187538662607753 0.0040960980525399674 0.004096425568761552 0.004096753084983136
          0.005946475533214362 0.006029700942102642 0.005950300270054133 0.006033432131766849 0.005954125006893905 0.006037163321431056
          0.0029150830969043085 0.0030932343993119457 0.0027651940511738944 0.0024787400795445143 0.002916422218312249 0.0030946260608447373
          0.0027665477892288327 0.002480332251844716 0.0029177613397201895 0.003096017722377529 0.0027679015272837706 0.0024819244241449175
          0.005098535114552813 0.005095696541722733 0.005092857968892652 0.002042576815443238 0.00167570331493242 0.002045048503685159
          0.0016801906180302602 0.0020475201919270803 0.0016846779211281005 0.005687274827332242 0.006443061648152967 0.005684368953016994
          0.006440591241997444 0.005681463078701747 0.00643812083584192 0.006475678327622041 0.006471548572534487 0.006467418817446933
          0.0052277715751000535 0.005225817893115497 0.005223864211130941 0.005026337462474097 0.005022283686928917 0.005018229911383739
          0.0024216431803425822 0.002425621811275009 0.0024296004422074365 0.001583556738279211 0.0015869633929856814 0.0015903700476921517
          0.004888601045666248 0.005698194535695939 0.004883600944212121 0.005695459226644134 0.004878600842757994 0.005692723917592329
          0.0019061412077028793 0.0019080763233275191 0.001910011438952159 0.002474592723006206 0.0024801679351004447 0.0024857431471946834
          0.005444994699669838 0.005441426686313713 0.005437858672957588 0.0077835787893584555 0.0077775669529162005 0.007771555116473945
          0.0014548810771083385 0.0014590315865138594 0.00146318209591938 0.005588336727783447 0.005591559160763074 0.005594781593742699
          0.00727336974832299 0.007230459151029361 0.006494422438135967 0.007266977398427721 0.007224243418458695 0.006489467065676848
          0.007260585048532452 0.007218027685888029 0.006484511693217728 0.0025829864123153522 0.0025909937923144855 0.002599001172313619
          0.005604052286993725 0.005456388777659932 0.005599000808044134 0.005451869238736844 0.005593949329094543 0.005447349699813757
          0.0029423743751432682 0.0029451353264370005 0.002947896277730733 0.0034321860328798597 0.003433844681147099 0.003435503329414338
          0.005461421049232057 0.005456855101659629 0.005452289154087202 0.0015781835944026624 0.001582131699764632 0.001586079805126602
          0.0026687787339784797 0.0031896957167463205 0.0026697205294166125 0.003190415056937319 0.0026706623248547454 0.003191134397128317
          0.0033923251661412373 0.0033935376282265618 0.0033947500903118866 0.0012649285757154226 0.0012673141514748004 0.0012696997272341778
          0.005800170585737608 0.005798396908525471 0.005796623231313335 0.00574430909239242 0.005740800388064305 0.005737291683736191
          0.0079596549221574 0.00795373039487767 0.007947805867597937 0.0051606830811683066 0.005159877894494994 0.005159072707821681
          0.005394916726120931 0.0053361151518025755 0.005391470915707262 0.00533406247714792 0.005388025105293591 0.005332009802493263
          0.005963162781630589 0.005960039202448715 0.005956915623266842 0.005262890196952322 0.0052699162787213745 0.0052632056581441745
          0.005269137423177123 0.005263521119336028 0.00526835856763287 0.005413443962558229 0.005411952722003699 0.005410461481449169
          0.005212478438032495 0.0052122104399504226 0.005211942441868351 0.005465950400102093 0.0054645190866598045 0.005463087773217516
          0.00475193693091349 0.004834805433113965 0.00475684358130893 0.00483968928937471 0.00476175023170437 0.004844573145635455
          0.005237086664390045 0.005238840028921042 0.005240593393452039 0.005452237490178252 0.005452490488596326 0.005452743487014399
        </DataArray>
        <DataArray type="Float64" Name="pe22" format="ascii" RangeMin="-0.004215537993059531" RangeMax="-0.0006473539803154205">
          -0.0019031911743129803 -0.0018384775351539978 -0.0015990599245819391 -0.0017108218341808363 -0.0019026520814196812 -0.0018379994970898791
          -0.0015983842943555558 -0.00171025874429643 -0.0019021129885263824 -0.0018375214590257605 -0.0015977086641291726 -0.0017096956544120235
          -0.00274060482238579 -0.002623505312871226 -0.002689073034476363 -0.002829332505011141 -0.0027404345433116916 -0.0026237823045916707
          -0.002689196285459398 -0.002829115179772507 -0.002740264264237592 -0.0026240592963121152 -0.0026893195364424334 -0.002828897854533873
          -0.0010937896439914272 -0.0012997115443683445 -0.0010934626871219341 -0.0012994468043153072 -0.0010931357302524408 -0.0012991820642622698
          -0.0035542407517054737 -0.003629048351364853 -0.0032798393602469335 -0.003290801757787488 -0.0035564133337258838 -0.0036307020862632695
          -0.003279822225099301 -0.0032924411162682347 -0.003558585915746294 -0.0036323558211616863 -0.0032798050899516687 -0.0032940804747489806
          -0.0027965017435058895 -0.0029586653737905927 -0.002796683620479423 -0.002958476055724076 -0.0027968654974529572 -0.0029582867376575592
          -0.0025143376225511245 -0.002428403864744687 -0.00245225056819958 -0.002538163342061453 -0.0025160027879338105 -0.002430452974091571
          -0.002453941665155128 -0.00253893059568699 -0.0025176679533164973 -0.0024325020834384554 -0.002455632762110676 -0.002539697849312527
          -0.0032447601601804195 -0.0035409336329874437 -0.0033677477148157022 -0.003130194739517894 -0.0032458201100557795 -0.0035420983271628533
          -0.003369262352852329 -0.0031314969300295595 -0.0032468800599311405 -0.0035432630213382637 -0.003370776990888956 -0.003132799120541225
          -0.0018212517346711085 -0.0019745042676380417 -0.0018208438023476392 -0.0019739145576677273 -0.00182043587002417 -0.001973324847697413
          -0.0022038669129107904 -0.0020652106056457337 -0.002645775566925652 -0.0027046153797509456 -0.002203534455294525 -0.0020635165494660946
          -0.002645302221908062 -0.00270461450311407 -0.0022032019976782587 -0.0020618224932864556 -0.002644828876890471 -0.0027046136264771954
          -0.002176155811112274 -0.002221764367830586 -0.0024062456303495954 -0.0021766535331952178 -0.002221905065593061 -0.0024061300076373207
          -0.0021771512552781615 -0.0022220457633555356 -0.0024060143849250456 -0.003859368768948237 -0.004078659523284457 -0.003998452033822883
          -0.003824886712622534 -0.003860671127907226 -0.004080422153128945 -0.0040000609326162175 -0.003825976543365397 -0.003861973486866216
          -0.004082184782973433 -0.004001669831409552 -0.0038270663741082605 -0.0027832496892185137 -0.00294560040915982 -0.002794007933145257
          -0.002726194617720547 -0.0027842921845990724 -0.0029474912259991543 -0.002795515734006887 -0.0027274968871682857 -0.002785334679979631
          -0.0029493820428384884 -0.0027970235348685167 -0.0027287991566160245 -0.0034291427901048063 -0.0034303467488631923 -0.003431550707621578
          -0.0025470152243772266 -0.0024616946947570778 -0.0023778008068312878 -0.002549088939455412 -0.002462793412192392 -0.002379774211450125
          -0.002551162654533598 -0.0024638921296277062 -0.0023817476160689624 -0.002810051147197187 -0.003059477968573277 -0.00281071403141081
          -0.0030611429763454123 -0.0028113769156244326 -0.0030628079841175477 -0.0038096608552334182 -0.0036362994206485012 -0.0037881324122698563
          -0.003986009037280036 -0.003812036073663803 -0.003637942876495187 -0.003790174912585646 -0.003988485216436683 -0.0038144112920941876
          -0.003639586332341874 -0.0037922174129014358 -0.003990961395593329 -0.0015006992281903376 -0.0017166785583818968 -0.0012914310067407273
          -0.0009675802998239536 -0.0014984284160131102 -0.001715630461775839 -0.0012895022759888343 -0.0009668416966912022 -0.001496157603835882
          -0.0017145823651697808 -0.001287573545236941 -0.0009661030935584505 -0.003260326007491888 -0.0031025299683908004 -0.0031021032874534483
          -0.0032601064546438534 -0.003102288875650233 -0.003101858643533681 -0.0032598869017958186 -0.0031020477829096648 -0.003101613999613914
          -0.0007118464901427899 -0.0013992492394624982 -0.0007125988108007863 -0.0013957037463778266 -0.0007133511314587826 -0.0013921582532931548
          -0.002729627959358067 -0.0028018090167001865 -0.003038858421051978 -0.0031218912861191756 -0.0027289373348422913 -0.0028023429541544466
          -0.0030402908754335644 -0.003122334176663644 -0.002728246710326517 -0.0028028768916087063 -0.0030417233298151505 -0.0031227770672081117
          -0.0034418792421931506 -0.0032636524394302115 -0.003442613413783128 -0.003263924130976169 -0.003443347585373106 -0.0032641958225221256
          -0.00216138517762985 -0.0023400324451417686 -0.0021615963486713878 -0.002341258688074426 -0.0021618075197129254 -0.002342484931007084
          -0.003229349430590625 -0.002911713609704896 -0.003229838166974075 -0.0029111654070153392 -0.003230326903357524 -0.0029106172043257823
          -0.0020312343372892896 -0.0019019623851590402 -0.001900659309132748 -0.0020852985682137427 -0.0020304968770174865 -0.0019015528214334342
          -0.0019001450035366922 -0.002084529981235584 -0.0020297594167456834 -0.001901143257707828 -0.0018996306979406367 -0.0020837613942574253
          -0.002273751036922487 -0.0021560373840833085 -0.002274118259976474 -0.0021574980900180623 -0.002274485483030461 -0.0021589587959528157
          -0.0019558236557980623 -0.0019552841002944913 -0.001954744544790921 -0.002605417692473035 -0.0025226251350463523 -0.0026062010400472162
          -0.0025226656419795918 -0.002606984387621397 -0.0025227061489128313 -0.00252624765120427 -0.0025592733674982405 -0.0025291591889925616
          -0.0025276795388656523 -0.0025613647442897162 -0.0025309198705749775 -0.002529111426527034 -0.0025634561210811915 -0.0025326805521573934
          -0.002067873988446568 -0.002214526679044181 -0.0017367423117006435 -0.0020671906053371116 -0.002214560714691426 -0.0017354666598935601
          -0.002066507222227655 -0.00221459475033867 -0.001734191008086477 -0.002263280721248274 -0.0022660779518322498 -0.0022688751824162254
          -0.002008001518920468 -0.0020050911633054057 -0.0020021808076903435 -0.002807275555935187 -0.0028578719658345474 -0.002808335841749348
          -0.002858804820840004 -0.002809396127563509 -0.0028597376758454614 -0.0023599590895915347 -0.002360575701501356 -0.0023611923134111766
          -0.0019893916112345244 -0.002210950167828545 -0.0023406018117047337 -0.0019897329813092397 -0.0022113651825030564 -0.0023403242056753582
          -0.001990074351383955 -0.0022117801971775672 -0.0023400465996459823 -0.0033723443299726466 -0.0035004573814585212 -0.003373718482308924
          -0.0035020083370147313 -0.003375092634645201 -0.0035035592925709413 -0.001057429219408838 -0.0009067276746643462 -0.0009193406784739618
          -0.0011210650242210493 -0.0010569023630437554 -0.0009063425480490416 -0.0009188918255893506 -0.0011203587338620888 -0.0010563755066786728
          -0.0009059574214337367 -0.0009184429727047395 -0.0011196524435031284 -0.0017121185119796966 -0.0014226807918261255 -0.0015017813689809402
          -0.0017799552803467642 -0.0017122418111851936 -0.0014222264268441921 -0.0015011473175869905 -0.0017797246762175504 -0.0017123651103906914
          -0.0014217720618622592 -0.001500513266193041 -0.001779494072088337 -0.0026833596407886294 -0.0025121428712588678 -0.0027111015205980304
          -0.0026837272546502136 -0.002512601981498424 -0.002712128603083756 -0.002684094868511798 -0.0025130610917379797 -0.0027131556855694815
          -0.0025296700907179908 -0.0025307449984116673 -0.002531819906105345 -0.0024892478040337124 -0.0024902488813112857 -0.0024912499585888594
          -0.0007796589386974819 -0.0007277252102585745 -0.0007798148406396981 -0.000727855140713944 -0.0007799707425819143 -0.0007279850711693135
          -0.0011643757500101324 -0.00136145957832353 -0.0011635130691770633 -0.0013611117174489066 -0.001162650388343994 -0.0013607638565742832
          -0.0024134076512188148 -0.0024136210895471365 -0.0024138345278754587 -0.00212101611849262 -0.0022717242347119818 -0.0022430502932551015
          -0.0020274541850876485 -0.0021211118740588723 -0.0022720403602546394 -0.002243231627079805 -0.0020277069059523993 -0.0021212076296251246
          -0.0022723564857972975 -0.002243412960904508 -0.0020279596268171505 -0.0024714249089144947 -0.002471898691294522 -0.0024723724736745497
          -0.002124509390092604 -0.0021242885227803713 -0.002124067655468139 -0.0023752958888597596 -0.0021100052655276635 -0.002374690530609125
          -0.0021096061341978308 -0.00237408517235849 -0.0021092070028679976 -0.0019019507613750523 -0.0019028507649352846 -0.0019037507684955168
          -0.0019557413567557794 -0.0021752805549352825 -0.0019551899655002344 -0.00217492504957366 -0.0019546385742446894 -0.0021745695442120386
          -0.0019110123748635104 -0.001912106803437773 -0.001913201232012035 -0.00222615253717084 -0.00229162610561573 -0.0022254822810401508
          -0.0022909575510772886 -0.0022248120249094617 -0.0022902889965388472 -0.002174060624976585 -0.0021735394897523003 -0.002173018354528016
          -0.001987692547321866 -0.001988216715554889 -0.001988740883787912 -0.0023947067975559825 -0.002394487873308983 -0.0023942689490619837
          -0.001724360096338019 -0.001975793377163535 -0.0017245345600596085 -0.001977468418868999 -0.001724709023781198 -0.001979143460574463
          -0.0025993347349935153 -0.002598907915384535 -0.002598481095775554 -0.002876042101251476 -0.0028170948000133577 -0.0028763723456249695
          -0.002817087794782626 -0.0028767025899984634 -0.002817080789551894 -0.0035392865875973492 -0.00372988544644351 -0.0035498860014487044
          -0.0035403579984592598 -0.0037309261766306084 -0.003550971999143481 -0.0035414294093211716 -0.0037319669068177075 -0.0035520579968382573
          -0.004152037604709399 -0.004114697055843991 -0.004036670923690483 -0.004154493797816561 -0.004117640695057887 -0.004039162742198809
          -0.004156949990923723 -0.004120584334271782 -0.004041654560707136 -0.0017750255105799676 -0.0021666803805048705 -0.001775640397497856
          -0.0021691761993335172 -0.0017762552844157447 -0.002171672018162164 -0.00279825294526042 -0.0027507662500795226 -0.00274328037504069
          -0.0027987940821516677 -0.0027507498636260546 -0.0027432517573520686 -0.002799335219042916 -0.002750733477172586 -0.0027432231396634474
          -0.0030546252857995056 -0.002934649164546631 -0.003054646606077967 -0.0029344754502140763 -0.003054667926356428 -0.00293430173588152
          -0.0015304502461512633 -0.0015299524078738213 -0.0015294545695963796 -0.004155556839485293 -0.004210029649401357 -0.004158742536223595
          -0.004212783821230444 -0.004161928232961898 -0.004215537993059531 -0.004104821739627099 -0.003868751305267798 -0.004106914143736288
          -0.0038704145224610757 -0.004109006547845476 -0.0038720777396543528 -0.0035559608631398855 -0.0037219949359027765 -0.003557563835385879
          -0.0037238958173510237 -0.0035591668076318714 -0.0037257966987992706 -0.0032350129057885043 -0.0032367304703232536 -0.0032384480348580024
          -0.003970032056644341 -0.0039283971469030576 -0.003972769837707163 -0.003931149228171748 -0.003975507618769986 -0.003933901309440438
          -0.003653369312927707 -0.0036540805134808426 -0.003654791714033978 -0.0024029283943261103 -0.002403113333259655 -0.002403298272193199
          -0.0032715730386786296 -0.003269312355679098 -0.003267051672679566 -0.002366538749118565 -0.0023665521276874067 -0.0023665655062562485
          -0.002394140581485893 -0.0023941321145295796 -0.0023941236475732664 -0.0029391202014859433 -0.0028858739449733337 -0.0029393883007813233
          -0.0028834811519527345 -0.002939656400076703 -0.0028810883589321357 -0.002607547291904701 -0.0025009854246493706 -0.002607646115742447
          -0.0025009878561194033 -0.0026077449395801927 -0.0025009902875894356 -0.001814627224615778 -0.0018140573624318202 -0.0018134875002478628
          -0.0016430012842631435 -0.001643033641993419 -0.0016430659997236949 -0.002435715580689044 -0.0024357702952331386 -0.002435825009777233
          -0.0026250878592514633 -0.002626490099870205 -0.002627892340488948 -0.0015470503302190824 -0.0015473021262322095 -0.001547553922245337
          -0.0013722024328944003 -0.0013716570468787195 -0.001371111660863039 -0.0033304716838766114 -0.0030426015329648327 -0.0033311765062041844
          -0.0030427013281814396 -0.003331881328531757 -0.0030428011233980456 -0.003598370795814933 -0.003599984923074861 -0.003601599050334789
          -0.0038503949978770423 -0.0036621016321423242 -0.0038519627321526055 -0.0036633890259854447 -0.003853530466428169 -0.003664676419828565
          -0.0019265837270546343 -0.002115484276234621 -0.001854584516828087 -0.0019269647389359701 -0.002116280976805717 -0.0018546741541393013
          -0.0019273457508173061 -0.002117077677376813 -0.0018547637914505155 -0.0017819581335369833 -0.0017817371935625389 -0.0017815162535880944
          -0.0038328447526494868 -0.0038349324981728225 -0.0038370202436961583 -0.0025903038982648435 -0.002581051047717756 -0.002590732445976554
          -0.0025814293110447673 -0.0025911609936882644 -0.002581807574371779 -0.003855514453371665 -0.003626319321578897 -0.003857755233005429
          -0.0036278187687743086 -0.0038599960126391927 -0.00362931821596972 -0.003387855451393893 -0.003388304763832068 -0.0033887540762702426
          -0.0035676296023217846 -0.003364509737935845 -0.0035689087603785552 -0.003364665739883914 -0.0035701879184353255 -0.0033648217418319813
          -0.000976082726032552 -0.0011444766180386426 -0.0010221138124542934 -0.0008517799951545015 -0.0009763796441874539 -0.001144302758930738
          -0.0010214126965400546 -0.0008520265290839956 -0.000976676562342356 -0.0011441288998228333 -0.0010207115806258158 -0.0008522730630134896
          -0.0012481376427432701 -0.0012471691473692102 -0.0012462006519951504 -0.0016674144816716824 -0.0016675261052715748 -0.0016676377288714675
          -0.0025736950816285234 -0.002625174074353594 -0.002574175243376178 -0.002625966593935538 -0.0025746554051238324 -0.0026267591135174817
          -0.002784234884965476 -0.00278431088318456 -0.0027843868814036443 -0.0028397573131355076 -0.0027793602529940734 -0.002840516030557935
          -0.0027798263882028384 -0.002841274747980364 -0.0027802925234116033 -0.001911521726667437 -0.0015222101027792289 -0.0019104367474957148
          -0.0015200510728961315 -0.0019093517683239935 -0.001517892043013034 -0.002038748928509676 -0.002039251362419804 -0.0020397537963299326
          -0.003154477113954111 -0.0032163842425316155 -0.0031545816981912904 -0.0032161674747783575 -0.0031546862824284702 -0.0032159507070251003
          -0.0014788034579855012 -0.0015569461748831304 -0.0013843768487993488 -0.0012541801529189654 -0.0014772871801644646 -0.00155612025214545
          -0.0013834610443209656 -0.0012525978924706194 -0.001475770902343428 -0.0015552943294077698 -0.0013825452398425824 -0.0012510156320222736
          -0.0025113741291061488 -0.002511518510715036 -0.002511662892323923 -0.001025958965406404 -0.0008445761865699667 -0.0010248468716636892
          -0.0008442664564030543 -0.0010237347779209743 -0.000843956726236142 -0.0027719786060859722 -0.0031615124043213494 -0.002772234262205569
          -0.0031624138475838054 -0.0027724899183251663 -0.003163315290846261 -0.0031603117752950355 -0.003161480388566962 -0.0031626490018388884
          -0.0026259755233864627 -0.002626118130452201 -0.002626260737517939 -0.0024426503293029688 -0.002442523082034061 -0.002442395834765153
          -0.0012573192324070537 -0.0012555630039937414 -0.0012538067755804294 -0.0008335355216858311 -0.0008331579227515257 -0.0008327803238172205
          -0.0023443716200157 -0.002812164684465032 -0.002344166342413974 -0.0028126274325029296 -0.0023439610648122483 -0.0028130901805408274
          -0.000948176630398431 -0.0009473782706926691 -0.0009465799109869069 -0.0013484557471445835 -0.0013481327681860611 -0.0013478097892275385
          -0.002719746723409281 -0.0027202212945289655 -0.0027206958656486504 -0.003987604133824213 -0.003989772733434432 -0.003991941333044652
          -0.0007498880953875349 -0.0007498089379955438 -0.0007497297806035527 -0.0029486514060223777 -0.0029489179088402406 -0.002949184411658103
          -0.00356556890897463 -0.00355716040627622 -0.003159784913621698 -0.0035673908978837232 -0.003558590326138194 -0.00316117757669575
          -0.0035692128867928167 -0.003560020246000168 -0.0031625702397698025 -0.0013811639324401042 -0.00138057110844485 -0.0013799782844495963
          -0.002799864682598757 -0.0027336062512003565 -0.002800358063152894 -0.0027339674459656294 -0.0028008514437070312 -0.0027343286407309018
          -0.0015202544984403534 -0.0015188329463608286 -0.0015174113942813038 -0.0017313379170601465 -0.001730700873488498 -0.0017300638299168488
          -0.0026223432471229775 -0.0026214630741565412 -0.002620582901190105 -0.0007974707930008633 -0.0007973960496858527 -0.0007973213063708422
          -0.0013203190530156708 -0.001579396267705325 -0.001319952545066093 -0.0015790754614050198 -0.0013195860371165156 -0.001578754655104715
          -0.001721706293195922 -0.0017206835530623593 -0.0017196608129287964 -0.0006483837635059853 -0.0006478688719107028 -0.0006473539803154205
          -0.003061787477023006 -0.0030639205860048205 -0.0030660536949866355 -0.0028689370170343832 -0.0028697720201647783 -0.0028706070232951734
          -0.004062542136249371 -0.004064609650675404 -0.004066677165101437 -0.0025463603120866153 -0.0025461764126804803 -0.0025459925132743457
          -0.002708471867948789 -0.0026989454337085494 -0.002708961545311487 -0.0026991163892934344 -0.002709451222674186 -0.0026992873448783193
          -0.0031468994014193217 -0.003146911426539964 -0.003146923451660605 -0.0027462170262685486 -0.0027187877195109064 -0.002747087462646319
          -0.002719240081449176 -0.002747957899024089 -0.0027196924433874454 -0.0027543597950072944 -0.002754840420004518 -0.0027553210450017413
          -0.0026753517087341186 -0.002675726668158904 -0.00267610162758369 -0.002864937063264729 -0.0028644201316608857 -0.0028639032000570422
          -0.002545149998712827 -0.002559091430607424 -0.0025441841246304758 -0.0025595643246068603 -0.0025432182505481246 -0.002560037218606297
          -0.0027531129493013617 -0.0027535141466545044 -0.0027539153440076466 -0.0028756890948879272 -0.0028764130220402554 -0.002877136949192583
        </DataArray>
        <DataArray type="Float64" Name="pe33" format="ascii" RangeMin="-0.003994392500869538" RangeMax="-0.0006165448122094371">
          -0.0019239604224485485 -0.0018641598845189399 -0.0016126441965327938 -0.0017129136800840728 -0.0019238649006710973 -0.001863914232586787
          -0.001613212662323067 -0.0017135968545221852 -0.0019237693788936461 -0.0018636685806546344 -0.0016137811281133401 -0.0017142800289602976
          -0.0026107887080653843 -0.0025034610352902644 -0.0025126149595194962 -0.0026221428840994304 -0.002609740495462418 -0.002503033979287203
          -0.002512780074200709 -0.002621978437744362 -0.0026086922828594517 -0.0025026069232841415 -0.002512945188881922 -0.0026218139913892938
          -0.001111612010012414 -0.0013255924954289166 -0.0011121192113813488 -0.0013265384906657757 -0.0011126264127502836 -0.0013274844859026346
          -0.0031392334357668483 -0.003183843224993223 -0.0029060488038598403 -0.002935272491469693 -0.003136906967294106 -0.003181083757971429
          -0.0029040948314201327 -0.0029308164152119544 -0.0031345804988213636 -0.0031783242909496365 -0.002902140858980425 -0.002926360338954215
          -0.002554505778796393 -0.002672732596584824 -0.0025558153267897345 -0.002673587859707364 -0.0025571248747830763 -0.0026744431228299045
          -0.002312860022089966 -0.0021773461709668736 -0.002242566583222523 -0.0024316693529093394 -0.0023095139831881746 -0.0021767494136840197
          -0.0022376349106044465 -0.002422806561005682 -0.002306167944286383 -0.002176152656401166 -0.00223270323798637 -0.0024139437691020247
          -0.003290672479301999 -0.0035212822361333474 -0.00333571230084155 -0.003126779745475698 -0.003287760032644803 -0.0035147880913525545
          -0.003330844609276855 -0.003124798756388828 -0.003284847585987606 -0.0035082939465717615 -0.003325976917712161 -0.003122817767301957
          -0.0018122889055116635 -0.0019753017093259374 -0.001813495202761791 -0.0019757633965529226 -0.0018147015000119187 -0.0019762250837799073
          -0.002454389098690159 -0.0023122866448807085 -0.0028654697477913963 -0.0029042170092259297 -0.002450013388126492 -0.0023101821022748054
          -0.0028618186807220485 -0.0029008667182683964 -0.002445637677562824 -0.002308077559668902 -0.0028581676136527 -0.002897516427310863
          -0.002213538864634953 -0.0022588664496229383 -0.002467562882413574 -0.002211589054279534 -0.002257347285619974 -0.0024669281137886167
          -0.002209639243924114 -0.0022558281216170095 -0.00246629334516366 -0.003903961504814462 -0.0039711373616681134 -0.0039018419630536204
          -0.003828799735920745 -0.0038946883615371317 -0.003962860363895528 -0.0038928727430741373 -0.003819300358544498 -0.0038854152182598023
          -0.003954583366122941 -0.0038839035230946546 -0.0038098009811682516 -0.0027138037676840586 -0.002815698864248449 -0.0025969775502717894
          -0.002583456701202619 -0.0027116170038777986 -0.0028138554292227716 -0.0025963224127384782 -0.00258184924888237 -0.0027094302400715383
          -0.0028120119941970937 -0.0025956672752051667 -0.0025802417965621206 -0.003030615469915894 -0.003029651800241899 -0.003028688130567904
          -0.0023182416675968133 -0.0021956919264841035 -0.0020955497063957825 -0.0023158430948849607 -0.0021947026873662917 -0.0020949765390593563
          -0.0023134445221731086 -0.0021937134482484803 -0.0020944033717229297 -0.0028145729120577713 -0.00298921381058914 -0.0028117326395654665
          -0.0029870558088146604 -0.0028088923670731617 -0.00298489780704018 -0.0033627511841022835 -0.003210488232266531 -0.0033837763923723675
          -0.0035731398450282513 -0.0033608381224852733 -0.0032103667794089194 -0.0033823507571051382 -0.0035696477999067598 -0.0033589250608682636
          -0.003210245326551308 -0.003380925121837909 -0.003566155754785268 -0.0017054500875360655 -0.001954152769806447 -0.0014803637713441977
          -0.0010876449001977636 -0.001704852547256488 -0.0019504510903466054 -0.0014798496219911392 -0.001091580068509402 -0.0017042550069769104
          -0.0019467494108867643 -0.0014793354726380806 -0.00109551523682104 -0.0028715129624580266 -0.00277993554919009 -0.0027411327868874106
          -0.002873698895385605 -0.002780951878960939 -0.0027437416801783833 -0.002875884828313184 -0.0027819682087317885 -0.002746350573469355
          -0.0007699438339472615 -0.0015663027846344558 -0.0007768272666465456 -0.0015678301602442503 -0.0007837106993458295 -0.0015693575358540445
          -0.002559360858295044 -0.0026015495473454436 -0.002909861269651283 -0.0029941093362301076 -0.0025571802130108278 -0.0026000037356778342
          -0.0029059253124552676 -0.00298788536201741 -0.0025549995677266128 -0.002598457924010226 -0.0029019893552592515 -0.0029816613878047124
          -0.0030359389561730025 -0.0029013037609735637 -0.003037229718171296 -0.002901820099862784 -0.00303852048016959 -0.0029023364387520054
          -0.002237343316123726 -0.0023631267309391453 -0.0022320628350335422 -0.0023557340973754844 -0.002226782353943359 -0.002348341463811824
          -0.0030456859303965786 -0.0027000767840422305 -0.0030406510190491764 -0.002699394408202683 -0.003035616107701774 -0.002698712032363135
          -0.0020067346349510466 -0.0018858294349452947 -0.0018641284045511663 -0.002028047067970662 -0.0020085004384062235 -0.0018877963297980235
          -0.001866805053813635 -0.0020309710648915656 -0.0020102662418614004 -0.0018897632246507518 -0.0018694817030761037 -0.0020338950618124683
          -0.001997787932431574 -0.0018941365759970754 -0.0019979778093226143 -0.0018916348797153237 -0.001998167686213655 -0.001889133183433572
          -0.002078481571105651 -0.002074230373834069 -0.0020699791765624864 -0.002362322165290979 -0.0022783500933107013 -0.002363437773707024
          -0.0022795515501916877 -0.0023645533821230694 -0.0022807530070726744 -0.002451665135220118 -0.0023926744575047585 -0.0024308293757621773
          -0.002448358942194609 -0.0023888930849232243 -0.002423721828363534 -0.0024450527491691005 -0.0023851117123416905 -0.00241661428096489
          -0.002238147762716335 -0.0023273332812545856 -0.0018968874342328358 -0.0022349221781188325 -0.002324794824627867 -0.0018936136212623568
          -0.0022316965935213306 -0.0023222563680011486 -0.0018903398082918779 -0.0019744026714326127 -0.0019750763712571375 -0.0019757500710816623
          -0.0022281542283550467 -0.002227583944256298 -0.00222701366015755 -0.002841814340786944 -0.0028879332699843097 -0.0028373935526032046
          -0.0028828449715349344 -0.002832972764419465 -0.002877756673085559 -0.002401913139281685 -0.0023993095740295514 -0.0023967060087774173
          -0.0018254092588208 -0.001971284324420904 -0.00216936396775599 -0.0018278759517379435 -0.0019743820157191562 -0.0021692844362512518
          -0.0018303426446550871 -0.001977479707017409 -0.002169204904746514 -0.003300962463926053 -0.0033692513661562193 -0.003291893051525186
          -0.0033602232359942687 -0.0032828236391243193 -0.003351195105832318 -0.0010779368054321785 -0.0009170075732459521 -0.0009266398377035001
          -0.0011496258640035543 -0.0010785677025086833 -0.0009183934786562469 -0.0009287198261002469 -0.001150791790341019 -0.001079198599585188
          -0.0009197793840665419 -0.0009307998144969937 -0.0011519577166784838 -0.00173508628954076 -0.0014544249981429205 -0.0015251443709408253
          -0.0018002143484983047 -0.0017348863727499923 -0.0014554190593283477 -0.0015258304395399283 -0.0017998047151977627 -0.0017346864559592246
          -0.001456413120513775 -0.0015265165081390312 -0.0017993950818972206 -0.002727267390556473 -0.002553794038352056 -0.0027315190393847285
          -0.0027250020527150014 -0.0025520416988558756 -0.0027278637236744694 -0.00272273671487353 -0.0025502893593596946 -0.00272420840796421
          -0.0023023310152628716 -0.002301587248279938 -0.002300843481297005 -0.0024455450589689716 -0.0024359238888618327 -0.0024263027187546938
          -0.0007836020768439345 -0.0007150736873100541 -0.0007860810940491511 -0.0007181567905841521 -0.0007885601112543675 -0.0007212398938582503
          -0.001190478171598456 -0.0013944459575235477 -0.0011923150187011673 -0.001395723638679947 -0.0011941518658038787 -0.0013970013198363461
          -0.002147307191460113 -0.0021493026654315138 -0.0021512981394029144 -0.0021424474196784283 -0.002309956038864997 -0.002289193574752267
          -0.0020490727141202376 -0.0021433035026240574 -0.0023101873184382797 -0.0022885269994412337 -0.002048765822728597 -0.0021441595855696874
          -0.0023104185980115624 -0.0022878604241301998 -0.002048458931336957 -0.0024881515785859965 -0.0024868628996156964 -0.0024855742206453964
          -0.0021300523589973665 -0.0021311732220166617 -0.0021322940850359573 -0.0022641188450479607 -0.002020069022095126 -0.0022646215674919363
          -0.0020202222416085573 -0.0022651242899359124 -0.002020375461121989 -0.0016822422072263962 -0.0016857989293032952 -0.0016893556513801942
          -0.0018995295742323835 -0.0020966305869812973 -0.0019014476197385239 -0.0020991423317920604 -0.001903365665244664 -0.0021016540766028236
          -0.0017078905929986971 -0.00170682639351468 -0.0017057621940306635 -0.0021699093352739595 -0.0021961437832932105 -0.0021715306476535897
          -0.002198641585170819 -0.0021731519600332204 -0.002201139387048427 -0.002150643140468142 -0.002151681450007453 -0.002152719759546764
          -0.0020070233202734867 -0.0020056736315224206 -0.0020043239427713546 -0.002266226172323447 -0.002269113729123389 -0.002272001285923331
          -0.0015043186567527465 -0.0017241757990675895 -0.0015042181196817976 -0.0017226173787697383 -0.0015041175826108481 -0.001721058958471887
          -0.002425710427897956 -0.0024278110320479812 -0.0024299116361980065 -0.0026590633588967857 -0.00264104274731006 -0.0026561137874253297
          -0.0026392351134949792 -0.0026531642159538732 -0.002637427479679898 -0.003611855145083763 -0.003702922922193631 -0.0035685650601195093
          -0.0036051984246568804 -0.0036941305227844268 -0.003562510749158468 -0.0035985417042299975 -0.003685338123375222 -0.003556456438197427
          -0.0038812695687376066 -0.0036978719473604827 -0.0037245663347952604 -0.0038744618746278728 -0.0036927038645974573 -0.0037187815609229305
          -0.003867654180518138 -0.003687535781834432 -0.0037129967870506014 -0.0014980477024741914 -0.0018591606595312997 -0.0015003794095327524
          -0.0018603525303336641 -0.0015027111165913133 -0.0018615444011360286 -0.002748181651430006 -0.0027093792854642747 -0.002643415561104598
          -0.0027458090458895947 -0.0027065688466419865 -0.0026415944774105323 -0.002743436440349184 -0.0027037584078196974 -0.0026397733937164668
          -0.002780307092289152 -0.002702864021479028 -0.002778368129833013 -0.0027023004542163893 -0.002776429167376874 -0.00270173688695375
          -0.0015617335220230759 -0.0015626616227850756 -0.0015635897235470753 -0.0037352881186891156 -0.003913153925845355 -0.0037295320180010735
          -0.003906480831939467 -0.0037237759173130323 -0.0038998077380335786 -0.003994392500869538 -0.003935981663224258 -0.003986263118690769
          -0.003926713003155639 -0.003978133736512001 -0.00391744434308702 -0.003516233442025181 -0.003614372860463403 -0.003506158335093833
          -0.0036035830258325076 -0.003496083228162485 -0.003592793191201613 -0.0031521678683381 -0.003147410770648068 -0.003142653672958036
          -0.003477555512399571 -0.003453876379843058 -0.003473334294993451 -0.003450310716789901 -0.003469113077587331 -0.003446745053736744
          -0.0031806928264182703 -0.0031780107618150795 -0.003175328697211888 -0.0023950092226526685 -0.002395700429155023 -0.0023963916356573773
          -0.002848422717732468 -0.002848828415660826 -0.002849234113589184 -0.0023358777761817583 -0.002337634258629411 -0.0023393907410770645
          -0.002333947286500175 -0.0023350787035424396 -0.0023362101205847046 -0.002592936204233758 -0.0024891678990687748 -0.002594010370395979
          -0.002494133654266194 -0.0025950845365582003 -0.0024990994094636135 -0.002418384626700683 -0.0023634816316026952 -0.0024206800855278857
          -0.0023648171330621958 -0.0024229755443550887 -0.002366152634521697 -0.0017207797541663686 -0.0017226705752276137 -0.0017245613962888588
          -0.0016710153085302776 -0.0016714907744495864 -0.001671966240368895 -0.002344293478844427 -0.0023450428564862034 -0.0023457922341279806
          -0.0024387620645837283 -0.0024377272129454024 -0.002436692361307077 -0.0013249347030604916 -0.00133095145958321 -0.0013369682161059277
          -0.0011624224406397395 -0.0011654061520156877 -0.0011683898633916361 -0.0030489062495109584 -0.0027575048682407025 -0.003047764417011285
          -0.002759515947135365 -0.0030466225845116116 -0.0027615270260300264 -0.0033476014310102192 -0.0033429526624427306 -0.0033383038938752416
          -0.003769337722389912 -0.00363801475998963 -0.0037591451640019485 -0.0036278816479980163 -0.003748952605613985 -0.003617748536006403
          -0.001954554401756144 -0.0021478146497324385 -0.0018835969583828954 -0.001953275123464848 -0.002146082951894873 -0.0018831783690864026
          -0.0019519958451735524 -0.0021443512540573074 -0.0018827597797899105 -0.0018053234265247749 -0.0018060161909673252 -0.0018067089554098755
          -0.003605542972763105 -0.0035983896257648458 -0.0035912362787665873 -0.002510169114553077 -0.002532639161396836 -0.002509800527148973
          -0.0025321628883999956 -0.002509431939744868 -0.002531686615403155 -0.0035201738788049244 -0.0032759423643330516 -0.003516530594750427
          -0.00327512789077992 -0.00351288731069593 -0.003274313417226788 -0.0030178621154141644 -0.0030199837425348257 -0.0030221053696554865
          -0.0031695239268288385 -0.0029576489084226286 -0.003170302441664433 -0.002960626489295628 -0.003171080956500027 -0.0029636040701686277
          -0.0008761037447699239 -0.0010020010237632526 -0.0009571918099093057 -0.0008067964388596028 -0.0008813615953754734 -0.0010098881977156813
          -0.0009635860764357943 -0.0008126208676490734 -0.000886619445981023 -0.0010177753716681102 -0.000969980342962283 -0.000818445296438544
          -0.0012599580323122371 -0.0012621682345975802 -0.0012643784368829233 -0.0014941874473336438 -0.0015000453511449308 -0.0015059032549562187
          -0.002573275559919778 -0.002549404952821967 -0.002570743530713331 -0.002546998077644045 -0.002568211501506884 -0.0025445912024661226
          -0.0025401718017254438 -0.0025431923837153664 -0.002546212965705289 -0.0028226286406828117 -0.002778025301710745 -0.002819478501052055
          -0.0027732513591748496 -0.0028163283614212986 -0.0027684774166389535 -0.0021256587324717884 -0.0017047985043874708 -0.0021215066431674633
          -0.0017028301638176062 -0.0021173545538631378 -0.0017008618232477414 -0.0020573491240302904 -0.002057174206341747 -0.002056999288653203
          -0.0027919984192602515 -0.0028133166995710263 -0.0027957185718628435 -0.00281726465698849 -0.0027994387244654343 -0.0028212126144059545
          -0.0014362796389188076 -0.0015362882244288152 -0.0013808172023745458 -0.001224559926625549 -0.001439135038147784 -0.0015385058086992871
          -0.0013830867449078667 -0.0012277343593740963 -0.0014419904373767609 -0.001540723392969759 -0.0013853562874411877 -0.0012309087921226437
          -0.0025871609854466624 -0.0025841780310076955 -0.0025811950765687285 -0.001016617850036834 -0.0008311271283624531 -0.0010202016320214695
          -0.0008359241616272057 -0.0010237854140061056 -0.0008407211948919585 -0.002915296221246269 -0.0032815492438316163 -0.002912134690811424
          -0.003278177394413638 -0.0029089731603765792 -0.003274805544995659 -0.0033153665523270037 -0.0033100681839675237 -0.0033047698156080446
          -0.0026017960517135895 -0.002599699762663295 -0.002597603473613001 -0.0025836871331711276 -0.0025797606048948564 -0.0025758340766185855
          -0.001164323947935528 -0.0011700588072812673 -0.0011757936666270063 -0.0007500212165933799 -0.0007538054702341554 -0.0007575897238749312
          -0.0025442294256505485 -0.002886029851230905 -0.002539434601798147 -0.0028828317941412026 -0.002534639777945745 -0.0028796337370515
          -0.0009579645773044479 -0.0009606980526348499 -0.0009634315279652521 -0.001126136975861622 -0.0011320351669143831 -0.001137933357967144
          -0.002725247976260556 -0.002721205391784747 -0.002717162807308937 -0.003795974655534241 -0.0037877942194817662 -0.003779613783429292
          -0.0007049929817208035 -0.0007092226485183154 -0.0007134523153158271 -0.0026396853217610697 -0.002642641251922833 -0.002645597182084596
          -0.0037078008393483597 -0.0036732987447531404 -0.0033346375245142694 -0.003699586500543997 -0.0036656530923205007 -0.0033282894889810977
          -0.003691372161739634 -0.00365800743988786 -0.0033219414534479265 -0.0012018224798752476 -0.0012104226838696352 -0.0012190228878640231
          -0.0028041876043949678 -0.002722782526459575 -0.0027986427448912395 -0.0027179017927712146 -0.0027930978853875116 -0.0027130210590828544
          -0.0014221198767029146 -0.0014263023800761714 -0.0014304848834494285 -0.0017008481158197128 -0.001703143807658601 -0.001705439499497489
          -0.0028390778021090786 -0.002835392027503088 -0.002831706252897097 -0.0007807128014017989 -0.0007847356500787793 -0.0007887584987557596
          -0.0013484596809628091 -0.0016102994490409957 -0.0013497679843505193 -0.001611339595532299 -0.0013510762877382294 -0.0016123797420236022
          -0.001670618872945315 -0.0016728540751642022 -0.0016750892773830899 -0.0006165448122094371 -0.0006194452795640973 -0.0006223457469187574
          -0.0027383831087146016 -0.002734476322520649 -0.0027305695363266983 -0.002875372075358035 -0.0028710283678995262 -0.0028666846604410174
          -0.0038971127859080304 -0.0038891207442022647 -0.0038811287024964995 -0.002614322769081691 -0.002613701481814513 -0.002613080194547335
          -0.0026864448581721415 -0.002637169718094027 -0.0026825093703957735 -0.0026349460878544845 -0.002678573882619405 -0.002632722457614942
          -0.002816263380211266 -0.0028131277759087516 -0.002809992171606236 -0.0025166731706837723 -0.002551128559210468 -0.0025161181954978552
          -0.002549897341727947 -0.002515563220311939 -0.0025486661242454254 -0.0026590841675509336 -0.0026571123019991814 -0.0026551404364474284
          -0.0025371267292983763 -0.0025364837717915187 -0.0025358408142846607 -0.0026010133368373632 -0.0026000989549989184 -0.0025991845731604744
          -0.0022067869322006635 -0.0022757140025065404 -0.0022126594566784542 -0.002280124964767849 -0.002218531981156244 -0.0022845359270291573
          -0.0024839737150886823 -0.002485325882266537 -0.0024866780494443917 -0.0025765483952903245 -0.0025760774665560702 -0.0025756065378218155
        </DataArray>
        <DataArray type="Float64" Name="disp_x" format="ascii" RangeMin="0.000007414395675572571" RangeMax="0.0000625172631256387">
          0.000043510654249390424 0.00004365734191972818 0.00004134273084011737 0.00004126463642649609 0.000043515006026187395 0.00004366264654243144
          0.00004134835212202699 0.000041269552550379625 0.000043528266105689276 0.00004367768823864334 0.000041366533661773785 0.000041285461330759945
          0.000053497983174221425 0.00004974389721130083 0.00004790261146686917 0.000050102730313602584 0.000053498694834660574 0.000049746160089446285
          0.00004790405646934676 0.000050102957896451174 0.00005350097446239324 0.00004975337278278151 0.000047908678168696495 0.00005010382355520039
          0.00004169718636849081 0.00004346045453932369 0.00004170199499251697 0.00004346535169232528 0.000041715344323656524 0.000043479903403703924
          0.00004980582849782509 0.00005014205716251708 0.00005395873424394272 0.000053404113095484874 0.00004980135374111168 0.00005013563417210951
          0.000053951200570049595 0.00005339799434010256 0.00004978647867946707 0.00005011800873160604 0.000053929607343469284 0.0000533839398745484
          0.00004550077982618832 0.0000474010947481619 0.000045501549593170605 0.000047401240470853044 0.00004550352123707015 0.00004740071923478049
          0.000021115918546628506 0.000023475230828693373 0.000022996729268336408 0.00001986779026282783 0.000021111636169904934 0.000023469368292957856
          0.0000229892472272544 0.00001986460472502166 0.000021096832110931797 0.00002345019224947102 0.00002296612854062613 0.000019853407559680714
          0.000021073261804491345 0.000025043646108469526 0.00002530754585035975 0.000021860386108445533 0.00002108072246030034 0.00002504956795292874
          0.000025312990472319408 0.000021866612866620677 0.000021104734337637058 0.000025069958970833986 0.00002533216705958529 0.000021882651712525032
          0.00004121991257035826 0.0000431763242447751 0.000041223926981743015 0.000043180222463131267 0.0000412364067252059 0.00004319187804143541
          0.000013179068510246586 0.000012278302529265552 0.000015259076586837675 0.00001607372389508781 0.0000131904369198844 0.000012291602133362791
          0.000015270858274452917 0.00001608348632691827 0.000013226181418831443 0.000012334289865297539 0.000015305161310448008 0.000016111469507062347
          0.000049118558789951566 0.000048933229204756046 0.00005174063101653737 0.00004912396711457081 0.000048938521576382105 0.00005174595435982995
          0.00004914039944873174 0.000048954019302914606 0.00005175752254697427 0.00002658579724242901 0.00003092233047828159 0.00002995342558471732
          0.000026152106525624926 0.000026589438121013406 0.000030922003208145887 0.000029954070833551967 0.00002615655753846217 0.000026599637887400037
          0.00003092133658161367 0.000029955857954636206 0.000026168952257906704 0.0000211292570113851 0.000024206902926792374 0.00002523995223199351
          0.000022179335103791127 0.000021133264387790025 0.000024210393316762616 0.00002524148359799786 0.00002218127684250559 0.00002114395613948265
          0.00002422062406645808 0.00002524698222835758 0.000022185562873685868 0.00004966303392277352 0.000049659542983724084 0.00004964921118168554
          0.000022267513320646266 0.00002441341547558732 0.000025018823703640984 0.000022264281879981107 0.00002441028951974899 0.000025015120732750535
          0.000022255060952067767 0.000024400188389601994 0.00002500467709544375 0.000019762707571588233 0.000022971857682084423 0.000019768280345821083
          0.0000229768355604661 0.000019784943660381724 0.000022991633919422584 0.00004586597500340125 0.000045810753156561636 0.000042184285182178926
          0.00004166132743147104 0.000045860777808013694 0.00004580658912533269 0.00004217923729330597 0.00004165585711349316 0.000045844354467855984
          0.00004579341509793879 0.0000421642751895712 0.000041639891362908206 0.000009938311862171108 0.000010914187650804898 0.00000934937601985393
          0.000008208340574010932 0.000009953789881922974 0.000010929129315638669 0.00000936552149643412 0.000008225274773372532 0.000009997987028168077
          0.00001097097286878606 0.000009416635451132287 0.000008276804899322034 0.00004563264484365801 0.00004859680044569643 0.000044816399708776744
          0.00004563052393171211 0.00004859563234707414 0.00004481527908336917 0.00004562494216757776 0.00004859205437511669 0.00004481325842646644
          0.000007414395675572571 0.000009196917343867824 0.000007429663314213709 0.000009213407187964554 0.0000074775409539706335 0.000009258802535596868
          0.000033068441843669646 0.000028712689362164915 0.000027667842423302555 0.00003119556670699066 0.00003306789591835191 0.000028714194795056414
          0.000027670738669012612 0.000031195623112702165 0.000033066206854111725 0.000028718871749308165 0.00002768038344091672 0.000031196198764952045
          0.00004585312372098911 0.00004927760517903921 0.000045849883607868075 0.00004927552117491549 0.00004583875809584826 0.00004926857678858647
          0.000014391132650189678 0.00001617281236699997 0.000014396248184041814 0.000016174938357592513 0.000014409813042263469 0.000016181464741814104
          0.00003447842395563784 0.00003632247759343431 0.00003447541323068409 0.0000363197828495667 0.00003446478216729029 0.00003631077178187141
          0.00004245605872118334 0.00004115674580010441 0.00003985558842539569 0.00004103256993130558 0.00004245928242799565 0.00004116001886128281
          0.000039857703554739154 0.00004103440715361237 0.00004246879288007464 0.000041169917778928165 0.00003986474296501072 0.00004104072965462705
          0.00002732268922048511 0.00002779637382275277 0.000027318862516793005 0.00002779187344017858 0.00002730601521686787 0.00002778175925472764
          0.000012756514257883486 0.000012764645937459575 0.000012789351090127103 0.000026064082027827537 0.000029341717816822593 0.000026063860564910186
          0.000029342284881009348 0.00002606262296979299 0.000029343331934468837 0.000019267432906733634 0.00002105055806880119 0.000018980634932381846
          0.000019268459825713065 0.000021048544848119894 0.000018979447694967675 0.00001927274941810143 0.000021041385916555887 0.000018976587461070802
          0.00001313663601045609 0.000014601020292386882 0.000011389420167661982 0.000013147212596931993 0.00001460867555401219 0.000011400661122152892
          0.000013178756740739614 0.00001463133577943559 0.000011434939549908995 0.000025802922485202454 0.000025798390060901933 0.000025785891494743344
          0.00001163708923015824 0.00001165130814139884 0.000011696959351967193 0.00005643869830723955 0.00005761020577065441 0.0000564425312962168
          0.00005761267052907353 0.00005645295545333555 0.00005762012535494823 0.000016433071638417265 0.000016437964235891946 0.000016453355526970046
          0.00003274774475968394 0.000029846027118711294 0.000032579948149009956 0.00003274818114456632 0.000029844950671321322 0.00003258070448446982
          0.00003274889614135305 0.000029843628752022762 0.000032583492406772654 0.000029758625258563768 0.00003303005489143128 0.000029760421943010245
          0.000033027744019463254 0.000029765755142982603 0.00003302055220034229 0.00004053071149241491 0.00003914710248992972 0.000038766021958664956
          0.0000403119371837509 0.00004053581256744999 0.000039152590670409015 0.00003877150636763432 0.0000403175258562974 0.00004055144090940526
          0.000039169320782504296 0.00003878900075412083 0.000040334305526197085 0.000043889725515206065 0.00004176674103276783 0.000041480702465012126
          0.000043715006534842394 0.000043896236226227294 0.00004177298610792079 0.0000414870271362721 0.000043720989451196135 0.000043915814171838674
          0.0000417925643577078 0.00004150767174845888 0.00004373814960511495 0.000054972884752016965 0.000052015412451549554 0.00005423954244101993
          0.000054977240966245546 0.00005202045957712971 0.000054244175141943054 0.000054992284200370104 0.00005203668700559548 0.00005425751347446791
          0.000023720941740400736 0.000023718478543386936 0.00002371017738810207 0.00001749966178699104 0.000017500049765725525 0.000017503428032516493
          0.00003846914072017568 0.000037328916321653055 0.00003847422288569633 0.00003733251088117369 0.000038489137585789 0.00003734363937664792
          0.00003988097292489925 0.000042155913041865704 0.000039887119554602254 0.000042162063897919054 0.00003990494753520798 0.00004217944518867632
          0.00002674930513621843 0.000026747212400448368 0.00002674069396979194 0.00004675030495745035 0.000048806300650449476 0.00004876898791933532
          0.00004619026759257621 0.000046755365185621714 0.00004881209490906566 0.000048774856404414586 0.00004619602377427926 0.00004677121536886277
          0.00004883003138557827 0.00004879300086127992 0.000046212180257133354 0.00005080833589282068 0.00005081481773127726 0.000050831786403487606
          0.000046132891861129915 0.00004613703728158719 0.000046147684499030005 0.00003658393238237727 0.00003549946404927987 0.000036582697829954794
          0.000035499805681122465 0.00003657821533930678 0.0000355007062409963 0.00003063150848369625 0.00003062784260502006 0.00003061463384250201
          0.00003795350882051194 0.00003903672015182468 0.000037954438152825345 0.0000390370413195138 0.000037956168985555455 0.000039037154921463664
          0.000029702125168951153 0.00002969741231658429 0.00002967990747406411 0.00004460443573537981 0.00004302766095361817 0.00004460745952643863
          0.00004302969971163943 0.0000446160528257641 0.000043035365527415414 0.000045573946392202106 0.0000455776309131832 0.00004558779105778255
          0.00004625623441156925 0.00004626260204987034 0.00004628182874941604 0.000040936680092101446 0.00004093728935463069 0.00004093897217777425
          0.000030700393841863786 0.00002856382625208852 0.00003069460892478579 0.000028559417620364284 0.00003067404821288817 0.000028549418947207316
          0.0000385858648537254 0.00003858432915419772 0.0000385794715956116 0.000055775235451817935 0.00005503863133963235 0.00005577198708748005
          0.000055037623266561275 0.00005576257524401481 0.0000550346641770938 0.000022620523405556937 0.000025590218082065048 0.00002312093723415009
          0.00002262769759238329 0.00002559620681538585 0.000023128205825689205 0.000022653246428658886 0.00002561024131790005 0.00002315120306737656
          0.00003587697244670593 0.000041424236855609895 0.00003759939193817757 0.000035873964878045416 0.000041419145982002864 0.000037595345037874955
          0.000035865048303605666 0.00004140454296461491 0.000037581342491888 0.000029539864441597347 0.000026617758896509713 0.000029534596147549517
          0.000026610715577225232 0.00002952039173084862 0.000026587521486162214 0.00006014065453401367 0.00005707448423480087 0.000057768880696818065
          0.000060140736619945186 0.0000570754682278678 0.00005776921444456226 0.00006014085923114637 0.00005707831399265759 0.000057769950666256486
          0.00005259875954279666 0.00005170150425234778 0.00005259701325909209 0.00005170130421101047 0.00005259256994846906 0.000051699337214948315
          0.00004548647737660309 0.00004549212135672864 0.000045509161602777256 0.00004194222714431644 0.000037102838255923996 0.00004193713573672098
          0.0000370995036831648 0.00004192167608156745 0.000037089509243931715 0.00003221816488793314 0.000027409301094827312 0.00003221744158515458
          0.000027412105104810554 0.00003221348685460112 0.00002742071153904094 0.00002850893625266537 0.000031645656276080896 0.000028512297112845734
          0.00003164511044535324 0.00002852371669335114 0.000031641356534582433 0.000026405749294071433 0.00002641030576143889 0.000026423855118454068
          0.00004658905633010421 0.00004602947141529246 0.00004658313536144561 0.00004602414643288445 0.000046562941478543074 0.000046006029880777567
          0.000050939792256209185 0.00005093283033197036 0.00005091135538977848 0.00004967808178139785 0.00004968407564944664 0.00004970163397040577
          0.000054908660856554874 0.00005490048698347765 0.00005487315261189429 0.00004885165983236365 0.00004885645825265063 0.00004887048823030404
          0.000048163940219136454 0.000048167715072466505 0.000048178763410106376 0.00005718683992201424 0.00005845280056318583 0.000057178768101732846
          0.00005844554385199237 0.000057150558259124224 0.00005842342625566351 0.00004327212509420053 0.00004544023828438 0.000043273017518315056
          0.00004544243421521585 0.000043274998220384186 0.000045448188734652583 0.000035280452180511196 0.00003528176583413934 0.00003528542481382908
          0.000044239519935404316 0.000044246179459287284 0.00004426652595728715 0.00004702935595608452 0.0000470325835533927 0.000047042006624187054
          0.000022893739224361264 0.00002289371180869547 0.000022893062913014685 0.000032316585601743245 0.0000323120055262387 0.00003229528317306088
          0.00003229125959284903 0.000032287372031871385 0.00003227506254111978 0.0000374787285205961 0.00003905107154079403 0.00003747415175595495
          0.000039047663099753926 0.0000374592451754782 0.00003903781723494289 0.00003620490129590184 0.000036200264197404153 0.000036185690683391536
          0.000029560453732434588 0.00002759382834145252 0.000029561455207105575 0.000027597987764752943 0.000029565187239124483 0.000027608993879239658
          0.000046552990212611435 0.000049451284356416646 0.000046999409794217184 0.00004655968925336294 0.000049457203388499094 0.00004700574948063617
          0.00004657880126636132 0.00004947542019296927 0.00004702462819271863 0.00004763329352601997 0.00004763898852770317 0.00004765599277817934
          0.00003500263374547294 0.00003499870945804056 0.00003498575058419302 0.000050921371313755373 0.00005147419854153774 0.00005092513767967214
          0.00005147945593413332 0.00005093542145669244 0.00005149526947646 0.00003852903756133426 0.000039382997307730015 0.00003852416675679168
          0.000039378127183908826 0.0000385094580118734 0.00003936304828152196 0.00004026905381675475 0.0000402647286466047 0.000040251004010817846
          0.000042579628179942464 0.000042922065621853674 0.000042575556283477234 0.000042919194210222394 0.000042562307958489876 0.00004290913846503088
          0.000034372035143355344 0.00003429278834644103 0.000035806511552399625 0.000035802093540175585 0.00003437039824211191 0.00003429173458945476
          0.00003580965839993817 0.00003580405677796325 0.00003436435772981555 0.00003429085696553821 0.00003581947987398661 0.000035808273031340436
          0.00003950722482500245 0.0000395133080506612 0.00003953035772585334 0.00003332314042598029 0.000033322744643280865 0.000033322628414405254
          0.000018567226387465296 0.00001998729187352381 0.00001857188081177753 0.000019990053133406112 0.000018588077250663984 0.000019997499847967774
          0.00004106065194319324 0.00004105965807314754 0.000041056069477650664 0.00005946643948778684 0.00005662009628537974 0.00005946661956722516
          0.00005662207703668864 0.00005946730841866688 0.0000566266609958452 0.000011939893789996107 0.000010297412749798813 0.000011952586391533348
          0.000010311569490108872 0.000011990597982569935 0.00001035441701609525 0.000049936639451587083 0.00004994253417445929 0.00004996027545415151
          0.00004149376002131972 0.0000430994123207742 0.00004149155398514307 0.00004309758433042064 0.00004148243211625017 0.00004309106362488052
          0.0000373844117153099 0.0000392760623999723 0.000039324805086834904 0.00003747304737765059 0.00003738777254703194 0.00003928060190260184
          0.000039330285505524466 0.00003747731140512841 0.000037398302103122456 0.00003929394774289122 0.000039345921449612064 0.000037489991758140204
          0.000016922995268667697 0.00001693000094016304 0.000016950727367588034 0.000037509899555925926 0.000036749535985849044 0.00003751482269756984
          0.00003675332928366676 0.00003752976593755343 0.000036766218656734544 0.00001714638230106051 0.00001931814882550929 0.0000171549651711653
          0.000019327276919467286 0.00001717878958905741 0.00001935338419008985 0.000018712372255564945 0.000018721858983932702 0.00001874979967766439
          0.00005223754553055115 0.00005224333868381472 0.0000522608588473012 0.0000154342224711214 0.000015443037046937645 0.000015470880470219187
          0.00003570390981897894 0.00003570749772602962 0.00003571796855381644 0.00003451740773523624 0.00003451706753532568 0.000034515926825934235
          0.000014238356106942758 0.000018394214372667218 0.000014248511883806358 0.000018401022739749244 0.00001427975854751688 0.000018420968817201688
          0.00003829084171222926 0.00003829630020926939 0.000038311985242087404 0.00003307232220782549 0.00003306923461483976 0.00003305605911899413
          0.00005404077020638034 0.00005404560640080907 0.00005406065026979088 0.000033816158390239485 0.00003381391290453989 0.00003380702205613263
          0.0000358243094605878 0.000035825828580423515 0.000035830644441567954 0.000043250136409584055 0.00004324970100786259 0.000043247498188216965
          0.000022807442375010084 0.000022546965404920093 0.00001854695150608059 0.000022814322575926252 0.00002255435970145025 0.000018557024402927198
          0.000022835862054925437 0.000022576076721487414 0.0000185872535918445 0.000033940372657552024 0.00003394016020100791 0.00003394173557203646
          0.00005582288242262918 0.000054000321528366396 0.00005582624474579583 0.00005400467146137089 0.00005583364169787722 0.0000540189742399578
          0.000035460329460557654 0.00003546307639733701 0.00003547019633740877 0.00003941326748557795 0.000039416895554996063 0.00003942683321345541
          0.000014776253887198024 0.00001478922787556518 0.000014828049702385248 0.00003700367639164771 0.00003700783138344571 0.00003701985649725607
          0.00004268636849964008 0.00004476058580732772 0.000042691956906289255 0.00004476676701577774 0.0000427076965783364 0.00004478568469832698
          0.000037486828163644385 0.00003748922703260714 0.000037495955089207374 0.00003581739810358291 0.000035819403284846866 0.00003582406106431124
          0.000056113125022019894 0.00005610585564038981 0.00005608337648920207 0.00005863805938659087 0.00005863932833281926 0.000058641606885415345
          0.00003299636979904095 0.00003299490476632954 0.000032990333366664576 0.000053939338244987594 0.00005394416846926493 0.00005395967576173659
          0.000053980571665057226 0.00005390081193740544 0.00005398497814338435 0.00005390380470810142 0.00005399754230014326 0.000053911207470775944
          0.0000540178167727711 0.000054012979505819957 0.00005399905043104125 0.00005866809060634142 0.00005929541217546938 0.0000586642467366539
          0.000059293214970553304 0.00005865144360504619 0.00005928707996214796 0.000061023708472853065 0.000061023291107164085 0.00006102206810850629
          0.0000625172631256387 0.00006251561638370966 0.00006250955801663117 0.00005692693705750532 0.00005692135524029719 0.000056902700759608156
          0.00006160707170541435 0.000060680682785163696 0.00006160301336101202 0.000060674737072486665 0.00006159442712655157 0.00006065680100362225
          0.0000586476849157097 0.00005864320493457562 0.0000586264082489492 0.00005754927642600171 0.00005754198103217164 0.00005751520097887492
        </DataArray>
        <DataArray type="Float64" Name="disp_y" format="ascii" RangeMin="-0.000025176563059685896" RangeMax="0">
          -0.00001855696423209443 -0.000019586690924651353 -0.000019830387146062694 -0.000018942192587403127 -0.00001855919770276538 -0.000019588758370841954
          -0.00001983312091679287 -0.000018945378669295328 -0.000018566034575837356 -0.000019594921680799094 -0.00001984149694309404 -0.000018955179319672772
          -0.000011348194655416218 -0.00001337481152218615 -0.000012798059964122879 -0.00001110127860129254 -0.000011348598728213198 -0.000013376443647076802
          -0.000012800438936638782 -0.00001110329304311753 -0.000011349428747204836 -0.000013381280489235993 -0.000012807671605299597 -0.000011109076885420094
          -0.00002396463032162884 -0.000024371051104767934 -0.000023965657069458293 -0.00002437216853138752 -0.000023968441008291664 -0.000024375225856069774
          -0.00000372084461755426 -0.0000018407718121893731 -0.000001630909897118141 -0.000003251911462441013 -0.0000037226108401874557 -0.0000018415736464455514
          -0.0000016306564127895511 -0.0000032521013260392487 -0.0000037282848714618424 -0.0000018430112379403488 -0.0000016275243091105828 -0.000003255158323855948
          -0.00001251077728758468 -0.00001097280833771477 -0.000012514075757432592 -0.000010975547286968866 -0.000012524422389302079 -0.000010984286664830918
          -0.00001138125767701432 -0.000013111037010119496 -0.000013050267790767531 -0.000010825034037068544 -0.000011383246008100471 -0.000013114427245503951
          -0.000013053389521396356 -0.00001082600102188437 -0.000011391556171591727 -0.000013124211949322647 -0.000013062354629942644 -0.00001082916755837807
          -0.000005234776930814436 -0.000006599546692947098 -0.000008116683800044885 -0.000007091938552462447 -0.000005237114683524807 -0.0000066031948740906245
          -0.000008121106024838559 -0.000007094996041441354 -0.000005244489791021212 -0.000006615387289520729 -0.000008134657857271439 -0.000007103812316059881
          -0.000018096261477622406 -0.00001764699976680406 -0.000018099764547000247 -0.000017649703306796746 -0.000018110500939334262 -0.00001765704571714498
          -0.00000230908667945547 -0.000001087675261958896 -0.0000013632278500801028 -0.000002798493206157868 -0.000002307986609875907 -0.000001086394136648458
          -0.00000136359550424902 -0.000002799102063895836 -0.0000023061474294928277 -0.0000010818746221781181 -0.0000013634732459928973 -0.00000280152055060771
          -0.000022666087707283618 -0.000021429586352778974 -0.000021170613708120888 -0.00002266780499469303 -0.00002143128593884446 -0.000021172356647737178
          -0.000022674123950109535 -0.00002143513275123921 -0.000021176945989730013 -0.0000018658294438832307 -0.0000020753067917144194 -0.000004005957008772971
          -0.000003661899707189324 -0.0000018670017493699367 -0.000002076346713120575 -0.0000040080178577793155 -0.0000036639869786089137 -0.0000018704558151522966
          -0.00000208076404573956 -0.000004014374437708427 -0.0000036699521566941453 -0.000009073544529660363 -0.000010340584331908619 -0.00001174239097463953
          -0.000010294989326517146 -0.000009076783061134006 -0.000010345534175930286 -0.000011748352545663722 -0.000010298700056557762 -0.000009086806462122034
          -0.000010360895556379238 -0.00001176572790803465 -0.00001031078360713433 -0.0000056471670672764715 -0.000005649977573427509 -0.000005658642603545941
          -0.000011783860741015156 -0.000013070787772792335 -0.000013816646302825692 -0.000011786543268039963 -0.000013075315090980613 -0.000013820914212505445
          -0.00001179608014118554 -0.000013087433417352001 -0.000013834745892651785 -0.000007602658533728197 -0.000008775913344145764 -0.000007605311440941627
          -0.000008779835819254545 -0.000007613508891261111 -0.000008791049085686717 -0.000004048044015628977 -0.000005973240014496548 -0.00000641290506506338
          -0.000004382491552980493 -0.000004050763422483469 -0.000005977271249337973 -0.0000064174027221494735 -0.000004385884852540664 -0.000004060270436631018
          -0.000005988830425893692 -0.000006430712098741027 -0.000004396458096142198 -9.002911106670922e-7 -0.0000019143218202145585 -0.0000016769540663155837
          -8.422125654466593e-7 -8.987387172968817e-7 -0.0000019127852889216533 -0.0000016745754048063988 -8.39918929074815e-7 -8.896613294759703e-7
          -0.0000019072649010880042 -0.0000016703375159773618 -8.345722520168673e-7 -0.000009453915845139926 -0.000009342253335513904 -0.000010861010371285226
          -0.000009458057007112963 -0.000009345232896148775 -0.0000108650016176228 -0.000009470857471528522 -0.000009352858089755158 -0.000010876343328031151
          0 0 0 0 0 0
          -0.00001432533863449703 -0.000013114144235947193 -0.000011519769431774182 -0.000012112376966165274 -0.000014333376506695602 -0.000013121809091283116
          -0.000011526429099269869 -0.000012120025912588658 -0.000014357785461286714 -0.000013146069639407028 -0.000011547052974263554 -0.000012144078454226291
          -0.000007799899555774551 -0.000007578564437716511 -0.000007804275599521076 -0.000007581477221955863 -0.000007817513812417568 -0.000007590759777327822
          -0.000006112264365468208 -0.000007718534566698747 -0.000006109585770222313 -0.000007716599597967889 -0.000006101359848920102 -0.000007710351327824643
          -0.00001200073020479747 -0.000013560911508749351 -0.000012008520798567286 -0.000013568230275622807 -0.000012032305306583452 -0.000013591111341846827
          -0.000016984790221418515 -0.00001752201310010235 -0.000017411159938455803 -0.000016571682541682564 -0.000016988023018668356 -0.000017525733896631145
          -0.0000174158667642616 -0.000016575902921028845 -0.000016997019220825683 -0.000017536865150196542 -0.00001742955545539842 -0.00001658825788490646
          -0.000014758416208087726 -0.00001543655889304519 -0.000014763131272101448 -0.000015441681593654503 -0.000014775548546300509 -0.000015454800739549867
          -0.000004714644395883425 -0.000004711663782254066 -0.00000470304383350064 -0.000012938525944213486 -0.000014442923114407227 -0.00001294470076097341
          -0.00001445066244200209 -0.000012963802370935804 -0.000014473633938121581 -0.000009222740331515409 -0.000010786991578988279 -0.000009777686048987645
          -0.000009223688090887702 -0.00001078895077416202 -0.00000977865598619066 -0.000009225601891138649 -0.000010795439279968496 -0.000009781036779736153
          -0.0000041582988125122135 -0.000005498957585509567 -0.000003515461452274807 -0.000004157439991885349 -0.000005498053177052308 -0.0000035125180548089536
          -0.000004154575372879128 -0.000005496290384272384 -0.000003503176538407668 -0.00001459999534163146 -0.000014604522575014861 -0.000014617577482708392
          0 0 0 -0.000018517327067779163 -0.000016957325732307636 -0.000018518447229955087
          -0.000016957317203476844 -0.000018521885856343447 -0.000016956859480285375 -0.0000070682907715975 -0.0000070678313917139306 -0.000007066717869734152
          -0.00001676202687167745 -0.000015539084375184446 -0.00001570396669278443 -0.000016770151454407654 -0.00001554573513689765 -0.00001571179175531387
          -0.000016794898723963816 -0.00001556643360886175 -0.00001573480399057766 -0.000010316009179141272 -0.000010219782963445868 -0.000010322595721896516
          -0.000010226526096073762 -0.000010342532501810887 -0.00001024660895556821 -0.000022935222720196293 -0.000022293193320057633 -0.000021842720555278942
          -0.000022146407949212725 -0.000022936084280151975 -0.000022294106417073284 -0.000021843797267109476 -0.000022147545243319027 -0.000022938776691175492
          -0.000022296132250709436 -0.00002184741704330612 -0.000022150877567539744 -0.000021716262643815178 -0.000021623206070764927 -0.000020742833528405906
          -0.000020692665176097804 -0.000021718307162244917 -0.000021625249124978778 -0.000020745272431081162 -0.00002069462525614554 -0.000021725015462615346
          -0.00002163190546676065 -0.00002075250814343334 -0.000020700480617582772 -0.00001996723923559642 -0.000019662215423728293 -0.00001845460559528177
          -0.000019968722164551133 -0.000019663671945074487 -0.000018455535657292734 -0.000019975297949826176 -0.000019669212956570053 -0.000018458747755004276
          -0.00001225147689570422 -0.000012255639339273574 -0.000012268644128570794 -0.000009119352249633376 -0.00000911911892422284 -0.000009115477473844207
          -0.000022273271769811372 -0.000021536610844200293 -0.000022273837082364472 -0.000021537657243066768 -0.000022275126719249242 -0.000021541045843360137
          -0.000021415991696773932 -0.000022496852924649226 -0.000021417949793312465 -0.00002249883037813222 -0.00002142232082914371 -0.000022504590440586448
          -0.000013935051396719405 -0.000013940571916253537 -0.000013957792340311252 -0.00001899483770135933 -0.000019262644900761522 -0.00002020950647083082
          -0.00002048146916352957 -0.000018996178259593144 -0.000019263684847046025 -0.00002021061367004506 -0.00002048269948579156 -0.000018999991691073517
          -0.000019267010479945434 -0.0000202141578637982 -0.000020485856271655012 -0.00001848929435584356 -0.00001849044705138852 -0.000018492623954665776
          -0.000017742076922282174 -0.000017743840715463384 -0.000017748766025571703 -0.000015636005444755602 -0.000016609374100367857 -0.000015642749044014555
          -0.00001661664800906754 -0.000015662485271872535 -0.00001663950744490196 -0.000016642290053550627 -0.00001664932147322364 -0.00001666889970567801
          -0.000017144863006354144 -0.000016214311794799754 -0.00001715103232701101 -0.00001621981977514481 -0.00001716901078687551 -0.000016237110975630683
          -0.00001645389772860435 -0.000016460792388213165 -0.000016476881182786653 -0.000016012676653950646 -0.000015530104588208257 -0.00001601576160719027
          -0.000015533988482065052 -0.000016024200877982723 -0.000015545614552514015 -0.000016747014279424035 -0.000016749468761880683 -0.000016756316050864506
          -0.000021641975274642463 -0.000021643696613358227 -0.000021647788990535555 -0.000015157607112590045 -0.000015162522739232412 -0.000015177374619281397
          -0.000017251485093885113 -0.000016228827924495042 -0.000017257808572284334 -0.000016235305489417576 -0.000017280504730295144 -0.000016256758727924623
          -0.000014613145115678504 -0.000014619219498913937 -0.000014636268424891315 -0.00000721830468206304 -0.000008999090763399238 -0.000007217987851334943
          -0.000008999578752457234 -0.0000072179283829461856 -0.00000900170610661665 -0.0000033953358262430985 -0.000005243842956009607 -0.000004596115125050114
          -0.0000033978414175480575 -0.000005246687416346373 -0.000004598710634876196 -0.000003402907244266253 -0.000005256355229098029 -0.000004606974624710848
          -0.0000027296948814581058 -0.0000022011407998760886 -0.000005006553070647069 -0.000002731468786099774 -0.000002203086286038343 -0.0000050099812621532565
          -0.0000027361827107724643 -0.0000022097306936725645 -0.000005020222413847715 -0.000017067799512879893 -0.000015341788499232467 -0.000017074745740659603
          -0.000015347503308120303 -0.00001709868146178171 -0.00001536268085669795 -0.000012108364271264728 -0.00001237900095077521 -0.000010631862748567907
          -0.000012106397225264712 -0.00001237755910130949 -0.000010630446026601275 -0.000012100785497580604 -0.000012372864670957454 -0.000010626606410142629
          -0.000007414728155416363 -0.000009253324234009791 -0.000007416335080127406 -0.000009255244411804306 -0.000007421787287640303 -0.00000926074311223018
          -0.000024787255619397074 -0.00002478908468357893 -0.00002479415056368218 0 0 0
          0 0 0 0 0 0
          0 0 0 -0.000008597891931934837 -0.00000835293659694026 -0.000008602527145768488
          -0.000008357970698803198 -0.000008618080157383402 -0.000008371980834934495 -0.000009816553296395878 -0.000009822139686152871 -0.000009837238714421183
          0 -0.0000020151377340844008 0 -0.00000201669029248751 0 -0.0000020211672958801556
          0 0 0 -0.000017550176446828373 -0.00001755120323935421 -0.00001755327009556225
          0 0 0 -0.00001656544217101253 -0.000016566905097568888 -0.000016571096603328484
          -0.000015568973270901844 -0.000015571056372893313 -0.000015577670404851723 -0.0000015862177994349682 0 -0.0000015850989067958198
          0 -0.0000015749036656499953 0 -0.000013908523265004683 -0.000014265350347228697 -0.000013912876682579433
          -0.000014268720934432887 -0.00001392546533063802 -0.000014278670611495477 -0.000017569153898413992 -0.000017576913740057324 -0.000017601194287965324
          -0.000022711478796952396 -0.000022713836706787105 -0.000022720676498621586 -0.000014809081348537305 -0.000014811910249870737 -0.000014819928954101895
          -0.00001129097784908289 -0.000011295187954016762 -0.000011307538866708322 -0.00001791929224155781 -0.000017925665412509075 -0.000017948176227896023
          -0.000018510970289296474 -0.000018517451892960947 -0.000018535341207055267 -0.000011225931168244027 -0.000012571788501561792 -0.000011232507417201073
          -0.00001257790865522138 -0.000011252207446676709 -0.000012596557823419955 -0.000009541471005809483 -0.000009547678362753017 -0.000009566065914035284
          -0.000006225504312912334 -0.0000072710126863255325 -0.000006228910028720752 -0.000007275035614271387 -0.000006237614129871454 -0.000007285286815453284
          -0.000022761856858665447 -0.00002389887275456487 -0.000023901752286289944 -0.000022764044750092884 -0.00002390146612552156 -0.00002390428208534708
          -0.0000227707733207167 -0.00002390893810788994 -0.000023911956680304185 -0.000025071206327852872 -0.000025073982363840104 -0.000025082168272718477
          -0.000007689226635198478 -0.00000769424604269217 -0.000007709135583245759 -0.000014272905860223734 -0.0000153619393495043 -0.000014274264455477476
          -0.000015362954818884815 -0.000014278700527364593 -0.000015366378931632923 -0.000006943624028654465 -0.000008757903666268555 -0.000006948472500938536
          -0.000008763726703569786 -0.00000696332043684237 -0.000008781114414929172 -0.000010339108636929712 -0.000010344933264651782 -0.000010363149902386811
          -0.000008162679467782378 -0.00000971138238559224 -0.000008168009204166189 -0.000009716430596822384 -0.000008184231994406728 -0.000009733342352790148
          -0.000019571965479774277 -0.00001916682078776117 -0.00001977447831051349 -0.00002016347080140404 -0.00001957596964744419 -0.00001917154909813459
          -0.000019778473108467607 -0.000020166636604259352 -0.00001958730399382983 -0.000019183420578058 -0.000019791157112727722 -0.000020176009029511183
          -0.000020646768277944513 -0.000020649530270715197 -0.000020657673528562186 -0.00001774030880245559 -0.000017748426406868443 -0.000017774522214080707
          -0.000007971585803946594 -0.000009129161863176613 -0.000007973317505951917 -0.000009131123374705171 -0.000007977292538565636 -0.000009137734461592982
          -0.000013408169943308543 -0.000013413407912066431 -0.000013428876185899294 -0.000013703613953131179 -0.000013911081566138893 -0.000013701957135700092
          -0.000013910145982011971 -0.00001369699800696606 -0.000013905501345395132 -0.0000029820959847764345 -0.000002524641178273201 -0.0000029810119987406672
          -0.000002522036131410321 -0.0000029786446592086793 -0.000002514986915994772 -0.00002516293285586235 -0.000025165981098420635 -0.000025176563059685896
          -0.000011494403505287943 -0.000010724335780524638 -0.000011499914730873544 -0.000010729228453798261 -0.000011515144293869122 -0.000010743554790813354
          -0.000018856689070780108 -0.000019035648596754992 -0.000019856582817918676 -0.000019627009766494146 -0.00001886210092520452 -0.000019040010777717407
          -0.000019860291516285293 -0.000019631441832325005 -0.000018878531794288375 -0.000019052882177925667 -0.00001987160683727946 -0.000019644560585618877
          -0.000006469306248217828 -0.000006470304111389482 -0.00000647325821368164 -0.000020418373171214422 -0.00002052211864964084 -0.000020421540998811928
          -0.000020524858433854256 -0.00002043127479216081 -0.000020532799391884758 -0.00000438486489542685 -0.0000032358833817934937 -0.000004386199080874088
          -0.0000032374987197042893 -0.000004389002848002004 -0.000003243300391712771 -0.0000015969276307280248 -0.0000015979345157764683 -0.0000016025336547170968
          -0.00001631589545213064 -0.000016316512620210455 -0.000016318671350400445 -0.0000049770610461859344 -0.000004977578467137952 -0.000004979866335186047
          -0.00001919475441064212 -0.000019200358627394128 -0.000019217692913394894 -0.00001997899043832648 -0.000019982923337430585 -0.000019995873809065003
          -0.0000036140101439626814 -0.0000060097691985795746 -0.0000036141599162588875 -0.000006011591035085262 -0.00000361426457413867 -0.000006017375119075563
          -0.000021210777602067764 -0.000021212735228416715 -0.000021218528774232363 -0.000018565788616143582 -0.000018572296485803208 -0.000018587336515649378
          -0.000017182278074072224 -0.00001718290988050636 -0.00001718452790018716 -0.000005728593230407969 -0.000005732045206156138 -0.000005743419422310858
          -0.00002053462874552196 -0.000020536939351406424 -0.00002054291566065868 -0.000012146729889621438 -0.00001215119650687207 -0.000012163555445563767
          0 -0.0000017370730065692332 0 0 -0.0000017380642441741178 0
          0 -0.000001741896376291048 0 -0.00001859050216169265 -0.000018596878813766238 -0.000018617506786991294
          -0.000015367338398908657 -0.00001539196407113643 -0.00001536714639350809 -0.000015392333359035913 -0.000015367050394628615 -0.000015393100276001153
          -0.00001844289355793532 -0.000018450157906515708 -0.00001847137776318115 -0.000018196776297833816 -0.00001820149247553183 -0.00001821557456276165
          0 0 0 -0.000020927242838708436 -0.00002092943573141502 -0.000020935038575503145
          -0.000023415714786990998 -0.000023733030365200468 -0.000023417326345280954 -0.00002373509612668248 -0.000023421665824512778 -0.000023741670720903668
          -0.000018023781078809778 -0.000018029898893008906 -0.00001804839980617489 -0.00002087981886488064 -0.000020881291998306135 -0.000020885799194300332
          -0.00000277100065888559 -0.000002770013120365265 -0.0000027691232016619856 -0.000015321951137144025 -0.000015321247580693242 -0.000015318066163058547
          -0.0000042601926411112664 -0.000004262996661515563 -0.000004269426646774699 -0.000020979080772548077 -0.000020980873827924755 -0.000020985769168463893
          -0.00001445270625593228 -0.000013127792408778192 -0.000014452855584258474 -0.000013127576385778497 -0.000014451529354662273 -0.000013126353773482886
          -0.000005152335074780739 -0.0000051536909849132944 -0.000005157056101908927 -0.000006704463538392311 -0.000008346305001140728 -0.000006702988317180905
          -0.000008344586985671929 -0.000006697385564629753 -0.000008339414069651694 -0.00001047860359148662 -0.000010476300087168889 -0.000010469421485929238
          -0.000008844766104813343 -0.000008842188554074844 -0.000008833477471876773 -0.000005624064110428742 -0.000005623097625103201 -0.0000056187938140282825
          0 -0.000001845304852312462 0 -0.0000018441365065113463 0 -0.0000018409641573055823
          -0.000005737832490818582 -0.000005736453927068473 -0.0000057311858030827286 -0.0000034412129369835853 -0.000003440784644413533 -0.0000034423271812013837
        </DataArray>
        <DataArray type="Float64" Name="disp_z" format="ascii" RangeMin="-0.0000013262419071380219" RangeMax="0">
          0 0 0 0 -3.5002773292505934e-7 -3.39034435103825e-7
          -2.9913991239136555e-7 -3.134219186102537e-7 -6.998565391283961e-7 -6.779252065569721e-7 -5.982845301335511e-7 -6.269069122427837e-7
          0 0 0 0 -4.474035918069279e-7 -4.3482388157730766e-7
          -4.3231057752995094e-7 -4.469530476319122e-7 -8.947679137820867e-7 -8.692360043708739e-7 -8.645714432276733e-7 -8.938443182209626e-7
          0 0 -2.2693559245936803e-7 -2.555184130467681e-7 -4.539206565325118e-7 -5.114228901805693e-7
          0 0 0 0 -5.224681723840303e-7 -5.364849199353572e-7
          -5.028959006981155e-7 -4.978446372663159e-7 -0.0000010443587436646958 -0.0000010723606184245932 -0.0000010052211483546364 -9.931813801881869e-7
          0 0 -4.3718214790188077e-7 -4.5556945916460634e-7 -8.747806181307032e-7 -9.110349768547302e-7
          0 0 0 0 -4.0661469077017474e-7 -3.694944197545016e-7
          -3.94499012528167e-7 -4.349822549129122e-7 -8.122979621525383e-7 -7.388995300352174e-7 -7.871188364822637e-7 -8.66822230103278e-7
          0 0 0 0 -5.472579565936186e-7 -5.901227238253509e-7
          -5.524109223729534e-7 -5.233453888165801e-7 -0.0000010939570955428057 -0.0000011785536401830809 -0.0000011037747148438025 -0.000001046505469361706
          0 0 -3.294879928883267e-7 -3.5556838403053656e-7 -6.591954584098904e-7 -7.110709082889483e-7
          0 0 0 0 -4.32882174648582e-7 -4.132459864514853e-7
          -4.962992713319388e-7 -4.996441015879149e-7 -8.635927647064841e-7 -8.268635669297102e-7 -9.91122256332516e-7 -9.984585611292187e-7
          0 0 0 -3.913099300176254e-7 -4.024619857628063e-7 -4.251602058055389e-7
          -7.816898270345807e-7 -8.042426767953039e-7 -8.509357006307545e-7 0 0 0
          0 -6.469061626615749e-7 -6.550810588840878e-7 -6.435920417184267e-7 -6.40394748099301e-7 -0.000001290365437388856
          -0.0000013075076733443705 -0.0000012845106612715005 -0.0000012778211887495944 0 0 0
          0 -4.6795754879966037e-7 -4.785739234533594e-7 -4.444875952193668e-7 -4.419872883285856e-7 -9.353631368688001e-7
          -9.566467130008174e-7 -8.890043220401416e-7 -8.829446942811099e-7 0 -5.109826144666836e-7 -0.0000010219866599441126
          0 0 0 -3.994428487024079e-7 -3.826889664200425e-7 -3.6839322028036453e-7
          -7.982152776694657e-7 -7.646889477400517e-7 -7.382095657435939e-7 0 0 -4.815731813986437e-7
          -5.064256159330742e-7 -9.62012629500606e-7 -0.0000010122863512892647 0 0 0
          0 -5.590878146642443e-7 -5.34792274067917e-7 -5.626439500547105e-7 -5.903539531195432e-7 -0.0000011176042536410796
          -0.0000010697961523769997 -0.000001124961341710844 -0.000001179657042168114 0 0 0
          0 -3.17811249063965e-7 -3.623044678840157e-7 -2.917788160396555e-7 -2.3439216207503e-7 -6.344268870011671e-7
          -7.219346411896891e-7 -5.84283027122245e-7 -4.7078277915974004e-7 0 0 0
          -4.79880542981329e-7 -4.7000055888769345e-7 -4.6193414838058045e-7 -9.60432646992583e-7 -9.406170529699239e-7 -9.249892079514367e-7
          0 0 -1.719700331996669e-7 -2.713269806985121e-7 -3.4835210443288574e-7 -5.421674528791788e-7
          0 0 0 0 -4.4167941470771753e-7 -4.463724491682168e-7
          -4.977562474280616e-7 -5.151783121986231e-7 -8.824359174411918e-7 -8.921602466176904e-7 -9.939507090785745e-7 -0.0000010279250097912288
          0 0 -5.077160763067513e-7 -4.830990597972262e-7 -0.0000010159926829473742 -9.666234830472925e-7
          0 0 -3.9433557749626355e-7 -4.164242974420596e-7 -7.875626938424396e-7 -8.30808357331034e-7
          0 0 -5.184332792751629e-7 -4.552219058856645e-7 -0.0000010351651650502257 -9.101861709619049e-7
          0 0 0 0 -3.588054177949636e-7 -3.408682032657734e-7
          -3.3598310253768857e-7 -3.5860413438530243e-7 -7.181495145702323e-7 -6.82486974404998e-7 -6.7305117665099e-7 -7.183096066453207e-7
          0 0 -3.513740527952471e-7 -3.423908561265053e-7 -7.02685067944019e-7 -6.817629488373205e-7
          0 -3.7282284938816506e-7 -7.442965827182402e-7 0 0 -4.08425566056121e-7
          -3.9218279001975743e-7 -8.174492335672187e-7 -7.849798439824437e-7 0 0 0
          -4.2699203980493014e-7 -4.1847135905764183e-7 -4.2727386583581614e-7 -8.527158135254233e-7 -8.356897063893269e-7 -8.516754188316667e-7
          0 0 0 -3.9654135996812963e-7 -4.0960139083584325e-7 -3.4496131334953877e-7
          -7.922369101491975e-7 -8.187967181072237e-7 -6.891108664514225e-7 0 -3.441605651433116e-7 -6.895831673032162e-7
          0 -3.800261137259166e-7 -7.60589978758966e-7 0 0 -4.854492717116664e-7
          -4.972963551351445e-7 -9.68583004246471e-7 -9.927712083749995e-7 0 -4.1418789991239036e-7 -8.278013721422755e-7
          0 0 0 -3.31354634045586e-7 -3.4798172045370813e-7 -3.7990563224191346e-7
          -6.631710442521242e-7 -6.976243951714376e-7 -7.595656459123304e-7 0 0 -5.578774876944434e-7
          -5.668653299589095e-7 -0.0000011121871656357552 -0.0000011301148774766162 0 0 0
          0 -2.2227983811515564e-7 -1.946471927959556e-7 -1.954530766607294e-7 -2.3421657282789249e-7 -4.446595376753861e-7
          -3.8893101006601376e-7 -3.916111484548685e-7 -4.6896351118083345e-7 0 0 0
          0 -3.188393750697599e-7 -2.7612698864151317e-7 -2.859977084423564e-7 -3.31332161799988e-7 -6.37549308348388e-7
          -5.526381649627012e-7 -5.721657030924687e-7 -6.624035442268196e-7 0 0 0
          -4.692461771904299e-7 -4.4317082546554846e-7 -4.738755079467399e-7 -9.384094969002893e-7 -8.855162606808588e-7 -9.47356900934803e-7
          0 -3.9953090578500624e-7 -7.990195433617619e-7 0 -4.260436215936904e-7 -8.486068568950011e-7
          0 0 -1.7483634959363284e-7 -1.5955334324694623e-7 -3.5148275153806534e-7 -3.206111102035879e-7
          0 0 -2.3515871590757692e-7 -2.653660333608801e-7 -4.7095004839361365e-7 -5.310351725775041e-7
          0 -3.7075383588081076e-7 -7.429971320864195e-7 0 0 0
          0 -3.7551024550506986e-7 -4.096009025206844e-7 -3.997139081766206e-7 -3.605594455179079e-7 -7.513125275284782e-7
          -8.206399707341477e-7 -7.990652941780174e-7 -7.209035267971394e-7 0 -4.311042544669043e-7 -8.610338192804827e-7
          0 -3.748768380905437e-7 -7.500852720559038e-7 0 0 -3.9788702822280613e-7
          -3.6310899707897506e-7 -7.958555819532803e-7 -7.255588271983111e-7 0 -3.0003603042946453e-7 -6.005942097201991e-7
          0 0 -3.404086853883347e-7 -3.668137271743142e-7 -6.813024771318843e-7 -7.345884948443671e-7
          0 -3.262991261405968e-7 -6.54628205406195e-7 0 0 -3.8151348859184514e-7
          -3.8475284715937577e-7 -7.636449937726199e-7 -7.704340891047245e-7 0 -3.803413408551547e-7 -7.609919258108025e-7
          0 -3.6021207661183157e-7 -7.197666095542904e-7 0 -3.936170150729688e-7 -7.882386390954548e-7
          0 0 -2.877491108657779e-7 -3.161262305752856e-7 -5.750723036600824e-7 -6.298008075256629e-7
          0 -4.1438847502283735e-7 -8.298558509523857e-7 0 0 -4.6107455265305063e-7
          -4.5265594746670355e-7 -9.203570817470289e-7 -9.0470891761391e-7 0 0 0
          -6.008170836840482e-7 -6.146744468690831e-7 -6.026190132607255e-7 -0.0000011991462147723308 -0.000001225188096312781 -0.0000012047176329628061
          0 0 0 -6.415854599308545e-7 -6.158515609462675e-7 -6.173117800604985e-7
          -0.0000012810183874850481 -0.0000012299811013081061 -0.0000012326505339513079 0 0 -2.6745169910000336e-7
          -3.324463789466349e-7 -5.359720328915421e-7 -6.66215226715875e-7 0 0 0
          -4.6907513530424555e-7 -4.6398806481790653e-7 -4.5346104205057656e-7 -9.375823483582199e-7 -9.271578040846523e-7 -9.063452208253013e-7
          0 0 -4.7286331046756875e-7 -4.584476825474346e-7 -9.45036945356314e-7 -9.1682348975404e-7
          0 -2.9161269361496575e-7 -5.836793064967909e-7 0 0 -6.185197396355698e-7
          -6.429199591678473e-7 -0.0000012348484650528281 -0.000001284027211188493 0 0 -6.642690834412891e-7
          -6.603824120411389e-7 -0.0000013262419071380219 -0.000001317837405108969 0 0 -5.943235653989113e-7
          -6.079748720901466e-7 -0.0000011847794576794866 -0.0000012119189787543576 0 -5.327503400294388e-7 -0.0000010642304274176733
          0 0 -5.719675656598767e-7 -5.774905190537469e-7 -0.0000011425175658521767 -0.0000011539717096969494
          0 -5.215057196915282e-7 -0.0000010415105358614705 0 -4.1637600302145437e-7 -8.336113369772801e-7
          0 -4.6844521936402126e-7 -9.370018607913757e-7 0 -4.03607292062314e-7 -8.083926563720523e-7
          0 -4.0751855217740547e-7 -8.156058721802499e-7 0 0 -4.4657670999442414e-7
          -3.9455274948985627e-7 -8.935037912365002e-7 -7.926206106254494e-7 0 0 -4.158329226835294e-7
          -4.090569098231673e-7 -8.32361116838992e-7 -8.185487438042534e-7 0 -3.125837288355835e-7 -6.257373244072133e-7
          0 -3.093261141116398e-7 -6.191330255742143e-7 0 -4.0709353531585767e-7 -8.142965751312958e-7
          0 -4.228931504399e-7 -8.453848909279609e-7 0 -2.390220268812829e-7 -4.809333192814001e-7
          0 -2.265693262132296e-7 -4.54587732407013e-7 0 0 -5.10227907442324e-7
          -4.651934467984978e-7 -0.0000010200653984198586 -9.31287329636607e-7 0 -5.597199464199142e-7 -0.0000011180800024432087
          0 0 -6.250733546225834e-7 -6.083406025331443e-7 -0.0000012469618182958134 -0.0000012132202188053061
          0 0 0 -3.528368373836787e-7 -3.814223771181912e-7 -3.4117084263224536e-7
          -7.048471955814786e-7 -7.621106386589065e-7 -6.8213915178406e-7 0 -3.29440494690918e-7 -6.590444564017293e-7
          0 -5.979587866697911e-7 -0.0000011936739884747626 0 0 -4.35258146465181e-7
          -4.351693742660264e-7 -8.704529951831739e-7 -8.70431782593174e-7 0 0 -5.83309605899981e-7
          -5.460371604809584e-7 -0.000001165561737871515 -0.000001092071392375046 0 -5.033733311787131e-7 -0.0000010077756538820025
          0 0 -5.291372599839071e-7 -4.926402118356522e-7 -0.0000010583135435876736 -9.868633041457264e-7
          0 0 0 0 -1.8536620617030333e-7 -1.94890906828335e-7
          -1.9193524638258948e-7 -1.7230039554693903e-7 -3.729671678617916e-7 -3.940458604444864e-7 -3.8552092206537446e-7 -3.4753811753371165e-7
          0 -2.421854965079217e-7 -4.851347665128206e-7 0 -2.7275503579777163e-7 -5.480329855452733e-7
          0 0 -4.4759018028200826e-7 -4.439881786747952e-7 -8.942069774240771e-7 -8.882923236089414e-7
          0 -4.3213338101852744e-7 -8.6551372225413e-7 0 0 -4.82184735131377e-7
          -4.783852563092655e-7 -9.637207328476867e-7 -9.547228853760408e-7 0 0 -3.8218362813673465e-7
          -3.1684187365536516e-7 -7.627077458237791e-7 -6.330964470735173e-7 0 -3.6628017201898546e-7 -7.325845208871737e-7
          0 0 -4.6780470893169704e-7 -4.670226505481516e-7 -9.374460613356651e-7 -9.348270122427052e-7
          0 0 0 0 -2.6933096242919343e-7 -2.8535997551708786e-7
          -2.6188435487723404e-7 -2.400183698834413e-7 -5.395088403928725e-7 -5.715592267438722e-7 -5.24777808114913e-7 -4.81080509063156e-7
          0 -4.4744895007511335e-7 -8.940409511067944e-7 0 0 -2.083824442886579e-7
          -1.7965190890570815e-7 -4.181185934249604e-7 -3.6076523147243096e-7 0 0 -4.989796313729915e-7
          -5.426124993531104e-7 -9.972327054747346e-7 -0.0000010843739346235194 0 -5.583210563514097e-7 -0.0000011151130345340369
          0 -4.465675459122354e-7 -8.924868058636459e-7 0 -4.4948606192036884e-7 -8.973838563991995e-7
          0 -2.2593646203022012e-7 -4.536324593660798e-7 0 -1.6190166675521687e-7 -3.241918704227653e-7
          0 0 -4.463950732302115e-7 -4.984350377080814e-7 -8.909220898080788e-7 -9.95665363842765e-7
          0 -2.0044773762474873e-7 -4.0185622113670665e-7 0 -2.0475539654361626e-7 -4.0813656350054e-7
          0 -4.6966289747734014e-7 -9.378507375242817e-7 0 -6.334562342545496e-7 -0.0000012640824112749343
          0 -1.5828747880430123e-7 -3.182387101603688e-7 0 -4.4699008405352374e-7 -8.949001028815444e-7
          0 0 0 -6.236690070608516e-7 -6.130186063881803e-7 -5.622141965568614e-7
          -0.0000012445659654854564 -0.0000012238383940442462 -0.000001121808485724411 0 -2.2408209147798966e-7 -4.531693921710857e-7
          0 0 -4.855729115601633e-7 -4.719905747693176e-7 -9.68962549694806e-7 -9.424622241849933e-7
          0 -2.644730730240322e-7 -5.301583377133788e-7 0 -3.1161151337282865e-7 -6.23960053808042e-7
          0 -4.824096321752306e-7 -9.632307371019929e-7 0 -1.7235685359220648e-7 -3.463506750243413e-7
          0 0 -2.581797097495932e-7 -2.9882173951233617e-7 -5.168407325978431e-7 -5.982894223259567e-7
          0 -3.0700680874334966e-7 -6.148866903316365e-7 0 -1.475349646241377e-7 -2.958454881816226e-7
          0 -4.871599999841787e-7 -9.720402840631393e-7 0 -4.900764545927003e-7 -9.786375938998301e-7
          0 -6.465769070737998e-7 -0.000001290912111953109 0 -4.387167650450178e-7 -8.763641260061738e-7
          0 0 -4.639237186899169e-7 -4.534031803481278e-7 -9.261079561132499e-7 -9.060891251075875e-7
          0 -4.839681463529502e-7 -9.665469743720263e-7 0 0 -4.3285847824062524e-7
          -4.4143134525787845e-7 -8.65489650669263e-7 -8.822542404464809e-7 0 -4.5863467927746e-7 -9.165018481817029e-7
          0 -4.371214698228071e-7 -8.739993400925239e-7 0 -4.505488843614389e-7 -9.001543159598247e-7
          0 0 -3.7192009817088016e-7 -3.8672860611691166e-7 -7.458488088198083e-7 -7.756103341330446e-7
          0 -4.2683797959678374e-7 -8.545765735050806e-7 0 -4.431216737134613e-7 -8.853475149064754e-7
        </DataArray>
      </PointData>
      <CellData>
        <DataArray type="Int32" Name="libmesh_elem_id" format="ascii" RangeMin="1392" RangeMax="3231">
          1392 1393 1402 1403 1418 1419
          1434 1435 1442 1443 1448 1449
          1454 1455 1478 1479 1500 1501
          1512 1513 1522 1523 1546 1547
          1572 1573 1582 1583 1590 1591
          1608 1609 1614 1615 1616 1617
          1630 1631 1638 1639 1650 1651
          1654 1655 1656 1657 1678 1679
          1682 1683 1684 1685 1704 1705
          1714 1715 1718 1719 1746 1747
          1760 1761 1762 1763 1772 1773
          1790 1791 1794 1795 1802 1803
          1816 1817 1824 1825 1832 1833
          1838 1839 1840 1841 1846 1847
          1848 1849 1852 1853 1856 1857
          1858 1859 1862 1863 1864 1865
          1874 1875 1876 1877 1878 1879
          1882 1883 1888 1889 1904 1905
          1906 1907 1910 1911 1916 1917
          1924 1925 1926 1927 1930 1931
          1936 1937 1946 1947 1950 1951
          1956 1957 1960 1961 1982 1983
          1996 1997 1998 1999 2026 2027
          2028 2029 2038 2039 2046 2047
          2048 2049 2052 2053 2054 2055
          2058 2059 2060 2061 2084 2085
          2088 2089 2096 2097 2102 2103
          2106 2107 2110 2111 2126 2127
          2136 2137 2138 2139 2144 2145
          2148 2149 2154 2155 2158 2159
          2162 2163 2164 2165 2170 2171
          2176 2177 2178 2179 2196 2197
          2200 2201 2202 2203 2204 2205
          2212 2213 2220 2221 2222 2223
          2224 2225 2226 2227 2228 2229
          2232 2233 2236 2237 2246 2247
          2250 2251 2252 2253 2254 2255
          2260 2261 2264 2265 2266 2267
          2274 2275 2282 2283 2308 2309
          2310 2311 2312 2313 2318 2319
          2324 2325 2328 2329 2346 2347
          2350 2351 2364 2365 2368 2369
          2370 2371 2402 2403 2416 2417
          2420 2421 2444 2445 2458 2459
          2462 2463 2466 2467 2468 2469
          2470 2471 2478 2479 2484 2485
          2488 2489 2490 2491 2502 2503
          2504 2505 2510 2511 2512 2513
          2524 2525 2550 2551 2566 2567
          2570 2571 2580 2581 2582 2583
          2602 2603 2608 2609 2616 2617
          2628 2629 2634 2635 2636 2637
          2640 2641 2642 2643 2644 2645
          2650 2651 2666 2667 2668 2669
          2684 2685 2690 2691 2696 2697
          2700 2701 2710 2711 2714 2715
          2716 2717 2726 2727 2750 2751
          2760 2761 2766 2767 2772 2773
          2782 2783 2798 2799 2802 2803
          2810 2811 2826 2827 2830 2831
          2838 2839 2860 2861 2868 2869
          2874 2875 2884 2885 2922 2923
          2928 2929 2934 2935 2938 2939
          2946 2947 2948 2949 2960 2961
          2962 2963 2964 2965 2974 2975
          2978 2979 2994 2995 2998 2999
          3004 3005 3008 3009 3020 3021
          3028 3029 3034 3035 3038 3039
          3040 3041 3042 3043 3050 3051
          3052 3053 3054 3055 3060 3061
          3066 3067 3072 3073 3076 3077
          3082 3083 3086 3087 3096 3097
          3100 3101 3102 3103 3112 3113
          3116 3117 3148 3149 3154 3155
          3158 3159 3166 3167 3182 3183
          3230 3231
        </DataArray>
        <DataArray type="Int32" Name="subdomain_id" format="ascii" RangeMin="107" RangeMax="107">
          107 107 107 107 107 107
          107 107 107 107 107 107
          107 107 107 107 107 107
          107 107 107 107 107 107
          107 107 107 107 107 107
          107 107 107 107 107 107
          107 107 107 107 107 107
          107 107 107 107 107 107
          107 107 107 107 107 107
          107 107 107 107 107 107
          107 107 107 107 107 107
          107 107 107 107 107 107
          107 107 107 107 107 107
          107 107 107 107 107 107
          107 107 107 107 107 107
          107 107 107 107 107 107
          107 107 107 107 107 107
          107 107 107 107 107 107
          107 107 107 107 107 107
          107 107 107 107 107 107
          107 107 107 107 107 107
          107 107 107 107 107 107
          107 107 107 107 107 107
          107 107 107 107 107 107
          107 107 107 107 107 107
          107 107 107 107 107 107
          107 107 107 107 107 107
          107 107 107 107 107 107
          107 107 107 107 107 107
          107 107 107 107 107 107
          107 107 107 107 107 107
          107 107 107 107 107 107
          107 107 107 107 107 107
          107 107 107 107 107 107
          107 107 107 107 107 107
          107 107 107 107 107 107
          107 107 107 107 107 107
          107 107 107 107 107 107
          107 107 107 107 107 107
          107 107 107 107 107 107
          107 107 107 107 107 107
          107 107 107 107 107 107
          107 107 107 107 107 107
          107 107 107 107 107 107
          107 107 107 107 107 107
          107 107 107 107 107 107
          107 107 107 107 107 107
          107 107 107 107 107 107
          107 107 107 107 107 107
          107 107 107 107 107 107
          107 107 107 107 107 107
          107 107 107 107 107 107
          107 107 107 107 107 107
          107 107 107 107 107 107
          107 107 107 107 107 107
          107 107 107 107 107 107
          107 107 107 107 107 107
          107 107 107 107 107 107
          107 107 107 107 107 107
          107 107 107 107 107 107
          107 107 107 107 107 107
          107 107 107 107 107 107
          107 107 107 107 107 107
          107 107 107 107 107 107
          107 107 107 107 107 107
          107 107 107 107 107 107
          107 107 107 107 107 107
          107 107 107 107 107 107
          107 107 107 107 107 107
          107 107 107 107 107 107
          107 107 107 107 107 107
          107 107 107 107 107 107
          107 107 107 107 107 107
          107 107 107 107 107 107
          107 107 107 107 107 107
          107 107
        </DataArray>
        <DataArray type="Int32" Name="processor_id" format="ascii" RangeMin="2" RangeMax="2">
          2 2 2 2 2 2
          2 2 2 2 2 2
          2 2 2 2 2 2
          2 2 2 2 2 2
          2 2 2 2 2 2
          2 2 2 2 2 2
          2 2 2 2 2 2
          2 2 2 2 2 2
          2 2 2 2 2 2
          2 2 2 2 2 2
          2 2 2 2 2 2
          2 2 2 2 2 2
          2 2 2 2 2 2
          2 2 2 2 2 2
          2 2 2 2 2 2
          2 2 2 2 2 2
          2 2 2 2 2 2
          2 2 2 2 2 2
          2 2 2 2 2 2
          2 2 2 2 2 2
          2 2 2 2 2 2
          2 2 2 2 2 2
          2 2 2 2 2 2
          2 2 2 2 2 2
          2 2 2 2 2 2
          2 2 2 2 2 2
          2 2 2 2 2 2
          2 2 2 2 2 2
          2 2 2 2 2 2
          2 2 2 2 2 2
          2 2 2 2 2 2
          2 2 2 2 2 2
          2 2 2 2 2 2
          2 2 2 2 2 2
          2 2 2 2 2 2
          2 2 2 2 2 2
          2 2 2 2 2 2
          2 2 2 2 2 2
          2 2 2 2 2 2
          2 2 2 2 2 2
          2 2 2 2 2 2
          2 2 2 2 2 2
          2 2 2 2 2 2
          2 2 2 2 2 2
          2 2 2 2 2 2
          2 2 2 2 2 2
          2 2 2 2 2 2
          2 2 2 2 2 2
          2 2 2 2 2 2
          2 2 2 2 2 2
          2 2 2 2 2 2
          2 2 2 2 2 2
          2 2 2 2 2 2
          2 2 2 2 2 2
          2 2 2 2 2 2
          2 2 2 2 2 2
          2 2 2 2 2 2
          2 2 2 2 2 2
          2 2 2 2 2 2
          2 2 2 2 2 2
          2 2 2 2 2 2
          2 2 2 2 2 2
          2 2 2 2 2 2
          2 2 2 2 2 2
          2 2 2 2 2 2
          2 2 2 2 2 2
          2 2 2 2 2 2
          2 2 2 2 2 2
          2 2 2 2 2 2
          2 2 2 2 2 2
          2 2 2 2 2 2
          2 2 2 2 2 2
          2 2 2 2 2 2
          2 2 2 2 2 2
          2 2 2 2 2 2
          2 2
        </DataArray>
      </CellData>
      <Points>
        <DataArray type="Float64" Name="Points" NumberOfComponents="3" format="ascii" RangeMin="0.0055128205128194" RangeMax="0.014586579917196396">
          0.010655961336451 0.0054415469453289 0 0.010738296327413 0.0059250363170334 0
          0.010252884061106 0.0059462536680524 0 0.010205117478458 0.0054994523140404 0
          0.010655961336451 0.0054415469453289 0.00015 0.010738296327413 0.0059250363170334 0.00015
          0.010252884061106 0.0059462536680524 0.00015 0.010205117478458 0.0054994523140404 0.00015
          0.010655961336451 0.0054415469453289 0.0003 0.010738296327413 0.0059250363170334 0.0003
          0.010252884061106 0.0059462536680524 0.0003 0.010205117478458 0.0054994523140404 0.0003
          0.011940440807394 0.0034141066074527 0 0.011459595517011 0.003824326979063 0
          0.011102612382238 0.0034627190197861 0 0.011355953963772 0.0030463545109029 0
          0.011940440807394 0.0034141066074527 0.00015 0.011459595517011 0.003824326979063 0.00015
          0.011102612382238 0.0034627190197861 0.00015 0.011355953963772 0.0030463545109029 0.00015
          0.011940440807394 0.0034141066074527 0.0003 0.011459595517011 0.003824326979063 0.0003
          0.011102612382238 0.0034627190197861 0.0003 0.011355953963772 0.0030463545109029 0.0003
          0.010057653370411 0.0084974472595183 0 0.01054988842507 0.0084422245958245 0
          0.010057653370411 0.0084974472595183 0.00015 0.01054988842507 0.0084422245958245 0.00015
          0.010057653370411 0.0084974472595183 0.0003 0.01054988842507 0.0084422245958245 0.0003
          0.011046194733105 0.00090743319272295 0 0.011064186406242 0.00044456569898216 0
          0.011549090679959 0.00043919238601916 0 0.011507246232172 0.00087204304167501 0
          0.011046194733105 0.00090743319272295 0.00015 0.011064186406242 0.00044456569898216 0.00015
          0.011549090679959 0.00043919238601916 0.00015 0.011507246232172 0.00087204304167501 0.00015
          0.011046194733105 0.00090743319272295 0.0003 0.011064186406242 0.00044456569898216 0.0003
          0.011549090679959 0.00043919238601916 0.0003 0.011507246232172 0.00087204304167501 0.0003
          0.010695724673322 0.003201084864495 0 0.010922769205465 0.002821493997395 0
          0.010695724673322 0.003201084864495 0.00015 0.010922769205465 0.002821493997395 0.00015
          0.010695724673322 0.003201084864495 0.0003 0.010922769205465 0.002821493997395 0.0003
          0.0063972422249218 0.0045440807567198 0 0.0065062213292024 0.0050164807168814 0
          0.0062389906493372 0.0053128670028646 0 0.0060512178389602 0.0047929387822649 0
          0.0063972422249218 0.0045440807567198 0.00015 0.0065062213292024 0.0050164807168814 0.00015
          0.0062389906493372 0.0053128670028646 0.00015 0.0060512178389602 0.0047929387822649 0.00015
          0.0063972422249218 0.0045440807567198 0.0003 0.0065062213292024 0.0050164807168814 0.0003
          0.0062389906493372 0.0053128670028646 0.0003 0.0060512178389602 0.0047929387822649 0.0003
          0.0077450758336629 0.0014176167893871 0 0.0081853433575 0.0016343392489207 0
          0.0081296210030831 0.0020475545417094 0 0.0077097822266787 0.0019577759081516 0
          0.0077450758336629 0.0014176167893871 0.00015 0.0081853433575 0.0016343392489207 0.00015
          0.0081296210030831 0.0020475545417094 0.00015 0.0077097822266787 0.0019577759081516 0.00015
          0.0077450758336629 0.0014176167893871 0.0003 0.0081853433575 0.0016343392489207 0.0003
          0.0081296210030831 0.0020475545417094 0.0003 0.0077097822266787 0.0019577759081516 0.0003
          0.010163700921554 0.0050965322104848 0 0.010539876174215 0.0050107335132671 0
          0.010163700921554 0.0050965322104848 0.00015 0.010539876174215 0.0050107335132671 0.00015
          0.010163700921554 0.0050965322104848 0.0003 0.010539876174215 0.0050107335132671 0.0003
          0.0067145785472978 0.00092067788586619 0 0.0066311284750677 0.00045344715700039 0
          0.0071039644964018 0.00045254776362746 0 0.0071622170579096 0.00091220258976311 0
          0.0067145785472978 0.00092067788586619 0.00015 0.0066311284750677 0.00045344715700039 0.00015
          0.0071039644964018 0.00045254776362746 0.00015 0.0071622170579096 0.00091220258976311 0.00015
          0.0067145785472978 0.00092067788586619 0.0003 0.0066311284750677 0.00045344715700039 0.0003
          0.0071039644964018 0.00045254776362746 0.0003 0.0071622170579096 0.00091220258976311 0.0003
          0.011832021157187 0.0073476785459853 0 0.011779780861271 0.0068646395959748 0
          0.012243708910156 0.0068324173193727 0 0.011832021157187 0.0073476785459853 0.00015
          0.011779780861271 0.0068646395959748 0.00015 0.012243708910156 0.0068324173193727 0.00015
          0.011832021157187 0.0073476785459853 0.0003 0.011779780861271 0.0068646395959748 0.0003
          0.012243708910156 0.0068324173193727 0.0003 0.0084907788898463 0.00044286110481525 0
          0.0089555217282148 0.00046389179151574 0 0.0088246864415892 0.00090448805343066 0
          0.0084146790711037 0.00087434414493667 0 0.0084907788898463 0.00044286110481525 0.00015
          0.0089555217282148 0.00046389179151574 0.00015 0.0088246864415892 0.00090448805343066 0.00015
          0.0084146790711037 0.00087434414493667 0.00015 0.0084907788898463 0.00044286110481525 0.0003
          0.0089555217282148 0.00046389179151574 0.0003 0.0088246864415892 0.00090448805343066 0.0003
          0.0084146790711037 0.00087434414493667 0.0003 0.0073198391209489 0.002802975731369 0
          0.007729981097025 0.0028801564362105 0 0.0077015154526268 0.0033237594367458 0
          0.0072927827923603 0.0032114269239825 0 0.0073198391209489 0.002802975731369 0.00015
          0.007729981097025 0.0028801564362105 0.00015 0.0077015154526268 0.0033237594367458 0.00015
          0.0072927827923603 0.0032114269239825 0.00015 0.0073198391209489 0.002802975731369 0.0003
          0.007729981097025 0.0028801564362105 0.0003 0.0077015154526268 0.0033237594367458 0.0003
          0.0072927827923603 0.0032114269239825 0.0003 0.011061956134478 0.0014022262787872 0
          0.011061956134478 0.0014022262787872 0.00015 0.011061956134478 0.0014022262787872 0.0003
          0.0067262777673885 0.0043003855308917 0 0.0070184374453973 0.0044097475846897 0
          0.0069143452336461 0.0047780273607631 0 0.0067262777673885 0.0043003855308917 0.00015
          0.0070184374453973 0.0044097475846897 0.00015 0.0069143452336461 0.0047780273607631 0.00015
          0.0067262777673885 0.0043003855308917 0.0003 0.0070184374453973 0.0044097475846897 0.0003
          0.0069143452336461 0.0047780273607631 0.0003 0.0072966772765568 0.0023596996909359 0
          0.0077191611848381 0.0024307703640478 0 0.0072966772765568 0.0023596996909359 0.00015
          0.0077191611848381 0.0024307703640478 0.00015 0.0072966772765568 0.0023596996909359 0.0003
          0.0077191611848381 0.0024307703640478 0.0003 0.010569749843509 0.00092230265866691 0
          0.010578573679683 0.0013844170604281 0 0.010145320905195 0.0014335884987508 0
          0.01008894187929 0.00096115561381429 0 0.010569749843509 0.00092230265866691 0.00015
          0.010578573679683 0.0013844170604281 0.00015 0.010145320905195 0.0014335884987508 0.00015
          0.01008894187929 0.00096115561381429 0.00015 0.010569749843509 0.00092230265866691 0.0003
          0.010578573679683 0.0013844170604281 0.0003 0.010145320905195 0.0014335884987508 0.0003
          0.01008894187929 0.00096115561381429 0.0003 0.0061669869081239 0.00049673093518566 0
          0.0062913293509889 0.00097410606592609 0 0.0059245902968253 0.0010856763727913 0
          0.0057061681768373 0.00065177476244477 0 0.0061669869081239 0.00049673093518566 0.00015
          0.0062913293509889 0.00097410606592609 0.00015 0.0059245902968253 0.0010856763727913 0.00015
          0.0057061681768373 0.00065177476244477 0.00015 0.0061669869081239 0.00049673093518566 0.0003
          0.0062913293509889 0.00097410606592609 0.0003 0.0059245902968253 0.0010856763727913 0.0003
          0.0057061681768373 0.00065177476244477 0.0003 0.010613957240618 0.0022894151744625 0
          0.011031068838334 0.0023895404946521 0 0.01053554486979 0.0026566023779455 0
          0.010613957240618 0.0022894151744625 0.00015 0.011031068838334 0.0023895404946521 0.00015
          0.01053554486979 0.0026566023779455 0.00015 0.010613957240618 0.0022894151744625 0.0003
          0.011031068838334 0.0023895404946521 0.0003 0.01053554486979 0.0026566023779455 0.0003
          0.0055128205128194 0 0 0.0060256410256386 0 0
          0.0055128205128194 0 0.00015 0.0060256410256386 0 0.00015
          0.0055128205128194 0 0.0003 0.0060256410256386 0 0.0003
          0.0087932726011055 0.003543484648519 0 0.0081725565838686 0.0034418576035907 0
          0.0081844882448281 0.0029554535172717 0 0.0086653225286358 0.0029358056411338 0
          0.0087932726011055 0.003543484648519 0.00015 0.0081725565838686 0.0034418576035907 0.00015
          0.0081844882448281 0.0029554535172717 0.00015 0.0086653225286358 0.0029358056411338 0.00015
          0.0087932726011055 0.003543484648519 0.0003 0.0081725565838686 0.0034418576035907 0.0003
          0.0081844882448281 0.0029554535172717 0.0003 0.0086653225286358 0.0029358056411338 0.0003
          0.010609256891376 0.0018508518753275 0 0.011063963632424 0.0019108783312894 0
          0.010609256891376 0.0018508518753275 0.00015 0.011063963632424 0.0019108783312894 0.00015
          0.010609256891376 0.0018508518753275 0.0003 0.011063963632424 0.0019108783312894 0.0003
          0.0061614658010566 0.0029736343202522 0 0.0061372854142827 0.0036106222238676 0
          0.0061614658010566 0.0029736343202522 0.00015 0.0061372854142827 0.0036106222238676 0.00015
          0.0061614658010566 0.0029736343202522 0.0003 0.0061372854142827 0.0036106222238676 0.0003
          0.0091223832784702 0.0028108558594978 0 0.0093224708097351 0.0032450014434347 0
          0.0091223832784702 0.0028108558594978 0.00015 0.0093224708097351 0.0032450014434347 0.00015
          0.0091223832784702 0.0028108558594978 0.0003 0.0093224708097351 0.0032450014434347 0.0003
          0.010365654248251 0.0046741943492533 0 0.010130092133721 0.0048347586786618 0
          0.0098673679311407 0.0047157860708196 0 0.010078628200493 0.0044157313734999 0
          0.010365654248251 0.0046741943492533 0.00015 0.010130092133721 0.0048347586786618 0.00015
          0.0098673679311407 0.0047157860708196 0.00015 0.010078628200493 0.0044157313734999 0.00015
          0.010365654248251 0.0046741943492533 0.0003 0.010130092133721 0.0048347586786618 0.0003
          0.0098673679311407 0.0047157860708196 0.0003 0.010078628200493 0.0044157313734999 0.0003
          0.0074225055052033 0.0045889494028562 0 0.0073125071067115 0.0049521547682488 0
          0.0074225055052033 0.0045889494028562 0.00015 0.0073125071067115 0.0049521547682488 0.00015
          0.0074225055052033 0.0045889494028562 0.0003 0.0073125071067115 0.0049521547682488 0.0003
          0.0061231952422177 0.002444135475079 0 0.0061231952422177 0.002444135475079 0.00015
          0.0061231952422177 0.002444135475079 0.0003 0.007634491258567 0.0037589111207536 0
          0.0080978935956725 0.0039120786728548 0 0.007634491258567 0.0037589111207536 0.00015
          0.0080978935956725 0.0039120786728548 0.00015 0.007634491258567 0.0037589111207536 0.0003
          0.0080978935956725 0.0039120786728548 0.0003 0.0067400809843091 0.0034207975388345 0
          0.0067100713183769 0.0039836679330495 0 0.0063054236008776 0.0041223407032968 0
          0.0067400809843091 0.0034207975388345 0.00015 0.0067100713183769 0.0039836679330495 0.00015
          0.0063054236008776 0.0041223407032968 0.00015 0.0067400809843091 0.0034207975388345 0.0003
          0.0067100713183769 0.0039836679330495 0.0003 0.0063054236008776 0.0041223407032968 0.0003
          0.0064429727892239 0.0018594619814901 0 0.0065003657821779 0.0023397297588745 0
          0.0060722038988066 0.0019538017587265 0 0.0064429727892239 0.0018594619814901 0.00015
          0.0065003657821779 0.0023397297588745 0.00015 0.0060722038988066 0.0019538017587265 0.00015
          0.0064429727892239 0.0018594619814901 0.0003 0.0065003657821779 0.0023397297588745 0.0003
          0.0060722038988066 0.0019538017587265 0.0003 0.0068255396015086 0.0051581133306003 0
          0.0068255396015086 0.0051581133306003 0.00015 0.0068255396015086 0.0051581133306003 0.0003
          0.0065384615384579 0 0 0.0065384615384579 0 0.00015
          0.0065384615384579 0 0.0003 0.012879713087233 0.0060908484912964 0
          0.012982043505355 0.0056371881930815 0 0.012879713087233 0.0060908484912964 0.00015
          0.012982043505355 0.0056371881930815 0.00015 0.012879713087233 0.0060908484912964 0.0003
          0.012982043505355 0.0056371881930815 0.0003 0.0065699942646101 0.0028542668018424 0
          0.0065699942646101 0.0028542668018424 0.00015 0.0065699942646101 0.0028542668018424 0.0003
          0.0084683943974961 0.0045583446766593 0 0.0079943718437571 0.0043747262241866 0
          0.0085823759797054 0.0040943119694046 0 0.0084683943974961 0.0045583446766593 0.00015
          0.0079943718437571 0.0043747262241866 0.00015 0.0085823759797054 0.0040943119694046 0.00015
          0.0084683943974961 0.0045583446766593 0.0003 0.0079943718437571 0.0043747262241866 0.0003
          0.0085823759797054 0.0040943119694046 0.0003 0.0085830886495109 0.0024681574500846 0
          0.0090044137010858 0.0023542069269131 0 0.0085830886495109 0.0024681574500846 0.00015
          0.0090044137010858 0.0023542069269131 0.00015 0.0085830886495109 0.0024681574500846 0.0003
          0.0090044137010858 0.0023542069269131 0.0003 0.0098857235699117 0.0079055319030787 0
          0.0095144479526816 0.0076594245921199 0 0.0094715724969347 0.0073263583858313 0
          0.0099283521138692 0.0073475677072736 0 0.0098857235699117 0.0079055319030787 0.00015
          0.0095144479526816 0.0076594245921199 0.00015 0.0094715724969347 0.0073263583858313 0.00015
          0.0099283521138692 0.0073475677072736 0.00015 0.0098857235699117 0.0079055319030787 0.0003
          0.0095144479526816 0.0076594245921199 0.0003 0.0094715724969347 0.0073263583858313 0.0003
          0.0099283521138692 0.0073475677072736 0.0003 0.010833716827414 0.0069257207373803 0
          0.010357413059119 0.0069077241183533 0 0.010300982556592 0.0064274708783385 0
          0.010786080808085 0.0064391381968206 0 0.010833716827414 0.0069257207373803 0.00015
          0.010357413059119 0.0069077241183533 0.00015 0.010300982556592 0.0064274708783385 0.00015
          0.010786080808085 0.0064391381968206 0.00015 0.010833716827414 0.0069257207373803 0.0003
          0.010357413059119 0.0069077241183533 0.0003 0.010300982556592 0.0064274708783385 0.0003
          0.010786080808085 0.0064391381968206 0.0003 0.012723582323863 0.006509831652106 0
          0.012251440655851 0.0062918667587536 0 0.012542392069256 0.0059723735377719 0
          0.012723582323863 0.006509831652106 0.00015 0.012251440655851 0.0062918667587536 0.00015
          0.012542392069256 0.0059723735377719 0.00015 0.012723582323863 0.006509831652106 0.0003
          0.012251440655851 0.0062918667587536 0.0003 0.012542392069256 0.0059723735377719 0.0003
          0.0071151184692216 0.0040272738406853 0 0.0071151184692216 0.0040272738406853 0.00015
          0.0071151184692216 0.0040272738406853 0.0003 0.005927800859391 0.0043689372395662 0
          0.005927800859391 0.0043689372395662 0.00015 0.005927800859391 0.0043689372395662 0.0003
          0.0092411258002763 0.0078319639415625 0 0.0089588909882048 0.0073942383853577 0
          0.0092411258002763 0.0078319639415625 0.00015 0.0089588909882048 0.0073942383853577 0.00015
          0.0092411258002763 0.0078319639415625 0.0003 0.0089588909882048 0.0073942383853577 0.0003
          0.009874674666521 0.0068715373563056 0 0.010410157305432 0.007394545582291 0
          0.009874674666521 0.0068715373563056 0.00015 0.010410157305432 0.007394545582291 0.00015
          0.009874674666521 0.0068715373563056 0.0003 0.010410157305432 0.007394545582291 0.0003
          0.0075354000991736 0.004186248288406 0 0.0075354000991736 0.004186248288406 0.00015
          0.0075354000991736 0.004186248288406 0.0003 0.01131847387487 0.0058224977902188 0
          0.011696082283392 0.0060272916092408 0 0.011725204011411 0.0063910302275778 0
          0.011265055974573 0.0064250601080915 0 0.01131847387487 0.0058224977902188 0.00015
          0.011696082283392 0.0060272916092408 0.00015 0.011725204011411 0.0063910302275778 0.00015
          0.011265055974573 0.0064250601080915 0.00015 0.01131847387487 0.0058224977902188 0.0003
          0.011696082283392 0.0060272916092408 0.0003 0.011725204011411 0.0063910302275778 0.0003
          0.011265055974573 0.0064250601080915 0.0003 0.012000241143886 0.0058170880130831 0
          0.012000241143886 0.0058170880130831 0.00015 0.012000241143886 0.0058170880130831 0.0003
          0.011120492592586 0.0052514705902296 0 0.011120492592586 0.0052514705902296 0.00015
          0.011120492592586 0.0052514705902296 0.0003 0.0092910901193945 0.0039260363263486 0
          0.0090503465409481 0.0043132092761106 0 0.0092910901193945 0.0039260363263486 0.00015
          0.0090503465409481 0.0043132092761106 0.00015 0.0092910901193945 0.0039260363263486 0.0003
          0.0090503465409481 0.0043132092761106 0.0003 0.007889027184575 0.0048982243533992 0
          0.007889027184575 0.0048982243533992 0.00015 0.007889027184575 0.0048982243533992 0.0003
          0.0094935553236164 0.004533528646427 0 0.0097061514105808 0.0041851036755216 0
          0.0094935553236164 0.004533528646427 0.00015 0.0097061514105808 0.0041851036755216 0.00015
          0.0094935553236164 0.004533528646427 0.0003 0.0097061514105808 0.0041851036755216 0.0003
          0.007602124101561 0.0050930903063015 0 0.007602124101561 0.0050930903063015 0.00015
          0.007602124101561 0.0050930903063015 0.0003 0.010723762445737 0.0044202706845482 0
          0.010410164583979 0.0041181159817359 0 0.010723762445737 0.0044202706845482 0.00015
          0.010410164583979 0.0041181159817359 0.00015 0.010723762445737 0.0044202706845482 0.0003
          0.010410164583979 0.0041181159817359 0.0003 0.01095205032792 0.0047963590452232 0
          0.01095205032792 0.0047963590452232 0.00015 0.01095205032792 0.0047963590452232 0.0003
          0.011303178752756 0.0069106117689346 0 0.011303178752756 0.0069106117689346 0.00015
          0.011303178752756 0.0069106117689346 0.0003 0.01003253261535 0.0038623502872685 0
          0.01003253261535 0.0038623502872685 0.00015 0.01003253261535 0.0038623502872685 0.0003
          0.0076528923620256 0.0053996878686031 0 0.0072494384034052 0.005322441352826 0
          0.0076528923620256 0.0053996878686031 0.00015 0.0072494384034052 0.005322441352826 0.00015
          0.0076528923620256 0.0053996878686031 0.0003 0.0072494384034052 0.005322441352826 0.0003
          0.0096442187720765 0.0035928190702974 0 0.0096442187720765 0.0035928190702974 0.00015
          0.0096442187720765 0.0035928190702974 0.0003 0.012013949131265 0.002158444108951 0
          0.012018063243501 0.0027123142038817 0 0.012013949131265 0.002158444108951 0.00015
          0.012018063243501 0.0027123142038817 0.00015 0.012013949131265 0.002158444108951 0.0003
          0.012018063243501 0.0027123142038817 0.0003 0.0080144547016537 0.00086684480617367 0
          0.008304219624614 0.0012703006012415 0 0.0080327132462595 0.0011721512048422 0
          0.0080144547016537 0.00086684480617367 0.00015 0.008304219624614 0.0012703006012415 0.00015
          0.0080327132462595 0.0011721512048422 0.00015 0.0080144547016537 0.00086684480617367 0.0003
          0.008304219624614 0.0012703006012415 0.0003 0.0080327132462595 0.0011721512048422 0.0003
          0.0094736490244467 0.0005865877812969 0 0.010068957850501 0.00047856930843549 0
          0.0096358530086744 0.0010887425154837 0 0.0094736490244467 0.0005865877812969 0.00015
          0.010068957850501 0.00047856930843549 0.00015 0.0096358530086744 0.0010887425154837 0.00015
          0.0094736490244467 0.0005865877812969 0.0003 0.010068957850501 0.00047856930843549 0.0003
          0.0096358530086744 0.0010887425154837 0.0003 0.0071984303565192 0.0057392272964834 0
          0.0067200519522164 0.0055550541115669 0 0.0071984303565192 0.0057392272964834 0.00015
          0.0067200519522164 0.0055550541115669 0.00015 0.0071984303565192 0.0057392272964834 0.0003
          0.0067200519522164 0.0055550541115669 0.0003 0.013091675611077 0.0041736873632184 0
          0.012621380555602 0.004071395146678 0 0.012601464682814 0.0035037767307713 0
          0.013091675611077 0.0041736873632184 0.00015 0.012621380555602 0.004071395146678 0.00015
          0.012601464682814 0.0035037767307713 0.00015 0.013091675611077 0.0041736873632184 0.0003
          0.012621380555602 0.004071395146678 0.0003 0.012601464682814 0.0035037767307713 0.0003
          0.01153639784925 0.0020208067996516 0 0.011496246026306 0.0025480504488598 0
          0.01153639784925 0.0020208067996516 0.00015 0.011496246026306 0.0025480504488598 0.00015
          0.01153639784925 0.0020208067996516 0.0003 0.011496246026306 0.0025480504488598 0.0003
          0.011043213382792 0.0084269911709333 0 0.011043213382792 0.0084269911709333 0.00015
          0.011043213382792 0.0084269911709333 0.0003 0.010128205128191 0 0
          0.0096153846153732 0 0 0.010128205128191 0 0.00015
          0.0096153846153732 0 0.00015 0.010128205128191 0 0.0003
          0.0096153846153732 0 0.0003 0.0091025641025551 0 0
          0.0085897435897353 0 0 0.0091025641025551 0 0.00015
          0.0085897435897353 0 0.00015 0.0091025641025551 0 0.0003
          0.0085897435897353 0 0.0003 0.0085182476127008 0.0020437661198126 0
          0.0089029205554566 0.0019047336662455 0 0.0085182476127008 0.0020437661198126 0.00015
          0.0089029205554566 0.0019047336662455 0.00015 0.0085182476127008 0.0020437661198126 0.0003
          0.0089029205554566 0.0019047336662455 0.0003 0.0081522818828449 0.0024947087352937 0
          0.0081522818828449 0.0024947087352937 0.00015 0.0081522818828449 0.0024947087352937 0.0003
          0.010641025641009 0 0 0.010579843756946 0.00045349299099366 0
          0.010641025641009 0 0.00015 0.010579843756946 0.00045349299099366 0.00015
          0.010641025641009 0 0.0003 0.010579843756946 0.00045349299099366 0.0003
          0.011153846153828 0 0 0.011153846153828 0 0.00015
          0.011153846153828 0 0.0003 0.011760912133753 0.0054122119446059 0
          0.011760912133753 0.0054122119446059 0.00015 0.011760912133753 0.0054122119446059 0.0003
          0.011666666666648 0 0 0.011666666666648 0 0.00015
          0.011666666666648 0 0.0003 0.011547825504055 0.0049713459697514 0
          0.011547825504055 0.0049713459697514 0.00015 0.011547825504055 0.0049713459697514 0.0003
          0.011349632014182 0.0045239710214715 0 0.011349632014182 0.0045239710214715 0.00015
          0.011349632014182 0.0045239710214715 0.0003 0.011997463288521 0.00046572766410539 0
          0.012179487179468 0 0 0.011997463288521 0.00046572766410539 0.00015
          0.012179487179468 0 0.00015 0.011997463288521 0.00046572766410539 0.0003
          0.012179487179468 0 0.0003 0.01039056673058 0.0035410773695937 0
          0.010772622187787 0.0038062315725381 0 0.01039056673058 0.0035410773695937 0.00015
          0.010772622187787 0.0038062315725381 0.00015 0.01039056673058 0.0035410773695937 0.0003
          0.010772622187787 0.0038062315725381 0.0003 0.0089323359070786 0.0047421281357296 0
          0.0089323359070786 0.0047421281357296 0.00015 0.0089323359070786 0.0047421281357296 0.0003
          0.010891746765568 0.007407252260552 0 0.010891746765568 0.007407252260552 0.00015
          0.010891746765568 0.007407252260552 0.0003 0.011089383238376 0.0041358143249023 0
          0.011089383238376 0.0041358143249023 0.00015 0.011089383238376 0.0041358143249023 0.0003
          0.007205317033861 0.0036141963404016 0 0.007205317033861 0.0036141963404016 0.00015
          0.007205317033861 0.0036141963404016 0.0003 0.0080269839945158 0.0054023282425744 0
          0.0080269839945158 0.0054023282425744 0.00015 0.0080269839945158 0.0054023282425744 0.0003
          0.0077721363879251 0.0058968168784219 0 0.0077721363879251 0.0058968168784219 0.00015
          0.0077721363879251 0.0058968168784219 0.0003 0.0095370253310475 0.0025850582106885 0
          0.009732219723835 0.0029713438236062 0 0.0095370253310475 0.0025850582106885 0.00015
          0.009732219723835 0.0029713438236062 0.00015 0.0095370253310475 0.0025850582106885 0.0003
          0.009732219723835 0.0029713438236062 0.0003 0.0094100372761059 0.0021522308351028 0
          0.0094100372761059 0.0021522308351028 0.00015 0.0094100372761059 0.0021522308351028 0.0003
          0.0087313387484914 0.001424359608332 0 0.0084651319029022 0.0017289788972556 0
          0.0087313387484914 0.001424359608332 0.00015 0.0084651319029022 0.0017289788972556 0.00015
          0.0087313387484914 0.001424359608332 0.0003 0.0084651319029022 0.0017289788972556 0.0003
          0.011363196701121 0.0073867521895413 0 0.011894488312007 0.0078344841271679 0
          0.011431801070778 0.0078815011129823 0 0.011363196701121 0.0073867521895413 0.00015
          0.011894488312007 0.0078344841271679 0.00015 0.011431801070778 0.0078815011129823 0.00015
          0.011363196701121 0.0073867521895413 0.0003 0.011894488312007 0.0078344841271679 0.0003
          0.011431801070778 0.0078815011129823 0.0003 0.011511795106494 0.0083968566041475 0
          0.011511795106494 0.0083968566041475 0.00015 0.011511795106494 0.0083968566041475 0.0003
          0.0093066157528448 0.0017085494075796 0 0.0093066157528448 0.0017085494075796 0.00015
          0.0093066157528448 0.0017085494075796 0.0003 0.011737204813157 0.0042624504192267 0
          0.011920232844873 0.0047153506313134 0 0.011737204813157 0.0042624504192267 0.00015
          0.011920232844873 0.0047153506313134 0.00015 0.011737204813157 0.0042624504192267 0.0003
          0.011920232844873 0.0047153506313134 0.0003 0.0097199155871303 0.0015315099671301 0
          0.0098040259351994 0.0019696894002764 0 0.0097199155871303 0.0015315099671301 0.00015
          0.0098040259351994 0.0019696894002764 0.00015 0.0097199155871303 0.0015315099671301 0.0003
          0.0098040259351994 0.0019696894002764 0.0003 0.0099068743951204 0.0023814903757239 0
          0.0099068743951204 0.0023814903757239 0.00015 0.0099068743951204 0.0023814903757239 0.0003
          0.010196799496301 0.0018655242590307 0 0.010252080701677 0.0022738797315184 0
          0.010196799496301 0.0018655242590307 0.00015 0.010252080701677 0.0022738797315184 0.00015
          0.010196799496301 0.0018655242590307 0.0003 0.010252080701677 0.0022738797315184 0.0003
          0.0082479601882269 0.0062087007836213 0 0.0083721174281176 0.0058457654542534 0
          0.0087793359412623 0.006030240425184 0 0.0086690881028679 0.0063945203238097 0
          0.0082479601882269 0.0062087007836213 0.00015 0.0083721174281176 0.0058457654542534 0.00015
          0.0087793359412623 0.006030240425184 0.00015 0.0086690881028679 0.0063945203238097 0.00015
          0.0082479601882269 0.0062087007836213 0.0003 0.0083721174281176 0.0058457654542534 0.0003
          0.0087793359412623 0.006030240425184 0.0003 0.0086690881028679 0.0063945203238097 0.0003
          0.0098103305116681 0.0063862496116293 0 0.0098103305116681 0.0063862496116293 0.00015
          0.0098103305116681 0.0063862496116293 0.0003 0.0084248193747317 0.0050261658136402 0
          0.0084248193747317 0.0050261658136402 0.00015 0.0084248193747317 0.0050261658136402 0.0003
          0.0069463016830039 0.0027787422025108 0 0.0070048409545821 0.0031125297586922 0
          0.0069463016830039 0.0027787422025108 0.00015 0.0070048409545821 0.0031125297586922 0.00015
          0.0069463016830039 0.0027787422025108 0.0003 0.0070048409545821 0.0031125297586922 0.0003
          0.010028456835002 0.0032748409090605 0 0.010028456835002 0.0032748409090605 0.00015
          0.010028456835002 0.0032748409090605 0.0003 0.013084530633285 0.0046685927017207 0
          0.012657407202949 0.0045740785705039 0 0.013084530633285 0.0046685927017207 0.00015
          0.012657407202949 0.0045740785705039 0.00015 0.013084530633285 0.0046685927017207 0.0003
          0.012657407202949 0.0045740785705039 0.0003 0.0063788755008874 0.0014091508241809 0
          0.0060137569775388 0.0015029488511318 0 0.0063788755008874 0.0014091508241809 0.00015
          0.0060137569775388 0.0015029488511318 0.00015 0.0063788755008874 0.0014091508241809 0.0003
          0.0060137569775388 0.0015029488511318 0.0003 0.01196380743939 0.0083394019710021 0
          0.01196380743939 0.0083394019710021 0.00015 0.01196380743939 0.0083394019710021 0.0003
          0.010073855840534 0.0027196155419985 0 0.010289681297386 0.0025561678844121 0
          0.010073855840534 0.0027196155419985 0.00015 0.010289681297386 0.0025561678844121 0.00015
          0.010073855840534 0.0027196155419985 0.0003 0.010289681297386 0.0025561678844121 0.0003
          0.0093223919318803 0.0053434698815888 0 0.009764317340127 0.0054658727348424 0
          0.0097769212248058 0.0059119658621614 0 0.0093027527337708 0.0057939169389015 0
          0.0093223919318803 0.0053434698815888 0.00015 0.009764317340127 0.0054658727348424 0.00015
          0.0097769212248058 0.0059119658621614 0.00015 0.0093027527337708 0.0057939169389015 0.00015
          0.0093223919318803 0.0053434698815888 0.0003 0.009764317340127 0.0054658727348424 0.0003
          0.0097769212248058 0.0059119658621614 0.0003 0.0093027527337708 0.0057939169389015 0.0003
          0.0068882925124701 0.0023177669638962 0 0.0068882925124701 0.0023177669638962 0.00015
          0.0068882925124701 0.0023177669638962 0.0003 0.0092499592325966 0.0063238181416562 0
          0.0089620052424248 0.0065330227489775 0 0.0092499592325966 0.0063238181416562 0.00015
          0.0089620052424248 0.0065330227489775 0.00015 0.0092499592325966 0.0063238181416562 0.0003
          0.0089620052424248 0.0065330227489775 0.0003 0.0072168253422346 0.001397514094839 0
          0.0076041066380058 0.00089936619415626 0 0.0072168253422346 0.001397514094839 0.00015
          0.0076041066380058 0.00089936619415626 0.00015 0.0072168253422346 0.001397514094839 0.0003
          0.0076041066380058 0.00089936619415626 0.0003 0.0075718226613923 0.00044755222139025 0
          0.0075718226613923 0.00044755222139025 0.00015 0.0075718226613923 0.00044755222139025 0.0003
          0.012116660000204 0.0051206445675074 0 0.012116660000204 0.0051206445675074 0.00015
          0.012116660000204 0.0051206445675074 0.0003 0.0068338524094732 0.0018398489073113 0
          0.0068338524094732 0.0018398489073113 0.00015 0.0068338524094732 0.0018398489073113 0.0003
          0.0088473960481577 0.0056214227923259 0 0.0088473960481577 0.0056214227923259 0.00015
          0.0088473960481577 0.0056214227923259 0.0003 0.0081402125110085 0.0066115625704341 0
          0.0081402125110085 0.0066115625704341 0.00015 0.0081402125110085 0.0066115625704341 0.0003
          0.0067824993802385 0.0013824026215467 0 0.0072591856110724 0.0018865642034293 0
          0.0067824993802385 0.0013824026215467 0.00015 0.0072591856110724 0.0018865642034293 0.00015
          0.0067824993802385 0.0013824026215467 0.0003 0.0072591856110724 0.0018865642034293 0.0003
          0.0094035295411974 0.0068662830960629 0 0.0094035295411974 0.0068662830960629 0.00015
          0.0094035295411974 0.0068662830960629 0.0003 0.0080770297303238 0.0057078658228848 0
          0.0080770297303238 0.0057078658228848 0.00015 0.0080770297303238 0.0057078658228848 0.0003
          0.012455160230445 0.0055307966461266 0 0.012455160230445 0.0055307966461266 0.00015
          0.012455160230445 0.0055307966461266 0.0003 0.0092134396095011 0.0012639463069257 0
          0.0092134396095011 0.0012639463069257 0.00015 0.0092134396095011 0.0012639463069257 0.0003
          0.0085681017610313 0.0067725899286886 0 0.0085681017610313 0.0067725899286886 0.00015
          0.0085681017610313 0.0067725899286886 0.0003 0.010337781301114 0.0029713007827362 0
          0.010337781301114 0.0029713007827362 0.00015 0.010337781301114 0.0029713007827362 0.0003
          0.0080769230769162 0 0 0.0080362994401078 0.00044130282391618 0
          0.0075641025640979 0 0 0.0080769230769162 0 0.00015
          0.0080362994401078 0.00044130282391618 0.00015 0.0075641025640979 0 0.00015
          0.0080769230769162 0 0.0003 0.0080362994401078 0.00044130282391618 0.0003
          0.0075641025640979 0 0.0003 0.0084157309119158 0.0054663429893237 0
          0.0084157309119158 0.0054663429893237 0.00015 0.0084157309119158 0.0054663429893237 0.0003
          0.012625060394875 0.0050215313919928 0 0.012340535819996 0.0049145470001145 0
          0.012625060394875 0.0050215313919928 0.00015 0.012340535819996 0.0049145470001145 0.00015
          0.012625060394875 0.0050215313919928 0.0003 0.012340535819996 0.0049145470001145 0.0003
          0.0088807280393962 0.0051824777758032 0 0.0088807280393962 0.0051824777758032 0.00015
          0.0088807280393962 0.0051824777758032 0.0003 0.00978640191627 0.0050564284414982 0
          0.00978640191627 0.0050564284414982 0.00015 0.00978640191627 0.0050564284414982 0.0003
          0.007051282051278 0 0 0.007051282051278 0 0.00015
          0.007051282051278 0 0.0003 0.0089738769927721 0.0068608682916542 0
          0.0089738769927721 0.0068608682916542 0.00015 0.0089738769927721 0.0068608682916542 0.0003
          0.010464396561549 0.007914442793445 0 0.010959162019398 0.0079079830093058 0
          0.010464396561549 0.007914442793445 0.00015 0.010959162019398 0.0079079830093058 0.00015
          0.010464396561549 0.007914442793445 0.0003 0.010959162019398 0.0079079830093058 0.0003
          0.0093768424757788 0.0049206652486621 0 0.0093768424757788 0.0049206652486621 0.00015
          0.0093768424757788 0.0049206652486621 0.0003 0.0084364690699339 0.0071912877673881 0
          0.0084364690699339 0.0071912877673881 0.00015 0.0084364690699339 0.0071912877673881 0.0003
          0.011870414872976 0.00080294526771027 0 0.011870414872976 0.00080294526771027 0.00015
          0.011870414872976 0.00080294526771027 0.0003 0.013048655853798 0.0051555709380823 0
          0.013048655853798 0.0051555709380823 0.00015 0.013048655853798 0.0051555709380823 0.0003
          0.0091480378790118 0.00093783666102615 0 0.0091480378790118 0.00093783666102615 0.00015
          0.0091480378790118 0.00093783666102615 0.0003 0.012592651705639 0.0068198098450163 0
          0.012592651705639 0.0068198098450163 0.00015 0.012592651705639 0.0068198098450163 0.0003
          0.012272070002081 0.0045810549534562 0 0.012153081904124 0.0040944528080542 0
          0.012272070002081 0.0045810549534562 0.00015 0.012153081904124 0.0040944528080542 0.00015
          0.012272070002081 0.0045810549534562 0.0003 0.012153081904124 0.0040944528080542 0.0003
          0.011634800364854 0.0014122839921498 0 0.011634800364854 0.0014122839921498 0.00015
          0.011634800364854 0.0014122839921498 0.0003 0.012451479243686 0.0021914486022899 0
          0.012674188674928 0.0028095410694266 0 0.012451479243686 0.0021914486022899 0.00015
          0.012674188674928 0.0028095410694266 0.00015 0.012451479243686 0.0021914486022899 0.0003
          0.012674188674928 0.0028095410694266 0.0003 0.013121586466294 0.0036708577033715 0
          0.013121586466294 0.0036708577033715 0.00015 0.013121586466294 0.0036708577033715 0.0003
          0.013248150362312 0.0031919567697963 0 0.013248150362312 0.0031919567697963 0.00015
          0.013248150362312 0.0031919567697963 0.0003 0.012096711335481 0.0017058387426491 0
          0.012096711335481 0.0017058387426491 0.00015 0.012096711335481 0.0017058387426491 0.0003
          0.012692307692288 0 0 0.012542896420733 0.00061304595643839 0
          0.012692307692288 0 0.00015 0.012542896420733 0.00061304595643839 0.00015
          0.012692307692288 0 0.0003 0.012542896420733 0.00061304595643839 0.0003
          0.012384518900215 0.0018567382086698 0 0.012384518900215 0.0018567382086698 0.00015
          0.012384518900215 0.0018567382086698 0.0003 0.012087580163866 0.0010424427844857 0
          0.012087580163866 0.0010424427844857 0.00015 0.012087580163866 0.0010424427844857 0.0003
          <InformationKey name="L2_NORM_RANGE" location="vtkDataArray" length="2">
            <Value index="0">
              0.0055128205128
            </Value>
            <Value index="1">
              0.014586579917
            </Value>
          </InformationKey>
        </DataArray>
      </Points>
      <Cells>
        <DataArray type="Int64" Name="connectivity" format="ascii" RangeMin="0" RangeMax="773">
          0 1 2 3 4 5
          6 7 4 5 6 7
          8 9 10 11 12 13
          14 15 16 17 18 19
          16 17 18 19 20 21
          22 23 30 31 32 33
          34 35 36 37 34 35
          36 37 38 39 40 41
          15 14 42 43 19 18
          44 45 19 18 44 45
          23 22 46 47 48 49
          50 51 52 53 54 55
          52 53 54 55 56 57
          58 59 60 61 62 63
          64 65 66 67 64 65
          66 67 68 69 70 71
          3 72 73 0 7 74
          75 4 7 74 75 4
          11 76 77 8 78 79
          80 81 82 83 84 85
          82 83 84 85 86 87
          88 89 99 100 101 102
          103 104 105 106 103 104
          105 106 107 108 109 110
          111 112 113 114 115 116
          117 118 115 116 117 118
          119 120 121 122 744 123
          30 33 745 124 34 37
          745 124 34 37 746 125
          38 41 48 126 127 128
          52 129 130 131 52 129
          130 131 56 132 133 134
          135 136 112 111 137 138
          116 115 137 138 116 115
          139 140 120 119 141 142
          143 144 145 146 147 148
          145 146 147 148 149 150
          151 152 153 154 155 156
          157 158 159 160 157 158
          159 160 161 162 163 164
          165 166 43 167 168 169
          45 170 168 169 45 170
          171 172 47 173 174 175
          153 156 176 177 157 160
          176 177 157 160 178 179
          161 164 180 181 182 183
          184 185 186 187 184 185
          186 187 188 189 190 191
          166 165 192 193 169 168
          194 195 169 168 194 195
          172 171 196 197 112 182
          181 113 116 186 185 117
          116 186 185 117 120 190
          189 121 204 205 180 183
          206 207 184 187 206 207
          184 187 208 209 188 191
          210 211 212 213 214 215
          216 217 214 215 216 217
          218 219 220 221 222 223
          128 127 224 225 131 130
          224 225 131 130 226 227
          134 133 154 153 79 78
          158 157 83 82 158 157
          83 82 162 161 87 86
          231 113 181 232 233 117
          185 234 233 117 185 234
          235 121 189 236 237 238
          239 199 240 241 242 201
          240 241 242 201 243 244
          245 203 246 247 228 248
          249 250 229 251 249 250
          229 251 252 253 230 254
          255 49 48 128 256 53
          52 131 256 53 52 131
          257 57 56 134 175 258
          79 153 177 259 83 157
          177 259 83 157 179 260
          87 161 267 237 199 198
          268 240 201 200 268 240
          201 200 269 243 203 202
          270 271 232 272 273 274
          234 275 273 274 234 275
          276 277 236 278 267 198
          228 247 268 200 229 250
          268 200 229 250 269 202
          230 253 183 279 280 204
          187 281 282 206 187 281
          282 206 191 283 284 208
          285 286 287 288 289 290
          291 292 289 290 291 292
          293 294 295 296 297 298
          299 300 301 302 303 304
          301 302 303 304 305 306
          307 308 261 309 310 311
          263 312 313 314 263 312
          313 314 265 315 316 317
          238 318 127 126 241 319
          130 129 241 319 130 129
          244 320 133 132 324 325
          287 286 326 327 291 290
          326 327 291 290 328 329
          295 294 330 298 331 288
          332 302 333 292 332 302
          333 292 334 306 335 296
          318 336 222 127 319 337
          224 130 319 337 224 130
          320 338 226 133 339 340
          341 342 343 344 345 346
          343 344 345 346 347 348
          349 350 300 1 339 342
          304 5 343 346 304 5
          343 346 308 9 347 350
          351 310 341 340 352 313
          345 344 352 313 345 344
          353 316 349 348 354 339
          1 0 355 343 5 4
          355 343 5 4 356 347
          9 8 357 358 272 180
          359 360 275 184 359 360
          275 184 361 362 278 188
          48 239 238 126 52 242
          241 129 52 242 241 129
          56 245 244 132 336 271
          363 222 337 274 364 224
          337 274 364 224 338 277
          365 226 51 321 239 48
          55 322 242 52 55 322
          242 52 59 323 245 56
          366 367 213 212 368 369
          217 216 368 369 217 216
          370 371 221 220 223 222
          363 372 225 224 364 373
          225 224 364 373 227 226
          365 374 375 210 213 376
          377 214 217 378 377 214
          217 378 379 218 221 380
          375 381 73 210 377 382
          75 214 377 382 75 214
          379 383 77 218 381 354
          0 73 382 355 4 75
          382 355 4 75 383 356
          8 77 297 300 342 384
          301 304 346 385 301 304
          346 385 305 308 350 386
          376 213 367 387 378 217
          369 388 378 217 369 388
          380 221 371 389 223 372
          390 391 225 373 392 393
          225 373 392 393 227 374
          394 395 396 357 180 205
          397 359 184 207 397 359
          184 207 398 361 188 209
          387 367 357 396 388 369
          359 397 388 369 359 397
          389 371 361 398 399 747
          748 400 401 749 750 402
          401 749 750 402 403 751
          752 404 405 102 406 407
          408 106 409 410 408 106
          409 410 411 110 412 413
          180 272 232 181 184 275
          234 185 184 275 234 185
          188 278 236 189 414 415
          144 416 417 418 148 419
          417 418 148 419 420 421
          152 422 423 424 255 391
          425 426 256 393 425 426
          256 393 427 428 257 395
          429 430 431 753 432 433
          434 754 432 433 434 754
          435 436 437 755 438 399
          400 439 440 401 402 441
          440 401 402 441 442 403
          404 443 447 415 414 448
          449 418 417 450 449 418
          417 450 451 421 420 452
          453 100 99 454 455 104
          103 456 455 104 103 456
          457 108 107 458 279 459
          460 280 281 461 462 282
          281 461 462 282 283 463
          464 284 279 465 62 459
          281 466 66 461 281 466
          66 461 283 467 70 463
          448 414 100 453 450 417
          104 455 450 417 104 455
          452 420 108 457 468 469
          415 447 470 471 418 449
          470 471 418 449 472 473
          421 451 753 431 748 756
          754 434 750 757 754 434
          750 757 755 437 752 758
          400 748 431 12 402 750
          434 16 402 750 434 16
          404 752 437 20 474 31
          469 468 475 35 471 470
          475 35 471 470 476 39
          473 472 399 438 744 759
          401 440 745 760 401 440
          745 760 403 442 746 761
          339 477 351 340 343 478
          352 344 343 478 352 344
          347 479 353 348 367 366
          358 357 369 368 360 359
          369 368 360 359 371 370
          362 361 480 32 31 474
          481 36 35 475 481 36
          35 475 482 40 39 476
          483 477 339 354 484 478
          343 355 484 478 343 355
          485 479 347 356 486 483
          354 381 487 484 355 382
          487 484 355 382 488 485
          356 383 183 182 465 279
          187 186 466 281 187 186
          466 281 191 190 467 283
          762 763 489 490 764 765
          491 492 764 765 491 492
          766 767 493 494 490 489
          32 480 492 491 36 481
          492 491 36 481 494 493
          40 482 387 495 496 376
          388 497 498 378 388 497
          498 378 389 499 500 380
          501 270 272 358 502 273
          275 360 502 273 275 360
          503 276 278 362 504 331
          298 297 505 333 302 301
          505 333 302 301 506 335
          306 305 507 486 381 375
          508 487 382 377 508 487
          382 377 509 488 383 379
          318 238 237 510 319 241
          240 511 319 241 240 511
          320 244 243 512 50 49
          255 424 54 53 256 426
          54 53 256 426 58 57
          257 428 363 513 390 372
          364 514 392 373 364 514
          392 373 365 515 394 374
          516 423 391 390 517 425
          393 392 517 425 393 392
          518 427 395 394 519 520
          205 204 521 522 207 206
          521 522 207 206 523 524
          209 208 525 519 204 280
          526 521 206 282 526 521
          206 282 527 523 208 284
          528 460 459 529 530 462
          461 531 530 462 461 531
          532 464 463 533 534 90
          535 536 537 93 538 539
          537 93 538 539 540 96
          541 542 546 525 280 460
          547 526 282 462 547 526
          282 462 548 527 284 464
          759 768 747 399 760 769
          749 401 760 769 749 401
          761 770 751 403 507 375
          376 496 508 377 378 498
          508 377 378 498 509 379
          380 500 483 486 549 550
          484 487 551 552 484 487
          551 552 485 488 553 554
          231 232 271 336 233 234
          274 337 233 234 274 337
          235 236 277 338 391 255
          128 223 393 256 131 225
          393 256 131 225 395 257
          134 227 525 546 555 556
          526 547 557 558 526 547
          557 558 527 548 559 560
          519 525 556 561 521 526
          558 562 521 526 558 562
          523 527 560 563 561 556
          564 565 562 558 566 567
          562 558 566 567 563 560
          568 569 570 571 572 573
          574 575 576 577 574 575
          576 577 578 579 580 581
          2 1 300 299 6 5
          304 303 6 5 304 303
          10 9 308 307 582 299
          298 330 583 303 302 332
          583 303 302 332 584 307
          306 334 585 363 271 270
          586 364 274 273 586 364
          274 273 587 365 277 276
          555 416 144 143 557 419
          148 147 557 419 148 147
          559 422 152 151 588 589
          237 267 590 591 240 268
          590 591 240 268 592 593
          243 269 396 594 495 387
          397 595 497 388 397 595
          497 388 398 596 499 389
          594 396 205 520 595 397
          207 522 595 397 207 522
          596 398 209 524 597 598
          430 429 599 600 433 432
          599 600 433 432 601 602
          436 435 603 246 248 604
          605 249 251 606 605 249
          251 606 607 252 254 608
          72 211 210 73 74 215
          214 75 74 215 214 75
          76 219 218 77 536 535
          609 543 539 538 610 544
          539 538 610 544 542 541
          611 545 612 561 565 613
          614 562 567 615 614 562
          567 615 616 563 569 617
          618 619 620 621 622 623
          624 625 622 623 624 625
          626 627 628 629 630 588
          267 247 631 590 268 250
          631 590 268 250 632 592
          269 253 633 634 573 572
          635 636 577 576 635 636
          577 576 637 638 581 580
          60 639 81 640 64 641
          85 642 64 641 85 642
          68 643 89 644 561 612
          520 519 562 614 522 521
          562 614 522 521 563 616
          524 523 510 231 336 318
          511 233 337 319 511 233
          337 319 512 235 338 320
          640 81 80 645 642 85
          84 646 642 85 84 646
          644 89 88 647 550 648
          477 483 552 649 478 484
          552 649 478 484 554 650
          479 485 630 247 246 651
          631 250 249 652 631 250
          249 652 632 253 252 653
          633 572 654 621 635 576
          655 625 635 576 655 625
          637 580 656 629 15 43
          166 439 19 45 169 441
          19 45 169 441 23 47
          172 443 660 639 661 651
          662 641 663 652 662 641
          663 652 664 643 665 653
          666 330 288 287 667 332
          292 291 667 332 292 291
          668 334 296 295 603 660
          651 246 605 662 652 249
          605 662 652 249 607 664
          653 252 571 570 516 669
          575 574 517 670 575 574
          517 670 579 578 518 671
          672 262 261 311 673 264
          263 314 673 264 263 314
          674 266 265 317 416 555
          546 675 419 557 547 676
          419 557 547 676 422 559
          548 677 570 573 678 657
          574 577 679 658 574 577
          679 658 578 581 680 659
          495 42 14 496 497 44
          18 498 497 44 18 498
          499 46 22 500 61 529
          459 62 65 531 461 66
          65 531 461 66 69 533
          463 70 13 507 496 14
          17 508 498 18 17 508
          498 18 21 509 500 22
          114 510 237 589 118 511
          240 591 118 511 240 591
          122 512 243 593 513 669
          516 390 514 670 517 392
          514 670 517 392 515 671
          518 394 594 681 42 495
          595 682 44 497 595 682
          44 497 596 683 46 499
          114 589 588 111 118 591
          590 115 118 591 590 115
          122 593 592 119 510 114
          113 231 511 118 117 233
          511 118 117 233 512 122
          121 235 681 594 520 612
          682 595 522 614 682 595
          522 614 683 596 524 616
          684 685 645 686 687 688
          646 689 687 688 646 689
          690 691 647 692 693 654
          572 571 694 655 576 575
          694 655 576 575 695 656
          580 579 675 546 460 528
          676 547 462 530 676 547
          462 530 677 548 464 532
          439 400 12 15 441 402
          16 19 441 402 16 19
          443 404 20 23 696 672
          648 697 698 673 649 699
          698 673 649 699 700 674
          650 701 702 618 621 654
          703 622 625 655 703 622
          625 655 704 626 629 656
          72 705 212 211 74 706
          216 215 74 706 216 215
          76 707 220 219 182 112
          136 465 186 116 138 466
          186 116 138 466 190 120
          140 467 708 686 645 80
          709 689 646 84 709 689
          646 84 710 692 647 88
          91 341 310 92 94 345
          313 95 94 345 313 95
          97 349 316 98 135 630
          651 661 137 631 652 663
          137 631 652 663 139 632
          653 665 666 287 325 711
          667 291 327 712 667 291
          327 712 668 295 329 713
          444 25 714 715 445 27
          716 717 445 27 716 717
          446 29 718 719 705 720
          366 212 706 721 368 216
          706 721 368 216 707 722
          370 220 331 504 715 714
          333 505 717 716 333 505
          717 716 335 506 719 718
          13 549 486 507 17 551
          487 508 17 551 487 508
          21 553 488 509 571 669
          513 693 575 670 514 694
          575 670 514 694 579 671
          515 695 102 405 685 99
          106 408 688 103 106 408
          688 103 110 411 691 107
          672 351 477 648 673 352
          478 649 673 352 478 649
          674 353 479 650 693 513
          363 585 694 514 364 586
          694 514 364 586 695 515
          365 587 285 714 25 24
          289 716 27 26 289 716
          27 26 293 718 29 28
          143 142 192 564 147 146
          194 566 147 146 194 566
          151 150 196 568 726 489
          763 771 727 491 765 772
          727 491 765 772 728 493
          767 773 534 536 715 504
          537 539 717 505 537 539
          717 505 540 542 719 506
          165 565 564 192 168 567
          566 194 168 567 566 194
          171 569 568 196 78 81
          639 660 82 85 641 662
          82 85 641 662 86 89
          643 664 136 135 661 63
          138 137 663 67 138 137
          663 67 140 139 665 71
          729 262 672 696 730 264
          673 698 730 264 673 698
          731 266 674 700 630 135
          111 588 631 137 115 590
          631 137 115 590 632 139
          119 592 702 585 270 501
          703 586 273 502 703 586
          273 502 704 587 276 503
          585 702 654 693 586 703
          655 694 586 703 655 694
          587 704 656 695 61 406
          528 529 65 409 530 531
          65 409 530 531 69 412
          532 533 414 732 101 100
          417 733 105 104 417 733
          105 104 420 734 109 108
          63 62 465 136 67 66
          466 138 67 66 466 138
          71 70 467 140 501 720
          618 702 502 721 622 703
          502 721 622 703 503 722
          626 704 720 501 358 366
          721 502 360 368 721 502
          360 368 722 503 362 370
          685 684 454 99 688 687
          456 103 688 687 456 103
          691 690 458 107 685 405
          640 645 688 408 642 646
          688 408 642 646 691 411
          644 647 30 141 469 31
          34 145 471 35 34 145
          471 35 38 149 473 39
          598 738 739 430 600 740
          741 433 600 740 741 433
          602 742 743 436 43 42
          681 167 45 44 682 170
          45 44 682 170 47 46
          683 173 678 711 325 723
          679 712 327 724 679 712
          327 724 680 713 329 725
          619 618 720 705 623 622
          721 706 623 622 721 706
          627 626 722 707 102 101
          528 406 106 105 530 409
          106 105 530 409 110 109
          532 412 549 13 12 739
          551 17 16 741 551 17
          16 741 553 21 20 743
          711 678 573 634 712 679
          577 636 712 679 577 636
          713 680 581 638 80 79
          258 708 84 83 259 709
          84 83 259 709 88 87
          260 710 738 598 696 697
          740 600 698 699 740 600
          698 699 742 602 700 701
          714 285 288 331 716 289
          292 333 716 289 292 333
          718 293 296 335 672 311
          310 351 673 314 313 352
          673 314 313 352 674 317
          316 353 430 739 12 431
          433 741 16 434 433 741
          16 434 436 743 20 437
          193 438 439 166 195 440
          441 169 195 440 441 169
          197 442 443 172 489 726
          33 32 491 727 37 36
          491 727 37 36 493 728
          41 40 444 715 536 543
          445 717 539 544 445 717
          539 544 446 719 542 545
          3 619 705 72 7 623
          706 74 7 623 706 74
          11 627 707 76 633 666
          711 634 635 667 712 636
          635 667 712 636 637 668
          713 638 384 534 504 297
          385 537 505 301 385 537
          505 301 386 540 506 305
          726 771 744 33 727 772
          745 37 727 772 745 37
          728 773 746 41 167 613
          565 165 170 615 567 168
          170 615 567 168 173 617
          569 171 675 732 414 416
          676 733 417 419 676 733
          417 419 677 734 420 422
          550 549 739 738 552 551
          741 740 552 551 741 740
          554 553 743 742 732 675
          528 101 733 676 530 105
          733 676 530 105 734 677
          532 109 63 661 639 60
          67 663 641 64 67 663
          641 64 71 665 643 68
          384 91 90 534 385 94
          93 537 385 94 93 537
          386 97 96 540 123 744
          438 193 124 745 440 195
          124 745 440 195 125 746
          442 197 406 61 60 407
          409 65 64 410 409 65
          64 410 412 69 68 413
          154 78 660 603 158 82
          662 605 158 82 662 605
          162 86 664 607 91 384
          342 341 94 385 346 345
          94 385 346 345 97 386
          350 349 405 407 60 640
          408 410 64 642 408 410
          64 642 411 413 68 644
          648 550 738 697 649 552
          740 699 649 552 740 699
          650 554 742 701 735 92
          310 309 736 95 313 312
          736 95 313 312 737 98
          316 315 633 582 330 666
          635 583 332 667 635 583
          332 667 637 584 334 668
          167 681 612 613 170 682
          614 615 170 682 614 615
          173 683 616 617 620 2
          299 582 624 6 303 583
          624 6 303 583 628 10
          307 584 582 633 621 620
          583 635 625 624 583 635
          625 624 584 637 629 628
          141 144 415 469 145 148
          418 471 145 148 418 471
          149 152 421 473 143 564
          556 555 147 566 558 557
          147 566 558 557 151 568
          560 559 2 620 619 3
          6 624 623 7 6 624
          623 7 10 628 627 11
          729 696 598 597 730 698
          600 599 730 698 600 599
          731 700 602 601 141 30
          123 142 145 34 124 146
          145 34 124 146 149 38
          125 150 154 603 604 155
          158 605 606 159 158 605
          606 159 162 607 608 163
          193 192 142 123 195 194
          146 124 195 194 146 124
          197 196 150 125
        </DataArray>
        <DataArray type="Int64" Name="offsets" format="ascii" RangeMin="8" RangeMax="3616">
          8 16 24 32 40 48
          56 64 72 80 88 96
          104 112 120 128 136 144
          152 160 168 176 184 192
          200 208 216 224 232 240
          248 256 264 272 280 288
          296 304 312 320 328 336
          344 352 360 368 376 384
          392 400 408 416 424 432
          440 448 456 464 472 480
          488 496 504 512 520 528
          536 544 552 560 568 576
          584 592 600 608 616 624
          632 640 648 656 664 672
          680 688 696 704 712 720
          728 736 744 752 760 768
          776 784 792 800 808 816
          824 832 840 848 856 864
          872 880 888 896 904 912
          920 928 936 944 952 960
          968 976 984 992 1000 1008
          1016 1024 1032 1040 1048 1056
          1064 1072 1080 1088 1096 1104
          1112 1120 1128 1136 1144 1152
          1160 1168 1176 1184 1192 1200
          1208 1216 1224 1232 1240 1248
          1256 1264 1272 1280 1288 1296
          1304 1312 1320 1328 1336 1344
          1352 1360 1368 1376 1384 1392
          1400 1408 1416 1424 1432 1440
          1448 1456 1464 1472 1480 1488
          1496 1504 1512 1520 1528 1536
          1544 1552 1560 1568 1576 1584
          1592 1600 1608 1616 1624 1632
          1640 1648 1656 1664 1672 1680
          1688 1696 1704 1712 1720 1728
          1736 1744 1752 1760 1768 1776
          1784 1792 1800 1808 1816 1824
          1832 1840 1848 1856 1864 1872
          1880 1888 1896 1904 1912 1920
          1928 1936 1944 1952 1960 1968
          1976 1984 1992 2000 2008 2016
          2024 2032 2040 2048 2056 2064
          2072 2080 2088 2096 2104 2112
          2120 2128 2136 2144 2152 2160
          2168 2176 2184 2192 2200 2208
          2216 2224 2232 2240 2248 2256
          2264 2272 2280 2288 2296 2304
          2312 2320 2328 2336 2344 2352
          2360 2368 2376 2384 2392 2400
          2408 2416 2424 2432 2440 2448
          2456 2464 2472 2480 2488 2496
          2504 2512 2520 2528 2536 2544
          2552 2560 2568 2576 2584 2592
          2600 2608 2616 2624 2632 2640
          2648 2656 2664 2672 2680 2688
          2696 2704 2712 2720 2728 2736
          2744 2752 2760 2768 2776 2784
          2792 2800 2808 2816 2824 2832
          2840 2848 2856 2864 2872 2880
          2888 2896 2904 2912 2920 2928
          2936 2944 2952 2960 2968 2976
          2984 2992 3000 3008 3016 3024
          3032 3040 3048 3056 3064 3072
          3080 3088 3096 3104 3112 3120
          3128 3136 3144 3152 3160 3168
          3176 3184 3192 3200 3208 3216
          3224 3232 3240 3248 3256 3264
          3272 3280 3288 3296 3304 3312
          3320 3328 3336 3344 3352 3360
          3368 3376 3384 3392 3400 3408
          3416 3424 3432 3440 3448 3456
          3464 3472 3480 3488 3496 3504
          3512 3520 3528 3536 3544 3552
          3560 3568 3576 3584 3592 3600
          3608 3616
        </DataArray>
        <DataArray type="UInt8" Name="types" format="ascii" RangeMin="12" RangeMax="12">
          12 12 12 12 12 12
          12 12 12 12 12 12
          12 12 12 12 12 12
          12 12 12 12 12 12
          12 12 12 12 12 12
          12 12 12 12 12 12
          12 12 12 12 12 12
          12 12 12 12 12 12
          12 12 12 12 12 12
          12 12 12 12 12 12
          12 12 12 12 12 12
          12 12 12 12 12 12
          12 12 12 12 12 12
          12 12 12 12 12 12
          12 12 12 12 12 12
          12 12 12 12 12 12
          12 12 12 12 12 12
          12 12 12 12 12 12
          12 12 12 12 12 12
          12 12 12 12 12 12
          12 12 12 12 12 12
          12 12 12 12 12 12
          12 12 12 12 12 12
          12 12 12 12 12 12
          12 12 12 12 12 12
          12 12 12 12 12 12
          12 12 12 12 12 12
          12 12 12 12 12 12
          12 12 12 12 12 12
          12 12 12 12 12 12
          12 12 12 12 12 12
          12 12 12 12 12 12
          12 12 12 12 12 12
          12 12 12 12 12 12
          12 12 12 12 12 12
          12 12 12 12 12 12
          12 12 12 12 12 12
          12 12 12 12 12 12
          12 12 12 12 12 12
          12 12 12 12 12 12
          12 12 12 12 12 12
          12 12 12 12 12 12
          12 12 12 12 12 12
          12 12 12 12 12 12
          12 12 12 12 12 12
          12 12 12 12 12 12
          12 12 12 12 12 12
          12 12 12 12 12 12
          12 12 12 12 12 12
          12 12 12 12 12 12
          12 12 12 12 12 12
          12 12 12 12 12 12
          12 12 12 12 12 12
          12 12 12 12 12 12
          12 12 12 12 12 12
          12 12 12 12 12 12
          12 12 12 12 12 12
          12 12 12 12 12 12
          12 12 12 12 12 12
          12 12 12 12 12 12
          12 12 12 12 12 12
          12 12 12 12 12 12
          12 12 12 12 12 12
          12 12 12 12 12 12
          12 12 12 12 12 12
          12 12 12 12 12 12
          12 12 12 12 12 12
          12 12 12 12 12 12
          12 12 12 12 12 12
          12 12 12 12 12 12
          12 12 12 12 12 12
          12 12 12 12 12 12
          12 12 12 12 12 12
          12 12 12 12 12 12
          12 12 12 12 12 12
          12 12
        </DataArray>
      </Cells>
    </Piece>
  </UnstructuredGrid>
</VTKFile>
