<?xml version="1.0"?>
<VTKFile type="UnstructuredGrid" version="0.1" byte_order="LittleEndian" header_type="UInt32" compressor="vtkZLibDataCompressor">
  <UnstructuredGrid>
    <Piece NumberOfPoints="819" NumberOfCells="454">
      <PointData>
        <DataArray type="Int32" Name="libmesh_node_id" format="ascii" RangeMin="2316" RangeMax="5735">
          2316 2317 2318 2319 2320 2321
          2322 2323 2324 2325 2326 2327
          2433 2434 2435 2436 2437 2438
          2439 2440 2441 2442 2443 2444
          2598 2599 2600 2601 2602 2603
          2643 2644 2645 2646 2647 2648
          2649 2650 2651 2709 2710 2711
          2712 2713 2714 2715 2716 2717
          2718 2719 2720 2766 2767 2768
          2769 2770 2771 2772 2773 2774
          2775 2776 2777 2808 2809 2810
          2811 2812 2813 2814 2815 2816
          2817 2818 2819 2852 2853 2856
          2857 2860 2861 2970 2971 2973
          2974 2976 2977 2991 2994 2995
          2998 2999 3002 3081 3082 3083
          3084 3085 3086 3087 3088 3089
          3090 3091 3092 3187 3190 3193
          3241 3243 3245 3270 3271 3272
          3312 3313 3314 3315 3316 3317
          3495 3496 3497 3498 3499 3500
          3501 3502 3503 3504 3505 3506
          3765 3766 3767 3768 3769 3770
          3852 3853 3854 4470 4471 4472
          4584 4585 4586 4587 4588 4589
          4635 4636 4637 4638 4639 4640
          4641 4642 4643 4644 4645 4646
          4659 4660 4661 4662 4663 4664
          4722 4723 4724 4782 4783 4784
          4791 4792 4793 4794 4795 4796
          4797 4798 4799 4812 4813 4814
          4815 4816 4817 4818 4819 4820
          4833 4834 4835 4836 4837 4838
          4848 4849 4850 4851 4852 4853
          4896 4897 4898 4899 4900 4901
          4911 4912 4913 4935 4936 4937
          4938 4939 4940 4944 4945 4946
          4947 4948 4949 4950 4951 4952
          4953 4954 4955 4956 4957 4958
          4992 4993 4994 5007 5008 5009
          5010 5011 5012 5013 5014 5015
          5016 5017 5018 5019 5020 5021
          5025 5026 5027 5028 5029 5030
          5040 5041 5042 5043 5044 5045
          5055 5056 5057 5073 5074 5075
          5079 5080 5081 5088 5089 5090
          5094 5095 5096 5103 5104 5105
          5151 5152 5153 5160 5161 5162
          5169 5170 5171 5178 5179 5180
          5187 5188 5189 5202 5203 5204
          5205 5206 5207 5208 5209 5210
          5211 5212 5213 5214 5215 5216
          5217 5218 5219 5220 5221 5222
          5223 5224 5225 5226 5227 5228
          5229 5230 5231 5232 5233 5234
          5235 5236 5237 5238 5239 5240
          5241 5242 5243 5244 5245 5246
          5247 5248 5249 5253 5254 5255
          5256 5257 5258 5259 5260 5261
          5262 5263 5264 5265 5266 5267
          5268 5269 5270 5271 5272 5273
          5274 5275 5276 5280 5281 5282
          5283 5284 5285 5286 5287 5288
          5289 5290 5291 5292 5293 5294
          5295 5296 5297 5298 5299 5300
          5301 5302 5303 5307 5308 5309
          5310 5311 5312 5313 5314 5315
          5316 5317 5318 5319 5320 5321
          5322 5323 5324 5325 5326 5327
          5328 5329 5330 5334 5335 5336
          5337 5338 5339 5340 5341 5342
          5343 5344 5345 5346 5347 5348
          5349 5350 5351 5352 5353 5354
          5355 5356 5357 5358 5359 5360
          5361 5362 5363 5364 5365 5366
          5367 5368 5369 5370 5371 5372
          5373 5374 5375 5376 5377 5378
          5379 5380 5381 5382 5383 5384
          5385 5386 5387 5388 5389 5390
          5391 5392 5393 5394 5395 5396
          5397 5398 5399 5400 5401 5402
          5403 5404 5405 5406 5407 5408
          5409 5410 5411 5412 5413 5414
          5415 5416 5417 5418 5419 5420
          5421 5422 5423 5424 5425 5426
          5427 5428 5429 5430 5431 5432
          5433 5434 5435 5436 5437 5438
          5439 5440 5441 5442 5443 5444
          5445 5446 5447 5448 5449 5450
          5451 5452 5453 5454 5455 5456
          5457 5458 5459 5460 5461 5462
          5463 5464 5465 5466 5467 5468
          5469 5470 5471 5472 5473 5474
          5475 5476 5477 5478 5479 5480
          5481 5482 5483 5484 5485 5486
          5487 5488 5489 5490 5491 5492
          5493 5494 5495 5496 5497 5498
          5499 5500 5501 5502 5503 5504
          5505 5506 5507 5508 5509 5510
          5511 5512 5513 5514 5515 5516
          5517 5518 5519 5520 5521 5522
          5523 5524 5525 5526 5527 5528
          5529 5530 5531 5532 5533 5534
          5535 5536 5537 5538 5539 5540
          5541 5542 5543 5544 5545 5546
          5547 5548 5549 5550 5551 5552
          5553 5554 5555 5556 5557 5558
          5559 5560 5561 5562 5563 5564
          5565 5566 5567 5568 5569 5570
          5571 5572 5573 5574 5575 5576
          5577 5578 5579 5580 5581 5582
          5583 5584 5585 5586 5587 5588
          5589 5590 5591 5592 5593 5594
          5595 5596 5597 5598 5599 5600
          5601 5602 5603 5604 5605 5606
          5607 5608 5609 5610 5611 5612
          5613 5614 5615 5616 5617 5618
          5619 5620 5621 5622 5623 5624
          5625 5626 5627 5628 5629 5630
          5631 5632 5633 5634 5635 5636
          5637 5638 5639 5640 5641 5642
          5643 5644 5645 5646 5647 5648
          5649 5650 5651 5652 5653 5654
          5655 5656 5657 5658 5659 5660
          5661 5662 5663 5664 5665 5666
          5667 5668 5669 5670 5671 5672
          5673 5674 5675 5676 5677 5678
          5679 5680 5681 5682 5683 5684
          5685 5686 5687 5688 5689 5690
          5691 5692 5693 5694 5695 5696
          5697 5698 5699 5700 5701 5702
          5703 5704 5705 5706 5707 5708
          5709 5710 5711 5712 5713 5714
          5715 5716 5717 5718 5719 5720
          5721 5722 5723 5724 5725 5726
          5727 5728 5729 5730 5731 5732
          5733 5734 5735
        </DataArray>
        <DataArray type="Float64" Name="resid_x" format="ascii" RangeMin="-0.029942877417427738" RangeMax="68.0787076742588">
          0.00022093808831336048 0.0005090777466847385 0.0005574339007026197 0.0008059983867276799 0.00016558796700039125 -0.0004431000940510188
          -0.0007311104994762729 -0.0014708535891969632 -0.022812941498669304 -0.029942877417427738 -0.018999747835672487 -0.025526958508136133
          -0.00007450537988695771 0.0005475706247368706 0.0026319459419354985 0.0033342814460661785 -0.001307444566487348 0.000002710356362456423
          -0.00015675436684858823 -0.00009271460824988864 -0.015812443952039068 -0.01805271709663625 -0.02799892036029128 -0.02852427989110584
          -0.020337520982000257 -0.014991503607266421 -0.0011687931019270792 -0.0010336793772015573 -0.024134404394331455 -0.02467730639096133
          -0.002056070700666268 -0.0021679046271678715 -0.01710789312078731 0.0005570031205923698 -0.0018802681756397988 -0.0002851220878028471
          -0.02221882549109111 -0.02134367155365169 -0.02361496609947622 0.0005379101516508056 0.0009195956336016664 0.000775867336427094
          0.0014203655925975056 0.00030208783844429266 0.00024874505021621474 -0.0017570115762284289 0.00002752847623455068 -0.009602104790737087
          -0.0044377435455444925 -0.007544075383574711 -0.01289487606554296 -0.00029344502558537044 0.0015779342037012256 -0.0018477915995198657
          -0.005328263057412741 -0.0009220391848812071 -0.001084789547080689 -0.00287597523658345 -0.0012827672672921508 -0.006038138572748153
          -0.005732686915577823 -0.006826468043449552 -0.012933770860541927 -0.012166790565221852 -0.006164737551801025 -0.013368530137051415
          -0.006209571104147216 -0.0036662275046470683 -0.0028266858881078605 -0.018472176966723985 -0.016201655469647136 -0.022625207896252775
          -0.015617021051987479 -0.00012531332079213087 -0.014825263808560862 -0.024707521099779584 -0.019255680326649482 -0.02189476998871953
          -0.018129231915040123 -0.018890209718723128 -0.015901415126274188 -0.01418468643268156 -0.009145932344777563 0.0017802729569407205
          -0.013101167533346114 -0.01010213135659832 -0.006848596425005127 -0.007272793121812171 -0.000716933332436831 0.0038391214801656304
          0.0010771462894432204 -0.0002577169440431959 -0.003478647671344426 -0.003926993410733104 0.0019389020215263564 0.0017091747557538284
          -0.004781549242279637 -0.002289702933936155 0.00554731845518408 0.0028754037914948682 -0.0014149555679817127 -0.00581953824546666
          -0.00508524334016458 -0.007393712215248982 -0.010943963801780088 -0.021455655574177612 -0.025564137109119756 -0.013644665668764766
          0.0036333946685891405 0.007480679604777052 0.0021700677272793456 -0.015043167577917238 -0.01866148614943519 -0.013369316796315367
          -0.0127917001577047 -0.0030744452726994 -0.0033442153895959503 -0.0016477372850767225 -0.01940617663982458 -0.012616186984380384
          -0.00924810591421732 -0.00010421275702654498 0.0008517782397241547 -0.005004114501826251 -0.020760172019912204 -0.00044735767635728507
          0.0012228878669402476 -0.015229083277496613 -0.014658500310625655 -0.007184795430386082 -0.004417794937913833 -0.011784961058289412
          -0.012672908085068713 -0.01239658534447674 -0.0045331397060817125 -0.0037082836850478307 -0.017156062532940553 -0.019374348203139324
          0.012261574957677546 0.019575768003980087 -0.0051351059004201005 -0.0031788381079520533 -0.0014814149552044853 -0.003954572725216821
          -0.005605262374945852 -0.005281742225872854 -0.008383493954699617 -0.0062689992459752375 -0.0022567641624977597 -0.004261878350946269
          -0.006082455485977301 -0.00603329999793889 -0.001653117423813133 -0.002280871822325281 -0.007330275877076353 -0.008386519494826494
          -0.008131232644235098 -0.008749174778836633 -0.003064661981742045 -0.003939761088546767 -0.01016815073910493 -0.00910310302924433
          -0.014481410745554868 -0.029414602848925497 -0.02008400163717461 -0.016757226828050698 -0.0064270799551779945 -0.012795308948778228
          -0.0008403360937165871 0.004130905329117418 -0.0028764053441360238 -0.016812520189492197 -0.0027026392664435406 -0.011202038719525742
          -0.004217089473846691 -0.008033324019708132 -0.012496161100954417 0.007957856168189004 -0.006352848921141074 0.014791651037540987
          -0.008859146938871021 0.007253440745640383 0.0015495293844427493 -0.01490185357492635 -0.003233585910855652 -0.014902348543877508
          -0.013122519590293535 -0.006001203758602802 -0.0016060351238067483 -0.0013582830105454136 -0.009374450653677258 -0.008955782952804192
          -0.008489968403145198 -0.0038210114774441806 -0.002101068204503065 -0.0012584231029570958 -0.00948633965686696 -0.006299320294180788
          -0.014928331042478149 -0.006016708504404278 -0.0020619336774885255 0.0013109549017453759 -0.014567866571601584 -0.008194407970019135
          -0.0062660572438959505 -0.002799346908398448 -0.00355591429392188 -0.025357750770151455 0.002891041665847638 -0.007379163442639225
          -0.01064508796542718 -0.010817278120956786 -0.00628131384691244 0.002967167249444458 -0.003967771717896973 0.010945874087130214
          -0.006827626802249576 -0.0019347322356262353 -0.004168896074454587 -0.0020025780697805473 0.014665570163570507 -0.0051005134303645505
          0.011438054399581787 -0.006126980589288067 0.002090879562086201 0.0007740590536897685 -0.0012994497153204776 0.00007834468516332294
          0.00358538799505137 0.0011406108959821637 0.00342336517641062 -0.0032882423445430575 -0.0012655755073627262 -0.001230512891734925
          -0.00031620027727985445 0.008681154039587469 0.004819044100402792 -0.016679440436142556 -0.01059529133490944 -0.00042988777128627476
          -0.0008596302059444838 -0.00902496320865609 -0.010953607771955198 -0.0074038531626205994 -0.007041312552123813 -0.0003819883842677285
          -0.005565880507543142 -0.012722173213616905 -0.012393392697818584 0.00475462978951402 0.011468077485238481 0.005644701371705807
          -0.0059745131626876 -0.006435914364105955 -0.005835808979528068 -0.01448909508021412 -0.005489550045826519 -0.009007011624641237
          0.0009489952915613387 0.0016645497111689167 0.00614523483276308 0.005803658720240357 -0.00021403608949999153 0.0006278103495036547
          0.002975918653420173 0.008667248409290451 0.0028441523786177925 0.0005613089587583886 0.008539845369351262 -0.00015243670012932142
          -0.02027542936464144 -0.004660989334299259 -0.011860369411344607 -0.0008011727719141604 0.007856080903588136 -0.0004314077635356739
          -0.0028799318484651337 0.008158164898635079 -0.0028450649690014984 -0.0013207431132506997 0.020627518194546113 -0.003337816427539053
          -0.011794518000620258 -0.007629059414551165 0.0008695687180217959 -0.01712091072158728 -0.00981835582869195 -0.005529233366026176
          -0.01989025451311477 -0.015594989115783164 -0.014933887148941949 -0.025305155401426305 -0.019261009331806633 -0.02348677774970298
          -0.0023984998812363045 0.026387445472693116 0.007213025148770313 -0.0010578656718287505 -0.00010717290766137921 -0.001742785384600154
          -0.0013030422650643914 -0.0018033604018867777 -0.0009570006149992594 0.00016035138603420762 0.00016643212989464473 0.0003199553746764394
          0.00029978167194677496 -0.0010211192165936467 -0.0004192171454935334 -0.001325944479519947 -0.0007841151585363804 -0.000029831733211693745
          0.0004705734662753258 -0.0017787524999892668 -0.0011302007684896864 -0.0016422949575041201 -0.0009448171117920623 0.0002609294771982462
          0.00025066208306512294 -0.0013409643924564563 -0.0005863821982448059 -0.0015981991274642837 -0.0008852772531060538 0.00026694927406367697
          0.0002353716570802078 -0.001151043164776766 -0.0005338946663915323 -0.0016108292537921898 -0.0008857540718452128 0.00032195299677972855
          0.00024136833129162483 -0.0009143330647276571 -0.00038608072392776194 -0.0015337637139758442 -0.0008128976254511144 0.00037255665569091434
          0.0002564050144862051 -0.0006154148816186478 -0.00023912952283211553 -0.0012977058203667013 -0.0006816028681306818 0.00035746955457227614
          0.00023559818056284598 -0.0005704571880151832 -0.0003061417621346152 -0.0011767555406159147 -0.0014984485856786023 -0.0017219129872003691
          -0.00031230803711501665 0.0004770174046431208 -0.0011811962799050946 -0.0018602728889671738 0.00004857375755662474 -0.001737147886766266
          -0.0021218965055176398 0.00047108906700188413 -0.0012576723280943725 -0.0019665969604307776 0.00046190627583087007 -0.0009873374683699865
          -0.0017590583418751748 0.000508427238557374 -0.0008431999212525909 -0.0016396136227747604 0.0004940669409378984 -0.000447965814910134
          -0.0012902010547115594 0.0005050532566315269 -0.00032277124115154265 -0.0007845738101224242 -0.0009819022063481953 -0.0014236381211674143
          -0.0004209406183921516 0.0006064809148114136 -0.0006935153092904045 -0.0016197877585923948 0.0002845496480112786 -0.0013697372068595115
          -0.0018092546655577024 0.0005752298575867343 -0.0008081601897682589 -0.001852429836805669 0.0005842884180999874 -0.0004920069972094154
          -0.0014992875486665724 0.0006142762033878313 -0.00032625446758061116 -0.001237163021333032 0.0005763106022573794 0.000013261822216392716
          -0.0009293782575241494 0.0005820152960751557 0.00014487631651149968 -0.0002588238325671455 -0.0002435421136439686 -0.0009966420092979433
          -0.00015769618515726336 0.0009165012941068085 -0.0002884042904547357 -0.00139970352425145 0.0006253302945360417 -0.0005878892538788705
          -0.0013053685114883251 0.0009021460802944858 -0.00027524154175395665 -0.0012922154948178388 0.000854637819550419 -0.00003481684293760168
          -0.0012114252779653611 0.0008090260703390584 0.00018685307475507784 -0.0008684323968051189 0.0007501337563589061 0.00044210153256685203
          -0.0005365260036072073 0.0006888813373571168 0.000506023686146051 -0.0004838030433305107 0.0001286432381988334 0.0009593125074367492
          -0.00011865646684228182 0.0014698950387703746 0.0007241084282014754 -0.0010956915485795804 0.0011512999143228342 0.0003304013167699793
          -0.0011107435156194612 0.0013537245450780944 0.0005598479070414442 -0.0009773426130497143 0.0012130533854577408 0.0003790217548971242
          -0.0009280968538014633 0.0010394194160507908 0.0005952037452559011 -0.0005295902960273935 0.0008813975033614696 0.0007424207188346799
          -0.00034244291955687345 0.000740478812200962 0.0006478366953786008 -0.0031698740954215765 -0.003963036899541805 0.005586633645938477
          -0.00041705706210137805 0.0005476996100881593 0.004155419846677333 0.000194744551391679 0.0019633103818641473 0.0022473813536443288
          -0.0006916079534757813 0.002062210254141661 0.0008561903965151885 -0.0004408547176453226 0.001857169888957344 0.0009703461667029956
          -0.0007214007875191442 0.0016026616880715494 0.0009118355888091401 -0.0007333206309620977 0.0012510349308225699 0.0009099385721462738
          -0.00033785252363927043 0.0009189991572622347 0.0008436184673019653 -0.0003490884478036804 0.0006549745680803909 0.0005799478548027537
          -0.0029515553680887763 -0.005029904768370841 0.005327882801825723 0.00007417657898578511 0.000983210585769001 0.009274959831728324
          -0.000028862238842464194 0.0011882804288081417 0.005677249215185753 -0.000045783076998873184 0.002548786249549906 0.002059333707785882
          -0.0002659581841264469 0.002525423388247461 0.0013765265688228112 -0.00040060171272138234 0.0022027523790573156 0.0014937067809324134
          -0.00046104374520616886 0.00156909144763695 0.0014379958495975842 -0.00039872877779956184 0.0007515501294950155 0.0009364276724763698
          -0.0005431335677332783 0.00025284493947808073 0.0004772464997948589 -0.0034204434864939515 -0.0051555249607275755 0.0035928868023624716
          0.0007655192207458583 0.002622804253983091 0.013602428841149816 -0.00028131890962157513 0.0006407041486706788 0.009959802055009348
          -0.00001928719092525455 0.0018705602500741492 0.0046002042115631525 0.0000936819436301306 0.0033866126454533685 0.002282899746674616
          0.0004250161434100619 0.0033524275218272948 0.0025793414760091338 0.0002834324418987677 0.002393043423134955 0.002532218740395109
          -0.0005245004886296201 0.00041721365618041517 0.0010421251445613677 -0.0010641814102125835 -0.0009396996407016189 0.00005754911704514143
          0.005012690886783133 0.012483281708298932 0.009069778033657272 0.002098128505096497 0.005886043829896437 0.01047867638100719
          -0.004679661585200279 -0.007799908239640274 0.0029404990015109433 -0.009107234814207388 -0.016681755773177542 -0.004728999281619295
          -0.010006928655679204 -0.017886239280482386 -0.007839830588238783 -0.008672768590274771 -0.01606504612631099 -0.0072391372346292115
          -0.006745948351507991 -0.012844621630893727 -0.005328921411619447 -0.004614160301963821 -0.008593319783307685 -0.003528462208286065
          -0.0025587551153058996 -0.004652594034698865 -0.001957008502939672 -0.0006734113618662718 -0.0011940608156777444 0.00016230474176737175
          0.00028242973512249137 -0.00022820129448675175 -0.00044562747758547516 -0.0009713987690957993 0.00047066551047691974 -0.00026816712902899553
          -0.000615923104806626 0.0004715518162186072 0.000011323664789841814 -0.0003129962184971191 0.0005402755917316426 0.00026804866473639777
          -0.0001932110126823261 0.0005620869332396694 0.0003338743509289088 -0.00032073961889445 0.00046463513193018 0.00025236553217666824
          -0.0005009876138384328 0.00011385988638323852 0.0002125293023169661 -0.0008282552319016645 -0.0009549596511195801 -0.00015710901317156356
          -0.001200276298981784 -0.0022090121756077608 -0.0011318122289134536 -0.0005560250957330481 -0.0009605562062624529 0.00017135415715330282
          0.00034138799546568066 -0.00007592398794997735 -0.00021858768582916355 -0.0007848054370640511 0.0004352303557197956 -0.00020974704443332826
          -0.0005566481515693056 0.00048016075550449955 -0.00008015210030620779 -0.0003082936950562498 0.0005506848889922367 -0.000026372384439810048
          -0.00024780281031056006 0.0005805115019743567 -0.000057062123133277964 -0.0003683092192865445 0.0004990569192777627 -0.00011841848587401671
          -0.00040335391239487706 0.00019609668414943826 -0.00015407469341610636 -0.0006038343629413134 -0.0007667533545667737 -0.0006114817299991415
          -0.0008546258423027808 -0.001587836916300489 -0.0011033113667391348 -0.00034332867598863004 -0.0006725299549650288 0.0001640077731792644
          0.00032759496776080255 -0.000011923633849164617 -0.00007863077047076672 -0.000635309027096298 0.00040306395653288973 -0.00010338188749159372
          -0.0005641123627668776 0.0004521912937143213 -0.00009826188494344024 -0.00048495644472623667 0.0005172894778198156 -0.00015084821941258042
          -0.00048182468378143994 0.0005416615187154861 -0.00016828911883948194 -0.0005015477682928093 0.00045919319300757877 -0.00013649931849890606
          -0.00041131861600263164 0.0001253520581752099 -0.00011826152925031863 -0.00044369010778666507 -0.0007171394890050919 -0.0003911866145251963
          -0.0005418368342837709 -0.0011285567395304952 -0.0005963893315907853 -0.00022001128854398644 -0.0004458852401754143 0.00014950367509669604
          0.0003011870112814563 0.00001344420190818596 -0.000020722630068803483 -0.00046629620867832955 0.00036634354049525086 -0.00009031277402016258
          -0.0005045003207833076 0.00041224282039920013 -0.00013246472816774713 -0.0005537891477338519 0.00046878532259952976 -0.0001836319753998339
          -0.000548691840908333 0.0004812982789932363 -0.00017953648379709364 -0.0004669095519478361 0.00037606400489131886 -0.0001154884342522422
          -0.00031002471049212943 0.000027771653298813703 -0.00005076597825315332 -0.00016747618946943987 -0.0006538544626017995 -0.0001284398375442919
          -0.00016928331823784504 -0.0007916718375025056 -0.00021961971843786898 -0.00016708127021303198 -0.0003319284520166832 0.00012837922857755757
          0.00026050787444731327 0.00008517877409985886 0.00004924688640173258 -0.000379424136397688 0.0003126377766555777 -0.00012858155819017725
          -0.0004514668828505819 0.0003549621143292825 -0.00020313506160718475 -0.0005052029320928852 0.000400361085620915 -0.000246227826856682
          -0.0004801121820694476 0.000397994650901623 -0.0002336370247828512 -0.0003547659929452607 0.0002808858007075088 -0.00011354199753021987
          -0.0001309391736317167 -0.0000393091551273983 0.00004475064707243348 0.00014930325289874702 -0.0005566632979743247 0.0000949820441107363
          0.00013406963906703595 -0.0005450110040534639 0.000018512607589116215 -0.00008348633935284511 -0.0002330533544068203 0.00010370331861864202
          0.00020867182479378243 0.00016526697649155153 0.00015757454878340127 -0.0003689621922866593 0.0002415145077030445 -0.00008490350963086257
          -0.0004544000699127082 0.00028168866779409996 -0.0002185330248885009 -0.0004896008080503833 0.0003150964998290817 -0.00029440679448811125
          -0.0004578296391315462 0.00030194625963630983 -0.000250666551378842 -0.00028109701625034234 0.00019157329436580994 -0.00004005652700911355
          0.00003799829118911191 -0.00007135680658443277 0.0001689056672198319 0.0003761597257323501 -0.0004417963549716575 0.00023308520991704995
          0.00026941187922879806 -0.0003672030719439334 0.00014032702777200257 0.000028430751925156983 -0.00007650566278272208 0.00007415027480561776
          0.0001479139811664254 0.0001655836303768865 0.00019761372714555137 -0.0002959762917598141 0.00016380826132333937 0.000008125567656946941
          -0.00042577251928221926 0.00019832320350587906 -0.0001428394358846674 -0.00048399544207100575 0.00021880021584586018 -0.00023543085263888486
          -0.0004216001687140647 0.0002014837871264774 -0.00017041371580717168 -0.00015369909150209082 0.00011265828865703043 0.00004832808833299396
          0.00021314273583250554 -0.00007711843022484288 0.00020606768563524724 0.000504165909275045 -0.0003185301190100631 0.0002217444442198513
          0.0002938572890851532 -0.0002380554297722881 0.00015630524906740106 0.00008495733990443455 0.00004695517637998137 0.00003908819768838612
          0.00007902426965245013 0.00006829476753367203 0.00009852666244114516 -0.00015852529946869254 0.00008673286309957007 0.00005089449260609058
          -0.00030588701824640907 0.00010862978325576478 -0.000011003357613503795 -0.0003829154789904976 0.00011594595897967963 -0.000053229121011355574
          -0.0002878211610148895 0.0001007811412065962 -0.000037783140678371296 0.000006627669288050697 0.00004633941708576117 0.00002100262445203782
          0.0003064533583536644 -0.000058826715184423506 0.000040429590614010635 0.00048431753918265485 -0.00018063776337839954 0.00000775884327808285
          0.00022608876678553713 -0.00013127885836894393 0.00005367520666688108 17.116985742531774 34.03918280543832 34.23412211399098
          68.0787076742588 17.118858433025235 34.04290909390332 33.450034483778325 66.90047336595009 33.453655238428674
          32.45655661493133 64.9135453040035 32.45986598855769 31.058056277530163 62.116507802437425 31.060689727742997
          29.291922670542597 58.58407439937121 29.293271762032532 27.280740590883397 54.561378721918885 27.279916254184474
          25.29004062241831 50.57956272996817 25.286070309338214 23.757353072920324 47.51371074602709 23.749485156262537
          11.590310177246897 23.179893935260267 11.584970672222376
        </DataArray>
        <DataArray type="Float64" Name="resid_y" format="ascii" RangeMin="-6.859256681160433" RangeMax="5.566460587527155">
          -0.00012865330069594672 0.0010203482945051467 0.0004720599942728415 0.0027077867756186876 -0.00040282685655479433 0.0006472518598899524
          -0.0001659354791686274 -0.0000061110234741909575 -0.014662361191372209 -0.018150549173234914 -0.013588988161313015 -0.02228816602814127
          -0.00012522403374883723 0.001104620313537856 0.0005350672871994588 0.0010818813248609227 -0.0012139482429439838 -0.0010003261011694783
          0.0005317989544937618 -0.001304914872190699 -0.010113051944555751 -0.012989271578711617 -0.013637891864931695 -0.017172376183339694
          -0.015648153016127653 -0.013701237706652335 -0.0020768944802667944 0.0005402262012591322 -0.012227991319899129 -0.017383389185036707
          -0.007550140490817037 -0.0006262711812213273 -0.009328923653834573 -0.000953928431880191 0.0000651098409985007 0.00029113254543373934
          -0.01444941387507187 -0.012572316464989408 -0.013555199615968558 0.00026095577869834213 0.00041317571150972787 -0.0004182124410836846
          0.001448892940983694 0.0002845342344071772 0.0002983804566795631 -0.0010240386933658974 -0.001800444894955816 -0.008178380880592941
          -0.003656150425595514 -0.007082945843742389 -0.011698737734786954 -0.0001314961764263614 0.00004487533521326664 -0.0058885435637172565
          -0.006258644647775695 -0.0000807278365783301 0.00044563743968948494 -0.005785693640815305 -0.003236185637169847 -0.0032040407903663262
          -0.002325234183818567 -0.007949849638112995 -0.010846510689040148 -0.0020013365870086043 -0.00282831107132972 -0.010860052613858473
          -0.002305999109603222 -0.002976312857287111 -0.0019892817949577757 -0.011146160990874232 -0.013656651677754789 -0.014427122085843791
          -0.010662779399480807 -0.0011751075088414359 -0.014807936640710007 -0.022879577027301645 -0.021801830508880765 -0.0216607586044415
          -0.022430293672206725 -0.012722238071275371 -0.015670459332099484 -0.010907932771491435 -0.012183610909330206 -0.004700420163401969
          -0.00959017619422009 -0.011302584506709491 -0.008536991502358676 -0.0023752259342547655 0.004546183014288024 0.01927118879519707
          0.0073879298757748985 0.006639409748909475 0.011670433245731665 -0.00397929416138583 0.0006585109178575271 0.0008229879486530423
          -0.0046117039538815935 -0.0032966297808439196 0.0013350281344122715 0.0011298109995777905 -0.0013636252199581145 -0.003727694643074285
          -0.0005609932902118 -0.005042911843570419 -0.008838767702662658 -0.006316190340317315 -0.007491156904981464 -0.005630692928269551
          -0.001699550863293972 -0.006338285832843238 -0.004366396540896385 -0.019169349523800727 -0.016010788279884114 -0.010543769229975908
          -0.011350476762537032 -0.0023447607455927832 -0.002423556299550489 -0.0009969280503410588 -0.01220206893531671 -0.008763365931640767
          -0.0016068870767541876 -0.00014449965511115215 0.0005862750686386475 -0.0007823247310896897 -0.004308962320156262 -0.0005890602453254012
          0.0005181586196231769 -0.0009268651443274378 -0.005407132074414872 -0.0054340130951495424 -0.0027037883177806477 -0.002818335302115643
          -0.0044948825717911305 -0.0004532859385554394 -0.0005072846923778879 -0.00015104463422746517 -0.012849515998756784 -0.014166613527057968
          -0.0011845720889309581 -0.007600356943430968 -0.019562864464487503 -0.004922378791221836 -0.002665912006908251 -0.005287035537044349
          0.0020068095723935198 -0.00008718233501012196 0.0038668787305116414 0.003255765235154362 0.0016009227367581869 0.002867289701367376
          -0.005061884043005699 -0.0010537975602280363 -0.0018872690772414324 0.000969258200598476 -0.004100396733914578 -0.0025481137505490303
          -0.0018108322345450067 -0.002016774611239308 -0.0010700808903462145 -0.002078288299300929 -0.005375784593945457 -0.005025207402669762
          0.0043804449667686 0.0028916223862682083 -0.00598408249753675 -0.010325079880755109 -0.017353260562559883 -0.013388664216519602
          -0.005949016471943867 -0.006193294207387734 -0.004789111184731423 -0.0016640373411992357 0.00019912671710133056 -0.006791780567453123
          -0.00692721587313587 -0.0022115844420084324 -0.0038838803245448555 0.0021023579296506195 0.004418121539337919 0.005610244231512934
          0.0070522429798113295 0.0012521500213994036 0.009370264972055092 -0.010944489492867797 -0.004124688827847389 -0.010535243476131842
          -0.006392878749095596 -0.00013651778384052293 -0.0007955278593516912 0.0021479328018381497 -0.007665014908214238 -0.0053594599712618075
          -0.010249865107112677 -0.004422021480502358 -0.0027529692567380692 0.0012646300152487355 -0.005547971726732354 -0.0021493878294204793
          -0.005544015101039482 -0.00170515200065946 -0.0007926315975223738 -0.0005057542495863591 -0.008680998700579846 -0.005163187723055081
          -0.0012541497287723302 0.004583691896100944 0.00023847218368977519 -0.007317402946936155 0.0035245091416958724 0.011089187363009206
          -0.0027751323152240825 0.0018041691498881796 -0.0018204620983414133 -0.006975508574337638 -0.0011120991108461153 -0.008816512714741036
          0.004027224974696847 -0.002546628129134823 0.001582301622193208 -0.0019701448479392397 0.003588009706785092 -0.005289047352392759
          0.00005882825321043561 -0.005481243690944423 -0.002770801700145001 -0.007711215461635508 -0.0025559743820119385 -0.005244736485077922
          -0.007610688406604296 0.0009509352602194779 -0.0038163607502733066 -0.003325468815721766 -0.0014363976006302563 -0.001745604140606427
          -0.0028971518444610295 -0.0034401652862807164 -0.0010422726177006791 -0.0047412031162316 -0.008053871584620568 -0.0012625128373985398
          -0.0015308758263235453 -0.0060704092198313325 -0.00542132801908427 -0.006293156522886298 -0.005258199955860417 -0.0029538280706404192
          -0.0022210581198006604 -0.010480296879652122 -0.008207561061419039 -0.002993535136711342 -0.0008380559612814267 -0.0007317741446524542
          -0.008660764322080725 -0.010675436039484815 -0.00956664617611526 -0.006139824691665845 -0.0020902254310837774 -0.005227743438752597
          -0.003724862744689897 -0.0034806293110564573 -0.0011908403662345014 -0.00032523717676454997 -0.001912237157582308 -0.0018391356516867692
          -0.0026107253361699265 0.00012893793729851222 -0.001791270814375398 -0.004432394317002115 -0.0004909519344184765 -0.0021345933451342447
          -0.011361227849308209 -0.004134673655503747 -0.007336380223875616 -0.004827605521705677 0.0013189893184662356 -0.001155613979263878
          -0.0061647574150222595 0.002000108592431521 -0.0017286751489597463 -0.012201373466301818 -0.0014020990449407772 -0.007958672083190343
          -0.006749467166339396 -0.008078257732324401 -0.00989927187934364 -0.0052164879700268285 -0.004010215872351619 -0.009585215218310683
          -0.006539470452912033 -0.0023331734216522904 -0.01044921979837593 -0.009830645026947193 -0.0030108251575613476 -0.013597450450943294
          -0.01227565683540402 0.00011072426256952816 -0.0039209644439668345 0.00002128926075517512 -3.429160533916659 -0.0003726098683478618
          -6.859256681160433 0.000043258831063264225 -3.438990764057513 0.00004229094048380233 -2.9366609832544968 0.0000845626965007007
          -5.8736896806725385 0.00015802830969913195 -2.9462360352354144 -0.00012540998152577032 -2.206002453011799 -0.000002174994905290717
          -4.412252971158402 0.0002843828763265943 -2.2140219172248115 -0.00021515775800606818 -1.3340253308993484 0.0000026286653295182205
          -2.66812533588837 0.00037416398793421735 -1.3400296773081726 -0.00023373808856227973 -0.40804140762340474 -0.000012576378299905544
          -0.8160317869672369 0.0003498382189315863 -0.41136524079814896 -0.00023663569535506412 0.5001851868354501 -0.000008489437029579605
          1.0005286170056131 0.00017072138493873235 0.5001278040223397 -0.00020884387391750803 1.3373663193459582 -6.304533284318126e-7
          2.6749513682135353 0.0001326727479525891 1.340773076396132 -0.00016899684809684734 1.7072809651443772 0.000009489741033985588
          3.414780536801935 0.0001275469470943813 1.7123249072274813 0.00031781347316184316 0.0004534225270695913 -0.000616915849285693
          -0.00009904912304770086 0.000287168107501623 0.00025059635142699044 0.00016892423163517023 0.00000356685076852159 0.0003765209332420305
          0.00007939634467546419 0.0002393044856129345 0.0003980588234580029 0.0000026026582876648163 0.00020439428705054663 0.0004866686604961812
          -0.000053614237268129195 0.00017677991223070955 0.00027122675973881294 -0.00011825378624141791 0.00016658830181592865 0.00006572883345168368
          -0.0001732370744361722 0.0001207421847415624 0.00002176097346973105 0.0006690305582255363 -0.0004250460548105295 -0.0000024472168489442225
          0.00020944313901338774 0.00034778386732559063 0.0004227887813714748 0.0002483975237190794 0.00020550535577390505 0.0004943712606355621
          0.000309688796137797 0.00024341068613120687 0.00042247125831396115 0.0002548995455650127 0.00023491948800336004 0.00034968091063919404
          0.0001224584422666597 0.000225011120181709 0.00022213148645927605 -0.00008606097632596343 0.00023038959089188848 -0.00003507592460910702
          -0.0002472858082805864 0.0001736918892681922 -0.00014761109475439765 -0.0002477681112695862 0.00035641521102824925 0.0007965464208627981
          0.00025986865427585215 0.0005220874578957257 0.0007555963248249142 0.00034178705202370097 0.00040828816412186164 0.0005172541206910353
          0.00035995300103253136 0.0004153645610440737 0.0005741958379901213 0.0004153317918805799 0.0004500880273430319 0.0004807105694870639
          0.00020507415112697158 0.00042068348061025107 0.00019345175274376736 -0.0000861720227501167 0.0003988112601109456 -0.000014426667448184938
          -0.00026136170350082866 0.00030482306143503335 -0.00016134918448490465 -0.0005326383201995633 0.0011129734424608628 0.0004286538061148981
          0.0005716455222941619 0.0007116622557368224 0.0003775949785400634 0.0007274334311948571 0.00042553677799483935 0.0004685744918735413
          0.0004753240946990811 0.0007224265350702641 0.0007837654369038383 0.0005374513799272229 0.0008009563836017808 0.00082161500059863
          0.00031008935110621305 0.0007676917635257574 0.00038569019651291114 -0.000023897649132686993 0.0006648857950042331 0.00008082773195960957
          -0.00020049610885486402 0.000494719824755907 -0.000051315350401814896 -0.0018224303152400978 0.0010545634110732394 -0.0007916266328980015
          0.00039179274594580704 -0.000304881372921173 0.00014791119570300992 0.0008184990922734947 0.0006886823340961357 0.0004045337251090686
          0.0007200382944110295 0.0011542013098067017 0.0005931224667392598 0.0008507950536400521 0.0011736845200531754 0.0011120658647305603
          0.0008505905268398894 0.0013137068211501735 0.0011743442619385203 0.0005507647758955514 0.001310865083898216 0.0007121245607575322
          0.00020679628952990914 0.0011078039697119957 0.0003139791145515547 -0.00005600777421665981 0.0007668015497999114 0.00015346783230962835
          -0.0012240473311133648 -0.0017839600849045567 -0.0020074862641972224 0.0002370298840963514 -0.0015717090955806867 -0.0000011269184412299182
          0.0002877200271496072 -0.00011694755790792044 0.0008514377105961479 0.0006537493165406083 0.0008102629273065709 0.0010949285043979629
          0.0012143508054709429 0.0016821658206471746 0.001651903623753448 0.0012213956427977735 0.00203095073161208 0.0016617489232841898
          0.0009602458837041361 0.002197069558342868 0.0012205697098246482 0.0006047118754621827 0.0018935582864398892 0.0007858277521157753
          0.00018010959148151429 0.0011585536440628097 0.0004120451776223888 -0.0009903596751663635 -0.004773970694717633 -0.004675033531383432
          -0.0012847512895577395 -0.0034203376127850404 -0.0012393178350782463 -0.0009201025099296878 -0.00211229102836219 0.0011824557569966032
          0.0002838831077869308 -0.00041852263986097427 0.0016346727518357085 0.0013406401609779017 0.0015594557714226909 0.0017778463623505658
          0.0017245393581268864 0.0028580380462854826 0.0021864018018709075 0.001695936528853803 0.003671509649974869 0.0021497936091305903
          0.0014756523901657825 0.00372937485740632 0.0018714769331518166 0.0005195914210043284 0.001777024123201132 0.0007682660404073616
          -0.0038955765366142092 -0.006214019195720066 -0.003782758022387922 -0.0021748415893667605 -0.003264602408595607 -0.0011365498217292824
          -0.0018037405086404057 -0.003939628094803194 -0.0007655550538490097 -0.0023844767556062685 -0.005511902638666744 -0.0016535075553405498
          -0.0028306512833040642 -0.006360388528732663 -0.002626918946768697 -0.0028551467570343547 -0.006001550767185115 -0.0025901592768446946
          -0.002613133306105908 -0.004842649012589462 -0.002019934188274064 -0.0015612770444199953 -0.002382363015371869 -0.0010021112205644833
          -0.000687574628358778 -0.0008167247454915483 -0.0005102895716631028 1.7680737582229014 -0.000050536029669645544 3.5363289683824313
          0.00003875619755755455 1.7732740948253296 -0.00007413319435578547 -0.0001257069911793085 0.00011932651351698187 -0.00016232640290986255
          -0.00023640790726539573 0.00015999540301225856 -0.00024422292851589145 -0.0003064721398964576 0.00024277569608846528 -0.0002127949426433129
          -0.00025949695634441827 0.00034574551198096604 -0.00009392860036605555 -0.0001283220995236256 0.0004640034142171512 0.000044665640393182215
          -0.000008813577665245376 0.0005679321815019733 0.000092072073972993 0.000009185403571754236 0.0005898278491964781 -0.000008061019896254962
          -0.00038741876303372 -0.0002731792587575832 -0.0004019394255945219 2.032740816511927 -0.00005029211685614321 4.065686231020706
          0.000026898539137065747 2.038400086230821 -0.0001937804157751133 -0.0001862181194186574 0.00008405257600418992 -0.0002797650412494912
          -0.0002844447833474928 0.0001615483347368052 -0.00028219768637072207 -0.0002869194855356222 0.00023634005049209816 -0.0001528690095989882
          -0.00016755130551515673 0.00032352907748678383 -0.000004347655649827864 -0.0000331615329688395 0.0004052178943976248 0.00006051594501554902
          0.000020050342076638472 0.0004999543645880511 0.00004205150042513317 -0.0000553898984690937 0.0004889397316053534 -0.00009397001541844308
          -0.00023239015630971416 0.000054609411908934646 -0.00018855122365768473 2.253019805397283 -0.00008009909657480385 4.506268383230792
          0.000039086174992486455 2.2589457789401846 -0.00020547585949615144 -0.00021887367973594252 0.00010983503603168021 -0.00028455352828404834
          -0.0002707099668173285 0.0001872559712608468 -0.0002452950531377507 -0.0001916450786392937 0.0002679026527485223 -0.00011727542735793378
          -0.000029132803204823254 0.0003584341968503324 -0.000002341315891163376 0.0000793723003330582 0.00045116258013111477 0.00005353099273119888
          0.00008613843543803235 0.00055300338894404 0.00008719548841518154 -0.000012307706361402992 0.0004737136840063938 -0.00000405521633106698
          -0.0001084725647827467 0.00012598972550359466 -0.00010145033240716028 2.4308549359693425 -0.0000747612803493336 4.861943852601138
          0.00005460530837897437 2.4369050836300716 -0.00017773926944708585 -0.00019730617386393146 0.00013703083492300205 -0.0002435836024829996
          -0.00020715731685849725 0.00022378769317277225 -0.00021801790770359375 -0.00011782020629236278 0.0003214533787695151 -0.0001601991990185514
          -0.00000978543667601306 0.0004267235742594355 -0.00008673112032411834 0.000058277539591755634 0.0005333529050312036 -0.00002126385243161888
          0.00006705139311902197 0.0006015780617997235 -0.000010675003416005246 -0.00002305688677900486 0.0004545013069718884 -0.00015295694194239484
          -0.00009789434775164807 0.00013643492993953288 -0.0001747008459691557 2.5693074974403665 -0.00004541573395266951 5.138845087338351
          0.00007186055881569509 2.5753926303993175 -0.00015049577357095778 -0.00013152495900414785 0.0001625830820383145 -0.00020130223487646592
          -0.00014247318917381957 0.0002695647864772166 -0.00021013828697025172 -0.00011340584730473724 0.0003858799042539274 -0.00019390494823712245
          -0.00007784244892109632 0.0005033499977966441 -0.00015023994087671327 -0.00004598536478200854 0.0006028392626800105 -0.00014126591025442892
          -0.0000751445792281924 0.0006249266379021456 -0.00023537431277176335 -0.00023772393727800045 0.00042353296302455323 -0.00044638177090022824
          -0.00026931554456027795 0.0001270920593146041 -0.0002777715787620205 2.6719365888958673 -0.000012525759297554728 5.344096855855845
          0.0000871433010316558 2.678009579454775 -0.00010780897322337779 -0.00005900148106663394 0.00018807986044566682 -0.00015466616321835325
          -0.00008922076067163776 0.0003129831902651814 -0.00019041422127963337 -0.00010544804551465559 0.0004439697206675697 -0.00020248467076172671
          -0.00011365468470422857 0.0005680052058845975 -0.0002252593302334016 -0.0001524695531763265 0.0006495227547185511 -0.00032251494461346675
          -0.0002864362488853023 0.0006266996622696919 -0.0004966589276832467 -0.000529116821910175 0.0003924809047685107 -0.0007012230927996577
          -0.0004695719950101873 0.00011575881706593627 -0.0003483746158003398 2.7422388196326404 0.00002496063407519955 5.484690454881777
          0.00009910596337570077 2.74828138972185 -0.000036674808611358856 0.000014973569995246905 0.00021235308778533302 -0.00008095997451484926
          -0.000024349617946728408 0.000346929505833371 -0.00015836704670380009 -0.00006936653597877651 0.0004882363994687111 -0.000267598555214299
          -0.00014631201625353585 0.0006135408130893971 -0.0004264694742091013 -0.00030113558079676583 0.0006754149542988613 -0.0006170974836421095
          -0.0005293742938659862 0.0006170868723694156 -0.0007869774541222896 -0.0007798878843113949 0.00036937665575000056 -0.0009181892895866323
          -0.0006271910125733027 0.00010875163971008073 -0.0003943844064298041 2.783130247264802 0.00006190873149947151 5.566460587527155
          0.00010859103546101423 2.7891445612891705 0.00003471488307971171 0.00008647646462245362 0.00023262796268852526 -0.000006174837737127348
          0.00004660358712782475 0.00037073062023673664 -0.00014311492339591503 -0.00005980105505343225 0.0005177048051231425 -0.00039477417177935514
          -0.0002715548018280556 0.0006397414438005233 -0.0006996899664194478 -0.0005609503718774778 0.0006851552890739243 -0.0009308556701615456
          -0.0008267451594775876 0.0006055687342411825 -0.001036339363696917 -0.001018743161252585 0.00035599673812382847 -0.0010780919992666952
          -0.0007747045792800278 0.00010650310071326496 -0.00040209937279252206 1.3982712777267532 0.00005032940697846655 2.796634245362073
          0.00005476521673086765 1.4012684068354646 0.000022916977896914048 0.00005768606523548492 0.00011801063257932398 0.000007559771597165366
          -0.000009094198820003285 0.00018807209601101604 -0.000052161519066729056 -0.0001715831300654891 0.00026436065775259365 -0.0001607744052789517
          -0.00042847226687359186 0.000325459377534143 -0.0002723501066731471 -0.000684830672045722 0.0003445719085908294 -0.0003361319541528296
          -0.0008386938455797743 0.0003011536614488941 -0.0003545725330690308 -0.0008922575224088597 0.00017262886215806128 -0.0003690071952785201
          -0.0005583070237747236 0.00004956970697693637 -0.00010675278506709629
        </DataArray>
        <DataArray type="Float64" Name="resid_z" format="ascii" RangeMin="0" RangeMax="0">
          0 0 0 0 0 0
          0 0 0 0 0 0
          0 0 0 0 0 0
          0 0 0 0 0 0
          0 0 0 0 0 0
          0 0 0 0 0 0
          0 0 0 0 0 0
          0 0 0 0 0 0
          0 0 0 0 0 0
          0 0 0 0 0 0
          0 0 0 0 0 0
          0 0 0 0 0 0
          0 0 0 0 0 0
          0 0 0 0 0 0
          0 0 0 0 0 0
          0 0 0 0 0 0
          0 0 0 0 0 0
          0 0 0 0 0 0
          0 0 0 0 0 0
          0 0 0 0 0 0
          0 0 0 0 0 0
          0 0 0 0 0 0
          0 0 0 0 0 0
          0 0 0 0 0 0
          0 0 0 0 0 0
          0 0 0 0 0 0
          0 0 0 0 0 0
          0 0 0 0 0 0
          0 0 0 0 0 0
          0 0 0 0 0 0
          0 0 0 0 0 0
          0 0 0 0 0 0
          0 0 0 0 0 0
          0 0 0 0 0 0
          0 0 0 0 0 0
          0 0 0 0 0 0
          0 0 0 0 0 0
          0 0 0 0 0 0
          0 0 0 0 0 0
          0 0 0 0 0 0
          0 0 0 0 0 0
          0 0 0 0 0 0
          0 0 0 0 0 0
          0 0 0 0 0 0
          0 0 0 0 0 0
          0 0 0 0 0 0
          0 0 0 0 0 0
          0 0 0 0 0 0
          0 0 0 0 0 0
          0 0 0 0 0 0
          0 0 0 0 0 0
          0 0 0 0 0 0
          0 0 0 0 0 0
          0 0 0 0 0 0
          0 0 0 0 0 0
          0 0 0 0 0 0
          0 0 0 0 0 0
          0 0 0 0 0 0
          0 0 0 0 0 0
          0 0 0 0 0 0
          0 0 0 0 0 0
          0 0 0 0 0 0
          0 0 0 0 0 0
          0 0 0 0 0 0
          0 0 0 0 0 0
          0 0 0 0 0 0
          0 0 0 0 0 0
          0 0 0 0 0 0
          0 0 0 0 0 0
          0 0 0 0 0 0
          0 0 0 0 0 0
          0 0 0 0 0 0
          0 0 0 0 0 0
          0 0 0 0 0 0
          0 0 0 0 0 0
          0 0 0 0 0 0
          0 0 0 0 0 0
          0 0 0 0 0 0
          0 0 0 0 0 0
          0 0 0 0 0 0
          0 0 0 0 0 0
          0 0 0 0 0 0
          0 0 0 0 0 0
          0 0 0 0 0 0
          0 0 0 0 0 0
          0 0 0 0 0 0
          0 0 0 0 0 0
          0 0 0 0 0 0
          0 0 0 0 0 0
          0 0 0 0 0 0
          0 0 0 0 0 0
          0 0 0 0 0 0
          0 0 0 0 0 0
          0 0 0 0 0 0
          0 0 0 0 0 0
          0 0 0 0 0 0
          0 0 0 0 0 0
          0 0 0 0 0 0
          0 0 0 0 0 0
          0 0 0 0 0 0
          0 0 0 0 0 0
          0 0 0 0 0 0
          0 0 0 0 0 0
          0 0 0 0 0 0
          0 0 0 0 0 0
          0 0 0 0 0 0
          0 0 0 0 0 0
          0 0 0 0 0 0
          0 0 0 0 0 0
          0 0 0 0 0 0
          0 0 0 0 0 0
          0 0 0 0 0 0
          0 0 0 0 0 0
          0 0 0 0 0 0
          0 0 0 0 0 0
          0 0 0 0 0 0
          0 0 0 0 0 0
          0 0 0 0 0 0
          0 0 0 0 0 0
          0 0 0 0 0 0
          0 0 0 0 0 0
          0 0 0 0 0 0
          0 0 0 0 0 0
          0 0 0 0 0 0
          0 0 0 0 0 0
          0 0 0 0 0 0
          0 0 0 0 0 0
          0 0 0 0 0 0
          0 0 0 0 0 0
          0 0 0 0 0 0
          0 0 0 0 0 0
          0 0 0 0 0 0
          0 0 0 0 0 0
          0 0 0 0 0 0
          0 0 0 0 0 0
          0 0 0 0 0 0
          0 0 0
        </DataArray>
        <DataArray type="Float64" Name="stress_zz" format="ascii" RangeMin="-4115832.4463473493" RangeMax="1953463.3592463867">
          761670.8030960805 299279.179018343 -264362.7224204463 -28806.445535499777 759738.1220314363 275368.78807370097
          -295371.0374465612 -61683.276241928805 757805.4409667918 251458.39712905884 -326379.3524726763 -94560.1069483578
          -165459.83239702726 -74090.39609883307 202477.62653560677 30468.025826314173 -185241.82923642694 -85709.657461035
          204039.34580222215 20829.964760891402 -205023.82607582663 -97328.91882323698 205601.0650688375 11191.90369546862
          684682.3503598061 566068.65748529 676297.7506620847 556489.8969099357 667913.1509643631 546911.1363345815
          598431.5845628906 1101618.6305945967 808559.9196526115 596798.3077868018 1088919.8826475225 797428.5751237827
          595165.0310107132 1076221.1347004483 786297.2305949542 -857272.0304157346 -641562.7627798041 -502253.63671442715
          -669424.3540093421 -839971.5425389912 -677777.1772109608 -510308.4865812582 -660241.922494686 -822671.0546622479
          -713991.5916421172 -518363.3364480892 -651059.4909800296 -600764.2719118638 -429758.80114858143 -526874.6652743473
          -1271761.9248266635 -585576.2330919653 -450484.91960391763 -559980.1174815915 -1216216.6673892695 -570388.1942720667
          -471211.03805925377 -593085.5696888359 -1160671.4099518755 -855165.0829231152 -734789.8595577017 265363.7577341746
          -863824.9914879331 -732207.6708787344 259481.98441341752 -872484.9000527511 -729625.4821997671 253600.21109266044
          1413446.7245735987 1418417.952906899 1423389.1812401987 174193.34453040577 -715742.2026144494 171698.9755767028
          -703043.272707643 169204.60662299988 -690344.3428008365 1930796.6414676597 1187717.009454496 1942130.0003570232
          1174450.8242173984 1953463.3592463867 1161184.6389803009 187481.99750557868 57589.97725749096 111294.81696765537
          61325.54918017806 35107.63642973204 65061.121102865145 -696553.457232518 -556023.675828001 -627773.5161184744
          -709313.2310694248 -711314.1514141222 -571454.4210395188 -648811.4256952382 -707913.6164952359 -726074.8455957263
          -586885.1662510366 -669849.3352720023 -706514.0019210471 -73729.16654160833 -59128.515364564395 -44527.86418752045
          304453.9905578832 287287.14377262426 270120.2969873653 712227.6563264517 714467.672780196 716707.6892339401
          192324.61465508866 -150792.46498422007 179176.95186146855 -149650.34628265578 166029.2890678484 -148508.22758109152
          -480564.9014029787 -2067578.6973266606 -1966896.7709200683 -1414116.721834956 -498059.9907466859 -2123187.209106243
          -1997090.5981514985 -1459356.7481268547 -515555.0800903931 -2178795.720885826 -2027284.425382929 -1504596.7744187533
          -529287.434863294 -1401769.556116566 -512356.55211355817 -1384842.8366568729 -495425.66936382256 -1367916.11719718
          -487005.30684112053 -463161.4247663058 -439317.542691491 -276930.1646137051 -277214.65169594577 -277499.1387781865
          92424.37250631655 363852.64404919464 81590.75027688267 383503.80378778727 70757.12804744879 403154.96352637996
          -1685615.0457869417 -836062.3308304799 -1602856.2504448723 -818766.6372439181 -1520097.4551028025 -801470.9436573567
          -1829851.7139032604 -2741255.1077752397 -1791504.4436961063 -2717443.4725610316 -1753157.1734889522 -2693631.8373468234
          -501908.7935841244 -485565.08444166044 -469221.37529919646 -1407706.0131853425 -1404982.698871978 -1402259.3845586134
          -138571.04168313247 -136303.21771461266 -134035.39374609283 -2162208.2951676566 -2097915.7101981086 -2033623.125228561
          -141156.66949907938 -88565.37230459749 -35974.075110115635 210367.9894942555 204584.2571020755 162823.12802879664
          134541.27564108645 115278.26656333779 64498.29418009744 -325521.78994556994 -312024.9736456491 -298528.15734572825
          -512166.53693300637 -927482.4340845676 -484518.10792692954 -903032.4085161774 -456869.6789208526 -878582.3829477872
          -1263284.5785438656 -958714.3879401109 -1260518.5086562221 -931508.6523674127 -1257752.438768579 -904302.9167947144
          -1828514.892768991 -868714.8347618773 -1832283.2145708427 -880525.478958744 -1836051.5363726947 -892336.1231556105
          168331.23329350233 210225.9882659668 252120.74323843129 17322.74356740585 -109850.46536198 -237023.6742913658
          -1258962.0611103273 -1284632.3400686136 -1310302.6190269003 365308.6267278686 205371.43032808774 412559.41738823795
          176875.5883002832 459810.2080486071 148379.7462724788 277037.7947358963 -7044.810665096647 234164.3615721049
          -46446.272378570364 191290.9284083136 -85847.73409204406 35554.51845729035 -435245.28016525495 -431487.15430906333
          92835.35477441529 -430364.88637909456 -411744.8759773195 150116.1910915402 -425484.4925929342 -392002.59764557565
          -289433.8057948017 -295224.3237065298 -301014.8416182579 -1554265.5872312293 -1268330.3321588456 -1499433.403855203
          -1266592.6196541889 -1444601.2204791764 -1264854.907149532 -388836.6222391226 -227618.45159562453 -332285.0735621661
          -213368.20789417718 -275733.5248852097 -199117.96419273 -707667.3985465578 -709647.0710547782 -711626.7435629987
          156488.13311709062 103467.59549089413 50447.05786469765 -442019.0045406038 -391639.2926613637 -341259.5807821236
          -595408.685943349 -625726.5618383493 -628270.5086732337 -642653.7813528283 -661132.3314031183 -659581.0008673072
          -717528.8226181911 -733492.8032411119 -749456.7838640327 -66493.41350003105 -70805.57926073094 -75117.74502143083
          -620977.7216526408 -607938.0933303585 -594898.4650080763 -1056678.5895208232 -933047.3858805564 -809416.1822402896
          -1355871.3192197226 -1351535.0365634612 -1347198.7539071995 -372590.4106557201 -448082.8516038431 -523575.29255196603
          1581342.329046039 1576660.688514593 1571979.0479831472 1461106.2482129075 1462446.9225118682 1463787.5968108287
          1096629.0112063475 1098464.879494008 1100300.7477816683 181622.8214715562 191921.48256842553 202220.14366529477
          -526282.3301150426 -507733.4312998215 -489184.53248460044 -46551.111710342215 -45840.084844442834 -44937.446508919485
          -44238.00926349398 -43323.78130749674 -42635.93368254512 -30442.783495463085 -23434.210427002876 -31235.801646397507
          -24009.73898057508 -32028.81979733193 -24585.267534147286 6199.714856272345 12172.113567436587 6558.822190648439
          12526.390968312382 6917.92952502453 12880.668369188179 33058.849736357806 40832.86844953418 32947.8130324045
          40862.95068134895 32836.7763284512 40893.03291316371 49655.19424112587 57890.20603224001 49663.209198283854
          57975.21480618593 49671.22415544183 58060.22358013186 58996.44090971825 64468.31394812865 58988.10011557868
          64538.06349558613 58979.759321439094 64607.813043043614 49257.58920786319 54205.885528975574 49282.102502868205
          54290.04814333074 49306.615797873244 54374.21075768591 7784.254891986633 16461.167714380692 7712.297362214674
          16491.673724886004 7640.339832442716 16522.179735391317 -87889.33701139136 -86076.27189417976 -84263.2067769682
          -22995.465194865606 -23671.086872591768 -24346.70855031794 7666.946865127322 7605.849218088946 7544.75157105057
          35028.98043008517 35036.99484540761 35045.00926073005 48135.41039491339 48052.21290705703 47969.015419200674
          60540.45349971697 60605.942866763835 60671.43223381071 43174.15342543803 43332.83389582668 43491.51436621532
          -17168.71826465303 -17206.494653298494 -17244.27104194396 -51811.44177077384 -52559.753335939204 -53308.06490110457
          -28554.150366920043 -27322.8846415514 -26091.61891618277 33543.88175493626 33653.74910540233 33763.616455868396
          50531.66873379532 50724.1114500328 50916.554166270296 57066.90627203821 57048.30023531608 57029.69419859395
          71028.41424683551 71038.50984908565 71048.60545133578 34503.72503185886 34482.54792009006 34461.37080832127
          -62268.90179225069 -62870.615998812995 -63472.330205375314 -30143.892723828954 -37009.12068673504 -43874.348649641135
          18827.09591407277 16524.78825318431 14222.480592295862 46675.66705059268 46970.842546669846 47266.01804274701
          66001.84054792438 65763.99918064098 65526.15781335759 51949.34959877119 51624.32287787872 51299.29615698626
          74802.38015119634 75103.3299443814 75404.27973756648 10721.545897615262 11531.102585673589 12340.659273731908
          -136179.5943390386 -136091.06744235443 -136002.54054567026 -722748.6589546346 -719947.0149340994 -717145.3709135645
          26663.928640821123 23199.73060974567 19735.532578670216 110745.71035081375 110732.74610227234 110719.781853731
          55081.68679858824 56334.898233243046 57588.10966789784 39243.33026866152 38852.69376312124 38462.05725758096
          70553.4309389888 70329.1689791896 70104.9070193904 -49072.910872868626 -49698.83464139877 -50324.75840992891
          -277699.5227975154 -280322.2245247873 -282944.92625205923 -706018.4243171468 -707592.0035509071 -709165.5827846675
          -1371270.5787245997 -1363085.6189846736 -1354900.6592447474 -747573.1806080106 -746187.4933663233 -744801.8061246362
          71222.23826678029 65313.077951634215 59403.917636488135 76194.6080450426 74698.38820863457 73202.16837222656
          2004.0466611633815 1476.5904901771612 949.1343191909391 83576.52668008022 84354.3411864118 85132.15569274333
          -111232.2232059907 -108743.9770372422 -106255.73086849372 -458420.65407774376 -458262.2854456658 -458103.9168135879
          1417512.4651815954 1404147.4012696622 1390782.337357729 135419.92037864643 134135.32820621002 132850.73603377357
          -1506794.7588253466 -1495583.8365993705 -1484372.9143733939 -666824.4382659661 -667241.3598863479 -667658.2815067295
          397960.7687312498 392731.3703977803 387501.9720643108 44347.26170659301 42279.5140796981 40211.76645280318
          42990.8970366165 44071.35791689961 45151.818797182714 -641384.9822275161 -639702.7656084003 -638020.5489892847
          -1283098.9774834174 -1285955.8276715656 -1288812.6778597136 1288169.795115563 1280573.126316653 1272976.457517743
          17614.802669653553 12055.241931885423 6495.681194117293 -2833585.3321182784 -2818480.8856360023 -2803376.4391537253
          -2697982.6425392446 -2686421.570549826 -2674860.4985604077 -106628.88860007568 -110530.72367823421 -114432.55875639274
          332955.25212663814 327265.0643076857 321574.8764887334 546560.891327952 547687.9280709614 548814.9648139706
          -344480.4323133717 -344685.31876958656 -344890.20522580127 -1547448.6951815444 -1555517.4719060522 -1563586.2486305595
          -123925.63428331632 -130855.59446777051 -137785.55465222464 -1617835.5123105673 -1625851.7753854035 -1633868.03846024
          -4115832.4463473493 -4105753.5096688936 -4095674.572990438 -4099993.204538164 -4087945.125722504 -4075897.046906844
          -891239.9987044951 -894676.1184326742 -898112.2381608537 547352.938618375 539124.1614189447 530895.3842195146
          1108290.4510017016 1111186.8739111158 1114083.29682053 463965.1308576826 468433.22914635553 472901.32743502845
          -1071407.861649186 -1074790.2235039538 -1078172.5853587214 -15264.296136561126 -21896.77971265023 -15238.52879821811
          -21891.969590731413 -15212.761459875095 -21887.1594688126 -41653.1253354885 -41474.711620024034 -41296.29790455956
          -75324.5501635407 -75277.00861425641 -75229.46706497211 -123493.69990698699 -122527.32393139508 -121560.94795580316
          -211007.38382844406 -211127.4727117519 -211247.56159505973 -283612.27230265713 -280707.4628384431 -277802.65337422915
          -782816.4582625373 -778785.5362295071 -774754.6141964766 -402567.95786986424 -397401.37631963624 -392234.7947694081
          464171.93696778966 474703.69607527833 485235.45518276724 -26529.715256050065 -29923.43008849487 -26511.58855175504
          -29906.40333579413 -26493.461847460014 -29889.37658309339 -39329.420666871425 -39242.477662829515 -39155.5346587876
          -53663.1072595851 -53598.2144907036 -53533.3217218221 -72431.66499973484 -72027.43116355427 -71623.19732737371
          -101469.08692617588 -101370.42679617913 -101271.7666661824 -119103.56206685567 -118000.36434305155 -116897.16661924744
          -338881.34151263966 -337312.1241829638 -335742.9068532879 510269.11419023975 509680.3003482489 509091.4865062581
          1580153.1492312965 1578682.8034171534 1577212.45760301 -38697.78327138411 -42413.90159037479 -38685.90707715947
          -42418.872822398895 -38674.03088293482 -42423.84405442298 -53118.20892271944 -53170.09348787915 -53221.97805303887
          -70086.8770551642 -70245.64637942702 -70404.41570368987 -93900.97463672052 -94169.95080893493 -94438.92698114931
          -126898.49278113068 -127519.63069206686 -128140.76860300302 -185014.11843596093 -185979.2585392956 -186944.3986426302
          -252310.8796460869 -254527.65949402063 -256744.43934195436 344223.7005722403 339910.580353859 335597.46013547777
          969103.3160278078 963920.2667341661 958737.2174405245 -51206.048490052126 -54828.64328760347 -51199.07321203502
          -54812.57496148474 -51192.09793401792 -54796.506635366015 -65287.44700736759 -65242.7845343919 -65198.122061416216
          -81809.93344188892 -81717.40163382253 -81624.86982575613 -103568.10617515784 -103400.17497162713 -103232.24376809642
          -133197.76898723326 -132896.08956469875 -132594.41014216424 -161670.12930876887 -161240.251507858 -160810.37370694714
          -106651.24196644689 -105678.73027404086 -104706.21858163482 375051.42828121386 377622.3758880278 380193.3234948417
          790820.618456132 794488.8494043602 798157.0803525882 -63139.76257722683 -66860.8433753391 -63136.690091470395
          -66860.33681146165 -63133.61760571395 -66859.83024758422 -77569.09391702016 -77581.88931648411 -77594.68471594805
          -93910.8424700157 -93946.73891844192 -93982.63536686813 -113673.54277829522 -113768.14152054723 -113862.74026279927
          -132489.7575175667 -132614.47203395667 -132739.18655034658 -123597.60984588406 -124006.3171052283 -124415.02436457257
          -9822.290814066648 -10287.99409490219 -10753.697375737727 354916.4095143461 354004.1115665375 353091.8136187291
          623180.0317230427 621577.9208746103 619975.8100261778 -73607.54729564716 -77452.62828275921 -73605.60477153579
          -77449.82414301341 -73603.66224742439 -77447.0200032676 -88340.06115959835 -88338.101088062 -88336.14101652565
          -104069.28257133058 -104064.00047872504 -104058.71838611951 -119743.32257100334 -119750.4563726107 -119757.59017421807
          -123893.83719637213 -123856.90811587832 -123819.9790353845 -84622.0834380363 -84708.08186030333 -84794.08028257036
          52415.18712392643 52584.91848869928 52754.64985347215 333060.7256341304 333610.27070164017 334159.8157691499
          513104.0914884086 513593.2864876273 514082.48148684617 -81731.93971501043 -85693.02111996984 -81730.51488352763
          -85693.04609743101 -81729.0900520448 -85693.07107489221 -96661.78211408106 -96668.8437023184 -96675.90529055573
          -111373.15085472469 -111385.45641586526 -111397.76197700584 -122222.64479367918 -122263.97172411566 -122305.29865455211
          -113273.91231187871 -113294.37687459374 -113314.84143730879 -54080.6868405789 -54252.92979083289 -54425.17274108688
          89825.02109110288 89834.13613569173 89843.25118028058 315530.9968574535 315584.28710614564 315637.5773548378
          444429.952894159 444144.05539862637 443858.1579030937 -86850.0405424034 -90904.07363956128 -86850.25975340464
          -90904.86542285969 -86850.47896440588 -90905.6572061581 -101893.76723806407 -101898.91939463193 -101904.07155119977
          -115672.94005404448 -115679.67029688832 -115686.40053973216 -122822.75942748641 -122854.06431909189 -122885.36921069738
          -105297.5613089521 -105301.43039994671 -105305.29949094131 -35412.95527482674 -35540.5737515895 -35668.19222835226
          109212.6193578864 109287.39515519595 109362.1709525055 303887.2565636592 304080.18302316667 304273.10948267416
          405989.41999350337 405920.1332912996 405850.8465890958 -88595.91415594106 -92684.3217045253 -88596.26999221114
          -92685.31025553559 -88596.6258284812 -92686.2988065459 -103669.3541167962 -103675.09394165005 -103680.83376650391
          -117067.5656900307 -117075.95312145416 -117084.34055287763 -122838.68563320827 -122873.6950016525 -122908.70437009673
          -102356.41368223667 -102365.91432390598 -102375.4149655753 -29133.24052151438 -29266.13645621652 -29399.032390918663
          115264.85735392703 115324.67977705435 115384.50220018165 300044.84970620816 300186.798153858 300328.74660150777
          393898.11215916876 393752.4713641495 393606.83056913014
        </DataArray>
        <DataArray type="Float64" Name="peeq" format="ascii" RangeMin="0" RangeMax="0.0020405799810242027">
          0.001342555757969458 0.001336090028904632 0.001238883490643284 0.0012524094014975955 0.0013422639685082079 0.0013356865166113438
          0.0012386624435975018 0.0012520504725829578 0.0013419721790469575 0.0013352830043180557 0.0012384413965517201 0.00125169154366832
          0.0011667495733080793 0.0012487079512355091 0.001312367825923051 0.0012434626643509348 0.0011669995070433129 0.0012488053486025786
          0.001312066447394745 0.0012432391605126962 0.0011672494407785462 0.0012489027459696477 0.0013117650688664391 0.0012430156566744575
          0.0013118866925706236 0.0012084620122180198 0.0013114556170549182 0.0012083145117043183 0.0013110245415392124 0.0012081670111906168
          0.0013610644681334235 0.001313194709281061 0.0013394490726785118 0.0013608222595026716 0.0013128723922026962 0.0013390286398511182
          0.0013605800508719192 0.0013125500751243312 0.0013386082070237244 0.001012695001640118 0.001051024180162684 0.001138112834273333
          0.0010227234627791502 0.0010137182702295536 0.0010518703654227883 0.0011389892466872568 0.001023778720859732 0.0010147415388189892
          0.0010527165506828927 0.0011398656591011804 0.001024833978940314 0.0010495465422060677 0.001116343391869757 0.0010756108038095938
          0.0010230550538664245 0.0010504168327549561 0.0011171032890949697 0.001076370312952524 0.0010241053460297604 0.0010512871233038447
          0.0011178631863201823 0.0010771298220954544 0.001025155638193096 0.0011748484292700796 0.0012872225114075255 0.0013419456727907584
          0.0011755106506031554 0.0012878700278914548 0.0013420485423170472 0.0011761728719362308 0.001288517544375384 0.001342151411843336
          0.001298005364964034 0.0012978158933958845 0.0012976264218277354 0.001480060225979179 0.0014639552369977342 0.0014802371024683252
          0.001464441335133771 0.0014804139789574714 0.0014649274332698072 0.0011843015363780362 0.0012398873728952098 0.0011842137489775201
          0.0012397440374280844 0.001184125961577004 0.001239600701960959 0.0017315334223416353 0.0018760177868833443 0.001731637044708203
          0.001876066756365351 0.00173174066707477 0.001876115725847358 0.0012148408589498958 0.0013359501787775022 0.0011705052844382703
          0.0010670526374847353 0.0012155974376952849 0.0013368657304169813 0.0011713763167933212 0.001067988225384396 0.0012163540164406741
          0.0013377812820564601 0.0011722473491483723 0.0010689238132840567 0.0017420965530467296 0.0017426955196965567 0.0017432944863463836
          0.0020405799810242027 0.0020402916022814873 0.0020400032235387716 0.0014281604715157663 0.001428129268549113 0.0014280980655824599
          0.0011386589392118032 0.0010783439286407206 0.001138851879811492 0.0010790936911307862 0.001139044820411181 0.0010798434536208519
          0.0016921134405871539 0.0014501780838477227 0.0014118147835604495 0.001678620727048183 0.0016927574034154309 0.0014507204398247551
          0.0014125339393759576 0.0016792968125525598 0.001693401366243708 0.0014512627958017878 0.0014132530951914653 0.0016799728980569362
          0.0010666914900791366 0.0010983691279939862 0.0010672993568842499 0.0010987970434734864 0.0010679072236893636 0.0010992249589529865
          0.0017334163976449868 0.0017341697950687715 0.001734923192492556 0.0011862338565099514 0.0011870165142416384 0.0011877991719733251
          0.001655690990843552 0.0016599444818904173 0.0016566355065281717 0.0016609650616062142 0.0016575800222127914 0.0016619856413220108
          0.0010302837618393595 0.0010340736313912587 0.0010312180353700563 0.0010348090331311426 0.001032152308900753 0.0010355444348710266
          0.0012275866215467133 0.0012878537022193515 0.0012289756221839886 0.0012891141833697311 0.001230364622821264 0.0012903746645201105
          0.0015737681316151675 0.0015745408902204212 0.0015753136488256749 0.0015033121208517784 0.0015038557322034462 0.0015043993435551143
          0.0014414548227918579 0.0014420452050016154 0.0014426355872113727 0.001262406465584042 0.0012637164205533016 0.0012650263755225612
          0.0015009720005817702 0.0015023618579494908 0.0015037517153172108 0.001858288462849759 0.0018393301147042545 0.0018577527209064247
          0.0018389091878816047 0.0018572169789630908 0.001838488261058955 0.0010324992803504374 0.0010333513093705902 0.0010342033383907425
          0.0010203076327223138 0.0010460140366988415 0.0010214369748009183 0.001047154711785122 0.001022566316879523 0.0010482953868714026
          0.001181543994705431 0.0013780861248029442 0.0011826748037789218 0.001379152642248657 0.0011838056128524125 0.00138021915969437
          0.0011050580855953918 0.0010727108106790006 0.0011053336089075498 0.0010733384950726561 0.0011056091322197079 0.0010739661794663114
          0.0013942513137713106 0.0013955591867363506 0.0013968670597013905 0.0017969067854757778 0.001796716352054735 0.001796525918633692
          0.0016650463944928562 0.0016658986657021758 0.0016667509369114953 0.0013615531064198987 0.0015465925328922564 0.0013623690411138526
          0.001547024871190185 0.0013631849758078064 0.0015474572094881136 0.0016250424686800387 0.0016473337962254792 0.0016253027904891597
          0.001647563460017553 0.0016255631122982807 0.0016477931238096269 0.0013602651571024372 0.0012345334441413165 0.0014083897830375245
          0.001361177997425843 0.0012353720982297839 0.0014092563938011002 0.0013620908377492487 0.001236210752318251 0.001410123004564676
          0.001435951455253688 0.0014368171560361779 0.0014376828568186677 0.0011488745480019002 0.0010910884777906489 0.0011502691252920794
          0.001092187301959742 0.0011516637025822591 0.0010932861261288354 0.0011553984577339722 0.0012382831042210011 0.0011560354702110991
          0.00123816139217255 0.0011566724826882258 0.0012380396801240983 0.0012608910148378056 0.0012617932022996616 0.0012626953897615176
          0.001582268114708322 0.0015826300282372982 0.0015829919417662743 0.001050999154734075 0.0010522155395327598 0.0010534319243314444
          0.0010376712732246636 0.0010687210948665737 0.0010383144996899763 0.0010694468064557751 0.0010389577261552888 0.0010701725180449766
          0.0011405164271989002 0.0011413140943708612 0.0011421117615428222 0.0010465173493501832 0.0010475660320042517 0.0010486147146583202
          0.001101039192344196 0.001101912465738933 0.0011027857391336699 0.0010954159549947814 0.001096722589280211 0.0010980292235656405
          0.0012195536138182484 0.0012194018620748327 0.0012192501103314168 0.001347095745094424 0.0013463430522425038 0.0013455903593905835
          0.0009572517675685047 0.0009571793858677251 0.0009571070041669454 0.0011599434505361944 0.0011598422604073596 0.0011597410702785251
          0.001306895548767306 0.0013067976542524525 0.0013066997597375987 0.0013908251512516072 0.0013907622700822255 0.0013906993889128438
          0.0014172450651460987 0.0014172111781301374 0.0014171772911141757 0 0 0
          0 0 0 0 0 0
          0 0 0 0 0 0
          0 0 0 0 0 0
          0 0 0 0 0 0
          0 0 0 0 0 0
          0 0 0 0 0 0
          0 0 0 0 0 0
          0 0 0 0 0 0
          0 0 0 0 0 0
          0 0 0 0 0 0
          0 0 0 0 0 0
          0 0 0 0 0 0
          0 0 0 0 0 0
          0 0 0 0 0 0
          0 0 0 0 0 0
          0 0 0 0 0 0
          0 0 0 0 0 0
          0 0 0 0 0 0
          0 0 0 0 0 0
          0 0 0 0.000015509932230946463 0.000015539514553737924 0.000015569096876529384
          0 0 0 0 0 0
          0 0 0 0 0 0
          0 0 0 0 0 0
          0 0 0 0.00032001904740890466 0.000320045799796356 0.0003200725521838074
          0.00010621308535860016 0.00010630213940345616 0.00010639119344831216 0.000015034576860655156 0.000015085614778968075 0.000015136652697280994
          0 0 0 0 0 0
          0 0 0 0 0 0
          0 0 0 0 0 0
          0.0006443086741541125 0.0006441430034491447 0.000643977332744177 0.00032772726610582915 0.0003277445625176005 0.00032776185892937184
          0.00009077593087369322 0.00009089465013893138 0.00009101336940416954 0.000004046501838618647 0.000004088299831834974 0.000004130097825051302
          0 0 0 0 0 0
          0 0 0 0 0 0
          0 0 0 0.0010437291950268677 0.0010432868117076066 0.0010428444283883454
          0.0006732763490521298 0.0006730710101596973 0.0006728656712672649 0.0002804248460318101 0.00028056200449636215 0.00028069916296091416
          0.000049826307396027564 0.000049955566602553306 0.00005008482580907904 0 0 0
          0 0 0 0 0 0
          0 0 0 0 0 0
          0.0012600512974807292 0.0012594633556913789 0.0012588754139020285 0.0008725044721479085 0.0008721781449836302 0.0008718518178193517
          0.000409366984037544 0.00040950593827279757 0.0004096448925080512 0.00009155961111481783 0.00009173453354143666 0.00009190945596805549
          0 0 0 0 0 0
          0 0 0 0 0 0
          0 0 0 0 0 0
          0 0 0 0 0 0
          0 0 0 0 0 0
          0 0 0 0 0 0
          0 0 0 0 0 0
          0 0 0 0 0 0
          0 0 0 0 0 0
          0 0 0 0 0 0
          0 0 0 0 0 0
          0 0 0 0 0 0
          0 0 0 0 0 0
          0 0 0 0 0 0
          0 0 0 0 0 0
          0 0 0 0 0 0
          0 0 0 0 0 0
          0 0 0 0 0 0
          0 0 0 0 0 0
          0 0 0 0 0 0
          0 0 0 0 0 0
          0 0 0 0 0 0
          0 0 0 0 0 0
          0 0 0 0 0 0
          0 0 0 0 0 0
          0 0 0 0 0 0
          0 0 0 0 0 0
          0 0 0 0 0 0
          0 0 0 0 0 0
          0 0 0 0 0 0
          0 0 0 0 0 0
          0 0 0 0 0 0
          0 0 0 0 0 0
          0 0 0 0 0 0
          0 0 0 0 0 0
          0 0 0 0 0 0
          0 0 0 0 0 0
          0 0 0 0 0 0
          0 0 0 0 0 0
          0 0 0 0 0 0
          0 0 0 0 0 0
          0 0 0 0 0 0
          0 0 0 0 0 0
          0 0 0 0 0 0
          0 0 0 0 0 0
          0 0 0 0 0 0
          0 0 0 0 0 0
          0 0 0
        </DataArray>
        <DataArray type="Float64" Name="pe11" format="ascii" RangeMin="0" RangeMax="0.0020403900719128116">
          0.0013424831605536366 0.0013360408789435296 0.0012388199491247232 0.0012523461647627643 0.001342190841632063 0.0013356366428651173
          0.001238598190292764 0.0012519868248842166 0.0013418985227104895 0.0013352324067867048 0.001238376431460805 0.0012516274850056693
          0.001166687025860227 0.0012486056285201297 0.001312211723953317 0.0012433702415516 0.001166936873278239 0.001248701318319697
          0.0013119082676673185 0.0012431460410729526 0.0011671867206962511 0.0012487970081192647 0.00131160481138132 0.0012429218405943048
          0.0013117925720589907 0.0012083823267152148 0.001311360951219852 0.0012082344611237972 0.0013109293303807134 0.00120808659553238
          0.0013608146368075044 0.0013129322133223643 0.0013393021941372504 0.0013605683909586597 0.0013126065957540095 0.0013388802781632771
          0.0013603221451098148 0.0013122809781856545 0.0013384583621893038 0.0010126378669325499 0.001050959225814499 0.0011380312814386155
          0.0010226491162993638 0.0010136588837384496 0.0010518050943438232 0.0011389069190799227 0.0010237024834346634 0.0010146799005443493
          0.0010526509628731478 0.0011397825567212294 0.0010247558505699634 0.0010495143402537129 0.0011163166436442295 0.0010755690896341796
          0.0010230060781812014 0.0010503841454386495 0.0011170761541749344 0.001076328302595494 0.001024054413484946 0.0010512539506235862
          0.0011178356647056392 0.001077087515556808 0.0010251027487886912 0.0011747834295476925 0.001287088033825681 0.0013417729493941397
          0.0011754439885411877 0.0012877327282312626 0.0013418721191916319 0.0011761045475346828 0.0012883774226368446 0.0013419712889891238
          0.0012978377563582942 0.0012976472373236727 0.0012974567182890509 0.0014797348745932053 0.0014636945626881623 0.0014799054820659068
          0.0014641776601719044 0.0014800760895386086 0.0014646607576556461 0.0011839503088374444 0.0012394579021094542 0.001183860547760824
          0.001239309479422791 0.001183770786684204 0.0012391610567361276 0.0017313737928664763 0.0018757691956363793 0.0017314773262493942
          0.0018758182285659166 0.0017315808596323125 0.001875867261495454 0.001214701306507855 0.001335765234668134 0.00117038753880303
          0.0010669534411673746 0.0012154570829988843 0.0013366796698795155 0.0011712580663279834 0.001067887679202453 0.0012162128594899139
          0.0013375941050908966 0.0011721285938529366 0.0010688219172375313 0.0017417243505937288 0.0017423164908097655 0.0017429086310258024
          0.0020403900719128116 0.0020401012215748625 0.0020398123712369134 0.001427766942515408 0.0014277282676038467 0.0014276895926922852
          0.0011385931350646058 0.0010782923087927722 0.0011387859107941677 0.0010790421262269908 0.0011389786865237297 0.0010797919436612094
          0.0016917751962729343 0.001450002496312342 0.0014116348628430218 0.0016783257751687363 0.0016924151457500393 0.0014505409383773614
          0.0014123518806384453 0.001678999354562386 0.0016930550952271438 0.0014510793804423808 0.0014130688984338685 0.0016796729339560357
          0.0010666289335415939 0.0010983110094136355 0.001067234574045908 0.0010987366926178779 0.0010678402145502224 0.0010991623758221205
          0.0017332150391714315 0.001733969235070338 0.0017347234309692443 0.001186197387388695 0.001186979284231659 0.0011877611810746228
          0.001655497085845447 0.001659803224348908 0.0016564397164924231 0.0016608231156020855 0.0016573823471393993 0.0016618430068552628
          0.001030235514434411 0.0010340427403387306 0.001031166506037246 0.0010347759343239127 0.001032097497640081 0.0010355091283090947
          0.0012274978979254377 0.0012877676625777034 0.0012288874211683813 0.0012890277395922582 0.0012302769444113247 0.0012902878166068125
          0.0015735393167031595 0.001574311728800647 0.001575084140898134 0.0015030805355424658 0.0015036205327989861 0.0015041605300555067
          0.0014412735536759014 0.0014418637454366562 0.0014424539371974106 0.0012622891377227694 0.0012635975114405579 0.001264905885158346
          0.0015007934366728908 0.0015021826440578113 0.0015035718514427318 0.0018582651536690475 0.0018393063410548924 0.0018577283268648966
          0.0018388846447782057 0.0018571915000607456 0.001838462948501519 0.0010324414601524366 0.001033291841978729 0.0010341422238050214
          0.001020246544219605 0.0010459541381396867 0.0010213746523468632 0.0010470932635682898 0.0010225027604741214 0.001048232388996893
          0.0011814545938571216 0.0013779122776819512 0.0011825859211852684 0.0013789787135405289 0.0011837172485134149 0.0013800451493991063
          0.0011050061282521716 0.0010726711840977916 0.0011052791447031327 0.0010732965758853776 0.001105552161154094 0.001073921967672964
          0.0013940906473345152 0.0013953982165091558 0.001396705785683796 0.0017968685954639263 0.0017966778978741654 0.0017964872002844048
          0.0016647861743543427 0.0016656365159149439 0.001666486857475545 0.0013614544816693164 0.0015464881857860746 0.0013622702904773623
          0.0015469215390091107 0.0013630860992854081 0.0015473548922321468 0.0016250069183818556 0.0016472990078865628 0.0016252668098291725
          0.0016475281894943333 0.001625526701276489 0.0016477573711021038 0.0013602187555817118 0.0012345063680125415 0.0014083522750069934
          0.0013611310679189608 0.0012353445262940712 0.0014092184998202484 0.0013620433802562098 0.0012361826845756008 0.001410084724633503
          0.001435917486817756 0.0014367829411707559 0.0014376483955237556 0.0011488020081329348 0.0010910313555781057 0.0011501953613132045
          0.0010921284049229473 0.0011515887144934742 0.0010932254542677892 0.0011553349993428728 0.0012382231014035055 0.0011559718273607055
          0.0012381012574084413 0.0011566086553785378 0.0012379794134133766 0.0012608626509023843 0.0012617644855368007 0.0012626663201712172
          0.0015822139535300705 0.001582576112262062 0.0015829382709940532 0.0010509516070947725 0.0010521673978863355 0.0010533831886778988
          0.0010376508170860269 0.0010687012086498565 0.0010382926245422158 0.0010694264991277722 0.0010389344319984045 0.0010701517896056876
          0.0011404912478713805 0.0011412884311077466 0.0011420856143441124 0.0010464899392494944 0.0010475369764912528 0.0010485840137330117
          0.0011009907110785984 0.0011018631226354869 0.0011027355341923753 0.0010953719852836007 0.0010966793099992675 0.0010979866347149343
          0.0012195101598483139 0.0012193588488110373 0.0012192075377737606 0.001347067249597719 0.0013463138252561818 0.0013455604009146444
          0.0009563704379562093 0.0009562969100426017 0.0009562233821289942 0.0011593897448082234 0.001159287236073294 0.0011591847273383648
          0.0013066349524177702 0.001306535800918491 0.0013064366494192116 0.0013907329128997467 0.0013906689447555473 0.001390604976611348
          0.001417205332444272 0.0014171705444768863 0.0014171357565095004 0 0 0
          0 0 0 0 0 0
          0 0 0 0 0 0
          0 0 0 0 0 0
          0 0 0 0 0 0
          0 0 0 0 0 0
          0 0 0 0 0 0
          0 0 0 0 0 0
          0 0 0 0 0 0
          0 0 0 0 0 0
          0 0 0 0 0 0
          0 0 0 0 0 0
          0 0 0 0 0 0
          0 0 0 0 0 0
          0 0 0 0 0 0
          0 0 0 0 0 0
          0 0 0 0 0 0
          0 0 0 0 0 0
          0 0 0 0 0 0
          0 0 0 0 0 0
          0 0 0 0.000015257906267702252 0.000015287196122873466 0.000015316485978044682
          0 0 0 0 0 0
          0 0 0 0 0 0
          0 0 0 0 0 0
          0 0 0 0.0003165242992197723 0.00031655031101669555 0.0003165763228136187
          0.00010435727822087875 0.00010444608028436395 0.00010453488234784912 0.000014686748881081387 0.00001473724545079654 0.000014787742020511691
          0 0 0 0 0 0
          0 0 0 0 0 0
          0 0 0 0 0 0
          0.0006380937422262904 0.0006379262030502909 0.0006377586638742915 0.00032145262951621103 0.00032147246636176274 0.0003214923032073145
          0.0000880444282234281 0.00008816338716722419 0.00008828234611102029 0.000003868994972212797 0.000003909284264359926 0.000003949573556507056
          0 0 0 0 0 0
          0 0 0 0 0 0
          0 0 0 0.0010345676107581137 0.0010341191025561517 0.0010336705943541898
          0.0006584484630511229 0.0006582501504926766 0.00065805183793423 0.0002688858157900094 0.00026902846251274055 0.00026917110923547176
          0.00004651486097266772 0.00004664265330852327 0.00004677044564437882 0 0 0
          0 0 0 0 0 0
          0 0 0 0 0 0
          0.0012492237923628535 0.0012486270929850812 0.0012480303936073089 0.0008521904109761769 0.0008518731365848084 0.0008515558621934398
          0.0003910562728953254 0.0003912046415926259 0.00039135301028992635 0.00008529173200090984 0.00008546673808832669 0.00008564174417574353
          0 0 0 0 0 0
          0 0 0 0 0 0
          0 0 0 0 0 0
          0 0 0 0 0 0
          0 0 0 0 0 0
          0 0 0 0 0 0
          0 0 0 0 0 0
          0 0 0 0 0 0
          0 0 0 0 0 0
          0 0 0 0 0 0
          0 0 0 0 0 0
          0 0 0 0 0 0
          0 0 0 0 0 0
          0 0 0 0 0 0
          0 0 0 0 0 0
          0 0 0 0 0 0
          0 0 0 0 0 0
          0 0 0 0 0 0
          0 0 0 0 0 0
          0 0 0 0 0 0
          0 0 0 0 0 0
          0 0 0 0 0 0
          0 0 0 0 0 0
          0 0 0 0 0 0
          0 0 0 0 0 0
          0 0 0 0 0 0
          0 0 0 0 0 0
          0 0 0 0 0 0
          0 0 0 0 0 0
          0 0 0 0 0 0
          0 0 0 0 0 0
          0 0 0 0 0 0
          0 0 0 0 0 0
          0 0 0 0 0 0
          0 0 0 0 0 0
          0 0 0 0 0 0
          0 0 0 0 0 0
          0 0 0 0 0 0
          0 0 0 0 0 0
          0 0 0 0 0 0
          0 0 0 0 0 0
          0 0 0 0 0 0
          0 0 0 0 0 0
          0 0 0 0 0 0
          0 0 0 0 0 0
          0 0 0 0 0 0
          0 0 0 0 0 0
          0 0 0
        </DataArray>
        <DataArray type="Float64" Name="pe22" format="ascii" RangeMin="-0.0010265353425166156" RangeMax="0">
          -0.0006663678213635067 -0.0006670124570699211 -0.0006193342345687706 -0.0006233128690782212 -0.0006663510819149324 -0.0006668934047172737
          -0.0006192723282507466 -0.0006232098492176629 -0.0006663343424663582 -0.000666774352364626 -0.0006192104219327225 -0.0006231068293571044
          -0.0005839205012899064 -0.0006214411934038421 -0.0006495572170879748 -0.0006181303840307555 -0.0005838864964909404 -0.0006214316955909689
          -0.000649497312509557 -0.0006180524693218994 -0.0005838524916919744 -0.0006214221977780957 -0.0006494374079311391 -0.0006179745546130432
          -0.0006501447178159643 -0.0006016338780329798 -0.0006500461563527759 -0.0006015384975956502 -0.0006499475948895874 -0.0006014431171583207
          -0.0006716252231369673 -0.0006477460757658997 -0.000661808320279124 -0.0006715930964889793 -0.000647715603676395 -0.000661745993566802
          -0.0006715609698409915 -0.0006476851315868904 -0.00066168366685448 -0.0005079419285349007 -0.0005287603749123456 -0.000570183288475137
          -0.0005124415314919919 -0.0005081050862456856 -0.0005288635472722219 -0.0005703122519121328 -0.0005126315524001326 -0.0005082682439564705
          -0.0005289667196320982 -0.0005704412153491286 -0.0005128215733082735 -0.0005258216582977033 -0.0005581078920349511 -0.0005396035037926881
          -0.000513173471427001 -0.0005259661186430386 -0.000558207325007281 -0.0005396696699371042 -0.0005133269063641985 -0.0005261105789883739
          -0.0005583067579796108 -0.0005397358360815202 -0.0005134803413013961 -0.0005867107051638526 -0.0006391927286185147 -0.0006643929749675548
          -0.000586742898514254 -0.0006391973407489498 -0.0006643730509905367 -0.0005867750918646553 -0.0006392019528793849 -0.0006643531270135185
          -0.0006417859329840817 -0.0006418188624880167 -0.0006418517919919517 -0.000729173339799839 -0.0007237182374704765 -0.0007291765931213819
          -0.0007236848776015277 -0.0007291798464429248 -0.000723651517732579 -0.0005834177586577152 -0.0006106526456211627 -0.0005834741783353405
          -0.0006106758832029144 -0.0005835305980129658 -0.0006106991207846662 -0.0008682231199022547 -0.0009425587952162653 -0.0008683875461330193
          -0.000942777204017744 -0.0008685519723637839 -0.0009429956128192229 -0.0006080730237215216 -0.0006689709906290712 -0.0005879242651472838
          -0.000534588363966389 -0.0006081843398154236 -0.0006691332196808618 -0.000588029057057113 -0.0005347394237334123 -0.0006082956559093257
          -0.0006692954487326521 -0.0005881338489669423 -0.0005348904835004353 -0.0008745889756015435 -0.0008744192771842459 -0.0008742495787669483
          -0.0010261945977260427 -0.0010263649701213293 -0.0010265353425166156 -0.0007019722379013616 -0.0007020061496015916 -0.0007020400613018214
          -0.0005689445086862126 -0.000541247085514561 -0.0005688789036100278 -0.0005412924545770615 -0.0005688132985338431 -0.0005413378236395619
          -0.0008526544979385108 -0.0007263777999046513 -0.0007090961001124036 -0.0008462854899143995 -0.0008525752067415795 -0.0007262602083319291
          -0.0007090726958323435 -0.0008462677914938909 -0.0008524959155446483 -0.000726142616759207 -0.0007090492915522834 -0.0008462500930733821
          -0.0005323739005390989 -0.0005479490597190863 -0.0005324358335709631 -0.0005480024432213127 -0.0005324977666028273 -0.0005480558267235394
          -0.0008684647048573155 -0.0008687279484537604 -0.0008689911920502053 -0.000593240456666339 -0.0005932733903175073 -0.0005933063239686756
          -0.0008283371835262547 -0.0008289981965461148 -0.000828389094026185 -0.0008291391337032305 -0.0008284410045261152 -0.0008292800708603462
          -0.0005164948315063638 -0.000518208658080752 -0.0005165585443800964 -0.0005182315923451239 -0.0005166222572538291 -0.0005182545266094957
          -0.0006165456866553129 -0.000644641962097393 -0.0006166755356151238 -0.0006447119437364784 -0.0006168053845749347 -0.0006447819253755637
          -0.0007878284825745199 -0.0007880488720217881 -0.0007882692614690562 -0.0007489184984678179 -0.0007487756239835087 -0.0007486327494991994
          -0.0007214272629459797 -0.0007214949106236832 -0.0007215625583013864 -0.0006297768415016171 -0.0006298954424239952 -0.0006300140433463734
          -0.0007509214459450614 -0.0007512514356536802 -0.0007515814253622991 -0.0009292679621458583 -0.0009194279936831181 -0.0009293101516010171
          -0.0009195660507262129 -0.000929352341056176 -0.0009197041077693076 -0.0005164513458667619 -0.0005165398879626135 -0.0005166284300584653
          -0.0005110434755230273 -0.0005248375970785486 -0.0005112259495314218 -0.0005250407852072828 -0.0005114084235398166 -0.000525243973336017
          -0.0005945095717358415 -0.0006937200332176034 -0.0005946331565419272 -0.0006938013031680374 -0.000594756741348013 -0.0006938825731184715
          -0.0005527451463338146 -0.0005373515932359387 -0.000552707561601169 -0.0005373884285614081 -0.0005526699768685236 -0.0005374252638868775
          -0.0007006722920279765 -0.0007008783488833517 -0.000701084405738727 -0.0008983374463848546 -0.0008985888720706311 -0.0008988402977564076
          -0.0008365381806042487 -0.0008365458892009089 -0.0008365535977975691 -0.0006826969258526693 -0.0007765128248636398 -0.0006827581200467268
          -0.0007765299278987649 -0.0006828193142407845 -0.0007765470309338902 -0.0008132947892955152 -0.0008242632902079779 -0.0008134878531131562
          -0.0008244490972406413 -0.0008136809169307974 -0.0008246349042733045 -0.0006816114643654372 -0.0006167420674247181 -0.000704531147703864
          -0.0006817113214813087 -0.0006168349030925696 -0.0007047436040696174 -0.0006818111785971801 -0.0006169277387604211 -0.0007049560604353708
          -0.0007177344767569909 -0.0007180168240011032 -0.0007182991712452153 -0.000575790224172437 -0.0005479248991279106 -0.0005759427078992315
          -0.0005480578478712646 -0.0005760951916260259 -0.0005481907966146187 -0.0005787072245651149 -0.0006199896595690688 -0.0005789440740862088
          -0.0006199782085853975 -0.0005791809236073026 -0.0006199667576017263 -0.000629686953784784 -0.0006298501537293388 -0.0006300133536738936
          -0.0007931115479168148 -0.0007932475306921804 -0.0007933835134675457 -0.0005286511975625981 -0.000528846417364716 -0.0005290416371668336
          -0.0005189481858442733 -0.0005337663421658722 -0.0005190305791968281 -0.0005339642971282981 -0.0005191129725493826 -0.000534162252090724
          -0.0005695240148751353 -0.0005696704613878368 -0.0005698169079005383 -0.0005238810941290565 -0.0005240803124413205 -0.0005242795307535847
          -0.0005528795136283795 -0.0005529712361809926 -0.0005530629587336057 -0.0005478195701947348 -0.0005483337165951774 -0.0005488478629956202
          -0.0006103210258461551 -0.0006103119281239626 -0.00061030283040177 -0.0006736322428367426 -0.0006733194225097318 -0.0006730066021827207
          -0.0004632223037338906 -0.0004632490683148372 -0.00046327583289578367 -0.0005674340595059651 -0.0005674722259653578 -0.0005675103924247507
          -0.0006452753652420373 -0.0006453212682039889 -0.0006453671711659406 -0.0006913234595202709 -0.0006913468471892623 -0.0006913702348582538
          -0.0007063465169388583 -0.0007063513541862805 -0.0007063561914337027 0 0 0
          0 0 0 0 0 0
          0 0 0 0 0 0
          0 0 0 0 0 0
          0 0 0 0 0 0
          0 0 0 0 0 0
          0 0 0 0 0 0
          0 0 0 0 0 0
          0 0 0 0 0 0
          0 0 0 0 0 0
          0 0 0 0 0 0
          0 0 0 0 0 0
          0 0 0 0 0 0
          0 0 0 0 0 0
          0 0 0 0 0 0
          0 0 0 0 0 0
          0 0 0 0 0 0
          0 0 0 0 0 0
          0 0 0 0 0 0
          0 0 0 0 0 0
          0 0 0 -0.0000061019932825374815 -0.000006110131106556947 -0.000006118268930576413
          0 0 0 0 0 0
          0 0 0 0 0 0
          0 0 0 0 0 0
          0 0 0 -0.00013591388488663845 -0.00013590771680786534 -0.0001359015487290923
          -0.00004308572541564243 -0.000043108680269827544 -0.00004313163512401266 -0.000005984439150653327 -0.000006002434168824747 -0.000006020429186996167
          0 0 0 0 0 0
          0 0 0 0 0 0
          0 0 0 0 0 0
          -0.0002856138544772882 -0.00028553706159043456 -0.000285460268703581 -0.00013918143058367334 -0.00013916528043029085 -0.00013914913027690838
          -0.00003750027707292862 -0.00003753654143375431 -0.000037572805794579986 -0.00000163934830450384 -0.0000016556177789069993 -0.0000016718872533101588
          0 0 0 0 0 0
          0 0 0 0 0 0
          0 0 0 -0.000482077062284997 -0.0004818480531330481 -0.00048161904398109917
          -0.0002985870030259996 -0.0002984515670404982 -0.00029831613105499674 -0.00011930822607441858 -0.0001193294877017822 -0.00011935074932914584
          -0.0000202476974094498 -0.00002029223379417712 -0.00002033677017890444 0 0 0
          0 0 0 0 0 0
          0 0 0 0 0 0
          -0.0005905336183672615 -0.0005902089488345802 -0.0005898842793018987 -0.00039277860915086244 -0.00039256967154695585 -0.0003923607339430492
          -0.00017558477630428657 -0.00017559076087370529 -0.00017559674544312403 -0.00003721669820989192 -0.00003727323203054024 -0.000037329765851188566
          0 0 0 0 0 0
          0 0 0 0 0 0
          0 0 0 0 0 0
          0 0 0 0 0 0
          0 0 0 0 0 0
          0 0 0 0 0 0
          0 0 0 0 0 0
          0 0 0 0 0 0
          0 0 0 0 0 0
          0 0 0 0 0 0
          0 0 0 0 0 0
          0 0 0 0 0 0
          0 0 0 0 0 0
          0 0 0 0 0 0
          0 0 0 0 0 0
          0 0 0 0 0 0
          0 0 0 0 0 0
          0 0 0 0 0 0
          0 0 0 0 0 0
          0 0 0 0 0 0
          0 0 0 0 0 0
          0 0 0 0 0 0
          0 0 0 0 0 0
          0 0 0 0 0 0
          0 0 0 0 0 0
          0 0 0 0 0 0
          0 0 0 0 0 0
          0 0 0 0 0 0
          0 0 0 0 0 0
          0 0 0 0 0 0
          0 0 0 0 0 0
          0 0 0 0 0 0
          0 0 0 0 0 0
          0 0 0 0 0 0
          0 0 0 0 0 0
          0 0 0 0 0 0
          0 0 0 0 0 0
          0 0 0 0 0 0
          0 0 0 0 0 0
          0 0 0 0 0 0
          0 0 0 0 0 0
          0 0 0 0 0 0
          0 0 0 0 0 0
          0 0 0 0 0 0
          0 0 0 0 0 0
          0 0 0 0 0 0
          0 0 0 0 0 0
          0 0 0
        </DataArray>
        <DataArray type="Float64" Name="pe33" format="ascii" RangeMin="-0.001014195474186769" RangeMax="0">
          -0.0006761153391901295 -0.0006690284218736082 -0.0006194857145559523 -0.0006290332956845429 -0.0006758397597171304 -0.0006687432381478435
          -0.0006193258620420174 -0.0006287769756665537 -0.0006755641802441313 -0.0006684580544220789 -0.0006191660095280824 -0.0006285206556485646
          -0.0005827665245703205 -0.0006271644351162876 -0.0006626545068653422 -0.0006252398575208444 -0.0005830503767872985 -0.000627269622728728
          -0.0006624109551577614 -0.0006250935717510527 -0.0005833342290042765 -0.0006273748103411687 -0.0006621674034501806 -0.0006249472859812612
          -0.000661647854243026 -0.0006067484486822348 -0.0006613147948670759 -0.0006066959635281469 -0.0006609817354911258 -0.0006066434783740591
          -0.000689189413670537 -0.0006651861375564646 -0.0006774938738581264 -0.0006889752944696802 -0.0006648909920776144 -0.000677134284596475
          -0.0006887611752688233 -0.000664595846598764 -0.0006767746953348236 -0.0005046959383976491 -0.0005221988509021533 -0.0005678479929634784
          -0.0005102075848073715 -0.0005055537974927638 -0.0005229415470716013 -0.0005685946671677898 -0.0005110709310345307 -0.0005064116565878786
          -0.0005236842432410494 -0.0005693413413721008 -0.0005119342772616896 -0.0005236926819560095 -0.0005582087516092782 -0.0005359655858414914
          -0.0005098326067542004 -0.0005244180267956108 -0.0005588688291676532 -0.0005366586326583896 -0.0005107275071207476 -0.000525143371635212
          -0.0005595289067260282 -0.0005373516794752877 -0.000511622407487295 -0.0005880727243838397 -0.0006478953052071665 -0.0006773799744265849
          -0.0005887010900269335 -0.0006485353874823129 -0.000677499068201095 -0.0005893294556700272 -0.0006491754697574594 -0.0006776181619756051
          -0.0006560518233742124 -0.0006558283748356558 -0.0006556049262970992 -0.0007505615347933661 -0.0007399763252176857 -0.0007507288889445247
          -0.0007404927825703764 -0.0007508962430956836 -0.0007410092399230668 -0.0006005325501797292 -0.0006288052564882913 -0.0006003863694254838
          -0.0006286335962198764 -0.0006002401886712381 -0.0006284619359514614 -0.0008631506729642212 -0.0009332104004201138 -0.0008630897801163749
          -0.0009330410245481724 -0.0008630288872685287 -0.0009328716486762313 -0.0006066282827863331 -0.0006667942440390625 -0.000582463273655746
          -0.0005323650772009854 -0.0006072727431834606 -0.0006675464501986534 -0.0005832290092708701 -0.0005331482554690406 -0.0006079172035805882
          -0.0006682986563582446 -0.000583994744885994 -0.0005339314337370957 -0.0008671353749921853 -0.0008678972136255196 -0.0008686590522588539
          -0.001014195474186769 -0.0010137362514535332 -0.0010132770287202973 -0.0007257947046140462 -0.000725722118002255 -0.0007256495313904638
          -0.0005696486263783929 -0.0005370452232782109 -0.0005699070071841397 -0.000537749671649929 -0.0005701653879898866 -0.0005384541200216472
          -0.0008391206983344234 -0.0007236246964076905 -0.0007025387627306182 -0.0008320402852543367 -0.0008398399390084595 -0.0007242807300454323
          -0.0007032791848061016 -0.000832731563068495 -0.0008405591796824955 -0.0007249367636831738 -0.0007040196068815851 -0.0008334228408826533
          -0.0005342550330024949 -0.0005503619496945493 -0.0005347987404749449 -0.000550734249396565 -0.0005353424479473948 -0.0005511065490985807
          -0.0008647503343141157 -0.0008652412866165774 -0.000865732238919039 -0.0005929569307223559 -0.0005937058939141516 -0.0005944548571059472
          -0.0008271599023191921 -0.000830805027802793 -0.0008280506224662379 -0.0008316839818988548 -0.0008289413426132839 -0.0008325629359949167
          -0.0005137406829280473 -0.0005158340822579786 -0.0005146079616571495 -0.0005165443419787888 -0.0005154752403862518 -0.0005172546016995989
          -0.0006109522112701248 -0.0006431257004803104 -0.0006122118855532573 -0.0006443157958557796 -0.00061347155983639 -0.0006455058912312488
          -0.0007857108341286393 -0.0007862628567788585 -0.0007868148794290778 -0.0007541620370746477 -0.0007548449088154773 -0.0007555277805563067
          -0.0007198462907299214 -0.0007203688348129729 -0.0007208913788960243 -0.0006325122962211521 -0.0006337020690165624 -0.0006348918418119725
          -0.0007498719907278294 -0.0007509312084041309 -0.0007519904260804325 -0.0009289971915231892 -0.0009198783473717742 -0.0009284181752638796
          -0.0009193185940519926 -0.0009278391590045697 -0.0009187588407322113 -0.0005159901142856746 -0.0005167519540161152 -0.000517513793746556
          -0.0005092030686965776 -0.000521116541061138 -0.000510148702815441 -0.0005220524783610068 -0.0005110943369343044 -0.0005229884156608756
          -0.0005869450221212802 -0.000684192244464348 -0.000587952764643341 -0.0006851774103724914 -0.0005889605071654018 -0.0006861625762806349
          -0.000552260981918357 -0.0005353195908618527 -0.0005525715831019637 -0.0005359081473239695 -0.0005528821842855704 -0.0005364967037860863
          -0.0006934183553065384 -0.0006945198676258039 -0.0006956213799450692 -0.0008985311490790715 -0.0008980890258035342 -0.000897646902527997
          -0.000828247993750094 -0.0008290906267140347 -0.0008299332596779754 -0.0006787575558166469 -0.0007699753609224343 -0.0006795121704306353
          -0.0007703916111103455 -0.0006802667850446234 -0.0007708078612982568 -0.0008117121290863405 -0.000823035717678585 -0.0008117789567160161
          -0.0008230790922536921 -0.0008118457843456918 -0.0008231224668287993 -0.0006786072912162745 -0.0006177643005878231 -0.0007038211273031292
          -0.000679419746437652 -0.0006185096232015014 -0.0007044748957506308 -0.0006802322016590297 -0.0006192549458151797 -0.0007051286641981322
          -0.000718183010060765 -0.0007187661171696525 -0.0007193492242785401 -0.0005730117839604978 -0.0005431064564501951 -0.0005742526534139729
          -0.0005440705570516826 -0.0005754935228674481 -0.0005450346576531702 -0.0005766277747777578 -0.0006182334418344364 -0.0005770277532744966
          -0.0006181230488230433 -0.0005774277317712353 -0.0006180126558116504 -0.0006311756971176003 -0.0006319143318074618 -0.0006326529664973234
          -0.0007891024056132553 -0.0007893285815698814 -0.0007895547575265075 -0.0005223004095321742 -0.0005233209805216195 -0.0005243415515110648
          -0.0005187026312417535 -0.0005349348664839842 -0.0005192620453453876 -0.0005354622019994738 -0.0005198214594490218 -0.0005359895375149635
          -0.0005709672329962452 -0.0005716179697199096 -0.0005722687064435739 -0.000522608845120438 -0.0005234566640499323 -0.0005243044829794266
          -0.0005481111974502187 -0.0005488918864544939 -0.0005496725754587693 -0.000547552415088866 -0.00054834559340409 -0.0005491387717193139
          -0.0006091891340021587 -0.0006090469206870746 -0.0006089047073719905 -0.0006734350067609762 -0.00067299440274645 -0.0006725537987319237
          -0.0004931481342223187 -0.0004930478417277647 -0.0004929475492332104 -0.0005919556853022582 -0.0005918150101079362 -0.0005916743349136141
          -0.0006613595871757328 -0.0006612145327145019 -0.000661069478253271 -0.0006994094533794757 -0.000699322097566285 -0.0006992347417530942
          -0.0007108588155054134 -0.0007108191902906057 -0.0007107795650757979 0 0 0
          0 0 0 0 0 0
          0 0 0 0 0 0
          0 0 0 0 0 0
          0 0 0 0 0 0
          0 0 0 0 0 0
          0 0 0 0 0 0
          0 0 0 0 0 0
          0 0 0 0 0 0
          0 0 0 0 0 0
          0 0 0 0 0 0
          0 0 0 0 0 0
          0 0 0 0 0 0
          0 0 0 0 0 0
          0 0 0 0 0 0
          0 0 0 0 0 0
          0 0 0 0 0 0
          0 0 0 0 0 0
          0 0 0 0 0 0
          0 0 0 0 0 0
          0 0 0 -0.000009155912985164769 -0.000009177065016316517 -0.000009198217047468266
          0 0 0 0 0 0
          0 0 0 0 0 0
          0 0 0 0 0 0
          0 0 0 -0.00018061041433313382 -0.00018064259420883015 -0.00018067477408452643
          -0.00006127155280523632 -0.00006133740001453637 -0.00006140324722383644 -0.000008702309730428057 -0.00000873481128197179 -0.00000876731283351552
          0 0 0 0 0 0
          0 0 0 0 0 0
          0 0 0 0 0 0
          -0.000352479887749002 -0.00035238914145985624 -0.0003522983951707104 -0.0001822711989325377 -0.00018230718593147187 -0.00018234317293040606
          -0.00005054415115049948 -0.00005062684573346989 -0.0000507095403164403 -0.0000022296466677089566 -0.0000022536664854529267 -0.0000022776863031968972
          0 0 0 0 0 0
          0 0 0 0 0 0
          0 0 0 -0.0005524905484731166 -0.0005522710494231035 -0.0005520515503730904
          -0.00035986146002512336 -0.00035979858345217827 -0.0003597357068792332 -0.0001495775897155908 -0.00014969897481095833 -0.00014982035990632582
          -0.000026267163563217916 -0.00002635041951434615 -0.000026433675465474382 0 0 0
          0 0 0 0 0 0
          0 0 0 0 0 0
          -0.000658690173995592 -0.000658418144150501 -0.0006581461143054099 -0.00045941180182531443 -0.0004593034650378525 -0.00045919512825039053
          -0.00021547149659103875 -0.00021561388071892045 -0.00021575626484680215 -0.00004807503379101792 -0.000048193506057786446 -0.00004831197832455497
          0 0 0 0 0 0
          0 0 0 0 0 0
          0 0 0 0 0 0
          0 0 0 0 0 0
          0 0 0 0 0 0
          0 0 0 0 0 0
          0 0 0 0 0 0
          0 0 0 0 0 0
          0 0 0 0 0 0
          0 0 0 0 0 0
          0 0 0 0 0 0
          0 0 0 0 0 0
          0 0 0 0 0 0
          0 0 0 0 0 0
          0 0 0 0 0 0
          0 0 0 0 0 0
          0 0 0 0 0 0
          0 0 0 0 0 0
          0 0 0 0 0 0
          0 0 0 0 0 0
          0 0 0 0 0 0
          0 0 0 0 0 0
          0 0 0 0 0 0
          0 0 0 0 0 0
          0 0 0 0 0 0
          0 0 0 0 0 0
          0 0 0 0 0 0
          0 0 0 0 0 0
          0 0 0 0 0 0
          0 0 0 0 0 0
          0 0 0 0 0 0
          0 0 0 0 0 0
          0 0 0 0 0 0
          0 0 0 0 0 0
          0 0 0 0 0 0
          0 0 0 0 0 0
          0 0 0 0 0 0
          0 0 0 0 0 0
          0 0 0 0 0 0
          0 0 0 0 0 0
          0 0 0 0 0 0
          0 0 0 0 0 0
          0 0 0 0 0 0
          0 0 0 0 0 0
          0 0 0 0 0 0
          0 0 0 0 0 0
          0 0 0 0 0 0
          0 0 0
        </DataArray>
        <DataArray type="Float64" Name="disp_x" format="ascii" RangeMin="0.00006041526899676849" RangeMax="0.00011999999999999999">
          0.00007818160947664748 0.0000766637619981565 0.00007389802493557481 0.00007404125799977118 0.00007818154450763782 0.00007666404945369339
          0.00007389870346485996 0.00007404201724292381 0.00007818139821151102 0.00007666497240945611 0.00007390063278440481 0.00007404436109321616
          0.00007151158099513042 0.00007223234115187565 0.0000745445457659069 0.00007330527982385544 0.00007151245670738924 0.00007223289751148264
          0.00007454500379929848 0.00007330604180539237 0.00007151512253771748 0.00007223458553666511 0.0000745464774181677 0.00007330846716570605
          0.00007534466753016747 0.00007312329439210432 0.00007534517419996628 0.00007312444263070306 0.0000753464961101479 0.00007312777898392365
          0.0000754826115988602 0.00007841017205072178 0.0000770608024643225 0.00007548272957511617 0.00007840955295162619 0.00007706078331202276
          0.00007548318820458784 0.00007840771304893347 0.00007706055463972342 0.00006933736191223816 0.00006815917997504985 0.00006687138857272768
          0.00006857514031892846 0.00006933728472506054 0.00006815844102300062 0.00006687015248746401 0.00006857468068384986 0.00006933718469198302
          0.0000681559832451844 0.00006686667206291199 0.00006857335592416302 0.00006928328318116938 0.00006792598518581953 0.00006809196036799454
          0.00006982517491763199 0.00006928276512922585 0.00006792495006559698 0.00006809110340492062 0.00006982520215521142 0.0000692811520032456
          0.00006792224317378458 0.00006808840368218131 0.00006982500638044498 0.00007019668251327612 0.00007021247215477152 0.00007266834664806482
          0.00007019715174701994 0.00007021260907818075 0.00007266857336584032 0.00007019854676958846 0.00007021331674985273 0.0000726689085089603
          0.00007972147514159761 0.00007972109747496173 0.0000797198811086682 0.00007260687277970275 0.0000699127664136754 0.00007260654905360433
          0.00006991235130837611 0.0000726053025518454 0.00006991102173078041 0.00008117555342634241 0.00007970301403669469 0.00008117485351504491
          0.00007970197479378191 0.00008117263056159311 0.00007969875040256274 0.00006257758540607584 0.00006145769995404364 0.00006257509310860393
          0.00006145490679301042 0.000062567227948154 0.00006144661287503601 0.00006592691211786278 0.00006482619576062056 0.0000665027372090781
          0.00006762638143486894 0.0000659253058630264 0.00006482446882216814 0.00006650146747278839 0.00006762540380211466 0.0000659203563921354
          0.00006481928250851953 0.0000664978218754717 0.00006762232257315608 0.00006475198685755375 0.00006475055461699106 0.00006474613976180793
          0.000060428012805174406 0.00006042488387542202 0.00006041526899676849 0.00007624316729855142 0.00007624250484390616 0.00007624061944234189
          0.00007179575396733986 0.00007055119371144286 0.00007179685251337238 0.00007055205288319118 0.0000717999152162309 0.00007055489836398963
          0.00006434126655637334 0.00006601730426535782 0.00006546399247713018 0.00006379240755156883 0.00006433933538338738 0.0000660154262491564
          0.00006546166133641569 0.00006378994958029986 0.00006433382973711789 0.00006601011832600144 0.00006545441083754813 0.00006378269900121855
          0.0000710761462206688 0.00007169965604392556 0.00007107709911575046 0.00007170094146950343 0.00007107981330785874 0.00007170486973836342
          0.00006223384805365554 0.00006223062249488063 0.00006222070652670213 0.00006659926053028812 0.00006659799476333172 0.0000665943926950935
          0.00006294796144182963 0.0000626849552671173 0.00006294481159220563 0.00006268186589832401 0.00006293505274587319 0.0000626714177020547
          0.00007079269007714515 0.00007050634466469245 0.00007079343893140256 0.00007050648608199943 0.00007079574651436538 0.00007050679936620929
          0.000066940239425005 0.00006706317387712944 0.00006693868322014237 0.00006706152886650517 0.00006693399374334315 0.00006705518605079748
          0.00006324661342288152 0.00006324419426693746 0.00006323706136752507 0.00006726653725266501 0.00006726529605890984 0.00006726130118224366
          0.00006425326166607482 0.00006425102939941361 0.00006424416547605436 0.00006828248738720505 0.00006828173320097996 0.00006827919164816983
          0.00006361421805298893 0.00006361173017623843 0.00006360463425507404 0.00006215027614210338 0.0000621563338767792 0.00006214799059359004
          0.00006215401346397532 0.00006214129252776533 0.0000621472187203934 0.00007019917195831103 0.00007019989165611792 0.0000702018922395919
          0.00006923249066391628 0.00006854475773780248 0.00006923266395475435 0.00006854418240860951 0.00006923301068099509 0.00006854214861285894
          0.00006673194672668498 0.00006507191536647866 0.00006673087191972259 0.00006506973087505679 0.00006672778905187846 0.00006506301097001462
          0.00007194772957039067 0.00007178907633148604 0.00007194900154305069 0.00007178954632256266 0.00007195279046637185 0.0000717909625866641
          0.00006452509763309448 0.00006452305961607365 0.00006451679361539573 0.00006223250516294007 0.00006223034354988788 0.00006222291190506483
          0.0000633275728948001 0.00006332476032479213 0.00006331604844751624 0.00006494528202718472 0.00006378126783211515 0.00006494325609692331
          0.00006377879515694368 0.00006493699398140934 0.0000637707072183295 0.00006367375518366915 0.00006372360999776625 0.00006367133680541303
          0.00006372088369378288 0.00006366374249269176 0.00006371355943122342 0.00006516299827383885 0.00006656171930476427 0.00006514733943251819
          0.00006516106431975183 0.00006656027960172038 0.00006514523125403095 0.00006515505877193921 0.00006655570477005083 0.00006513902765505258
          0.00006518440830633613 0.00006518263176850444 0.00006517641200613024 0.00006845740656506307 0.000068391141490831 0.00006845728477764564
          0.00006839073933181682 0.00006845676186841854 0.00006838917307567426 0.0000731699107805064 0.00007393004479980897 0.00007317097332253508
          0.00007393133264488074 0.00007317386021315314 0.00007393538144368743 0.00006654341881338079 0.00006654192371822948 0.00006653730017915607
          0.00006373644987169468 0.00006373392541115884 0.00006372596321936625 0.00006968278465151279 0.00006968331273037589 0.00006968459029111921
          0.00007026527003193326 0.00006906126617437355 0.00007026497280878499 0.00006906074476178688 0.00007026390555577358 0.00006905889197252548
          0.00006782742114637851 0.0000678265400110311 0.00006782346361570863 0.000071451142043236 0.00007145117108611121 0.00007145054539024081
          0.00006993811439817621 0.00006993868975501521 0.00006993999627753562 0.0000726333721161959 0.00007263471615676099 0.00007263830209466958
          0.00007385560285060005 0.0000738575807537656 0.00007386420175534606 0.00007519037879905568 0.00007519098858312797 0.00007519234116722265
          0.000085181689937088 0.00008518093895381962 0.00008517871134585318 0.00008399518244568706 0.00008399469425724137 0.00008399319579588726
          0.000082614467731442 0.00008261428283039512 0.00008261366914253204 0.00008112913037101592 0.00008112924991768379 0.00008112955082410835
          0.00007963278177852054 0.00007963305093264451 0.00007963378729090058 0.00009522287752114096 0.00009517130472156673 0.00009522282668514752
          0.00009517125506993864 0.00009522267438754404 0.00009517112152033991 0.00009709551806161789 0.00009702794347901919 0.00009709544136506852
          0.00009702786988780489 0.00009709521148651128 0.00009702764493067144 0.00009896368436934821 0.0000988834596421058 0.00009896359620266849
          0.00009888337506190529 0.00009896333075557708 0.00009888311757098757 0.00010083209363659976 0.00010074345170536064 0.00010083199874727271
          0.0001007433602505013 0.00010083171173829208 0.00010074308196704067 0.00010270196728793309 0.00010261032700316674 0.00010270187127199138
          0.000102610234085731 0.00010270158139635466 0.00010260995236080908 0.00010457194194515448 0.00010448396467282371 0.00010457184903060335
          0.00010448387487338458 0.00010457156794372026 0.0001044836023503383 0.00010643893614809117 0.00010636249103514474 0.00010643885149043678
          0.00010636240847456419 0.00010643859563175433 0.00010636215840572191 0.00010829907891314159 0.00010824312331197233 0.00010829900286228092
          0.00010824304890119653 0.00010829877270663576 0.00010824282328258346 0.0000953303904131847 0.00009533033520477123 0.00009533018384509216
          0.00009723088846913878 0.00009723080114902824 0.00009723053218399707 0.00009912292671670133 0.0000991228302757483 0.0000991225396344141
          0.00010101024471628639 0.00010101014179429169 0.00010100982791782804 0.00010289253453325071 0.00010289243177672302 0.00010289212078366466
          0.00010476680743650613 0.000104766707907743 0.00010476640589715473 0.00010662831167068467 0.00010662822380485743 0.0001066279579757447
          0.00010847151826706494 0.00010847143905979228 0.00010847119920299107 0.0000955048859016611 0.00009550477536624485 0.00009550443125140216
          0.00009744597263192818 0.00009744588230674202 0.00009744561971523627 0.00009937410197881167 0.00009937398542513956 0.00009937362849451609
          0.00010129134166300624 0.00010129122497886917 0.0001012908737341006 0.00010319544585706237 0.00010319533089030217 0.00010319498242355503
          0.00010508150111700249 0.00010508138974489495 0.00010508105272862949 0.00010694290739891742 0.00010694281325022028 0.00010694252929895603
          0.00010877232307813675 0.00010877223821604568 0.00010877198182377756 0.00009576472729426431 0.00009576466867877376 0.00009576449521267131
          0.00009776187578297815 0.00009776172302706263 0.0000977612527961821 0.00009973951441323177 0.00009973938717246081 0.00009973901007904823
          0.00010169829319217369 0.0001016981525374974 0.00010169772386863707 0.00010363304825796395 0.00010363291721966596 0.00010363252430923765
          0.00010553705407988844 0.00010553692616217412 0.00010553653795248178 0.00010740217907969759 0.00010740207821889157 0.00010740177636470557
          0.000109219401484764 0.00010921931033365551 0.00010921903693130902 0.00009614147236739577 0.0000961413584574044 0.00009614105731246223
          0.00009821044856133214 0.00009821031719628434 0.00009820991820744345 0.00010025279674913755 0.00010025261202512027 0.00010025204960903739
          0.00010226407307753377 0.00010226391906829902 0.00010226345874985839 0.0001042361964084535 0.00010423604226588618 0.00010423557695124269
          0.0001061614289980842 0.0001061612792296813 0.0001061608258312974 0.0001080308687765609 0.00010803075649266848 0.0001080304182269943
          0.00010983372409554839 0.00010983362292996517 0.00010983331707257974 0.00009427167639475792 0.00009427058177516955 0.00009426727016792887
          0.00009667599302195067 0.00009667530902230883 0.00009667324527117045 0.00009884001573354632 0.00009883980718763193 0.00009883921923438398
          0.00010095947159085704 0.00010095930030680057 0.0001009587790180109 0.00010303070555122703 0.0001030305004483784 0.00010302987714129595
          0.00010504286577126756 0.00010504269448930478 0.00010504218507699963 0.0001069884585824363 0.00010698827725019909 0.0001069877250572444
          0.00010885675259105796 0.00010885664315206052 0.00010885632501647459 0.0001106345256742707 0.00011063442768150876 0.00011063413903411096
          0.0000943479522808365 0.00009434675962243981 0.000094343193028407 0.0000972717255478209 0.00009727034919747573 0.00009726618722783943
          0.00009971335146154918 0.00009971259149405055 0.00009971029467640499 0.00010190970575772287 0.00010190952924668603 0.00010190903999031465
          0.00010404506700524079 0.00010404488972107455 0.00010404434021815555 0.00010609982129969544 0.00010609960289681769 0.00010609894962311475
          0.00010805953117661252 0.00010805929734924144 0.0001080585838922261 0.00010991117090911263 0.00010991101029717744 0.00010991052149976538
          0.00011163275680897655 0.00011163261927476748 0.00011163219837633209 0.00009423661078945261 0.0000942354852048395 0.00009423212789521569
          0.00009783735735644425 0.00009783554051743363 0.00009783008625736314 0.00010077329716722151 0.00010077171525677765 0.00010076695883601485
          0.00010315737913371028 0.00010315684539678502 0.0001031552961706724 0.00010536367427951821 0.0001053635261385353 0.00010536311171964245
          0.00010746773799960333 0.00010746747688166188 0.00010746668636960405 0.00010943659815904564 0.00010943629955793541 0.00010943540131152683
          0.00011122721515423647 0.00011122714221102254 0.00011122696414188935 0.00011280392899273206 0.0001128038628483691 0.00011280367545497098
          0.00009398396863900731 0.00009398288401035474 0.0000939796516357851 0.0000983751466729639 0.00009837288503558063 0.00009836606186735015
          0.00010192233721147502 0.00010191999879540882 0.00010191288051345616 0.00010469627098119282 0.00010469503688218269 0.00010469121244042997
          0.00010705362244678646 0.00010705331777538829 0.00010705241612327668 0.000109266487441272 0.00010926614483414066 0.0001092651276310187
          0.00011124905526776375 0.00011124846468125748 0.00011124662584858045 0.00011288055324018574 0.00011288027214497938 0.00011287941836327888
          0.0001140408685628142 0.00011404083758272933 0.00011404073213641634 0.00010955786867660066 0.0001096099289728159 0.00010955780201559916
          0.00010960986061026057 0.00010955759914653842 0.0001096096531583558 0.00010976969452632618 0.00010976962210358989 0.00010976940193167807
          0.00011004682548131515 0.00011004674655453516 0.00011004650709067161 0.0001104553244875368 0.00011045523727251194 0.00011045497132680794
          0.00011101008775680121 0.00011100999276729008 0.00011100970341745198 0.00011172137475834076 0.00011172126676395466 0.00011172092834182776
          0.00011258097620878434 0.00011258087985960521 0.00011258058608944676 0.00011354155258932792 0.0001135414110954331 0.00011354092280988007
          0.00011432271953713136 0.0001143230257939692 0.00011432396235177686 0.00011087141400085042 0.00011091880731390165 0.00011087135490273444
          0.0001109187474734318 0.0001108711750850473 0.0001109185661101804 0.00011106381472999812 0.0001110637538294225 0.00011106356999359864
          0.0001113141411027006 0.00011131407931474893 0.00011131389402522462 0.0001116804376251857 0.00011168037649063477 0.0001116801952087331
          0.00011217262025269728 0.00011217256493122605 0.00011217240336553632 0.00011279283392678256 0.00011279279312514653 0.00011279267864682343
          0.00011352139582388235 0.00011352140771501423 0.00011352146131253937 0.00011427774271405297 0.00011427783558098359 0.00011427814342932151
          0.00011477591139828217 0.00011477644759695698 0.00011477814268044734 0.00011218293957209034 0.00011222498444134855 0.00011218288854459309
          0.0001122249330752754 0.00011218273412403866 0.0001122247775296687 0.00011235334633226068 0.00011235329424214652 0.00011235313615086693
          0.0001125740354130299 0.00011257398288084152 0.00011257382304483435 0.00011289489406874003 0.00011289484302266056 0.00011289468689302965
          0.00011332168041699318 0.00011332163514379117 0.00011332149485803462 0.000113850586200895 0.00011385055895017831 0.00011385047062262898
          0.00011445222626937622 0.00011445223374253674 0.00011445224523087553 0.0001150323345920371 0.00011503242267519157 0.00011503266494237692
          0.0001153593953102042 0.00011535963115864982 0.00011536028991965593 0.00011349189286873204 0.0001135279732889749 0.00011349185026682867
          0.00011352793058864141 0.0001134917214666367 0.00011352780153557471 0.00011363793604905172 0.00011363789335516295 0.00011363776432904273
          0.0001138263426160478 0.000113826300803218 0.000113826174558952 0.00011409869377013394 0.00011409865520726091 0.00011409853881771377
          0.00011445753605185773 0.00011445750605293968 0.00011445741611203212 0.00011489480692306826 0.00011489479515445525 0.00011489476074867418
          0.00011537616677046621 0.00011537619081668831 0.00011537626770987024 0.00011581203711362395 0.00011581212394650354 0.00011581239117872706
          0.00011602955769042059 0.00011602974926053782 0.00011603035599519858 0.00011479802523700934 0.00011482759717081995 0.00011479799131087432
          0.00011482756320959169 0.00011479788868082379 0.00011482746056665822 0.00011491760187892545 0.00011491756826680251 0.00011491746648360174
          0.00011507136989973231 0.00011507133770596746 0.00011507123991362752 0.00011529252922549284 0.00011529250084576863 0.00011529241419678617
          0.00011558136548632566 0.00011558134552634732 0.00011558128391086512 0.00011592771032818503 0.00011592770688760905 0.00011592769481008725
          0.00011629797767265705 0.00011629800340469126 0.00011629807850164276 0.00011661692594435173 0.00011661699818700373 0.00011661721195035944
          0.00011676158663213296 0.00011676171599882436 0.00011676209638664237 0.00011610140721418543 0.0001161240107150091 0.00011610138183111128
          0.00011612398542599738 0.00011610130523483714 0.00011612390898959204 0.0001161927360143183 0.00011619271126697415 0.00011619263614558551
          0.00011630987826577268 0.00011630985498964015 0.00011630978416468951 0.0001164776430679108 0.00011647762326354017 0.00011647756281973194
          0.0001166950620407205 0.00011669504941238456 0.00011669501062941152 0.00011695217829115655 0.00011695217877965856 0.00011695217973656641
          0.00011722061792299957 0.00011722064011054726 0.00011722070756137579 0.00011744335968145187 0.00011744341287350213 0.00011744357409353314
          0.00011753712460501647 0.00011753721111937386 0.00011753747774730863 0.00011740241088994311 0.00011741768628609164 0.00011740239388635451
          0.0001174176694765714 0.00011740234298679181 0.00011741761881699357 0.0001174640973294349 0.0001174640810991511 0.00011746403169583918
          0.00011754306912926202 0.00011754305412369521 0.0001175430081532426 0.00011765579709917025 0.00011765578474763985 0.000117655746593802
          0.00011780101443963551 0.00011780100726387183 0.00011780098466763475 0.00011797094293740634 0.00011797094474184674 0.00011797094961014216
          0.00011814533182489906 0.00011814534790692113 0.0001181453964240874 0.00011828633317429741 0.00011828636833325807 0.0001182864745091354
          0.00011834254208103634 0.00011834259672210997 0.00011834276144428546 0.00011870166758274181 0.00011870936808681104 0.00011870165892940216
          0.0001187093596212009 0.00011870163340805111 0.00011870933432070729 0.00011873275431102833 0.00011873274628177779 0.00011873272181824621
          0.00011877250501987872 0.00011877249774687947 0.00011877247522676834 0.0001188291288867236 0.00011882912309659617 0.00011882910479549433
          0.00011890179524484317 0.00011890179206661651 0.00011890178181831342 0.00011898627093934568 0.00011898627210855756 0.00011898627568251152
          0.00011907207008584358 0.00011907207816965044 0.00011907210327194735 0.00011914039527092693 0.00011914041230014779 0.00011914046466289952
          0.00011916673412908196 0.00011916676002508856 0.00011916683943594169 0.00011999999999999999 0.00011999999999999999 0.00011999999999999999
          0.00011999999999999999 0.00011999999999999999 0.00011999999999999999 0.00011999999999999999 0.00011999999999999999 0.00011999999999999999
          0.00011999999999999999 0.00011999999999999999 0.00011999999999999999 0.00011999999999999999 0.00011999999999999999 0.00011999999999999999
          0.00011999999999999999 0.00011999999999999999 0.00011999999999999999 0.00011999999999999999 0.00011999999999999999 0.00011999999999999999
          0.00011999999999999999 0.00011999999999999999 0.00011999999999999999 0.00011999999999999999 0.00011999999999999999 0.00011999999999999999
          0.00011999999999999999 0.00011999999999999999 0.00011999999999999999
        </DataArray>
        <DataArray type="Float64" Name="disp_y" format="ascii" RangeMin="-0.000016535839523705294" RangeMax="0">
          -0.000008354043971939901 -0.00000988268696391926 -0.000011046985734095124 -0.000010483255571629841 -0.000008354010855647976 -0.000009882855003756566
          -0.000011047699654173733 -0.000010483612629435493 -0.000008353908029373281 -0.00000988324780839511 -0.000011049950397902457 -0.000010484459989924677
          -0.00001019549546476871 -0.000009434118731884269 -0.000008524717998323995 -0.000009601683128763045 -0.000010196256780873517 -0.000009434826073916951
          -0.00000852504753922322 -0.000009602202922278707 -0.000010198517617255254 -0.000009436856429966922 -0.000008526006321329984 -0.000009603638657780936
          -0.000009008089538650294 -0.000010421635169209149 -0.000009008355117745073 -0.000010422068285653105 -0.000009009310304510572 -0.00001042356309825756
          -0.000007483472194472327 -0.000006325737773772027 -0.000007643573388966774 -0.000007483692048661516 -0.000006325570297445268 -0.000007643555723311303
          -0.000007484439741921872 -0.000006324989047532084 -0.000007643592151923071 -0.000012488289519515383 -0.000013102477382675985 -0.00001350105930887916
          -0.00001252026946224924 -0.000012488259626183585 -0.000013102002656338358 -0.000013500401026957321 -0.000012520102316592246 -0.000012488174854175646
          -0.000013100483351947624 -0.000013498373157770519 -0.000012519302116668864 -0.000013233984242996165 -0.000013744027637592023 -0.000013363133646816286
          -0.000012649896444614351 -0.000013233433638661358 -0.000013743205692432686 -0.000013362448961319537 -0.000012649794237380776 -0.000013231532232564152
          -0.000013740743108377354 -0.000013360411784445268 -0.00001264954737201866 -0.000010260283744759273 -0.000009747403272231506 -0.000008693725041685296
          -0.000010261228302797297 -0.000009748589723581292 -0.000008694514747679438 -0.000010264128995543416 -0.000009752048687427063 -0.000008696995646035035
          -0.000006823924114385954 -0.0000068235711948262515 -0.0000068225364745219394 -0.000008088228363367288 -0.00000922878677882198 -0.000008089361594234095
          -0.000009230294085279237 -0.000008092910916667686 -0.000009235173277949534 -0.000005353363164532192 -0.000005019618245337583 -0.000005352759544954081
          -0.000005019166868729526 -0.0000053510088133639436 -0.000005017910376707567 -0.00001542306263030735 -0.00001565722127438401 -0.000015421453676727537
          -0.000015655924629818415 -0.00001541675954223596 -0.00001565161933861582 -0.000013557177193605694 -0.000013736007030072337 -0.000012678910166198886
          -0.000012620806366083682 -0.000013556381804687562 -0.000013735216064621301 -0.000012678601312215152 -0.000012620480588672454 -0.000013554136770581334
          -0.00001373285865295117 -0.000012677593799851746 -0.000012619602649822306 -0.000010419645529456115 -0.000010420404478810244 -0.000010422914359648527
          -0.000015823903502425525 -0.00001582289768139782 -0.00001581982906098974 -0.0000063400586829105624 -0.0000063402861231865605 -0.000006340960474458933
          -0.000010655887481660515 -0.000010942265955465725 -0.000010656468036862402 -0.000010942864723610617 -0.000010658435321074007 -0.000010944710601814444
          -0.000011326788006104053 -0.000011187603345788767 -0.0000119080057905293 -0.000012225626830511007 -0.000011327094929792026 -0.000011188349671858326
          -0.000011908586920766418 -0.000012225775335981645 -0.000011327614255939683 -0.000011190517885835556 -0.000011910723637837379 -0.000012226211353392795
          -0.00001157839154668037 -0.000011675042770787435 -0.000011578804240821351 -0.00001167553918811717 -0.000011580235057898299 -0.000011677151287962657
          -0.000014831205289046458 -0.000014830150795323665 -0.000014827020674919251 -0.000013982811755739095 -0.000013981809372291846 -0.00001397915437275868
          -0.0000137803978703758 -0.000014219270663737612 -0.000013779997766456568 -0.00001421842432014755 -0.000013778774980852677 -0.000014216403537410575
          -0.00001244945519700309 -0.000012803428038356205 -0.000012449601072086407 -0.000012803328022762064 -0.000012450579573815277 -0.000012802592308635099
          -0.000011498483963173179 -0.00001107843892284404 -0.000011499030639519735 -0.000011079332026354099 -0.00001150055325706674 -0.000011082250988589861
          -0.000014657534448262393 -0.00001465637097556501 -0.000014652581423501168 -0.000010205717023760913 -0.000010207065015911196 -0.000010211005018946323
          -0.000014479626152868902 -0.00001447840969976051 -0.000014474880878674488 -0.000010549505542213489 -0.000010550599405171465 -0.000010554266848295667
          -0.000014001774394647701 -0.00001400079447915133 -0.000013997780306110245 -0.000016535839523705294 -0.000016260151008158154 -0.000016534153336835214
          -0.00001625867978721018 -0.000016529715258155384 -0.000016253994603477687 -0.000011623550047624112 -0.000011623817660879624 -0.000011624875925696539
          -0.000011738946265621726 -0.00001171596502674687 -0.000011739091368941946 -0.000011716150992952319 -0.000011739631188128989 -0.000011716615178333441
          -0.000012044173780112616 -0.000012598974817555994 -0.000012044077672970632 -0.000012599098587429132 -0.000012043892603426949 -0.00001259962443836385
          -0.000011926748779635945 -0.000012330244769678071 -0.000011927248925832781 -0.000012330856107620622 -0.00001192898348380858 -0.000012332891151541063
          -0.000013292776850920834 -0.000013292232886574287 -0.000013290721209327077 -0.00001594311843360776 -0.00001594142003389541 -0.00001593687346089137
          -0.000013072162864922023 -0.000013072023663502742 -0.000013071801801272726 -0.000014434685410518236 -0.000015044154935314041 -0.000014433513574531007
          -0.000015042797200549017 -0.0000144305269843753 -0.000015037934223532949 -0.000015561148755417637 -0.000015809664241642603 -0.000015559551659888453
          -0.000015808207999264143 -0.00001555482797972688 -0.000015802980975809975 -0.000014610805158279414 -0.000014297807760611678 -0.000014899286552475317
          -0.000014609405018250173 -0.000014296607829762119 -0.000014897657676300235 -0.000014605002492606292 -0.000014293164131064656 -0.000014892533613062937
          -0.00001516615593657785 -0.00001516457731164351 -0.000015160003794977445 -0.00001094250692198132 -0.000011395574287189855 -0.000010943137551529618
          -0.000011395875909030955 -0.00001094485707833841 -0.000011396858643798861 -0.000011794659303088772 -0.000011571765649047821 -0.000011795505426529381
          -0.000011572266088944063 -0.000011798630921118543 -0.000011573562844467193 -0.000014601495227030287 -0.000014600315556416764 -0.000014596645070601353
          -0.000015263785514974412 -0.000015262167183202548 -0.000015257374273841553 -0.000011147961483577432 -0.000011148308267988944 -0.000011149715066575684
          -0.000013207225112461321 -0.000013636956238193588 -0.000013206909464342332 -0.000013636276827531307 -0.000013206041293319398 -0.000013634529349281416
          -0.000014096126360460342 -0.000014095195861715811 -0.00001409227687602499 -0.00001279206945810389 -0.000012792661244090466 -0.00001279443215680918
          -0.000010776156319411328 -0.000010776782675465284 -0.000010779220647966847 -0.00001235265098511185 -0.00001235390689480113 -0.000012357620432211912
          -0.000011905830743840245 -0.000011906012899181922 -0.000011907344855970289 -0.000011405221856404038 -0.000011405106310646531 -0.000011404949081483239
          -0.0000038082373088181585 -0.000003807398490547119 -0.0000038048799144917416 -0.000005115026931996608 -0.0000051143924946853706 -0.000005112494093749379
          -0.000006568095400696115 -0.000006567710792286307 -0.000006566592189025798 -0.000008116482427898446 -0.000008116389018214662 -0.000008116174658991195
          -0.000009698796015475785 -0.000009698860167509055 -0.000009699177838949834 -3.300679945125314e-7 0 -3.3004373693487557e-7
          0 -3.299664952034209e-7 0 -3.639430518788589e-7 0 -3.6392746352596004e-7
          0 -3.638820384421891e-7 0 -4.176916423899073e-7 0 -4.176805779312656e-7
          0 -4.17647253871074e-7 0 -4.866671332638994e-7 0 -4.866617831681735e-7
          0 -4.866461540705705e-7 0 -5.665437579610683e-7 0 -5.665436266825112e-7
          0 -5.665434940430924e-7 0 -6.535758176812752e-7 0 -6.535805266986751e-7
          0 -6.535949527890297e-7 0 -7.445729072641021e-7 0 -7.445821072235689e-7
          0 -7.446099687153135e-7 0 -8.369896938280393e-7 0 -8.370011321556162e-7
          0 -8.370355453626058e-7 0 -6.605482029069614e-7 -6.605154476850225e-7 -6.604236900135988e-7
          -7.293926200114057e-7 -7.293586741020425e-7 -7.292542556408233e-7 -8.382699983527809e-7 -8.382529071805288e-7 -8.382018636408259e-7
          -9.770214339524679e-7 -9.770148327370903e-7 -9.769950820505747e-7 -0.0000011366020385578966 -0.000001136606092661863 -0.000001136618575302058
          -0.0000013094644908350674 -0.000001309477462076265 -0.0000013095166882099603 -0.0000014892406681808585 -0.000001489261820602932 -0.0000014893259488597602
          -0.0000016707220295496201 -0.0000016707469297846287 -0.0000016708221169432503 -9.91028246867358e-7 -9.909396233849716e-7 -9.906635739373053e-7
          -0.0000010965472325474724 -0.0000010965087594089542 -0.0000010964015776407754 -0.0000012625097738941618 -0.0000012624820706608716 -0.0000012623964112368092
          -0.0000014717193354621998 -0.0000014717125442481732 -0.0000014716928094120238 -0.0000017101276620191649 -0.0000017101362108992902 -0.0000017101614976774357
          -0.0000019665062354431986 -0.0000019665286755147357 -0.000001966595616542787 -0.0000022313109925669 -0.0000022313461906614694 -0.0000022314516186491595
          -0.000002496302925651376 -0.0000024963435622437854 -0.0000024964645669394965 -0.000001320794739762229 -0.0000013207365297093526 -0.000001320552191119538
          -0.0000014656497863561627 -0.0000014655712964236478 -0.0000014653259179698107 -0.0000016906907787528174 -0.000001690666728989649 -0.0000016905975885601623
          -0.000001969937819220261 -0.000001969932134436574 -0.0000019699124145789833 -0.0000022844628988426082 -0.000002284480571953993 -0.0000022845333010335026
          -0.000002620268055705537 -0.000002620304688132003 -0.0000026204147598463987 -0.0000029647088726641867 -0.000002964764234633074 -0.0000029649327999325547
          -0.000003305535909270912 -0.000003305599621072761 -0.0000033057935209837877 -0.0000016470915912402433 -0.0000016469989557747658 -0.0000016467769147337977
          -0.0000018368004935313528 -0.0000018367684659302878 -0.0000018366740939962497 -0.0000021221193173303023 -0.0000021220833290034135 -0.0000021219734474013603
          -0.000002467827413405097 -0.0000024678366414355716 -0.000002467868777546511 -0.000002852196839697119 -0.0000028522279539974737 -0.0000028523211603461933
          -0.0000032609791662142458 -0.000003261033925739504 -0.0000032611973357765246 -0.0000036781299654679837 -0.0000036782078702261495 -0.000003678438979415665
          -0.0000040852112387908024 -0.000004085295158386154 -0.000004085540190375585 -0.0000020621129763795256 -0.000002060819100106521 -0.000002056875003322129
          -0.000001980987499705445 -0.00000198032283794516 -0.000001978309324336934 -0.0000022073924054580844 -0.000002207317013516418 -0.0000022071159500543495
          -0.000002553914339253271 -0.0000025539122499524226 -0.00000255389332593611 -0.0000029555663883089144 -0.000002955572744690452 -0.000002955586713622151
          -0.000003398549967912775 -0.0000033985957622946853 -0.0000033987321508441163 -0.00000387074630152559 -0.000003870829298094685 -0.000003871079581019581
          -0.000004352349874843803 -0.00000435248399084613 -0.000004352895729830463 -0.000004814554018529388 -0.000004814710297955518 -0.000004815190256699814
          -0.0000027382880664197643 -0.0000027369436018995326 -0.000002732929705691062 -0.0000024257311478089177 -0.0000024245930550009054 -0.000002421141140093804
          -0.0000025795479529225073 -0.000002579206783525403 -0.00000257820868400929 -0.0000029769440427001868 -0.000002977049257357703 -0.0000029774000704096015
          -0.000003416233890614247 -0.0000034162780257127715 -0.000003416403427183634 -0.000003898485801733029 -0.000003898558896283813 -0.000003898781669593035
          -0.0000044194958921045625 -0.000004419595893759696 -0.000004419891643028142 -0.000004956550722668384 -0.000004956690616395674 -0.000004957102209237975
          -0.000005461059315226052 -0.000005461181944654989 -0.000005461530387847354 -0.000003740166020725841 -0.000003738490664418998 -0.0000037334595267277367
          -0.000003130845341415075 -0.0000031293160116988174 -0.0000031247315139514698 -0.0000030397377068580567 -0.000003038784960153434 -0.000003035913882950823
          -0.000003375593712960326 -0.0000033753784296407223 -0.000003374777689237653 -0.000003830395208972272 -0.000003830437082816323 -0.000003830576339726399
          -0.000004314445241481068 -0.000004314493270902505 -0.0000043146330496349385 -0.00000485380633891229 -0.00000485397313034797 -0.000004854478321700307
          -0.00000542726533397843 -0.0000054276137188105075 -0.000005428673408732708 -0.0000059662642838276995 -0.000005966738611579001 -0.000005968153562079962
          -0.000005124152997343928 -0.000005121751741446448 -0.000005114490126667946 -0.0000041813708367338405 -0.000004179319388785717 -0.0000041731326088827214
          -0.0000037168507578511003 -0.0000037153813270464993 -0.000003710853188764813 -0.0000037936352326972893 -0.0000037930865774555797 -0.000003791349911708474
          -0.000004174651170821177 -0.0000041746493076087745 -0.000004174637898802254 -0.00000459097891950293 -0.000004590973359901693 -0.000004590946692654739
          -0.0000050707287347795675 -0.000005070976445523722 -0.000005071713616688615 -0.0000056140858035929565 -0.000005614727422446962 -0.000005616651334675453
          -0.000006232978453686794 -0.000006233921714429679 -0.0000062367974191947644 0 -8.67443189608137e-7 0
          -8.674568672952629e-7 0 -8.674979463123946e-7 -0.0000017301063245222033 -0.0000017301352581371373 -0.0000017302227928714318
          -0.000002581760737404957 -0.000002581807179861449 -0.0000025819465930127577 -0.000003413447948014907 -0.0000034135190538378575 -0.000003413735393467535
          -0.000004212198170437488 -0.000004212292702565216 -0.000004212574119185415 -0.000004958922930143208 -0.000004959086407829695 -0.000004959585891461449
          -0.000005626632966380852 -0.000005626801913999149 -0.00000562730348646453 -0.000006172134097524994 -0.000006172571048487773 -0.000006173893919647881
          -0.000006513461334737865 -0.000006514249262479613 -0.000006516626922948516 0 -8.92862016472588e-7 0
          -8.928765081579049e-7 0 -8.929200069938566e-7 -0.0000017792141442439392 -0.0000017792441153003614 -0.0000017793343869698748
          -0.000002651276949608762 -0.000002651324852429907 -0.0000026514691478823974 -0.0000034988752763975276 -0.0000034989448176625825 -0.0000034991541040194837
          -0.00000430828366428367 -0.00000430838072908787 -0.00000430867216505266 -0.0000050606336207291885 -0.000005060771502313976 -0.000005061185126418033
          -0.000005730163058273709 -0.000005730338825098182 -0.00000573086672049459 -0.000006270211415818356 -0.000006270489607056399 -0.0000062713147911819465
          -0.000006642724175404225 -0.00000664308139945639 -0.000006644153565094923 0 -9.133939299231158e-7 0
          -9.134088649457101e-7 0 -9.134538236596362e-7 -0.0000018184354635568452 -0.0000018184661163531125 -0.000001818558626539692
          -0.0000027056020108312543 -0.000002705650136010516 -0.00000270579518178864 -0.000003563134021640364 -0.0000035632025376619556 -0.0000035634087821760396
          -0.000004375968619686846 -0.000004376061265348547 -0.0000043763393943471525 -0.000005124476427017992 -0.000005124598549013116 -0.000005124965365177654
          -0.000005781366476139694 -0.000005781519056976062 -0.000005781977032300507 -0.000006309680953048124 -0.00000630986588441847 -0.000006310420518997036
          -0.000006705048941768292 -0.0000067052491144738995 -0.0000067058524894072225 0 -9.294165449516521e-7 0
          -9.294316685755217e-7 0 -9.29477180006603e-7 -0.0000018486273049789974 -0.0000018486580265280897 -0.0000018487507123332422
          -0.000002746295429588655 -0.0000027463429595035458 -0.0000027464861250621267 -0.0000036089281784209633 -0.000003608994197281576 -0.0000036091926628942347
          -0.000004419968808113442 -0.000004420054760752279 -0.000004420313024118507 -0.000005158758333648078 -0.0000051588649621774056 -0.000005159184835216738
          -0.000005799827966876246 -0.000005799953146535037 -0.0000058003295927754374 -0.000006319850599375576 -0.000006319973890224871 -0.000006320342555726457
          -0.000006733888239597887 -0.00000673399968656288 -0.00000673433350333483 0 -9.414381060215686e-7 0
          -9.414532385580232e-7 0 -9.414987483388741e-7 -0.0000018709253763261728 -0.0000018709558599261084 -0.0000018710477079763432
          -0.000002775393093521387 -0.000002775439521827004 -0.000002775579288924299 -0.000003639696420941323 -0.0000036397592725368287 -0.000003639948333276534
          -0.0000044459382412797786 -0.000004446017136981711 -0.000004446254505935451 -0.000005173348381668071 -0.0000051734412091153856 -0.000005173720026080712
          -0.000005800514927470192 -0.000005800615928203045 -0.000005800920115370991 -0.000006315999203951174 -0.000006316083498137413 -0.0000063163362017374094
          -0.0000067451416479049675 -0.000006745204723255379 -0.000006745394956508299 0 -9.500194901780346e-7 0
          -9.500345155952194e-7 0 -9.500796780492165e-7 -0.0000018865761830267815 -0.0000018866062590285071 -0.00000188669674967968
          -0.000002795098993265007 -0.0000027951441385682155 -0.0000027952800080721105 -0.000003659043389181173 -0.0000036591031499001446 -0.0000036592829672122487
          -0.000004459595139320103 -0.0000044596678472808 -0.000004459886720395251 -0.000005176683854418414 -0.000005176765382786737 -0.000005177010454478027
          -0.00000579331490073286 -0.000005793397429876048 -0.000005793646557089339 -0.0000063068081587804 -0.000006306867462533468 -0.000006307045743217374
          -0.000006747560936587834 -0.000006747597004411211 -0.000006747706767768144 0 -9.556961738111092e-7 0
          -9.55711061957462e-7 0 -9.557557511950561e-7 -0.000001896762808244229 -0.000001896792460893158 -0.0000018968815558555466
          -0.000002807473899052438 -0.0000028075179031320173 -0.0000028076502895013823 -0.000003670255490977366 -0.0000036703127495087227 -0.000003670485060399568
          -0.000004465794992974918 -0.000004465862928777129 -0.000004466067630492865 -0.00000517499628400267 -0.000005175069450705131 -0.0000051752898629033895
          -0.000005784499796906828 -0.000005784569510110762 -0.000005784780744733955 -0.0000062973600493076604 -0.000006297404002252119 -0.000006297536857531271
          -0.000006746300216510495 -0.000006746320569384218 -0.000006746383887012063 0 -9.589087029873775e-7 0
          -9.589234684370813e-7 0 -9.589677555117679e-7 -0.0000019024520795673354 -0.0000019024814276438747 -0.0000019025694902877645
          -0.0000028141807623635025 -0.0000028142240611197883 -0.000002814354116701512 -0.0000036759040277825777 -0.0000036759598065705514 -0.00000367612741730264
          -0.000004468094608245976 -0.000004468159740129296 -0.000004468355857815226 -0.0000051724306353498035 -0.000005172498929301516 -0.000005172704683194037
          -0.0000057778653548232335 -0.000005777927857833766 -0.000005778117422412684 -0.000006290641015582069 -0.000006290676897247313 -0.0000062907853044151444
          -0.000006744443560808787 -0.000006744455849838734 -0.000006744495213401691 0 -9.59945963774669e-7 0
          -9.599607454853147e-7 0 -9.600049323678505e-7 -0.0000019042754773338508 -0.0000019043047416902136 -0.0000019043924571850485
          -0.0000028162935112870378 -0.0000028163364413071125 -0.000002816465604068014 -0.0000036776054482004775 -0.0000036776602571587442 -0.000003677825946877446
          -0.000004468628082427366 -0.000004468691329122962 -0.00000446888387499431 -0.000005171327732444284 -0.000005171393133840977 -0.000005171593058144512
          -0.000005775444440227334 -0.000005775503287821318 -0.000005775684784843045 -0.000006288238542253329 -0.000006288270649929361 -0.000006288370406938499
          -0.000006743651773510217 -0.000006743660624716635 -0.00000674369169607976
        </DataArray>
        <DataArray type="Float64" Name="disp_z" format="ascii" RangeMin="-4.2042536154501654e-7" RangeMax="0">
          0 0 0 0 -1.6234450796402445e-7 -1.607648235395439e-7
          -1.5358983454724633e-7 -1.5639167195181554e-7 -3.245837408176261e-7 -3.214591888300478e-7 -3.0697252885389573e-7 -3.1257045064407056e-7
          0 0 0 0 -1.4526667030141974e-7 -1.5257791271034722e-7
          -1.587330925840114e-7 -1.5280926116396022e-7 -2.905766752183338e-7 -3.05196045206359e-7 -3.173299540428462e-7 -3.0546950023810677e-7
          0 0 -1.6045265054743069e-7 -1.4974913566212125e-7 -3.207327572881992e-7 -2.994520642490624e-7
          0 0 0 -1.6240205673477815e-7 -1.6169543574580415e-7 -1.632590945575612e-7
          -3.246318272397222e-7 -3.23284707881544e-7 -3.2635788758654763e-7 0 0 0
          0 -1.3094492984257506e-7 -1.351378580014947e-7 -1.4114458229501544e-7 -1.31156758054569e-7 -2.622349669173747e-7
          -2.705670179727177e-7 -2.826537667762536e-7 -2.6271303843690103e-7 0 0 0
          0 -1.3583955407965755e-7 -1.4022521759775392e-7 -1.368311338430651e-7 -1.309688083076272e-7 -2.72068700872934e-7
          -2.806182815228628e-7 -2.7386165990831316e-7 -2.62545758705107e-7 0 0 0
          -1.4519312656445701e-7 -1.5379438675394136e-7 -1.5993957537272513e-7 -2.90520896882646e-7 -3.078598602947683e-7 -3.1993528027100784e-7
          0 -1.5830492575168277e-7 -3.1651034404977615e-7 0 0 -1.7237286762759617e-7
          -1.6628223867732732e-7 -3.4483572342397054e-7 -3.327831434380575e-7 0 0 -1.4913988538697982e-7
          -1.5616471434836177e-7 -2.9821054551351583e-7 -3.1225559689182106e-7 0 0 -1.8688229154826912e-7
          -1.971967110898565e-7 -3.738029628313704e-7 -3.945766382543177e-7 0 0 0
          0 -1.4718470981998608e-7 -1.5709237996509622e-7 -1.4313128776598295e-7 -1.3412175893002511e-7 -2.946245545787518e-7
          -3.1453013099147016e-7 -2.8650823453999175e-7 -2.6851189088542274e-7 0 -1.8508826954415307e-7 -3.704241605275589e-7
          0 -2.1033994232360615e-7 -4.2042536154501654e-7 0 -1.6756171361802284e-7 -3.350752638647921e-7
          0 0 -1.43160076141513e-7 -1.3725537995636493e-7 -2.863552370974557e-7 -2.74811758713332e-7
          0 0 0 0 -1.810647736366247e-7 -1.681618440768152e-7
          -1.6238226268202828e-7 -1.8311527780511115e-7 -3.623417867074945e-7 -3.3646825141316944e-7 -3.2491576046903353e-7 -3.6640577377657323e-7
          0 0 -1.358676127299712e-7 -1.386488096631162e-7 -2.71973607525389e-7 -2.77356013936912e-7
          0 -1.8555834130498524e-7 -3.7144603950765923e-7 0 -1.4636217190997375e-7 -2.9318488396563436e-7
          0 0 -1.815607626075247e-7 -1.8097755607791607e-7 -3.638192595647703e-7 -3.622937113245858e-7
          0 0 -1.3233176027112717e-7 -1.3361628926135528e-7 -2.6490460339131214e-7 -2.6759352766149754e-7
          0 0 -1.466036918079326e-7 -1.5455772056103856e-7 -2.9388765087129625e-7 -3.0968413650356143e-7
          0 -1.736974097057071e-7 -3.477605671064506e-7 0 -1.6924653862366517e-7 -3.388003501587128e-7
          0 -1.6468019521609587e-7 -3.2955796998628065e-7 0 -1.4863141752227507e-7 -2.9778695714188045e-7
          0 -1.6692146839927883e-7 -3.3445752092217387e-7 0 0 -1.9891983752467307e-7
          -1.9644079341955323e-7 -3.974188056357644e-7 -3.928757200761346e-7 0 -1.324337252319201e-7 -2.652049578962074e-7
          0 0 -1.3053496540140656e-7 -1.3304165776663478e-7 -2.615888839631326e-7 -2.664022437317499e-7
          0 0 -1.4364407424950233e-7 -1.5625487237379922e-7 -2.8776648675669455e-7 -3.1298272935162544e-7
          0 0 -1.419398025598579e-7 -1.3763716449344578e-7 -2.839341327745001e-7 -2.755243024462246e-7
          0 -1.57389605012209e-7 -3.151782342184186e-7 0 -1.9251669714800928e-7 -3.848214431547733e-7
          0 -1.8020821274930668e-7 -3.60716503216511e-7 0 0 -1.5679435602034003e-7
          -1.7336143525805905e-7 -3.138727015859721e-7 -3.4715892216922866e-7 0 0 -1.7954928988084005e-7
          -1.8286825372866317e-7 -3.589596236083278e-7 -3.661479172287875e-7 0 0 0
          -1.565299314559078e-7 -1.4959803068375193e-7 -1.6272862858095282e-7 -3.133623387128831e-7 -2.9955167639497194e-7 -3.2576693282845897e-7
          0 -1.6693243665607903e-7 -3.340239171600791e-7 0 0 -1.408262900341298e-7
          -1.376048574787564e-7 -2.8223969583881485e-7 -2.7551951695928997e-7 0 0 -1.426715080739675e-7
          -1.4925742813329243e-7 -2.853633135569669e-7 -2.986356330061754e-7 0 -1.5415657689895707e-7 -3.086587440944038e-7
          0 -1.7683477659915944e-7 -3.540592263585093e-7 0 -1.334518258797855e-7 -2.6743764948869313e-7
          0 0 -1.3599964592519538e-7 -1.3959264620072856e-7 -2.719658502452082e-7 -2.7933132439977894e-7
          0 -1.45159610188792e-7 -2.906638446627526e-7 0 -1.3341160422944857e-7 -2.6738800823778876e-7
          0 -1.3779607992535548e-7 -2.75995079834798e-7 0 -1.3398413279448932e-7 -2.684687770224492e-7
          0 -1.4927996610049446e-7 -2.9793134332269416e-7 0 -1.6035789577759168e-7 -3.2056806417421973e-7
          0 -1.3594048321021247e-7 -2.7184868246206904e-7 0 -1.501135277794595e-7 -3.0018377756829857e-7
          0 -1.6004152003724923e-7 -3.2002337171883454e-7 0 -1.6426004665832952e-7 -3.284773273654369e-7
          0 -1.633189272075598e-7 -3.2666786928973784e-7 0 0 -6.092418395680899e-8
          -6.072100144740327e-8 -1.2184803479885248e-7 -1.2145278116197943e-7 0 0 -5.952791549875483e-8
          -5.937812607232159e-8 -1.1905614495436312e-7 -1.1875216097316616e-7 0 0 -5.7782430987112615e-8
          -5.7690323967965564e-8 -1.1556508559923051e-7 -1.1538153634177413e-7 0 0 -5.5826470079062384e-8
          -5.579130701004412e-8 -1.1165323818108773e-7 -1.1158212390255713e-7 0 0 -5.378837188871304e-8
          -5.380911555887578e-8 -1.0757689887781113e-7 -1.076180701319321e-7 0 0 -5.1778537151716046e-8
          -5.185163775890142e-8 -1.0355738169303885e-7 -1.0370327330220233e-7 0 0 -4.9877133075714584e-8
          -4.999976463307175e-8 -9.975410631021436e-8 -9.999938687170104e-8 0 0 -4.8187194394341425e-8
          -4.833242477237795e-8 -9.63744012925022e-8 -9.666492526646049e-8 0 -6.155936045420299e-8 -1.2313492193279678e-7
          0 -5.995523261461102e-8 -1.1990305349504554e-7 0 -5.802418406478503e-8 -1.1605073259792357e-7
          0 -5.588486108018542e-8 -1.1176866405151289e-7 0 -5.368025203014633e-8 -1.0736023491717358e-7
          0 -5.1522793801671144e-8 -1.0304588539363875e-7 0 -4.947754115893113e-8 -9.895476275975798e-8
          0 -4.7719265635877415e-8 -9.543918876746108e-8 0 -6.244692626570036e-8 -1.2487761885558928e-7
          0 -6.072768205923316e-8 -1.2146854570269896e-7 0 -5.84262815736298e-8 -1.1684756394211619e-7
          0 -5.5987409077763916e-8 -1.1197750881642903e-7 0 -5.349598552928737e-8 -1.0699099861332082e-7
          0 -5.1077783300330946e-8 -1.0215670773638607e-7 0 -4.876954552389468e-8 -9.753751792382399e-8
          0 -4.687578178245132e-8 -9.375151651549563e-8 0 -6.457941106381204e-8 -1.2915492922113762e-7
          0 -6.158524543119089e-8 -1.2315395580765678e-7 0 -5.897618880472196e-8 -1.1795961878565806e-7
          0 -5.604361083594898e-8 -1.1208302839235154e-7 0 -5.315370417413337e-8 -1.0630738359871924e-7
          0 -5.035248415066951e-8 -1.007068103141016e-7 0 -4.764653051509205e-8 -9.529308794141827e-8
          0 -4.5558203242398316e-8 -9.112074003111153e-8 0 -6.505018466650476e-8 -1.3015785678210496e-7
          0 -6.329960969121956e-8 -1.266018890020754e-7 0 -5.93655024969278e-8 -1.1872680269142892e-7
          0 -5.600484646867798e-8 -1.120177740072513e-7 0 -5.255220609429694e-8 -1.0510109659343198e-7
          0 -4.9238846633236636e-8 -9.848078557345465e-8 0 -4.59596048448301e-8 -9.191085710211831e-8
          0 -4.3594224696131114e-8 -8.718479532536494e-8 0 -9.058396420565232e-8 -1.8122533322816643e-7
          0 -7.078884950298122e-8 -1.4166395775923048e-7 0 -6.324567420332467e-8 -1.265214266271044e-7
          0 -6.00497547637905e-8 -1.2008393238163993e-7 0 -5.557368265494987e-8 -1.1114070493233074e-7
          0 -5.16105081321984e-8 -1.0321919348443408e-7 0 -4.761007536826926e-8 -9.522783470968674e-8
          0 -4.349195488988615e-8 -8.698891247509855e-8 0 -4.082700181113071e-8 -8.167419153092233e-8
          0 -1.1782396174706607e-7 -2.3561438401589126e-7 0 -9.042085920669857e-8 -1.8095883480766021e-7
          0 -6.700115397093027e-8 -1.3412876242517981e-7 0 -5.882468189020663e-8 -1.1769420682667962e-7
          0 -5.5333881547660894e-8 -1.1066797052756573e-7 0 -5.0248507958072515e-8 -1.0049032869801132e-7
          0 -4.5313584836520915e-8 -9.063546080462487e-8 0 -3.962304514531239e-8 -7.921706452640671e-8
          0 -3.6330865112152505e-8 -7.26505538178733e-8 0 -1.4376565888819115e-7 -2.8743840323739556e-7
          0 -1.1467528677021117e-7 -2.29332220029289e-7 0 -7.810098008092612e-8 -1.5634417058727314e-7
          0 -5.7678902031864604e-8 -1.1545151689673422e-7 0 -5.3833134938329255e-8 -1.0768373656330413e-7
          0 -4.850035935338794e-8 -9.69743867586628e-8 0 -4.2419123036865376e-8 -8.487419994798487e-8
          0 -3.497103346299051e-8 -6.992354727125896e-8 0 -3.1538858684766564e-8 -6.310638715846385e-8
          0 -1.8563630756531046e-7 -3.7120900539222797e-7 0 -1.5097420961869873e-7 -3.019292656789601e-7
          0 -1.0411889664965897e-7 -2.0843615159952742e-7 0 -6.676841869040856e-8 -1.3371483890756997e-7
          0 -5.343160119034485e-8 -1.0691440078771519e-7 0 -4.815681752688746e-8 -9.629728682933946e-8
          0 -3.716372513537712e-8 -7.435433282659337e-8 0 -2.1577101192315086e-8 -4.3123717532517645e-8
          0 -1.0783825702757183e-8 -2.1578389447932736e-8 0 0 -4.727966775867867e-8
          -4.7105019760541546e-8 -9.455944049540417e-8 -9.420990974009204e-8 0 -4.655432755978393e-8 -9.310829437742136e-8
          0 -4.557617634413883e-8 -9.115031533749034e-8 0 -4.407236777056589e-8 -8.814367005545877e-8
          0 -4.186452495821156e-8 -8.372021464484177e-8 0 -3.8769944657184354e-8 -7.753879572126596e-8
          0 -3.3807811669822944e-8 -6.759126995256679e-8 0 -2.7766148435812526e-8 -5.549592526581828e-8
          0 -1.0167164850385496e-8 -2.027255169278666e-8 0 0 -4.633335381884986e-8
          -4.6147675092097624e-8 -9.26666305199124e-8 -9.229540254837622e-8 0 -4.557413356489286e-8 -9.114878111009713e-8
          0 -4.456902579624372e-8 -8.913929201078256e-8 0 -4.3050538597436595e-8 -8.610385948320669e-8
          0 -4.090317975645722e-8 -8.181014688114389e-8 0 -3.7896554934101325e-8 -7.580327969535174e-8
          0 -3.377573880325595e-8 -6.756245238924654e-8 0 -2.8248945600465967e-8 -5.653430846029945e-8
          0 -1.973410224445211e-8 -3.9506569716964086e-8 0 0 -4.550899799973729e-8
          -4.531629480856381e-8 -9.101801071838465e-8 -9.063255306872203e-8 0 -4.472655857616628e-8 -8.945286996480148e-8
          0 -4.370569992776801e-8 -8.741071613290232e-8 0 -4.219695499384539e-8 -8.439266636291892e-8
          0 -4.011140947040629e-8 -8.022029238698896e-8 0 -3.734325498380914e-8 -7.468290597260536e-8
          0 -3.3766981357759735e-8 -6.752500273298652e-8 0 -2.9421543274912236e-8 -5.882792305815519e-8
          0 -2.4353658248152084e-8 -4.8648807801534357e-8 0 0 -4.481007284096794e-8
          -4.4614572835201256e-8 -8.962013658648006e-8 -8.922915231291527e-8 0 -4.402029838898281e-8 -8.804068973815414e-8
          0 -4.3005050796858735e-8 -8.601036253531002e-8 0 -4.153368339860102e-8 -8.306785782224294e-8
          0 -3.956343434024605e-8 -7.912795963936731e-8 0 -3.706634431028284e-8 -7.413386277587568e-8
          0 -3.405063949770041e-8 -6.810529176281014e-8 0 -3.0744512065166505e-8 -6.149301411770231e-8
          0 -2.776696926279963e-8 -5.554751079015323e-8 0 0 -4.423903432436231e-8
          -4.4043218872553675e-8 -8.847808223351284e-8 -8.808643827037304e-8 0 -4.345172831737446e-8 -8.690342688438372e-8
          0 -4.245328571443976e-8 -8.490648428861867e-8 0 -4.1034571229030465e-8 -8.206896118014638e-8
          0 -3.9191330308194496e-8 -7.838238217796062e-8 0 -3.695475260223571e-8 -7.390869939284934e-8
          0 -3.44229802002529e-8 -6.884537121732399e-8 0 -3.1922473913716623e-8 -6.384194189342963e-8
          0 -3.010683707923164e-8 -6.020302414347598e-8 0 0 -4.379611913943058e-8
          -4.360145658994715e-8 -8.759223428901943e-8 -8.720291623040722e-8 0 -4.301641253796972e-8 -8.603284360589304e-8
          0 -4.2039239122588825e-8 -8.407851663825125e-8 0 -4.067477073536938e-8 -8.134956531207375e-8
          0 -3.894834729399449e-8 -7.789687006388963e-8 0 -3.6932451440854276e-8 -7.386472331822972e-8
          0 -3.478171512907686e-8 -6.956445974567758e-8 0 -3.284701782298976e-8 -6.569329544370036e-8
          0 -3.1707452032639315e-8 -6.341530140672425e-8 0 0 -4.348062176146211e-8
          -4.328765232882202e-8 -8.69612281364108e-8 -8.657529593399248e-8 0 -4.270976886639521e-8 -8.54195366140065e-8
          0 -4.175242755908325e-8 -8.350485971087461e-8 0 -4.043378234876243e-8 -8.086752824205886e-8
          0 -3.879971696868358e-8 -7.759947170232325e-8 0 -3.694933197303143e-8 -7.389832059624814e-8
          0 -3.506962587210216e-8 -7.013974890024649e-8 0 -3.350424187484332e-8 -6.700728880384945e-8
          0 -3.276268599266344e-8 -6.552352302888107e-8 0 0 -4.329166156065539e-8
          -4.31000956479247e-8 -8.658332213127663e-8 -8.620018979028656e-8 0 -4.252761125528521e-8 -8.505521409097326e-8
          0 -4.158406458267456e-8 -8.316812869037847e-8 0 -4.02956581771728e-8 -8.059127301441786e-8
          0 -3.87201373356711e-8 -7.74403372752954e-8 0 -3.6971468639609035e-8 -7.394265811540899e-8
          0 -3.525234061232916e-8 -7.050530312589572e-8 0 -3.389416127702302e-8 -6.778739129554859e-8
          0 -3.336171251368289e-8 -6.672276146257766e-8 0 0 -4.322878452535169e-8
          -4.3037737916594155e-8 -8.645758885032991e-8 -8.607548138651805e-8 0 -4.246719254732725e-8 -8.493437179355914e-8
          0 -4.1528531717607524e-8 -8.305705330158557e-8 0 -4.0250619936975315e-8 -8.050118179918622e-8
          0 -3.869511978994e-8 -7.739029569555317e-8 0 -3.6980750593836765e-8 -7.396123852632703e-8
          0 -3.53148090824128e-8 -7.063021451100852e-8 0 -3.402335090716353e-8 -6.804581351619524e-8
          0 -3.3556783449278757e-8 -6.711267300152981e-8
        </DataArray>
      </PointData>
      <CellData>
        <DataArray type="Int32" Name="libmesh_elem_id" format="ascii" RangeMin="1398" RangeMax="3643">
          1398 1399 1422 1423 1460 1461
          1470 1471 1482 1483 1494 1495
          1502 1503 1506 1507 1520 1521
          1528 1529 1580 1581 1584 1585
          1612 1613 1636 1637 1652 1653
          1722 1723 1798 1799 1850 1851
          2298 2299 2406 2407 2442 2443
          2450 2451 2472 2473 2558 2559
          2610 2611 2646 2647 2648 2649
          2662 2663 2672 2673 2680 2681
          2748 2749 2756 2757 2776 2777
          2808 2809 2814 2815 2822 2823
          2828 2829 2836 2837 2852 2853
          2876 2877 2898 2899 2910 2911
          2926 2927 2936 2937 2950 2951
          2952 2953 2954 2955 2966 2967
          2980 2981 2982 2983 2990 2991
          3006 3007 3014 3015 3026 3027
          3068 3069 3074 3075 3104 3105
          3110 3111 3124 3125 3126 3127
          3168 3169 3194 3195 3204 3205
          3208 3209 3210 3211 3212 3213
          3220 3221 3222 3223 3224 3225
          3226 3227 3234 3235 3236 3237
          3240 3241 3252 3253 3254 3255
          3264 3265 3296 3297 3302 3303
          3308 3309 3314 3315 3324 3325
          3326 3327 3328 3329 3330 3331
          3332 3333 3334 3335 3336 3337
          3342 3343 3344 3345 3346 3347
          3348 3349 3350 3351 3352 3353
          3354 3355 3360 3361 3362 3363
          3364 3365 3366 3367 3368 3369
          3370 3371 3372 3373 3378 3379
          3380 3381 3382 3383 3384 3385
          3386 3387 3388 3389 3390 3391
          3396 3397 3398 3399 3400 3401
          3402 3403 3404 3405 3406 3407
          3408 3409 3414 3415 3416 3417
          3418 3419 3420 3421 3422 3423
          3424 3425 3426 3427 3430 3431
          3432 3433 3434 3435 3436 3437
          3438 3439 3440 3441 3442 3443
          3444 3445 3448 3449 3450 3451
          3452 3453 3454 3455 3456 3457
          3458 3459 3460 3461 3462 3463
          3466 3467 3468 3469 3470 3471
          3472 3473 3474 3475 3476 3477
          3478 3479 3480 3481 3482 3483
          3484 3485 3486 3487 3488 3489
          3490 3491 3492 3493 3494 3495
          3496 3497 3498 3499 3500 3501
          3502 3503 3504 3505 3506 3507
          3508 3509 3510 3511 3512 3513
          3514 3515 3516 3517 3518 3519
          3520 3521 3522 3523 3524 3525
          3526 3527 3528 3529 3530 3531
          3532 3533 3534 3535 3536 3537
          3538 3539 3540 3541 3542 3543
          3544 3545 3546 3547 3548 3549
          3550 3551 3552 3553 3554 3555
          3556 3557 3558 3559 3560 3561
          3562 3563 3564 3565 3566 3567
          3568 3569 3570 3571 3572 3573
          3574 3575 3576 3577 3578 3579
          3580 3581 3582 3583 3584 3585
          3586 3587 3588 3589 3590 3591
          3592 3593 3594 3595 3596 3597
          3598 3599 3600 3601 3602 3603
          3604 3605 3606 3607 3608 3609
          3610 3611 3612 3613 3614 3615
          3616 3617 3618 3619 3620 3621
          3622 3623 3624 3625 3626 3627
          3628 3629 3630 3631 3632 3633
          3634 3635 3636 3637 3638 3639
          3640 3641 3642 3643
        </DataArray>
        <DataArray type="Int32" Name="subdomain_id" format="ascii" RangeMin="107" RangeMax="110">
          107 107 107 107 107 107
          107 107 107 107 107 107
          107 107 107 107 107 107
          107 107 107 107 107 107
          107 107 107 107 107 107
          107 107 107 107 107 107
          107 107 107 107 107 107
          107 107 107 107 107 107
          107 107 107 107 107 107
          107 107 107 107 107 107
          107 107 107 107 107 107
          107 107 107 107 107 107
          107 107 107 107 107 107
          107 107 107 107 107 107
          107 107 107 107 107 107
          107 107 107 107 107 107
          107 107 107 107 107 107
          107 107 107 107 107 107
          107 107 107 107 107 107
          107 107 107 107 107 107
          107 107 107 107 107 107
          107 107 107 107 107 107
          107 107 107 107 107 107
          107 107 107 107 107 107
          107 107 107 107 107 107
          107 107 108 108 108 108
          108 108 108 108 109 109
          109 109 109 109 109 109
          109 109 109 109 109 109
          109 109 109 109 109 109
          109 109 109 109 109 109
          109 109 109 109 109 109
          109 109 109 109 109 109
          109 109 109 109 109 109
          109 109 109 109 109 109
          109 109 109 109 109 109
          109 109 109 109 109 109
          109 109 109 109 109 109
          109 109 109 109 109 109
          109 109 109 109 109 109
          109 109 109 109 109 109
          109 109 109 109 109 109
          109 109 109 109 109 109
          109 109 109 109 109 109
          109 109 109 109 109 109
          109 109 109 109 109 109
          109 109 109 109 109 109
          109 109 109 109 109 109
          109 109 109 109 110 110
          110 110 110 110 110 110
          110 110 110 110 110 110
          110 110 110 110 110 110
          110 110 110 110 110 110
          110 110 110 110 110 110
          110 110 110 110 110 110
          110 110 110 110 110 110
          110 110 110 110 110 110
          110 110 110 110 110 110
          110 110 110 110 110 110
          110 110 110 110 110 110
          110 110 110 110 110 110
          110 110 110 110 110 110
          110 110 110 110 110 110
          110 110 110 110 110 110
          110 110 110 110 110 110
          110 110 110 110 110 110
          110 110 110 110 110 110
          110 110 110 110 110 110
          110 110 110 110 110 110
          110 110 110 110 110 110
          110 110 110 110 110 110
          110 110 110 110 110 110
          110 110 110 110 110 110
          110 110 110 110 110 110
          110 110 110 110 110 110
          110 110 110 110
        </DataArray>
        <DataArray type="Int32" Name="processor_id" format="ascii" RangeMin="0" RangeMax="0">
          0 0 0 0 0 0
          0 0 0 0 0 0
          0 0 0 0 0 0
          0 0 0 0 0 0
          0 0 0 0 0 0
          0 0 0 0 0 0
          0 0 0 0 0 0
          0 0 0 0 0 0
          0 0 0 0 0 0
          0 0 0 0 0 0
          0 0 0 0 0 0
          0 0 0 0 0 0
          0 0 0 0 0 0
          0 0 0 0 0 0
          0 0 0 0 0 0
          0 0 0 0 0 0
          0 0 0 0 0 0
          0 0 0 0 0 0
          0 0 0 0 0 0
          0 0 0 0 0 0
          0 0 0 0 0 0
          0 0 0 0 0 0
          0 0 0 0 0 0
          0 0 0 0 0 0
          0 0 0 0 0 0
          0 0 0 0 0 0
          0 0 0 0 0 0
          0 0 0 0 0 0
          0 0 0 0 0 0
          0 0 0 0 0 0
          0 0 0 0 0 0
          0 0 0 0 0 0
          0 0 0 0 0 0
          0 0 0 0 0 0
          0 0 0 0 0 0
          0 0 0 0 0 0
          0 0 0 0 0 0
          0 0 0 0 0 0
          0 0 0 0 0 0
          0 0 0 0 0 0
          0 0 0 0 0 0
          0 0 0 0 0 0
          0 0 0 0 0 0
          0 0 0 0 0 0
          0 0 0 0 0 0
          0 0 0 0 0 0
          0 0 0 0 0 0
          0 0 0 0 0 0
          0 0 0 0 0 0
          0 0 0 0 0 0
          0 0 0 0 0 0
          0 0 0 0 0 0
          0 0 0 0 0 0
          0 0 0 0 0 0
          0 0 0 0 0 0
          0 0 0 0 0 0
          0 0 0 0 0 0
          0 0 0 0 0 0
          0 0 0 0 0 0
          0 0 0 0 0 0
          0 0 0 0 0 0
          0 0 0 0 0 0
          0 0 0 0 0 0
          0 0 0 0 0 0
          0 0 0 0 0 0
          0 0 0 0 0 0
          0 0 0 0 0 0
          0 0 0 0 0 0
          0 0 0 0 0 0
          0 0 0 0 0 0
          0 0 0 0 0 0
          0 0 0 0 0 0
          0 0 0 0 0 0
          0 0 0 0 0 0
          0 0 0 0 0 0
          0 0 0 0
        </DataArray>
      </CellData>
      <Points>
        <DataArray type="Float64" Name="Points" NumberOfComponents="3" format="ascii" RangeMin="0.019949534490770096" RangeMax="0.057059767276955435">
          0.025 0.010111111111103 0 0.025 0.011555555555552 0
          0.023969654121399 0.011643457228511 0 0.023712354871128 0.010827306146479 0
          0.025 0.010111111111103 0.00015 0.025 0.011555555555552 0.00015
          0.023969654121399 0.011643457228511 0.00015 0.023712354871128 0.010827306146479 0.00015
          0.025 0.010111111111103 0.0003 0.025 0.011555555555552 0.0003
          0.023969654121399 0.011643457228511 0.0003 0.023712354871128 0.010827306146479 0.0003
          0.021832836898909 0.0086447924127183 0 0.021823224979211 0.0078559681587773 0
          0.022737846371709 0.0079006862580081 0 0.022634898807434 0.0088549234284915 0
          0.021832836898909 0.0086447924127183 0.00015 0.021823224979211 0.0078559681587773 0.00015
          0.022737846371709 0.0079006862580081 0.00015 0.022634898807434 0.0088549234284915 0.00015
          0.021832836898909 0.0086447924127183 0.0003 0.021823224979211 0.0078559681587773 0.0003
          0.022737846371709 0.0079006862580081 0.0003 0.022634898807434 0.0088549234284915 0.0003
          0.023595500831214 0.0092794942281182 0 0.023071107871262 0.010124307969263 0
          0.023595500831214 0.0092794942281182 0.00015 0.023071107871262 0.010124307969263 0.00015
          0.023595500831214 0.0092794942281182 0.0003 0.023071107871262 0.010124307969263 0.0003
          0.022679909737796 0.0068405181074087 0 0.023816654948859 0.0069324696013164 0
          0.023805320189621 0.0081867285281858 0 0.022679909737796 0.0068405181074087 0.00015
          0.023816654948859 0.0069324696013164 0.00015 0.023805320189621 0.0081867285281858 0.00015
          0.022679909737796 0.0068405181074087 0.0003 0.023816654948859 0.0069324696013164 0.0003
          0.023805320189621 0.0081867285281858 0.0003 0.021890570917318 0.011219591567605 0
          0.021490495874743 0.011513015985888 0 0.020878683694742 0.011349585571751 0
          0.021380466308845 0.010767094219468 0 0.021890570917318 0.011219591567605 0.00015
          0.021490495874743 0.011513015985888 0.00015 0.020878683694742 0.011349585571751 0.00015
          0.021380466308845 0.010767094219468 0.00015 0.021890570917318 0.011219591567605 0.0003
          0.021490495874743 0.011513015985888 0.0003 0.020878683694742 0.011349585571751 0.0003
          0.021380466308845 0.010767094219468 0.0003 0.022336312736143 0.012467557709352 0
          0.021763745105177 0.012476629724541 0 0.021622459990569 0.011931223094182 0
          0.02233098651665 0.011816769005978 0 0.022336312736143 0.012467557709352 0.00015
          0.021763745105177 0.012476629724541 0.00015 0.021622459990569 0.011931223094182 0.00015
          0.02233098651665 0.011816769005978 0.00015 0.022336312736143 0.012467557709352 0.0003
          0.021763745105177 0.012476629724541 0.0003 0.021622459990569 0.011931223094182 0.0003
          0.02233098651665 0.011816769005978 0.0003 0.021047379294988 0.0079667793778881 0
          0.020813290684512 0.007243328880283 0 0.021666975794544 0.0069715825078724 0
          0.021047379294988 0.0079667793778881 0.00015 0.020813290684512 0.007243328880283 0.00015
          0.021666975794544 0.0069715825078724 0.00015 0.021047379294988 0.0079667793778881 0.0003
          0.020813290684512 0.007243328880283 0.0003 0.021666975794544 0.0069715825078724 0.0003
          0.025 0.0086666666666559 0 0.025 0.0086666666666559 0.00015
          0.025 0.0086666666666559 0.0003 0.021356284292895 0.0061182113295331 0
          0.020489019208248 0.0065103794253073 0 0.021356284292895 0.0061182113295331 0.00015
          0.020489019208248 0.0065103794253073 0.00015 0.021356284292895 0.0061182113295331 0.0003
          0.020489019208248 0.0065103794253073 0.0003 0.025 0.0072222222222063 0
          0.023829479378086 0.0056593315311521 0 0.025 0.0072222222222063 0.00015
          0.023829479378086 0.0056593315311521 0.00015 0.025 0.0072222222222063 0.0003
          0.023829479378086 0.0056593315311521 0.0003 0.019357361519954 0.01157618305141 0
          0.01884046117173 0.011223113854601 0 0.019357361519954 0.01157618305141 0.00015
          0.01884046117173 0.011223113854601 0.00015 0.019357361519954 0.01157618305141 0.0003
          0.01884046117173 0.011223113854601 0.0003 0.020274347850796 0.01080512315655 0
          0.019692191057164 0.010418143528135 0 0.020104676199583 0.0097475599042502 0
          0.020792052735599 0.010316149813733 0 0.020274347850796 0.01080512315655 0.00015
          0.019692191057164 0.010418143528135 0.00015 0.020104676199583 0.0097475599042502 0.00015
          0.020792052735599 0.010316149813733 0.00015 0.020274347850796 0.01080512315655 0.0003
          0.019692191057164 0.010418143528135 0.0003 0.020104676199583 0.0097475599042502 0.0003
          0.020792052735599 0.010316149813733 0.0003 0.018734278863615 0.0068564365277259 0
          0.018734278863615 0.0068564365277259 0.00015 0.018734278863615 0.0068564365277259 0.0003
          0.018384253973557 0.010894663204421 0 0.018384253973557 0.010894663204421 0.00015
          0.018384253973557 0.010894663204421 0.0003 0.022477642087048 0.0055533155338694 0
          0.022477642087048 0.0055533155338694 0.00015 0.022477642087048 0.0055533155338694 0.0003
          0.022333445868241 0.0096250088550796 0 0.021678233976573 0.0092839168226163 0
          0.022333445868241 0.0096250088550796 0.00015 0.021678233976573 0.0092839168226163 0.00015
          0.022333445868241 0.0096250088550796 0.0003 0.021678233976573 0.0092839168226163 0.0003
          0.018696511924608 0.0075816988835645 0 0.019307778433714 0.0076950261479263 0
          0.019244919669154 0.0083241905034728 0 0.018643245907353 0.0082916041839039 0
          0.018696511924608 0.0075816988835645 0.00015 0.019307778433714 0.0076950261479263 0.00015
          0.019244919669154 0.0083241905034728 0.00015 0.018643245907353 0.0082916041839039 0.00015
          0.018696511924608 0.0075816988835645 0.0003 0.019307778433714 0.0076950261479263 0.0003
          0.019244919669154 0.0083241905034728 0.0003 0.018643245907353 0.0082916041839039 0.0003
          0.02247089481133 0.010746063389313 0 0.022956441030322 0.011313723369763 0
          0.02247089481133 0.010746063389313 0.00015 0.022956441030322 0.011313723369763 0.00015
          0.02247089481133 0.010746063389313 0.0003 0.022956441030322 0.011313723369763 0.0003
          0.018817000838468 0.010560792840001 0 0.018817000838468 0.010560792840001 0.00015
          0.018817000838468 0.010560792840001 0.0003 0.021028725472558 0.011993213484042 0
          0.021028725472558 0.011993213484042 0.00015 0.021028725472558 0.011993213484042 0.0003
          0.018719100515555 0.0096191331103102 0 0.018769006148643 0.010016813571171 0
          0.018719100515555 0.0096191331103102 0.00015 0.018769006148643 0.010016813571171 0.00015
          0.018719100515555 0.0096191331103102 0.0003 0.018769006148643 0.010016813571171 0.0003
          0.022845614094026 0.012068678060928 0 0.022870050818517 0.012481997757377 0
          0.022845614094026 0.012068678060928 0.00015 0.022870050818517 0.012481997757377 0.00015
          0.022845614094026 0.012068678060928 0.0003 0.022870050818517 0.012481997757377 0.0003
          0.01980903614198 0.0082923028866096 0 0.019733887771193 0.007830319872041 0
          0.01980903614198 0.0082923028866096 0.00015 0.019733887771193 0.007830319872041 0.00015
          0.01980903614198 0.0082923028866096 0.0003 0.019733887771193 0.007830319872041 0.0003
          0.019287865107188 0.010870204720027 0 0.019287865107188 0.010870204720027 0.00015
          0.019287865107188 0.010870204720027 0.0003 0.019611341590458 0.0069319215290848 0
          0.019611341590458 0.0069319215290848 0.00015 0.019611341590458 0.0069319215290848 0.0003
          0.019793192887703 0.011218191570876 0 0.019793192887703 0.011218191570876 0.00015
          0.019793192887703 0.011218191570876 0.0003 0.02014052068744 0.0075597001530957 0
          0.02014052068744 0.0075597001530957 0.00015 0.02014052068744 0.0075597001530957 0.0003
          0.019142781766586 0.010156284019367 0 0.019142781766586 0.010156284019367 0.00015
          0.019142781766586 0.010156284019367 0.0003 0.019871794871807 0.013 0
          0.019671681078705 0.012567114388191 0 0.019871794871807 0.013 0.00015
          0.019671681078705 0.012567114388191 0.00015 0.019871794871807 0.013 0.0003
          0.019671681078705 0.012567114388191 0.0003 0.02189605775595 0.01024368797285 0
          0.02189605775595 0.01024368797285 0.00015 0.02189605775595 0.01024368797285 0.0003
          0.021306208963658 0.0098107932917518 0 0.020830530356293 0.0093484326970494 0
          0.021306208963658 0.0098107932917518 0.00015 0.020830530356293 0.0093484326970494 0.00015
          0.021306208963658 0.0098107932917518 0.0003 0.020830530356293 0.0093484326970494 0.0003
          0.019927087042343 0.0089401115508047 0 0.019284140679376 0.0089915496868705 0
          0.019927087042343 0.0089401115508047 0.00015 0.019284140679376 0.0089915496868705 0.00015
          0.019927087042343 0.0089401115508047 0.0003 0.019284140679376 0.0089915496868705 0.0003
          0.023272296973232 0.01187913061167 0 0.023408043049707 0.012441583397961 0
          0.023272296973232 0.01187913061167 0.00015 0.023408043049707 0.012441583397961 0.00015
          0.023272296973232 0.01187913061167 0.0003 0.023408043049707 0.012441583397961 0.0003
          0.019291729405334 0.009640079412969 0 0.019291729405334 0.009640079412969 0.00015
          0.019291729405334 0.009640079412969 0.0003 0.019497075330812 0.012129782091497 0
          0.019497075330812 0.012129782091497 0.00015 0.019497075330812 0.012129782091497 0.0003
          0.018655444813331 0.0089912542068827 0 0.018655444813331 0.0089912542068827 0.00015
          0.018655444813331 0.0089912542068827 0.0003 0.020217772280624 0.01161574996656 0
          0.019866459267603 0.011787315550137 0 0.020217772280624 0.01161574996656 0.00015
          0.019866459267603 0.011787315550137 0.00015 0.020217772280624 0.01161574996656 0.0003
          0.019866459267603 0.011787315550137 0.0003 0.020169909004412 0.012559422291794 0
          0.020384615384626 0.013 0 0.020169909004412 0.012559422291794 0.00015
          0.020384615384626 0.013 0.00015 0.020169909004412 0.012559422291794 0.0003
          0.020384615384626 0.013 0.0003 0.02048968364866 0.012063778985416 0
          0.021216890903006 0.012503701361908 0 0.020684692364028 0.012535095885709 0
          0.02048968364866 0.012063778985416 0.00015 0.021216890903006 0.012503701361908 0.00015
          0.020684692364028 0.012535095885709 0.00015 0.02048968364866 0.012063778985416 0.0003
          0.021216890903006 0.012503701361908 0.0003 0.020684692364028 0.012535095885709 0.0003
          0.020897435897446 0.013 0 0.020897435897446 0.013 0.00015
          0.020897435897446 0.013 0.0003 0.020387511226442 0.0081443073342907 0
          0.02056343795537 0.0087688297792787 0 0.020387511226442 0.0081443073342907 0.00015
          0.02056343795537 0.0087688297792787 0.00015 0.020387511226442 0.0081443073342907 0.0003
          0.02056343795537 0.0087688297792787 0.0003 0.023967653117571 0.012391671962311 0
          0.024322147732379 0.012509260561901 0 0.023967653117571 0.012391671962311 0.00015
          0.024322147732379 0.012509260561901 0.00015 0.023967653117571 0.012391671962311 0.0003
          0.024322147732379 0.012509260561901 0.0003 0.021410256410266 0.013 0
          0.021410256410266 0.013 0.00015 0.021410256410266 0.013 0.0003
          0.019993073529409 0.012116879865089 0 0.019993073529409 0.012116879865089 0.00015
          0.019993073529409 0.012116879865089 0.0003 0.02122910202584 0.0090825003429501 0
          0.02122910202584 0.0090825003429501 0.00015 0.02122910202584 0.0090825003429501 0.0003
          0.022948717948721 0.013 0 0.022435897435903 0.013 0
          0.022948717948721 0.013 0.00015 0.022435897435903 0.013 0.00015
          0.022948717948721 0.013 0.0003 0.022435897435903 0.013 0.0003
          0.021923076923085 0.013 0 0.021923076923085 0.013 0.00015
          0.021923076923085 0.013 0.0003 0.023461538461539 0.013 0
          0.023461538461539 0.013 0.00015 0.023461538461539 0.013 0.0003
          0.021171209164951 0.0086229949315581 0 0.021171209164951 0.0086229949315581 0.00015
          0.021171209164951 0.0086229949315581 0.0003 0.023974358974358 0.013 0
          0.023974358974358 0.013 0.00015 0.023974358974358 0.013 0.0003
          0.024487179487177 0.013 0 0.024487179487177 0.013 0.00015
          0.024487179487177 0.013 0.0003 0.025 0.013 0
          0.025 0.013 0.00015 0.025 0.013 0.0003
          0.026666666666667 0.0072222222222063 0 0.026666666666667 0.0072222222222063 0.00015
          0.026666666666667 0.0072222222222063 0.0003 0.026666666666668 0.0086666666666559 0
          0.026666666666668 0.0086666666666559 0.00015 0.026666666666668 0.0086666666666559 0.0003
          0.026666666666669 0.010111111111103 0 0.026666666666669 0.010111111111103 0.00015
          0.026666666666669 0.010111111111103 0.0003 0.026666666666669 0.011555555555552 0
          0.026666666666669 0.011555555555552 0.00015 0.026666666666669 0.011555555555552 0.0003
          0.02666666666667 0.013 0 0.02666666666667 0.013 0.00015
          0.02666666666667 0.013 0.0003 0.033201501647561 0.0014698753983525 0
          0.033179797338052 0 0 0.033201501647561 0.0014698753983525 0.00015
          0.033179797338052 0 0.00015 0.033201501647561 0.0014698753983525 0.0003
          0.033179797338052 0 0.0003 0.034800103200053 0.0015015548376625 0
          0.034769696007096 0 0 0.034800103200053 0.0015015548376625 0.00015
          0.034769696007096 0 0.00015 0.034800103200053 0.0015015548376625 0.0003
          0.034769696007096 0 0.0003 0.03639613666046 0.0015457026119765 0
          0.036359594676111 0 0 0.03639613666046 0.0015457026119765 0.00015
          0.036359594676111 0 0.00015 0.03639613666046 0.0015457026119765 0.0003
          0.036359594676111 0 0.0003 0.037988764334349 0.001602116400018 0
          0.037949493345121 0 0 0.037988764334349 0.001602116400018 0.00015
          0.037949493345121 0 0.00015 0.037988764334349 0.001602116400018 0.0003
          0.037949493345121 0 0.0003 0.039577164134098 0.001670537667151 0
          0.039539392014149 0 0 0.039577164134098 0.001670537667151 0.00015
          0.039539392014149 0 0.00015 0.039577164134098 0.001670537667151 0.0003
          0.039539392014149 0 0.0003 0.041160533348121 0.0017506528505884 0
          0.041129290683195 0 0 0.041160533348121 0.0017506528505884 0.00015
          0.041129290683195 0 0.00015 0.041160533348121 0.0017506528505884 0.0003
          0.041129290683195 0 0.0003 0.042738092320879 0.0018420947973532 0
          0.042719189352233 0 0 0.042738092320879 0.0018420947973532 0.00015
          0.042719189352233 0 0.00015 0.042738092320879 0.0018420947973532 0.0003
          0.042719189352233 0 0.0003 0.044309088021254 0.0019444444444413 0
          0.044309088021254 0 0 0.044309088021254 0.0019444444444413 0.00015
          0.044309088021254 0 0.00015 0.044309088021254 0.0019444444444413 0.0003
          0.044309088021254 0 0.0003 0.033223205957069 0.0029397507967035 0
          0.033223205957069 0.0029397507967035 0.00015 0.033223205957069 0.0029397507967035 0.0003
          0.03483051039301 0.0030031096753234 0 0.03483051039301 0.0030031096753234 0.00015
          0.03483051039301 0.0030031096753234 0.0003 0.036432678644808 0.0030914052239513 0
          0.036432678644808 0.0030914052239513 0.00015 0.036432678644808 0.0030914052239513 0.0003
          0.038028035323577 0.0032042328000343 0 0.038028035323577 0.0032042328000343 0.00015
          0.038028035323577 0.0032042328000343 0.0003 0.039614936254047 0.0033410753343001 0
          0.039614936254047 0.0033410753343001 0.00015 0.039614936254047 0.0033410753343001 0.0003
          0.041191776013048 0.0035013057011749 0 0.041191776013048 0.0035013057011749 0.00015
          0.041191776013048 0.0035013057011749 0.0003 0.042756995289524 0.0036841895947044 0
          0.042756995289524 0.0036841895947044 0.00015 0.042756995289524 0.0036841895947044 0.0003
          0.044309088021254 0.0038888888888803 0 0.044309088021254 0.0038888888888803 0.00015
          0.044309088021254 0.0038888888888803 0.0003 0.033244910266578 0.0044096261950543 0
          0.033244910266578 0.0044096261950543 0.00015 0.033244910266578 0.0044096261950543 0.0003
          0.034860917585967 0.004504664512984 0 0.034860917585967 0.004504664512984 0.00015
          0.034860917585967 0.004504664512984 0.0003 0.036469220629156 0.0046371078359259 0
          0.036469220629156 0.0046371078359259 0.00015 0.036469220629156 0.0046371078359259 0.0003
          0.038067306312805 0.0048063492000502 0 0.038067306312805 0.0048063492000502 0.00015
          0.038067306312805 0.0048063492000502 0.0003 0.039652708373995 0.0050116130014489 0
          0.039652708373995 0.0050116130014489 0.00015 0.039652708373995 0.0050116130014489 0.0003
          0.041223018677975 0.005251958551761 0 0.041223018677975 0.005251958551761 0.00015
          0.041223018677975 0.005251958551761 0.0003 0.04277589825817 0.0055262843920551 0
          0.04277589825817 0.0055262843920551 0.00015 0.04277589825817 0.0055262843920551 0.0003
          0.044309088021254 0.0058333333333189 0 0.044309088021254 0.0058333333333189 0.00015
          0.044309088021254 0.0058333333333189 0.0003 0.033266614576087 0.0058795015934051 0
          0.033266614576087 0.0058795015934051 0.00015 0.033266614576087 0.0058795015934051 0.0003
          0.034891324778924 0.0060062193506447 0 0.034891324778924 0.0060062193506447 0.00015
          0.034891324778924 0.0060062193506447 0.0003 0.036505762613504 0.0061828104479004 0
          0.036505762613504 0.0061828104479004 0.00015 0.036505762613504 0.0061828104479004 0.0003
          0.038106577302032 0.0064084656000662 0 0.038106577302032 0.0064084656000662 0.00015
          0.038106577302032 0.0064084656000662 0.0003 0.039690480493944 0.0066821506685977 0
          0.039690480493944 0.0066821506685977 0.00015 0.039690480493944 0.0066821506685977 0.0003
          0.041254261342902 0.0070026114023471 0 0.041254261342902 0.0070026114023471 0.00015
          0.041254261342902 0.0070026114023471 0.0003 0.042794801226816 0.0073683791894058 0
          0.042794801226816 0.0073683791894058 0.00015 0.042794801226816 0.0073683791894058 0.0003
          0.044309088021254 0.0077777777777574 0 0.044309088021254 0.0077777777777574 0.00015
          0.044309088021254 0.0077777777777574 0.0003 0.033288318885596 0.0073493769917596 0
          0.033288318885596 0.0073493769917596 0.00015 0.033288318885596 0.0073493769917596 0.0003
          0.034921731971881 0.0075077741883091 0 0.034921731971881 0.0075077741883091 0.00015
          0.034921731971881 0.0075077741883091 0.0003 0.036542304597852 0.0077285130598789 0
          0.036542304597852 0.0077285130598789 0.00015 0.036542304597852 0.0077285130598789 0.0003
          0.03814584829126 0.0080105820000862 0 0.03814584829126 0.0080105820000862 0.00015
          0.03814584829126 0.0080105820000862 0.0003 0.039728252613893 0.0083526883357508 0
          0.039728252613893 0.0083526883357508 0.00015 0.039728252613893 0.0083526883357508 0.0003
          0.041285504007829 0.0087532642529377 0 0.041285504007829 0.0087532642529377 0.00015
          0.041285504007829 0.0087532642529377 0.0003 0.042813704195461 0.0092104739867613 0
          0.042813704195461 0.0092104739867613 0.00015 0.042813704195461 0.0092104739867613 0.0003
          0.044309088021254 0.0097222222222011 0 0.044309088021254 0.0097222222222011 0.00015
          0.044309088021254 0.0097222222222011 0.0003 0.031657595460571 0.0087048568522863 0
          0.031657595460571 0.0087048568522863 0.00015 0.031657595460571 0.0087048568522863 0.0003
          0.033310023195106 0.0088192523901195 0 0.033310023195106 0.0088192523901195 0.00015
          0.033310023195106 0.0088192523901195 0.0003 0.034952139164838 0.009009329025979 0
          0.034952139164838 0.009009329025979 0.00015 0.034952139164838 0.009009329025979 0.0003
          0.0365788465822 0.0092742156718627 0 0.0365788465822 0.0092742156718627 0.00015
          0.0365788465822 0.0092742156718627 0.0003 0.038185119280488 0.0096126984001116 0
          0.038185119280488 0.0096126984001116 0.00015 0.038185119280488 0.0096126984001116 0.0003
          0.039766024733842 0.010023226002909 0 0.039766024733842 0.010023226002909 0.00015
          0.039766024733842 0.010023226002909 0.0003 0.041316746672756 0.010503917103534 0
          0.041316746672756 0.010503917103534 0.00015 0.041316746672756 0.010503917103534 0.0003
          0.042832607164107 0.011052568784123 0 0.042832607164107 0.011052568784123 0.00015
          0.042832607164107 0.011052568784123 0.0003 0.044309088021254 0.011666666666651 0
          0.044309088021254 0.011666666666651 0.00015 0.044309088021254 0.011666666666651 0.0003
          0.031668878259163 0.010155666327672 0 0.031668878259163 0.010155666327672 0.00015
          0.031668878259163 0.010155666327672 0.0003 0.033331727504615 0.010289127788478 0
          0.033331727504615 0.010289127788478 0.00015 0.033331727504615 0.010289127788478 0.0003
          0.034982546357795 0.010510883863647 0 0.034982546357795 0.010510883863647 0.00015
          0.034982546357795 0.010510883863647 0.0003 0.036615388566549 0.010819918283845 0
          0.036615388566549 0.010819918283845 0.00015 0.036615388566549 0.010819918283845 0.0003
          0.038224390269716 0.011214814800136 0 0.038224390269716 0.011214814800136 0.00015
          0.038224390269716 0.011214814800136 0.0003 0.039803796853791 0.011693763670067 0
          0.039803796853791 0.011693763670067 0.00015 0.039803796853791 0.011693763670067 0.0003
          0.041347989337683 0.012254569954129 0 0.041347989337683 0.012254569954129 0.00015
          0.041347989337683 0.012254569954129 0.0003 0.042851510132752 0.012894663581483 0
          0.042851510132752 0.012894663581483 0.00015 0.042851510132752 0.012894663581483 0.0003
          0.044309088021254 0.0136111111111 0 0.044309088021254 0.0136111111111 0.00015
          0.044309088021254 0.0136111111111 0.0003 0.031680161057755 0.011606475803059 0
          0.031680161057755 0.011606475803059 0.00015 0.031680161057755 0.011606475803059 0.0003
          0.033353431814124 0.011759003186837 0 0.033353431814124 0.011759003186837 0.00015
          0.033353431814124 0.011759003186837 0.0003 0.035012953550752 0.012012438701317 0
          0.035012953550752 0.012012438701317 0.00015 0.035012953550752 0.012012438701317 0.0003
          0.036651930550897 0.012365620895829 0 0.036651930550897 0.012365620895829 0.00015
          0.036651930550897 0.012365620895829 0.0003 0.038263661258944 0.012816931200161 0
          0.038263661258944 0.012816931200161 0.00015 0.038263661258944 0.012816931200161 0.0003
          0.03984156897374 0.013364301337225 0 0.03984156897374 0.013364301337225 0.00015
          0.03984156897374 0.013364301337225 0.0003 0.04137923200261 0.014005222804725 0
          0.04137923200261 0.014005222804725 0.00015 0.04137923200261 0.014005222804725 0.0003
          0.042870413101398 0.014736758378844 0 0.042870413101398 0.014736758378844 0.00015
          0.042870413101398 0.014736758378844 0.0003 0.044309088021254 0.015555555555549 0
          0.044309088021254 0.015555555555549 0.00015 0.044309088021254 0.015555555555549 0.0003
          0.031691443856347 0.013057285278446 0 0.031691443856347 0.013057285278446 0.00015
          0.031691443856347 0.013057285278446 0.0003 0.033375136123633 0.013228878585196 0
          0.033375136123633 0.013228878585196 0.00015 0.033375136123633 0.013228878585196 0.0003
          0.035043360743709 0.013513993538986 0 0.035043360743709 0.013513993538986 0.00015
          0.035043360743709 0.013513993538986 0.0003 0.036688472535245 0.013911323507812 0
          0.036688472535245 0.013911323507812 0.00015 0.036688472535245 0.013911323507812 0.0003
          0.038302932248172 0.014419047600187 0 0.038302932248172 0.014419047600187 0.00015
          0.038302932248172 0.014419047600187 0.0003 0.039879341093689 0.015034839004384 0
          0.039879341093689 0.015034839004384 0.00015 0.039879341093689 0.015034839004384 0.0003
          0.041410474667538 0.015755875655322 0 0.041410474667538 0.015755875655322 0.00015
          0.041410474667538 0.015755875655322 0.0003 0.042889316070044 0.016578853176207 0
          0.042889316070044 0.016578853176207 0.00015 0.042889316070044 0.016578853176207 0.0003
          0.044309088021254 0.0175 0 0.044309088021254 0.0175 0.00015
          0.044309088021254 0.0175 0.0003 0.045420199132363 0 0
          0.045420199132363 0.0019444444444413 0 0.045420199132363 0 0.00015
          0.045420199132363 0.0019444444444413 0.00015 0.045420199132363 0 0.0003
          0.045420199132363 0.0019444444444413 0.0003 0.045420199132363 0.0038888888888803 0
          0.045420199132363 0.0038888888888803 0.00015 0.045420199132363 0.0038888888888803 0.0003
          0.045420199132363 0.0058333333333189 0 0.045420199132363 0.0058333333333189 0.00015
          0.045420199132363 0.0058333333333189 0.0003 0.045420199132363 0.0077777777777574 0
          0.045420199132363 0.0077777777777574 0.00015 0.045420199132363 0.0077777777777574 0.0003
          0.045420199132363 0.0097222222222011 0 0.045420199132363 0.0097222222222011 0.00015
          0.045420199132363 0.0097222222222011 0.0003 0.045420199132363 0.011666666666651 0
          0.045420199132363 0.011666666666651 0.00015 0.045420199132363 0.011666666666651 0.0003
          0.045420199132363 0.0136111111111 0 0.045420199132363 0.0136111111111 0.00015
          0.045420199132363 0.0136111111111 0.0003 0.045420199132363 0.015555555555549 0
          0.045420199132363 0.015555555555549 0.00015 0.045420199132363 0.015555555555549 0.0003
          0.045420199132363 0.0175 0 0.045420199132363 0.0175 0.00015
          0.045420199132363 0.0175 0.0003 0.046531310243475 0 0
          0.046531310243475 0.0019444444444413 0 0.046531310243475 0 0.00015
          0.046531310243475 0.0019444444444413 0.00015 0.046531310243475 0 0.0003
          0.046531310243475 0.0019444444444413 0.0003 0.046531310243475 0.0038888888888803 0
          0.046531310243475 0.0038888888888803 0.00015 0.046531310243475 0.0038888888888803 0.0003
          0.046531310243475 0.0058333333333189 0 0.046531310243475 0.0058333333333189 0.00015
          0.046531310243475 0.0058333333333189 0.0003 0.046531310243475 0.0077777777777574 0
          0.046531310243475 0.0077777777777574 0.00015 0.046531310243475 0.0077777777777574 0.0003
          0.046531310243475 0.0097222222222011 0 0.046531310243475 0.0097222222222011 0.00015
          0.046531310243475 0.0097222222222011 0.0003 0.046531310243475 0.011666666666651 0
          0.046531310243475 0.011666666666651 0.00015 0.046531310243475 0.011666666666651 0.0003
          0.046531310243475 0.0136111111111 0 0.046531310243475 0.0136111111111 0.00015
          0.046531310243475 0.0136111111111 0.0003 0.046531310243475 0.015555555555549 0
          0.046531310243475 0.015555555555549 0.00015 0.046531310243475 0.015555555555549 0.0003
          0.046531310243475 0.0175 0 0.046531310243475 0.0175 0.00015
          0.046531310243475 0.0175 0.0003 0.04764242135458 0 0
          0.04764242135458 0.0019444444444413 0 0.04764242135458 0 0.00015
          0.04764242135458 0.0019444444444413 0.00015 0.04764242135458 0 0.0003
          0.04764242135458 0.0019444444444413 0.0003 0.04764242135458 0.0038888888888803 0
          0.04764242135458 0.0038888888888803 0.00015 0.04764242135458 0.0038888888888803 0.0003
          0.04764242135458 0.0058333333333189 0 0.04764242135458 0.0058333333333189 0.00015
          0.04764242135458 0.0058333333333189 0.0003 0.04764242135458 0.0077777777777574 0
          0.04764242135458 0.0077777777777574 0.00015 0.04764242135458 0.0077777777777574 0.0003
          0.04764242135458 0.0097222222222011 0 0.04764242135458 0.0097222222222011 0.00015
          0.04764242135458 0.0097222222222011 0.0003 0.04764242135458 0.011666666666651 0
          0.04764242135458 0.011666666666651 0.00015 0.04764242135458 0.011666666666651 0.0003
          0.04764242135458 0.0136111111111 0 0.04764242135458 0.0136111111111 0.00015
          0.04764242135458 0.0136111111111 0.0003 0.04764242135458 0.015555555555549 0
          0.04764242135458 0.015555555555549 0.00015 0.04764242135458 0.015555555555549 0.0003
          0.04764242135458 0.0175 0 0.04764242135458 0.0175 0.00015
          0.04764242135458 0.0175 0.0003 0.048753532465692 0 0
          0.048753532465692 0.0019444444444413 0 0.048753532465692 0 0.00015
          0.048753532465692 0.0019444444444413 0.00015 0.048753532465692 0 0.0003
          0.048753532465692 0.0019444444444413 0.0003 0.048753532465692 0.0038888888888803 0
          0.048753532465692 0.0038888888888803 0.00015 0.048753532465692 0.0038888888888803 0.0003
          0.048753532465692 0.0058333333333189 0 0.048753532465692 0.0058333333333189 0.00015
          0.048753532465692 0.0058333333333189 0.0003 0.048753532465692 0.0077777777777574 0
          0.048753532465692 0.0077777777777574 0.00015 0.048753532465692 0.0077777777777574 0.0003
          0.048753532465692 0.0097222222222011 0 0.048753532465692 0.0097222222222011 0.00015
          0.048753532465692 0.0097222222222011 0.0003 0.048753532465692 0.011666666666651 0
          0.048753532465692 0.011666666666651 0.00015 0.048753532465692 0.011666666666651 0.0003
          0.048753532465692 0.0136111111111 0 0.048753532465692 0.0136111111111 0.00015
          0.048753532465692 0.0136111111111 0.0003 0.048753532465692 0.015555555555549 0
          0.048753532465692 0.015555555555549 0.00015 0.048753532465692 0.015555555555549 0.0003
          0.048753532465692 0.0175 0 0.048753532465692 0.0175 0.00015
          0.048753532465692 0.0175 0.0003 0.0498646435768 0 0
          0.0498646435768 0.0019444444444413 0 0.0498646435768 0 0.00015
          0.0498646435768 0.0019444444444413 0.00015 0.0498646435768 0 0.0003
          0.0498646435768 0.0019444444444413 0.0003 0.0498646435768 0.0038888888888803 0
          0.0498646435768 0.0038888888888803 0.00015 0.0498646435768 0.0038888888888803 0.0003
          0.0498646435768 0.0058333333333189 0 0.0498646435768 0.0058333333333189 0.00015
          0.0498646435768 0.0058333333333189 0.0003 0.0498646435768 0.0077777777777574 0
          0.0498646435768 0.0077777777777574 0.00015 0.0498646435768 0.0077777777777574 0.0003
          0.0498646435768 0.0097222222222011 0 0.0498646435768 0.0097222222222011 0.00015
          0.0498646435768 0.0097222222222011 0.0003 0.0498646435768 0.011666666666651 0
          0.0498646435768 0.011666666666651 0.00015 0.0498646435768 0.011666666666651 0.0003
          0.0498646435768 0.0136111111111 0 0.0498646435768 0.0136111111111 0.00015
          0.0498646435768 0.0136111111111 0.0003 0.0498646435768 0.015555555555549 0
          0.0498646435768 0.015555555555549 0.00015 0.0498646435768 0.015555555555549 0.0003
          0.0498646435768 0.0175 0 0.0498646435768 0.0175 0.00015
          0.0498646435768 0.0175 0.0003 0.050975754687912 0 0
          0.050975754687912 0.0019444444444413 0 0.050975754687912 0 0.00015
          0.050975754687912 0.0019444444444413 0.00015 0.050975754687912 0 0.0003
          0.050975754687912 0.0019444444444413 0.0003 0.050975754687912 0.0038888888888803 0
          0.050975754687912 0.0038888888888803 0.00015 0.050975754687912 0.0038888888888803 0.0003
          0.050975754687912 0.0058333333333189 0 0.050975754687912 0.0058333333333189 0.00015
          0.050975754687912 0.0058333333333189 0.0003 0.050975754687912 0.0077777777777574 0
          0.050975754687912 0.0077777777777574 0.00015 0.050975754687912 0.0077777777777574 0.0003
          0.050975754687912 0.0097222222222011 0 0.050975754687912 0.0097222222222011 0.00015
          0.050975754687912 0.0097222222222011 0.0003 0.050975754687912 0.011666666666651 0
          0.050975754687912 0.011666666666651 0.00015 0.050975754687912 0.011666666666651 0.0003
          0.050975754687912 0.0136111111111 0 0.050975754687912 0.0136111111111 0.00015
          0.050975754687912 0.0136111111111 0.0003 0.050975754687912 0.015555555555549 0
          0.050975754687912 0.015555555555549 0.00015 0.050975754687912 0.015555555555549 0.0003
          0.050975754687912 0.0175 0 0.050975754687912 0.0175 0.00015
          0.050975754687912 0.0175 0.0003 0.052086865799025 0 0
          0.052086865799025 0.0019444444444413 0 0.052086865799025 0 0.00015
          0.052086865799025 0.0019444444444413 0.00015 0.052086865799025 0 0.0003
          0.052086865799025 0.0019444444444413 0.0003 0.052086865799025 0.0038888888888803 0
          0.052086865799025 0.0038888888888803 0.00015 0.052086865799025 0.0038888888888803 0.0003
          0.052086865799025 0.0058333333333189 0 0.052086865799025 0.0058333333333189 0.00015
          0.052086865799025 0.0058333333333189 0.0003 0.052086865799025 0.0077777777777574 0
          0.052086865799025 0.0077777777777574 0.00015 0.052086865799025 0.0077777777777574 0.0003
          0.052086865799025 0.0097222222222011 0 0.052086865799025 0.0097222222222011 0.00015
          0.052086865799025 0.0097222222222011 0.0003 0.052086865799025 0.011666666666651 0
          0.052086865799025 0.011666666666651 0.00015 0.052086865799025 0.011666666666651 0.0003
          0.052086865799025 0.0136111111111 0 0.052086865799025 0.0136111111111 0.00015
          0.052086865799025 0.0136111111111 0.0003 0.052086865799025 0.015555555555549 0
          0.052086865799025 0.015555555555549 0.00015 0.052086865799025 0.015555555555549 0.0003
          0.052086865799025 0.0175 0 0.052086865799025 0.0175 0.00015
          0.052086865799025 0.0175 0.0003 0.05319797691014 0 0
          0.05319797691014 0.0019444444444413 0 0.05319797691014 0 0.00015
          0.05319797691014 0.0019444444444413 0.00015 0.05319797691014 0 0.0003
          0.05319797691014 0.0019444444444413 0.0003 0.05319797691014 0.0038888888888803 0
          0.05319797691014 0.0038888888888803 0.00015 0.05319797691014 0.0038888888888803 0.0003
          0.05319797691014 0.0058333333333189 0 0.05319797691014 0.0058333333333189 0.00015
          0.05319797691014 0.0058333333333189 0.0003 0.05319797691014 0.0077777777777574 0
          0.05319797691014 0.0077777777777574 0.00015 0.05319797691014 0.0077777777777574 0.0003
          0.05319797691014 0.0097222222222011 0 0.05319797691014 0.0097222222222011 0.00015
          0.05319797691014 0.0097222222222011 0.0003 0.05319797691014 0.011666666666651 0
          0.05319797691014 0.011666666666651 0.00015 0.05319797691014 0.011666666666651 0.0003
          0.05319797691014 0.0136111111111 0 0.05319797691014 0.0136111111111 0.00015
          0.05319797691014 0.0136111111111 0.0003 0.05319797691014 0.015555555555549 0
          0.05319797691014 0.015555555555549 0.00015 0.05319797691014 0.015555555555549 0.0003
          0.05319797691014 0.0175 0 0.05319797691014 0.0175 0.00015
          0.05319797691014 0.0175 0.0003 0.054309088021254 0 0
          0.054309088021254 0.0019444444444413 0 0.054309088021254 0 0.00015
          0.054309088021254 0.0019444444444413 0.00015 0.054309088021254 0 0.0003
          0.054309088021254 0.0019444444444413 0.0003 0.054309088021254 0.0038888888888803 0
          0.054309088021254 0.0038888888888803 0.00015 0.054309088021254 0.0038888888888803 0.0003
          0.054309088021254 0.0058333333333189 0 0.054309088021254 0.0058333333333189 0.00015
          0.054309088021254 0.0058333333333189 0.0003 0.054309088021254 0.0077777777777574 0
          0.054309088021254 0.0077777777777574 0.00015 0.054309088021254 0.0077777777777574 0.0003
          0.054309088021254 0.0097222222222011 0 0.054309088021254 0.0097222222222011 0.00015
          0.054309088021254 0.0097222222222011 0.0003 0.054309088021254 0.011666666666651 0
          0.054309088021254 0.011666666666651 0.00015 0.054309088021254 0.011666666666651 0.0003
          0.054309088021254 0.0136111111111 0 0.054309088021254 0.0136111111111 0.00015
          0.054309088021254 0.0136111111111 0.0003 0.054309088021254 0.015555555555549 0
          0.054309088021254 0.015555555555549 0.00015 0.054309088021254 0.015555555555549 0.0003
          0.054309088021254 0.0175 0 0.054309088021254 0.0175 0.00015
          0.054309088021254 0.0175 0.0003
          <InformationKey name="L2_NORM_RANGE" location="vtkDataArray" length="2">
            <Value index="0">
              0.019949534491
            </Value>
            <Value index="1">
              0.057059767277
            </Value>
          </InformationKey>
        </DataArray>
      </Points>
      <Cells>
        <DataArray type="Int64" Name="connectivity" format="ascii" RangeMin="0" RangeMax="818">
          0 1 2 3 4 5
          6 7 4 5 6 7
          8 9 10 11 12 13
          14 15 16 17 18 19
          16 17 18 19 20 21
          22 23 24 0 3 25
          26 4 7 27 26 4
          7 27 28 8 11 29
          30 31 32 14 33 34
          35 18 33 34 35 18
          36 37 38 22 39 40
          41 42 43 44 45 46
          43 44 45 46 47 48
          49 50 51 52 53 54
          55 56 57 58 55 56
          57 58 59 60 61 62
          13 63 64 65 17 66
          67 68 17 66 67 68
          21 69 70 71 0 24
          32 72 4 26 35 73
          4 26 35 73 8 28
          38 74 24 15 14 32
          26 19 18 35 26 19
          18 35 28 23 22 38
          13 65 30 14 17 68
          33 18 17 68 33 18
          21 71 36 22 93 94
          95 96 97 98 99 100
          97 98 99 100 101 102
          103 104 72 32 31 81
          73 35 34 83 73 35
          34 83 74 38 37 85
          53 40 39 54 57 44
          43 58 57 44 43 58
          61 48 47 62 31 30
          111 82 34 33 112 84
          34 33 112 84 37 36
          113 86 12 15 114 115
          16 19 116 117 16 19
          116 117 20 23 118 119
          120 121 122 123 124 125
          126 127 124 125 126 127
          128 129 130 131 64 76
          75 65 67 78 77 68
          67 78 77 68 70 80
          79 71 132 133 54 39
          134 135 58 43 134 135
          58 43 136 137 62 47
          53 141 41 40 57 142
          45 44 57 142 45 44
          61 143 49 48 111 30
          65 75 112 33 68 77
          112 33 68 77 113 36
          71 79 54 150 151 51
          58 152 153 55 58 152
          153 55 62 154 155 59
          156 122 121 157 158 126
          125 159 158 126 125 159
          160 130 129 161 162 88
          108 138 163 90 109 139
          163 90 109 139 164 92
          110 140 168 87 88 162
          169 89 90 163 169 89
          90 163 170 91 92 164
          121 165 171 157 125 166
          172 159 125 166 172 159
          129 167 173 161 132 39
          42 183 134 43 46 184
          134 43 46 184 136 47
          50 185 186 96 95 187
          188 100 99 189 188 100
          99 189 190 104 103 191
          192 193 122 156 194 195
          126 158 194 195 126 158
          196 197 130 160 183 42
          96 186 184 46 100 188
          184 46 100 188 185 50
          104 190 151 150 198 199
          153 152 200 201 153 152
          200 201 155 154 202 203
          174 145 144 204 175 147
          146 205 175 147 146 205
          176 149 148 206 193 192
          95 204 195 194 99 205
          195 194 99 205 197 196
          103 206 123 122 193 210
          127 126 195 211 127 126
          195 211 131 130 197 212
          93 96 42 41 97 100
          46 45 97 100 46 45
          101 104 50 49 213 214
          87 168 215 216 89 169
          215 216 89 169 217 218
          91 170 178 219 220 177
          180 221 222 179 180 221
          222 179 182 223 224 181
          225 141 226 227 228 142
          229 230 228 142 229 230
          231 143 232 233 120 105
          165 121 124 106 166 125
          124 106 166 125 128 107
          167 129 210 193 204 144
          211 195 205 146 211 195
          205 146 212 197 206 148
          219 227 234 220 221 230
          235 222 221 230 235 222
          223 233 236 224 94 174
          204 95 98 175 205 99
          98 175 205 99 102 176
          206 103 192 156 237 238
          194 158 239 240 194 158
          239 240 196 160 241 242
          243 2 1 244 245 6
          5 246 245 6 5 246
          247 10 9 248 227 226
          249 234 230 229 250 235
          230 229 250 235 233 232
          251 236 238 187 95 192
          240 189 99 194 240 189
          99 194 242 191 103 196
          252 207 87 214 253 208
          89 216 253 208 89 216
          254 209 91 218 187 255
          115 186 189 256 117 188
          189 256 117 188 191 257
          119 190 94 162 138 174
          98 163 139 175 98 163
          139 175 102 164 140 176
          64 63 237 171 67 66
          239 172 67 66 239 172
          70 69 241 173 41 213
          168 93 45 215 169 97
          45 215 169 97 49 217
          170 101 2 198 133 3
          6 200 135 7 6 200
          135 7 10 202 137 11
          25 114 15 24 27 116
          19 26 27 116 19 26
          29 118 23 28 114 183
          186 115 116 184 188 117
          116 184 188 117 118 185
          190 119 51 151 258 259
          55 153 260 261 55 153
          260 261 59 155 262 263
          226 52 264 249 229 56
          265 250 229 56 265 250
          232 60 266 251 198 150
          54 133 200 152 58 135
          200 152 58 135 202 154
          62 137 64 171 165 76
          67 172 166 78 67 172
          166 78 70 173 167 80
          52 51 259 264 56 55
          261 265 56 55 261 265
          60 59 263 266 171 237
          156 157 172 239 158 159
          172 239 158 159 173 241
          160 161 252 214 213 225
          253 216 215 228 253 216
          215 228 254 218 217 231
          151 199 267 258 153 201
          268 260 153 201 268 260
          155 203 269 262 63 13
          12 270 66 17 16 271
          66 17 16 271 69 21
          20 272 270 255 187 238
          271 256 189 240 271 256
          189 240 272 257 191 242
          199 198 2 243 201 200
          6 245 201 200 6 245
          203 202 10 247 225 213
          41 141 228 215 45 142
          228 215 45 142 231 217
          49 143 52 226 141 53
          56 229 142 57 56 229
          142 57 60 232 143 61
          25 132 183 114 27 134
          184 116 27 134 184 116
          29 136 185 118 252 225
          227 219 253 228 230 221
          253 228 230 221 254 231
          233 223 219 178 207 252
          221 180 208 253 221 180
          208 253 223 182 209 254
          25 3 133 132 27 7
          135 134 27 7 135 134
          29 11 137 136 93 168
          162 94 97 169 163 98
          97 169 163 98 101 170
          164 102 270 12 115 255
          271 16 117 256 271 16
          117 256 272 20 119 257
          199 243 273 267 201 245
          274 268 201 245 274 268
          203 247 275 269 63 270
          238 237 66 271 240 239
          66 271 240 239 69 272
          242 241 243 244 276 273
          245 246 277 274 245 246
          277 274 247 248 278 275
          276 244 1 279 277 246
          5 280 277 246 5 280
          278 248 9 281 285 72
          81 282 286 73 83 283
          286 73 83 283 287 74
          85 284 288 0 72 285
          289 4 73 286 289 4
          73 286 290 8 74 287
          291 1 0 288 292 5
          4 289 292 5 4 289
          293 9 8 290 294 279
          1 291 295 280 5 292
          295 280 5 292 296 281
          9 293 303 297 298 304
          305 299 300 306 305 299
          300 306 307 301 302 308
          309 303 304 310 311 305
          306 312 311 305 306 312
          313 307 308 314 315 309
          310 316 317 311 312 318
          317 311 312 318 319 313
          314 320 321 315 316 322
          323 317 318 324 323 317
          318 324 325 319 320 326
          327 321 322 328 329 323
          324 330 329 323 324 330
          331 325 326 332 333 327
          328 334 335 329 330 336
          335 329 330 336 337 331
          332 338 339 333 334 340
          341 335 336 342 341 335
          336 342 343 337 338 344
          348 345 297 303 349 346
          299 305 349 346 299 305
          350 347 301 307 351 348
          303 309 352 349 305 311
          352 349 305 311 353 350
          307 313 354 351 309 315
          355 352 311 317 355 352
          311 317 356 353 313 319
          357 354 315 321 358 355
          317 323 358 355 317 323
          359 356 319 325 360 357
          321 327 361 358 323 329
          361 358 323 329 362 359
          325 331 363 360 327 333
          364 361 329 335 364 361
          329 335 365 362 331 337
          366 363 333 339 367 364
          335 341 367 364 335 341
          368 365 337 343 372 369
          345 348 373 370 346 349
          373 370 346 349 374 371
          347 350 375 372 348 351
          376 373 349 352 376 373
          349 352 377 374 350 353
          378 375 351 354 379 376
          352 355 379 376 352 355
          380 377 353 356 381 378
          354 357 382 379 355 358
          382 379 355 358 383 380
          356 359 384 381 357 360
          385 382 358 361 385 382
          358 361 386 383 359 362
          387 384 360 363 388 385
          361 364 388 385 361 364
          389 386 362 365 390 387
          363 366 391 388 364 367
          391 388 364 367 392 389
          365 368 396 393 369 372
          397 394 370 373 397 394
          370 373 398 395 371 374
          399 396 372 375 400 397
          373 376 400 397 373 376
          401 398 374 377 402 399
          375 378 403 400 376 379
          403 400 376 379 404 401
          377 380 405 402 378 381
          406 403 379 382 406 403
          379 382 407 404 380 383
          408 405 381 384 409 406
          382 385 409 406 382 385
          410 407 383 386 411 408
          384 387 412 409 385 388
          412 409 385 388 413 410
          386 389 414 411 387 390
          415 412 388 391 415 412
          388 391 416 413 389 392
          420 417 393 396 421 418
          394 397 421 418 394 397
          422 419 395 398 423 420
          396 399 424 421 397 400
          424 421 397 400 425 422
          398 401 426 423 399 402
          427 424 400 403 427 424
          400 403 428 425 401 404
          429 426 402 405 430 427
          403 406 430 427 403 406
          431 428 404 407 432 429
          405 408 433 430 406 409
          433 430 406 409 434 431
          407 410 435 432 408 411
          436 433 409 412 436 433
          409 412 437 434 410 413
          438 435 411 414 439 436
          412 415 439 436 412 415
          440 437 413 416 447 444
          417 420 448 445 418 421
          448 445 418 421 449 446
          419 422 450 447 420 423
          451 448 421 424 451 448
          421 424 452 449 422 425
          453 450 423 426 454 451
          424 427 454 451 424 427
          455 452 425 428 456 453
          426 429 457 454 427 430
          457 454 427 430 458 455
          428 431 459 456 429 432
          460 457 430 433 460 457
          430 433 461 458 431 434
          462 459 432 435 463 460
          433 436 463 460 433 436
          464 461 434 437 465 462
          435 438 466 463 436 439
          466 463 436 439 467 464
          437 440 471 468 441 444
          472 469 442 445 472 469
          442 445 473 470 443 446
          474 471 444 447 475 472
          445 448 475 472 445 448
          476 473 446 449 477 474
          447 450 478 475 448 451
          478 475 448 451 479 476
          449 452 480 477 450 453
          481 478 451 454 481 478
          451 454 482 479 452 455
          483 480 453 456 484 481
          454 457 484 481 454 457
          485 482 455 458 486 483
          456 459 487 484 457 460
          487 484 457 460 488 485
          458 461 489 486 459 462
          490 487 460 463 490 487
          460 463 491 488 461 464
          492 489 462 465 493 490
          463 466 493 490 463 466
          494 491 464 467 498 495
          468 471 499 496 469 472
          499 496 469 472 500 497
          470 473 501 498 471 474
          502 499 472 475 502 499
          472 475 503 500 473 476
          504 501 474 477 505 502
          475 478 505 502 475 478
          506 503 476 479 507 504
          477 480 508 505 478 481
          508 505 478 481 509 506
          479 482 510 507 480 483
          511 508 481 484 511 508
          481 484 512 509 482 485
          513 510 483 486 514 511
          484 487 514 511 484 487
          515 512 485 488 516 513
          486 489 517 514 487 490
          517 514 487 490 518 515
          488 491 519 516 489 492
          520 517 490 493 520 517
          490 493 521 518 491 494
          525 522 495 498 526 523
          496 499 526 523 496 499
          527 524 497 500 528 525
          498 501 529 526 499 502
          529 526 499 502 530 527
          500 503 531 528 501 504
          532 529 502 505 532 529
          502 505 533 530 503 506
          534 531 504 507 535 532
          505 508 535 532 505 508
          536 533 506 509 537 534
          507 510 538 535 508 511
          538 535 508 511 539 536
          509 512 540 537 510 513
          541 538 511 514 541 538
          511 514 542 539 512 515
          543 540 513 516 544 541
          514 517 544 541 514 517
          545 542 515 518 546 543
          516 519 547 544 517 520
          547 544 517 520 548 545
          518 521 340 549 550 339
          342 551 552 341 342 551
          552 341 344 553 554 343
          339 550 555 366 341 552
          556 367 341 552 556 367
          343 554 557 368 366 555
          558 390 367 556 559 391
          367 556 559 391 368 557
          560 392 390 558 561 414
          391 559 562 415 391 559
          562 415 392 560 563 416
          414 561 564 438 415 562
          565 439 415 562 565 439
          416 563 566 440 438 564
          567 465 439 565 568 466
          439 565 568 466 440 566
          569 467 465 567 570 492
          466 568 571 493 466 568
          571 493 467 569 572 494
          492 570 573 519 493 571
          574 520 493 571 574 520
          494 572 575 521 519 573
          576 546 520 574 577 547
          520 574 577 547 521 575
          578 548 549 579 580 550
          551 581 582 552 551 581
          582 552 553 583 584 554
          550 580 585 555 552 582
          586 556 552 582 586 556
          554 584 587 557 555 585
          588 558 556 586 589 559
          556 586 589 559 557 587
          590 560 558 588 591 561
          559 589 592 562 559 589
          592 562 560 590 593 563
          561 591 594 564 562 592
          595 565 562 592 595 565
          563 593 596 566 564 594
          597 567 565 595 598 568
          565 595 598 568 566 596
          599 569 567 597 600 570
          568 598 601 571 568 598
          601 571 569 599 602 572
          570 600 603 573 571 601
          604 574 571 601 604 574
          572 602 605 575 573 603
          606 576 574 604 607 577
          574 604 607 577 575 605
          608 578 579 609 610 580
          581 611 612 582 581 611
          612 582 583 613 614 584
          580 610 615 585 582 612
          616 586 582 612 616 586
          584 614 617 587 585 615
          618 588 586 616 619 589
          586 616 619 589 587 617
          620 590 588 618 621 591
          589 619 622 592 589 619
          622 592 590 620 623 593
          591 621 624 594 592 622
          625 595 592 622 625 595
          593 623 626 596 594 624
          627 597 595 625 628 598
          595 625 628 598 596 626
          629 599 597 627 630 600
          598 628 631 601 598 628
          631 601 599 629 632 602
          600 630 633 603 601 631
          634 604 601 631 634 604
          602 632 635 605 603 633
          636 606 604 634 637 607
          604 634 637 607 605 635
          638 608 609 639 640 610
          611 641 642 612 611 641
          642 612 613 643 644 614
          610 640 645 615 612 642
          646 616 612 642 646 616
          614 644 647 617 615 645
          648 618 616 646 649 619
          616 646 649 619 617 647
          650 620 618 648 651 621
          619 649 652 622 619 649
          652 622 620 650 653 623
          621 651 654 624 622 652
          655 625 622 652 655 625
          623 653 656 626 624 654
          657 627 625 655 658 628
          625 655 658 628 626 656
          659 629 627 657 660 630
          628 658 661 631 628 658
          661 631 629 659 662 632
          630 660 663 633 631 661
          664 634 631 661 664 634
          632 662 665 635 633 663
          666 636 634 664 667 637
          634 664 667 637 635 665
          668 638 639 669 670 640
          641 671 672 642 641 671
          672 642 643 673 674 644
          640 670 675 645 642 672
          676 646 642 672 676 646
          644 674 677 647 645 675
          678 648 646 676 679 649
          646 676 679 649 647 677
          680 650 648 678 681 651
          649 679 682 652 649 679
          682 652 650 680 683 653
          651 681 684 654 652 682
          685 655 652 682 685 655
          653 683 686 656 654 684
          687 657 655 685 688 658
          655 685 688 658 656 686
          689 659 657 687 690 660
          658 688 691 661 658 688
          691 661 659 689 692 662
          660 690 693 663 661 691
          694 664 661 691 694 664
          662 692 695 665 663 693
          696 666 664 694 697 667
          664 694 697 667 665 695
          698 668 669 699 700 670
          671 701 702 672 671 701
          702 672 673 703 704 674
          670 700 705 675 672 702
          706 676 672 702 706 676
          674 704 707 677 675 705
          708 678 676 706 709 679
          676 706 709 679 677 707
          710 680 678 708 711 681
          679 709 712 682 679 709
          712 682 680 710 713 683
          681 711 714 684 682 712
          715 685 682 712 715 685
          683 713 716 686 684 714
          717 687 685 715 718 688
          685 715 718 688 686 716
          719 689 687 717 720 690
          688 718 721 691 688 718
          721 691 689 719 722 692
          690 720 723 693 691 721
          724 694 691 721 724 694
          692 722 725 695 693 723
          726 696 694 724 727 697
          694 724 727 697 695 725
          728 698 699 729 730 700
          701 731 732 702 701 731
          732 702 703 733 734 704
          700 730 735 705 702 732
          736 706 702 732 736 706
          704 734 737 707 705 735
          738 708 706 736 739 709
          706 736 739 709 707 737
          740 710 708 738 741 711
          709 739 742 712 709 739
          742 712 710 740 743 713
          711 741 744 714 712 742
          745 715 712 742 745 715
          713 743 746 716 714 744
          747 717 715 745 748 718
          715 745 748 718 716 746
          749 719 717 747 750 720
          718 748 751 721 718 748
          751 721 719 749 752 722
          720 750 753 723 721 751
          754 724 721 751 754 724
          722 752 755 725 723 753
          756 726 724 754 757 727
          724 754 757 727 725 755
          758 728 729 759 760 730
          731 761 762 732 731 761
          762 732 733 763 764 734
          730 760 765 735 732 762
          766 736 732 762 766 736
          734 764 767 737 735 765
          768 738 736 766 769 739
          736 766 769 739 737 767
          770 740 738 768 771 741
          739 769 772 742 739 769
          772 742 740 770 773 743
          741 771 774 744 742 772
          775 745 742 772 775 745
          743 773 776 746 744 774
          777 747 745 775 778 748
          745 775 778 748 746 776
          779 749 747 777 780 750
          748 778 781 751 748 778
          781 751 749 779 782 752
          750 780 783 753 751 781
          784 754 751 781 784 754
          752 782 785 755 753 783
          786 756 754 784 787 757
          754 784 787 757 755 785
          788 758 759 789 790 760
          761 791 792 762 761 791
          792 762 763 793 794 764
          760 790 795 765 762 792
          796 766 762 792 796 766
          764 794 797 767 765 795
          798 768 766 796 799 769
          766 796 799 769 767 797
          800 770 768 798 801 771
          769 799 802 772 769 799
          802 772 770 800 803 773
          771 801 804 774 772 802
          805 775 772 802 805 775
          773 803 806 776 774 804
          807 777 775 805 808 778
          775 805 808 778 776 806
          809 779 777 807 810 780
          778 808 811 781 778 808
          811 781 779 809 812 782
          780 810 813 783 781 811
          814 784 781 811 814 784
          782 812 815 785 783 813
          816 786 784 814 817 787
          784 814 817 787 785 815
          818 788
        </DataArray>
        <DataArray type="Int64" Name="offsets" format="ascii" RangeMin="8" RangeMax="3632">
          8 16 24 32 40 48
          56 64 72 80 88 96
          104 112 120 128 136 144
          152 160 168 176 184 192
          200 208 216 224 232 240
          248 256 264 272 280 288
          296 304 312 320 328 336
          344 352 360 368 376 384
          392 400 408 416 424 432
          440 448 456 464 472 480
          488 496 504 512 520 528
          536 544 552 560 568 576
          584 592 600 608 616 624
          632 640 648 656 664 672
          680 688 696 704 712 720
          728 736 744 752 760 768
          776 784 792 800 808 816
          824 832 840 848 856 864
          872 880 888 896 904 912
          920 928 936 944 952 960
          968 976 984 992 1000 1008
          1016 1024 1032 1040 1048 1056
          1064 1072 1080 1088 1096 1104
          1112 1120 1128 1136 1144 1152
          1160 1168 1176 1184 1192 1200
          1208 1216 1224 1232 1240 1248
          1256 1264 1272 1280 1288 1296
          1304 1312 1320 1328 1336 1344
          1352 1360 1368 1376 1384 1392
          1400 1408 1416 1424 1432 1440
          1448 1456 1464 1472 1480 1488
          1496 1504 1512 1520 1528 1536
          1544 1552 1560 1568 1576 1584
          1592 1600 1608 1616 1624 1632
          1640 1648 1656 1664 1672 1680
          1688 1696 1704 1712 1720 1728
          1736 1744 1752 1760 1768 1776
          1784 1792 1800 1808 1816 1824
          1832 1840 1848 1856 1864 1872
          1880 1888 1896 1904 1912 1920
          1928 1936 1944 1952 1960 1968
          1976 1984 1992 2000 2008 2016
          2024 2032 2040 2048 2056 2064
          2072 2080 2088 2096 2104 2112
          2120 2128 2136 2144 2152 2160
          2168 2176 2184 2192 2200 2208
          2216 2224 2232 2240 2248 2256
          2264 2272 2280 2288 2296 2304
          2312 2320 2328 2336 2344 2352
          2360 2368 2376 2384 2392 2400
          2408 2416 2424 2432 2440 2448
          2456 2464 2472 2480 2488 2496
          2504 2512 2520 2528 2536 2544
          2552 2560 2568 2576 2584 2592
          2600 2608 2616 2624 2632 2640
          2648 2656 2664 2672 2680 2688
          2696 2704 2712 2720 2728 2736
          2744 2752 2760 2768 2776 2784
          2792 2800 2808 2816 2824 2832
          2840 2848 2856 2864 2872 2880
          2888 2896 2904 2912 2920 2928
          2936 2944 2952 2960 2968 2976
          2984 2992 3000 3008 3016 3024
          3032 3040 3048 3056 3064 3072
          3080 3088 3096 3104 3112 3120
          3128 3136 3144 3152 3160 3168
          3176 3184 3192 3200 3208 3216
          3224 3232 3240 3248 3256 3264
          3272 3280 3288 3296 3304 3312
          3320 3328 3336 3344 3352 3360
          3368 3376 3384 3392 3400 3408
          3416 3424 3432 3440 3448 3456
          3464 3472 3480 3488 3496 3504
          3512 3520 3528 3536 3544 3552
          3560 3568 3576 3584 3592 3600
          3608 3616 3624 3632
        </DataArray>
        <DataArray type="UInt8" Name="types" format="ascii" RangeMin="12" RangeMax="12">
          12 12 12 12 12 12
          12 12 12 12 12 12
          12 12 12 12 12 12
          12 12 12 12 12 12
          12 12 12 12 12 12
          12 12 12 12 12 12
          12 12 12 12 12 12
          12 12 12 12 12 12
          12 12 12 12 12 12
          12 12 12 12 12 12
          12 12 12 12 12 12
          12 12 12 12 12 12
          12 12 12 12 12 12
          12 12 12 12 12 12
          12 12 12 12 12 12
          12 12 12 12 12 12
          12 12 12 12 12 12
          12 12 12 12 12 12
          12 12 12 12 12 12
          12 12 12 12 12 12
          12 12 12 12 12 12
          12 12 12 12 12 12
          12 12 12 12 12 12
          12 12 12 12 12 12
          12 12 12 12 12 12
          12 12 12 12 12 12
          12 12 12 12 12 12
          12 12 12 12 12 12
          12 12 12 12 12 12
          12 12 12 12 12 12
          12 12 12 12 12 12
          12 12 12 12 12 12
          12 12 12 12 12 12
          12 12 12 12 12 12
          12 12 12 12 12 12
          12 12 12 12 12 12
          12 12 12 12 12 12
          12 12 12 12 12 12
          12 12 12 12 12 12
          12 12 12 12 12 12
          12 12 12 12 12 12
          12 12 12 12 12 12
          12 12 12 12 12 12
          12 12 12 12 12 12
          12 12 12 12 12 12
          12 12 12 12 12 12
          12 12 12 12 12 12
          12 12 12 12 12 12
          12 12 12 12 12 12
          12 12 12 12 12 12
          12 12 12 12 12 12
          12 12 12 12 12 12
          12 12 12 12 12 12
          12 12 12 12 12 12
          12 12 12 12 12 12
          12 12 12 12 12 12
          12 12 12 12 12 12
          12 12 12 12 12 12
          12 12 12 12 12 12
          12 12 12 12 12 12
          12 12 12 12 12 12
          12 12 12 12 12 12
          12 12 12 12 12 12
          12 12 12 12 12 12
          12 12 12 12 12 12
          12 12 12 12 12 12
          12 12 12 12 12 12
          12 12 12 12 12 12
          12 12 12 12 12 12
          12 12 12 12 12 12
          12 12 12 12 12 12
          12 12 12 12 12 12
          12 12 12 12 12 12
          12 12 12 12 12 12
          12 12 12 12 12 12
          12 12 12 12
        </DataArray>
      </Cells>
    </Piece>
  </UnstructuredGrid>
</VTKFile>
