<?xml version="1.0"?>
<VTKFile type="UnstructuredGrid" version="0.1" byte_order="LittleEndian" header_type="UInt32" compressor="vtkZLibDataCompressor">
  <UnstructuredGrid>
    <Piece NumberOfPoints="774" NumberOfCells="452">
      <PointData>
        <DataArray type="Int32" Name="libmesh_node_id" format="ascii" RangeMin="2286" RangeMax="4991">
          2286 2287 2288 2289 2290 2291
          2292 2293 2294 2295 2296 2297
          2340 2341 2342 2343 2344 2345
          2346 2347 2348 2349 2350 2351
          2400 2401 2403 2404 2406 2407
          2412 2413 2414 2415 2416 2417
          2418 2419 2420 2421 2422 2423
          2487 2488 2489 2490 2491 2492
          2523 2524 2525 2526 2527 2528
          2529 2530 2531 2532 2533 2534
          2550 2551 2552 2553 2554 2555
          2556 2557 2558 2559 2560 2561
          2580 2581 2582 2583 2584 2585
          2685 2686 2687 2688 2689 2690
          2691 2692 2693 2694 2695 2696
          2698 2699 2700 2702 2703 2704
          2706 2707 2708 2796 2797 2798
          2799 2800 2801 2802 2803 2804
          2805 2806 2807 2838 2839 2840
          2841 2842 2843 2844 2845 2846
          2847 2848 2849 2881 2883 2885
          2949 2950 2951 2952 2953 2954
          2955 2956 2957 3054 3055 3056
          3057 3058 3059 3093 3094 3095
          3096 3097 3098 3099 3100 3101
          3102 3103 3104 3117 3118 3119
          3120 3121 3122 3123 3124 3125
          3126 3127 3128 3195 3196 3197
          3198 3199 3200 3201 3202 3203
          3210 3211 3212 3213 3214 3215
          3216 3217 3218 3219 3220 3221
          3222 3223 3224 3225 3226 3227
          3252 3253 3254 3255 3256 3257
          3300 3301 3302 3303 3304 3305
          3306 3307 3308 3309 3310 3311
          3318 3319 3320 3321 3322 3323
          3324 3325 3326 3327 3328 3329
          3330 3331 3332 3333 3334 3335
          3366 3367 3368 3378 3379 3380
          3381 3382 3383 3384 3385 3386
          3387 3388 3389 3390 3391 3392
          3453 3454 3455 3456 3457 3458
          3459 3460 3461 3483 3484 3485
          3492 3493 3494 3525 3526 3528
          3529 3531 3532 3543 3544 3545
          3564 3565 3566 3567 3568 3569
          3570 3571 3572 3588 3589 3590
          3591 3592 3593 3609 3610 3611
          3612 3613 3614 3615 3616 3617
          3618 3619 3620 3630 3631 3632
          3633 3634 3635 3636 3637 3638
          3639 3640 3641 3654 3655 3656
          3657 3658 3659 3660 3661 3662
          3684 3685 3686 3687 3689 3691
          3693 3694 3695 3696 3697 3698
          3708 3709 3710 3711 3712 3713
          3735 3736 3737 3738 3739 3740
          3741 3742 3743 3744 3745 3746
          3747 3748 3749 3762 3763 3764
          3771 3772 3773 3774 3775 3776
          3777 3778 3779 3786 3787 3788
          3795 3796 3797 3798 3799 3800
          3801 3802 3803 3804 3805 3806
          3807 3808 3809 3816 3817 3818
          3834 3835 3836 3837 3838 3839
          3846 3847 3848 3849 3850 3851
          3861 3862 3863 3882 3884 3885
          3887 3888 3890 3900 3901 3902
          3903 3904 3905 3906 3907 3908
          3924 3925 3926 3927 3928 3929
          3930 3931 3932 3939 3940 3941
          3942 3943 3944 3954 3955 3956
          3958 3959 3960 3962 3963 3964
          3969 3970 3971 3972 3973 3974
          3993 3994 3995 4032 4033 4034
          4035 4036 4037 4053 4054 4055
          4056 4057 4058 4059 4060 4061
          4062 4063 4064 4089 4090 4091
          4104 4105 4106 4107 4108 4109
          4116 4117 4118 4128 4129 4130
          4167 4168 4169 4170 4171 4172
          4185 4186 4187 4208 4209 4212
          4213 4216 4217 4233 4234 4235
          4236 4237 4238 4254 4255 4256
          4257 4258 4259 4269 4270 4271
          4272 4273 4274 4284 4285 4286
          4287 4288 4289 4290 4291 4292
          4293 4294 4295 4302 4303 4304
          4314 4315 4316 4317 4318 4319
          4320 4321 4322 4323 4324 4325
          4326 4327 4328 4338 4339 4340
          4344 4345 4346 4350 4351 4352
          4353 4354 4355 4365 4366 4367
          4368 4369 4370 4371 4372 4373
          4374 4375 4376 4377 4378 4379
          4380 4381 4382 4383 4384 4385
          4386 4387 4388 4389 4390 4391
          4398 4399 4400 4416 4417 4418
          4422 4423 4424 4425 4426 4427
          4428 4429 4430 4434 4435 4436
          4437 4438 4439 4440 4441 4442
          4443 4444 4445 4458 4459 4460
          4482 4483 4484 4485 4486 4487
          4488 4489 4490 4491 4492 4493
          4494 4495 4496 4497 4498 4499
          4500 4501 4502 4506 4507 4508
          4509 4510 4511 4518 4519 4520
          4521 4522 4523 4545 4546 4547
          4566 4567 4568 4569 4570 4571
          4572 4573 4574 4599 4600 4601
          4602 4603 4604 4605 4606 4607
          4611 4612 4613 4647 4648 4649
          4650 4651 4652 4653 4654 4655
          4656 4657 4658 4677 4678 4679
          4689 4690 4691 4692 4693 4694
          4695 4696 4697 4716 4717 4718
          4743 4744 4745 4746 4747 4748
          4749 4750 4751 4779 4780 4781
          4788 4789 4790 4800 4801 4802
          4803 4804 4805 4806 4807 4808
          4809 4810 4811 4830 4831 4832
          4872 4873 4874 4902 4903 4904
          4923 4924 4925 4968 4969 4970
          4986 4987 4988 4989 4990 4991
          2880 2882 2884 3883 3873 3886
          3876 3889 3879 3957 3961 3965
          3875 3878 3881 4119 4120 4121
          4206 4207 4210 4211 4214 4215
          4347 4348 4349 4251 4252 4253
        </DataArray>
        <DataArray type="Float64" Name="resid_x" format="ascii" RangeMin="-0.00011046671943404363" RangeMax="0.0000280075039036376">
          0.000003106923843088083 0.000004386715230175753 0.00000485604408373419 0.000006784755920641317 -0.0000010669286201192563 0.0000026189221173922306
          -0.000007699399304783583 -0.0000023441287577696812 -0.000026787064065558752 -0.000031610644096957685 -0.0000323289118520087 -0.000026057573395910083
          -4.58561664196111e-7 0.000004751054383689279 0.000004190216981059258 0.000006557356151404292 -0.000005971438554297492 0.000004557305856245364
          0.0000030356898330918813 0.000004334587980991955 -0.000029883081145598567 -0.00001657658337173018 -0.000012373124445019812 -0.00001572877990874133
          -0.00007393299771241146 -0.000015608319709592422 -0.00010648839830729173 -0.000021578645738706825 -0.0000720055923579821 -0.00003016608780281871
          0.0000034900677485794063 0.0000021812628450135207 0.0000013685476734082158 0.0000034771149435286475 0.000007646989098830659 0.0000053246101456849715
          0.0000070031396139924595 0.000011642745940676491 0.000008806739476341363 0.000009629636076091685 0.000009445813513586643 0.000010088703378485775
          -0.000005534893282588271 -6.127397682575975e-7 2.886923853306911e-7 2.6940801500785483e-7 -0.000009300546149670907 -0.000009607802469169258
          0.000002061202294179054 0.000003227513101222712 -0.00001127768741149282 -0.000010939917888919126 0.000004176322627280626 0.000004631675040167593
          -0.000027163607665414702 -0.00003212100308758181 0.0000013317722151739986 0.0000014002994088713194 -0.000013847784886777958 -0.000017916076391344404
          -9.608256412718674e-8 -2.862318591034807e-7 -4.2973706904092523e-7 -0.0000010127215466226858 0.0000014407661979021213 0.0000022854423871176976
          0.0000017429854164419112 0.0000029452035574806246 0.000015586983196147486 0.000008949027380023011 0.000008081561329476017 0.000012043474094447504
          -0.0000017425558418437959 -0.000002186917317459347 -0.0000014502664322790793 -0.000005846842020318377 -0.00001603656167681322 -0.00002196043951396831
          -0.0000012697319364818327 -0.000001834213159135345 -0.0000016110737535157682 -6.779805294954144e-7 2.3420786332550847e-7 -0.0000010660336791090685
          0.000003839549202133696 0.000003877387499962026 0.000014189241526629814 0.00001511694660916163 0.00001781885412643902 0.000017910856770164685
          -0.00002936972250822123 -0.000033973128160447175 -0.000011081773198196032 -0.000055128476901700196 -0.000017387029291882072 0.000003051053687475047
          -0.00004311624386232893 -0.00003357987019025899 -0.00001608441436662389 4.405381419658738e-7 3.3140152844168824e-9 -2.251198738534299e-7
          -8.485855138573584e-7 0.0000037287508183325713 0.000007316458730421971 0.000005297042665830531 0.000005576024445730354 0.00001605239742907827
          0.000019142417210460394 0.000015499248680050925 0.000015662718196640668 3.6700516892196333e-7 9.678888517328232e-7 0.0000012959805646417522
          8.433333160695611e-7 -2.6104110295577243e-7 -4.511640110393955e-7 3.713791985049397e-7 -0.0000019692409507499065 0.0000011264459205406752
          -1.6934703950255425e-7 -0.0000030549891851805455 -0.000002388121966845347 0.000004324899535390614 0.000006819632572430123 0.0000064950069216251904
          -0.000002980821923515009 -9.401877223425004e-7 -0.000005894795185090729 -0.0000025101672358474048 -9.258705677694934e-7 -0.0000055979879682865885
          -0.000004597512390347447 -0.0000044757254284988335 -0.000008671846876806555 0.0000015630483050088628 9.528663182933883e-7 0.0000011952443212948083
          0.0000022686263010385233 0.0000044270452450589914 0.000005419877676438034 0.00000704075891011513 0.0000036551824385000486 0.0000015240541633154692
          0.0000018602072646700663 0.00000841940299523003 0.000005810235344405612 0.000003909801604251584 0.000004255267703534571 0.000011812803196953325
          0.000008237641742070423 0.0000069768924682023226 0.000009686776257566976 0.000007052524095385593 0.000006335792964495823 0.000011673645826881796
          0.000012991919790650286 0.0000019713509651353434 0.0000023746689827852663 0.000024096703800324804 0.0000280075039036376 0.00001214561621321053
          0.000009993485938775137 0.000016607624163000878 0.000021134752884677255 0.0000017060504253763042 0.0000011599150466778951 -0.0000012536964093534664
          0.0000015225204368363165 0.000003126534458885999 -8.574250554005403e-8 -0.0000019999225875366733 -0.00000424227823270229 -0.000003479947499052116
          0.000007394812224781333 0.0000034079191628677563 0.000011883806926960006 -0.0000011716659962246467 0.000011447454938640078 0.000005961658057884733
          0.000004059696251168532 -0.0000015751947635145314 -0.0000015620656768078334 0.0000037584252359224024 0.00000763271081005712 -7.188859227902356e-7
          -0.0000011733277061054537 0.000005433957928069333 -0.000007061331704250051 -0.000007009257161350035 -0.000003246299307146927 -0.0000012474243646920513
          0.0000032930563662603163 3.335334017862124e-7 0.000005066236641759758 0.0000023969515678956554 0.000003323587678849549 2.539573467075229e-7
          -0.000010903670782269614 -0.000008444521293782259 -0.000020629436100705334 -0.00002209756266680074 -0.000005995809182479661 -0.000006445110781072572
          -0.000003613696691662227 -0.0000065179511707924576 8.634118842110183e-7 3.9852737732104515e-7 -0.000002387935542635944 -0.0000070614231342247535
          -0.0000016143486039066346 -0.000007317569570730598 1.2641512991962145e-7 0.000003186386839826305 -0.000004636827219517414 -0.00001422023133201833
          -0.0000044863426724717215 -0.0000024928142688951382 -0.000016124432839603742 -0.000016364149217018564 -0.000012038617131615581 -0.000016331536547120606
          -0.000006477683741623608 -0.000001861405523939652 -0.000001881264268810412 0.000001815489669709791 -0.000008501984720354905 -0.000007311387953734538
          -0.0000045062877127577394 -0.000007247778977870212 0.0000017995019163663528 -0.000002859082604445007 -0.000003492621299727716 -7.771147041424342e-7
          -0.0000010400461611936862 -0.00000556535131668312 -0.000010238657915273564 -9.489226222569869e-7 -8.57674705478928e-7 -0.000006449542837572153
          1.2365937340774735e-7 0.0000016990795081994747 -0.0000140462714046663 0.0000017753818157828505 -3.826035506193648e-7 -0.000007504400332258854
          -0.000001099080268573971 -0.00000160224835621392 0.0000018516647735111746 -0.0000022236814611886757 -0.000002953966091290283 0.000006545525440770916
          0.000005658169300204463 0.0000036840838628648953 0.000009793735380014823 -0.000014177480913701856 -0.000005053086999495804 -0.000006800274752194468
          0.000005055190640312901 0.0000012497560879509706 0.000007475967579217979 -0.00002242312055500406 -0.00003993996496021168 -0.00005315569805119935
          -0.000060734467194123454 -0.0000435929660014267 -0.00004133833768094064 -0.0000019164597864218536 -9.037730110961206e-7 0.0000020925177866004674
          0.000002437784525799458 -0.00000493740132334608 -0.0000066268262921553855 0.000004871450332455396 -0.00000232916336395661 -1.443403383483144e-7
          -0.000011050956128855205 -0.000013603840516740462 -0.000014099956267443758 9.811310084373304e-7 -9.681663204474944e-8 0.000002384154682566475
          0.0000021295273282539995 0.0000025465898643162177 0.000002789933969626901 -0.000024247006806810134 -9.30786900110725e-7 0.0000040057000783022545
          0.0000037053599157843564 -0.000051488372131203164 -0.000012731751590777662 -0.0000012810149829789452 -0.000018956714356477278 -0.00006672229713267086
          -0.000026279882778368346 -0.0000337322120200767 -0.00005174495249615774 0.000002474694706933178 -0.0000061492602414503494 -0.000005354168963300765
          0.0000027936401982842085 -5.026164551225065e-8 -0.000014534279050515408 -0.000006495503404480019 -0.000003666317819117637 -0.000030720152977004034
          -0.00003979723097291554 -0.0000370621471788013 -0.00003960986089523999 -0.000018278132114524226 0.0000016943446694561715 0.0000032928921527286548
          -0.00004230003783511904 -9.947287784584091e-7 -0.000003949372026745834 -0.00003748262845615358 -0.000027734528523115642 -0.000019700057339200328
          -0.000009873260104598103 -0.00000376096972853901 -0.000004640313832737775 -0.00001426708749896477 -0.000021007573597131568 -0.000006997260109997683
          -0.00007564148774763524 -0.00005226135219782435 -0.00011046671943404363 -0.0000652835336687474 -0.00006194485836985564 -0.00005551683161897358
          -0.00003427769363106847 -0.00003989047823260705 -0.000016469884509540123 -0.000014471326143628005 -0.00003991050040053068 -0.000040677948363487815
          -0.00002248658101855483 -0.000005766015773289723 -0.00000651947345442494 -0.000025112638817992305 -0.000005177496069874721 -0.000016950189358766465
          -0.000025661818826350213 -0.000010140881424813841 4.3880414762886844e-7 -0.000003994337809842818 -0.000020117664456087425 -0.000035658666497795366
          -0.000008526910761252893 -0.00002174487151851423 -0.000038407180253940965 -0.000027412274383742385 -0.000009106478556120123 -0.000026000759950406405
          -0.00002484398110991215 -0.00001094445967786406 -0.00003208921930841768 -0.000004304851633829543 -0.000007803235353431859 0.000002678007616552236
          -0.0000021627121573608576 -0.000010205616206571122 -0.000015022599372471745 -0.00001422263584904826 -0.000002590825165960098 -0.000015761609530429155
          -0.000014912808564027102 -0.000009516272208465182 -0.000006463210616480808 -0.0000030303867015746278 -0.000014881852240300475 -0.000015072708010599456
          -0.000013829988215974254 -0.0000049014551120052374 -0.000008210805724218062 -0.000011680492887661265 -0.000008003236887432763 -0.000007296812666035546
          -0.000002579869252450351 -0.000017507240691605475 -0.000015917855689551175 -0.00002106924614930783 -0.0000065890939832113915 -0.000021528675083537507
          -0.000030727624455550995 -0.00001613923218268809 -0.00003831134065990227 -0.000012250582132500298 -0.0000013756542808218697 -0.000012758680336344419
          -0.0000015489500242438226 -0.000005883150584917729 0.000004931669286278861 -0.0000035321350977390864 -0.000008753405556838345 -0.000014533660175786167
          -0.000013611423776926923 -2.2117804920895878e-7 -0.000009750579670120274 -0.000006761100531882391 -0.000018401382652299958 -0.000013354105266039085
          -0.000022718830829049352 -0.000009655549542131325 -0.000020773420985165103 0.000008856647096600057 0.000006267684803162865 0.0000074580626892029045
          0.000005825537697567995 0.000007369971030790623 0.000007672229313193668 0.00001192584434539512 0.000012088383343211717 0.000009290072385148562
          0.000013291802978265821 0.0000045259871468417145 0.00000805662986014255 0.000011413760730993872 0.000004825706980682298 0.000006237179542623039
          0.00002018411317972202 0.000014094229026540006 0.000012387167784844166 -0.00002561993870919821 -0.00002270129890113992 -0.00003493387381592328
          -0.00002636160210389704 -0.00002086525725975008 -0.00001360350053891679 -0.000025182431098613733 -0.000010390014849370743 -0.00003083554791327714
          -0.000055208324013733545 -0.000016890597381191697 -0.000038871754003189096 -0.00004045267600716329 -0.000023225366490464694 -0.0000321266983522861
          -0.0000030453549912934363 -0.00000920035774276684 -9.290359015423633e-7 0.0000029918695862996003 -0.0000013773641747150123 -0.000004228843191622644
          -0.00003680317347676265 -0.00003870774800152077 -0.00003728389780821573 0.0000037836049768813496 0.000006563522107150277 0.0000025703991077818955
          0.000005231607556055451 0.0000071305981945712915 0.000010393522665630428 0.000006911500411987959 0.000004099664633550049 0.000004778989691978097
          0.000002344961422373615 0.000009654876161668824 0.000007665464766049013 0.0000036508812915059252 0.0000013298533945160784 0.000003831156041300687
          0.0000020382104670702006 0.000006346343797147824 0.000006299453529479138 -2.774032372698798e-7 9.266805944818657e-7 0.0000031098373707294513
          0.00000684674382522843 0.000016261007337092792 0.000005178215856993518 0.000011878175522284096 0.000005961635102913476 0.000013647621308621183
          0.000005407759078757124 0.000003342240029624577 0.0000047081286957961765 -0.000022296318475945043 0.000004656324876783913 -0.000020475175661616163
          0.0000032642402123528313 0.0000031148891848076232 0.0000044067600919461825 -0.000018755228399669477 0.000004405456750511405 -0.000019008233374862016
          -0.000015982136036152284 0.0000040272638610616696 -0.000015753613139102285 0.000008516853204021402 0.00000423948306416122 0.000011775323170759577
          0.000005512373268956594 0.000007031813343161275 0.0000032097578941403526 -0.00001518214543261287 -0.000019430962909794403 -0.0000012130338636895388
          -0.0000028356647279181857 -0.000007747550606840292 -0.000011944484636927655 -0.000015109524232670424 -0.0000022371323744607707 -0.00001649496056188582
          -0.000023113568778931892 0.0000013529138280787834 -0.000030399587238605363 -0.000027664334337984542 -0.000002127765720949526 -0.000015278660255191312
          -0.000014054777159877574 -0.0000055165953307678706 -0.000004673557487677726 -0.000012513843467232277 -0.000007137539710377894 -0.00001471269501074346
          -0.000020782872960367627 -0.00002324594518832157 -0.00002743161229190605 -0.0000012952414927269729 -0.000004360193132768586 0.0000035361806007827568
          0.000002911930930160622 6.848075866372483e-7 -0.0000024273454437562236 0.000002275060214884661 0.00000524848277372314 0.000004771421107108154
          0.000007746507917349987 0.0000077602680170763 0.000006075577108077823 0.000007899205288097733 0.000013361503384601292 0.000007820485230736196
          -0.000025257905559961102 -0.00003605799481753991 -0.000002517128796952761 -0.000007232224797260045 -0.00007981011884083955 3.788755513767228e-7
          -0.000025644423224946422 -0.00006038974308886225 -0.000024370428359787866 -0.00001635532544153051 -0.00001937953745567711 -0.00003190615185122425
          0.000005750172130447595 0.000004698935956781725 0.000008489535929356862 -0.000010691283915065242 -0.000013297747321949771 0.000005545077757851402
          0.000003861284616490934 -0.000016811329393462415 -0.000014641186355746072 0.000007316766318155032 0.000002069296881401783 0.000004563394811363253
          0.0000031521174950199793 0.000008386358752332512 0.000004373482493935654 -3.013723499645238e-7 0.000003310348477780778 0.000001635975794833655
          0.0000027840404150936138 -7.439356188854163e-7 0.000003864847289314355 0.0000020138196643593176 0.00000361911682134064 3.747156647193606e-7
          -0.00001723180899837473 -0.000002228489927258437 0.000003712787842058418 0.000005707793211850998 -0.00003284463803510107 -6.1597193168339e-7
          -0.0000038641434567665556 0.0000033295933490329332 -0.000035639338581638924 -0.000015018619970774694 -0.000020155026668522424 -0.000017800847655458085
          -0.000028018997575873783 -8.52966569819813e-7 -0.000027635521663516016 -0.00001869864394121734 -0.000005057751455872506 -0.000017648480615140016
          -0.0000034112694864418813 -0.000007563573167779225 -0.0000020411316627999554 -0.000004398303946828719 0.0000017086831896051535 -0.0000015424840213995594
          -0.000011710063567871298 0.0000030471898470607606 -0.0000042525807455451314 -0.00003014375107213141 -0.000005381369553081328 -0.00006203298351081799
          0.0000040029618886272544 -0.0000483770201373801 -0.000012707723926475012 0.0000033249169044680116 0.00000947814595519958 -0.000001038952065712806
          0.000019890061885519117 0.000007035059430116064 0.00001659351955218824 -0.00004466115326984266 -0.00008765965626444938 -0.00006169792678001329
          -0.000003994878487567632 -0.0000024922640262659 0.0000022290727295093404 -1.45461451883655e-7 -1.7770401150585258e-7 -6.864424005881276e-7
          0.0000026488506064126227 -0.000015024103274807743 -0.000025745918896369346 -0.000009518409818998208 0.00000689695168443194 -0.000016407009451935295
          -0.000009570398708191874 -0.000002718696824555167 -0.00000922524716528983 -0.000026842334615029273 -0.00002514552519539137 -0.00001613112602427691
          3.612725847368381e-7 -7.670533319625861e-7 0.000004852965925117303 -0.00003689307298859745 -0.000010499019397869347 -0.0000069358373080419256
          -0.00000485714384446112 -0.000029471423338200964 -0.000010062568911450853 0.000007970586342054276 0.000014783543774932184 0.000004948219373801521
          0.0000058524009949323386 0.000015996183119426632 0.000014061108799090505 0.000011629920598110743 0.0000037730575845884573 0.00001474613388285917
          -0.000015996302271892304 0.000005463847915887499 -0.000015795114742589433 0.000005952585792279308 0.000003106109766726206 0.000009538707710810002
          -0.00003131349384455362 -0.000016898766377781982 -0.000023244715494641355 -0.000045521142815196924 -0.00007571625707392116 -0.000045822289941099825
          0.000011951331640780438 0.000009262474247151431 0.000005379544107952938 0.000002741302184361416 0.000011952792187130967 0.000009242771525030946
          -0.00003132745497769207 0.0000020223516958850496 -0.00002636631215935381 -0.000024851673308567968 -0.000013590283595377173 -0.000013826187523768851
          -0.000020200275638426746 0.000007980006875296652 -0.000021184206476121403 0.000011788980224913814 0.000006433261813931779 0.000010464224326156568
          -0.000028197469474022796 -0.000034265730125326854 -0.000030986907091801186 -0.000010080844200399675 0.0000011833169117902997 -0.000002110987191938918
          0.000006480923709695219 0.000017425178925556395 0.000004367205304944832 0.000002900285208440323 0.000006870313250750826 4.479154629422055e-7
          0.000006110552410731884 0.00001441492745346551 0.000005653747112255303 -0.000020059925232907005 0.000007731554994450107 -0.000009253552051724512
          -0.00001667749774281191 -0.000017017068883795616 0.000004211062027970058 -0.000009611374535367645 -0.000010826359281956854 -0.00001390787413679817
          -0.000025925214155009257 0.0000010715301881347727 -0.000013874082639198093 -0.000026215421371933445 -0.000018043321114546984 -0.000021096646847240663
          0.000007396486717325956 0.0000031610397090986453 0.000008489216630991336 -0.00003486746692438203 0.0000022510538886244547 -0.000018547037677230094
          -0.0000370298788210377 -0.00003718455229240192 -0.000009263956187055555 -0.000021156263951382925 -0.000026692581656995173 -0.00003411562304123095
          -0.0000260852853415372 -0.000003952818049768325 -0.000012833630609776492 -0.000059481977714881396 -0.0000724668856104671 -0.00004451935964322473
          0.000007200561553455387 0.000009098767021820109 0.000004939816914406592 -0.00005053311222447121 -0.00006212807757677297 -0.00004056498122473329
          0.000016109326054003503 0.000009786366045094752 0.000009925222764994857 -0.000048534236754438354 -0.00006519987057895804 -0.00003865260537416759
          -0.000032231964924855916 -0.00003226258593391762 -0.0000040422411284879445 -0.0000015002775248795786 -0.000011289560011285005 -0.000013960777523802648
          0.00000604504088386193 0.00001183987470376735 0.000005032978350527628 -0.000011065489893269387 -0.00001235223447437761 -0.000016246862038826748
          -0.000017307133187927093 -0.000010795620323023059 -0.000014905907303131016 -0.000028524793474815624 -0.000040149095196895246 -0.000024860060433340436
          -0.00002075329611983534 -0.000018245983730125204 -0.00002152695447854569 -0.0000036525570434875476 -0.00000399124911965032 -0.0000033469369338234856
          0.00000422360662799548 0.00000910365010575731 0.000007808547589860382 0.000016511157262755205 0.0000019632121812662717 0.0000046198565541999415
          -0.0000075393794425338 -0.00000788169178989051 -0.000004836483888048804 0.000008352839212300012 0.000015568965363144116 0.000007290820994043656
        </DataArray>
        <DataArray type="Float64" Name="resid_y" format="ascii" RangeMin="-0.05720317711728664" RangeMax="0.05807126293602553">
          -7.687774180864526e-7 -0.0000012252168858709056 -8.411328120188841e-7 -0.00000383603323063364 0.0000032560002746762073 0.0000019113154744593297
          0.000007281882425335968 9.814419882764325e-7 0.000016481874717699796 0.00001921632330324774 0.000019599505078319798 0.00001619079525324446
          0.0000027889666545741904 -0.0000012513920149802293 -0.000002638454931494505 -0.0000032437100708840316 0.000007971175734772934 3.173790432339785e-7
          -0.00000295114002968333 0.0000030854360650936496 0.000022257403737344257 0.000011687685457312247 0.000010335159865735438 0.000016253053716983046
          0.000022085257094520833 0.000010938852677007393 0.000023699337371646534 0.000024368819848186174 0.000018697670877240724 0.00001758310959890097
          5.063149352974028e-7 -3.2770438505858035e-7 -3.97774720689581e-7 0.000002868237133348602 9.489135781651226e-7 6.857499068851219e-7
          -2.7219209941704847e-7 0.000007189613876209524 0.000002252323611950935 0.0000012884803528966787 9.691606758892302e-7 0.000004675858752344183
          -0.0000017636254004103902 -0.0000011447640311246232 -0.000001199428516489992 0.0000036358113991892538 0.000008062597179520764 0.000010676888142858998
          -0.000006090789942111985 -0.000003520012376249243 6.844958667998058e-7 -0.0000012079996024247364 -0.000011797915136432802 -0.000006977980987542959
          0.000004628729725009162 -0.000003934056936199387 -0.000006625428275706252 -0.000002932771032030518 0.0000033579144178737252 -0.000003702693516445185
          -0.0000018135234437100661 -5.395362281078453e-7 -0.000001158026714520588 -0.0000018247644589641093 -0.000003486712360136618 -6.43179823969775e-7
          -0.0000034717486462210873 -0.000006471720590555188 -0.000003424387697965013 -0.00000101108791256653 -0.000002515067110218233 -0.000004955062493761098
          0.000004492361219771146 0.000010894779731884102 0.0000045945705731478825 0.000009907871837773821 0.000011106180477976624 0.000013570427401695707
          -9.665454321254943e-7 -3.241384962601474e-7 -6.436086938330088e-7 5.978318366054239e-7 -0.0000026117565222853745 -0.0000011775504973829138
          -0.0000036773681581841675 3.292573527385965e-7 -0.0000025340130702248068 -0.0000017548388450440693 -0.0000030332342356074148 -0.000001709947662297288
          -0.000003842077057183979 0.00003181605276485547 0.000028534665300287282 -7.021643262800081e-7 0.0000210715458387363 0.000025602984971555276
          0.000016800893714620513 0.000021777983219234062 0.00001942498799097081 -3.5595512971713095e-7 -1.7144921954370673e-7 -3.1065236910481075e-7
          -9.949179784665002e-7 -3.341238723388734e-7 2.0543644455722765e-7 2.572609194059078e-7 -0.0000016411954992297945 -5.65397762714373e-7
          1.7663561572428543e-7 -2.4552962665097544e-7 -6.910289849886009e-7 -0.0000022132340187983046 -0.0000027190716236375617 -0.00000305659055920178
          -0.0000024669131257117755 -0.00000445577262146897 -0.00000425196634432079 -0.000006987202818118168 -0.000006286876497918828 -0.00000318740154153091
          -0.0000014068719739052105 -0.0000027074382372184458 -0.000004259358318525405 5.397463941417269e-8 -0.000002539704064701692 0.0000025418646728524175
          1.989127921438183e-7 -0.0000029375502271708487 -0.000002865796204749166 -0.0000021059558657273575 -0.000005664933328045768 -0.000004347852734214869
          -4.069798628259652e-7 -5.212062438499782e-7 0.0000017040917015681556 -0.0000050357582126563105 -0.000003878259909663798 -0.000006281050916286286
          -0.000004825506362382548 -0.000004204126316562952 -0.0000028047097064415327 -3.345840658974808e-7 -6.925580049305102e-7 -9.180217209608932e-7
          -8.728038865292442e-7 -3.7924394788099725e-7 -9.768413027494427e-7 -0.0000012889115426767406 3.750429668838984e-7 0.000002345241097715528
          0.000003192246532533055 0.000002174576804684497 0.000002382795898456941 -7.161686257717639e-7 -0.000003815568319289961 -0.000004126242828571616
          -0.000003894427043725848 -7.974312557570973e-7 -0.000004086432486543473 -0.000008261851767544376 -0.000007036052491592865 -5.3213533881407704e-8
          -0.00000199900056473655 -0.0000037412036077346528 -0.000003124560485253877 -7.418832988041746e-8 0.000003882361615963059 8.73943546548378e-7
          -9.632724095286205e-8 5.402674225288284e-7 0.0000034500863378122276 0.0000037968640596974107 0.0000061240903084860965 0.000005623383810384255
          -0.0285745795678089 -0.015880319484779543 -0.05720317711728664 -0.031818854745064636 -0.02875260873913117 -0.016521549075713852
          -0.00000481376466094155 -0.000005050428979330723 -0.000002693539692880456 -0.00000370981753541888 -0.000009194173639107128 -0.000009226845288798358
          -0.0000023089892825980257 -0.0000034403391181575538 0.000006260974553595061 5.057368265039275e-7 0.000002916559697925536 0.000004018061825329308
          0.00000521345147717206 0.000007706333057197826 0.000002314981494354329 0.0000038136367764111945 0.0000037006092315737538 0.0000051965738110861665
          -0.000009580836962373024 -0.000007117409561177568 -0.000012488451047183713 -0.000014889979047597035 -0.000008448160323040743 -0.00000959027122283962
          0.0000023846852397063634 0.0000014658132619187192 -2.0366638364688328e-7 -0.0000019952486439243217 0.000004024227936119673 0.000006578437339140736
          0.0000035314051164900273 0.000004346408387853606 -0.000001744306571609816 -0.00000111235112526184 6.87846957656002e-8 0.000009348827361675
          0.0000010370445122538652 0.000004908427784645897 0.000005825696791687818 0.000010177297525448825 0.000008271923975813195 0.000010809220742261788
          -0.0000033588926072435077 -0.000004486891584443153 -0.000003273682016823043 -0.0000034532881449007846 0.000004496988721226086 0.00000385251808724188
          -0.0000020009343901488535 -0.000005726996132531664 -0.0000056192884420463995 -0.0000012667667768796048 0.0000011385885178329114 -0.000006777336704186579
          -0.000005748800899312012 -9.23520310435258e-7 0.000003066782266986784 -0.000005486302992913821 -0.000003985933514725343 -0.000007980848723481565
          -0.000011370513473106395 -0.000009094740550396468 -0.000013783552411765487 -0.000008995189570868475 -0.000005248820845231428 -0.000007559425067717868
          -0.0000016982056445704469 -0.0000021422533438572935 -4.828159257241199e-7 -0.000004004938525588569 -0.000004576795812234313 -0.0000040027067292024154
          -0.000003961993500016005 -0.0000050044818070359674 -0.000004506767167554784 0.0000016397271308948858 -0.000006727344823560105 0.0000017343701476345286
          -0.005351394786046567 -0.010750606610770465 -0.00573258038399008 0.000003038726165201233 0.000025652224404426605 0.00001207036114252158
          0.000023393747106276175 0.000021270967481772096 0.000023184498026067313 -0.00000772870120184651 -0.000009119443530048008 -0.00000724865052162849
          -0.0000036236273259458718 0.0000022147109458164893 0.000002856903892897028 -0.000007109452847320341 -0.000009096170193571146 0.000004846125487338593
          0.000004426929774439814 0.0000025688249582073164 0.00001309673504089684 0.0000011221534302434388 0.0000016665278197991462 -0.0000023234009648397114
          -0.000002171906104814908 1.0605212747913373e-7 9.170457894933093e-7 0.000026151244103489457 0.000010065641695582161 1.2500905090858522e-7
          0.0000013515653965430821 0.0000540906719667944 0.00002279297891755183 -8.30954799367449e-7 0.000005437799592263558 0.000037353131584760835
          0.000018211432727933963 0.00001492478451525954 0.000012034333977595756 5.679818124888769e-7 0.00000944706940859616 0.000015409718525816185
          0.00000475548313849921 0.0000017811966037950544 0.000006130072865399502 0.000009694553501670908 0.000010894598432049582 0.00001352060214040128
          0.00001181872067009676 0.00001810401412525686 0.00002416936506490549 2.9934816725418756e-7 -3.948279218460131e-7 5.790400941160789e-7
          0.00000918599962858313 0.0000037455761404824213 0.000012860485637259528 0.000019007464675212943 0.000025450201601337832 0.00002115349821409096
          -0.000001162706792645976 -0.00000575022460651102 -0.00000315928627644263 -0.000007380362693411302 -0.000012104443525375042 -0.000005869434495497233
          0.000036504820780686176 0.00003718348308126562 0.0000521925295233483 0.00006581657354018389 0.00002841186613259522 0.00004355852596296672
          0.000029987087003307752 0.00002751567994586923 0.000017203029002327806 0.000015129340727407237 0.000018485760457685046 0.00001699327376840365
          0.0000071977221375654765 -4.43035320551316e-7 0.0000013530768675808214 0.000006952544220995699 -7.877381588521082e-7 0.00000363728355383397
          0.000007285427769227262 0.0000029609015693606022 0.000003728681901172398 0.000003198879395094334 0.000013527210324416894 0.000020309710603350073
          0.000013508096804708963 0.00002083473552304954 0.000027191191008415008 0.0000154806052957146 0.000013135827001527212 0.000025109647877417235
          0.00001442892168175905 0.0000064028639525821884 0.00001855563222127876 -6.041461453297481e-7 7.745535727798902e-7 -0.0000019288716368304204
          0.0000028198260821586663 0.000008741451394896765 0.000011585567916153061 0.000004351052335095987 -0.000004443656872642893 0.00000831296603892931
          -0.0000017060776980708237 -0.0000011853786680594836 -2.9783775884126285e-7 0.000006336439541215072 0.000011276493466421539 0.000014712496986556134
          0.00000383822809145451 -0.000002081572412171613 0.0000027310189528251608 0.000008404687620894302 0.000009426416885149544 0.0000035079186736231005
          0.000004168059908630714 0.000010014374576761131 0.000009042561168150914 0.000014338719928633226 0.0000023696870655523505 0.000011908423321681239
          0.00001537845382590386 0.000007868621290707534 0.000018300994192185782 0.000007074334498133328 -6.030022054667739e-7 0.000006485158731063534
          6.701904185350306e-7 0.0000028615401366921533 -0.0000068482518646799904 -0.000007078977699893907 0.000005018766227505786 0.000004941533965248379
          0.000008269939573157109 4.164783124795124e-7 0.000007344476684746637 0.000005432839197887923 0.000015013659271548296 0.00001075818487664311
          0.000010504142859486115 0.000007111651308332537 0.000010438908533826063 -0.0000030776519158873597 -0.0000058254131865150514 -0.0000035899970774969786
          -0.000003161700250045238 -0.000003540124569828204 -0.0000015400070414745698 -0.0000017503308819468572 -7.816973888758599e-7 -1.6302801079254303e-7
          0.0000024350377767802522 0.0000025758312661161575 -8.380951332107381e-7 7.204000770418689e-7 2.981544678509751e-7 -0.000001911231108282091
          -1.6198555668686665e-7 -8.032242307040582e-9 1.2401606221124073e-7 0.000032274635261078655 0.00002184029642553209 0.000045289793362698894
          0.000030134480959315146 0.000024974971217318898 0.00001675290891219039 0.000013018825779691212 0.000006809853145097952 0.000006719912088733182
          0.000026896082617230976 0.000014804601119328131 0.00001988533214681426 0.000022161322194062805 0.000018866896485711382 0.000026648545023599812
          0.00000776700656824822 0.000011984814354345716 0.000007727581353625737 0.0000019973777290547418 0.000005602754602158921 0.000006461723049475468
          0.000024861846460572795 0.00003361377870626098 0.000019455195378506596 0.029026381540194407 0.028278997785013166 0.05807126293602553
          0.056574318062127996 0.029052571886942505 0.028332833674514595 0.026193250753804683 0.02275115464418224 0.0524097356779675
          0.0455367000077187 0.026313946295790827 0.022920840269017112 2.1991583955098537e-7 7.500454543216128e-8 -0.0000027633240257136232
          -0.000002842133862094448 -0.0000014441111650144445 -3.6425416613181105e-7 -7.990103292297712e-7 -0.000004059485324382078 -0.0000017805834077767868
          0.02840117693490115 0.0000030044229764152053 0.05680956927504245 0.0000011217031574625724 0.02838878621390737 6.826355846561993e-7
          0.02657592496343793 0.053141807848828736 0.026463176384868642 0.00001622374504253038 0.000004499428805104094 0.00001618463727181413
          0.0237416346849624 0.047427106695324385 0.023478733601658752 0.000012492425223328135 -0.0000016577931953483394 0.000011051714555832676
          0.000015016304763002669 -6.41619087221601e-7 0.000008760572211306134 0.000002716841415459706 0.019514564233825502 0.000004171853488487212
          0.03893920751382657 0.000002616078351872289 0.019049674788298117 0.000011287599813870897 0.00001730094008136479 -7.213204122787087e-7
          0.000002418624100053446 0.000004791204056608933 0.000007513963098997045 0.000005961195834205263 -0.0000027733096873046315 0.000008038300510205404
          0.00001741420156015777 0.000008791699196160352 0.00001852591000676973 0.000021789250712375696 0.000002535239615162471 0.000008507070907201597
          -0.0000017410858261061868 -0.000005696299006917663 -0.000003609703366611386 0.000005672010041340991 -4.7128255656336826e-7 0.000007092591683369176
          0.000027662198893399492 0.000040725460836305016 0.0000286627012209828 0.0000023509583852005488 0.000002901360999283016 -0.0000012473864185076622
          -0.0000012466969030438396 0.0000018730338217345845 0.0000042273100211865505 0.0000019953483086651916 -0.000001983741981378788 0.0000012117868807316745
          7.001609074429316e-7 0.000001095880229631807 2.7696050917958015e-8 -4.0577781131381774e-7 -3.22502684285339e-7 -8.854125732229295e-7
          0.000010113469100847539 0.000008858968004468726 5.299325411545208e-7 0.0000038127108431609824 0.000029176728340712943 0.000009168658362028459
          0.00001935671160757657 0.000030700801364677566 0.000018628741513627978 0.000021455710407160267 0.00002412477994188228 0.000016080553248108698
          1.7742613336608343e-7 -0.00000338717686506132 -3.235771811162594e-7 0.000012876627844849234 0.000008833163567464886 -0.0000021479267539644548
          -7.478403923986271e-7 0.000007941748330275375 0.000009711961391996315 3.534819512486867e-7 7.965914103034988e-7 -5.678939285535048e-7
          -6.883432781476517e-7 0.0000019827230692045367 0.0000019235638678526124 0.00000326368204578778 -6.990952426885744e-7 0.0000015655621462620783
          0.000003363457451847386 0.000001423009100589602 0.000001602645839154579 -0.0000010225160010386009 0.00000410329502045087 0.0000015689116479485066
          0.000004303597729557462 -0.000001037032653541936 -0.0000015858459751320886 -0.000002234195636895836 0.000015005556891975469 0.000002367667554101921
          0.0000037209088345029062 0.000007027328961097673 0.000019050741216886102 0.000010651582383910604 0.000015856293849886988 0.000016995808155423342
          0.000014294429812360815 -8.996399346143658e-7 0.000014154511212765425 0.00001186156462061605 0.0000034314197481788433 0.000012247965102463176
          -0.000004216569719802613 -0.0000029730968067777364 -0.000004763599469742152 -0.000004265965460824826 -0.000003904967431825508 -0.0000030201824740665184
          0.000005773139344692618 -0.000003545956507595982 0.000004260454402847669 0.000007409474486776146 0.00001009229481285746 0.000006590523594710018
          3.896375441467606e-7 0.00001578601392458051 0.000012215118861643066 -0.000003158764419599735 -0.0000014932947346082276 -0.0000035025438860408677
          -0.0000016583866736669117 -0.0000018347582979962637 -0.000001406758678716008 0.00002143973911838612 0.00004111053100067097 0.000025195088936551258
          0.000004297951786793805 0.000002682116122799255 -8.936090328953705e-7 0.0000011129383635337387 0.0000018037665454728041 0.0000017216216394669998
          -0.0000013728545599847597 3.271681772451865e-7 0.000012208769693516919 0.000005132017283172863 -0.0000015057281403177414 7.743998855589546e-7
          0.000009597366188954237 0.000013645154321811903 0.000009774943036777728 0.000011918825093819307 0.000018812003909539354 0.000019791702663645924
          -0.000004435389500574705 -0.000004727900575223279 -0.000004531598485115959 0.000012330303951119115 0.000002159242721457358 0.0000030966520324360314
          0.000002856070815354314 0.000021126967832359178 0.000006569469144190182 -4.668456601063589e-7 -7.7559784664432e-7 -0.0000020803525848647406
          -0.0000019832406524681115 -0.000003812803318133974 -0.000002961300884584718 -0.000002094920130616025 -0.0000026697226704237853 -0.0000021456722534068592
          0.000013955669204309545 0.0000010487075166286386 0.000012447107293509646 -0.000004529796034055157 -0.000004834529370146244 -0.000004286320217626767
          0.000021317946611542488 0.000019837957437228437 0.00001894891216363756 0.0000415810283591056 0.000059066850306599417 0.000032007680392909243
          -0.000005080839196517587 -0.000006649516041503864 -0.000005366142283906583 -0.000007474897600790072 -0.000003449514168741858 -0.000005226478963707773
          0.00002350868770625847 0.0000042405048405608214 0.0000153171304119043 0.000011768352075690325 0.000003005881640351371 0.000006544023476488803
          0.00002274337715867797 0.000009807462965936986 0.000024349192792229996 4.248556863019337e-7 -2.6962039142985894e-7 2.837580285238589e-7
          0.000023880989515258355 0.00003026063047531502 0.000023021067205031276 0.000005971098801113572 -0.0000010808037017150801 0.000002935583017010454
          0.017898012825809478 -7.210685953867174e-7 0.011531234349115354 0.03582822114446247 6.259757000352806e-7 0.023086693604529557
          0.018032477560385944 -9.453165427612126e-8 0.01154340511331416 0.000012820911432696869 -0.0000037354052981955488 0.000005206162648666024
          0.00002124316021211506 0.000012378534838292099 -0.0000020261829625708994 -7.550034468797873e-8 0.000006953822080272426 0.000004080591208439899
          0.000010109451605198883 -0.000008441888403244724 0.000005805662757360497 0.000023137867495831577 0.000021850137821584348 0.000016243267111465745
          0.003743490642714358 0.0074829746176369215 0.0035995840330701376 0.000016847511566706053 -0.000008237405292897682 0.00000599836033497031
          0.000016064648368546014 0.000010015043527364376 0.000007762683971302906 0.000009904531911537201 0.0000156912411974474 0.000018656195848842927
          0.00002295527181584746 0.00001601495057099861 0.000015107012457033983 0.000021218575752657287 0.000026183595821627215 0.000017235606154547556
          0.000005756671499893007 0.000009496858560017682 0.000004959156716360935 0.00002532526319876799 0.000003042407513614842 0.000009186242011731405
          0.0000015686842556282554 1.3094332748479764e-7 -1.0656741586401175e-8 0.00003656640592572275 0.00004918100846746168 0.000027930688662591158
          0.000015628092366989227 0.000016524199341040602 -0.0000027400371020204484 -7.379194961569524e-7 0.000004543432032700495 0.000007255233169072006
          0.000009246613299135516 0.00001756033402415015 0.000009451427406818001 0.000008733568157500565 0.000013900724283213983 0.000009350665518347012
          0.000024502776547516425 0.000006809872889958213 0.000016790348910347697 0.000027368208799260704 0.00003494880188233129 0.00002107733899149502
          0.000013362728953102143 0.000010651769160013869 0.00001506038840068391 0.000008918812710152768 0.00001391539030943384 0.000008918421413151023
          0.014462411476407696 0.000004083832911928875 0.028907463907392916 0.0000044139565337046605 0.013963666507583499 0.000004502954700004794
          0.000010090199078494066 0.000010297919851690734 0.000006574878924825792 0.000007300591373325324 0.000010818788612983188 0.000007352130890161956
        </DataArray>
        <DataArray type="Float64" Name="resid_z" format="ascii" RangeMin="0" RangeMax="0">
          0 0 0 0 0 0
          0 0 0 0 0 0
          0 0 0 0 0 0
          0 0 0 0 0 0
          0 0 0 0 0 0
          0 0 0 0 0 0
          0 0 0 0 0 0
          0 0 0 0 0 0
          0 0 0 0 0 0
          0 0 0 0 0 0
          0 0 0 0 0 0
          0 0 0 0 0 0
          0 0 0 0 0 0
          0 0 0 0 0 0
          0 0 0 0 0 0
          0 0 0 0 0 0
          0 0 0 0 0 0
          0 0 0 0 0 0
          0 0 0 0 0 0
          0 0 0 0 0 0
          0 0 0 0 0 0
          0 0 0 0 0 0
          0 0 0 0 0 0
          0 0 0 0 0 0
          0 0 0 0 0 0
          0 0 0 0 0 0
          0 0 0 0 0 0
          0 0 0 0 0 0
          0 0 0 0 0 0
          0 0 0 0 0 0
          0 0 0 0 0 0
          0 0 0 0 0 0
          0 0 0 0 0 0
          0 0 0 0 0 0
          0 0 0 0 0 0
          0 0 0 0 0 0
          0 0 0 0 0 0
          0 0 0 0 0 0
          0 0 0 0 0 0
          0 0 0 0 0 0
          0 0 0 0 0 0
          0 0 0 0 0 0
          0 0 0 0 0 0
          0 0 0 0 0 0
          0 0 0 0 0 0
          0 0 0 0 0 0
          0 0 0 0 0 0
          0 0 0 0 0 0
          0 0 0 0 0 0
          0 0 0 0 0 0
          0 0 0 0 0 0
          0 0 0 0 0 0
          0 0 0 0 0 0
          0 0 0 0 0 0
          0 0 0 0 0 0
          0 0 0 0 0 0
          0 0 0 0 0 0
          0 0 0 0 0 0
          0 0 0 0 0 0
          0 0 0 0 0 0
          0 0 0 0 0 0
          0 0 0 0 0 0
          0 0 0 0 0 0
          0 0 0 0 0 0
          0 0 0 0 0 0
          0 0 0 0 0 0
          0 0 0 0 0 0
          0 0 0 0 0 0
          0 0 0 0 0 0
          0 0 0 0 0 0
          0 0 0 0 0 0
          0 0 0 0 0 0
          0 0 0 0 0 0
          0 0 0 0 0 0
          0 0 0 0 0 0
          0 0 0 0 0 0
          0 0 0 0 0 0
          0 0 0 0 0 0
          0 0 0 0 0 0
          0 0 0 0 0 0
          0 0 0 0 0 0
          0 0 0 0 0 0
          0 0 0 0 0 0
          0 0 0 0 0 0
          0 0 0 0 0 0
          0 0 0 0 0 0
          0 0 0 0 0 0
          0 0 0 0 0 0
          0 0 0 0 0 0
          0 0 0 0 0 0
          0 0 0 0 0 0
          0 0 0 0 0 0
          0 0 0 0 0 0
          0 0 0 0 0 0
          0 0 0 0 0 0
          0 0 0 0 0 0
          0 0 0 0 0 0
          0 0 0 0 0 0
          0 0 0 0 0 0
          0 0 0 0 0 0
          0 0 0 0 0 0
          0 0 0 0 0 0
          0 0 0 0 0 0
          0 0 0 0 0 0
          0 0 0 0 0 0
          0 0 0 0 0 0
          0 0 0 0 0 0
          0 0 0 0 0 0
          0 0 0 0 0 0
          0 0 0 0 0 0
          0 0 0 0 0 0
          0 0 0 0 0 0
          0 0 0 0 0 0
          0 0 0 0 0 0
          0 0 0 0 0 0
          0 0 0 0 0 0
          0 0 0 0 0 0
          0 0 0 0 0 0
          0 0 0 0 0 0
          0 0 0 0 0 0
          0 0 0 0 0 0
          0 0 0 0 0 0
          0 0 0 0 0 0
          0 0 0 0 0 0
          0 0 0 0 0 0
          0 0 0 0 0 0
          0 0 0 0 0 0
          0 0 0 0 0 0
          0 0 0 0 0 0
        </DataArray>
        <DataArray type="Float64" Name="stress_zz" format="ascii" RangeMin="-11979.82000803976" RangeMax="19241.59134305961">
          -5235.530347562435 -3077.6148717573446 -4108.479832204828 -3495.586330855071 -5254.717368594004 -2943.477480785668
          -4152.465933079517 -3545.454519265349 -5273.904389625577 -2809.3400898139907 -4196.452033954204 -3595.322707675627
          1761.2102334638228 -1282.03343281053 -4156.55442676756 471.0003508683184 1842.5741728814264 -1412.4180448398993
          -4351.164167249383 433.6841780759422 1923.9381122990303 -1542.802656869268 -4545.773907731207 396.36800528356616
          4011.027574206658 1489.1964986468247 4222.701866940721 1490.3373566672612 4434.3761596747845 1491.4782146876983
          47.088599998771485 45.074565086883354 -1300.4501071416698 -5834.755312619013 48.2313669152407 15.070232173931515
          -1255.628068589325 -5896.797407430193 49.37413383170997 -14.934100739020323 -1210.8060300369802 -5958.839502241373
          -1597.7617755962008 382.15779210995913 -1678.0049607692472 363.12105437490055 -1758.2481459422934 344.084316639842
          -6873.559814733363 -4154.0872463252545 -281.34562710527473 316.25077658481587 -6987.4483018463 -4667.423168753263
          -359.95183078329603 9.329124792900984 -7101.336788959236 -5180.75909118127 -438.55803446131705 -297.59252699901253
          1683.3778173117237 2857.947367241806 4111.337305329238 2122.4529389675154 1621.6809054271785 3001.606270202762
          4181.893564766278 2057.293412288618 1559.9839935426323 3145.265173163718 4252.449824203319 1992.1338856097204
          -3148.2041461566205 -4292.293732046786 -3240.5509912562893 -4294.044489473607 -3332.8978363559586 -4295.7952469004285
          -533.1086003559725 3163.5437222914607 3387.0000923768566 2351.3759779582465 -604.2553632971598 3153.3704254115937
          3338.3815880774146 2361.591361549882 -675.402126238347 3143.197128531727 3289.7630837779716 2371.8067451415172
          -2085.2435240928853 -1208.7360847169534 -4016.22160518163 -2076.618449390542 -1145.1551260444876 -4087.638597080738
          -2067.993374688198 -1081.5741673720222 -4159.055588979845 1121.1604419496366 613.5164404815641 689.2221509748764
          683.8178975965802 1146.1842991671629 691.8789238399705 781.5553918899857 583.636710401054 1171.2081563846887
          770.2414071983771 873.8886328050947 483.45552320552736 -3201.666651387325 1460.2825165979627 1978.3028386561164
          -1093.1639675642705 -3321.701652796445 1590.2573754541204 1994.139065272062 -1308.1184258359829 -3441.736654205565
          1720.2322343102778 2009.9752918880079 -1523.0728841076952 2503.956475001689 2598.0645223038327 2692.1725696059775
          -7499.815432293925 -2846.941398394997 1622.740973468276 -8070.1621645064115 -2985.3786492141007 1968.6977776531423
          -8640.5088967189 -3123.8159000332043 2314.654581838009 -809.343108852175 1739.6063366872659 -802.5165261551228
          1754.1508343368423 -795.6899434580706 1768.6953319864185 838.3443748197507 2038.4448202068907 1256.4559596747483
          967.0428906368288 809.3445525789022 2053.474777278499 1196.737946226829 934.9458106171451 780.3447303380539
          2068.504734350108 1137.0199327789098 902.8487305974614 478.9851701755256 -4674.564248832546 -2660.7342287312263
          -825.4942090380116 278.3444637839741 -4833.288236459132 -2601.5666978193353 -986.4659928468478 77.7037573924224
          -4992.012224085718 -2542.399166907445 -1147.437776655685 1763.2628813033818 1548.5009629383148 538.3677751385762
          1771.7049855625974 1629.816380847278 513.7595390884935 1780.1470898218126 1711.1317987562416 489.1513030384107
          3913.984551315636 7226.242765052802 3975.985296618083 7375.571839015963 4037.98604192053 7524.900912979125
          969.0826781935127 2748.3325261104524 4195.627821112041 1197.378278854203 979.8923687122682 2705.7306801679642
          4342.167508865258 1240.4169820558773 990.7020592310233 2663.1288342254757 4488.707196618476 1283.4556852575524
          2241.005853694717 2516.653701555709 2226.0983976517236 2576.2645249930692 2211.19094160873 2635.8753484304284
          3483.100005024594 -1253.7500225029257 3507.2056884059252 -1091.6331099678 3531.3113717872566 -929.5161974326741
          -3242.370942996967 -3092.998185439774 -3274.2648475929254 -3148.7743093208383 -3306.158752188884 -3204.5504332019027
          -2011.6373063827903 -2319.4821691012403 -201.82178859925682 742.3307424534969 -1929.7085562264047 -2325.1472305122275
          -261.8179588909971 703.7001743284651 -1847.7798060700195 -2330.812291923215 -321.81412918273736 665.0696062034333
          -757.790860057263 5053.725165498898 -771.2982953152703 5199.13403751325 -784.8057305732777 5344.542909527604
          2665.41516805601 2631.9856695677863 2598.556171079563 2595.428965318497 1986.2618487051159 2727.2768387561755
          1962.9988099739544 2859.124712193853 1939.7357712427927 -3775.295780597137 -10518.568157599257 -6593.341689683734
          -3843.7523010108807 -11015.11850146095 -6611.547870666223 -3912.2088214246264 -11511.668845322642 -6629.754051648713
          678.9312399429457 2034.0784256078869 952.894677822879 577.2660629320724 1988.3426992970478 881.8965465064418
          475.600885921199 1942.606972986209 810.8984151900046 3798.282256189839 3797.6672292791673 3797.052202368496
          6256.887360065423 6547.752732960902 6838.61810585638 3704.478023639503 2998.652539966224 3889.664867509891
          2912.742045642537 4074.851711380278 2826.83155131885 184.24264071128425 135.65750918106642 87.07237765084847
          2002.0066186714828 3317.729494951288 1486.7277942582016 2070.580769667804 3358.2366253999494 1479.3747661091834
          2139.1549206641257 3398.743755848611 1472.021737960165 2317.5174753920473 -357.16856658584635 2256.8949899897534
          -326.3618849359988 2196.2725045874604 -295.5552032861512 2956.3586360636336 17338.45641367696 10380.505563763827
          3777.452445104829 3165.5606132163325 18290.02387836828 10787.756393656735 3711.5211285780806 3374.762590369029
          19241.59134305961 11195.007223549645 3645.5898120513316 -5310.780244543503 -3932.304238058983 -4591.941295335303
          -2854.426036816821 -5259.909898356129 -4018.3485206987148 -4732.688566433272 -2741.715144254415 -5209.039552168757
          -4104.392803338447 -4873.435837531242 -2629.0042516920093 -629.7797796367614 -111.90305614655699 8152.345495908245
          -539.1196586794387 -73.36986505015656 8708.521710466628 -448.4595377221159 -34.836673953756325 9264.697925025012
          -3677.8998098975526 -3858.955239738255 -4040.0106695789577 2379.3553896163426 2062.6499005193878 1745.9444114224332
          3530.391544734446 214.9285769370268 4053.1089211720655 204.98302386354771 4575.826297609685 195.03747079006862
          -1037.4421088061708 -5774.813818195871 -1086.9756559630623 -5906.525645345899 -1136.5092031199538 -6038.237472495927
          1446.4322822577885 1521.9861385957452 1597.539994933702 -3641.6196912839905 -7720.764140253454 -6110.374431321557
          -4909.771534714236 -3630.781242691507 -8102.456531593279 -6332.587682212009 -4892.447308827529 -3619.9427940990254
          -8484.148922933105 -6554.800933102462 -4875.123082940822 -965.5669128474856 -1126.1618214631021 -1286.7567300787186
          -4062.854162918542 -4089.2103705149107 -4115.566578111278 4341.037644233806 3336.6670900545105 4475.265320164503
          3324.1214935400803 4609.492996095199 3311.57589702565 2578.8060377555075 2534.108697843113 2489.4113579307186
          2599.290268537013 3701.840795589226 2539.758201711909 3720.7383658492913 2480.226134886805 3739.6359361093564
          9622.8006555668 9603.916147700776 9585.031639834753 -1574.376063687994 -124.43975003213723 -1426.3311633435665
          -143.8094981202081 -1278.2862629991391 -163.179246208279 -3222.937832459842 -3184.5920134103053 -3146.2461943607686
          -3711.4394945069316 -3665.6969578413064 -3619.954421175681 1206.7049119538365 1191.7729364610934 1176.84096096835
          7832.350090846673 12613.525974225066 7772.810117107264 12901.148072702019 7713.270143367852 13188.770171178972
          627.6631482947312 680.2049457147622 732.7467431347933 -1435.771983592636 4574.897078676062 -1491.2965079023231
          4771.723086809219 -1546.82103221201 4968.549094942377 311.6136853386778 308.3843675895781 -726.5530789740742
          137.6724096428647 116.41714967998412 -1152.0938538086632 -36.26886605294828 -75.55006822961002 -1577.6346286432524
          796.7458986663402 662.1584120983359 1288.5635814632658 786.7862844726718 652.8043591471813 1249.4419630199666
          776.8266702790036 643.4503061960271 1210.3203445766674 8373.439626474687 1658.6572303305238 8669.25564564101
          1894.3807447012045 8965.071664807332 2130.1042590718844 -2761.1499681339437 -183.4468321223835 -5198.853521664419
          -2671.390414428833 -292.632185585613 -5332.280723420361 -2581.6308607237224 -401.8175390488427 -5465.707925176303
          1222.281117399733 4492.158665751911 1281.940187105322 4697.030739606021 1341.599256810911 4901.902813460131
          -4230.874814466244 -4265.128119041238 -4299.3814236162325 595.2643851369052 903.3563563963557 617.9106199589554
          920.9114769357556 640.5568547810058 938.4665974751554 693.792511800967 624.8510166781323 678.7962220329975
          498.38787576587777 663.7999322650282 371.92473485362325 3295.67729643268 934.0975063165323 3300.4666040646616
          930.3650254791457 3305.2559116966445 926.6325446417593 3461.8706235494833 3459.79653714874 3457.722450747997
          1055.914748613338 609.6171826807749 1136.2831184212 598.5684767856386 1216.6514882290621 587.5197708905023
          1959.0534467284265 2058.675138724681 2158.2968307209358 1160.9689795288646 1119.243662668737 1077.5183458086092
          2897.7276564816425 3187.323741392078 3476.919826302513 2213.909898578312 2204.065311682282 2194.2207247862525
          -470.45815636357463 -506.97302133986045 -543.4878863161467 -1762.5155986425925 6680.045731709267 -1787.0577420225213
          7119.424707301425 -1811.5998854024504 7558.803682893583 -1722.0988081467203 -2267.272090379731 -1785.8431832016777
          -2308.8716067469663 -1849.5875582566346 -2350.4711231142014 84.60809701541547 28.97241400642531 -26.663269002564817
          -5624.05906247325 -5625.77568824966 -5627.492314026068 -1924.899774376789 -1916.0782265860648 -1907.256678795341
          1052.8620541496985 1230.431130307783 1408.000206465868 -2727.702433093573 -2997.3074512910553 -3266.9124694885368
          5331.449817097788 5279.569427996604 5227.68903889542 -2017.4168163705099 -2655.2735974855746 -2009.3576062083348
          -2659.2847136321 -2001.2983960461597 -2663.295829778626 -776.3039225553673 -735.4552665228825 -694.6066104903978
          1196.0370645142052 3119.51339215107 1251.2898726672388 3317.148942841244 1306.5426808202728 3514.7844935314174
          -2988.0289175224925 -1427.0995270317464 -3154.692832507218 -2977.7153130653046 -1389.000290363376 -3111.668991723727
          -2967.4017086081176 -1350.9010536950059 -3068.645150940236 -3387.1375775147035 -3413.0616852218773 -3438.9857929290515
          -84.65183819158374 -49.3531666775982 -14.054495163612671 5278.800831074766 6749.621896291149 5301.479276251234
          6715.816377474888 5324.157721427701 6682.010858658627 879.3071193180895 544.9123438264447 857.8631626994669
          517.0139670788793 836.4192060808443 489.1155903313139 -26.206351804273197 -8.881039627113068 8.444272550047046
          1427.6315321018405 1128.2176654661137 1349.677739120748 1086.0429172158206 1271.7239461396557 1043.8681689655275
          5551.549342758454 8317.253582649444 -651.7187404030037 -6758.4828332933475 5775.6044008631025 8363.010163087296
          -638.3080476034414 -6952.743140602989 5999.659458967747 8408.766743525148 -624.8973548038789 -7147.003447912632
          -5271.775258273683 -5377.378198081962 -5482.98113789024 -1952.7366913394528 -1966.4498108398166 -1980.1629303401805
          -6959.335926888357 -7899.771231609883 -7193.987776306285 -8408.100136523788 -7428.639625724214 -8916.429041437696
          -1858.9794425520827 -1871.360205926325 -1883.7409693005684 1822.2398305305164 6180.219683528338 1977.3420560909483
          6217.2488031874755 2132.44428165138 6254.277922846612 -1353.0945615802593 -137.38114448351246 -1257.7559517738412
          -108.73015984743938 -1162.4173419674232 -80.07917521136619 792.093190049902 835.5979459323784 879.1027018148545
          -532.3338327217232 573.4105959338317 -516.8209140713715 511.9989072976778 -501.3079954210194 450.5872186615238
          918.8379886795772 -1217.180930108411 -3777.723913707077 1482.2680030483057 918.9171146600399 -1317.3637376359707
          -3878.6011104257723 1627.5108883949488 918.9962406405028 -1417.54654516353 -3979.4783071444676 1772.7537737415919
          -76.03981844770132 2.3056766415538306 80.6511717308091 -1552.8217567241245 -4427.531659346413 -1594.0413936925818
          -4986.655170613737 -1635.2610306610386 -5545.77868188106 1535.4386588664488 2266.5127729722144 1525.4431150167864
          2302.7927177898837 1515.447571167124 2339.072662607553 2873.2103756193983 2920.9502689797664 2968.6901623401354
          6292.502730904324 6216.798005979125 6141.093281053925 842.5205007953493 836.0539261666281 829.5873515379071
          4168.398076634372 4193.066461047092 4217.734845459811 -1197.7361548068477 -1372.7726007588585 -1547.8090467108686
          -142.98188538765595 766.7605675078125 -84.38739046506478 655.20553808948 -25.792895542473616 543.6505086711476
          415.6070178923428 376.9736609174249 338.34030394250703 910.2586438662487 667.5446392907155 424.83063471518227
          5981.932209532578 6116.200482272177 6250.468755011779 447.8703988794166 430.20776920418456 412.54513952895246
          2921.5457841429184 2913.972482970621 2906.399181798324 -967.1740913130408 -982.288339894702 -997.4025884763627
          1400.3729641276943 1828.9111608780927 2607.6624628646964 1269.4378918191376 1839.9813043675963 2591.4149988781674
          1138.5028195105808 1851.0514478570994 2575.1675348916383 -1258.4850691457261 -1538.1620694523938 -1817.8390697590617
          7803.896456229782 9767.968418929246 7862.10594598412 9851.50805353182 7920.315435738459 9935.047688134395
          290.067770456289 297.19730881302837 304.32684716976775 -1033.4052571834104 -1153.8480208833996 -1274.2907845833888
          4492.505170207877 4497.810248905621 4503.115327603365 3210.6967183145593 3114.3145828836014 3017.932447452643
          -3487.8947016647758 -5106.194536995328 -3645.513390330336 -5169.386117410965 -3803.132078995895 -5232.577697826602
          232.64311173075254 142.30871692949603 51.97432212823952 4310.636532635765 4350.264000209556 4389.891467783347
          -11295.885107646309 -11637.852557843034 -11979.82000803976 2556.8968863944565 2497.0022610488804 2437.1076357033044
          495.3361365019362 481.2435966905023 467.15105687906834 -5268.702426666164 -5406.850453132807 -5544.998479599451
          7842.71932579569 5744.560978814352 7889.386760909102 5826.809244231328 7936.054196022514 5909.057509648306
          -1936.0809945186043 -1959.80376304459 -1983.5265315705753 -6319.253691570939 -2772.401809253094 -6705.137314788731
          -2856.6952226519998 -7091.020938006523 -2940.9886360509054 -6597.947078632653 -6649.472594873261 -6700.998111113869
          -1733.291232778367 -1668.3905723190867 -1603.4899118598062 -1995.9803999692685 -2045.3268398963505 -2094.6732798234316
          4052.493607109141 137.52710835576164 4239.965875934397 7.544994443872747 4427.438144759654 -122.43711946801595
          -4632.0881385319435 -4862.498480041391 -5092.908821550839 -4687.84143472437 -4923.47263040031 -5159.103826076249
        </DataArray>
        <DataArray type="Float64" Name="peeq" format="ascii" RangeMin="0" RangeMax="0">
          0 0 0 0 0 0
          0 0 0 0 0 0
          0 0 0 0 0 0
          0 0 0 0 0 0
          0 0 0 0 0 0
          0 0 0 0 0 0
          0 0 0 0 0 0
          0 0 0 0 0 0
          0 0 0 0 0 0
          0 0 0 0 0 0
          0 0 0 0 0 0
          0 0 0 0 0 0
          0 0 0 0 0 0
          0 0 0 0 0 0
          0 0 0 0 0 0
          0 0 0 0 0 0
          0 0 0 0 0 0
          0 0 0 0 0 0
          0 0 0 0 0 0
          0 0 0 0 0 0
          0 0 0 0 0 0
          0 0 0 0 0 0
          0 0 0 0 0 0
          0 0 0 0 0 0
          0 0 0 0 0 0
          0 0 0 0 0 0
          0 0 0 0 0 0
          0 0 0 0 0 0
          0 0 0 0 0 0
          0 0 0 0 0 0
          0 0 0 0 0 0
          0 0 0 0 0 0
          0 0 0 0 0 0
          0 0 0 0 0 0
          0 0 0 0 0 0
          0 0 0 0 0 0
          0 0 0 0 0 0
          0 0 0 0 0 0
          0 0 0 0 0 0
          0 0 0 0 0 0
          0 0 0 0 0 0
          0 0 0 0 0 0
          0 0 0 0 0 0
          0 0 0 0 0 0
          0 0 0 0 0 0
          0 0 0 0 0 0
          0 0 0 0 0 0
          0 0 0 0 0 0
          0 0 0 0 0 0
          0 0 0 0 0 0
          0 0 0 0 0 0
          0 0 0 0 0 0
          0 0 0 0 0 0
          0 0 0 0 0 0
          0 0 0 0 0 0
          0 0 0 0 0 0
          0 0 0 0 0 0
          0 0 0 0 0 0
          0 0 0 0 0 0
          0 0 0 0 0 0
          0 0 0 0 0 0
          0 0 0 0 0 0
          0 0 0 0 0 0
          0 0 0 0 0 0
          0 0 0 0 0 0
          0 0 0 0 0 0
          0 0 0 0 0 0
          0 0 0 0 0 0
          0 0 0 0 0 0
          0 0 0 0 0 0
          0 0 0 0 0 0
          0 0 0 0 0 0
          0 0 0 0 0 0
          0 0 0 0 0 0
          0 0 0 0 0 0
          0 0 0 0 0 0
          0 0 0 0 0 0
          0 0 0 0 0 0
          0 0 0 0 0 0
          0 0 0 0 0 0
          0 0 0 0 0 0
          0 0 0 0 0 0
          0 0 0 0 0 0
          0 0 0 0 0 0
          0 0 0 0 0 0
          0 0 0 0 0 0
          0 0 0 0 0 0
          0 0 0 0 0 0
          0 0 0 0 0 0
          0 0 0 0 0 0
          0 0 0 0 0 0
          0 0 0 0 0 0
          0 0 0 0 0 0
          0 0 0 0 0 0
          0 0 0 0 0 0
          0 0 0 0 0 0
          0 0 0 0 0 0
          0 0 0 0 0 0
          0 0 0 0 0 0
          0 0 0 0 0 0
          0 0 0 0 0 0
          0 0 0 0 0 0
          0 0 0 0 0 0
          0 0 0 0 0 0
          0 0 0 0 0 0
          0 0 0 0 0 0
          0 0 0 0 0 0
          0 0 0 0 0 0
          0 0 0 0 0 0
          0 0 0 0 0 0
          0 0 0 0 0 0
          0 0 0 0 0 0
          0 0 0 0 0 0
          0 0 0 0 0 0
          0 0 0 0 0 0
          0 0 0 0 0 0
          0 0 0 0 0 0
          0 0 0 0 0 0
          0 0 0 0 0 0
          0 0 0 0 0 0
          0 0 0 0 0 0
          0 0 0 0 0 0
          0 0 0 0 0 0
          0 0 0 0 0 0
          0 0 0 0 0 0
          0 0 0 0 0 0
          0 0 0 0 0 0
          0 0 0 0 0 0
          0 0 0 0 0 0
        </DataArray>
        <DataArray type="Float64" Name="pe11" format="ascii" RangeMin="0" RangeMax="0">
          0 0 0 0 0 0
          0 0 0 0 0 0
          0 0 0 0 0 0
          0 0 0 0 0 0
          0 0 0 0 0 0
          0 0 0 0 0 0
          0 0 0 0 0 0
          0 0 0 0 0 0
          0 0 0 0 0 0
          0 0 0 0 0 0
          0 0 0 0 0 0
          0 0 0 0 0 0
          0 0 0 0 0 0
          0 0 0 0 0 0
          0 0 0 0 0 0
          0 0 0 0 0 0
          0 0 0 0 0 0
          0 0 0 0 0 0
          0 0 0 0 0 0
          0 0 0 0 0 0
          0 0 0 0 0 0
          0 0 0 0 0 0
          0 0 0 0 0 0
          0 0 0 0 0 0
          0 0 0 0 0 0
          0 0 0 0 0 0
          0 0 0 0 0 0
          0 0 0 0 0 0
          0 0 0 0 0 0
          0 0 0 0 0 0
          0 0 0 0 0 0
          0 0 0 0 0 0
          0 0 0 0 0 0
          0 0 0 0 0 0
          0 0 0 0 0 0
          0 0 0 0 0 0
          0 0 0 0 0 0
          0 0 0 0 0 0
          0 0 0 0 0 0
          0 0 0 0 0 0
          0 0 0 0 0 0
          0 0 0 0 0 0
          0 0 0 0 0 0
          0 0 0 0 0 0
          0 0 0 0 0 0
          0 0 0 0 0 0
          0 0 0 0 0 0
          0 0 0 0 0 0
          0 0 0 0 0 0
          0 0 0 0 0 0
          0 0 0 0 0 0
          0 0 0 0 0 0
          0 0 0 0 0 0
          0 0 0 0 0 0
          0 0 0 0 0 0
          0 0 0 0 0 0
          0 0 0 0 0 0
          0 0 0 0 0 0
          0 0 0 0 0 0
          0 0 0 0 0 0
          0 0 0 0 0 0
          0 0 0 0 0 0
          0 0 0 0 0 0
          0 0 0 0 0 0
          0 0 0 0 0 0
          0 0 0 0 0 0
          0 0 0 0 0 0
          0 0 0 0 0 0
          0 0 0 0 0 0
          0 0 0 0 0 0
          0 0 0 0 0 0
          0 0 0 0 0 0
          0 0 0 0 0 0
          0 0 0 0 0 0
          0 0 0 0 0 0
          0 0 0 0 0 0
          0 0 0 0 0 0
          0 0 0 0 0 0
          0 0 0 0 0 0
          0 0 0 0 0 0
          0 0 0 0 0 0
          0 0 0 0 0 0
          0 0 0 0 0 0
          0 0 0 0 0 0
          0 0 0 0 0 0
          0 0 0 0 0 0
          0 0 0 0 0 0
          0 0 0 0 0 0
          0 0 0 0 0 0
          0 0 0 0 0 0
          0 0 0 0 0 0
          0 0 0 0 0 0
          0 0 0 0 0 0
          0 0 0 0 0 0
          0 0 0 0 0 0
          0 0 0 0 0 0
          0 0 0 0 0 0
          0 0 0 0 0 0
          0 0 0 0 0 0
          0 0 0 0 0 0
          0 0 0 0 0 0
          0 0 0 0 0 0
          0 0 0 0 0 0
          0 0 0 0 0 0
          0 0 0 0 0 0
          0 0 0 0 0 0
          0 0 0 0 0 0
          0 0 0 0 0 0
          0 0 0 0 0 0
          0 0 0 0 0 0
          0 0 0 0 0 0
          0 0 0 0 0 0
          0 0 0 0 0 0
          0 0 0 0 0 0
          0 0 0 0 0 0
          0 0 0 0 0 0
          0 0 0 0 0 0
          0 0 0 0 0 0
          0 0 0 0 0 0
          0 0 0 0 0 0
          0 0 0 0 0 0
          0 0 0 0 0 0
          0 0 0 0 0 0
          0 0 0 0 0 0
          0 0 0 0 0 0
          0 0 0 0 0 0
          0 0 0 0 0 0
          0 0 0 0 0 0
          0 0 0 0 0 0
        </DataArray>
        <DataArray type="Float64" Name="pe22" format="ascii" RangeMin="0" RangeMax="0">
          0 0 0 0 0 0
          0 0 0 0 0 0
          0 0 0 0 0 0
          0 0 0 0 0 0
          0 0 0 0 0 0
          0 0 0 0 0 0
          0 0 0 0 0 0
          0 0 0 0 0 0
          0 0 0 0 0 0
          0 0 0 0 0 0
          0 0 0 0 0 0
          0 0 0 0 0 0
          0 0 0 0 0 0
          0 0 0 0 0 0
          0 0 0 0 0 0
          0 0 0 0 0 0
          0 0 0 0 0 0
          0 0 0 0 0 0
          0 0 0 0 0 0
          0 0 0 0 0 0
          0 0 0 0 0 0
          0 0 0 0 0 0
          0 0 0 0 0 0
          0 0 0 0 0 0
          0 0 0 0 0 0
          0 0 0 0 0 0
          0 0 0 0 0 0
          0 0 0 0 0 0
          0 0 0 0 0 0
          0 0 0 0 0 0
          0 0 0 0 0 0
          0 0 0 0 0 0
          0 0 0 0 0 0
          0 0 0 0 0 0
          0 0 0 0 0 0
          0 0 0 0 0 0
          0 0 0 0 0 0
          0 0 0 0 0 0
          0 0 0 0 0 0
          0 0 0 0 0 0
          0 0 0 0 0 0
          0 0 0 0 0 0
          0 0 0 0 0 0
          0 0 0 0 0 0
          0 0 0 0 0 0
          0 0 0 0 0 0
          0 0 0 0 0 0
          0 0 0 0 0 0
          0 0 0 0 0 0
          0 0 0 0 0 0
          0 0 0 0 0 0
          0 0 0 0 0 0
          0 0 0 0 0 0
          0 0 0 0 0 0
          0 0 0 0 0 0
          0 0 0 0 0 0
          0 0 0 0 0 0
          0 0 0 0 0 0
          0 0 0 0 0 0
          0 0 0 0 0 0
          0 0 0 0 0 0
          0 0 0 0 0 0
          0 0 0 0 0 0
          0 0 0 0 0 0
          0 0 0 0 0 0
          0 0 0 0 0 0
          0 0 0 0 0 0
          0 0 0 0 0 0
          0 0 0 0 0 0
          0 0 0 0 0 0
          0 0 0 0 0 0
          0 0 0 0 0 0
          0 0 0 0 0 0
          0 0 0 0 0 0
          0 0 0 0 0 0
          0 0 0 0 0 0
          0 0 0 0 0 0
          0 0 0 0 0 0
          0 0 0 0 0 0
          0 0 0 0 0 0
          0 0 0 0 0 0
          0 0 0 0 0 0
          0 0 0 0 0 0
          0 0 0 0 0 0
          0 0 0 0 0 0
          0 0 0 0 0 0
          0 0 0 0 0 0
          0 0 0 0 0 0
          0 0 0 0 0 0
          0 0 0 0 0 0
          0 0 0 0 0 0
          0 0 0 0 0 0
          0 0 0 0 0 0
          0 0 0 0 0 0
          0 0 0 0 0 0
          0 0 0 0 0 0
          0 0 0 0 0 0
          0 0 0 0 0 0
          0 0 0 0 0 0
          0 0 0 0 0 0
          0 0 0 0 0 0
          0 0 0 0 0 0
          0 0 0 0 0 0
          0 0 0 0 0 0
          0 0 0 0 0 0
          0 0 0 0 0 0
          0 0 0 0 0 0
          0 0 0 0 0 0
          0 0 0 0 0 0
          0 0 0 0 0 0
          0 0 0 0 0 0
          0 0 0 0 0 0
          0 0 0 0 0 0
          0 0 0 0 0 0
          0 0 0 0 0 0
          0 0 0 0 0 0
          0 0 0 0 0 0
          0 0 0 0 0 0
          0 0 0 0 0 0
          0 0 0 0 0 0
          0 0 0 0 0 0
          0 0 0 0 0 0
          0 0 0 0 0 0
          0 0 0 0 0 0
          0 0 0 0 0 0
          0 0 0 0 0 0
          0 0 0 0 0 0
          0 0 0 0 0 0
          0 0 0 0 0 0
        </DataArray>
        <DataArray type="Float64" Name="pe33" format="ascii" RangeMin="0" RangeMax="0">
          0 0 0 0 0 0
          0 0 0 0 0 0
          0 0 0 0 0 0
          0 0 0 0 0 0
          0 0 0 0 0 0
          0 0 0 0 0 0
          0 0 0 0 0 0
          0 0 0 0 0 0
          0 0 0 0 0 0
          0 0 0 0 0 0
          0 0 0 0 0 0
          0 0 0 0 0 0
          0 0 0 0 0 0
          0 0 0 0 0 0
          0 0 0 0 0 0
          0 0 0 0 0 0
          0 0 0 0 0 0
          0 0 0 0 0 0
          0 0 0 0 0 0
          0 0 0 0 0 0
          0 0 0 0 0 0
          0 0 0 0 0 0
          0 0 0 0 0 0
          0 0 0 0 0 0
          0 0 0 0 0 0
          0 0 0 0 0 0
          0 0 0 0 0 0
          0 0 0 0 0 0
          0 0 0 0 0 0
          0 0 0 0 0 0
          0 0 0 0 0 0
          0 0 0 0 0 0
          0 0 0 0 0 0
          0 0 0 0 0 0
          0 0 0 0 0 0
          0 0 0 0 0 0
          0 0 0 0 0 0
          0 0 0 0 0 0
          0 0 0 0 0 0
          0 0 0 0 0 0
          0 0 0 0 0 0
          0 0 0 0 0 0
          0 0 0 0 0 0
          0 0 0 0 0 0
          0 0 0 0 0 0
          0 0 0 0 0 0
          0 0 0 0 0 0
          0 0 0 0 0 0
          0 0 0 0 0 0
          0 0 0 0 0 0
          0 0 0 0 0 0
          0 0 0 0 0 0
          0 0 0 0 0 0
          0 0 0 0 0 0
          0 0 0 0 0 0
          0 0 0 0 0 0
          0 0 0 0 0 0
          0 0 0 0 0 0
          0 0 0 0 0 0
          0 0 0 0 0 0
          0 0 0 0 0 0
          0 0 0 0 0 0
          0 0 0 0 0 0
          0 0 0 0 0 0
          0 0 0 0 0 0
          0 0 0 0 0 0
          0 0 0 0 0 0
          0 0 0 0 0 0
          0 0 0 0 0 0
          0 0 0 0 0 0
          0 0 0 0 0 0
          0 0 0 0 0 0
          0 0 0 0 0 0
          0 0 0 0 0 0
          0 0 0 0 0 0
          0 0 0 0 0 0
          0 0 0 0 0 0
          0 0 0 0 0 0
          0 0 0 0 0 0
          0 0 0 0 0 0
          0 0 0 0 0 0
          0 0 0 0 0 0
          0 0 0 0 0 0
          0 0 0 0 0 0
          0 0 0 0 0 0
          0 0 0 0 0 0
          0 0 0 0 0 0
          0 0 0 0 0 0
          0 0 0 0 0 0
          0 0 0 0 0 0
          0 0 0 0 0 0
          0 0 0 0 0 0
          0 0 0 0 0 0
          0 0 0 0 0 0
          0 0 0 0 0 0
          0 0 0 0 0 0
          0 0 0 0 0 0
          0 0 0 0 0 0
          0 0 0 0 0 0
          0 0 0 0 0 0
          0 0 0 0 0 0
          0 0 0 0 0 0
          0 0 0 0 0 0
          0 0 0 0 0 0
          0 0 0 0 0 0
          0 0 0 0 0 0
          0 0 0 0 0 0
          0 0 0 0 0 0
          0 0 0 0 0 0
          0 0 0 0 0 0
          0 0 0 0 0 0
          0 0 0 0 0 0
          0 0 0 0 0 0
          0 0 0 0 0 0
          0 0 0 0 0 0
          0 0 0 0 0 0
          0 0 0 0 0 0
          0 0 0 0 0 0
          0 0 0 0 0 0
          0 0 0 0 0 0
          0 0 0 0 0 0
          0 0 0 0 0 0
          0 0 0 0 0 0
          0 0 0 0 0 0
          0 0 0 0 0 0
          0 0 0 0 0 0
          0 0 0 0 0 0
          0 0 0 0 0 0
          0 0 0 0 0 0
        </DataArray>
        <DataArray type="Float64" Name="disp_x" format="ascii" RangeMin="0.000006457699838883445" RangeMax="0.000015578855004188674">
          0.000012541013231672716 0.000012641434836488451 0.000012071098241568674 0.000012011137756800534 0.000012541013057080533 0.000012641435020712813
          0.000012071097401473968 0.000012011136771958805 0.000012541013685785236 0.00001264143587331351 0.000012071095130355049 0.000012011134524680977
          0.000014041630871260024 0.000013477347239681795 0.000013055484969777168 0.000013352265193165593 0.000014041631108239107 0.000013477346529232875
          0.000013055484203592877 0.000013352264040058283 0.000014041632644547225 0.000013477344724112657 0.000013055483717569705 0.00001335226106599918
          0.000011869164551316662 0.00001244317909702603 0.000011869167246408042 0.000012443183182618187 0.000011869175399611604 0.000012443196485367215
          0.000012982285804207847 0.000013003125854089171 0.000013574547341645185 0.000013525543745942159 0.000012982285301006907 0.000013003124629098405
          0.00001357454667673932 0.000013525543624552346 0.000012982283980067215 0.000013003122789249177 0.00001357454620288733 0.000013525545172293162
          0.000012575087176474702 0.000012841168296142668 0.000012575086662202624 0.000012841168057168936 0.000012575084314287102 0.000012841165765277943
          0.000007511344825641404 0.000007644028728835974 0.000007330948445645225 0.0000071044461131718266 0.000007511336098113429 0.000007644018776442713
          0.000007330937976125697 0.000007104436376561084 0.000007511309291520883 0.00000764399060893328 0.00000733090819771701 0.000007104407303014447
          0.000009089338276599354 0.000009609179922781644 0.00000954440607926214 0.000009048831064753972 0.000009089333491247012 0.000009609175605493333
          0.000009544401410907728 0.000009048825505861748 0.000009089319741575946 0.000009609163363209218 0.0000095443882213767 0.000009048810032593331
          0.00001195924270435208 0.000012401404103573714 0.000011959241996246238 0.000012401403532538543 0.000011959239446038228 0.00001240140201000581
          0.000007873536202643873 0.000007774898535550313 0.0000083322730780436 0.000008401265428497615 0.000007873530248809762 0.000007774892937382112
          0.000008332267874977323 0.000008401260130768749 0.00000787351277179868 0.000007774876141748663 0.000008332252647220645 0.000008401244297668805
          0.00001393383540625926 0.000013869935563726412 0.000014413251054092941 0.000013933838272221388 0.000013869938699985339 0.000014413254148383329
          0.000013933847541872434 0.000013869945833863476 0.00001441326456388659 0.000009967978823072963 0.000010516276744823544 0.000010362290669073373
          0.000009878548272574897 0.000009967974969496514 0.000010516273122692747 0.000010362286987522365 0.000009878543937326568 0.000009967964089196532
          0.000010516263588993701 0.000010362277202736141 0.000009878531595132244 0.000008591304716609399 0.000009075579274438271 0.000009043946227270111
          0.000008561018307977387 0.000008591298785117585 0.000009075573277926822 0.000009043940450911333 0.000008561011337490937 0.000008591280303742636
          0.000009075556199707478 0.000009043923523390668 0.000008560991780102022 0.000013001542788852213 0.000013001542460205501 0.000013001540814410119
          0.0000078982991023838 0.00000824407807323505 0.000008124101168770248 0.000007898291196066073 0.000008244070570843419 0.000008124093134124265
          0.000007898268313006393 0.000008244047584696047 0.000008124069207693918 0.000008562526546395695 0.000009061211653171514 0.000008562520842511893
          0.000009061206706966575 0.00000856250423244851 0.000009061191324551125 0.00001242065541240426 0.000012431721483178704 0.000011920942804234254
          0.000011853724945482103 0.000012420654347448089 0.00001243172055162987 0.000011920940437902677 0.000011853722996618158 0.000012420649941767538
          0.000012431715721616215 0.000011920935331226127 0.00001185371790827255 0.000007228038460977812 0.000007374801556337841 0.000006942877248593657
          0.000006685449677514311 0.000007228032646913829 0.000007374795904812034 0.000006942871430646687 0.000006685444192418867 0.00000722801446166196
          0.000007374778120069767 0.000006942854251540249 0.000006685427977603384 0.000012475519798870064 0.000012967389576761389 0.00001238425467624135
          0.000012475518257677191 0.000012967388049886184 0.000012384253650857827 0.000012475514433833954 0.00001296738469457998 0.000012384249921100044
          0.000006457723225350484 0.000007061488828415239 0.000006457717385551501 0.000007061483278099805 0.000006457699838883445 0.000007061464989892197
          0.000010333458501545674 0.000009600483624547437 0.000009612249890446084 0.00001017954579758255 0.000010333454708962333 0.00000960047921640252
          0.000009612245528501017 0.000010179542255448047 0.00001033344400201633 0.000009600464978267333 0.00000961223166085916 0.000010179533002974293
          0.000012468834766473381 0.000013004912874961288 0.000012468833932839897 0.000013004912272704957 0.000012468829917071062 0.00001300491068737795
          0.000007225322424327449 0.0000071991276432597094 0.000007225314961634729 0.000007199119301243412 0.000007225292086981571 0.00000719909526968789
          0.000010718320960091032 0.000010956264746111992 0.000010718318458271595 0.000010956262198118706 0.000010718309837329899 0.000010956253561094694
          0.000012194058247007007 0.000011917761415302586 0.00001160746012419637 0.000011854316647230978 0.000012194057388853458 0.000011917760491918723
          0.000011607458335305973 0.000011854315133103554 0.000012194054744482434 0.00001191775692856157 0.000011607454091125007 0.000011854311208285237
          0.000008722643174293198 0.000008595866191581879 0.000008722636557907833 0.00000859585985639153 0.000008722616857036095 0.000008595841564995074
          0.00000717879746998806 0.000007178790458378224 0.000007178770830356586 0.000008967156310671401 0.000009515048333033249 0.000008967150299276074
          0.000009515043609361339 0.000008967134102839523 0.00000951502964624005 0.000007909622397987278 0.000007877146850907619 0.000007400157357087914
          0.000007909615338341553 0.000007877139422121401 0.0000074001491415093175 0.000007909594925368346 0.000007877116818712651 0.000007400126090018335
          0.0000075545862815619565 0.000007623228806943653 0.00000711776860246795 0.000007554580247768307 0.000007623222368480458 0.000007117761910675504
          0.000007554561932927121 0.0000076232027031094226 0.000007117742935105589 0.00000802261706646575 0.000008022608904096603 0.000008022578188330913
          0.00000766562043417976 0.00000766561535663351 0.00000766560176062796 0.000015155572138016929 0.00001527396694099213 0.000015155575147431142
          0.000015273970112161837 0.000015155587160086822 0.000015273980194066516 0.00000770675761508357 0.000007706751638906045 0.00000770673395585133
          0.000009956869511610522 0.00000939605544521628 0.000010087973177641932 0.000009956865021236467 0.000009396050041933753 0.000010087969538310765
          0.000009956853002529826 0.000009396033563228646 0.000010087956811704733 0.000010080743185803207 0.000010577480372578032 0.000010080739693188223
          0.000010577477135465212 0.000010080728681051364 0.000010577467309988564 0.000011661075719823422 0.000011223126813768978 0.000011168426499499216
          0.000011704284728578268 0.00001166107788285613 0.00001122312664294577 0.000011168426095709349 0.000011704286455293642 0.00001166108526485781
          0.000011223130995950404 0.000011168425031722312 0.00001170429367562776 0.000012761550417636203 0.000012202795102955072 0.000012131977592043967
          0.000012701640695870324 0.000012761551613550674 0.000012202795876475391 0.000012131977673959285 0.000012701641570455967 0.000012761555959854146
          0.000012202798704581417 0.000012131976848756552 0.000012701644138956916 0.000014974131153370261 0.000014419803056582267 0.000014759544520915476
          0.000014974133968107411 0.000014419804713195787 0.000014759546704151802 0.000014974142072898313 0.000014419808901642304 0.000014759553327970923
          0.000008355632380819688 0.000008355625485307478 0.000008355601770581149 0.000006955776446739201 0.000006955768305526538 0.000006955740825330328
          0.000010905381618139388 0.00001056777879800749 0.00001090538173224943 0.000010567777133655353 0.000010905377400057574 0.000010567769352789564
          0.00001163593395107716 0.000012269446389326962 0.000011635934640150291 0.000012269448749535265 0.000011635936342871536 0.000012269454416125755
          0.000008852881852764927 0.000008852876809580578 0.000008852857011023296 0.000013322263376364726 0.000013766883660415584 0.000013803189210120007
          0.000013263600303846163 0.00001332226477605878 0.000013766885122729996 0.000013803191181816666 0.000013263602351495342 0.000013322268589281365
          0.000013766890157247238 0.000013803196839849635 0.00001326360823843889 0.000014122747208003541 0.000014122749163867037 0.000014122751635220965
          0.00001308598228585628 0.000013085982821389244 0.000013085982606765491 0.000010922933175822332 0.000010641526975254963 0.000010922930558086116
          0.000010641523762557087 0.000010922921918257114 0.000010641512879907859 0.000009276020386966292 0.00000927601539143049 0.000009275999248815233
          0.000011165657486173623 0.00001141390401904398 0.00001116565586993878 0.000011413902958107708 0.000011165649192295706 0.000011413898205109513
          0.000008939229045311304 0.00000893922445419168 0.000008939207361846971 0.0000126141309434849 0.00001224308663186732 0.000012614130435756009
          0.000012243085668919537 0.000012614128539877586 0.000012243082394018211 0.0000128850439119135 0.000012885044504887444 0.000012885044475261288
          0.000013311741659155763 0.000013311743874739265 0.00001331174896478269 0.000011796692041885205 0.000011796690898116338 0.000011796686606557678
          0.000009002286763342474 0.00000852508676835734 0.000009002281482805617 0.000008525079548390679 0.000009002266955693743 0.000008525058921741959
          0.000011337453595057748 0.00001133745229226862 0.000011337445987134301 0.000014124453621052544 0.000014130705263086313 0.000014124454405998681
          0.000014130706798289415 0.000014124459129231501 0.00001413071130232808 0.00000940639067916438 0.000009748758922739511 0.000009428312781278673
          0.000009406386799884924 0.000009748755579850383 0.000009428309060544584 0.00000940637498107297 0.000009748743124056398 0.000009428297390835536
          0.00001112758859698922 0.000011829720304559145 0.000011319483191687712 0.00001112758627775209 0.000011829718309954445 0.000011319481160439443
          0.00001112757866489269 0.000011829712479246165 0.000011319473697734686 0.000008469696584780517 0.000007902300935283173 0.000008469688793419423
          0.00000790229141835397 0.000008469665069993142 0.000007902261982929647 0.000015397746625015623 0.000014844786830200052 0.000014819465748522108
          0.00001539774934387075 0.000014844789032435455 0.0000148194685958209 0.000015397757112970176 0.000014844796837805045 0.000014819475889600985
          0.000013561758120561794 0.000013515854892593057 0.000013561759678657384 0.000013515856173878402 0.000013561760614169167 0.000013515854739712604
          0.000013018873274401168 0.000013018877480442806 0.000013018889207335227 0.000011899439709967126 0.000011294555493739415 0.00001189943830866391
          0.00001129455331520593 0.000011899432977504518 0.000011294545956296006 0.000010689607652407462 0.000010084613977678947 0.000010689605476542299
          0.000010084610814028438 0.00001068959610035927 0.000010084600368104595 0.000010002940059092054 0.000010456433842663301 0.000010002937011521835
          0.0000104564306227937 0.000010002926368977811 0.000010456421265850025 0.000009572489401311946 0.000009572486308293383 0.000009572474154226298
          0.000012504165799205615 0.00001243215610684477 0.000012504164869511998 0.000012432156322693238 0.00001250416105647007 0.000012432152782391292
          0.000013108684336876635 0.000013108684810096656 0.00001310868292761295 0.000013839547783552548 0.000013839549239393167 0.000013839553241077876
          0.000013712957673044336 0.000013712958038058103 0.000013712955691056307 0.000013586752138788165 0.000013586753050783328 0.000013586753108482903
          0.000013351280299061508 0.000013351280426256817 0.000013351280148180034 0.000014102722092507883 0.000014316940940300378 0.000014102722944984432
          0.00001431694182990192 0.000014102723939596519 0.000014316942862731654 0.000012216993372719907 0.000012668389206159629 0.000012216992917390484
          0.000012668389324540198 0.000012216989492708012 0.000012668387790151292 0.000010505596126599512 0.000010505593267166176 0.000010505583810738361
          0.000012833593990275386 0.000012833596076843259 0.000012833601259109179 0.000013043011781402068 0.000013043012942225583 0.0000130430132081889
          0.000008459745324855947 0.000008459740142803447 0.000008459720159869708 0.0000094438416477328 0.000009443837218894309 0.000009443823671491402
          0.00000914891124259482 0.000009148905847010218 0.000009148889095243347 0.000011206601298292552 0.00001143831823478022 0.000011206598891343055
          0.000011438316146745232 0.000011206590371197134 0.000011438308475431833 0.000011055392995823567 0.000011055390818675221 0.000011055382481904933
          0.000010252931885242737 0.000009939503415179528 0.000010252928749046402 0.00000993950064369243 0.000010252918711427591 0.000009939490049908335
          0.000013385368291064334 0.000014009473911773564 0.000013468940328347338 0.000013385371054083982 0.000014009477095899672 0.000013468943191095874
          0.000013385378126139358 0.000014009486812577816 0.000013468951753560778 0.000013565547424646076 0.00001356555087568503 0.000013565561303015189
          0.000010932232821927005 0.000010932230338053579 0.000010932221492124302 0.000013805929667735932 0.000014023240697275856 0.000013805930300735134
          0.000014023241708286859 0.000013805929359047182 0.000014023245009524716 0.000011419397424130093 0.000011519621330175298 0.000011419396344926573
          0.000011519619337204088 0.00001141938940341425 0.000011519612517533572 0.000011642122299865845 0.00001164212080638998 0.000011642114325704714
          0.000011982568409831449 0.000012048855170159989 0.000011982568034666164 0.000012048854627048293 0.000011982563028741896 0.000012048849879559351
          0.000009714223978199081 0.0000098559401059202 0.000010338048169227575 0.00001021272633955962 0.000009714220501010199 0.000009855936119099343
          0.000010338045048732116 0.000010212723532999603 0.000009714208396141498 0.000009855925534270548 0.000010338035926799062 0.00001021271949373623
          0.000011555105977565274 0.00001155510574623263 0.000011555105044471067 0.000009909479754411038 0.000009909475737286406 0.000009909462215947674
          0.00000815047274153149 0.000008220822374994755 0.000008150467391327838 0.000008220817712995471 0.000008150450217867485 0.000008220798943690298
          0.000011788940868924647 0.000011788940072920581 0.00001178893504787591 0.000015390933533129278 0.000014888935635446034 0.000015390936166197572
          0.000014888938180720512 0.000015390943861098776 0.000014888945460818787 0.0000074783864577018106 0.000007048293122851036 0.000007478380640771388
          0.000007048286963051529 0.000007478363092430309 0.000007048268543308019 0.000014092798559824152 0.000014092801964986833 0.000014092812885609819
          0.000011840194382003983 0.00001209408525925959 0.000011840193332050102 0.000012094085230021794 0.000011840188320440998 0.000012094080720380888
          0.000010970543270204071 0.000011492072668058175 0.000011511034261491685 0.00001095177412645365 0.000010970540872609528 0.000011492071510475661
          0.000011511033979033231 0.000010951772368157012 0.0000109705350759927 0.00001149206738716509 0.000011511031688377092 0.000010951768387171911
          0.000008080660434478206 0.000008080655288277483 0.000008080637022148304 0.000010895496603550069 0.000010559304045335594 0.000010895495729555021
          0.00001055930279801283 0.000010895490611456815 0.000010559295312529032 0.000008466255524972868 0.000008922380084446633 0.000008466250545301792
          0.00000892237627293998 0.000008466234734198626 0.000008922363123621763 0.000008883974902672899 0.00000888397055291919 0.000008883956477056242
          0.00001425600090706702 0.000014256002618291276 0.000014256005746904963 0.000008015392286759726 0.000008015386710098533 0.000008015369494516271
          0.000010413625661652058 0.000010413622936351951 0.000010413611996004594 0.000009592952958199455 0.000009592949004083676 0.00000959293611756059
          0.000007954106768887475 0.000008517105369473597 0.000007954101723892615 0.00000851710095832209 0.000007954085143145398 0.000008517085256538042
          0.00001108258875875586 0.00001108258850978439 0.000011082585933494591 0.000009506361268961802 0.000009506357796138563 0.000009506344559749854
          0.000014655326241191854 0.000014655328915543855 0.000014655334971289785 0.000010821445043485492 0.000010821443059979623 0.000010821434144166623
          0.000010099119423310977 0.000010099117156454647 0.000010099109365017565 0.000012152304314583764 0.000012152304521308684 0.00001215230061175716
          0.000009479642268647495 0.000009431828212768185 0.000008874769927488608 0.000009479638595238896 0.000009431824980500787 0.000008874765673668335
          0.000009479627227856093 0.00000943181261949202 0.000008874753011104497 0.000009903116299498448 0.000009903113022517979 0.000009903100126412949
          0.000014852647095377276 0.000014518043100732121 0.000014852649904320746 0.000014518045639023357 0.000014852658489504756 0.000014518049255904008
          0.000010448567826232501 0.00001044856565353328 0.000010448555843506999 0.000011514655813176514 0.000011514655221435052 0.00001151465104157656
          0.00000827007088887229 0.00000827006677591963 0.000008270052978445458 0.000010577586647872625 0.000010577585479221193 0.000010577582197514682
          0.000012338129656077693 0.000012916617078838888 0.000012338132826656147 0.0000129166201573083 0.0000123381416467455 0.000012916627495451036
          0.000011031051479310562 0.000011031050365619073 0.000011031043491425423 0.000009950771447675061 0.000009950769799918986 0.000009950764806999806
          0.000013953301665334538 0.000013953302988055606 0.000013953304518697745 0.000015350460894922312 0.000015350464598415485 0.000015350473938177685
          0.000010743830376047804 0.000010743829259065364 0.000010743820836801667 0.000014821908148008865 0.000014821912234313675 0.000014821921313623041
          0.000014436183987220028 0.000014294301487127703 0.000014436187009221704 0.000014294304320534195 0.000014436192610805591 0.000014294309763698637
          0.000013676517561155111 0.000013676517571802424 0.000013676519304059394 0.000014639502379096905 0.000014903043418551482 0.000014639504054981182
          0.000014903044811806092 0.000014639509195861682 0.000014903049872001285 0.00001543139101342836 0.00001543139329596928 0.000015431398455888227
          0.00001557884860976529 0.000015578850802600585 0.000015578855004188674 0.000014220995506596609 0.000014220997079180652 0.000014220998955228522
          0.000014920550488252844 0.00001474494851011104 0.000014920552081896715 0.000014744949539997198 0.000014920558810703451 0.000014744952369905755
          0.000014560048879802283 0.000014560052220503408 0.000014560055925141743 0.00001420930327256806 0.000014209304366059094 0.000014209303971983483
        </DataArray>
        <DataArray type="Float64" Name="disp_y" format="ascii" RangeMin="-0.0000030340655281729148" RangeMax="0">
          -0.0000019414027775079885 -0.000002113583038772796 -0.0000021235395720916338 -0.0000019639423838490536 -0.000001941410005618324 -0.0000021135910040765353
          -0.0000021235475801900834 -0.0000019639499650004924 -0.0000019414322747640433 -0.0000021136147807184404 -0.0000021235716986298324 -0.000001963972301915718
          -0.0000012129763404750966 -0.0000013609924925364442 -0.0000012334878425783089 -0.0000010843456385935097 -0.0000012129800316820739 -0.0000013609973577984408
          -0.000001233491863773125 -0.0000010843487468449496 -0.0000012129910293351966 -0.0000013610128525013959 -0.0000012335037268146059 -0.0000010843569248632688
          -0.0000030340199652492386 -0.000003010403184024108 -0.0000030340312876650994 -0.000003010414113238159 -0.0000030340655281729148 -0.0000030104475844662665
          -3.231112047874334e-7 -1.5828834206527648e-7 -1.561772883024853e-7 -3.1013098605884763e-7 -3.2311227864558796e-7 -1.5828872247530448e-7
          -1.561768917763652e-7 -3.101320946610939e-7 -3.2311647797088486e-7 -1.5828918272008888e-7 -1.561751942342747e-7 -3.101358736919276e-7
          -0.0000011412481095399258 -0.0000010053303135461832 -0.0000011412514140496322 -0.0000010053330769216289 -0.0000011412620690641932 -0.0000010053422398760544
          -0.0000016090290006557898 -0.0000017792503643463405 -0.0000018825156109667698 -0.0000016938639031801936 -0.0000016090346631626174 -0.000001779257616612882
          -0.0000018825222286424873 -0.0000016938695921011927 -0.0000016090508445474403 -0.000001779276880020466 -0.0000018825441916411746 -0.0000016938873306531818
          -5.036513549802215e-7 -5.816113502247614e-7 -7.287303091297227e-7 -6.956942212793342e-7 -5.036529589109565e-7 -5.816132132023826e-7
          -7.287326192841917e-7 -6.956960603814643e-7 -5.036577582256187e-7 -5.81619999614732e-7 -7.287385736460665e-7 -6.957020374176681e-7
          -0.0000018199269566536425 -0.0000017879798629019741 -0.0000018199332749414034 -0.000001787986192947668 -0.0000018199532914006144 -0.000001788004969390933
          -3.252972974761893e-7 -1.6011157456268268e-7 -1.602408806840458e-7 -3.231369982743812e-7 -3.2529782061363743e-7 -1.6011131356800144e-7
          -1.602410559874824e-7 -3.231377386201474e-7 -3.2530024840831285e-7 -1.6010977994914262e-7 -1.602413243008011e-7 -3.2314019363518633e-7
          -0.000002610861744848802 -0.0000024402088132471723 -0.00000242431893604772 -0.0000026108699154925714 -0.000002440216650434136 -0.0000024243261705872235
          -0.0000026108944873277317 -0.0000024402410132343744 -0.0000024243480342419645 -1.5767624161054113e-7 -1.6531574633652325e-7 -3.222839480978494e-7
          -3.112683002119228e-7 -1.5767682084019683e-7 -1.6531622229954905e-7 -3.222848678084664e-7 -3.11269114170201e-7 -1.5767917219716868e-7
          -1.6531801420260207e-7 -3.222873557527184e-7 -3.11270915244285e-7 -9.950855312206596e-7 -0.0000010243594059792642 -0.000001182571257170818
          -0.0000011404673600219321 -9.950883777044412e-7 -0.0000010243625185378006 -0.000001182575282649344 -0.0000011404709457481847 -9.950963569106872e-7
          -0.0000010243718474714646 -0.0000011825870296306 -0.0000011404832445664513 -4.993141867687887e-7 -4.993158643231201e-7 -4.993207217437491e-7
          -0.0000015250822334170774 -0.0000015666908324401996 -0.000001697795690769666 -0.0000015250873964630228 -0.000001566697037774053 -0.0000016978030603501024
          -0.000001525107300893363 -0.0000015667183396668181 -0.0000016978238129714107 -8.372589833986549e-7 -8.641291628436865e-7 -8.372611885934051e-7
          -8.641320041507131e-7 -8.372677166374826e-7 -8.641398879462825e-7 -3.287034567057776e-7 -4.934281406690317e-7 -5.112120709090753e-7
          -3.427259805085042e-7 -3.2870448057338537e-7 -4.934300907782573e-7 -5.11213697679579e-7 -3.4272732192150924e-7 -3.2870780518233434e-7
          -4.934352064065307e-7 -5.112189462012728e-7 -3.4273090755038354e-7 -1.748513150438707e-7 -3.4319462547399184e-7 -3.8145666326195653e-7
          -2.285743068876059e-7 -1.7485079787953944e-7 -3.431952389999056e-7 -3.8145752501783624e-7 -2.285740879878853e-7 -1.7484606845675978e-7
          -3.431986803954385e-7 -3.814615328686281e-7 -2.2857435715217004e-7 -8.161114599925094e-7 -8.511175663191528e-7 -9.472246342812859e-7
          -8.161138492506966e-7 -8.511204199771649e-7 -9.472271984881311e-7 -8.161213896716391e-7 -8.511284570151334e-7 -9.472359022391953e-7
          0 0 0 0 0 0
          -0.0000012645063651703583 -0.0000012266183635505086 -0.0000010527868522474779 -0.0000010468894902238662 -0.000001264511148321003 -0.0000012266222405908006
          -0.0000010527903283660408 -0.0000010468931074314146 -0.0000012645252342430605 -0.0000012266333500067844 -0.0000010528007357566578 -0.0000010469044671418883
          -6.59709501479147e-7 -6.804996801472346e-7 -6.597116114536849e-7 -6.805018875239815e-7 -6.597181893287056e-7 -6.805081595457672e-7
          -0.0000010484221717965884 -0.000001274020503054684 -0.0000010484241506867361 -0.0000012740233769348233 -0.0000010484307267946097 -0.0000012740316981340728
          -0.000001002865994810843 -0.0000011582142178500577 -0.0000010028696059531138 -0.0000011582186629289829 -0.0000010028791711422635 -0.000001158232015103713
          -0.0000016682804689916035 -0.000001726339726411904 -0.000001684344536047452 -0.000001576561911168562 -0.0000016682861964709729 -0.0000017263457016117109
          -0.0000016843505417010502 -0.000001576567417739317 -0.0000016683036138181375 -0.0000017263641466519169 -0.0000016843686082101321 -0.0000015765842097655423
          -0.000001633808285548714 -0.000001763400017580043 -0.000001633815061871861 -0.0000017634075919150662 -0.0000016338347063967935 -0.0000017634327861162966
          -8.609554972905547e-7 -8.609573251149183e-7 -8.609636070424478e-7 -0.0000013377733406679274 -0.0000013946090810022347 -0.000001337778075240863
          -0.0000013946143156074204 -0.0000013377922840369572 -0.0000013946304232610864 -0.0000012115903219473876 -0.0000014118874556037735 -0.0000014575603147719042
          -0.0000012115933099721877 -0.0000014118920992313897 -0.0000014575640382729219 -0.00000121160262619118 -0.0000014119023042670113 -0.0000014575779939982632
          -6.561626574938305e-7 -8.263074771091135e-7 -6.876593592230678e-7 -6.561640110833259e-7 -8.263094254235416e-7 -6.876607626503215e-7
          -6.561677454422294e-7 -8.263153699826809e-7 -6.876641443099118e-7 -0.0000018333863458588406 -0.0000018333938141905046 -0.0000018334177242925781
          0 0 0 -0.000002155449355226048 -0.0000019939871864342088 -0.0000021554553979836253
          -0.000001993993380181475 -0.000002155473558636274 -0.0000019940118412740613 -0.0000010090455628025486 -0.000001009048014247872 -0.0000010090560185898264
          -0.000001627465641087571 -0.0000015599848673423181 -0.0000014613318111585457 -0.0000016274718063106935 -0.0000015599911112177895 -0.0000014613373925057333
          -0.0000016274906489377716 -0.0000015600094062316723 -0.000001461354936594301 -8.796936016371445e-7 -8.39591198441151e-7 -8.796963855492816e-7
          -8.395938707425265e-7 -8.797052549693556e-7 -8.396016970275185e-7 -0.0000028249777175367423 -0.000002739238033314285 -0.0000026203805980939796
          -0.000002625758570907161 -0.0000028249889125805548 -0.0000027392490432752515 -0.0000026203922370429637 -0.000002625769688656627 -0.000002825022744270597
          -0.000002739282524026404 -0.000002620429848592779 -0.0000026258022133637433 -0.000002469641968035095 -0.000002466369633140138 -0.000002295272134903118
          -0.0000022966602357109027 -0.0000024696506382918424 -0.0000024663788296435608 -0.0000022952809928046406 -0.0000022966681295683704 -0.000002469676585609697
          -0.0000024664061283452985 -0.000002295307248424952 -0.000002296691926149163 -0.0000023052573621678594 -0.0000022328054939087363 -0.0000021168009618993688
          -0.000002305263813015769 -0.000002232811894712783 -0.0000021168070692963306 -0.000002305281318040805 -0.000002232830513963243 -0.0000021168256028510624
          -0.0000014306121480173175 -0.0000014306168460051915 -0.000001430629593143833 -0.0000015412099012737905 -0.000001541214380002663 -0.000001541224995704926
          -0.0000028021806992557514 -0.000002646539810043149 -0.0000028021919011730655 -0.0000026465516022028587 -0.0000028022239428462476 -0.000002646584694011106
          -0.0000024560162017461616 -0.0000026395164003722715 -0.0000024560264168500594 -0.0000026395260237268592 -0.000002456058568754113 -0.0000026395543482386495
          -0.0000014901771861409801 -0.0000014901825638427039 -0.000001490197910659381 -0.0000020735350865733364 -0.000002143620243360937 -0.0000022726023090479957
          -0.000002288325410663826 -0.0000020735421821157607 -0.00000214362707553349 -0.0000022726099684042425 -0.0000022883331418061797 -0.000002073563297122716
          -0.000002143646348295892 -0.000002272634273572277 -0.0000022883564537328282 -0.0000020665397807218405 -0.0000020665458667516233 -0.0000020665640064358352
          -0.0000018712465204228812 -0.0000018712528161859037 -0.0000018712720367911368 -0.000001401939552794141 -0.0000015405285881248497 -0.0000014019449237124935
          -0.000001540534138535098 -0.000001401961557369565 -0.0000015405505235117806 -0.0000017474214829736082 -0.0000017474282759770933 -0.000001747449452696783
          -0.0000016195224775362187 -0.0000014945751434339225 -0.0000016195280482332475 -0.0000014945802498995887 -0.0000016195456274997733 -0.000001494596125995287
          -0.0000018158769196374182 -0.0000018158846848303241 -0.000001815908104087959 -0.0000015764064523579715 -0.0000014694049267282962 -0.0000015764120173373598
          -0.0000014694103788484846 -0.0000015764282337965854 -0.0000014694262430855074 -0.0000017097467449967065 -0.0000017097522270967114 -0.0000017097683907041002
          -0.000002460651154170143 -0.000002460659368864969 -0.000002460684435436096 -0.0000013787107070662602 -0.0000013787158083695243 -0.0000013787312119965434
          -0.000001926489441104962 -0.000001896088958150462 -0.0000019264978709800656 -0.0000018960972372112606 -0.0000019265240372898707 -0.0000018961232602392733
          -0.0000012826538197004699 -0.0000012826586935848146 -0.0000012826748151843066 -7.664483602080535e-7 -9.632111772702693e-7 -7.664512660638344e-7
          -9.632146652362202e-7 -7.66460847756187e-7 -9.63224471456069e-7 -3.08229510933061e-7 -4.521461462852585e-7 -4.168434072196172e-7
          -3.082305941998778e-7 -4.521479599546585e-7 -4.1684495826686075e-7 -3.0823191200152556e-7 -4.521531875334259e-7 -4.168488010782268e-7
          -2.0916080859669164e-7 -1.7064019962118663e-7 -3.88263681261033e-7 -2.0916137542318397e-7 -1.7064054706037066e-7 -3.882648225798442e-7
          -2.09163194762774e-7 -1.7064202563992988e-7 -3.882687020382123e-7 -0.0000020458615972198636 -0.000001975149106076454 -0.000002045869717788097
          -0.0000019751564594398463 -0.000002045892360798878 -0.0000019751804273115374 -0.0000014753564611869745 -0.0000014424746414152907 -0.0000012414026271256175
          -0.0000014753612224010684 -0.0000014424795717789525 -0.0000012414064194659164 -0.0000014753759499124709 -0.0000014424953266602776 -0.0000012414175850340338
          -7.18732305894749e-7 -9.064709561522388e-7 -7.187345893493526e-7 -9.064739995369088e-7 -7.187422519510063e-7 -9.064830923269667e-7
          -0.0000030004492498897424 -0.000003000458970988827 -0.000003000487663513802 0 0 0
          0 0 0 0 0 0
          0 0 0 -7.281368229081891e-7 -6.790294148176669e-7 -7.281389228002585e-7
          -6.790316271467184e-7 -7.281449441601965e-7 -6.790383927231062e-7 -8.882250580942684e-7 -8.882280168789072e-7 -8.882372352283552e-7
          0 -1.6161299452111517e-7 0 -1.616132863454031e-7 0 -1.616144169383609e-7
          0 0 0 -0.0000019244812602997965 -0.000001924487156300909 -0.000001924505146398548
          0 0 0 -0.0000017690244810566376 -0.0000017690299204763815 -0.0000017690468192738623
          -0.0000016107582619878702 -0.0000016107634723366394 -0.000001610779123865883 -1.6539046100315727e-7 0 -1.65389728721157e-7
          0 -1.6538434233828393e-7 0 -0.0000012632734786949194 -0.0000013570311481590124 -0.0000012632783131359632
          -0.0000013570365648825128 -0.0000012632917972369774 -0.0000013570519764271174 -0.0000016942323028241098 -0.0000016942388462161642 -0.0000016942586372611193
          -0.0000026404283963872324 -0.0000026404374623045802 -0.0000026404651755032 -0.0000014735404882204552 -0.0000014735458029479168 -0.0000014735615369958117
          -0.0000012836555652130484 -0.0000012836595656298512 -0.0000012836720927871296 -0.000001929222618837105 -0.000001929231290730851 -0.000001929256017047541
          -0.0000021062280934792665 -0.0000021062376019934944 -0.000002106266870657332 -9.223741074660709e-7 -0.000001060394348618194 -9.223772440468512e-7
          -0.0000010603981113923455 -9.223862687426962e-7 -0.0000010604082588296818 -7.677479885230336e-7 -7.677505458849386e-7 -7.67758111085116e-7
          -5.075267841159588e-7 -6.15788155710894e-7 -5.07528477394293e-7 -6.157900188780515e-7 -5.075334720963577e-7 -6.157960236371698e-7
          -0.000002629140709610202 -0.0000027824023035732925 -0.000002803751752868183 -0.0000026291492040306598 -0.0000027824109738033584 -0.000002803760611976416
          -0.0000026291749505193787 -0.0000027824365530036636 -0.0000028037875725566874 -0.0000029850619838192997 -0.000002985070832184394 -0.0000029850970389790905
          -6.093236799507128e-7 -6.093257243152721e-7 -6.09331702091632e-7 -0.0000015156559391430887 -0.0000016756485830517633 -0.0000015156612215383424
          -0.0000016756538297618414 -0.000001515676670115136 -0.0000016756686518126004 -5.462356841157796e-7 -7.026123407621559e-7 -5.462378233124803e-7
          -7.026148334939906e-7 -5.462430868838585e-7 -7.026218227004056e-7 -8.496062269870683e-7 -8.496090793100705e-7 -8.496173618109642e-7
          -6.652867616289038e-7 -8.109703428504963e-7 -6.652892101163326e-7 -8.109729798660171e-7 -6.652960458324701e-7 -8.109809039131839e-7
          -0.0000022203055290811184 -0.0000020898601587010017 -0.0000021567650732429202 -0.000002287672100719082 -0.000002220315595854215 -0.0000020898699537071076
          -0.0000021567744257337653 -0.0000022876827071971306 -0.000002220343689765384 -0.0000020899018246257184 -0.000002156801015125007 -0.0000022877138531370164
          -0.0000022826943761730972 -0.00000228270358587011 -0.000002282731710839117 -0.0000017953389871819355 -0.0000017953461595498695 -0.0000017953663080582625
          -9.84566309317342e-7 -0.0000011035950561632827 -9.845690186612116e-7 -0.0000011035983268913397 -9.84575376099796e-7 -0.0000011036086855383423
          -0.0000011686699600728122 -0.0000011686739791647533 -0.0000011686859367593766 -0.0000016504529365391459 -0.00000162038142410687 -0.000001650457864541965
          -0.00000162038675566675 -0.0000016504726891521325 -0.0000016204029520845266 -4.968821546792932e-7 -5.285749069319867e-7 -4.968833878717167e-7
          -5.285757608188525e-7 -4.96887068008012e-7 -5.285783794907248e-7 -0.0000029598608729041295 -0.000002959869580193614 -0.000002959896592978528
          -9.702557234675764e-7 -9.116849096030535e-7 -9.70258973541006e-7 -9.116877466353609e-7 -9.70268463444835e-7 -9.116964175621432e-7
          -0.0000019100063002451194 -0.0000019532084785104193 -0.000002112983724095693 -0.000002071638238373891 -0.0000019100141356209053 -0.0000019532158425200417
          -0.000002112991892526422 -0.000002071646506640108 -0.0000019100376214294545 -0.000001953238218185644 -0.000002113015824154239 -0.0000020716722956730845
          -8.205445051192248e-7 -8.205464030992195e-7 -8.205520130940927e-7 -0.0000022618861423330214 -0.0000023372742871176898 -0.000002261895499171822
          -0.0000023372846427144363 -0.0000022619235740924406 -0.000002337315623114547 -4.953148487430995e-7 -3.192689248773638e-7 -4.953160351714556e-7
          -3.192697165525145e-7 -4.95319401316114e-7 -3.1927235999348834e-7 -1.5883862246660916e-7 -1.5883908581625598e-7 -1.5884065641492603e-7
          -0.000001818339894227036 -0.000001818345402715668 -0.000001818361377555746 -6.508695486784867e-7 -6.508711603430385e-7 -6.508761973562803e-7
          -0.0000020098634757190473 -0.0000020098719013686364 -0.000002009897138730733 -0.000002365238823799412 -0.0000023652502364233576 -0.0000023652833286723202
          -4.887397238543099e-7 -6.689901531856527e-7 -4.887410455661438e-7 -6.689921084632309e-7 -4.887445599639289e-7 -6.68997766738663e-7
          -0.000002455950070628285 -0.00000245596105918136 -0.0000024559941830732616 -0.0000020393157609926346 -0.0000020393242498843633 -0.0000020393541932961147
          -0.000001961180887757388 -0.0000019611865821717717 -0.000001961205676378693 -4.506661175252204e-7 -4.5066765491904717e-7 -4.506718850253329e-7
          -0.000002423645741142825 -0.0000024236569360769773 -0.0000024236941515382495 -0.0000010598509580723853 -0.0000010598544594378013 -0.0000010598649198104404
          0 -1.5691221824991947e-7 0 0 -1.569127213308291e-7 0
          0 -1.5691465556018338e-7 0 -0.0000019534805225851645 -0.000001953488717911604 -0.0000019535150657623474
          -0.000001779208229623805 -0.0000017434824300151031 -0.000001779213793101941 -0.0000017434875957762304 -0.0000017792296644531555 -0.0000017435033669755357
          -0.0000018522260821257992 -0.0000018522332746638678 -0.0000018522565387900468 -0.000001806484546550505 -0.0000018064911566499306 -0.000001806511401424595
          0 0 0 -0.0000024550493685776377 -0.0000024550596842564412 -0.0000024550943716324626
          -0.00000282395056658601 -0.000002817543606891392 -0.0000028239611460175855 -0.000002817552971444882 -0.000002823994151651921 -0.000002817581719161493
          -0.000001758343575070971 -0.0000017583500242793933 -0.000001758369851415437 -0.0000025743430022048198 -0.000002574354898988574 -0.0000025743885816987567
          -2.8522634607282943e-7 -2.8522685564233345e-7 -2.852291730551495e-7 -0.0000018230173287097769 -0.0000018230225967761877 -0.000001823038035086762
          -3.3432500987695614e-7 -3.34326093184017e-7 -3.343292093514953e-7 -0.000002416211485162988 -0.0000024162178075485336 -0.0000024162379159411792
          -0.0000016256211104961615 -0.000001453569870848361 -0.0000016256262231108701 -0.0000014535749002648445 -0.0000016256411975361193 -0.0000014535900546552508
          -5.020967942008844e-7 -5.020989935224421e-7 -5.021049381054856e-7 -7.767796180986691e-7 -9.950218763545796e-7 -7.767818583206865e-7
          -9.950249296649043e-7 -7.767899446955158e-7 -9.95034256480182e-7 -0.0000012973294596457636 -0.0000012973332742512353 -0.0000012973448218357942
          -0.0000011272741415193802 -0.0000011272773105575855 -0.0000011272848933111045 -6.055129874041319e-7 -6.055147358380177e-7 -6.055190397362102e-7
          0 -2.171827105849826e-7 0 -2.1718286641310896e-7 0 -2.1718321650993846e-7
          -6.583057678496815e-7 -6.583075455323274e-7 -6.58309213135269e-7 -3.6996450422358074e-7 -3.699661291910001e-7 -3.699730673949826e-7
        </DataArray>
        <DataArray type="Float64" Name="disp_z" format="ascii" RangeMin="-1.0617314427640648e-7" RangeMax="0">
          0 0 0 0 -5.259030319056256e-8 -5.2539574552328906e-8
          -5.2538557134729463e-8 -5.258454264475834e-8 -1.0518032418047738e-7 -1.0507906547061993e-7 -1.0507707692499248e-7 -1.0516936341167683e-7
          0 0 0 0 -5.2736476301376555e-8 -5.271511082409191e-8
          -5.273662823006768e-8 -5.2753564990405884e-8 -1.0547329174535721e-7 -1.0543041458366682e-7 -1.0547288480138561e-7 -1.0550741760734635e-7
          0 0 -5.21882701705727e-8 -5.222575643973425e-8 -1.043758966538679e-7 -1.0445156004198364e-7
          0 0 0 0 -5.281783538092225e-8 -5.282421834439203e-8
          -5.28244705307025e-8 -5.2822156200672744e-8 -1.0563566106669108e-7 -1.0564857104486888e-7 -1.0564934835214962e-7 -1.0564362421986667e-7
          0 0 -5.274921958986117e-8 -5.27649989603953e-8 -1.054982306535644e-7 -1.0553002392398565e-7
          0 0 0 0 -5.289751941734117e-8 -5.286074912027294e-8
          -5.2855135321819255e-8 -5.2929562136277884e-8 -1.0579104819517397e-7 -1.0572771008297654e-7 -1.0570867974548616e-7 -1.0586034681588702e-7
          0 0 0 0 -5.2919149974992014e-8 -5.2887642850687744e-8
          -5.2880364761368295e-8 -5.290844549110572e-8 -1.0583808477123778e-7 -1.0577473370517494e-7 -1.0576097975151214e-7 -1.0581724477731204e-7
          0 0 -5.262318425456344e-8 -5.2628448280459746e-8 -1.0524636905028602e-7 -1.0525667762573885e-7
          0 0 0 0 -5.2995773982070266e-8 -5.300530962583537e-8
          -5.297196128632044e-8 -5.2963137587636105e-8 -1.059908761494393e-7 -1.0601161507206979e-7 -1.0594418883585507e-7 -1.05926260040399e-7
          0 0 0 -5.241566668953981e-8 -5.2465457517362685e-8 -5.2487837419925243e-8
          -1.0483108183782563e-7 -1.0493136049479335e-7 -1.0497461861056181e-7 0 0 0
          0 -5.289222608852433e-8 -5.287237017478753e-8 -5.287295194810597e-8 -5.289227455536535e-8 -1.0578428176061825e-7
          -1.0574460215377821e-7 -1.0574566341613245e-7 -1.0578466044641221e-7 0 0 0
          0 -5.29094883730134e-8 -5.28751540715335e-8 -5.28570869535561e-8 -5.289387635010621e-8 -1.0581840063766219e-7
          -1.0575029941039463e-7 -1.0571448924288514e-7 -1.0578725151323591e-7 0 -5.280661716034474e-8 -1.0561303076337671e-7
          0 0 0 -5.289351029064113e-8 -5.2847245592882325e-8 -5.2818240000329635e-8
          -1.0579357749764112e-7 -1.0569281293637343e-7 -1.056346741772596e-7 0 0 -5.2924755587576714e-8
          -5.2893165851730856e-8 -1.0584974980396222e-7 -1.0578634731781521e-7 0 0 0
          0 -5.2823390349006295e-8 -5.2814928505448585e-8 -5.282205576067166e-8 -5.2832077779499005e-8 -1.0564675584565413e-7
          -1.0563003801478518e-7 -1.0564394192210394e-7 -1.0566412352044954e-7 0 0 0
          0 -5.304174490099643e-8 -5.302935874340355e-8 -5.305530752847811e-8 -5.3080516043781295e-8 -1.0608412480872804e-7
          -1.0605779712088677e-7 -1.0611020153578462e-7 -1.0616212767104874e-7 0 0 0
          -5.2787963083950674e-8 -5.2780343337233833e-8 -5.277584103261065e-8 -1.0557576670136503e-7 -1.0556037733759356e-7 -1.0555155156321419e-7
          0 0 -5.3085665018506696e-8 -5.303552265058271e-8 -1.0617314427640648e-7 -1.0606871026401824e-7
          0 0 0 0 -5.2780943269808865e-8 -5.281897594178037e-8
          -5.2840396447974605e-8 -5.281899672481534e-8 -1.0556184315143227e-7 -1.0563794994609388e-7 -1.0568078635632055e-7 -1.0563775750969006e-7
          0 0 -5.280213072729823e-8 -5.279558176313142e-8 -1.0560429485628423e-7 -1.0559123558278469e-7
          0 0 -5.299656777647725e-8 -5.2980918448632056e-8 -1.0599331540426093e-7 -1.05962202056858e-7
          0 0 -5.280948752836842e-8 -5.278130636393967e-8 -1.0561869820669227e-7 -1.0556308587451797e-7
          0 0 0 0 -5.2656093609995454e-8 -5.264591094552813e-8
          -5.265900961652134e-8 -5.2678914934104484e-8 -1.0531194208763755e-7 -1.0529211228477061e-7 -1.053178479825339e-7 -1.0535747557347968e-7
          0 0 -5.279812319214594e-8 -5.2767347935067126e-8 -1.0559785060341244e-7 -1.0553502519886724e-7
          0 -5.3018638420652804e-8 -1.0603783562859147e-7 0 0 -5.2835797914504305e-8
          -5.279596665182882e-8 -1.0567210923976879e-7 -1.0559183743717443e-7 0 0 0
          -5.2930523904411796e-8 -5.291186662595885e-8 -5.293958915465122e-8 -1.058611552188792e-7 -1.0582294723358706e-7 -1.0587938757223694e-7
          0 0 0 -5.300284127478897e-8 -5.2989230273796465e-8 -5.303215954444229e-8
          -1.0600542411717302e-7 -1.0597882011506513e-7 -1.0606456292180763e-7 0 -5.279838332598206e-8 -1.0559769678457429e-7
          0 -5.3003888338701225e-8 -1.0600784418226345e-7 0 0 -5.2573500123926615e-8
          -5.2618721572399365e-8 -1.0514720087099387e-7 -1.0523802011511996e-7 0 -5.29653412209915e-8 -1.0593041763048733e-7
          0 0 0 -5.2720419781239646e-8 -5.2764365193527066e-8 -5.2755717496322865e-8
          -1.0544042085795603e-7 -1.0552832338195196e-7 -1.0551178798803125e-7 0 0 -5.284535970460102e-8
          -5.283037202942895e-8 -1.0569098530670624e-7 -1.0566054054190444e-7 0 0 0
          0 -5.227828427026939e-8 -5.229743718876068e-8 -5.235350456149971e-8 -5.236061955510769e-8 -1.0455721143473901e-7
          -1.0459440460029692e-7 -1.0470902350962888e-7 -1.047211695674025e-7 0 0 0
          0 -5.243541302096576e-8 -5.242807518250659e-8 -5.2485088827340574e-8 -5.248766323064087e-8 -1.0487093526601954e-7
          -1.0485591789720198e-7 -1.0496981176468848e-7 -1.0497581805384628e-7 0 0 0
          -5.2534789177763055e-8 -5.2537019135147275e-8 -5.256394589805918e-8 -1.0506989127845418e-7 -1.0507455505753678e-7 -1.0512541448818667e-7
          0 -5.286525879539807e-8 -1.0573006871705655e-7 0 -5.2970363777921534e-8 -1.0594140594602448e-7
          0 0 -5.227225128992504e-8 -5.2356021419147404e-8 -1.0454098664067542e-7 -1.047113462616712e-7
          0 0 -5.2427822173323635e-8 -5.237088377738085e-8 -1.0485608956322396e-7 -1.0474142563528786e-7
          0 -5.281490899341023e-8 -1.0562950197844111e-7 0 0 0
          0 -5.2558678110218836e-8 -5.255336744146527e-8 -5.251669048963006e-8 -5.2498717979628906e-8 -1.0511694301757115e-7
          -1.0510820924953679e-7 -1.0503297109199662e-7 -1.0499714558964062e-7 0 -5.257225927315244e-8 -1.0514456266742739e-7
          0 -5.26117722024328e-8 -1.0522428473960044e-7 0 0 -5.2729931647118287e-8
          -5.2714457781228455e-8 -1.0545927166469088e-7 -1.0542937478648884e-7 0 -5.272951960976267e-8 -1.054591838048278e-7
          0 0 -5.268159000859253e-8 -5.270207582928553e-8 -1.053636890844468e-7 -1.0540458472509502e-7
          0 -5.2728479704239926e-8 -1.054545464760408e-7 0 0 -5.2672159170804364e-8
          -5.269620333593198e-8 -1.0534477959282284e-7 -1.0539263030324205e-7 0 -5.2644756670510336e-8 -1.0528893294650986e-7
          0 -5.244727675255092e-8 -1.0489441938840142e-7 0 -5.2719465827126286e-8 -1.0543915935024561e-7
          0 0 -5.2694969324004664e-8 -5.2728839132558995e-8 -1.0539207637216235e-7 -1.0545880897844582e-7
          0 -5.274607485130632e-8 -1.0549205784665599e-7 0 0 -5.279249480160507e-8
          -5.276396921777449e-8 -1.0558470818813208e-7 -1.0552707711434371e-7 0 0 0
          -5.2913326131783196e-8 -5.289423012517265e-8 -5.2911854939577237e-8 -1.0582636494780896e-7 -1.0578837615732228e-7 -1.0582572446574917e-7
          0 0 0 -5.28533019419167e-8 -5.2838038972565406e-8 -5.284030659597654e-8
          -1.0570646208683951e-7 -1.056763357740326e-7 -1.0568045431394859e-7 0 0 -5.268798421087616e-8
          -5.2762787597057195e-8 -1.0537601055983422e-7 -1.0552410233893982e-7 0 0 0
          -5.2722614231071406e-8 -5.2715328082648013e-8 -5.2751454312485396e-8 -1.0544487767067806e-7 -1.0543041796142978e-7 -1.0550328903258657e-7
          0 0 -5.279326151318682e-8 -5.276981270169366e-8 -1.0558694537766461e-7 -1.0553987407195043e-7
          0 -5.225475640776743e-8 -1.0450906839174621e-7 0 0 -5.283805416598074e-8
          -5.2850760055101e-8 -1.0567605222465904e-7 -1.0570156441774366e-7 0 0 -5.286953869461355e-8
          -5.289224299075545e-8 -1.0573923804820574e-7 -1.0578471477782625e-7 0 0 -5.286163003065143e-8
          -5.2849572412873315e-8 -1.0572331724427637e-7 -1.0569907800608799e-7 0 -5.286466125437197e-8 -1.0572932253290461e-7
          0 0 -5.282766859715444e-8 -5.2828496959002736e-8 -1.0565526379160891e-7 -1.0565700564590685e-7
          0 -5.2821334018001476e-8 -1.0564230259510385e-7 0 -5.259952360921419e-8 -1.0519809330500563e-7
          0 -5.2818126089490014e-8 -1.0563613582475957e-7 0 -5.263185679939556e-8 -1.0526355374943887e-7
          0 -5.266456984892379e-8 -1.0532899108132486e-7 0 0 -5.2825926358729705e-8
          -5.281342348940769e-8 -1.0565220965291713e-7 -1.0562640861363711e-7 0 0 -5.2734784039263735e-8
          -5.271404469947065e-8 -1.0546955422573059e-7 -1.0542802447698199e-7 0 -5.268516560290813e-8 -1.0537021810081973e-7
          0 -5.237914871382676e-8 -1.0475786068883508e-7 0 -5.269046832539202e-8 -1.0538060350524609e-7
          0 -5.287581444160188e-8 -1.0575089381223346e-7 0 -5.266993701934195e-8 -1.0533824462967568e-7
          0 -5.262094498019402e-8 -1.0524041334103698e-7 0 0 -5.280197050640678e-8
          -5.277888321753495e-8 -1.0560388171466538e-7 -1.055574470871921e-7 0 -5.2822606588215415e-8 -1.0564518150560302e-7
          0 0 -5.2869039633463745e-8 -5.2872033465891824e-8 -1.0573805675314829e-7 -1.0574418395974022e-7
          0 0 0 -5.239544094001148e-8 -5.236407223296268e-8 -5.234030593382237e-8
          -1.0479122120441548e-7 -1.0472794236127083e-7 -1.0468101826103833e-7 0 -5.2282283487927564e-8 -1.045643931345469e-7
          0 -5.2839849159705644e-8 -1.056796423797651e-7 0 0 -5.26813128162666e-8
          -5.26540723478201e-8 -1.053632301400115e-7 -1.0530867420778862e-7 0 0 -5.282940995944662e-8
          -5.281564827344061e-8 -1.0565909483611869e-7 -1.0563135897172758e-7 0 -5.2798734552933264e-8 -1.0559765892654907e-7
          0 0 -5.2809050101956836e-8 -5.279439365704106e-8 -1.0561829528325799e-7 -1.0558891477963993e-7
          0 0 0 0 -5.25463403714447e-8 -5.2593236418661144e-8
          -5.255624818450297e-8 -5.251260724237756e-8 -1.050912510419904e-7 -1.051862801067765e-7 -1.0511351970388536e-7 -1.0502428399878606e-7
          0 -5.2494221867978525e-8 -1.0498937855944899e-7 0 -5.2685700582612716e-8 -1.0537209563286108e-7
          0 0 -5.294078955720819e-8 -5.292615208572407e-8 -1.0588101472708779e-7 -1.0585487305595705e-7
          0 -5.275624847338322e-8 -1.0551231679265034e-7 0 0 -5.269033555454036e-8
          -5.268215000828714e-8 -1.0538112063780482e-7 -1.0536472501447975e-7 0 0 -5.301475124930795e-8
          -5.304227421776026e-8 -1.0602982950522689e-7 -1.0608484056159453e-7 0 -5.230888490756148e-8 -1.0461735576887779e-7
          0 0 -5.278117482709314e-8 -5.2783549218410605e-8 -1.0556278675761804e-7 -1.0556684806139645e-7
          0 0 0 0 -5.2614906002386464e-8 -5.259326126671051e-8
          -5.2547191115497355e-8 -5.256371009218793e-8 -1.0523015440081432e-7 -1.0518654065374118e-7 -1.0509413476393515e-7 -1.0512736593288285e-7
          0 -5.2956089587206576e-8 -1.0591210811564008e-7 0 0 -5.250310209660591e-8
          -5.2490356495698825e-8 -1.0500509889120103e-7 -1.0498308170368246e-7 0 0 -5.2954040077442785e-8
          -5.2934661814665216e-8 -1.0590836786756866e-7 -1.058689138391726e-7 0 -5.294211157212964e-8 -1.05884567797122e-7
          0 -5.263120465160704e-8 -1.0526339526462254e-7 0 -5.297242508661467e-8 -1.059449188179756e-7
          0 -5.259751836692269e-8 -1.05194778536308e-7 0 -5.250847142534452e-8 -1.0501980684438632e-7
          0 0 -5.298522445599974e-8 -5.294048838011686e-8 -1.0597051704859289e-7 -1.0588091844803615e-7
          0 -5.24265949410514e-8 -1.0485167192825326e-7 0 -5.263133479333675e-8 -1.0526610591185808e-7
          0 -5.260468733807129e-8 -1.0521024601376936e-7 0 -5.2853495386357065e-8 -1.057068297390471e-7
          0 -5.245617105453228e-8 -1.0491184089369985e-7 0 -5.276527924259392e-8 -1.0553062970240481e-7
          0 0 0 -5.291614408802423e-8 -5.291456065801843e-8 -5.2943641982101525e-8
          -1.0583257802072212e-7 -1.0582902737644278e-7 -1.058870691971002e-7 0 -5.264146222999209e-8 -1.052827089409658e-7
          0 0 -5.2647122805101925e-8 -5.2644747401771756e-8 -1.0529402220105065e-7 -1.0528769269408511e-7
          0 -5.264498339722334e-8 -1.0528998073959965e-7 0 -5.263134159762327e-8 -1.0526265342467137e-7
          0 -5.297281780409349e-8 -1.0594509370006003e-7 0 -5.243754166855908e-8 -1.048766181164596e-7
          0 0 -5.2303815640444775e-8 -5.231864236243162e-8 -1.0460817167082552e-7 -1.0463701630756795e-7
          0 -5.265291346441305e-8 -1.0530560444069141e-7 0 -5.239169710836227e-8 -1.0478040715899809e-7
          0 -5.282930374213069e-8 -1.0565762252221631e-7 0 -5.2656374540774406e-8 -1.0531223275634827e-7
          0 -5.2861581772441614e-8 -1.057238139725377e-7 0 -5.2506775432279545e-8 -1.0501454810106589e-7
          0 0 -5.2669063069827964e-8 -5.269516589222447e-8 -1.0533945911987377e-7 -1.0538952899934195e-7
          0 -5.2809514924267216e-8 -1.0561937742022009e-7 0 0 -5.280652943291145e-8
          -5.278088723026358e-8 -1.0561449463263184e-7 -1.0556168869576607e-7 0 -5.275684918762929e-8 -1.0551389091625679e-7
          0 -5.277637612783664e-8 -1.0555266988211173e-7 0 -5.280531069681564e-8 -1.0561023705834342e-7
          0 0 -5.282558027122785e-8 -5.28330394870976e-8 -1.0565045301740085e-7 -1.0566661164757438e-7
          0 -5.280778181123471e-8 -1.0561472705302517e-7 0 -5.282307968052052e-8 -1.0564611453075756e-7
        </DataArray>
      </PointData>
      <CellData>
        <DataArray type="Int32" Name="libmesh_elem_id" format="ascii" RangeMin="1392" RangeMax="3231">
          1392 1393 1402 1403 1418 1419
          1434 1435 1442 1443 1448 1449
          1454 1455 1478 1479 1500 1501
          1512 1513 1522 1523 1546 1547
          1572 1573 1582 1583 1590 1591
          1608 1609 1614 1615 1616 1617
          1630 1631 1638 1639 1650 1651
          1654 1655 1656 1657 1678 1679
          1682 1683 1684 1685 1704 1705
          1714 1715 1718 1719 1746 1747
          1760 1761 1762 1763 1772 1773
          1790 1791 1794 1795 1802 1803
          1816 1817 1824 1825 1832 1833
          1838 1839 1840 1841 1846 1847
          1848 1849 1852 1853 1856 1857
          1858 1859 1862 1863 1864 1865
          1874 1875 1876 1877 1878 1879
          1882 1883 1888 1889 1904 1905
          1906 1907 1910 1911 1916 1917
          1924 1925 1926 1927 1930 1931
          1936 1937 1946 1947 1950 1951
          1956 1957 1960 1961 1982 1983
          1996 1997 1998 1999 2026 2027
          2028 2029 2038 2039 2046 2047
          2048 2049 2052 2053 2054 2055
          2058 2059 2060 2061 2084 2085
          2088 2089 2096 2097 2102 2103
          2106 2107 2110 2111 2126 2127
          2136 2137 2138 2139 2144 2145
          2148 2149 2154 2155 2158 2159
          2162 2163 2164 2165 2170 2171
          2176 2177 2178 2179 2196 2197
          2200 2201 2202 2203 2204 2205
          2212 2213 2220 2221 2222 2223
          2224 2225 2226 2227 2228 2229
          2232 2233 2236 2237 2246 2247
          2250 2251 2252 2253 2254 2255
          2260 2261 2264 2265 2266 2267
          2274 2275 2282 2283 2308 2309
          2310 2311 2312 2313 2318 2319
          2324 2325 2328 2329 2346 2347
          2350 2351 2364 2365 2368 2369
          2370 2371 2402 2403 2416 2417
          2420 2421 2444 2445 2458 2459
          2462 2463 2466 2467 2468 2469
          2470 2471 2478 2479 2484 2485
          2488 2489 2490 2491 2502 2503
          2504 2505 2510 2511 2512 2513
          2524 2525 2550 2551 2566 2567
          2570 2571 2580 2581 2582 2583
          2602 2603 2608 2609 2616 2617
          2628 2629 2634 2635 2636 2637
          2640 2641 2642 2643 2644 2645
          2650 2651 2666 2667 2668 2669
          2684 2685 2690 2691 2696 2697
          2700 2701 2710 2711 2714 2715
          2716 2717 2726 2727 2750 2751
          2760 2761 2766 2767 2772 2773
          2782 2783 2798 2799 2802 2803
          2810 2811 2826 2827 2830 2831
          2838 2839 2860 2861 2868 2869
          2874 2875 2884 2885 2922 2923
          2928 2929 2934 2935 2938 2939
          2946 2947 2948 2949 2960 2961
          2962 2963 2964 2965 2974 2975
          2978 2979 2994 2995 2998 2999
          3004 3005 3008 3009 3020 3021
          3028 3029 3034 3035 3038 3039
          3040 3041 3042 3043 3050 3051
          3052 3053 3054 3055 3060 3061
          3066 3067 3072 3073 3076 3077
          3082 3083 3086 3087 3096 3097
          3100 3101 3102 3103 3112 3113
          3116 3117 3148 3149 3154 3155
          3158 3159 3166 3167 3182 3183
          3230 3231
        </DataArray>
        <DataArray type="Int32" Name="subdomain_id" format="ascii" RangeMin="107" RangeMax="107">
          107 107 107 107 107 107
          107 107 107 107 107 107
          107 107 107 107 107 107
          107 107 107 107 107 107
          107 107 107 107 107 107
          107 107 107 107 107 107
          107 107 107 107 107 107
          107 107 107 107 107 107
          107 107 107 107 107 107
          107 107 107 107 107 107
          107 107 107 107 107 107
          107 107 107 107 107 107
          107 107 107 107 107 107
          107 107 107 107 107 107
          107 107 107 107 107 107
          107 107 107 107 107 107
          107 107 107 107 107 107
          107 107 107 107 107 107
          107 107 107 107 107 107
          107 107 107 107 107 107
          107 107 107 107 107 107
          107 107 107 107 107 107
          107 107 107 107 107 107
          107 107 107 107 107 107
          107 107 107 107 107 107
          107 107 107 107 107 107
          107 107 107 107 107 107
          107 107 107 107 107 107
          107 107 107 107 107 107
          107 107 107 107 107 107
          107 107 107 107 107 107
          107 107 107 107 107 107
          107 107 107 107 107 107
          107 107 107 107 107 107
          107 107 107 107 107 107
          107 107 107 107 107 107
          107 107 107 107 107 107
          107 107 107 107 107 107
          107 107 107 107 107 107
          107 107 107 107 107 107
          107 107 107 107 107 107
          107 107 107 107 107 107
          107 107 107 107 107 107
          107 107 107 107 107 107
          107 107 107 107 107 107
          107 107 107 107 107 107
          107 107 107 107 107 107
          107 107 107 107 107 107
          107 107 107 107 107 107
          107 107 107 107 107 107
          107 107 107 107 107 107
          107 107 107 107 107 107
          107 107 107 107 107 107
          107 107 107 107 107 107
          107 107 107 107 107 107
          107 107 107 107 107 107
          107 107 107 107 107 107
          107 107 107 107 107 107
          107 107 107 107 107 107
          107 107 107 107 107 107
          107 107 107 107 107 107
          107 107 107 107 107 107
          107 107 107 107 107 107
          107 107 107 107 107 107
          107 107 107 107 107 107
          107 107 107 107 107 107
          107 107 107 107 107 107
          107 107 107 107 107 107
          107 107 107 107 107 107
          107 107 107 107 107 107
          107 107 107 107 107 107
          107 107 107 107 107 107
          107 107 107 107 107 107
          107 107 107 107 107 107
          107 107 107 107 107 107
          107 107
        </DataArray>
        <DataArray type="Int32" Name="processor_id" format="ascii" RangeMin="2" RangeMax="2">
          2 2 2 2 2 2
          2 2 2 2 2 2
          2 2 2 2 2 2
          2 2 2 2 2 2
          2 2 2 2 2 2
          2 2 2 2 2 2
          2 2 2 2 2 2
          2 2 2 2 2 2
          2 2 2 2 2 2
          2 2 2 2 2 2
          2 2 2 2 2 2
          2 2 2 2 2 2
          2 2 2 2 2 2
          2 2 2 2 2 2
          2 2 2 2 2 2
          2 2 2 2 2 2
          2 2 2 2 2 2
          2 2 2 2 2 2
          2 2 2 2 2 2
          2 2 2 2 2 2
          2 2 2 2 2 2
          2 2 2 2 2 2
          2 2 2 2 2 2
          2 2 2 2 2 2
          2 2 2 2 2 2
          2 2 2 2 2 2
          2 2 2 2 2 2
          2 2 2 2 2 2
          2 2 2 2 2 2
          2 2 2 2 2 2
          2 2 2 2 2 2
          2 2 2 2 2 2
          2 2 2 2 2 2
          2 2 2 2 2 2
          2 2 2 2 2 2
          2 2 2 2 2 2
          2 2 2 2 2 2
          2 2 2 2 2 2
          2 2 2 2 2 2
          2 2 2 2 2 2
          2 2 2 2 2 2
          2 2 2 2 2 2
          2 2 2 2 2 2
          2 2 2 2 2 2
          2 2 2 2 2 2
          2 2 2 2 2 2
          2 2 2 2 2 2
          2 2 2 2 2 2
          2 2 2 2 2 2
          2 2 2 2 2 2
          2 2 2 2 2 2
          2 2 2 2 2 2
          2 2 2 2 2 2
          2 2 2 2 2 2
          2 2 2 2 2 2
          2 2 2 2 2 2
          2 2 2 2 2 2
          2 2 2 2 2 2
          2 2 2 2 2 2
          2 2 2 2 2 2
          2 2 2 2 2 2
          2 2 2 2 2 2
          2 2 2 2 2 2
          2 2 2 2 2 2
          2 2 2 2 2 2
          2 2 2 2 2 2
          2 2 2 2 2 2
          2 2 2 2 2 2
          2 2 2 2 2 2
          2 2 2 2 2 2
          2 2 2 2 2 2
          2 2 2 2 2 2
          2 2 2 2 2 2
          2 2 2 2 2 2
          2 2 2 2 2 2
          2 2
        </DataArray>
      </CellData>
      <Points>
        <DataArray type="Float64" Name="Points" NumberOfComponents="3" format="ascii" RangeMin="0.0055128205128194" RangeMax="0.014586579917196396">
          0.010655961336451 0.0054415469453289 0 0.010738296327413 0.0059250363170334 0
          0.010252884061106 0.0059462536680524 0 0.010205117478458 0.0054994523140404 0
          0.010655961336451 0.0054415469453289 0.00015 0.010738296327413 0.0059250363170334 0.00015
          0.010252884061106 0.0059462536680524 0.00015 0.010205117478458 0.0054994523140404 0.00015
          0.010655961336451 0.0054415469453289 0.0003 0.010738296327413 0.0059250363170334 0.0003
          0.010252884061106 0.0059462536680524 0.0003 0.010205117478458 0.0054994523140404 0.0003
          0.011940440807394 0.0034141066074527 0 0.011459595517011 0.003824326979063 0
          0.011102612382238 0.0034627190197861 0 0.011355953963772 0.0030463545109029 0
          0.011940440807394 0.0034141066074527 0.00015 0.011459595517011 0.003824326979063 0.00015
          0.011102612382238 0.0034627190197861 0.00015 0.011355953963772 0.0030463545109029 0.00015
          0.011940440807394 0.0034141066074527 0.0003 0.011459595517011 0.003824326979063 0.0003
          0.011102612382238 0.0034627190197861 0.0003 0.011355953963772 0.0030463545109029 0.0003
          0.010057653370411 0.0084974472595183 0 0.01054988842507 0.0084422245958245 0
          0.010057653370411 0.0084974472595183 0.00015 0.01054988842507 0.0084422245958245 0.00015
          0.010057653370411 0.0084974472595183 0.0003 0.01054988842507 0.0084422245958245 0.0003
          0.011046194733105 0.00090743319272295 0 0.011064186406242 0.00044456569898216 0
          0.011549090679959 0.00043919238601916 0 0.011507246232172 0.00087204304167501 0
          0.011046194733105 0.00090743319272295 0.00015 0.011064186406242 0.00044456569898216 0.00015
          0.011549090679959 0.00043919238601916 0.00015 0.011507246232172 0.00087204304167501 0.00015
          0.011046194733105 0.00090743319272295 0.0003 0.011064186406242 0.00044456569898216 0.0003
          0.011549090679959 0.00043919238601916 0.0003 0.011507246232172 0.00087204304167501 0.0003
          0.010695724673322 0.003201084864495 0 0.010922769205465 0.002821493997395 0
          0.010695724673322 0.003201084864495 0.00015 0.010922769205465 0.002821493997395 0.00015
          0.010695724673322 0.003201084864495 0.0003 0.010922769205465 0.002821493997395 0.0003
          0.0063972422249218 0.0045440807567198 0 0.0065062213292024 0.0050164807168814 0
          0.0062389906493372 0.0053128670028646 0 0.0060512178389602 0.0047929387822649 0
          0.0063972422249218 0.0045440807567198 0.00015 0.0065062213292024 0.0050164807168814 0.00015
          0.0062389906493372 0.0053128670028646 0.00015 0.0060512178389602 0.0047929387822649 0.00015
          0.0063972422249218 0.0045440807567198 0.0003 0.0065062213292024 0.0050164807168814 0.0003
          0.0062389906493372 0.0053128670028646 0.0003 0.0060512178389602 0.0047929387822649 0.0003
          0.0077450758336629 0.0014176167893871 0 0.0081853433575 0.0016343392489207 0
          0.0081296210030831 0.0020475545417094 0 0.0077097822266787 0.0019577759081516 0
          0.0077450758336629 0.0014176167893871 0.00015 0.0081853433575 0.0016343392489207 0.00015
          0.0081296210030831 0.0020475545417094 0.00015 0.0077097822266787 0.0019577759081516 0.00015
          0.0077450758336629 0.0014176167893871 0.0003 0.0081853433575 0.0016343392489207 0.0003
          0.0081296210030831 0.0020475545417094 0.0003 0.0077097822266787 0.0019577759081516 0.0003
          0.010163700921554 0.0050965322104848 0 0.010539876174215 0.0050107335132671 0
          0.010163700921554 0.0050965322104848 0.00015 0.010539876174215 0.0050107335132671 0.00015
          0.010163700921554 0.0050965322104848 0.0003 0.010539876174215 0.0050107335132671 0.0003
          0.0067145785472978 0.00092067788586619 0 0.0066311284750677 0.00045344715700039 0
          0.0071039644964018 0.00045254776362746 0 0.0071622170579096 0.00091220258976311 0
          0.0067145785472978 0.00092067788586619 0.00015 0.0066311284750677 0.00045344715700039 0.00015
          0.0071039644964018 0.00045254776362746 0.00015 0.0071622170579096 0.00091220258976311 0.00015
          0.0067145785472978 0.00092067788586619 0.0003 0.0066311284750677 0.00045344715700039 0.0003
          0.0071039644964018 0.00045254776362746 0.0003 0.0071622170579096 0.00091220258976311 0.0003
          0.011832021157187 0.0073476785459853 0 0.011779780861271 0.0068646395959748 0
          0.012243708910156 0.0068324173193727 0 0.011832021157187 0.0073476785459853 0.00015
          0.011779780861271 0.0068646395959748 0.00015 0.012243708910156 0.0068324173193727 0.00015
          0.011832021157187 0.0073476785459853 0.0003 0.011779780861271 0.0068646395959748 0.0003
          0.012243708910156 0.0068324173193727 0.0003 0.0084907788898463 0.00044286110481525 0
          0.0089555217282148 0.00046389179151574 0 0.0088246864415892 0.00090448805343066 0
          0.0084146790711037 0.00087434414493667 0 0.0084907788898463 0.00044286110481525 0.00015
          0.0089555217282148 0.00046389179151574 0.00015 0.0088246864415892 0.00090448805343066 0.00015
          0.0084146790711037 0.00087434414493667 0.00015 0.0084907788898463 0.00044286110481525 0.0003
          0.0089555217282148 0.00046389179151574 0.0003 0.0088246864415892 0.00090448805343066 0.0003
          0.0084146790711037 0.00087434414493667 0.0003 0.0073198391209489 0.002802975731369 0
          0.007729981097025 0.0028801564362105 0 0.0077015154526268 0.0033237594367458 0
          0.0072927827923603 0.0032114269239825 0 0.0073198391209489 0.002802975731369 0.00015
          0.007729981097025 0.0028801564362105 0.00015 0.0077015154526268 0.0033237594367458 0.00015
          0.0072927827923603 0.0032114269239825 0.00015 0.0073198391209489 0.002802975731369 0.0003
          0.007729981097025 0.0028801564362105 0.0003 0.0077015154526268 0.0033237594367458 0.0003
          0.0072927827923603 0.0032114269239825 0.0003 0.011061956134478 0.0014022262787872 0
          0.011061956134478 0.0014022262787872 0.00015 0.011061956134478 0.0014022262787872 0.0003
          0.0067262777673885 0.0043003855308917 0 0.0070184374453973 0.0044097475846897 0
          0.0069143452336461 0.0047780273607631 0 0.0067262777673885 0.0043003855308917 0.00015
          0.0070184374453973 0.0044097475846897 0.00015 0.0069143452336461 0.0047780273607631 0.00015
          0.0067262777673885 0.0043003855308917 0.0003 0.0070184374453973 0.0044097475846897 0.0003
          0.0069143452336461 0.0047780273607631 0.0003 0.0072966772765568 0.0023596996909359 0
          0.0077191611848381 0.0024307703640478 0 0.0072966772765568 0.0023596996909359 0.00015
          0.0077191611848381 0.0024307703640478 0.00015 0.0072966772765568 0.0023596996909359 0.0003
          0.0077191611848381 0.0024307703640478 0.0003 0.010569749843509 0.00092230265866691 0
          0.010578573679683 0.0013844170604281 0 0.010145320905195 0.0014335884987508 0
          0.01008894187929 0.00096115561381429 0 0.010569749843509 0.00092230265866691 0.00015
          0.010578573679683 0.0013844170604281 0.00015 0.010145320905195 0.0014335884987508 0.00015
          0.01008894187929 0.00096115561381429 0.00015 0.010569749843509 0.00092230265866691 0.0003
          0.010578573679683 0.0013844170604281 0.0003 0.010145320905195 0.0014335884987508 0.0003
          0.01008894187929 0.00096115561381429 0.0003 0.0061669869081239 0.00049673093518566 0
          0.0062913293509889 0.00097410606592609 0 0.0059245902968253 0.0010856763727913 0
          0.0057061681768373 0.00065177476244477 0 0.0061669869081239 0.00049673093518566 0.00015
          0.0062913293509889 0.00097410606592609 0.00015 0.0059245902968253 0.0010856763727913 0.00015
          0.0057061681768373 0.00065177476244477 0.00015 0.0061669869081239 0.00049673093518566 0.0003
          0.0062913293509889 0.00097410606592609 0.0003 0.0059245902968253 0.0010856763727913 0.0003
          0.0057061681768373 0.00065177476244477 0.0003 0.010613957240618 0.0022894151744625 0
          0.011031068838334 0.0023895404946521 0 0.01053554486979 0.0026566023779455 0
          0.010613957240618 0.0022894151744625 0.00015 0.011031068838334 0.0023895404946521 0.00015
          0.01053554486979 0.0026566023779455 0.00015 0.010613957240618 0.0022894151744625 0.0003
          0.011031068838334 0.0023895404946521 0.0003 0.01053554486979 0.0026566023779455 0.0003
          0.0055128205128194 0 0 0.0060256410256386 0 0
          0.0055128205128194 0 0.00015 0.0060256410256386 0 0.00015
          0.0055128205128194 0 0.0003 0.0060256410256386 0 0.0003
          0.0087932726011055 0.003543484648519 0 0.0081725565838686 0.0034418576035907 0
          0.0081844882448281 0.0029554535172717 0 0.0086653225286358 0.0029358056411338 0
          0.0087932726011055 0.003543484648519 0.00015 0.0081725565838686 0.0034418576035907 0.00015
          0.0081844882448281 0.0029554535172717 0.00015 0.0086653225286358 0.0029358056411338 0.00015
          0.0087932726011055 0.003543484648519 0.0003 0.0081725565838686 0.0034418576035907 0.0003
          0.0081844882448281 0.0029554535172717 0.0003 0.0086653225286358 0.0029358056411338 0.0003
          0.010609256891376 0.0018508518753275 0 0.011063963632424 0.0019108783312894 0
          0.010609256891376 0.0018508518753275 0.00015 0.011063963632424 0.0019108783312894 0.00015
          0.010609256891376 0.0018508518753275 0.0003 0.011063963632424 0.0019108783312894 0.0003
          0.0061614658010566 0.0029736343202522 0 0.0061372854142827 0.0036106222238676 0
          0.0061614658010566 0.0029736343202522 0.00015 0.0061372854142827 0.0036106222238676 0.00015
          0.0061614658010566 0.0029736343202522 0.0003 0.0061372854142827 0.0036106222238676 0.0003
          0.0091223832784702 0.0028108558594978 0 0.0093224708097351 0.0032450014434347 0
          0.0091223832784702 0.0028108558594978 0.00015 0.0093224708097351 0.0032450014434347 0.00015
          0.0091223832784702 0.0028108558594978 0.0003 0.0093224708097351 0.0032450014434347 0.0003
          0.010365654248251 0.0046741943492533 0 0.010130092133721 0.0048347586786618 0
          0.0098673679311407 0.0047157860708196 0 0.010078628200493 0.0044157313734999 0
          0.010365654248251 0.0046741943492533 0.00015 0.010130092133721 0.0048347586786618 0.00015
          0.0098673679311407 0.0047157860708196 0.00015 0.010078628200493 0.0044157313734999 0.00015
          0.010365654248251 0.0046741943492533 0.0003 0.010130092133721 0.0048347586786618 0.0003
          0.0098673679311407 0.0047157860708196 0.0003 0.010078628200493 0.0044157313734999 0.0003
          0.0074225055052033 0.0045889494028562 0 0.0073125071067115 0.0049521547682488 0
          0.0074225055052033 0.0045889494028562 0.00015 0.0073125071067115 0.0049521547682488 0.00015
          0.0074225055052033 0.0045889494028562 0.0003 0.0073125071067115 0.0049521547682488 0.0003
          0.0061231952422177 0.002444135475079 0 0.0061231952422177 0.002444135475079 0.00015
          0.0061231952422177 0.002444135475079 0.0003 0.007634491258567 0.0037589111207536 0
          0.0080978935956725 0.0039120786728548 0 0.007634491258567 0.0037589111207536 0.00015
          0.0080978935956725 0.0039120786728548 0.00015 0.007634491258567 0.0037589111207536 0.0003
          0.0080978935956725 0.0039120786728548 0.0003 0.0067400809843091 0.0034207975388345 0
          0.0067100713183769 0.0039836679330495 0 0.0063054236008776 0.0041223407032968 0
          0.0067400809843091 0.0034207975388345 0.00015 0.0067100713183769 0.0039836679330495 0.00015
          0.0063054236008776 0.0041223407032968 0.00015 0.0067400809843091 0.0034207975388345 0.0003
          0.0067100713183769 0.0039836679330495 0.0003 0.0063054236008776 0.0041223407032968 0.0003
          0.0064429727892239 0.0018594619814901 0 0.0065003657821779 0.0023397297588745 0
          0.0060722038988066 0.0019538017587265 0 0.0064429727892239 0.0018594619814901 0.00015
          0.0065003657821779 0.0023397297588745 0.00015 0.0060722038988066 0.0019538017587265 0.00015
          0.0064429727892239 0.0018594619814901 0.0003 0.0065003657821779 0.0023397297588745 0.0003
          0.0060722038988066 0.0019538017587265 0.0003 0.0068255396015086 0.0051581133306003 0
          0.0068255396015086 0.0051581133306003 0.00015 0.0068255396015086 0.0051581133306003 0.0003
          0.0065384615384579 0 0 0.0065384615384579 0 0.00015
          0.0065384615384579 0 0.0003 0.012879713087233 0.0060908484912964 0
          0.012982043505355 0.0056371881930815 0 0.012879713087233 0.0060908484912964 0.00015
          0.012982043505355 0.0056371881930815 0.00015 0.012879713087233 0.0060908484912964 0.0003
          0.012982043505355 0.0056371881930815 0.0003 0.0065699942646101 0.0028542668018424 0
          0.0065699942646101 0.0028542668018424 0.00015 0.0065699942646101 0.0028542668018424 0.0003
          0.0084683943974961 0.0045583446766593 0 0.0079943718437571 0.0043747262241866 0
          0.0085823759797054 0.0040943119694046 0 0.0084683943974961 0.0045583446766593 0.00015
          0.0079943718437571 0.0043747262241866 0.00015 0.0085823759797054 0.0040943119694046 0.00015
          0.0084683943974961 0.0045583446766593 0.0003 0.0079943718437571 0.0043747262241866 0.0003
          0.0085823759797054 0.0040943119694046 0.0003 0.0085830886495109 0.0024681574500846 0
          0.0090044137010858 0.0023542069269131 0 0.0085830886495109 0.0024681574500846 0.00015
          0.0090044137010858 0.0023542069269131 0.00015 0.0085830886495109 0.0024681574500846 0.0003
          0.0090044137010858 0.0023542069269131 0.0003 0.0098857235699117 0.0079055319030787 0
          0.0095144479526816 0.0076594245921199 0 0.0094715724969347 0.0073263583858313 0
          0.0099283521138692 0.0073475677072736 0 0.0098857235699117 0.0079055319030787 0.00015
          0.0095144479526816 0.0076594245921199 0.00015 0.0094715724969347 0.0073263583858313 0.00015
          0.0099283521138692 0.0073475677072736 0.00015 0.0098857235699117 0.0079055319030787 0.0003
          0.0095144479526816 0.0076594245921199 0.0003 0.0094715724969347 0.0073263583858313 0.0003
          0.0099283521138692 0.0073475677072736 0.0003 0.010833716827414 0.0069257207373803 0
          0.010357413059119 0.0069077241183533 0 0.010300982556592 0.0064274708783385 0
          0.010786080808085 0.0064391381968206 0 0.010833716827414 0.0069257207373803 0.00015
          0.010357413059119 0.0069077241183533 0.00015 0.010300982556592 0.0064274708783385 0.00015
          0.010786080808085 0.0064391381968206 0.00015 0.010833716827414 0.0069257207373803 0.0003
          0.010357413059119 0.0069077241183533 0.0003 0.010300982556592 0.0064274708783385 0.0003
          0.010786080808085 0.0064391381968206 0.0003 0.012723582323863 0.006509831652106 0
          0.012251440655851 0.0062918667587536 0 0.012542392069256 0.0059723735377719 0
          0.012723582323863 0.006509831652106 0.00015 0.012251440655851 0.0062918667587536 0.00015
          0.012542392069256 0.0059723735377719 0.00015 0.012723582323863 0.006509831652106 0.0003
          0.012251440655851 0.0062918667587536 0.0003 0.012542392069256 0.0059723735377719 0.0003
          0.0071151184692216 0.0040272738406853 0 0.0071151184692216 0.0040272738406853 0.00015
          0.0071151184692216 0.0040272738406853 0.0003 0.005927800859391 0.0043689372395662 0
          0.005927800859391 0.0043689372395662 0.00015 0.005927800859391 0.0043689372395662 0.0003
          0.0092411258002763 0.0078319639415625 0 0.0089588909882048 0.0073942383853577 0
          0.0092411258002763 0.0078319639415625 0.00015 0.0089588909882048 0.0073942383853577 0.00015
          0.0092411258002763 0.0078319639415625 0.0003 0.0089588909882048 0.0073942383853577 0.0003
          0.009874674666521 0.0068715373563056 0 0.010410157305432 0.007394545582291 0
          0.009874674666521 0.0068715373563056 0.00015 0.010410157305432 0.007394545582291 0.00015
          0.009874674666521 0.0068715373563056 0.0003 0.010410157305432 0.007394545582291 0.0003
          0.0075354000991736 0.004186248288406 0 0.0075354000991736 0.004186248288406 0.00015
          0.0075354000991736 0.004186248288406 0.0003 0.01131847387487 0.0058224977902188 0
          0.011696082283392 0.0060272916092408 0 0.011725204011411 0.0063910302275778 0
          0.011265055974573 0.0064250601080915 0 0.01131847387487 0.0058224977902188 0.00015
          0.011696082283392 0.0060272916092408 0.00015 0.011725204011411 0.0063910302275778 0.00015
          0.011265055974573 0.0064250601080915 0.00015 0.01131847387487 0.0058224977902188 0.0003
          0.011696082283392 0.0060272916092408 0.0003 0.011725204011411 0.0063910302275778 0.0003
          0.011265055974573 0.0064250601080915 0.0003 0.012000241143886 0.0058170880130831 0
          0.012000241143886 0.0058170880130831 0.00015 0.012000241143886 0.0058170880130831 0.0003
          0.011120492592586 0.0052514705902296 0 0.011120492592586 0.0052514705902296 0.00015
          0.011120492592586 0.0052514705902296 0.0003 0.0092910901193945 0.0039260363263486 0
          0.0090503465409481 0.0043132092761106 0 0.0092910901193945 0.0039260363263486 0.00015
          0.0090503465409481 0.0043132092761106 0.00015 0.0092910901193945 0.0039260363263486 0.0003
          0.0090503465409481 0.0043132092761106 0.0003 0.007889027184575 0.0048982243533992 0
          0.007889027184575 0.0048982243533992 0.00015 0.007889027184575 0.0048982243533992 0.0003
          0.0094935553236164 0.004533528646427 0 0.0097061514105808 0.0041851036755216 0
          0.0094935553236164 0.004533528646427 0.00015 0.0097061514105808 0.0041851036755216 0.00015
          0.0094935553236164 0.004533528646427 0.0003 0.0097061514105808 0.0041851036755216 0.0003
          0.007602124101561 0.0050930903063015 0 0.007602124101561 0.0050930903063015 0.00015
          0.007602124101561 0.0050930903063015 0.0003 0.010723762445737 0.0044202706845482 0
          0.010410164583979 0.0041181159817359 0 0.010723762445737 0.0044202706845482 0.00015
          0.010410164583979 0.0041181159817359 0.00015 0.010723762445737 0.0044202706845482 0.0003
          0.010410164583979 0.0041181159817359 0.0003 0.01095205032792 0.0047963590452232 0
          0.01095205032792 0.0047963590452232 0.00015 0.01095205032792 0.0047963590452232 0.0003
          0.011303178752756 0.0069106117689346 0 0.011303178752756 0.0069106117689346 0.00015
          0.011303178752756 0.0069106117689346 0.0003 0.01003253261535 0.0038623502872685 0
          0.01003253261535 0.0038623502872685 0.00015 0.01003253261535 0.0038623502872685 0.0003
          0.0076528923620256 0.0053996878686031 0 0.0072494384034052 0.005322441352826 0
          0.0076528923620256 0.0053996878686031 0.00015 0.0072494384034052 0.005322441352826 0.00015
          0.0076528923620256 0.0053996878686031 0.0003 0.0072494384034052 0.005322441352826 0.0003
          0.0096442187720765 0.0035928190702974 0 0.0096442187720765 0.0035928190702974 0.00015
          0.0096442187720765 0.0035928190702974 0.0003 0.012013949131265 0.002158444108951 0
          0.012018063243501 0.0027123142038817 0 0.012013949131265 0.002158444108951 0.00015
          0.012018063243501 0.0027123142038817 0.00015 0.012013949131265 0.002158444108951 0.0003
          0.012018063243501 0.0027123142038817 0.0003 0.0080144547016537 0.00086684480617367 0
          0.008304219624614 0.0012703006012415 0 0.0080327132462595 0.0011721512048422 0
          0.0080144547016537 0.00086684480617367 0.00015 0.008304219624614 0.0012703006012415 0.00015
          0.0080327132462595 0.0011721512048422 0.00015 0.0080144547016537 0.00086684480617367 0.0003
          0.008304219624614 0.0012703006012415 0.0003 0.0080327132462595 0.0011721512048422 0.0003
          0.0094736490244467 0.0005865877812969 0 0.010068957850501 0.00047856930843549 0
          0.0096358530086744 0.0010887425154837 0 0.0094736490244467 0.0005865877812969 0.00015
          0.010068957850501 0.00047856930843549 0.00015 0.0096358530086744 0.0010887425154837 0.00015
          0.0094736490244467 0.0005865877812969 0.0003 0.010068957850501 0.00047856930843549 0.0003
          0.0096358530086744 0.0010887425154837 0.0003 0.0071984303565192 0.0057392272964834 0
          0.0067200519522164 0.0055550541115669 0 0.0071984303565192 0.0057392272964834 0.00015
          0.0067200519522164 0.0055550541115669 0.00015 0.0071984303565192 0.0057392272964834 0.0003
          0.0067200519522164 0.0055550541115669 0.0003 0.013091675611077 0.0041736873632184 0
          0.012621380555602 0.004071395146678 0 0.012601464682814 0.0035037767307713 0
          0.013091675611077 0.0041736873632184 0.00015 0.012621380555602 0.004071395146678 0.00015
          0.012601464682814 0.0035037767307713 0.00015 0.013091675611077 0.0041736873632184 0.0003
          0.012621380555602 0.004071395146678 0.0003 0.012601464682814 0.0035037767307713 0.0003
          0.01153639784925 0.0020208067996516 0 0.011496246026306 0.0025480504488598 0
          0.01153639784925 0.0020208067996516 0.00015 0.011496246026306 0.0025480504488598 0.00015
          0.01153639784925 0.0020208067996516 0.0003 0.011496246026306 0.0025480504488598 0.0003
          0.011043213382792 0.0084269911709333 0 0.011043213382792 0.0084269911709333 0.00015
          0.011043213382792 0.0084269911709333 0.0003 0.010128205128191 0 0
          0.0096153846153732 0 0 0.010128205128191 0 0.00015
          0.0096153846153732 0 0.00015 0.010128205128191 0 0.0003
          0.0096153846153732 0 0.0003 0.0091025641025551 0 0
          0.0085897435897353 0 0 0.0091025641025551 0 0.00015
          0.0085897435897353 0 0.00015 0.0091025641025551 0 0.0003
          0.0085897435897353 0 0.0003 0.0085182476127008 0.0020437661198126 0
          0.0089029205554566 0.0019047336662455 0 0.0085182476127008 0.0020437661198126 0.00015
          0.0089029205554566 0.0019047336662455 0.00015 0.0085182476127008 0.0020437661198126 0.0003
          0.0089029205554566 0.0019047336662455 0.0003 0.0081522818828449 0.0024947087352937 0
          0.0081522818828449 0.0024947087352937 0.00015 0.0081522818828449 0.0024947087352937 0.0003
          0.010641025641009 0 0 0.010579843756946 0.00045349299099366 0
          0.010641025641009 0 0.00015 0.010579843756946 0.00045349299099366 0.00015
          0.010641025641009 0 0.0003 0.010579843756946 0.00045349299099366 0.0003
          0.011153846153828 0 0 0.011153846153828 0 0.00015
          0.011153846153828 0 0.0003 0.011760912133753 0.0054122119446059 0
          0.011760912133753 0.0054122119446059 0.00015 0.011760912133753 0.0054122119446059 0.0003
          0.011666666666648 0 0 0.011666666666648 0 0.00015
          0.011666666666648 0 0.0003 0.011547825504055 0.0049713459697514 0
          0.011547825504055 0.0049713459697514 0.00015 0.011547825504055 0.0049713459697514 0.0003
          0.011349632014182 0.0045239710214715 0 0.011349632014182 0.0045239710214715 0.00015
          0.011349632014182 0.0045239710214715 0.0003 0.011997463288521 0.00046572766410539 0
          0.012179487179468 0 0 0.011997463288521 0.00046572766410539 0.00015
          0.012179487179468 0 0.00015 0.011997463288521 0.00046572766410539 0.0003
          0.012179487179468 0 0.0003 0.01039056673058 0.0035410773695937 0
          0.010772622187787 0.0038062315725381 0 0.01039056673058 0.0035410773695937 0.00015
          0.010772622187787 0.0038062315725381 0.00015 0.01039056673058 0.0035410773695937 0.0003
          0.010772622187787 0.0038062315725381 0.0003 0.0089323359070786 0.0047421281357296 0
          0.0089323359070786 0.0047421281357296 0.00015 0.0089323359070786 0.0047421281357296 0.0003
          0.010891746765568 0.007407252260552 0 0.010891746765568 0.007407252260552 0.00015
          0.010891746765568 0.007407252260552 0.0003 0.011089383238376 0.0041358143249023 0
          0.011089383238376 0.0041358143249023 0.00015 0.011089383238376 0.0041358143249023 0.0003
          0.007205317033861 0.0036141963404016 0 0.007205317033861 0.0036141963404016 0.00015
          0.007205317033861 0.0036141963404016 0.0003 0.0080269839945158 0.0054023282425744 0
          0.0080269839945158 0.0054023282425744 0.00015 0.0080269839945158 0.0054023282425744 0.0003
          0.0077721363879251 0.0058968168784219 0 0.0077721363879251 0.0058968168784219 0.00015
          0.0077721363879251 0.0058968168784219 0.0003 0.0095370253310475 0.0025850582106885 0
          0.009732219723835 0.0029713438236062 0 0.0095370253310475 0.0025850582106885 0.00015
          0.009732219723835 0.0029713438236062 0.00015 0.0095370253310475 0.0025850582106885 0.0003
          0.009732219723835 0.0029713438236062 0.0003 0.0094100372761059 0.0021522308351028 0
          0.0094100372761059 0.0021522308351028 0.00015 0.0094100372761059 0.0021522308351028 0.0003
          0.0087313387484914 0.001424359608332 0 0.0084651319029022 0.0017289788972556 0
          0.0087313387484914 0.001424359608332 0.00015 0.0084651319029022 0.0017289788972556 0.00015
          0.0087313387484914 0.001424359608332 0.0003 0.0084651319029022 0.0017289788972556 0.0003
          0.011363196701121 0.0073867521895413 0 0.011894488312007 0.0078344841271679 0
          0.011431801070778 0.0078815011129823 0 0.011363196701121 0.0073867521895413 0.00015
          0.011894488312007 0.0078344841271679 0.00015 0.011431801070778 0.0078815011129823 0.00015
          0.011363196701121 0.0073867521895413 0.0003 0.011894488312007 0.0078344841271679 0.0003
          0.011431801070778 0.0078815011129823 0.0003 0.011511795106494 0.0083968566041475 0
          0.011511795106494 0.0083968566041475 0.00015 0.011511795106494 0.0083968566041475 0.0003
          0.0093066157528448 0.0017085494075796 0 0.0093066157528448 0.0017085494075796 0.00015
          0.0093066157528448 0.0017085494075796 0.0003 0.011737204813157 0.0042624504192267 0
          0.011920232844873 0.0047153506313134 0 0.011737204813157 0.0042624504192267 0.00015
          0.011920232844873 0.0047153506313134 0.00015 0.011737204813157 0.0042624504192267 0.0003
          0.011920232844873 0.0047153506313134 0.0003 0.0097199155871303 0.0015315099671301 0
          0.0098040259351994 0.0019696894002764 0 0.0097199155871303 0.0015315099671301 0.00015
          0.0098040259351994 0.0019696894002764 0.00015 0.0097199155871303 0.0015315099671301 0.0003
          0.0098040259351994 0.0019696894002764 0.0003 0.0099068743951204 0.0023814903757239 0
          0.0099068743951204 0.0023814903757239 0.00015 0.0099068743951204 0.0023814903757239 0.0003
          0.010196799496301 0.0018655242590307 0 0.010252080701677 0.0022738797315184 0
          0.010196799496301 0.0018655242590307 0.00015 0.010252080701677 0.0022738797315184 0.00015
          0.010196799496301 0.0018655242590307 0.0003 0.010252080701677 0.0022738797315184 0.0003
          0.0082479601882269 0.0062087007836213 0 0.0083721174281176 0.0058457654542534 0
          0.0087793359412623 0.006030240425184 0 0.0086690881028679 0.0063945203238097 0
          0.0082479601882269 0.0062087007836213 0.00015 0.0083721174281176 0.0058457654542534 0.00015
          0.0087793359412623 0.006030240425184 0.00015 0.0086690881028679 0.0063945203238097 0.00015
          0.0082479601882269 0.0062087007836213 0.0003 0.0083721174281176 0.0058457654542534 0.0003
          0.0087793359412623 0.006030240425184 0.0003 0.0086690881028679 0.0063945203238097 0.0003
          0.0098103305116681 0.0063862496116293 0 0.0098103305116681 0.0063862496116293 0.00015
          0.0098103305116681 0.0063862496116293 0.0003 0.0084248193747317 0.0050261658136402 0
          0.0084248193747317 0.0050261658136402 0.00015 0.0084248193747317 0.0050261658136402 0.0003
          0.0069463016830039 0.0027787422025108 0 0.0070048409545821 0.0031125297586922 0
          0.0069463016830039 0.0027787422025108 0.00015 0.0070048409545821 0.0031125297586922 0.00015
          0.0069463016830039 0.0027787422025108 0.0003 0.0070048409545821 0.0031125297586922 0.0003
          0.010028456835002 0.0032748409090605 0 0.010028456835002 0.0032748409090605 0.00015
          0.010028456835002 0.0032748409090605 0.0003 0.013084530633285 0.0046685927017207 0
          0.012657407202949 0.0045740785705039 0 0.013084530633285 0.0046685927017207 0.00015
          0.012657407202949 0.0045740785705039 0.00015 0.013084530633285 0.0046685927017207 0.0003
          0.012657407202949 0.0045740785705039 0.0003 0.0063788755008874 0.0014091508241809 0
          0.0060137569775388 0.0015029488511318 0 0.0063788755008874 0.0014091508241809 0.00015
          0.0060137569775388 0.0015029488511318 0.00015 0.0063788755008874 0.0014091508241809 0.0003
          0.0060137569775388 0.0015029488511318 0.0003 0.01196380743939 0.0083394019710021 0
          0.01196380743939 0.0083394019710021 0.00015 0.01196380743939 0.0083394019710021 0.0003
          0.010073855840534 0.0027196155419985 0 0.010289681297386 0.0025561678844121 0
          0.010073855840534 0.0027196155419985 0.00015 0.010289681297386 0.0025561678844121 0.00015
          0.010073855840534 0.0027196155419985 0.0003 0.010289681297386 0.0025561678844121 0.0003
          0.0093223919318803 0.0053434698815888 0 0.009764317340127 0.0054658727348424 0
          0.0097769212248058 0.0059119658621614 0 0.0093027527337708 0.0057939169389015 0
          0.0093223919318803 0.0053434698815888 0.00015 0.009764317340127 0.0054658727348424 0.00015
          0.0097769212248058 0.0059119658621614 0.00015 0.0093027527337708 0.0057939169389015 0.00015
          0.0093223919318803 0.0053434698815888 0.0003 0.009764317340127 0.0054658727348424 0.0003
          0.0097769212248058 0.0059119658621614 0.0003 0.0093027527337708 0.0057939169389015 0.0003
          0.0068882925124701 0.0023177669638962 0 0.0068882925124701 0.0023177669638962 0.00015
          0.0068882925124701 0.0023177669638962 0.0003 0.0092499592325966 0.0063238181416562 0
          0.0089620052424248 0.0065330227489775 0 0.0092499592325966 0.0063238181416562 0.00015
          0.0089620052424248 0.0065330227489775 0.00015 0.0092499592325966 0.0063238181416562 0.0003
          0.0089620052424248 0.0065330227489775 0.0003 0.0072168253422346 0.001397514094839 0
          0.0076041066380058 0.00089936619415626 0 0.0072168253422346 0.001397514094839 0.00015
          0.0076041066380058 0.00089936619415626 0.00015 0.0072168253422346 0.001397514094839 0.0003
          0.0076041066380058 0.00089936619415626 0.0003 0.0075718226613923 0.00044755222139025 0
          0.0075718226613923 0.00044755222139025 0.00015 0.0075718226613923 0.00044755222139025 0.0003
          0.012116660000204 0.0051206445675074 0 0.012116660000204 0.0051206445675074 0.00015
          0.012116660000204 0.0051206445675074 0.0003 0.0068338524094732 0.0018398489073113 0
          0.0068338524094732 0.0018398489073113 0.00015 0.0068338524094732 0.0018398489073113 0.0003
          0.0088473960481577 0.0056214227923259 0 0.0088473960481577 0.0056214227923259 0.00015
          0.0088473960481577 0.0056214227923259 0.0003 0.0081402125110085 0.0066115625704341 0
          0.0081402125110085 0.0066115625704341 0.00015 0.0081402125110085 0.0066115625704341 0.0003
          0.0067824993802385 0.0013824026215467 0 0.0072591856110724 0.0018865642034293 0
          0.0067824993802385 0.0013824026215467 0.00015 0.0072591856110724 0.0018865642034293 0.00015
          0.0067824993802385 0.0013824026215467 0.0003 0.0072591856110724 0.0018865642034293 0.0003
          0.0094035295411974 0.0068662830960629 0 0.0094035295411974 0.0068662830960629 0.00015
          0.0094035295411974 0.0068662830960629 0.0003 0.0080770297303238 0.0057078658228848 0
          0.0080770297303238 0.0057078658228848 0.00015 0.0080770297303238 0.0057078658228848 0.0003
          0.012455160230445 0.0055307966461266 0 0.012455160230445 0.0055307966461266 0.00015
          0.012455160230445 0.0055307966461266 0.0003 0.0092134396095011 0.0012639463069257 0
          0.0092134396095011 0.0012639463069257 0.00015 0.0092134396095011 0.0012639463069257 0.0003
          0.0085681017610313 0.0067725899286886 0 0.0085681017610313 0.0067725899286886 0.00015
          0.0085681017610313 0.0067725899286886 0.0003 0.010337781301114 0.0029713007827362 0
          0.010337781301114 0.0029713007827362 0.00015 0.010337781301114 0.0029713007827362 0.0003
          0.0080769230769162 0 0 0.0080362994401078 0.00044130282391618 0
          0.0075641025640979 0 0 0.0080769230769162 0 0.00015
          0.0080362994401078 0.00044130282391618 0.00015 0.0075641025640979 0 0.00015
          0.0080769230769162 0 0.0003 0.0080362994401078 0.00044130282391618 0.0003
          0.0075641025640979 0 0.0003 0.0084157309119158 0.0054663429893237 0
          0.0084157309119158 0.0054663429893237 0.00015 0.0084157309119158 0.0054663429893237 0.0003
          0.012625060394875 0.0050215313919928 0 0.012340535819996 0.0049145470001145 0
          0.012625060394875 0.0050215313919928 0.00015 0.012340535819996 0.0049145470001145 0.00015
          0.012625060394875 0.0050215313919928 0.0003 0.012340535819996 0.0049145470001145 0.0003
          0.0088807280393962 0.0051824777758032 0 0.0088807280393962 0.0051824777758032 0.00015
          0.0088807280393962 0.0051824777758032 0.0003 0.00978640191627 0.0050564284414982 0
          0.00978640191627 0.0050564284414982 0.00015 0.00978640191627 0.0050564284414982 0.0003
          0.007051282051278 0 0 0.007051282051278 0 0.00015
          0.007051282051278 0 0.0003 0.0089738769927721 0.0068608682916542 0
          0.0089738769927721 0.0068608682916542 0.00015 0.0089738769927721 0.0068608682916542 0.0003
          0.010464396561549 0.007914442793445 0 0.010959162019398 0.0079079830093058 0
          0.010464396561549 0.007914442793445 0.00015 0.010959162019398 0.0079079830093058 0.00015
          0.010464396561549 0.007914442793445 0.0003 0.010959162019398 0.0079079830093058 0.0003
          0.0093768424757788 0.0049206652486621 0 0.0093768424757788 0.0049206652486621 0.00015
          0.0093768424757788 0.0049206652486621 0.0003 0.0084364690699339 0.0071912877673881 0
          0.0084364690699339 0.0071912877673881 0.00015 0.0084364690699339 0.0071912877673881 0.0003
          0.011870414872976 0.00080294526771027 0 0.011870414872976 0.00080294526771027 0.00015
          0.011870414872976 0.00080294526771027 0.0003 0.013048655853798 0.0051555709380823 0
          0.013048655853798 0.0051555709380823 0.00015 0.013048655853798 0.0051555709380823 0.0003
          0.0091480378790118 0.00093783666102615 0 0.0091480378790118 0.00093783666102615 0.00015
          0.0091480378790118 0.00093783666102615 0.0003 0.012592651705639 0.0068198098450163 0
          0.012592651705639 0.0068198098450163 0.00015 0.012592651705639 0.0068198098450163 0.0003
          0.012272070002081 0.0045810549534562 0 0.012153081904124 0.0040944528080542 0
          0.012272070002081 0.0045810549534562 0.00015 0.012153081904124 0.0040944528080542 0.00015
          0.012272070002081 0.0045810549534562 0.0003 0.012153081904124 0.0040944528080542 0.0003
          0.011634800364854 0.0014122839921498 0 0.011634800364854 0.0014122839921498 0.00015
          0.011634800364854 0.0014122839921498 0.0003 0.012451479243686 0.0021914486022899 0
          0.012674188674928 0.0028095410694266 0 0.012451479243686 0.0021914486022899 0.00015
          0.012674188674928 0.0028095410694266 0.00015 0.012451479243686 0.0021914486022899 0.0003
          0.012674188674928 0.0028095410694266 0.0003 0.013121586466294 0.0036708577033715 0
          0.013121586466294 0.0036708577033715 0.00015 0.013121586466294 0.0036708577033715 0.0003
          0.013248150362312 0.0031919567697963 0 0.013248150362312 0.0031919567697963 0.00015
          0.013248150362312 0.0031919567697963 0.0003 0.012096711335481 0.0017058387426491 0
          0.012096711335481 0.0017058387426491 0.00015 0.012096711335481 0.0017058387426491 0.0003
          0.012692307692288 0 0 0.012542896420733 0.00061304595643839 0
          0.012692307692288 0 0.00015 0.012542896420733 0.00061304595643839 0.00015
          0.012692307692288 0 0.0003 0.012542896420733 0.00061304595643839 0.0003
          0.012384518900215 0.0018567382086698 0 0.012384518900215 0.0018567382086698 0.00015
          0.012384518900215 0.0018567382086698 0.0003 0.012087580163866 0.0010424427844857 0
          0.012087580163866 0.0010424427844857 0.00015 0.012087580163866 0.0010424427844857 0.0003
          <InformationKey name="L2_NORM_RANGE" location="vtkDataArray" length="2">
            <Value index="0">
              0.0055128205128
            </Value>
            <Value index="1">
              0.014586579917
            </Value>
          </InformationKey>
        </DataArray>
      </Points>
      <Cells>
        <DataArray type="Int64" Name="connectivity" format="ascii" RangeMin="0" RangeMax="773">
          0 1 2 3 4 5
          6 7 4 5 6 7
          8 9 10 11 12 13
          14 15 16 17 18 19
          16 17 18 19 20 21
          22 23 30 31 32 33
          34 35 36 37 34 35
          36 37 38 39 40 41
          15 14 42 43 19 18
          44 45 19 18 44 45
          23 22 46 47 48 49
          50 51 52 53 54 55
          52 53 54 55 56 57
          58 59 60 61 62 63
          64 65 66 67 64 65
          66 67 68 69 70 71
          3 72 73 0 7 74
          75 4 7 74 75 4
          11 76 77 8 78 79
          80 81 82 83 84 85
          82 83 84 85 86 87
          88 89 99 100 101 102
          103 104 105 106 103 104
          105 106 107 108 109 110
          111 112 113 114 115 116
          117 118 115 116 117 118
          119 120 121 122 744 123
          30 33 745 124 34 37
          745 124 34 37 746 125
          38 41 48 126 127 128
          52 129 130 131 52 129
          130 131 56 132 133 134
          135 136 112 111 137 138
          116 115 137 138 116 115
          139 140 120 119 141 142
          143 144 145 146 147 148
          145 146 147 148 149 150
          151 152 153 154 155 156
          157 158 159 160 157 158
          159 160 161 162 163 164
          165 166 43 167 168 169
          45 170 168 169 45 170
          171 172 47 173 174 175
          153 156 176 177 157 160
          176 177 157 160 178 179
          161 164 180 181 182 183
          184 185 186 187 184 185
          186 187 188 189 190 191
          166 165 192 193 169 168
          194 195 169 168 194 195
          172 171 196 197 112 182
          181 113 116 186 185 117
          116 186 185 117 120 190
          189 121 204 205 180 183
          206 207 184 187 206 207
          184 187 208 209 188 191
          210 211 212 213 214 215
          216 217 214 215 216 217
          218 219 220 221 222 223
          128 127 224 225 131 130
          224 225 131 130 226 227
          134 133 154 153 79 78
          158 157 83 82 158 157
          83 82 162 161 87 86
          231 113 181 232 233 117
          185 234 233 117 185 234
          235 121 189 236 237 238
          239 199 240 241 242 201
          240 241 242 201 243 244
          245 203 246 247 228 248
          249 250 229 251 249 250
          229 251 252 253 230 254
          255 49 48 128 256 53
          52 131 256 53 52 131
          257 57 56 134 175 258
          79 153 177 259 83 157
          177 259 83 157 179 260
          87 161 267 237 199 198
          268 240 201 200 268 240
          201 200 269 243 203 202
          270 271 232 272 273 274
          234 275 273 274 234 275
          276 277 236 278 267 198
          228 247 268 200 229 250
          268 200 229 250 269 202
          230 253 183 279 280 204
          187 281 282 206 187 281
          282 206 191 283 284 208
          285 286 287 288 289 290
          291 292 289 290 291 292
          293 294 295 296 297 298
          299 300 301 302 303 304
          301 302 303 304 305 306
          307 308 261 309 310 311
          263 312 313 314 263 312
          313 314 265 315 316 317
          238 318 127 126 241 319
          130 129 241 319 130 129
          244 320 133 132 324 325
          287 286 326 327 291 290
          326 327 291 290 328 329
          295 294 330 298 331 288
          332 302 333 292 332 302
          333 292 334 306 335 296
          318 336 222 127 319 337
          224 130 319 337 224 130
          320 338 226 133 339 340
          341 342 343 344 345 346
          343 344 345 346 347 348
          349 350 300 1 339 342
          304 5 343 346 304 5
          343 346 308 9 347 350
          351 310 341 340 352 313
          345 344 352 313 345 344
          353 316 349 348 354 339
          1 0 355 343 5 4
          355 343 5 4 356 347
          9 8 357 358 272 180
          359 360 275 184 359 360
          275 184 361 362 278 188
          48 239 238 126 52 242
          241 129 52 242 241 129
          56 245 244 132 336 271
          363 222 337 274 364 224
          337 274 364 224 338 277
          365 226 51 321 239 48
          55 322 242 52 55 322
          242 52 59 323 245 56
          366 367 213 212 368 369
          217 216 368 369 217 216
          370 371 221 220 223 222
          363 372 225 224 364 373
          225 224 364 373 227 226
          365 374 375 210 213 376
          377 214 217 378 377 214
          217 378 379 218 221 380
          375 381 73 210 377 382
          75 214 377 382 75 214
          379 383 77 218 381 354
          0 73 382 355 4 75
          382 355 4 75 383 356
          8 77 297 300 342 384
          301 304 346 385 301 304
          346 385 305 308 350 386
          376 213 367 387 378 217
          369 388 378 217 369 388
          380 221 371 389 223 372
          390 391 225 373 392 393
          225 373 392 393 227 374
          394 395 396 357 180 205
          397 359 184 207 397 359
          184 207 398 361 188 209
          387 367 357 396 388 369
          359 397 388 369 359 397
          389 371 361 398 399 747
          748 400 401 749 750 402
          401 749 750 402 403 751
          752 404 405 102 406 407
          408 106 409 410 408 106
          409 410 411 110 412 413
          180 272 232 181 184 275
          234 185 184 275 234 185
          188 278 236 189 414 415
          144 416 417 418 148 419
          417 418 148 419 420 421
          152 422 423 424 255 391
          425 426 256 393 425 426
          256 393 427 428 257 395
          429 430 431 753 432 433
          434 754 432 433 434 754
          435 436 437 755 438 399
          400 439 440 401 402 441
          440 401 402 441 442 403
          404 443 447 415 414 448
          449 418 417 450 449 418
          417 450 451 421 420 452
          453 100 99 454 455 104
          103 456 455 104 103 456
          457 108 107 458 279 459
          460 280 281 461 462 282
          281 461 462 282 283 463
          464 284 279 465 62 459
          281 466 66 461 281 466
          66 461 283 467 70 463
          448 414 100 453 450 417
          104 455 450 417 104 455
          452 420 108 457 468 469
          415 447 470 471 418 449
          470 471 418 449 472 473
          421 451 753 431 748 756
          754 434 750 757 754 434
          750 757 755 437 752 758
          400 748 431 12 402 750
          434 16 402 750 434 16
          404 752 437 20 474 31
          469 468 475 35 471 470
          475 35 471 470 476 39
          473 472 399 438 744 759
          401 440 745 760 401 440
          745 760 403 442 746 761
          339 477 351 340 343 478
          352 344 343 478 352 344
          347 479 353 348 367 366
          358 357 369 368 360 359
          369 368 360 359 371 370
          362 361 480 32 31 474
          481 36 35 475 481 36
          35 475 482 40 39 476
          483 477 339 354 484 478
          343 355 484 478 343 355
          485 479 347 356 486 483
          354 381 487 484 355 382
          487 484 355 382 488 485
          356 383 183 182 465 279
          187 186 466 281 187 186
          466 281 191 190 467 283
          762 763 489 490 764 765
          491 492 764 765 491 492
          766 767 493 494 490 489
          32 480 492 491 36 481
          492 491 36 481 494 493
          40 482 387 495 496 376
          388 497 498 378 388 497
          498 378 389 499 500 380
          501 270 272 358 502 273
          275 360 502 273 275 360
          503 276 278 362 504 331
          298 297 505 333 302 301
          505 333 302 301 506 335
          306 305 507 486 381 375
          508 487 382 377 508 487
          382 377 509 488 383 379
          318 238 237 510 319 241
          240 511 319 241 240 511
          320 244 243 512 50 49
          255 424 54 53 256 426
          54 53 256 426 58 57
          257 428 363 513 390 372
          364 514 392 373 364 514
          392 373 365 515 394 374
          516 423 391 390 517 425
          393 392 517 425 393 392
          518 427 395 394 519 520
          205 204 521 522 207 206
          521 522 207 206 523 524
          209 208 525 519 204 280
          526 521 206 282 526 521
          206 282 527 523 208 284
          528 460 459 529 530 462
          461 531 530 462 461 531
          532 464 463 533 534 90
          535 536 537 93 538 539
          537 93 538 539 540 96
          541 542 546 525 280 460
          547 526 282 462 547 526
          282 462 548 527 284 464
          759 768 747 399 760 769
          749 401 760 769 749 401
          761 770 751 403 507 375
          376 496 508 377 378 498
          508 377 378 498 509 379
          380 500 483 486 549 550
          484 487 551 552 484 487
          551 552 485 488 553 554
          231 232 271 336 233 234
          274 337 233 234 274 337
          235 236 277 338 391 255
          128 223 393 256 131 225
          393 256 131 225 395 257
          134 227 525 546 555 556
          526 547 557 558 526 547
          557 558 527 548 559 560
          519 525 556 561 521 526
          558 562 521 526 558 562
          523 527 560 563 561 556
          564 565 562 558 566 567
          562 558 566 567 563 560
          568 569 570 571 572 573
          574 575 576 577 574 575
          576 577 578 579 580 581
          2 1 300 299 6 5
          304 303 6 5 304 303
          10 9 308 307 582 299
          298 330 583 303 302 332
          583 303 302 332 584 307
          306 334 585 363 271 270
          586 364 274 273 586 364
          274 273 587 365 277 276
          555 416 144 143 557 419
          148 147 557 419 148 147
          559 422 152 151 588 589
          237 267 590 591 240 268
          590 591 240 268 592 593
          243 269 396 594 495 387
          397 595 497 388 397 595
          497 388 398 596 499 389
          594 396 205 520 595 397
          207 522 595 397 207 522
          596 398 209 524 597 598
          430 429 599 600 433 432
          599 600 433 432 601 602
          436 435 603 246 248 604
          605 249 251 606 605 249
          251 606 607 252 254 608
          72 211 210 73 74 215
          214 75 74 215 214 75
          76 219 218 77 536 535
          609 543 539 538 610 544
          539 538 610 544 542 541
          611 545 612 561 565 613
          614 562 567 615 614 562
          567 615 616 563 569 617
          618 619 620 621 622 623
          624 625 622 623 624 625
          626 627 628 629 630 588
          267 247 631 590 268 250
          631 590 268 250 632 592
          269 253 633 634 573 572
          635 636 577 576 635 636
          577 576 637 638 581 580
          60 639 81 640 64 641
          85 642 64 641 85 642
          68 643 89 644 561 612
          520 519 562 614 522 521
          562 614 522 521 563 616
          524 523 510 231 336 318
          511 233 337 319 511 233
          337 319 512 235 338 320
          640 81 80 645 642 85
          84 646 642 85 84 646
          644 89 88 647 550 648
          477 483 552 649 478 484
          552 649 478 484 554 650
          479 485 630 247 246 651
          631 250 249 652 631 250
          249 652 632 253 252 653
          633 572 654 621 635 576
          655 625 635 576 655 625
          637 580 656 629 15 43
          166 439 19 45 169 441
          19 45 169 441 23 47
          172 443 660 639 661 651
          662 641 663 652 662 641
          663 652 664 643 665 653
          666 330 288 287 667 332
          292 291 667 332 292 291
          668 334 296 295 603 660
          651 246 605 662 652 249
          605 662 652 249 607 664
          653 252 571 570 516 669
          575 574 517 670 575 574
          517 670 579 578 518 671
          672 262 261 311 673 264
          263 314 673 264 263 314
          674 266 265 317 416 555
          546 675 419 557 547 676
          419 557 547 676 422 559
          548 677 570 573 678 657
          574 577 679 658 574 577
          679 658 578 581 680 659
          495 42 14 496 497 44
          18 498 497 44 18 498
          499 46 22 500 61 529
          459 62 65 531 461 66
          65 531 461 66 69 533
          463 70 13 507 496 14
          17 508 498 18 17 508
          498 18 21 509 500 22
          114 510 237 589 118 511
          240 591 118 511 240 591
          122 512 243 593 513 669
          516 390 514 670 517 392
          514 670 517 392 515 671
          518 394 594 681 42 495
          595 682 44 497 595 682
          44 497 596 683 46 499
          114 589 588 111 118 591
          590 115 118 591 590 115
          122 593 592 119 510 114
          113 231 511 118 117 233
          511 118 117 233 512 122
          121 235 681 594 520 612
          682 595 522 614 682 595
          522 614 683 596 524 616
          684 685 645 686 687 688
          646 689 687 688 646 689
          690 691 647 692 693 654
          572 571 694 655 576 575
          694 655 576 575 695 656
          580 579 675 546 460 528
          676 547 462 530 676 547
          462 530 677 548 464 532
          439 400 12 15 441 402
          16 19 441 402 16 19
          443 404 20 23 696 672
          648 697 698 673 649 699
          698 673 649 699 700 674
          650 701 702 618 621 654
          703 622 625 655 703 622
          625 655 704 626 629 656
          72 705 212 211 74 706
          216 215 74 706 216 215
          76 707 220 219 182 112
          136 465 186 116 138 466
          186 116 138 466 190 120
          140 467 708 686 645 80
          709 689 646 84 709 689
          646 84 710 692 647 88
          91 341 310 92 94 345
          313 95 94 345 313 95
          97 349 316 98 135 630
          651 661 137 631 652 663
          137 631 652 663 139 632
          653 665 666 287 325 711
          667 291 327 712 667 291
          327 712 668 295 329 713
          444 25 714 715 445 27
          716 717 445 27 716 717
          446 29 718 719 705 720
          366 212 706 721 368 216
          706 721 368 216 707 722
          370 220 331 504 715 714
          333 505 717 716 333 505
          717 716 335 506 719 718
          13 549 486 507 17 551
          487 508 17 551 487 508
          21 553 488 509 571 669
          513 693 575 670 514 694
          575 670 514 694 579 671
          515 695 102 405 685 99
          106 408 688 103 106 408
          688 103 110 411 691 107
          672 351 477 648 673 352
          478 649 673 352 478 649
          674 353 479 650 693 513
          363 585 694 514 364 586
          694 514 364 586 695 515
          365 587 285 714 25 24
          289 716 27 26 289 716
          27 26 293 718 29 28
          143 142 192 564 147 146
          194 566 147 146 194 566
          151 150 196 568 726 489
          763 771 727 491 765 772
          727 491 765 772 728 493
          767 773 534 536 715 504
          537 539 717 505 537 539
          717 505 540 542 719 506
          165 565 564 192 168 567
          566 194 168 567 566 194
          171 569 568 196 78 81
          639 660 82 85 641 662
          82 85 641 662 86 89
          643 664 136 135 661 63
          138 137 663 67 138 137
          663 67 140 139 665 71
          729 262 672 696 730 264
          673 698 730 264 673 698
          731 266 674 700 630 135
          111 588 631 137 115 590
          631 137 115 590 632 139
          119 592 702 585 270 501
          703 586 273 502 703 586
          273 502 704 587 276 503
          585 702 654 693 586 703
          655 694 586 703 655 694
          587 704 656 695 61 406
          528 529 65 409 530 531
          65 409 530 531 69 412
          532 533 414 732 101 100
          417 733 105 104 417 733
          105 104 420 734 109 108
          63 62 465 136 67 66
          466 138 67 66 466 138
          71 70 467 140 501 720
          618 702 502 721 622 703
          502 721 622 703 503 722
          626 704 720 501 358 366
          721 502 360 368 721 502
          360 368 722 503 362 370
          685 684 454 99 688 687
          456 103 688 687 456 103
          691 690 458 107 685 405
          640 645 688 408 642 646
          688 408 642 646 691 411
          644 647 30 141 469 31
          34 145 471 35 34 145
          471 35 38 149 473 39
          598 738 739 430 600 740
          741 433 600 740 741 433
          602 742 743 436 43 42
          681 167 45 44 682 170
          45 44 682 170 47 46
          683 173 678 711 325 723
          679 712 327 724 679 712
          327 724 680 713 329 725
          619 618 720 705 623 622
          721 706 623 622 721 706
          627 626 722 707 102 101
          528 406 106 105 530 409
          106 105 530 409 110 109
          532 412 549 13 12 739
          551 17 16 741 551 17
          16 741 553 21 20 743
          711 678 573 634 712 679
          577 636 712 679 577 636
          713 680 581 638 80 79
          258 708 84 83 259 709
          84 83 259 709 88 87
          260 710 738 598 696 697
          740 600 698 699 740 600
          698 699 742 602 700 701
          714 285 288 331 716 289
          292 333 716 289 292 333
          718 293 296 335 672 311
          310 351 673 314 313 352
          673 314 313 352 674 317
          316 353 430 739 12 431
          433 741 16 434 433 741
          16 434 436 743 20 437
          193 438 439 166 195 440
          441 169 195 440 441 169
          197 442 443 172 489 726
          33 32 491 727 37 36
          491 727 37 36 493 728
          41 40 444 715 536 543
          445 717 539 544 445 717
          539 544 446 719 542 545
          3 619 705 72 7 623
          706 74 7 623 706 74
          11 627 707 76 633 666
          711 634 635 667 712 636
          635 667 712 636 637 668
          713 638 384 534 504 297
          385 537 505 301 385 537
          505 301 386 540 506 305
          726 771 744 33 727 772
          745 37 727 772 745 37
          728 773 746 41 167 613
          565 165 170 615 567 168
          170 615 567 168 173 617
          569 171 675 732 414 416
          676 733 417 419 676 733
          417 419 677 734 420 422
          550 549 739 738 552 551
          741 740 552 551 741 740
          554 553 743 742 732 675
          528 101 733 676 530 105
          733 676 530 105 734 677
          532 109 63 661 639 60
          67 663 641 64 67 663
          641 64 71 665 643 68
          384 91 90 534 385 94
          93 537 385 94 93 537
          386 97 96 540 123 744
          438 193 124 745 440 195
          124 745 440 195 125 746
          442 197 406 61 60 407
          409 65 64 410 409 65
          64 410 412 69 68 413
          154 78 660 603 158 82
          662 605 158 82 662 605
          162 86 664 607 91 384
          342 341 94 385 346 345
          94 385 346 345 97 386
          350 349 405 407 60 640
          408 410 64 642 408 410
          64 642 411 413 68 644
          648 550 738 697 649 552
          740 699 649 552 740 699
          650 554 742 701 735 92
          310 309 736 95 313 312
          736 95 313 312 737 98
          316 315 633 582 330 666
          635 583 332 667 635 583
          332 667 637 584 334 668
          167 681 612 613 170 682
          614 615 170 682 614 615
          173 683 616 617 620 2
          299 582 624 6 303 583
          624 6 303 583 628 10
          307 584 582 633 621 620
          583 635 625 624 583 635
          625 624 584 637 629 628
          141 144 415 469 145 148
          418 471 145 148 418 471
          149 152 421 473 143 564
          556 555 147 566 558 557
          147 566 558 557 151 568
          560 559 2 620 619 3
          6 624 623 7 6 624
          623 7 10 628 627 11
          729 696 598 597 730 698
          600 599 730 698 600 599
          731 700 602 601 141 30
          123 142 145 34 124 146
          145 34 124 146 149 38
          125 150 154 603 604 155
          158 605 606 159 158 605
          606 159 162 607 608 163
          193 192 142 123 195 194
          146 124 195 194 146 124
          197 196 150 125
        </DataArray>
        <DataArray type="Int64" Name="offsets" format="ascii" RangeMin="8" RangeMax="3616">
          8 16 24 32 40 48
          56 64 72 80 88 96
          104 112 120 128 136 144
          152 160 168 176 184 192
          200 208 216 224 232 240
          248 256 264 272 280 288
          296 304 312 320 328 336
          344 352 360 368 376 384
          392 400 408 416 424 432
          440 448 456 464 472 480
          488 496 504 512 520 528
          536 544 552 560 568 576
          584 592 600 608 616 624
          632 640 648 656 664 672
          680 688 696 704 712 720
          728 736 744 752 760 768
          776 784 792 800 808 816
          824 832 840 848 856 864
          872 880 888 896 904 912
          920 928 936 944 952 960
          968 976 984 992 1000 1008
          1016 1024 1032 1040 1048 1056
          1064 1072 1080 1088 1096 1104
          1112 1120 1128 1136 1144 1152
          1160 1168 1176 1184 1192 1200
          1208 1216 1224 1232 1240 1248
          1256 1264 1272 1280 1288 1296
          1304 1312 1320 1328 1336 1344
          1352 1360 1368 1376 1384 1392
          1400 1408 1416 1424 1432 1440
          1448 1456 1464 1472 1480 1488
          1496 1504 1512 1520 1528 1536
          1544 1552 1560 1568 1576 1584
          1592 1600 1608 1616 1624 1632
          1640 1648 1656 1664 1672 1680
          1688 1696 1704 1712 1720 1728
          1736 1744 1752 1760 1768 1776
          1784 1792 1800 1808 1816 1824
          1832 1840 1848 1856 1864 1872
          1880 1888 1896 1904 1912 1920
          1928 1936 1944 1952 1960 1968
          1976 1984 1992 2000 2008 2016
          2024 2032 2040 2048 2056 2064
          2072 2080 2088 2096 2104 2112
          2120 2128 2136 2144 2152 2160
          2168 2176 2184 2192 2200 2208
          2216 2224 2232 2240 2248 2256
          2264 2272 2280 2288 2296 2304
          2312 2320 2328 2336 2344 2352
          2360 2368 2376 2384 2392 2400
          2408 2416 2424 2432 2440 2448
          2456 2464 2472 2480 2488 2496
          2504 2512 2520 2528 2536 2544
          2552 2560 2568 2576 2584 2592
          2600 2608 2616 2624 2632 2640
          2648 2656 2664 2672 2680 2688
          2696 2704 2712 2720 2728 2736
          2744 2752 2760 2768 2776 2784
          2792 2800 2808 2816 2824 2832
          2840 2848 2856 2864 2872 2880
          2888 2896 2904 2912 2920 2928
          2936 2944 2952 2960 2968 2976
          2984 2992 3000 3008 3016 3024
          3032 3040 3048 3056 3064 3072
          3080 3088 3096 3104 3112 3120
          3128 3136 3144 3152 3160 3168
          3176 3184 3192 3200 3208 3216
          3224 3232 3240 3248 3256 3264
          3272 3280 3288 3296 3304 3312
          3320 3328 3336 3344 3352 3360
          3368 3376 3384 3392 3400 3408
          3416 3424 3432 3440 3448 3456
          3464 3472 3480 3488 3496 3504
          3512 3520 3528 3536 3544 3552
          3560 3568 3576 3584 3592 3600
          3608 3616
        </DataArray>
        <DataArray type="UInt8" Name="types" format="ascii" RangeMin="12" RangeMax="12">
          12 12 12 12 12 12
          12 12 12 12 12 12
          12 12 12 12 12 12
          12 12 12 12 12 12
          12 12 12 12 12 12
          12 12 12 12 12 12
          12 12 12 12 12 12
          12 12 12 12 12 12
          12 12 12 12 12 12
          12 12 12 12 12 12
          12 12 12 12 12 12
          12 12 12 12 12 12
          12 12 12 12 12 12
          12 12 12 12 12 12
          12 12 12 12 12 12
          12 12 12 12 12 12
          12 12 12 12 12 12
          12 12 12 12 12 12
          12 12 12 12 12 12
          12 12 12 12 12 12
          12 12 12 12 12 12
          12 12 12 12 12 12
          12 12 12 12 12 12
          12 12 12 12 12 12
          12 12 12 12 12 12
          12 12 12 12 12 12
          12 12 12 12 12 12
          12 12 12 12 12 12
          12 12 12 12 12 12
          12 12 12 12 12 12
          12 12 12 12 12 12
          12 12 12 12 12 12
          12 12 12 12 12 12
          12 12 12 12 12 12
          12 12 12 12 12 12
          12 12 12 12 12 12
          12 12 12 12 12 12
          12 12 12 12 12 12
          12 12 12 12 12 12
          12 12 12 12 12 12
          12 12 12 12 12 12
          12 12 12 12 12 12
          12 12 12 12 12 12
          12 12 12 12 12 12
          12 12 12 12 12 12
          12 12 12 12 12 12
          12 12 12 12 12 12
          12 12 12 12 12 12
          12 12 12 12 12 12
          12 12 12 12 12 12
          12 12 12 12 12 12
          12 12 12 12 12 12
          12 12 12 12 12 12
          12 12 12 12 12 12
          12 12 12 12 12 12
          12 12 12 12 12 12
          12 12 12 12 12 12
          12 12 12 12 12 12
          12 12 12 12 12 12
          12 12 12 12 12 12
          12 12 12 12 12 12
          12 12 12 12 12 12
          12 12 12 12 12 12
          12 12 12 12 12 12
          12 12 12 12 12 12
          12 12 12 12 12 12
          12 12 12 12 12 12
          12 12 12 12 12 12
          12 12 12 12 12 12
          12 12 12 12 12 12
          12 12 12 12 12 12
          12 12 12 12 12 12
          12 12 12 12 12 12
          12 12 12 12 12 12
          12 12 12 12 12 12
          12 12
        </DataArray>
      </Cells>
    </Piece>
  </UnstructuredGrid>
</VTKFile>
