<?xml version="1.0"?>
<VTKFile type="UnstructuredGrid" version="0.1" byte_order="LittleEndian" header_type="UInt32" compressor="vtkZLibDataCompressor">
  <UnstructuredGrid>
    <Piece NumberOfPoints="774" NumberOfCells="452">
      <PointData>
        <DataArray type="Int32" Name="libmesh_node_id" format="ascii" RangeMin="2286" RangeMax="4991">
          2286 2287 2288 2289 2290 2291
          2292 2293 2294 2295 2296 2297
          2340 2341 2342 2343 2344 2345
          2346 2347 2348 2349 2350 2351
          2400 2401 2403 2404 2406 2407
          2412 2413 2414 2415 2416 2417
          2418 2419 2420 2421 2422 2423
          2487 2488 2489 2490 2491 2492
          2523 2524 2525 2526 2527 2528
          2529 2530 2531 2532 2533 2534
          2550 2551 2552 2553 2554 2555
          2556 2557 2558 2559 2560 2561
          2580 2581 2582 2583 2584 2585
          2685 2686 2687 2688 2689 2690
          2691 2692 2693 2694 2695 2696
          2698 2699 2700 2702 2703 2704
          2706 2707 2708 2796 2797 2798
          2799 2800 2801 2802 2803 2804
          2805 2806 2807 2838 2839 2840
          2841 2842 2843 2844 2845 2846
          2847 2848 2849 2881 2883 2885
          2949 2950 2951 2952 2953 2954
          2955 2956 2957 3054 3055 3056
          3057 3058 3059 3093 3094 3095
          3096 3097 3098 3099 3100 3101
          3102 3103 3104 3117 3118 3119
          3120 3121 3122 3123 3124 3125
          3126 3127 3128 3195 3196 3197
          3198 3199 3200 3201 3202 3203
          3210 3211 3212 3213 3214 3215
          3216 3217 3218 3219 3220 3221
          3222 3223 3224 3225 3226 3227
          3252 3253 3254 3255 3256 3257
          3300 3301 3302 3303 3304 3305
          3306 3307 3308 3309 3310 3311
          3318 3319 3320 3321 3322 3323
          3324 3325 3326 3327 3328 3329
          3330 3331 3332 3333 3334 3335
          3366 3367 3368 3378 3379 3380
          3381 3382 3383 3384 3385 3386
          3387 3388 3389 3390 3391 3392
          3453 3454 3455 3456 3457 3458
          3459 3460 3461 3483 3484 3485
          3492 3493 3494 3525 3526 3528
          3529 3531 3532 3543 3544 3545
          3564 3565 3566 3567 3568 3569
          3570 3571 3572 3588 3589 3590
          3591 3592 3593 3609 3610 3611
          3612 3613 3614 3615 3616 3617
          3618 3619 3620 3630 3631 3632
          3633 3634 3635 3636 3637 3638
          3639 3640 3641 3654 3655 3656
          3657 3658 3659 3660 3661 3662
          3684 3685 3686 3687 3689 3691
          3693 3694 3695 3696 3697 3698
          3708 3709 3710 3711 3712 3713
          3735 3736 3737 3738 3739 3740
          3741 3742 3743 3744 3745 3746
          3747 3748 3749 3762 3763 3764
          3771 3772 3773 3774 3775 3776
          3777 3778 3779 3786 3787 3788
          3795 3796 3797 3798 3799 3800
          3801 3802 3803 3804 3805 3806
          3807 3808 3809 3816 3817 3818
          3834 3835 3836 3837 3838 3839
          3846 3847 3848 3849 3850 3851
          3861 3862 3863 3882 3884 3885
          3887 3888 3890 3900 3901 3902
          3903 3904 3905 3906 3907 3908
          3924 3925 3926 3927 3928 3929
          3930 3931 3932 3939 3940 3941
          3942 3943 3944 3954 3955 3956
          3958 3959 3960 3962 3963 3964
          3969 3970 3971 3972 3973 3974
          3993 3994 3995 4032 4033 4034
          4035 4036 4037 4053 4054 4055
          4056 4057 4058 4059 4060 4061
          4062 4063 4064 4089 4090 4091
          4104 4105 4106 4107 4108 4109
          4116 4117 4118 4128 4129 4130
          4167 4168 4169 4170 4171 4172
          4185 4186 4187 4208 4209 4212
          4213 4216 4217 4233 4234 4235
          4236 4237 4238 4254 4255 4256
          4257 4258 4259 4269 4270 4271
          4272 4273 4274 4284 4285 4286
          4287 4288 4289 4290 4291 4292
          4293 4294 4295 4302 4303 4304
          4314 4315 4316 4317 4318 4319
          4320 4321 4322 4323 4324 4325
          4326 4327 4328 4338 4339 4340
          4344 4345 4346 4350 4351 4352
          4353 4354 4355 4365 4366 4367
          4368 4369 4370 4371 4372 4373
          4374 4375 4376 4377 4378 4379
          4380 4381 4382 4383 4384 4385
          4386 4387 4388 4389 4390 4391
          4398 4399 4400 4416 4417 4418
          4422 4423 4424 4425 4426 4427
          4428 4429 4430 4434 4435 4436
          4437 4438 4439 4440 4441 4442
          4443 4444 4445 4458 4459 4460
          4482 4483 4484 4485 4486 4487
          4488 4489 4490 4491 4492 4493
          4494 4495 4496 4497 4498 4499
          4500 4501 4502 4506 4507 4508
          4509 4510 4511 4518 4519 4520
          4521 4522 4523 4545 4546 4547
          4566 4567 4568 4569 4570 4571
          4572 4573 4574 4599 4600 4601
          4602 4603 4604 4605 4606 4607
          4611 4612 4613 4647 4648 4649
          4650 4651 4652 4653 4654 4655
          4656 4657 4658 4677 4678 4679
          4689 4690 4691 4692 4693 4694
          4695 4696 4697 4716 4717 4718
          4743 4744 4745 4746 4747 4748
          4749 4750 4751 4779 4780 4781
          4788 4789 4790 4800 4801 4802
          4803 4804 4805 4806 4807 4808
          4809 4810 4811 4830 4831 4832
          4872 4873 4874 4902 4903 4904
          4923 4924 4925 4968 4969 4970
          4986 4987 4988 4989 4990 4991
          2880 2882 2884 3883 3873 3886
          3876 3889 3879 3957 3961 3965
          3875 3878 3881 4119 4120 4121
          4206 4207 4210 4211 4214 4215
          4347 4348 4349 4251 4252 4253
        </DataArray>
        <DataArray type="Float64" Name="resid_x" format="ascii" RangeMin="-0.029197997389989183" RangeMax="0.0018418917911677823">
          -0.0002077816161496493 0.00031686923640972253 0.00040383292370460566 0.001077264385988208 -0.0025438849498327087 -0.0010695494977861486
          -0.00476579332539373 -0.0030639314003808593 -0.012978681268537517 -0.014709757618999397 -0.015148014113691488 -0.012588352846841566
          -0.004242796575986141 0.0006114915769437346 0.00041185327625969936 0.0018418917911677823 -0.011346909623116908 -0.0015016418354871774
          -0.0027708707731313453 -0.0012753973059780321 -0.022406722187181316 -0.012941849454696452 -0.011116875450948971 -0.013480809057170973
          -0.016284323830718428 -0.002733683624215999 -0.023098356216355143 -0.003996799279431862 -0.01825301313566552 -0.008938734633670897
          -0.0016105057644724141 0.00020352771822018667 0.00041326080259640463 -0.001436347815908512 -0.005221051130732235 -0.001729306192196134
          -0.003680043974400693 -0.008094419396472041 -0.006219925157718187 -0.004614776123257336 -0.00562208197243752 -0.008203297139383281
          -0.005611200423068841 -0.0034680234565360735 -0.0035418679248553353 -0.0026681137698476576 -0.008817856307009153 -0.009411180710143796
          0.00010060872986183966 0.000693439879690505 -0.002871012913558957 -0.0032021787002527446 0.0001315694472721063 0.0008356931405528734
          -0.00748611995434878 -0.009300868966935383 0.0013189715337160735 0.0016750709071502445 -0.000023734205884196058 -0.004568190563507102
          0.0001928400701816102 0.0002523131778220389 0.0003810986110046599 0.0002848035545754968 -0.00032161059578772466 -0.0001816449911518081
          -0.00008732245255149707 -0.0028669520143624894 -0.009852982285988965 -0.005418630251271317 -0.006098559431250372 -0.00890951046401156
          -0.0012981830150788909 -0.001583681260859393 -0.002229219529811921 -0.003450001526815072 -0.008162310106579085 -0.010536986777392343
          -0.00010166515992082736 0.00007650082206556164 0.00016210500634183944 -0.00010256511422124248 -0.0005435162636002744 -0.0000606237546030286
          0.000013130626393298428 -0.0003778612883644783 -0.009366354694440915 -0.010929876419172757 -0.009217549214840304 -0.008305571053976557
          -0.007894062146299063 -0.010026685706698402 -0.003891596286151433 -0.015042314839693205 -0.006131046001863538 -0.0010460017488558293
          -0.014918312822464586 -0.013266053007205514 -0.007798099809807724 0.0002608214472585857 0.0006474473289710403 0.0004960994826976872
          0.0008005616964057438 -0.0006094308390407477 -0.00040942697559032126 -0.0004771599848005792 -0.0014952832149504047 -0.005997396777140729
          -0.004420045467179001 -0.004443952137500595 -0.006397980611001941 0.00000486286743939246 0.00019673195751135353 0.00015499395460061294
          -0.00009908891852017376 -0.000882661875287738 -0.0013310061329470102 -0.0007683128548316986 -0.00256335537155028 -0.004369785591971542
          -0.005445382462305304 -0.0045106972218214025 -0.004376528038166683 -0.0085667768533364 -0.013854976032754429 -0.010264188287806064
          -0.0015413768928684846 -0.0010585082406633362 -0.0019900679611217775 -0.0015880122602807134 -0.0015524740628967137 -0.0025344266492242085
          -0.0014497950606839893 -0.0011248230230096468 -0.0020213184546431506 -0.0009399918960886211 -0.0019426324960711838 -0.0006709915492564278
          -0.0027575597021378684 -0.005376489857591871 -0.006897087522948375 -0.005996433543134394 -0.005201985669251563 0.00022682865860623735
          0.0006433044043685499 -0.004573777231404286 -0.00300066970519719 -0.00011294538603445758 0.0009095253346691479 -0.004310671460465265
          -0.004164765454318875 -0.00101575266317111 -0.0003283287930937462 -0.0002165051911031668 -0.00031873335799481595 -0.00021377729928140354
          -0.00021984083299386725 -0.0003306386045087706 -0.0003626500820468337 -0.00042721726390126946 -0.0003603469352846389 -0.011938172710703299
          -0.009231446510665098 -0.008348349328286986 -0.012305256672464182 -0.0003959260983474877 -0.0013327663402762369 -0.002931955560022459
          -0.002190546999550236 -0.0037215641978818326 -0.0025884577319734703 -0.006171042096899004 -0.01042696983493041 -0.005612669948368065
          -0.0003300786482105522 0.00013051646475314982 -0.0005483849582255118 0.0003516196818589279 -0.008063770126654823 -0.006267901591411551
          0.00009366741563976433 -0.001240143325492049 -0.002416129642499598 0.0006317590992299671 0.0000010064680466825848 -0.0020188616599083886
          -0.002727702094279749 0.0003161949200558567 -0.006047227968237756 -0.007256570125759865 -0.007720752879730508 -0.004526697127872126
          -0.0040316943878950795 -0.007567200902997229 -0.0019309184143407876 -0.011288294892415784 -0.005116421963526463 -0.01098156184821164
          -0.001963397083351026 -0.0017801192188713344 -0.00539359903779868 -0.005460917645923047 -0.007937824430946705 -0.00688778721080574
          -0.00391584531325373 -0.004524514121909462 -0.0014338756825211796 -0.0019485794312013027 -0.0036810354187273298 -0.004748644037168681
          -0.0012784158553695857 -0.002939431934183556 -0.0007333881980304824 0.00021942618799386526 -0.0029164609296707944 -0.006004707267563525
          -0.0034278485531435976 -0.002612337429740541 -0.008082392477647193 -0.007104998867007772 -0.00629186520270153 -0.008200292949280596
          -0.0024174374192484915 -0.0009645943259508627 -0.0017002941990346132 -0.0011429268749489907 -0.0015122846090639408 -0.0018495880419422406
          -0.0011510259427289782 -0.003667345979788905 -0.007831183082107174 -0.0021383991721029005 -0.0025775822585218933 -0.0020635950538006043
          -0.002704469243638208 -0.0035291537772215165 -0.006024915531725128 -0.0009463979318899973 -0.0005214380805975694 -0.0014733065068357476
          -0.0008695148426243193 -0.00029734408741344254 -0.00415261524903876 -0.0036346127933866157 -0.0010708600939919322 -0.0035718930157564444
          -0.00014563662004274391 -0.00015697794720637148 -0.0006762608912413981 -0.000276286010872262 -0.00033591288389711593 -0.00234929466736844
          -0.00672034833835955 -0.005691398141994597 -0.008189711304707359 -0.004195460681663654 -0.0024722349746566508 -0.0008379041987049973
          -0.0001622467665685079 -0.00000854958770002412 -0.005869536324531133 -0.0090707494767166 -0.01464510812998121 -0.020678706615672837
          -0.023665029125460535 -0.017336134181320517 -0.016819615655350617 -0.00033653338628081286 -0.0000643658696075633 -0.0047685605056271285
          -0.00012725737492980116 -0.002416878834520908 -0.003104359958332914 -0.0003771345506735635 -0.002233847404074396 -0.001560379009875934
          -0.004861401947587218 -0.004920994011526236 -0.006809363518267553 -0.0017778406896153953 -0.0011741950862842465 -0.002188880967925577
          -0.0008387620534349161 -0.005955386051919476 -0.0031747768396237497 -0.007024634451184397 -0.0006543332920991851 0.00011834934906485017
          -0.00028089537140640886 -0.01456552820722834 -0.0035195409003192513 -0.001658609012793022 -0.005913034172121634 -0.01990236028859016
          -0.007636605436020072 -0.011158353551243394 -0.015550349355204496 -0.00009325732203269155 -0.002290873283024908 -0.0027555491035435864
          -0.00031215660563432834 -0.001415157069788897 -0.0055200171412206345 -0.004092952077781042 -0.002687415361303458 -0.013058390286374788
          -0.015435115659657939 -0.01606591485779596 -0.01604616473275211 -0.006461316872215406 0.0002915245432468794 0.0006713613908733151
          -0.014393804896512208 -0.0005446319282365053 -0.0018039249014956127 -0.014561641908527712 -0.012548764496520981 -0.008006455142349544
          -0.003462285745980509 -0.001967207966584006 -0.0017829869048702207 -0.0037579725422354215 -0.005630195153232265 -0.0037431320936960333
          -0.015259590573640569 -0.012022208759449704 -0.021976346975782768 -0.016399652064260195 -0.0147413316941587 -0.016082848997790222
          -0.009510092211421295 -0.010320697098442189 -0.0058384169042664524 -0.004934467226382466 -0.014180342738193907 -0.014281460241519994
          -0.00786629254202742 -0.0034744909558610537 -0.002364508696195866 -0.00924853007726223 -0.002226435317991604 -0.0055169866566391335
          -0.008241874241390335 -0.005468835003917594 -0.0009125931643371166 -0.0020759276261648196 -0.0075449637942064385 -0.018240482254863633
          -0.005538505277999373 -0.010426327707235394 -0.016234981300181417 -0.010094343053276056 -0.004760791486426719 -0.013124178292033939
          -0.009960217722291054 -0.006310802844908148 -0.01622965574669699 -0.002539639976657959 -0.003131992580578835 -0.0006711365153786453
          -0.0023857780803790973 -0.005098462609199217 -0.006960561283417821 -0.005434721956220301 -0.0037736064570017547 -0.003503400984143923
          -0.006079653320080425 -0.004736952354375212 -0.0046302026330327095 -0.0030105252780483482 -0.00713181666514906 -0.007046886401281149
          -0.003769192993324566 -0.001906290449579906 -0.0011202842834583393 -0.005502478899476554 -0.004106789800123245 -0.004726348542074377
          -0.003082031739821467 -0.010437909438884452 -0.009635092639589615 -0.009387636688678702 -0.004676973961753594 -0.012203427586731541
          -0.008875689426866451 -0.005457350165557706 -0.015051202749856607 -0.006162481817819754 -0.002595491571461328 -0.007558296142546772
          -0.001058381498668659 -0.0021245806464504913 -0.00014797500082508463 -0.0022927493167541613 -0.00020841777552504936 -0.002598186178548678
          -0.007364485221982214 -0.0017911150527857855 -0.005591223401195222 -0.013611582228446828 -0.01767285737461144 -0.027199738599160028
          -0.026824315592360648 -0.01538418295390187 -0.020152589356928985 -0.0020356160404797485 -0.0022371232188378443 -0.0021873813318595836
          -0.0010276308197982864 -0.0021961231875522458 -0.002321932617210365 -0.005905549131850041 -0.005254301264569605 -0.004561785874219737
          -0.004465017354735812 -0.0009911269922131538 -0.005158286830287295 -0.002323008195423748 0.0010067513870328781 -0.0030674084067614515
          -0.003977510845716958 -0.00197985628616415 -0.00329668789671711 -0.006923746651652074 -0.005351387128388119 -0.010161569581222274
          -0.006621561450504743 -0.002847206779428735 -0.00008114296405459243 -0.012118986795920605 -0.006908446190373674 -0.02103846871951731
          -0.026015722385416495 -0.010683864301461732 -0.0271166925769446 -0.01775517946188998 -0.012054771831188305 -0.01968287071697894
          -0.01521365752071091 -0.015122508620609043 -0.011364008385454483 -0.005634049390660145 -0.006842874481613137 -0.008353914058853107
          -0.008711453776025557 -0.00851234928415412 -0.011461993803365544 -0.0014688337940444995 -0.0022188761412724745 0.0001815056957958916
          -0.0015676472210701675 -0.0008146864663096665 -0.0026901754473644957 -0.002124554836445469 -0.0009741601416113355 -0.0007099171789199943
          -0.0004959790426513067 -0.001919355288471536 -0.0026679503992319553 -0.003142224723181375 -0.0005546186284681731 -0.0031547366845323666
          -0.00031115050170260616 -0.006193656605518072 -0.002965816908629737 -0.005131609225900835 -0.003548128571537301 -0.006773467200815286
          -0.004090573020266497 -0.011473224848622898 -0.002188261143781567 -0.006116632797213306 -0.0009942940005434053 -0.0041470776242098495
          -0.004326181930310646 -0.001619303084988033 -0.001613680069026735 -0.009022467284354185 -0.0007414210024885293 -0.012529677424709895
          -0.0032057560237541693 -0.0007452647388763722 -0.0019625164039451803 -0.008518533408635065 -0.000953662728804261 -0.012181040720105507
          -0.008080188378862374 -0.0011481238946928762 -0.010987060047053854 -0.016915555479446454 -0.009437619121289487 -0.023261390535787907
          -0.013142758200602067 -0.009369386921066702 -0.005294654959370426 -0.009266637142952616 -0.01077456518832598 -0.003335949131769933
          -0.0050587934633483655 -0.00666961841627256 -0.009820560616295104 -0.005608829697889561 -0.002819141103522327 -0.007122575486821603
          -0.006079875107535493 -0.0006900982154283142 -0.012428818468219305 -0.01393947930361783 -0.00398716845467284 -0.01099440877852853
          -0.005198319718401123 -0.002464653491593083 -0.002927470223582418 -0.0037290876056541578 -0.0030543003188601148 -0.002243250712137268
          -0.006069732472514744 -0.008163043206414144 -0.004667030536796624 -0.003967807442553095 -0.0039866224627340685 -0.001029073094789723
          -0.00045772463422366627 -0.0024936307562786197 -0.003048189900717091 -0.004757389761711472 -0.0017432421013241495 -0.002785062178485731
          -0.0022847971831621017 -0.004532425292333109 -0.000449754132298974 -0.005238600814293282 -0.004961872535006684 -0.005317689061774544
          -0.0067350144823654645 -0.00948209814893275 -0.0006974983237268972 -0.0027301419275875816 -0.020824794938796742 -0.0004245286772475154
          -0.010955422345016785 -0.01903343216465636 -0.009935087295171563 -0.003748850284600813 -0.004276026134202304 -0.010660503142384314
          -0.0047303350248704135 -0.0016566930896217968 -0.0028181685263071188 -0.006351503656182089 -0.0060723612056117204 -0.0006378598061669294
          -0.00030655933482925946 -0.012090546313695327 -0.009666062874364556 -0.007843290914408385 -0.004221557588197644 -0.002492088545758442
          -0.00013459912983515565 -0.002724869036611288 -0.0015864951864204002 -0.004213034171674401 0.00006176766595777927 -0.002016220644959432
          -0.008566055367844605 -0.007833865061502188 -0.003304069757723127 -0.003905105308277701 -0.0030070687103078697 -0.0033201659372363856
          -0.004557278784710128 -0.0013921260215141729 -0.00006245030081286629 0.00036308824318842525 -0.009109356711951122 -0.001944455561406322
          -0.0026818375847255105 -0.0014478892939671084 -0.008140351764868825 -0.00457224797440281 -0.007518827895990121 -0.005954272887667145
          -0.008416005541453941 -0.002596898532580383 -0.01244915975226224 -0.006557928148073877 -0.004054784242857323 -0.006458392296432969
          -0.0030397033882341162 -0.0038762068285214113 -0.0023236359700131715 -0.0027570092640782917 -0.004588906894087863 -0.0026809011615993583
          -0.008459330664351145 -0.0009811894989855685 -0.004194086487674387 -0.013349931496208 -0.0029464383375610304 -0.026845596136478633
          0.00011159238985314346 -0.01979675848616047 -0.006378708971857439 -0.00024747826578774834 -0.00041594382850007605 -0.00001022668279482275
          -0.0011811775227563714 -0.007575396138493673 -0.008214599002934975 -0.011540750083545603 -0.022816448182096494 -0.01879148172377576
          -0.005592094921840207 -0.0054491354583553475 -0.000675586152644847 -0.003046776122892947 -0.0014947234136668541 -0.00253644852234558
          -0.00029468881447147766 -0.005538918071760435 -0.008343846436831726 -0.0033546006050011457 -0.00019190270652380548 -0.006962091258517766
          -0.0050930394481030206 -0.0030944126321159615 -0.0060611390099003515 -0.011615636956040731 -0.0117434211533185 -0.00877070048184514
          -0.0029553867490257346 -0.0020737855452228615 -0.006370092651426518 -0.010422796171029702 -0.0026719111103741255 -0.004171513676624272
          -0.0018458889108909915 -0.012662093659249862 -0.0038766358564412684 -0.0012706789642100702 -0.002107940793132812 -0.0008371242786342492
          -0.000547500681402191 -0.00799435256139347 -0.007711231849071076 -0.0013231473433350516 -0.00008505062974606403 -0.008079100761209546
          -0.006709257973541938 0.0005198562425583475 -0.009850358443091789 -0.0018886290273743 -0.0012643765155653242 -0.007099667820829048
          -0.009564101061719121 -0.0072201396235511694 -0.009622776968098101 -0.010902277270922411 -0.018422740425744877 -0.010584755635407284
          -0.0016511032237129797 -0.0032579995587047605 -0.0007423214861628225 -0.001904875912283721 -0.007769902486966629 -0.006739406789231239
          -0.008121935494066257 -0.001424217767856284 -0.010304176226784811 -0.006163095965546539 -0.004221092507298074 -0.0028139659569248465
          -0.008530343418584607 0.0008340843176382062 -0.011585181810888967 -0.006374768358003102 -0.001716330454614834 -0.0025761892692068855
          -0.006560153207709085 -0.008649215709352731 -0.008187084874355932 -0.009642134033615246 -0.002162670914776399 -0.003600396014157403
          -0.0013562913166706991 -0.0035646219103648846 -0.000607027849765629 -0.0006455825570226281 -0.0015047406598815982 -0.00014626846611420774
          -0.0034146395802689966 -0.007019204462554995 -0.004221767837540469 -0.006320153941578255 -0.00024038368736256643 -0.003896552617026927
          -0.006570801436478035 -0.006941832710904983 0.0002650006726510057 -0.004574386688127596 -0.005775173197091199 -0.0068836817019226615
          -0.008248758422777946 -0.0021037324554917802 -0.006736055356317827 -0.00900302910377393 -0.0072521255110284955 -0.00910045065316023
          -0.0007404989907593418 -0.0004943607348248946 -0.005404919885152459 -0.008177637711596297 -0.0013370721714327516 -0.0069942442708206265
          -0.008270821964245556 -0.009120894460071582 -0.0021901119588925155 -0.005807335912341394 -0.00978495901448806 -0.012399509726035873
          -0.009072956070432348 -0.0034288916134737057 -0.00647435979809341 -0.011462482242831307 -0.01425545722429078 -0.01015808754753511
          -0.01623876481664377 -0.021362022542806614 -0.009695563314130684 -0.019919919339576708 -0.026126942707062284 -0.016719849559061473
          -0.006811458181931407 -0.0030831742702317477 -0.0027693225222407136 -0.01432964328653874 -0.019732548540409844 -0.01331753751905218
          -0.01372352512130215 -0.016701409638068654 -0.002845854820053173 -0.004471300596273764 -0.00672733051300245 -0.010579558936537836
          -0.011778512542979236 -0.02191202057960595 -0.007944068177223151 -0.01559901284639409 -0.01451184429870267 -0.023969243596742018
          -0.02353945325008766 -0.012258514692700118 -0.01288146929378442 -0.016932185009593148 -0.024413444155646502 -0.013375158807563459
          -0.014371060556268134 -0.01368574508975584 -0.011910884625459417 -0.010582472200765025 -0.012422891953374204 -0.006609230424277968
          -0.006518713165682755 -0.01699882119462437 -0.014482821945168922 -0.029197997389989183 -0.008418666393368746 -0.017168906060568645
          -0.015473525804196697 -0.01553844803033222 -0.008465585784116492 -0.01860473394597495 -0.02386623130069232 -0.010576838469397387
        </DataArray>
        <DataArray type="Float64" Name="resid_y" format="ascii" RangeMin="-0.9780053737442224" RangeMax="1.0847014990225774">
          0.00024976222049019614 -0.00022435552349939214 0.00007620795742366293 -0.000734995250940923 0.0019900859688906647 0.0009712837053562628
          0.0032286414487460446 0.0014497566461260658 0.005858715600584985 0.006494747260228584 0.007001473997093485 0.005891448961002965
          0.0034830032770077693 0.00045703334063740275 0.000014674866126690445 -0.00042240596897780147 0.0075916622857836406 0.0018879402551136015
          0.0005687917053208424 0.002531867960657186 0.008644624492059959 0.004012224753681987 0.00431081095027902 0.006171720227708066
          0.009628234209664632 0.005060444581229312 0.011786832405918102 0.010071443267497204 0.00803464166448914 0.006654955000392246
          -0.0014046028396607901 -0.000185036886246083 0.00021472294065061348 -0.0022531064214859065 -0.0022763657917972344 0.0007516938433335396
          0.0014387161985891517 -0.0049015072676602545 0.00034148404188661524 0.0017936250591333927 0.0016450302027434804 -0.0011116766028424485
          -0.0005585031689413211 -0.0012247961292741472 0.001123486358536721 0.0020443570524368987 0.004045777487612451 0.004478565546520374
          0.00014831442962674746 -0.000028614072215604747 0.0034850317711420664 0.001748436976080469 0.00037310869478272835 0.0006938678508547347
          0.008541157655657883 0.003607846396196948 0.001008780194894754 0.0011511186858645384 0.005013110337603599 0.0021548617387378427
          -0.0003127503287905786 -0.00005731464122421537 -0.00038805048141421494 -0.0004005825005138075 -0.00045683712920047137 0.0003504285242719729
          0.00018602922747884554 0.00028441955880945113 0.0009887480319377695 0.0012567671938844005 0.0015883970008220283 0.0015758649945651904
          0.0020900679514641585 0.004084790067613346 0.0024190985072123916 0.0038759840797644575 0.004256315532703225 0.004885460515899952
          -0.00038280115223504607 -0.0002770058611162307 -0.00013148501960080772 -0.00035674867004970023 -0.0006698135405307781 -0.0002965498413147749
          0.00010352601639906922 -0.0005835818624382871 0.0000074914662974712165 0.00006699436578871953 0.00037179061118197687 0.00032711990146783165
          -0.0010937862541268162 0.008725470300877808 0.006723853252903297 -0.00036684164992786816 0.005552243334492002 0.005609899553941672
          0.004920541733377193 0.00588792987919548 0.004261018159387522 -0.00004713336286504832 -0.00014428958310312018 -0.00028217672665355187
          0.00004128719186879959 -0.000058479304702291346 -0.00016958430158170966 -0.0005783713861521739 -0.00004047776897680988 0.0003979319142471127
          0.00033858522412517564 0.0005278020518073578 0.0003957598579844429 -0.00024249992947758536 -0.0003916398130433679 -0.0005631968783640084
          -0.00047661071860918836 -0.0000045384488056854355 0.00011194061639337172 0.00008378583685933472 0.00010477961891160181 0.0013129125128090169
          0.0021309697117009863 0.0022927937237622875 0.0014296653876048199 0.0022371076858193617 0.002484010472228626 0.00254423346209158
          0.001070939373641465 -0.00008867105576132461 0.0004723974032029843 0.000652714618086192 -0.00007126390595491028 0.0024141353144004896
          0.001172422522164339 0.0015772113679776711 0.003488157637161371 0.00124430862398886 0.0036802875418490352 0.0002891845897607659
          0.0028742133059079383 0.0009794193501597714 0.00221507192562298 0.000801047098474228 0.001974991117285607 0.00038161493126404045
          0.000025895855641444587 0.0017505348135237742 0.0013994279130654652 0.0005633950355570239 0.00015760652256036067 0.0020141415142976293
          0.0015043064916971938 0.0008427801643566268 0.001335387849679126 -0.00032847824188653174 -0.0000270812692654554 -0.00018276173738879242
          -0.00038430231237540635 -0.0005675898871686513 -0.0003060814394193756 -0.0003738094955248461 -0.0007637333318861739 -0.0001647346183208942
          -0.000023860422137117476 -0.000016575359735232498 -0.0002055150391070959 0.000026537696961842494 0.002137901103276496 0.0001831122222969439
          0.0009756839040395981 0.00073437085842043 0.0032923158994931506 0.0023150163158454223 0.0030789570757922546 0.0031938689865906797
          -0.4569315409737482 -0.4246078440874408 -0.9780053737442224 -0.8930170486224316 -0.5994683174046588 -0.6343063022141595
          -0.00019535386411209665 -0.0006963419417275879 0.00018613851577328755 -0.0006104799261884147 -0.00008886787738482393 -0.0007016205650250684
          0.0015662501362302822 0.0005195813930956375 0.005010514347724315 0.003385734485554334 0.004186262385625361 0.003397916219172306
          0.001425491197326545 0.00598580310956616 -0.0005857298738354277 0.006498385551058271 0.0011075810413607723 0.003911516101197651
          0.0008742652506560367 0.000004735287114088216 0.0007647292403304418 0.00012824161050006833 0.0011094024374208866 0.0011621844766691591
          0.002632139856531504 0.001823919658026557 0.0017673870898933935 0.0007295876792498546 0.0031845154906832707 0.004009342142285877
          0.0015893429212842786 0.0017635471706480277 0.000005490929860185734 0.0002662628664235611 0.0006085167502916794 0.0038689526716134404
          0.0017349955447142906 0.002806113677819577 0.0022691875344430096 0.003940908218738659 0.0037186822464380653 0.004266191059873081
          0.000004930302655803409 -0.00025513221844691847 0.0007037377990234406 0.0014844099851035186 0.002925028944924968 0.0030180975213175976
          0.00012228417911402945 0.0005757444596875549 0.000761931965693019 0.0023825689657129695 0.00300215603329701 0.0013384800214828046
          0.001699183401368376 0.0025150260257138513 0.003502242697312613 -0.00011534317987101084 0.0007953998588368927 0.0003614313669052932
          -0.0006162394388749826 0.0005260187551562184 0.00012577183121612046 0.0007857618716793757 0.0016419065440899383 0.0013805053211010943
          -0.0003426859425129658 -0.000460365291116982 -0.00016173913828598785 -0.0006186273907746731 -0.000802474964398725 -0.00020930562425280907
          0.00009586941282380135 0.0002861237077118606 0.00023938270915968562 0.0025521488293004935 0.0016406544021629887 0.0024147642387715718
          -0.46734649642388476 -0.9519642489761428 -0.5933599046029923 0.00022694525499619006 0.00623110634061725 0.0017472261446663112
          0.005479138357238872 0.004147402880856105 0.005072823570844431 0.000370916088525991 -0.0010037056067351002 0.00042366243538161097
          0.00011698447128033473 0.0027775623678539807 0.0030992532420317798 -0.00007672366424377186 -0.0003051562419187359 0.004510315775705931
          0.0025480873237658797 0.002481503755567438 0.006079406827996403 0.001362007033884366 0.001982037153359567 0.00011682874537038979
          0.0005029764918078605 0.001834982214152181 0.0017621563390442518 0.005876411427877287 0.0029314366836971084 -0.00030534205135301917
          -0.000026425771268101528 0.012532529533148179 0.007118034089915404 -0.0004402997730262037 0.0013020946114138954 0.010861494617428413
          0.006094969215501914 0.004304942871486778 0.004686900126941951 3.670456586446491e-7 0.0023508331843744568 0.005022500081054815
          0.0016689502070913464 0.00023103759775461308 0.001330232160457634 0.004160582049987871 0.0036912905261633766 0.004378235302530675
          0.0040017156269787635 0.00655053944585407 0.00793529118632083 -0.00023977068547813285 -0.0001102433721260343 0.000330739804693031
          0.000989390188804229 0.0009501462546019912 0.003603034311962225 0.003372344081532974 0.006109524740620514 0.005247452532922026
          0.002409459976109418 0.000938131760818306 0.0016731176594113606 0.001956364417667479 0.0026878315966161193 0.002067614215613328
          0.00999539461151848 0.00844581884415993 0.014940173270982293 0.014686078644728096 0.008459045482244396 0.010706498667989436
          0.008810350824395574 0.007930329403528502 0.004712296867692839 0.004216476756362525 0.0059841867630887335 0.006270538502942707
          0.005363380599840144 0.0021967700485192726 0.002450098012260187 0.0024620366767707513 -0.00022552411948056905 0.0010105545806648186
          0.002427504810850606 0.001568412101008887 0.0012460249327350542 0.0008281793683440342 0.004442915101824457 0.0066369689759114
          0.0038727863749110115 0.0056964928352897515 0.008564674068270328 0.0034378331595891626 0.0028952713204106473 0.006214967489600362
          0.004835309404401425 0.002556390163686126 0.006164635906802149 0.0009127182369629283 0.001436999233242836 0.0017754396455497146
          0.003252942881782739 0.0046883408748942534 0.005322420514817072 0.0031961482523529816 0.0014791943398539398 0.004011243110697227
          0.00034715774088736606 0.0002935666375623869 0.0018081943527703814 0.0035473728400899907 0.005074288163935181 0.005905213156296246
          0.0021897084534932276 0.0012001607455642271 0.0017661833801286275 0.003653806943991672 0.004304628671017052 0.002293760057182674
          0.0027218442466693804 0.00406193641550983 0.003927427346664625 0.004743470044512935 0.0013099012369754415 0.004347790146345419
          0.004602223508192227 0.002087939614055623 0.0056242840097674995 0.003478745381168241 0.0013089140250875653 0.0034074832680065503
          0.001277256034681734 0.002449207921630475 0.000005572790740759892 0.0008661785294962476 0.002139413963960779 0.0025960514064631013
          0.0037031956899706564 0.0015869055918590058 0.004007638875717312 0.00377509032164583 0.009497944191013921 0.00738690592183644
          0.010298219294585458 0.00405158997385438 0.005375378059647849 0.000922322963379768 0.00250295658549729 0.0013889124049331347
          0.0007586692347625046 0.0016435860918345702 0.0006478430667244961 0.0006323359717759769 0.001043965043341727 0.0003796094878661116
          -0.0014311251248364798 -0.00021955265576761862 0.00030732687554535856 -0.000798478050060003 0.0007572592393189637 0.0006477431054982066
          0.0011965297011936327 0.0017766735754516372 0.0015502970569106073 0.009294459209627237 0.007292469642985688 0.013540865500928367
          0.010790970611631812 0.007058778534362653 0.005694629321113642 0.00448111197237136 0.002626668070492749 0.0037275345706545004
          0.009079498415268478 0.006939548414240604 0.009590165319301028 0.0070533807020623784 0.00652188077663278 0.009909354155376186
          0.005277311342946733 0.00490154719252512 0.009343617642774485 0.00124296316634738 0.0049644170368091795 0.0028343873080789936
          0.008608790428300761 0.011996042304795979 0.006903349337119141 0.4778635662223963 0.37562460471510495 0.9695333687444705
          0.7617364660730467 0.5331861319601598 0.4373295818076305 0.14732371193329635 -0.043740440538150904 0.3104154871140744
          -0.06775100601406789 0.24537721636508902 0.05951963473060026 0.00028152219697179237 0.0008860262853655418 -0.00033773037443367293
          -0.00040219083444573145 0.0014457478286869219 0.0009202420853283155 0.0032866513342943438 0.0014648228960594534 0.0020078146157767596
          0.5384582724357109 -0.00017785267804611843 1.0847014990225774 0.0009415419870892963 0.5508935464884233 0.001646928864732139
          0.5133422997199688 1.0267929059677223 0.4661405401196449 0.004492697164592885 0.0015238927232619076 0.004595123984300092
          0.4336123742988532 0.8473839585632708 0.2903722886369539 0.00395075925470767 0.00024333948179257325 0.003583315101458706
          0.005226849867160689 0.0004828522760885485 0.0029934676984446976 -0.0025894716639610904 0.5584431373394838 -0.003376111239910773
          1.0581036984243932 -0.0009334940487746579 0.31205303952549385 0.005978131010450555 0.008352997911246676 0.001790811039858009
          0.0025521750320194186 0.0025550808842688677 0.0030607671614827914 0.003133397214534317 0.0010801981903071356 0.003528529498060373
          0.00552170442158062 0.0023425080768914586 0.0062621210470281685 0.008681582648824307 0.0023786008521234914 0.003542859359254774
          0.00320984937040536 0.0009813380869315158 0.0015159759622666025 0.002499291833860995 0.0012651803478135326 0.00256106244284815
          0.00823347826667642 0.0123731701443337 0.008332073096032233 0.002110034044508602 0.0024369301337877902 0.00043235753308018543
          0.0005954859037818616 0.0017115829708552188 0.0027438686922588995 0.001624458185728525 -0.0006611511313129176 0.0013413031685403781
          0.0006105071957577743 0.0009332111600795952 -0.0008527562814197448 0.0012008942340882012 0.0003690785478839276 0.0013140876595252177
          0.0032153145529491 0.0018958416169075343 -0.00011144616557315357 0.0009117277783118327 0.0068394354139649505 0.0015027518164724696
          0.006104599855477011 0.008354826119918946 0.005613723559560246 0.00806987495172018 0.009531206445514778 0.006486313027638052
          0.0022615647197257865 0.0006511618611619169 0.0011424737532708777 0.004145543660310169 0.003000883541822548 -0.0006677740783461866
          0.0002666105717092429 0.0019377601234843722 0.002978874099529981 0.0030267006918548445 0.002422333094391216 0.0010774468492750003
          0.000326771861109576 0.0006586135042980085 0.0006724831763829098 0.0019322462555721454 0.00011861598658111094 0.001390727633848704
          0.0020633258995443604 0.0013087005511923655 -0.0004048832948506942 0.0005711767567165571 0.0010023083287210854 0.001109314177585502
          0.0016008687765729224 0.0002492277688412592 0.00011920960198895728 -0.00024752015227255675 0.0048463408959606435 0.0016492632272997049
          0.0019394679272926665 0.002834214959201914 0.0057101735435034495 0.0034964475498085457 0.004791150905857008 0.005217075239962576
          0.005147886005371832 0.0008900575155403601 0.004963271952921733 0.004734981208508626 0.0027941137612109146 0.004438675523433466
          0.0008879680665029865 0.001426509281412476 0.0000996462644820284 0.0008254328119903856 0.0007962594549966173 0.0011855894039179068
          0.002619838816117187 -0.0002051732295377806 0.0027216043723135575 0.0008189426036129543 0.0027086999680030685 0.0011492198471043102
          0.0004992208839652498 0.003448103128705124 0.0028567441563702063 0.0004278267567072169 -0.00012830337544827985 -0.00008362202656531093
          -0.0005592576959505546 0.00013987688435340706 -0.00005348491676282485 0.007551933253684362 0.013305378787379862 0.008004528952126971
          0.0027576727606402063 0.0015085464819283856 0.0007731536845921594 0.001773873397850817 0.0013682702199150354 0.0012719348078420456
          0.00034839740511397044 0.0010311664351683736 0.004462366449646538 0.0020733306022738818 0.0009292602734929656 0.0018958532772797854
          0.004105174900766118 0.005409893160138984 0.003697522842560169 0.004515056392352362 0.006436581178610137 0.006795445112963899
          0.0007070620025418362 -0.0005304217530046895 0.0007269987338150152 0.00447473380849471 0.0010488935738588862 0.0019996388625804704
          0.0013909652278268347 0.006432956833214806 0.0021750244648832823 -0.00020363818092128394 0.00008154577170371713 -0.00046985192089760153
          -0.000796086188994849 0.0007677783129625415 0.0003346503405852741 0.0002225869340584108 -0.00023578811726954196 0.0001792160488993111
          0.0036410066341878433 0.00030876799566549595 0.003174037873088398 0.0006535206480536293 -0.0003758560444624415 0.0004672621301961555
          0.006635199571300654 0.006608344606313585 0.0061404018927284365 0.01026686484632 0.014673894283815714 0.008133527238989802
          0.0009187211224082059 0.0013905491325004737 0.00011265185397940636 -0.000013146674241015788 0.00039398338741358785 0.0008781324837376925
          0.007199922966222877 0.0015542103039285493 0.004592047939296934 0.0038196094172170403 0.0018369397798195797 0.0022417105452544606
          0.005165102809138185 0.0030667487919553912 0.006187734295415831 0.0014627078341095286 -0.0005055938837410234 0.00037707468258406374
          0.0064148423351158695 0.007597035167238031 0.005905679490285892 0.0031750303024282445 0.0011133716364207513 0.001884363349938828
          -0.11685625695713348 0.00041034112667248657 -0.18765841519948523 -0.21100284814312853 -0.00004083736466248267 -0.3550337091713737
          -0.03427739159167836 0.00027963757406929135 -0.13521072781940696 0.004448584023420632 0.00010880810419333642 0.002024700874791674
          0.005460159917594479 0.003333032957580369 -0.000040020745714255956 0.00003699257655048749 0.0015483498257351097 0.0007892848185746676
          0.004000549252968555 -0.001298756742146856 0.002316258283319106 0.008354839181864165 0.008441353576870203 0.005972940116876838
          -0.33916807361668627 -0.6728682751414856 -0.3571231203105013 0.005770221681028066 -0.0009102606655046058 0.002276476840477673
          0.004811262762502627 0.003496947670458328 0.0009011350766033321 0.0013596983677305052 0.0042278977283841945 0.004762952438586682
          0.008515478685910986 0.006765556477790771 0.005622188683877594 0.006886926895736027 0.009005945811359804 0.00573103103223342
          -0.0006843132884293973 -0.001675125227124194 -0.0009139771607279412 0.005005420126983941 -0.0008148981305050873 0.0013482047365172417
          0.0006608428975578562 0.0005464334853056141 0.0005387629749504796 0.007883647323078335 0.010530196242636042 0.005941964397294719
          0.004424171526541287 0.0045851776417705215 -0.0007690029055852296 -0.0000908388199815785 0.0008799462280451587 0.0017588050678870454
          0.0033545170463365553 0.004696023788068594 0.0015417423522390977 0.004145992108812141 0.005866627212494424 0.006935768599581775
          0.010050297399208874 0.0032735483418836198 0.004846019739862623 0.007901752952478434 0.01028722345555419 0.006145465539057676
          0.006568444624268088 0.005673214135118121 0.004091858852607988 0.008580388879106227 0.01302788345370487 0.006172894852390809
          0.46296836880065884 -0.006672170067388093 0.9033993255101066 -0.010000687634203087 0.35491930173099906 -0.0021287344999285918
          0.005370279698745751 0.007879428728932582 0.004049097678977192 -0.0058241333046002985 -0.012040365430578293 -0.004521924050157278
        </DataArray>
        <DataArray type="Float64" Name="resid_z" format="ascii" RangeMin="0" RangeMax="0">
          0 0 0 0 0 0
          0 0 0 0 0 0
          0 0 0 0 0 0
          0 0 0 0 0 0
          0 0 0 0 0 0
          0 0 0 0 0 0
          0 0 0 0 0 0
          0 0 0 0 0 0
          0 0 0 0 0 0
          0 0 0 0 0 0
          0 0 0 0 0 0
          0 0 0 0 0 0
          0 0 0 0 0 0
          0 0 0 0 0 0
          0 0 0 0 0 0
          0 0 0 0 0 0
          0 0 0 0 0 0
          0 0 0 0 0 0
          0 0 0 0 0 0
          0 0 0 0 0 0
          0 0 0 0 0 0
          0 0 0 0 0 0
          0 0 0 0 0 0
          0 0 0 0 0 0
          0 0 0 0 0 0
          0 0 0 0 0 0
          0 0 0 0 0 0
          0 0 0 0 0 0
          0 0 0 0 0 0
          0 0 0 0 0 0
          0 0 0 0 0 0
          0 0 0 0 0 0
          0 0 0 0 0 0
          0 0 0 0 0 0
          0 0 0 0 0 0
          0 0 0 0 0 0
          0 0 0 0 0 0
          0 0 0 0 0 0
          0 0 0 0 0 0
          0 0 0 0 0 0
          0 0 0 0 0 0
          0 0 0 0 0 0
          0 0 0 0 0 0
          0 0 0 0 0 0
          0 0 0 0 0 0
          0 0 0 0 0 0
          0 0 0 0 0 0
          0 0 0 0 0 0
          0 0 0 0 0 0
          0 0 0 0 0 0
          0 0 0 0 0 0
          0 0 0 0 0 0
          0 0 0 0 0 0
          0 0 0 0 0 0
          0 0 0 0 0 0
          0 0 0 0 0 0
          0 0 0 0 0 0
          0 0 0 0 0 0
          0 0 0 0 0 0
          0 0 0 0 0 0
          0 0 0 0 0 0
          0 0 0 0 0 0
          0 0 0 0 0 0
          0 0 0 0 0 0
          0 0 0 0 0 0
          0 0 0 0 0 0
          0 0 0 0 0 0
          0 0 0 0 0 0
          0 0 0 0 0 0
          0 0 0 0 0 0
          0 0 0 0 0 0
          0 0 0 0 0 0
          0 0 0 0 0 0
          0 0 0 0 0 0
          0 0 0 0 0 0
          0 0 0 0 0 0
          0 0 0 0 0 0
          0 0 0 0 0 0
          0 0 0 0 0 0
          0 0 0 0 0 0
          0 0 0 0 0 0
          0 0 0 0 0 0
          0 0 0 0 0 0
          0 0 0 0 0 0
          0 0 0 0 0 0
          0 0 0 0 0 0
          0 0 0 0 0 0
          0 0 0 0 0 0
          0 0 0 0 0 0
          0 0 0 0 0 0
          0 0 0 0 0 0
          0 0 0 0 0 0
          0 0 0 0 0 0
          0 0 0 0 0 0
          0 0 0 0 0 0
          0 0 0 0 0 0
          0 0 0 0 0 0
          0 0 0 0 0 0
          0 0 0 0 0 0
          0 0 0 0 0 0
          0 0 0 0 0 0
          0 0 0 0 0 0
          0 0 0 0 0 0
          0 0 0 0 0 0
          0 0 0 0 0 0
          0 0 0 0 0 0
          0 0 0 0 0 0
          0 0 0 0 0 0
          0 0 0 0 0 0
          0 0 0 0 0 0
          0 0 0 0 0 0
          0 0 0 0 0 0
          0 0 0 0 0 0
          0 0 0 0 0 0
          0 0 0 0 0 0
          0 0 0 0 0 0
          0 0 0 0 0 0
          0 0 0 0 0 0
          0 0 0 0 0 0
          0 0 0 0 0 0
          0 0 0 0 0 0
          0 0 0 0 0 0
          0 0 0 0 0 0
          0 0 0 0 0 0
          0 0 0 0 0 0
          0 0 0 0 0 0
          0 0 0 0 0 0
          0 0 0 0 0 0
          0 0 0 0 0 0
        </DataArray>
        <DataArray type="Float64" Name="stress_zz" format="ascii" RangeMin="-5316173.850796827" RangeMax="5192497.265960899">
          -1292629.0914195185 -571023.6635426609 -1011888.0914568837 -2012489.8695774036 -1376313.2953567381 -642486.8861009746
          -1035565.5607505171 -2018401.5156173827 -1459997.499293958 -713950.1086592884 -1059243.0300441505 -2024313.1616573618
          321914.56049784087 69136.03548386844 282989.3438586732 816997.428996987 331446.26308463817 18387.72877275754
          257786.7125723982 823836.7738687779 340977.9656714356 -32360.577938353425 232584.08128612326 830676.1187405689
          -1029423.2010080309 -581916.834083956 -1085641.2701607833 -543856.4861519889 -1141859.3393135355 -505796.1382200216
          -1742684.4978679018 -323259.6179333859 -421624.2980147485 -2949728.0549771283 -1703499.9396690223 -305364.05584508413
          -603215.8264864201 -3216558.2498059417 -1664315.3814701429 -287468.4937567824 -784807.3549580917 -3483388.444634754
          801106.1518708381 1963049.9660783233 755416.8113501802 1916719.289130636 709727.4708295224 1870388.612182949
          1877993.4046179869 3766366.3442289424 3671630.380434574 1293149.4700506544 1915609.027301663 4032276.3081069277
          3599697.6628449573 1063388.8983989917 1953224.6499853395 4298186.271984913 3527764.9452553405 833628.3267473285
          2054086.3416565736 2300726.6913320757 1497867.46577989 1760259.6094386317 2159362.8202965544 2285880.5482191583
          1597987.8389240594 1915048.5756059187 2264639.298936535 2271034.4051062404 1698108.2120682285 2069837.541773205
          -2946306.475967315 -1842028.2744279245 -2965000.1377980094 -1919811.7604302145 -2983693.7996287043 -1997595.2464325042
          -1046362.8059086632 1681464.5556313116 3616514.015776774 2006421.9503679299 -1099871.7683402067 1746177.5555237809
          3512759.271698205 1960295.6722012176 -1153380.73077175 1810890.55541625 3409004.527619636 1914169.394034505
          1012415.9599298203 1097834.1777728635 2122634.6801783172 972266.053262827 1041373.3021340187 2240179.4286689833
          932116.1465958338 984912.4264951742 2357724.1771596493 2876417.8768565264 2434820.5747201014 1378185.666772388
          2863484.3572740974 2788902.966553411 2475473.174588346 1460972.2220405291 2724805.882758226 2701388.056250295
          2516125.7744565904 1543758.7773086703 2586127.408242355 241341.95852231383 354177.2337380389 1031456.9671064583
          631334.7226137058 171522.86713041115 457096.905654257 1129098.0691000132 575286.9619766782 101703.77573850843
          560016.577570475 1226739.1710935682 519239.2013396508 210026.4301043491 301569.3578624687 393112.2856205883
          2107400.18628613 3214648.8430007 1695493.356640237 2132964.9472364825 3274631.8747097543 1833332.0321458182
          2158529.7081868355 3334614.906418808 1971170.7076513998 939328.9306016559 411674.2382896803 874093.884929908
          511570.77073424956 808858.8392581603 611467.3031788188 875210.6978425909 1757379.9789699188 2566488.3001433406
          2425870.10488484 892496.2202782033 1788914.1916432134 2561061.348525633 2438640.2391180377 909781.7427138158
          1820448.4043165077 2555634.396907926 2451410.373351236 -1582137.358553069 -4082660.498586308 -4803298.785037301
          -3891614.1190903513 -1720301.5146651906 -4272826.451456118 -4938366.182102792 -4083130.9298396474 -1858465.670777312
          -4462992.404325927 -5073433.579168284 -4274647.7405889435 3821878.591161852 2153455.53159381 3636609.6250281297
          3858430.341196797 2191297.0024487833 3701301.630415128 3894982.091231742 2229138.4733037557 3765993.6358021265
          -3711747.1140980814 1991773.0265832688 -3636220.3199676983 2018297.9218052055 -3560693.5258373152 2044822.8170271423
          336183.125684499 1250192.8322095503 -819932.528431264 -846823.2198492158 299769.8906275196 1284046.7580277992
          -827578.9171251187 -979077.9079872807 263356.65557054 1317900.6838460476 -835225.3058189733 -1111332.5961253461
          2673330.0758273466 1785243.4523019635 2673591.063005653 1863880.6995430426 2673852.0501839593 1942517.9467841215
          19941.786437090894 -461236.55675970984 100223.00490605077 -424730.48444846383 180504.22337501065 -388224.41213721794
          1030366.263936731 1563520.3999118381 955933.0810376005 1601323.071269492 881499.89813847 1639125.7426271457
          -2275759.022531025 -3198440.252137348 -3429569.546861207 -2164646.613475363 -2322185.6047808025 -3252146.9252869054
          -3423145.494443229 -2122996.923174347 -2368612.1870305804 -3305853.598436462 -3416721.4420252508 -2081347.2328733306
          1900611.2565434126 -2320043.4731749636 1915631.121403113 -2713082.970941897 1930650.9862628137 -3106122.46870883
          -594637.3137646351 -561651.1826672703 -528665.0515699054 1708977.7821339413 2336399.558622485 1738791.2420486554
          2348324.752803886 1768604.701963369 2360249.9469852867 642793.9871118906 1014536.5332364785 408586.36453883804
          638837.3595387787 984523.301460569 315553.2948326756 634880.7319656666 954510.0696846598 222520.22512651322
          -1551819.3040717542 -1145176.356580606 -1979666.2285076517 -1511858.717864943 -1060597.1339988017 -1949560.2558492515
          -1471898.1316581322 -976017.9114169974 -1919454.2831908516 2852787.451061339 3110651.968803906 3368516.4865464736
          3399387.445726392 3647388.9575448153 3895390.469363239 361650.12154122535 613700.3252416791 301906.17997668154
          614076.7789289106 242162.23841213778 614453.232616142 -333705.1738237705 -202153.42693119915 -70601.68003862794
          -2089150.7715128313 1204564.2077466543 67966.70223636873 -2108549.898946327 1282599.8363687936 17262.500969322777
          -2127949.0263798228 1360635.4649909332 -33441.700297723175 -464157.8712116971 509167.2317591689 -617944.9025815991
          377795.0255644431 -771731.933951501 246422.81936971738 -1008429.1625639573 -913969.5995497499 -1308148.2631401708
          -1316757.121994683 -1073292.2027859972 -930583.1995801752 -1340182.3240565988 -1378225.4375954606 -1138155.2430080366
          -947196.7996106005 -1372216.3849730268 -1439693.7531962378 484985.4022423435 -448498.3147545567 -283551.4528475919
          616794.2228321919 453861.87572946365 -435351.82730537676 -294605.37347487913 549653.7647237063 422738.34921658377
          -422205.33985619695 -305659.2941021665 482513.3066152206 1503588.1974170532 554145.998524117 121667.44923604808
          1545597.801189215 544304.3890667844 55756.37004869469 1587607.4049613767 534462.7796094518 -10154.70913865875
          2838770.3140645367 2872161.083300997 2905551.8525374574 794058.9560165686 678847.1633226518 563635.3706287349
          -498011.2609253465 -1053925.3016730677 -457178.5004957041 -985846.0375614921 -416345.74006606184 -917766.7734499164
          -577539.0971446484 -684097.6029629048 -576271.0073155457 -647935.9404451684 -575002.917486443 -611774.277927432
          3974316.7469521007 4080340.126687827 4186363.506423553 43415.14464457126 -585455.7769578127 697716.8408080877
          979859.0822007488 85482.46446607313 -645695.6691105805 679350.3731276924 1050673.2010363468 127549.78428757489
          -705935.5612633483 660983.905447297 1121487.3198719453 -421255.99805957277 -469259.7242842279 -517263.450508883
          -181626.69359066157 -140916.54714473465 -100206.40069880779 -1923400.0971761448 -3636798.0579642635 -1930939.374814766
          -3698827.636544213 -1938478.6524533867 -3760857.2151241624 -652652.2823379148 -689250.5680929525 -725848.8538479899
          -3953483.0538474396 -2550252.908934971 -3941809.9733918607 -2485581.830341627 -3930136.892936283 -2420910.7517482834
          -3884933.980263378 -4600553.915530102 -5316173.850796827 -1097862.9500771156 -977874.200839457 -1064339.302303285
          -931031.679483264 -1030815.654529455 -884189.1581270709 -804266.4109412797 -802183.8728795091 -800101.3348177386
          546922.5058771529 536607.3167616957 526292.1276462383 -1022124.7993318756 -997361.3036152455 -972597.8078986157
          -2912940.3419767837 -1851277.402145427 -3322890.6653315667 -2174969.9556072187 -3732840.98868635 -2498662.50906901
          102693.07813909074 159000.0116147677 215306.94509044464 -2677220.0781328855 -604059.7856665107 -2839556.553379319
          -628045.3269724475 -3001893.028625753 -652030.8682783842 3714098.8372691944 1557577.2441098443 2270257.435451194
          3647660.8419777914 1416166.0745047883 2064998.0913192257 3581222.8466863884 1274754.9048997322 1859738.747187258
          1948938.143757584 1858355.9198782514 2062371.5277490062 1958303.981442657 1832114.2141430806 2029006.8443255695
          1967669.8191277303 1805872.5084079097 1995642.160902133 2037375.0881551178 3918656.27373197 2086475.587435666
          4089019.668290764 2135576.086716214 4259383.062849558 677865.8643094797 718057.6685781472 329469.3940094239
          741367.4186202027 720132.0703247023 325086.09132569307 804868.9729309257 722206.4720712574 320702.7886419621
          -733173.6497517754 337936.751858738 -776810.4352079581 383790.6968124579 -820447.2206641407 429644.64176617784
          40083.20201087229 34800.668093681634 29518.13417649099 1250802.4718195167 1976504.328790125 1212281.7919637624
          1998015.1885089441 1173761.1121080075 2019526.0482277633 2482240.49694293 2153365.349960962 2456611.1165130967
          2038877.2207889915 2430981.7360832626 1924389.0916170215 -243566.5969933269 249314.09102848882 -442900.1647984731
          113688.69224676903 -642233.7326036193 -21936.706534950878 -835736.3991432479 -771418.5050983905 -707100.6110535334
          1206075.1613775268 671326.92926156 1270319.1584158493 686032.6245450458 1334563.1554541718 700738.3198285316
          1454146.5892519276 1549256.7800874626 1644366.9709229975 723980.1173425696 794020.6078194715 864061.0982963735
          1983618.135252091 2068471.4498856268 2153324.7645191625 1153915.9465689976 1273002.0588924587 1392088.1712159202
          -50646.41830585309 -15458.647863453825 19729.122578945506 -1487932.9832031033 1890803.8900561368 -1629499.1441975506
          2207120.3639206714 -1771065.3051919977 2523436.837785206 -84709.74960141726 -376982.66782135604 -105508.4564152888
          -360787.89874449454 -126307.16322916036 -344593.1296676331 -3420164.9215194937 -3454098.123255275 -3488031.324991057
          98957.32907658245 114269.81682873992 129582.30458089743 -447595.6837792225 -432651.9317304823 -417708.17968174204
          1855344.324214153 1833014.8145761364 1810685.3049381203 851378.6882122497 1243733.0628743067 1636087.437536364
          -951451.1351271421 -959219.3366400178 -966987.538152894 2439777.416905481 1945334.709030059 2461181.187260032
          2011391.2549879937 2482584.9576145834 2077447.8009459283 1792962.168568675 1812620.3153746717 1832278.4621806685
          937218.5352784367 1086331.4184948036 915914.9215909562 921863.3353879714 894611.3079034754 757395.2522811393
          748829.1117733739 441638.36610866163 521027.50517758064 710215.4664535541 446276.05039875 495532.8718077096
          671601.8211337342 450913.7346888384 470038.2384378386 248050.528418406 222764.42693489668 197478.32545138738
          1620370.5791719144 1653805.644142983 1687240.7091140512 771255.9289017727 1735366.2133420277 768868.4773558426
          1788316.92594401 766481.0258099125 1841267.6385459923 2268201.316576376 2938153.183463702 2298943.2826506817
          2963251.5502070226 2329685.2487249873 2988349.916950343 3684731.8392152353 3763983.849992154 3843235.860769074
          3160587.196805032 4325321.559135766 3125661.046271574 4431956.74975027 3090734.895738116 4538591.940364773
          -3773577.9819927597 1463174.8635715973 -2024269.3967278488 -3969419.35456443 -3853963.9870819794 1823400.2506215568
          -1994270.2437056752 -3903363.157473807 -3934349.9921712 2183625.637671517 -1964271.090683502 -3837306.9603831843
          -1036901.6977554894 -976949.9692202543 -916998.2406850191 -1660556.2773530143 -1602801.7186204377 -1545047.1598878615
          -374683.3611525892 -26495.171596026514 -482504.49100341904 -203082.82475281085 -590325.620854249 -379670.47790959507
          603349.6686326116 630154.234031087 656958.7994295626 104438.81708593346 278815.22006182984 172017.08624562202
          159651.71971438132 239595.3554053106 40488.21936693284 -2389260.0862336927 -3118802.3412400195 -2391187.022108889
          -3171040.3092022436 -2393113.9579840857 -3223278.2771644676 554888.7051432178 613335.2342272012 671781.7633111846
          3463642.5253102523 4737880.691350136 3596571.2053587 4965188.978655518 3729499.885407147 5192497.265960899
          -3761896.5909360545 -3111156.004297628 -2261457.7172107287 -2988245.7877892894 -3768638.06046531 -3049308.958108745
          -2210005.167943395 -3048491.2867281465 -3775379.5299945655 -2987461.911919862 -2158552.6186760617 -3108736.7856670036
          -211134.9670094815 -226140.38899973722 -241145.81098999293 -2548515.4132815446 -3819503.0491435 -2564591.4164943798
          -3714528.3933750517 -2580667.419707215 -3609553.7376066037 259089.2961455273 3236447.2018307196 235526.8895901754
          3414915.9614655212 211964.48303482356 3593384.721100323 3397042.9592391243 3494121.6231117533 3591200.2869843813
          1788762.8851367112 1788063.1577158973 1787363.430295083 -543243.1834644738 -596679.2953743471 -650115.4072842207
          -1493422.4202175143 -1573113.5444601278 -1652804.6687027416 -3320930.0313738454 -3422683.186168109 -3524436.340962373
          -1365392.5378775822 327577.2180011508 -1403120.4908464698 231072.08243249136 -1440848.4438153573 134566.94686383195
          -1529487.9203548282 -1589460.7831150873 -1649433.6458753461 2636826.1053839773 3285572.4149203426 3934318.7244567075
          1107225.346248441 1078533.3952933445 1049841.4443382483 1213716.527408462 1174494.3254960903 1135272.1235837187
          -3692229.2861146196 -3703613.224536956 -3714997.162959291 2077588.5898550635 2101952.416138595 2126316.2424221262
          2952349.551013152 2894529.4839186203 4060330.173625044 2900784.3022432355 2910411.932623548 4073652.261155235
          2849219.053473318 2926294.381328476 4086974.3486854266 1426278.9200796806 1790966.1779257893 2155653.4357718984
          378626.62047144 1303265.0410391034 220078.59979474687 1087181.1977760035 61530.57911805367 871097.3545129034
          -3118906.509007912 -3189215.8423223323 -3259525.1756367525 -3605364.7965374384 -3583786.105703076 -3562207.4148687124
          4333758.983054228 4286232.312355453 4238705.641656679 -3298044.6113197156 -3251683.5937494673 -3205322.5761792185
          -278815.99582229106 181881.37906768837 -224643.94374574392 209604.63389701655 -170471.89166919683 237327.88872634474
          -4291891.1312470175 -4300469.426022197 -4309047.720797377 -1790712.514315283 -1888189.8764481065 -1985667.2385809296
          -4177094.446690013 -4697422.508296311 -5217750.56990261 173133.94517671823 195596.31470754615 218058.6842383742
          914708.9856679983 912353.9613764253 909998.9370848524 2579743.9276416996 2808870.31491618 3037996.7021906613
          1238224.8743165645 905501.7817952619 1111466.9487267556 883414.3018634049 984709.0231369463 861326.821931548
          -1062753.3110683826 -1148674.9808393982 -1234596.6506104139 -1308826.3478210287 -338312.7031786915 -1335362.143994715
          -366650.9192768534 -1361897.9401684017 -394989.1353750153 501811.65357863775 473743.77635961707 445675.89914059656
          182559.17324072248 147500.19841308222 112441.22358544182 -1371142.5880792583 -1459555.2778052767 -1547967.967531295
          -547226.7010560674 -2216106.0759711466 -365796.504746099 -2135990.525075073 -184366.30843613064 -2055874.9741789997
          -1183171.9250381936 -1172601.424428581 -1162030.9238189687 -2011576.1283783866 -2106052.186702188 -2200528.2450259896
        </DataArray>
        <DataArray type="Float64" Name="peeq" format="ascii" RangeMin="0.0009424557387787857" RangeMax="0.007160047251410558">
          0.0031447028363840107 0.0030234093152723624 0.002593387631725865 0.0027869471602413767 0.003144145642016609 0.003022756743641304
          0.002593392101353825 0.002787211476560114 0.0031435884476492077 0.0030221041720102466 0.002593396570981784 0.0027874757928788517
          0.004529749433352595 0.004333586582184072 0.004414570895619564 0.004640921110345356 0.004528698890014624 0.004333373796469846
          0.004414807551901685 0.004640632517193503 0.004527648346676655 0.004333161010755621 0.004415044208183804 0.004640343924041648
          0.0016782809233139035 0.002018899745703902 0.0016785152089244444 0.0020195841669828673 0.0016787494945349852 0.002020268588261832
          0.005819814238097876 0.005932533942731193 0.005333261516977547 0.005369384080057214 0.00581977974336885 0.005931583858110927
          0.00533150677400786 0.005366959453222643 0.0058197452486398234 0.00593063377349066 0.005329752031038173 0.0053645348263880715
          0.004565553757398852 0.004822848719319827 0.004566891987047339 0.004823431197450405 0.004568230216695826 0.004824013675580984
          0.004257756057001005 0.0040604010308825135 0.004143856107060413 0.00439137140054057 0.004256076023468754 0.004061495538566504
          0.00414079135480714 0.0043839739712920635 0.004254395989936501 0.004062590046250494 0.004137726602553866 0.004376576542043557
          0.0056842874011502256 0.006168869734417522 0.005847703682386686 0.005443048918901614 0.005682664431011266 0.006164037164397811
          0.005844695972534101 0.005442517842907404 0.005681041460872307 0.0061592045943780985 0.005841688262681513 0.005441986766913191
          0.0029788008994961084 0.0032618567181318878 0.0029797410831148285 0.0032618083476816727 0.0029806812667335482 0.0032617599772314576
          0.003963134762520019 0.0036974218926101483 0.00472514673973125 0.004825241358089725 0.0039592714747749055 0.0036946320229177348
          0.004721587727537342 0.0048222898555316885 0.003955408187029792 0.003691842153225321 0.004718028715343434 0.004819338352973653
          0.0035442725399798887 0.0036508019194744683 0.003984109259788649 0.0035429758940196112 0.0036495303989548516 0.003983420963884942
          0.0035416792480593333 0.003648258878435235 0.003982732667981235 0.006811655952126424 0.007083422959371984 0.006942860525268685
          0.006708864275494191 0.006804333305467113 0.007077448198359525 0.006936157394939692 0.006701154356253683 0.006797010658807801
          0.007071473437347067 0.0069294542646107 0.006693444437013174 0.004793018024981558 0.0050176780257533 0.004696074339522015
          0.004640285562488593 0.004791932999985784 0.005017790239100309 0.00469681757601113 0.004639859296639347 0.004790847974990011
          0.005017902452447319 0.004697560812500246 0.0046394330307901015 0.005598699512907503 0.0055990015663502785 0.005599303619793054
          0.004286086652870939 0.004089763094245093 0.003927862170059874 0.004285553326000393 0.004089547442912889 0.0039289099659636905
          0.004285019999129846 0.0040893317915806845 0.003929957761867506 0.004890438844165171 0.005265320023850961 0.0048885067325078555
          0.005264989274500495 0.00488657462085054 0.00526465852515003 0.006277351973463565 0.00597180446764785 0.0062810456894129615
          0.006641832511506636 0.006277712956308551 0.005973113670120338 0.006281416225325861 0.006640744740814372 0.0062780739391535365
          0.0059744228725928245 0.006281786761238761 0.006639656970122109 0.002657985141536237 0.003082564018344474 0.002302306397831946
          0.0016707260728779962 0.0026564948007213288 0.003079171800235493 0.002301200356490069 0.001674307116252945 0.00265500445990642
          0.003075779582126512 0.002300094315148192 0.0016778881596278938 0.005302369983269486 0.0050566131464047405 0.005033597171243827
          0.005304005298070287 0.005057320661192884 0.005035603995494585 0.005305640612871086 0.0050580281759810275 0.0050376108197453424
          0.0011820977424650146 0.002441534397624395 0.0011891659911522944 0.002440891968404827 0.0011962342398395742 0.002440249539185258
          0.00455154351524044 0.004683636044014465 0.00517141243356873 0.005310101437879161 0.004549113782538502 0.004682767287140848
          0.005169241167950386 0.005304950570058362 0.004546684049836566 0.0046818985302672315 0.005167069902332042 0.005299799702237562
          0.005626149712166329 0.005321726567296004 0.005627884342112652 0.00532248665127728 0.005629618972058976 0.005323246735258555
          0.0038374804257618046 0.004129148527618967 0.003832894865159325 0.004123481115110348 0.0038283093045568452 0.0041178137026017326
          0.005447828913321021 0.00483243603511974 0.005443842807121796 0.004831520787164252 0.005439856700922571 0.004830605539208763
          0.0033471108841300634 0.0031207760216797483 0.0031074336179219664 0.0034235099198603397 0.0033481799817470913 0.0031224284111084524
          0.0031097355873869947 0.00342568793371932 0.003349249079364119 0.0031240808005371565 0.003112037556852023 0.0034278659475783
          0.0037217319168222577 0.0035270639200451993 0.003721969473379781 0.0035260020781899036 0.0037222070299373043 0.003524940236334607
          0.0034891587780082464 0.0034850089198379206 0.003480859061667594 0.0043276354915446884 0.0041482912559371015 0.004329199192362262
          0.004149368726013049 0.004330762893179835 0.004150446196088997 0.004368164588737526 0.004359311991545892 0.004372375026518861
          0.0043661945561802315 0.004357531493095706 0.004367452597539526 0.0043642245236229366 0.00435575099464552 0.004362530168560191
          0.0036995820224149907 0.003938041969670507 0.003108318161982616 0.0036962913762165683 0.0039357587313620795 0.0031046674569157507
          0.003693000730018146 0.003933475493053653 0.003101016751848885 0.003717742013061581 0.0037206654847176113 0.003723588956373641
          0.0035653658918073927 0.003563008009609149 0.003560650127410905 0.004676559716516348 0.004779451510538617 0.004673592416083095
          0.004775784798925495 0.0046706251156498416 0.004772118087312373 0.0041588545589922015 0.004156857164752097 0.004154859770511994
          0.0032330569162366696 0.0036003282216741806 0.0038536286203681575 0.003235540943029119 0.0036033160795156493 0.003853411148168893
          0.003238024969821568 0.003606303937357117 0.0038531936759696288 0.0058185734938351295 0.00599526516131021 0.0058116263402086255
          0.005988550758144233 0.005804679186582122 0.005981836354978257 0.0016344975107147378 0.0013833727458747334 0.0014054493731613645
          0.0017573631264006068 0.0016347235326210651 0.0013843340477047103 0.001406948303213047 0.0017579236315979918 0.0016349495545273918
          0.001385295349534687 0.0014084472332647293 0.0017584841367953765 0.0027685488212702727 0.002281961363323741 0.0024228605594051418
          0.0029009534378249798 0.0027684594917360195 0.0022825018072639737 0.0024229836120311134 0.0029003814286204578 0.002768370162201767
          0.0022830422512042066 0.002423106664657085 0.002899809419415937 0.004454224215012419 0.004179417026321397 0.004514015415129349
          0.004452549254853301 0.004178231994648854 0.004511730974024272 0.004450874294694184 0.004177046962976311 0.004509446532919193
          0.004239872880834148 0.0042398142363546075 0.004239755591875066 0.00435228413701391 0.004344429894614895 0.00433657565221588
          0.001171601352019619 0.0010776715868824368 0.0011737956341276376 0.0010803616352151216 0.0011759899162356563 0.001083051683547806
          0.0018381913950545744 0.002164635088121082 0.0018391923748619023 0.0021655092897440065 0.0018401933546692301 0.002166383491366931
          0.003972966530830054 0.003974690503079421 0.003976414475328788 0.003516903458100617 0.003782404827730996 0.0037215407568552176
          0.003329521318628404 0.0035176323499443002 0.0037827357702743592 0.0037210006332932806 0.0033294125973010683 0.0035183612417879844
          0.003783066712817723 0.003720460509731344 0.0033293038759737324 0.004115317294315891 0.004114459383840269 0.0041136014733646475
          0.0035294113705461806 0.0035300789537084827 0.0035307465368707843 0.0039349685444663544 0.0034789641242531557 0.0039351860732732575
          0.003479064565212973 0.0039354036020801605 0.00347916500617279 0.003068423636415545 0.003072245695767399 0.0030760677551192528
          0.003205124797582828 0.0035813167866421167 0.003206781169705017 0.003583578414628347 0.003208437541827206 0.0035858400426145767
          0.003118109478007195 0.0031181324722377632 0.0031181554664683315 0.0036733033213156257 0.0037640612585449736 0.0036741509951110215
          0.0037658162818620224 0.003674998668906417 0.003767571305179071 0.0036020852795194203 0.0036024450322775115 0.0036028047850356027
          0.003236268568760303 0.0032354831347664076 0.003234697700772513 0.003934422505801765 0.003936995125052895 0.0039395677443040235
          0.0027609970242869005 0.0032112905911372024 0.0027610949616305815 0.0032113051661349533 0.0027611928989742626 0.0032113197411327036
          0.004282169373379626 0.004283875577656397 0.004285581781933168 0.004707008553589534 0.004632337963054416 0.004704749967644479
          0.0046307897937359396 0.004702491381699424 0.004629241624417463 0.006242288726918038 0.006505083819490589 0.006213380475251385
          0.006237167380533309 0.006498012146602908 0.006208884101442874 0.006232046034148582 0.006490940473715225 0.006204387727634361
          0.0070765042202353455 0.006876298106015154 0.006827386741736112 0.00707246128684184 0.006874166531156172 0.0068242775048489605
          0.007068418353448333 0.006872034956297189 0.006821168267961809 0.0028238886858115253 0.003527196675430872 0.0028263476816752626
          0.0035303122666601504 0.0028288066775390003 0.003533427857889429 0.004652115212138852 0.004596788151456706 0.0045428119969499366
          0.004650340064464834 0.004594234604674402 0.004541040047099446 0.004648564916790816 0.004591681057892097 0.004539268097248956
          0.004999241707466009 0.004813373758547788 0.004997650547549239 0.004812839834325769 0.0049960593876324675 0.004812305910103749
          0.0024009033045732753 0.0024013365294298936 0.0024017697542865115 0.006948193993148418 0.007160047251410558 0.006945764622603918
          0.007156401555108089 0.006943335252059419 0.007152755858805618 0.007130763206952584 0.006851311534744348 0.007125202578925925
          0.006844321382844704 0.007119641950899265 0.00683733123094506 0.006181637585977742 0.006424349817728868 0.006173942379864734
          0.00641630404732047 0.006166247173751728 0.006408258276912072 0.00556476782649834 0.00556209188955004 0.00555941595260174
          0.006533377408838305 0.006473097587031377 0.006531988891594136 0.006472316240148374 0.006530600374349967 0.0064715348932653715
          0.005952131792636551 0.005950338373183303 0.005948544953730056 0.003997400213513408 0.003997969346485327 0.003998538479457245
          0.005272379399688383 0.005270599383091075 0.005268819366493767 0.003932517207384314 0.0039338617832447706 0.0039352063591052274
          0.003966973606358497 0.003967759451561246 0.003968545296763997 0.004709251626944008 0.004562723529112402 0.004710482912360481
          0.0045648918622246465 0.004711714197776954 0.00456706019533689 0.004267715671460502 0.004107891100618909 0.004269933342280951
          0.004109098612659311 0.004272151013101399 0.0041103061246997126 0.0029456484158438875 0.00294707392045231 0.0029484994250607317
          0.0026359219313277504 0.0026363390158933024 0.002636756100458854 0.004022566037096961 0.004023150218012814 0.004023734398928666
          0.004435536862428713 0.00443559350746618 0.004435650152503646 0.0024145846228832446 0.0024200740079809387 0.0024255633930786334
          0.0021237435305017384 0.0021258480397190966 0.0021279525489364542 0.005542004477148525 0.005003077142908109 0.0055416923340985726
          0.005005075898656661 0.005541380191048621 0.005007074654405213 0.006067524222606639 0.006064796173004035 0.00606206812340143
          0.006683227411044301 0.0063877918948991195 0.006675380218282599 0.006379727393870175 0.006667533025520896 0.006371662892841229
          0.003115220462949316 0.003405998339636687 0.0029670531589127097 0.0031143898599299033 0.0034051456265162486 0.002966728938708393
          0.0031135592569104904 0.0034042929133958105 0.002966404718504077 0.002809749073614015 0.0028101133422898513 0.0028104776109656882
          0.006523318626593279 0.006518713175859879 0.006514107725126478 0.004297236236536575 0.004295865331412579 0.0042971656975631265
          0.004295626208237033 0.004297095158589678 0.004295387085061489 0.006470256729632723 0.006029874158376448 0.006468854814699874
          0.0060303765848116935 0.006467452899767025 0.006030879011246937 0.005567388109388914 0.0055696097352981 0.005571831361207285
          0.005874992491636515 0.005487743672526811 0.0058766800717781585 0.005490376138354819 0.005878367651919802 0.005493008604182826
          0.0014772467749658686 0.001734850431725179 0.001557138327807797 0.0012791560679182975 0.0014821246568385677 0.0017415327873525153
          0.0015621304778726253 0.0012844887542712347 0.001487002538711267 0.0017482151429798515 0.0015671226279374536 0.0012898214406241724
          0.0019776036758272085 0.001978862882869438 0.001980122089911668 0.002647184083540286 0.002652346824494418 0.002657509565448549
          0.004491499676689306 0.0045278898156313864 0.004489424101622473 0.004526146445463384 0.00448734852655564 0.004524403075295382
          0.00455580634519092 0.004558655483170531 0.00456150462115014 0.0047401374638916674 0.004666888699213468 0.0047379698024842855
          0.004663102252433672 0.004735802141076903 0.004659315805653875 0.0034315180021875172 0.002722481315362369 0.0034273724074569776
          0.002719604881835809 0.003423226812726438 0.002716728448309249 0.003232699315444415 0.0032329171127350505 0.0032331349100256854
          0.005138433674257325 0.005214722375646471 0.005141783792044757 0.005217890055358999 0.005145133909832188 0.005221057735071526
          0.00235977398513008 0.002500875269059622 0.0022073309071460757 0.0019699079852194233 0.002361305376414286 0.0025024052388823497
          0.002208753382329245 0.001971568453951911 0.002362836767698492 0.002503935208705077 0.0022101758575124135 0.001973228922684399
          0.004427212927834883 0.004424571847597613 0.004421930767360343 0.0015871902721703423 0.001277964952321017 0.0015894899597055866
          0.001281931072771688 0.0015917896472408314 0.0012858971932223587 0.004911106885418837 0.005589846292570687 0.004908538113840909
          0.005587627141115628 0.004905969342262982 0.005585407989660572 0.005612877856802671 0.0056090925500527295 0.005605307243302788
          0.004377250234879259 0.004375415807036671 0.004373581379194082 0.004336967666950365 0.004333388878131984 0.004329810089313606
          0.0019467950800952747 0.001950340992270512 0.0019538869044457494 0.0012419459938370905 0.0012448975025259605 0.0012478490112148302
          0.004189438312803093 0.00493792113307145 0.00418514248166677 0.004935519708270823 0.004180846650530447 0.004933118283470196
          0.0014611272843620972 0.0014629116857010453 0.0014646960870399934 0.0020520855372475042 0.0020569622382138465 0.0020618389391801896
          0.004539177216196765 0.004536027222337462 0.004532877228478158 0.006841975533172418 0.006836479263169641 0.006830982993166863
          0.001103411418052252 0.001107013124060736 0.0011106148300692202 0.004798482112526053 0.004801329797182257 0.004804177481838458
          0.006353032841381232 0.0063138704590598735 0.00562740597259514 0.00634712481339034 0.006308125535986776 0.005622863663527582
          0.006341216785399449 0.006302380612913678 0.005618321354460025 0.0021252710167629354 0.002132156796965497 0.0021390425771680597
          0.0046928392243000844 0.0045777209234386254 0.0046884404631144195 0.004573754466014261 0.004684041701928755 0.004569788008589897
          0.0024133673785740406 0.0024159651625051065 0.0024185629464361725 0.002806244723567124 0.00280809380842471 0.0028099428932822964
          0.004675445431786781 0.004671549629796389 0.004667653827805998 0.0011920576887205793 0.0011954961090211373 0.0011989345293216957
          0.002074778928328886 0.0025088964413475996 0.0020756650082304914 0.0025095201323142124 0.0020765510881320965 0.002510143823280825
          0.002788449406925582 0.0027899434046916934 0.002791437402457804 0.0009424557387787857 0.0009444592907985311 0.0009464628428182767
          0.00496111838110102 0.004959658321515847 0.004958198261930675 0.004795156036609844 0.004792066851216724 0.0047889776658236035
          0.007003870190145267 0.006998436135519083 0.006993002080892899 0.004226014393069396 0.0042252883947751 0.004224562396480805
          0.004536596624067241 0.004499425452721393 0.004533543675720935 0.004497605298336239 0.00453049072737463 0.004495785143951086
          0.005120172674040503 0.005117424173027024 0.005114675672013544 0.004445161092100398 0.004440895284505757 0.004445380078741554
          0.0044400094122239485 0.004445599065382708 0.004439123539942139 0.004542038568202598 0.004540465759793727 0.004538892951384857
          0.0043585187225168055 0.004358010151769199 0.004357501581021591 0.004645464788616474 0.004644212536593265 0.004642960284570054
          0.003962480026930063 0.004043067090674484 0.003966760909640628 0.004047444119903841 0.003971041792351194 0.004051821149133199
          0.00442531930923909 0.004426907306926021 0.004428495304612952 0.004634165817823661 0.004634449458368793 0.004634733098913924
        </DataArray>
        <DataArray type="Float64" Name="pe11" format="ascii" RangeMin="0.000942151859063054" RangeMax="0.007157983567363952">
          0.0031440931400475726 0.0030229069437287133 0.0025928414432148505 0.0027860768198529036 0.0031435195874887135 0.0030222448941071593
          0.0025928332634987533 0.0027863123078209207 0.003142946034929853 0.0030215828444856057 0.0025928250837826566 0.0027865477957889385
          0.004528674866081625 0.004332324667185696 0.004412109455170387 0.00463845839168108 0.004527588225326957 0.00433206065485199
          0.004412281204841989 0.004638116128843004 0.004526501584572289 0.004331796642518286 0.004412452954513592 0.004637773866004929
          0.0016780919242143 0.002018687506689567 0.0016783204677822663 0.0020193653799808 0.0016785490113502325 0.0020200432532720327
          0.005815074978207546 0.005927769121296626 0.00532922134137621 0.0053656283317266695 0.0058149179334024215 0.0059267023540525345
          0.005327419031693514 0.005363065057425604 0.005814760888597296 0.005925635586808442 0.0053256167220108175 0.0053605017831245385
          0.004561272145645175 0.0048185970591779785 0.004562546022187198 0.0048191239488241935 0.004563819898729221 0.004819650838470408
          0.004255778461482717 0.004057392451351351 0.004141215473763536 0.0043905373360809555 0.004254054944016134 0.004058473485267081
          0.00413810798833171 0.004383072159555917 0.004252331426549552 0.00405955451918281 0.004135000502899884 0.004375606983030878
          0.005682613281634592 0.006166478819884378 0.005844646853157387 0.00544137028316834 0.005681016547615525 0.006161652098098492
          0.005841686563808178 0.005440887973564388 0.005679419813596457 0.006156825376312607 0.005838726274458968 0.005440405663960435
          0.0029773447467046324 0.0032608615687967314 0.0029782288947672922 0.003260780899156695 0.0029791130428299508 0.0032607002295166575
          0.003960107944930768 0.0036942563938527607 0.0047230423050941776 0.004823474364138782 0.0039562759599299675 0.0036914512286011997
          0.004719495801204403 0.004820543987769986 0.003952443974929166 0.003688646063349639 0.004715949297314627 0.00481761361140119
          0.003543907644855592 0.003650391113915354 0.003983582733605568 0.0035426170155169676 0.003649124113728903 0.003982893423639198
          0.003541326386178343 0.0036478571135424524 0.0039822041136728294 0.00681104224060463 0.007082348928867246 0.006941046794400338
          0.006707562593617791 0.006803729183119381 0.00707633205725711 0.006934306309550367 0.0066998453435034465 0.006796416125634132
          0.007070315185646974 0.006927565824700396 0.006692128093389102 0.004791736539213601 0.005014705453232647 0.004692199165522432
          0.004638533582262433 0.004790691691207796 0.005014881934067729 0.004693022683972617 0.004638140591553318 0.004789646843201992
          0.005015058414902809 0.004693846202422802 0.004637747600844204 0.005593723426256143 0.005593941851386112 0.005594160276516081
          0.004283930256359818 0.004086464677773107 0.00392386866011017 0.004283357540541258 0.0040862311986732385 0.003924877364672443
          0.0042827848247226985 0.004085997719573369 0.003925886069234715 0.0048895638374285965 0.0052633333215 0.004887656740787907
          0.0052630489461892825 0.004885749644147218 0.005262764570878565 0.006271943706506244 0.005965761515420964 0.006274720669173521
          0.006636482413725358 0.006272196572643646 0.005966995047589901 0.006275012146048797 0.006635296038314732 0.006272449438781049
          0.005968228579758839 0.006275303622924073 0.006634109662904107 0.002654509185787614 0.0030788134478902567 0.0022980706479940032
          0.001667656008002147 0.0026529916416162275 0.0030754353217605085 0.002296871692800625 0.001671147935695664 0.0026514740974448417
          0.0030720571956307607 0.0022956727376072465 0.0016746398633891804 0.0052961006225752325 0.0050521777061659535 0.005027430183873789
          0.0052976877892818 0.005052841197060969 0.00502939189717611 0.005299274955988368 0.005053504687955984 0.005031353610478431
          0.0011804173799904373 0.002438690998079687 0.001187408703655887 0.0024379645244368003 0.0011944000273213364 0.0024372380507939138
          0.004543690490967384 0.004677781398614837 0.005166366624155668 0.005302532632822448 0.004541226720290925 0.004676979966851384
          0.005164258794768389 0.005297386159239133 0.004538762949614462 0.004676178535087929 0.005162150965381109 0.0052922396856558175
          0.005619839690789974 0.005317046681505651 0.005621516109561792 0.005317760215952576 0.00562319252833361 0.005318473750399498
          0.003835525345992426 0.004127946661801532 0.0038308535059910923 0.004122221918447108 0.0038261816659897587 0.004116497175092684
          0.005439160579956133 0.004823883041346314 0.005435097746356651 0.004822872385006458 0.00543103491275717 0.004821861728666602
          0.0033452451131704888 0.003118708183503198 0.0031039558016209188 0.0034199356237044317 0.0033462584407167426 0.0031202835291098204
          0.0031061485523912226 0.0034220283948548594 0.0033472717682629964 0.0031218588747164446 0.0031083413031615277 0.0034241211660052877
          0.003715874887912746 0.0035202369985181912 0.0037161728857603247 0.0035191123204558494 0.003716470883607904 0.0035179876423935084
          0.0034864325715379596 0.003482175625801838 0.003477918680065716 0.004323167269394311 0.004142078751348916 0.004324835507056065
          0.004143251070642035 0.004326503744717818 0.004144423389935157 0.004367295949038583 0.004357830558342785 0.004371516542016511
          0.004365301966273322 0.004356021255704475 0.004366526683031309 0.004363307983508059 0.004354211953066165 0.0043615368240461075
          0.0036972382525945193 0.0039364239573130835 0.003104980178708308 0.003693887904407536 0.003934072583800624 0.003101218931092114
          0.0036905375562205534 0.003931721210288166 0.0030974576834759205 0.0037126694728468303 0.003715612024101128 0.0037185545753554254
          0.0035625209681880085 0.003560100035231481 0.003557679102274954 0.00467609245393916 0.004779017168450414 0.004673133925581536
          0.004775355520077664 0.004670175397223912 0.004771693871704915 0.004157882539433353 0.004155835116426282 0.004153787693419211
          0.003225445927405133 0.0035934301370106176 0.003846135028373952 0.0032280050984003178 0.003596575205372404 0.0038459266478127903
          0.0032305642693955033 0.0035997202737341892 0.0038457182672516285 0.005812762921999547 0.005988648798139507 0.005805846211793782
          0.0059818948980041205 0.005798929501588017 0.005975140997868734 0.0016342697516685504 0.0013831762636182245 0.0014052691225473883
          0.0017571028953533912 0.0016344896104905145 0.0013841359854302813 0.0014067656075339345 0.0017576543432045177 0.0016347094693124787
          0.0013850957072423379 0.0014082620925204808 0.0017582057910556443 0.0027681434546043353 0.0022816044998469715 0.002422452805694551
          0.0029004747605280014 0.002768052531931668 0.002282140415074834 0.0024225702423326936 0.002899896539699279 0.0027679616092590002
          0.002282676330302696 0.0024226876789708368 0.002899318318870557 0.004453655868807199 0.0041788676042143705 0.004513556456111398
          0.004451980231800105 0.004177683306618891 0.004511270682322498 0.004450304594793011 0.004176499009023412 0.0045089849085336
          0.0042369710180618 0.004236951101856906 0.004236931185652012 0.004351726586508451 0.004343799553140777 0.0043358725197731015
          0.0011713848536469358 0.0010775121063917154 0.0011735768434022625 0.0010802051808823988 0.0011757688331575896 0.0010828982553730824
          0.0018379055488771082 0.002164308901018497 0.0018388981102934227 0.0021651756387971073 0.0018398906717097372 0.0021660423765757176
          0.0039681125668288905 0.003969959890242455 0.003971807213656019 0.003516360909259023 0.003781841810158462 0.0037210224338191187
          0.0033290113101177962 0.003517080542791016 0.003782168900025678 0.0037204817411045296 0.0033288942520692697 0.0035178001763230076
          0.003782495989892894 0.0037199410483899405 0.0033287771940207437 0.0041148002299344535 0.004113940989195053 0.004113081748455653
          0.003528818399461813 0.0035294753225898587 0.0035301322457179044 0.00392768218732526 0.0034715667157277008 0.003927802237555195
          0.003471578054113735 0.003927922287785131 0.0034715893924997694 0.0030611869977333955 0.0030651447989059476 0.0030691026000784997
          0.0031995708777940142 0.003575501296622788 0.003201094335442016 0.0035776547730755203 0.0032026177930900186 0.0035798082495282525
          0.0031107730916357743 0.003110758555556153 0.003110744019476532 0.003671692667287138 0.0037609545547217524 0.0036725096407020747
          0.0037626555380184308 0.0036733266141170118 0.0037643565213151095 0.003601178983644342 0.003601522882473672 0.003601866781303002
          0.0032358725485709342 0.003235087371761482 0.00323430219495203 0.003929068396364914 0.003931565220756467 0.003934062045148019
          0.0027527028426032746 0.0032035150827044506 0.0027527078530907288 0.0032034852271472466 0.0027527128635781825 0.003203455371590042
          0.004275253971381703 0.0042768755780079005 0.004278497184634098 0.004705267087243861 0.0046309304448914025 0.004702928469819385
          0.004629330479830522 0.00470058985239491 0.004627730514769642 0.006240907883278574 0.006503175091078547 0.006211530496086844
          0.006235800448168028 0.006496085964099829 0.006207038490112146 0.006230693013057482 0.0064889968371211115 0.006202546484137446
          0.007073803252577853 0.006872092330744243 0.006822769331478379 0.0070696735696136855 0.00686983089336089 0.006819582594074161
          0.00706554388664952 0.006867569455977539 0.006816395856669943 0.0028152247484659466 0.0035206103547323194 0.0028177719612093614
          0.0035237898055033206 0.0028203191739527766 0.003526969256274322 0.004651324790287137 0.004596291183269518 0.00454203102146467
          0.004649542789294719 0.004593729838065801 0.004540249582922704 0.004647760788302303 0.004591168492862084 0.004538468144380738
          0.004996474791777508 0.004810799519650905 0.004994819001510416 0.004810218400363522 0.004993163211243325 0.004809637281076138
          0.0024006415283031927 0.0024010645688415976 0.002401487609380002 0.006944554196474566 0.007157983567363952 0.006941974774224433
          0.007154230051262709 0.0069393953519743 0.007150476535161467 0.00712998660582773 0.006850884331183571 0.007124381577567315
          0.0068439139582298445 0.007118776549306901 0.006836943585276117 0.0061774471673680525 0.006419424205143809 0.006169761241263357
          0.006411352553251888 0.00616207531515866 0.006403280901359967 0.005560789698086141 0.005558177265270992 0.005555564832455841
          0.0065283395096839385 0.006468102356988609 0.006526799490682288 0.006467181985592965 0.006525259471680637 0.006466261614197319
          0.00594688949381182 0.005944993885887257 0.005943098277962694 0.003996859026093682 0.003997421892426941 0.003997984758760199
          0.005267311522314935 0.005265559821073608 0.0052638081198322795 0.003931904997219868 0.003933236358496413 0.003934567719772958
          0.003966154829971826 0.003966921224997917 0.003967687620024009 0.0047050641736158015 0.004557468603886178 0.004706329584706763
          0.004559796207457922 0.004707594995797725 0.004562123811029665 0.004263127518796162 0.004105300310517399 0.004265280670244365
          0.004106454870912056 0.004267433821692569 0.0041076094313067125 0.0029390748922509804 0.002940442812774053 0.0029418107332971257
          0.002635567325060652 0.0026359823709680343 0.002636397416875417 0.004021235126834347 0.004021784102331907 0.004022333077829468
          0.004433255365738371 0.004433352842106673 0.004433450318474975 0.0024076295891717987 0.002413181630029664 0.0024187336708875297
          0.0021167031995549613 0.002118769962981117 0.0021208367264072734 0.005533637386889668 0.004994955543321955 0.005533241942718823
          0.00499686097833283 0.005532846498547978 0.004998766413343705 0.006060357155340393 0.006057569751393856 0.006054782347447317
          0.006680214195126442 0.006384824129031093 0.006672338041972817 0.006376739377267342 0.006664461888819191 0.006368654625503591
          0.003114841777454495 0.0034056658446861027 0.0029667043605817777 0.0031140148494069398 0.003404818724461428 0.0029663796332875495
          0.0031131879213593845 0.003403971604236753 0.0029660549059933217 0.0028094587901199147 0.002809816595924748 0.0028101744017295814
          0.006517639098837635 0.006512986444965217 0.006508333791092798 0.0042965282872271075 0.004295301090324702 0.004296424256545768
          0.004295036784178061 0.004296320225864428 0.0042947724780314205 0.006464080087484069 0.006022385090069509 0.006462609894471713
          0.006022839603140716 0.006461139701459357 0.006023294116211923 0.0055590688013213325 0.005561252581084505 0.005563436360847676
          0.005867858660340493 0.005480112065150875 0.005869488759932613 0.005482710685732761 0.0058711188595247325 0.00548530930631465
          0.001474570958685343 0.0017314281364090949 0.0015550048148886455 0.0012779653318326614 0.0014794316522431952 0.0017382014252162086
          0.001560058429265826 0.0012833171858925832 0.0014842923458010474 0.0017449747140233225 0.0015651120436430068 0.001288669039952505
          0.0019771459845247313 0.0019783958352904687 0.001979645686056206 0.002639970995145533 0.002645266616423563 0.0026505622377015923
          0.004490947783684343 0.004527194755848377 0.004488879332906839 0.004525458764346649 0.004486810882129334 0.004523722772844921
          0.004549203530030539 0.0045519756257533465 0.0045547477214761545 0.004739612051686546 0.004666451274520257 0.004737440063641393
          0.004662661201988544 0.00473526807559624 0.004658871129456829 0.0034284732139105104 0.0027189053535206903 0.003424301977051861
          0.0027159201187109015 0.003420130740193212 0.0027129348839011126 0.003232410640436178 0.0032326291296509 0.003232847618865623
          0.005130618024397839 0.005207212329651674 0.005133918736926001 0.0052103511401712195 0.005137219449454162 0.005213489950690765
          0.002356518748016321 0.0024992097230580384 0.0022064405711494425 0.0019681271639930024 0.0023579905928611785 0.002500697219546019
          0.0022078456224777472 0.0019697689829726475 0.002359462437706036 0.0025021847160340005 0.002209250673806052 0.001971410801952293
          0.0044264507658719416 0.004423800933395472 0.004421151100919001 0.0015864109039103846 0.001277461322465202 0.001588708454580922
          0.001281433531708265 0.0015910060052514597 0.0012854057409513282 0.004909784637425124 0.00558853760075741 0.004907242095959799
          0.005586333031306842 0.004904699554494475 0.005584128461856276 0.0056117339089068515 0.0056079820560023 0.005604230203097749
          0.004376716121617144 0.0043748641915485635 0.004373012261479982 0.004335658318070118 0.004332075938794642 0.004328493559519167
          0.0019433329108302843 0.001946930570663536 0.0019505282304967879 0.0012397601116119102 0.0012426826595417434 0.0012456052074715767
          0.004187328789296829 0.004936926297606384 0.0041830500984252365 0.004934550243951008 0.004178771407553643 0.004932174190295632
          0.001460933745648505 0.0014627126472791263 0.0014644915489097471 0.002046027688629514 0.002050901538247348 0.0020557753878651824
          0.004538707264845121 0.004535550774869735 0.004532394284894348 0.006838063756258009 0.00683252335195684 0.006826982947655671
          0.0011029145933499783 0.0011065204228887366 0.001110126252427495 0.004792256931023353 0.004795044498606101 0.00479783206618885
          0.006352347412964619 0.006313123037776601 0.0056262330087081735 0.006346490319688912 0.006307412779919581 0.00562173744133792
          0.006340633226413206 0.006301702522062564 0.005617241873967666 0.0021198021494212684 0.0021268481824971487 0.0021338942155730285
          0.0046924225067032505 0.004577257081073232 0.004688016322326544 0.0045732688163591375 0.004683610137949835 0.004569280551645043
          0.002408127797855714 0.0024107141677921014 0.0024133005377284878 0.0028035229603791323 0.0028052844486437228 0.002807045936908314
          0.0046733543865799055 0.004669459282266621 0.004665564177953335 0.0011918673398323477 0.0011953123641032053 0.001198757388374063
          0.0020745192421890253 0.0025085850835432607 0.0020753970152786565 0.002509201782297455 0.0020762747883682885 0.00250981848105165
          0.0027837084553681436 0.0027850914720039073 0.0027864744886396714 0.000942151859063054 0.0009441615604034647 0.0009461712617438757
          0.004957636021814079 0.004956057413614487 0.004954478805414896 0.004794718174339499 0.004791630200175835 0.004788542226012171
          0.007001368511354842 0.006995882392216567 0.0069903962730782886 0.004225439015254895 0.0042247013091717715 0.004223963603088649
          0.004536130053543672 0.004498896491662648 0.004533056436522668 0.004497052005278756 0.004529982819501664 0.004495207518894866
          0.0051167323961445995 0.0051138932660800785 0.0051110541360155585 0.004443316700140587 0.004439478773210681 0.004443506681803254
          0.0044385789560337134 0.0044436966634659215 0.0044376791388567455 0.004540727402024603 0.004539157357403739 0.004537587312782874
          0.0043566526694209795 0.004356157386387968 0.004355662103354956 0.004643090457821748 0.004641808255878888 0.004640526053936029
          0.003958249767155221 0.004039876880461335 0.003962684118294053 0.004044328648051555 0.003967118469432884 0.0040487804156417746
          0.004422890086874229 0.004424477266198327 0.004426064445522425 0.004631023576204319 0.004631264586958667 0.004631505597713015
        </DataArray>
        <DataArray type="Float64" Name="pe22" format="ascii" RangeMin="-0.003711648826168375" RangeMax="-0.0004826563770012008">
          -0.0015657871321848563 -0.00150318886960741 -0.0012932295480169536 -0.0013945998246164212 -0.0015652887940747033 -0.0015027404407339526
          -0.001292675013594166 -0.0013941344017620275 -0.0015647904559645506 -0.0015022920118604958 -0.0012921204791713785 -0.0013936689789076336
          -0.0023213381357578174 -0.00221830234100628 -0.002281336598255218 -0.0024080620125850466 -0.002321194144767773 -0.0022185148868625816
          -0.002281423382619178 -0.002407863877087282 -0.0023210501537777287 -0.0022187274327188826 -0.002281510166983138 -0.002407665741589518
          -0.0008334682707909543 -0.001000736313577901 -0.0008332094195962697 -0.0010005380325126018 -0.0008329505684015852 -0.0010003397514473024
          -0.003088265761622501 -0.0031577856899913733 -0.0028267452944805054 -0.0028380745354909254 -0.003090202288914417 -0.0031592537122006755
          -0.002826664374716976 -0.0028394227383133517 -0.0030921388162063333 -0.0031607217344099777 -0.002826583454953447 -0.0028407709411357785
          -0.002383458357511473 -0.0025310157221767092 -0.0023836269306150293 -0.0025308631964331514 -0.0023837955037185857 -0.002530710670689594
          -0.0022126839492195723 -0.0021348214550799033 -0.0021592014786800478 -0.0022390408454897527 -0.002214145646219517 -0.002136649015469581
          -0.002160622740386259 -0.002239618270816076 -0.002215607343219462 -0.0021384765758592585 -0.002162044002092469 -0.002240195696142398
          -0.0028199561695814936 -0.0030895050522251766 -0.0029351605877702873 -0.002721776938697827 -0.002820875490052137 -0.0030904845556352176
          -0.0029364726175869276 -0.0027229317193321442 -0.0028217948105227807 -0.0030914640590452586 -0.002937784647403569 -0.0027240864999664625
          -0.0014948648410995208 -0.0016321956333009556 -0.0014945232392351232 -0.001631666645483991 -0.0014941816373707263 -0.0016311376576670263
          -0.0018767198095087096 -0.0017454978321416357 -0.0022673056594097723 -0.002326280209276123 -0.0018762175042675814 -0.0017439484045785093
          -0.002266748555122911 -0.002326133891087486 -0.001875715199026453 -0.0017423989770153825 -0.0022661914508360498 -0.0023259875728988497
          -0.0017585703087202825 -0.0018121329993661358 -0.001969203659367341 -0.0017588837853919643 -0.0018121506050212195 -0.001969071969032036
          -0.0017591972620636458 -0.001812168210676303 -0.0019689402786967304 -0.003383622822569404 -0.0035855161110357773 -0.00350972265452699
          -0.003349159313318092 -0.00338470426052847 -0.003587056343592402 -0.0035111444503616546 -0.003350051814353486 -0.0033857856984875366
          -0.003588596576149026 -0.0035125662461963194 -0.0033509443153888797 -0.0024263998667473628 -0.002564175668433811 -0.002431404165305061
          -0.0023807758003685656 -0.002427317689239349 -0.0025658276086318586 -0.0024327494702549566 -0.0023819296621164264 -0.0024282355117313348
          -0.002567479548829906 -0.002434094775204852 -0.0023830835238642864 -0.0029697442443224623 -0.00297080723042846 -0.002971870216534458
          -0.00223847428928396 -0.002155702204145551 -0.0020812920780947826 -0.002240304528830261 -0.0021566622114766484 -0.0020830284101283647
          -0.002242134768376563 -0.0021576222188077463 -0.002084764742161946 -0.0024433843849347185 -0.002662361739251669 -0.0024439444980864098
          -0.0026638328423958016 -0.002444504611238101 -0.0026653039455399354 -0.0033298531096135333 -0.0031667675711723447 -0.00331135909716925
          -0.0034964767538662386 -0.0033319811328514884 -0.003168205850973065 -0.0033131361667776875 -0.0034986795524793745 -0.0033341091560894426
          -0.0031696441307737856 -0.0033149132363861247 -0.00350088235109251 -0.0012470261474386965 -0.001445220597081622 -0.0010769379148935824
          -0.0007897144829169138 -0.0012451948677599932 -0.0014442210336578494 -0.0010754326550447728 -0.0007893821964828114 -0.0012433635880812895
          -0.001443221470234077 -0.0010739273951959633 -0.0007890499100487089 -0.0028136048691376875 -0.0026640282093867446 -0.002666960943970966
          -0.0028134764621711742 -0.002663856010862907 -0.0026668261827574712 -0.0028133480552046605 -0.0026636838123390697 -0.002666691421543977
          -0.0005696621150494925 -0.0011541551775724969 -0.0005706936304557858 -0.0011514125818805562 -0.0005717251458620792 -0.0011486699861886153
          -0.002345354354038708 -0.002425586920701691 -0.00263955003042007 -0.0027064650885228908 -0.0023446786281506693 -0.002426031320741076
          -0.0026407373604402313 -0.0027067194283073867 -0.0023440029022626305 -0.0024264757207804605 -0.0026419246904603923 -0.0027069737680918827
          -0.0029839882636340707 -0.002814625907958183 -0.002984656185134695 -0.0028149043021529875 -0.002985324106635319 -0.0028151826963477918
          -0.0018842241348660757 -0.0020520401452131217 -0.0018843687745259898 -0.0020530386466961785 -0.001884513414185904 -0.0020540371481792353
          -0.0027982540845123186 -0.002502507619484321 -0.0027985940676609864 -0.0025020105623313957 -0.002798934050809655 -0.0025015135051784697
          -0.001684602116416977 -0.0015683817004083836 -0.0015695835289464013 -0.0017355560900405283 -0.0016839732462439123 -0.001568044941572558
          -0.001569174438227156 -0.001734913322501885 -0.0016833443760708472 -0.001567708182736732 -0.0015687653475079113 -0.001734270554963242
          -0.0019755014148562042 -0.001871593602012329 -0.0019758141471390004 -0.001872752790560948 -0.0019761268794217957 -0.0018739119791095662
          -0.0016912929562262187 -0.0016908157368303715 -0.0016903385174345243 -0.002265913503708846 -0.0021759516905110647 -0.002266693214541267
          -0.002176051979483014 -0.002267472925373688 -0.0021761522684549633 -0.002214608523864031 -0.0022490814387491932 -0.002226126247720799
          -0.0022158458538099955 -0.0022508991718500062 -0.0022276180995615524 -0.002217083183755961 -0.00225271690495082 -0.002229109951402306
          -0.0017782107374522804 -0.0019204127272150113 -0.0014870382449727341 -0.001777608575219565 -0.001920461797512158 -0.00148597169766417
          -0.00177700641298685 -0.0019205108678093047 -0.0014849051503556057 -0.001978700629750868 -0.0019811849467870567 -0.0019836692638232453
          -0.0016905945646972548 -0.0016881038003500992 -0.0016856130360029436 -0.002326924696685237 -0.0023808076414133265 -0.002327759137816335
          -0.002381527826046447 -0.002328593578947433 -0.002382248010679567 -0.002060303273655478 -0.0020608584815907005 -0.002061413689525923
          -0.0016830476242007482 -0.0018991080174967294 -0.0019970680959703127 -0.0016833391067787161 -0.0018995510278170449 -0.0019967850765385603
          -0.0016836305893566839 -0.0018999940381373604 -0.001996502057106808 -0.002936912628631406 -0.0030503111480143464 -0.0029379676836936677
          -0.0030515371574931127 -0.0029390227387559296 -0.0030527631669718795 -0.0008107143838393914 -0.0006889371562675807 -0.0007012715350401783
          -0.0008694692381744807 -0.0008103150365598652 -0.000688707709108421 -0.0007010118417041242 -0.0008689305553308432 -0.000809915689280339
          -0.0006884782619492611 -0.0007007521483680699 -0.0008683918724872059 -0.0013767709033578094 -0.001130437462735741 -0.0012041262901374536
          -0.0014440858922224733 -0.001376785037993143 -0.0011300438082746018 -0.0012035955695274215 -0.0014438259796268691 -0.0013767991726284766
          -0.001129650153813463 -0.0012030648489173895 -0.0014435660670312643 -0.002211557434454801 -0.002075210100674598 -0.0022516500761439726
          -0.0022118431043497686 -0.002075528812410586 -0.0022524542710597854 -0.0022121287742447363 -0.0020758475241465734 -0.002253258465975598
          -0.002215070170578283 -0.0022160319669540253 -0.002216993763329768 -0.002191911739512783 -0.002192689535630206 -0.0021934673317476287
          -0.0005851050663445919 -0.0005441294151906181 -0.0005853273518773458 -0.0005443712806838666 -0.0005855496374100997 -0.0005446131461771152
          -0.0009109167093956704 -0.0010711789865458855 -0.0009102815307159959 -0.0010708799144875237 -0.0009096463520363216 -0.0010705808424291616
          -0.0020975505133900368 -0.002097834117228236 -0.0020981177210664353 -0.001751590493585109 -0.0018774972231221888 -0.0018437551450862868
          -0.0016574150391420748 -0.001751638063824897 -0.0018776895298572413 -0.001843821788088079 -0.0016575699856993915 -0.0017516856340646849
          -0.0018778818365922934 -0.0018438884310898714 -0.001657724932256708 -0.0020532289820934593 -0.0020535373969530783 -0.0020538458118126973
          -0.0017642497518764939 -0.0017640507179211477 -0.0017638516839658016 -0.0020120979045884675 -0.0017755818505978147 -0.002011537389355034
          -0.0017751703169009087 -0.0020109768741216004 -0.0017747587832040031 -0.0016236445968287269 -0.0016244899165669562 -0.0016253352363051852
          -0.0016255982727005581 -0.0018223823949752062 -0.0016251198582978004 -0.0018220781721583076 -0.0016246414438950431 -0.0018217739493414094
          -0.0016418372392320993 -0.0016426815361404153 -0.0016435258330487314 -0.0018605316171979237 -0.0019214450298316386 -0.0018599587197890564
          -0.0019208774973328414 -0.0018593858223801888 -0.0019203099648340443 -0.0018118919666653807 -0.001811445456357315 -0.0018109989460492497
          -0.0016117900284407945 -0.0016121170690359865 -0.001612444109631178 -0.002019474783935815 -0.0020193025592985803 -0.0020191303346613447
          -0.0014682622667343877 -0.001707983263753055 -0.0014683468209997184 -0.0017093526644018273 -0.0014684313752650491 -0.0017107220650506
          -0.00221178008438753 -0.0022114290256734412 -0.002211077966959353 -0.0024478047530226473 -0.002392708290680435 -0.0024480315059823474
          -0.0023926670979363494 -0.0024482582589420467 -0.0023926259051922634 -0.003086139248000578 -0.0032602913963875667 -0.003094921449015337
          -0.003087025098080326 -0.003261140426593962 -0.00309583367796857 -0.0030879109481600745 -0.003261989456800358 -0.003096745906921803
          -0.00365303773251579 -0.0036166395524224694 -0.0035456136382976036 -0.0036552150069922213 -0.003619267917811602 -0.0035478153656697195
          -0.003657392281468654 -0.0036218962832007344 -0.003550017093041835 -0.0015232293844544362 -0.0018905236732453742 -0.0015238049875425127
          -0.0018927473956817026 -0.0015243805906305892 -0.0018949711181180306 -0.0023500058455400113 -0.002318935467532523 -0.002315980406377904
          -0.002350451379705398 -0.0023188839343596776 -0.0023159406415910505 -0.0023508969138707862 -0.002318832401186832 -0.002315900876804197
          -0.0026176146233913805 -0.002505605488842388 -0.0026176191273712198 -0.002505447262210583 -0.002617623631351058 -0.0025052890355787773
          -0.0011894714609708406 -0.0011890509678213993 -0.001188630474671958 -0.0036548272866635603 -0.0037067644107692506 -0.0036576442611940523
          -0.0037092066184688127 -0.0036604612357245443 -0.003711648826168375 -0.0036108755961633578 -0.00339403857485271 -0.0036127008429494823
          -0.003395444413420389 -0.003614526089735606 -0.0033968502519880683 -0.0031047947026356603 -0.003255097849185179 -0.0031060702897981246
          -0.003256648284854746 -0.003107345876960588 -0.0032581987205243133 -0.002816263641325943 -0.0028177284560497277 -0.0028191932707735128
          -0.0034786625297923033 -0.0034404736415207236 -0.0034810911115836255 -0.003442947230924472 -0.0034835196933749478 -0.0034454208203282197
          -0.0031791453527845186 -0.0031797331050193844 -0.0031803208572542506 -0.0020043100701277357 -0.002004419758641486 -0.0020045294471552357
          -0.0028165220612407027 -0.0028144433764124327 -0.0028123646915841627 -0.0019810596111622565 -0.001981075866440362 -0.001981092121718467
          -0.002009895145655676 -0.002009885391314188 -0.0020098756369727 -0.002501566310286511 -0.0024480076361350586 -0.0025017908671290646
          -0.0024459405495382536 -0.0025020154239716185 -0.0024438734629414482 -0.002211894611567145 -0.002111138134486814 -0.002212000393213939
          -0.0021111331580323045 -0.002212106174860733 -0.0021111281815777948 -0.001510588807466739 -0.0015100895510507671 -0.0015095902946347952
          -0.001308376410485358 -0.0013083265768348785 -0.0013082767431843994 -0.0020501020699465935 -0.002050122261527054 -0.002050142453107515
          -0.00229619358552695 -0.002297447423988236 -0.0022987012624495207 -0.0012952539748302416 -0.0012956652656206087 -0.001296076556410976
          -0.001144087999795196 -0.0011436807072171464 -0.0011432734146390965 -0.002886923222250864 -0.0026188949910884666 -0.0028875552030498465
          -0.0026190365878747913 -0.0028881871838488293 -0.002619178184661116 -0.003137350615737355 -0.003138732572295558 -0.0031401145288537614
          -0.0033727921316087832 -0.003200590142391449 -0.003374124020216171 -0.003201620189448301 -0.0033754559088235584 -0.003202650236505153
          -0.0015477249037398784 -0.0016911457725124943 -0.001473059329826189 -0.0015479191845308273 -0.0016917042403438354 -0.0014730350091467163
          -0.0015481134653217762 -0.0016922627081751762 -0.0014730106884672436 -0.0013964803969961318 -0.0013962432763569683 -0.0013960061557178045
          -0.0033560222852166777 -0.003357822300888778 -0.0033596223165608787 -0.002184240613268055 -0.002170799059645725 -0.0021845871892745396
          -0.0021710938934451805 -0.0021849337652810248 -0.0021713887272446367 -0.0033761184572682276 -0.003160951094268096 -0.0033780827010116503
          -0.0031622827695380147 -0.003380046944755074 -0.003163614444807932 -0.002936830744257665 -0.0029372948758257613 -0.0029377590073938575
          -0.0031042328161143867 -0.0029129584103634314 -0.0031053685405245954 -0.0029131728446671655 -0.0031065042649348036 -0.0029133872789708993
          -0.0007771094330695479 -0.0009228573480269841 -0.0008041003721433524 -0.0006573804992937818 -0.0007775732646280046 -0.0009230360296814074
          -0.0008037979293314481 -0.0006578767546887415 -0.0007780370961864611 -0.0009232147113358305 -0.0008034954865195443 -0.0006583730100837013
          -0.0009859962510452367 -0.00098529787792843 -0.0009845995048116231 -0.001392577110499903 -0.0013928036793444103 -0.0013930302481889173
          -0.002245692183257724 -0.0022958072166472045 -0.0022461149955641507 -0.002296496529687172 -0.002246537807870577 -0.0022971858427271396
          -0.002378458833076779 -0.0023785697740244267 -0.002378680714972074 -0.0023808080807947705 -0.0023380420042051157 -0.002381422893502456
          -0.0023383449957653335 -0.0023820377062101408 -0.0023386479873255504 -0.0016275590476606955 -0.0012872627616066414 -0.0016265439382296299
          -0.0012855198870134474 -0.0016255288287985638 -0.0012837770124202535 -0.001609521888485478 -0.00160987799504804 -0.0016102341016106022
          -0.0027191138837917594 -0.002774447255888082 -0.002719302358785995 -0.002774370923240573 -0.0027194908337802312 -0.0027742945905930645
          -0.00119784789258515 -0.0012605098706576115 -0.0011069184489944522 -0.000997715143162303 -0.0011966596444281047 -0.0012598879902833886
          -0.0011062565196402422 -0.0009965364116873141 -0.0011954713962710594 -0.001259266109909166 -0.0011055945902860324 -0.0009953576802123252
          -0.002181134760986374 -0.0021812407224437317 -0.002181346683901089 -0.0007984558891251045 -0.000645111553944934 -0.0007977148997022428
          -0.0006451070802176624 -0.0007969739102793811 -0.0006451026064903908 -0.002393575211629892 -0.002740307901702488 -0.0023936844029263165
          -0.0027410643145781566 -0.002393793594222741 -0.0027418207274538245 -0.0027364585955007566 -0.0027373823748357063 -0.002738306154170657
          -0.002201507336273981 -0.00220157205966027 -0.002201636783046559 -0.0021085492167754226 -0.0021083571437748713 -0.0021081650707743204
          -0.0010099911343432071 -0.0010087257288801685 -0.0010074603234171298 -0.0006523884014280493 -0.0006522276003867446 -0.0006520667993454399
          -0.002010445961302571 -0.00243708661939248 -0.0020100920697195754 -0.0024374229997810586 -0.0020097381781365798 -0.002437759380169636
          -0.0007282980070988571 -0.0007277813342208202 -0.0007272646613427833 -0.0011133824531488262 -0.0011133285373634116 -0.0011132746215779966
          -0.002270447944649916 -0.002270776999288145 -0.002271106053926373 -0.0035004834942480995 -0.0035023836687920725 -0.0035042838433360455
          -0.0005689952925858994 -0.0005691523784219987 -0.0005693094642580979 -0.0025273764918772217 -0.0025276741661914358 -0.0025279718405056503
          -0.003111893598212798 -0.0031034368115693736 -0.0027351100791945943 -0.0031134121673559263 -0.003104614009039028 -0.0027361977822239016
          -0.003114930736499055 -0.0031057912065086822 -0.002737285485253209 -0.0011329923243846378 -0.0011327954464209404 -0.0011325985684572434
          -0.0023484777934000946 -0.002297018163005957 -0.002348812880641811 -0.0022972426058840536 -0.0023491479678835266 -0.0022974670487621502
          -0.0012457828048968536 -0.0012446798483400094 -0.0012435768917831648 -0.001416963552872331 -0.0014164671396284787 -0.0014159707263846268
          -0.002243507796674614 -0.002242606741123327 -0.00224170568557204 -0.0006031842861738475 -0.0006033327399360642 -0.0006034811936982809
          -0.0010278750642827416 -0.0012435995852744684 -0.0010275819650602254 -0.0012432934190634076 -0.001027288865837709 -0.0012429872528523466
          -0.0014154733507036525 -0.001414630902612035 -0.0014137884545204179 -0.0004831901059492486 -0.00048292324147522465 -0.0004826563770012008
          -0.0026201890890023404 -0.0026219409753777782 -0.002623692861753216 -0.002398499799101482 -0.0023991670939391167 -0.0023998343887767512
          -0.003570415973290581 -0.0035722416545624675 -0.003574067335834354 -0.0020876133879548127 -0.002087455752408223 -0.002087298116861634
          -0.0022811204011456733 -0.002278510702577961 -0.0022814549206964124 -0.0022786263078403554 -0.0022817894402471514 -0.0022787419131027496
          -0.002702679652244639 -0.0027026081140466792 -0.0027025365758487196 -0.0023215020977863515 -0.002293348559347802 -0.002322242913447558
          -0.0022936815971534344 -0.002322983729108764 -0.002294014634959067 -0.0023134974732154784 -0.002313881678045291 -0.0023142658828751036
          -0.0022396243619747878 -0.0022398827900226136 -0.0022401412180704395 -0.002436619619103817 -0.0024361407499941088 -0.0024356618808844006
          -0.0021223283147085966 -0.002140840157458226 -0.002121561437541182 -0.0021413057403302724 -0.002120794560373768 -0.0021417713232023184
          -0.002328259984303811 -0.0023286569680020055 -0.0023290539517002 -0.0024458473932664287 -0.0024464066945852105 -0.0024469659959039927
        </DataArray>
        <DataArray type="Float64" Name="pe33" format="ascii" RangeMin="-0.00351911100966437" RangeMax="-0.0004589617531138053">
          -0.0015783060078627164 -0.0015197180741213035 -0.0012996118951978967 -0.0013914769952364813 -0.0015782307934140093 -0.0015195044533732065
          -0.0013001582499045873 -0.0013921779060588931 -0.0015781555789653027 -0.0015192908326251094 -0.001300704604611278 -0.0013928788168813045
          -0.002207336730323808 -0.0021140223261794143 -0.0021307728569151677 -0.0022303963790960323 -0.0022063940805591834 -0.0021135457679894083
          -0.0021308578222228106 -0.0022302522517557216 -0.0022054514307945595 -0.002113069209799402 -0.0021309427875304526 -0.0022301081244154104
          -0.0008446236534233457 -0.001017951193111666 -0.0008451110481859963 -0.0010188273474681978 -0.0008455984429486469 -0.0010197035018247296
          -0.0027268092165850448 -0.002769983431305252 -0.0025024760468957043 -0.002527553796235744 -0.0027247156444880037 -0.002767448641851858
          -0.0025007546569765374 -0.0025236423191122514 -0.0027226220723909618 -0.0027649138523984642 -0.0024990332670573696 -0.0025197308419887595
          -0.0021778137881337018 -0.0022875813370012684 -0.0021789190915721675 -0.002288260752391041 -0.0021800243950106336 -0.0022889401677808137
          -0.0020430945122631434 -0.0019225709962714481 -0.001982013995083488 -0.0021514964905912023 -0.0020399092977966167 -0.0019218244697975
          -0.0019774852479454512 -0.0021434538887398413 -0.0020367240833300895 -0.001921077943323552 -0.0019729565008074143 -0.0021354112868884794
          -0.002862657112053098 -0.0030769737676592003 -0.0029094862653870996 -0.0027195933444705126 -0.0028601410575633877 -0.0030711675424632745
          -0.002905213946221249 -0.002717956254232243 -0.0028576250030736775 -0.0030653613172673486 -0.0029009416270553987 -0.002716319163993973
          -0.0014824799056051118 -0.0016286659354957749 -0.0014837056555321677 -0.0016291142536727027 -0.0014849314054592238 -0.0016295625718496308
          -0.0020833881354220584 -0.0019487585617111247 -0.0024557366456844053 -0.0024971941548626586 -0.002080058455662385 -0.0019475028240226902
          -0.0024527472460814906 -0.0024944100966824987 -0.0020767287759027118 -0.0019462470863342556 -0.002449757846478576 -0.002491626038502339
          -0.001785337336135309 -0.001838258114549218 -0.002014379074238227 -0.0017837332301250028 -0.0018369735087076834 -0.0020138214546071625
          -0.001782129124114697 -0.0018356889028661488 -0.002013263834976098 -0.0034274194180352255 -0.0034968328178314662 -0.0034313241398733468
          -0.0033584032802996973 -0.0034190249225909105 -0.003489275713664707 -0.0034231618591887116 -0.00334979352914996 -0.0034106304271465946
          -0.0034817186094979477 -0.0034149995785040755 -0.0033411837780002226 -0.0023653366724662376 -0.002450529784798836 -0.0022607950002173707
          -0.0022577577818938674 -0.0023633740019684472 -0.0024490543254358696 -0.00226027321371766 -0.0022562109294368923 -0.0023614113314706564
          -0.0024475788660729032 -0.002259751427217949 -0.0022546640769799163 -0.00262397918193368 -0.002623134620957651 -0.0026222900599816214
          -0.002045455967075858 -0.0019307624736275566 -0.0018425765820153876 -0.0020430530117109963 -0.001929568987196589 -0.0018418489545440784
          -0.002040650056346135 -0.0019283755007656216 -0.0018411213270727689 -0.0024461794524938776 -0.00260097158224833 -0.0024437122427014976
          -0.0025992161037934796 -0.002441245032909117 -0.00259746062533863 -0.0029420905968927102 -0.002798993944248618 -0.0029633615720042715
          -0.003140005659859119 -0.002940215439792157 -0.0027987891966168355 -0.0029618759792711096 -0.0031366164858353577 -0.0029383402826916047
          -0.002798584448985052 -0.0029603903865379477 -0.003133227311811597 -0.0014074830383489167 -0.001633592850808634 -0.0012211327331004206
          -0.0008779415250852327 -0.0014077967738562343 -0.001631214288102659 -0.0012214390377558518 -0.000881765739212852 -0.001408110509363552
          -0.0016288357253966838 -0.0012217453424112831 -0.0008855899533404713 -0.002482495753437544 -0.002388149496779208 -0.002360469239902822
          -0.0024842113271106255 -0.0023889851861980615 -0.002362565714418638 -0.002485926900783707 -0.0023898208756169144 -0.002364662188934454
          -0.0006107552649409449 -0.0012845358205071896 -0.0006167150732001009 -0.0012865519425562437 -0.0006226748814592572 -0.0012885680646052978
          -0.0021983361369286763 -0.0022521944779131465 -0.002526816593735597 -0.002596067544299556 -0.002196548092140254 -0.0022509486461103068
          -0.002523521434328157 -0.0025906667309317454 -0.0021947600473518313 -0.002249702814307468 -0.0025202262749207177 -0.0025852659175639343
          -0.002635851427155902 -0.0025024207735474674 -0.002636859924427096 -0.0025028559137995872 -0.0026378684216982902 -0.002503291054051707
          -0.0019513012111263498 -0.0020759065165884094 -0.001946484731465102 -0.0020691832717509287 -0.0019416682518038546 -0.002062460026913448
          -0.002640906495443813 -0.002321375421861991 -0.0026365036786956644 -0.0023208618226750613 -0.002632100861947515 -0.0023203482234881315
          -0.0016606429967535115 -0.0015503264830948134 -0.0015343722726745164 -0.001684379533663903 -0.0016622851944728303 -0.0015522385875372628
          -0.0015369741141640666 -0.0016871150723529744 -0.0016639273921921491 -0.001554150691979712 -0.0015395759556536164 -0.0016898506110420459
          -0.0017403734730565416 -0.0016486433965058622 -0.001740358738621324 -0.0016463595298949016 -0.0017403440041861065 -0.0016440756632839413
          -0.0017951396153117406 -0.0017913598889714658 -0.001787580162631191 -0.0020572537656854653 -0.00196612706083785 -0.0020581422925147973
          -0.0019671990911590215 -0.002059030819344129 -0.001968271121480192 -0.002152687425174552 -0.0021087491195935903 -0.002145390294295712
          -0.0021494561124633252 -0.0021051220838544673 -0.0021389085834697566 -0.002146224799752098 -0.0021014950481153443 -0.0021324268726438007
          -0.0019190275151422381 -0.002016011230098071 -0.0016179419337355736 -0.0019162793291879706 -0.002013610786288466 -0.0016152472334279439
          -0.0019135311432337031 -0.002011210342478861 -0.0016125525331203146 -0.0017339688430959618 -0.001734427077314071 -0.0017348853115321799
          -0.0018719264034907533 -0.0018719962348813818 -0.00187206606627201 -0.002349167757253923 -0.0023982095270370864 -0.0023453747877652006
          -0.0023938276940312165 -0.002341581818276479 -0.002389445861025347 -0.0020975792657778746 -0.002094976634835581 -0.0020923740038932877
          -0.0015423983032043845 -0.0016943221195138882 -0.0018490669324036392 -0.0015446659916216016 -0.0016970241775553585 -0.0018491415712742299
          -0.001546933680038819 -0.0016997262355968289 -0.0018492162101448203 -0.00287585029336814 -0.0029383376501251586 -0.0028678785281001135
          -0.002930357740511007 -0.002859906762832087 -0.0029223778308968547 -0.000823555367829159 -0.0006942391073506438 -0.0007039975875072096
          -0.0008876336571789103 -0.0008241745739306493 -0.00069542827632186 -0.0007057537658298103 -0.0008887237878736743 -0.0008247937800321395
          -0.0006966174452930765 -0.0007075099441524107 -0.0008898139185684382 -0.001391372551246526 -0.0011511670371112306 -0.001218326515557097
          -0.001456388868305528 -0.0013912674939385245 -0.0011520966068002316 -0.001218974672805272 -0.00145607056007241 -0.0013911624366305234
          -0.0011530261764892329 -0.0012196228300534468 -0.0014557522518392923 -0.0022420984343523988 -0.002103657503539772 -0.0022619063799674244
          -0.002240137127450337 -0.0021021544942083055 -0.0022588164112627125 -0.0022381758205482745 -0.0021006514848768386 -0.0022557264425580007
          -0.0020219008474835166 -0.00202091913490288 -0.0020199374223222434 -0.0021598148469956684 -0.0021511100175105706 -0.002142405188025473
          -0.0005862797873023439 -0.0005333826912010971 -0.0005882494915249167 -0.0005358339001985321 -0.0005902191957474895 -0.000538285109195967
          -0.0009269888394814377 -0.0010931299144726113 -0.0009286165795774266 -0.0010942957243095834 -0.0009302443196734153 -0.0010954615341465554
          -0.0018705620534388533 -0.0018721257730142183 -0.0018736894925895833 -0.0017647704156739147 -0.0019043445870362736 -0.001877267288732832
          -0.0016715962709757213 -0.0017654424789661182 -0.0019044793701684373 -0.0018766599530164506 -0.0016713242663698785 -0.001766114542258322
          -0.0019046141533006003 -0.001876052617300069 -0.0016710522617640355 -0.002061571247840994 -0.002060403592241974 -0.0020592359366429546
          -0.0017645686475853187 -0.00176542460466871 -0.0017662805617521021 -0.0019155842827367924 -0.0016959848651298861 -0.0019162648482001616
          -0.0016964077372128258 -0.0019169454136635303 -0.0016968306092957654 -0.0014375424009046688 -0.0014406548823389916 -0.0014437673637733143
          -0.001573972605093456 -0.0017531189016475807 -0.0015759744771442151 -0.0017555766009172116 -0.0015779763491949746 -0.0017580343001868427
          -0.0014689358524036748 -0.0014680770194157372 -0.0014672181864277998 -0.001811161050089214 -0.0018395095248901134 -0.0018125509209130184
          -0.001841778040685589 -0.0018139407917368228 -0.001844046556481065 -0.001789287016978961 -0.0017900774261163563 -0.0017908678352537518
          -0.0016240825201301395 -0.0016229703027254953 -0.0016218580853208516 -0.0019095936124290975 -0.0019122626614578862 -0.001914931710486675
          -0.0012844405758688868 -0.0014955318189513959 -0.00128436103209101 -0.0014941325627454193 -0.0012842814883131332 -0.0014927333065394425
          -0.002063473886994172 -0.002065446552334459 -0.0020674192176747454 -0.002257462334221213 -0.0022382221542109676 -0.002254896963837038
          -0.002236663381894173 -0.0022523315934528635 -0.002235104609577378 -0.0031547686352779956 -0.003242883694690979 -0.003116609047071507
          -0.0031487753500877022 -0.0032349455375058666 -0.0031112048121435757 -0.0031427820648974084 -0.003227007380320754 -0.0031058005772156443
          -0.0034207655200620634 -0.003255452778321774 -0.0032771556931807753 -0.003414458562621464 -0.00325056297554929 -0.003271767228404442
          -0.0034081516051808645 -0.0032456731727768047 -0.0032663787636281086 -0.00129199536401151 -0.0016300866814869448 -0.0012939669736668487
          -0.001631042409821618 -0.001295938583322187 -0.001631998138156291 -0.0023013189447471253 -0.002277355715736994 -0.0022260506150867648
          -0.0022990914095893204 -0.0022748459037061227 -0.0022243089413316527 -0.0022968638744315156 -0.002272336091675252 -0.0022225672675765407
          -0.002378860168386127 -0.0023051940308085168 -0.0023771998741391968 -0.0023047711381529385 -0.0023755395798922664 -0.0023043482454973606
          -0.0012111700673323516 -0.0012120136010201979 -0.0012128571347080441 -0.003289726909811006 -0.003451219156594701 -0.0032843305130303797
          -0.003445023432793896 -0.003278934116249754 -0.003438827708993091 -0.00351911100966437 -0.003456845756330859 -0.003511680734617832
          -0.003448469544809454 -0.0035042504595712938 -0.003440093333288049 -0.0030726524647323914 -0.003164326355958629 -0.0030636909514652317
          -0.0031547042683971412 -0.0030547294381980707 -0.003145082180835653 -0.0027445260567601987 -0.0027404488092212637 -0.0027363715616823287
          -0.003049676979891635 -0.0030276287154678855 -0.0030457083790986616 -0.003024234754668492 -0.003041739778305688 -0.0030208407938690984
          -0.002767744141027301 -0.0027652607808678715 -0.002762777420708442 -0.0019925489559659464 -0.0019930021337854547 -0.0019934553116049626
          -0.002450789461074232 -0.002451116444661174 -0.002451443428248116 -0.0019508453860576113 -0.0019521604920560505 -0.0019534755980544897
          -0.00195625968431615 -0.0019570358336837286 -0.0019578119830513077 -0.00220349786332929 -0.0021094609677511193 -0.002204538717577698
          -0.002113855657919667 -0.002205579571826106 -0.002118250348088215 -0.002051232907229016 -0.001994162176030585 -0.0020532802770304257
          -0.0019953217128797504 -0.0020553276468318355 -0.001996481249728917 -0.0014284860847842416 -0.001430353261723286 -0.00143222043866233
          -0.0013271909145752944 -0.0013276557941331556 -0.001328120673691017 -0.0019711330568877522 -0.0019716618408048524 -0.001972190624721952
          -0.0021370617802114198 -0.0021359054181184366 -0.0021347490560254534 -0.0011123756143415569 -0.001117516364409055 -0.0011226571144765532
          -0.0009726151997597651 -0.0009750892557639709 -0.0009775633117681767 -0.002646714164638804 -0.0023760605522334883 -0.0026456867396689758
          -0.002377824390458039 -0.0026446593146991484 -0.0023795882286825895 -0.0029230065396030377 -0.002918837179098297 -0.0029146678185935555
          -0.0033074220635176564 -0.0031842339866396427 -0.0032982140217566445 -0.00317511918781904 -0.003289005979995632 -0.0031660043889984372
          -0.0015671168737146164 -0.0017145200721736084 -0.0014936450307555884 -0.0015660956648761123 -0.0017131144841175925 -0.0014933446241408334
          -0.0015650744560376083 -0.0017117088960615764 -0.0014930442175260779 -0.0014129783931237825 -0.0014135733195677796 -0.0014141682460117766
          -0.003161616813620956 -0.0031551641440764376 -0.0031487114745319188 -0.002112287673959052 -0.0021245020306789775 -0.0021118370672712273
          -0.00212394289073288 -0.0021113864605834024 -0.002123383750786783 -0.0030879616302158406 -0.0028614339958014123 -0.0030845271934600614
          -0.0028605568336027014 -0.003081092756704283 -0.00285967967140399 -0.002622238057063668 -0.0026239577052587434 -0.0026256773534538195
          -0.002763625844226106 -0.0025671536547874426 -0.0027641202194080175 -0.002569537841065596 -0.0027646145945899297 -0.002571922027343749
          -0.0006974615256157949 -0.0008085707883821106 -0.0007509044427452931 -0.0006205848325388794 -0.0007018583876151905 -0.0008151653955348011
          -0.0007562604999343776 -0.0006254404312038415 -0.0007062552496145861 -0.0008217600026874917 -0.0007616165571234621 -0.0006302960298688034
          -0.0009911497334794941 -0.0009930979573620382 -0.0009950461812445826 -0.0012473938846456296 -0.001252462937079152 -0.0012575319895126746
          -0.002245255600426618 -0.002231387539201172 -0.002242764337342688 -0.002228962234659477 -0.0022402730742587572 -0.0022265369301177826
          -0.0021707446969537595 -0.00217340585172892 -0.002176067006504081 -0.0023588039708917754 -0.00232840927031514 -0.002356017170138937
          -0.0023243162062232094 -0.002353230369386099 -0.0023202231421312787 -0.0018009141662498145 -0.0014316425919140487 -0.0017977580388222312
          -0.001430400231697454 -0.001794601911394648 -0.0014291578714808592 -0.0016228887519506997 -0.00162275113460286 -0.0016226135172550202
          -0.0024115041406060794 -0.002432765073763592 -0.0024146163781400055 -0.002435980216930646 -0.002417728615673931 -0.0024391953600977
          -0.0011586708554311709 -0.001238699852400427 -0.00109952212215499 -0.0009704120208306991 -0.0011613309484330735 -0.0012408092292626304
          -0.0011015891028375048 -0.0009732325712853335 -0.0011639910414349764 -0.001242918606124834 -0.0011036560835200192 -0.0009760531217399676
          -0.002245316004885567 -0.00224256021095174 -0.002239804417017912 -0.00078795501478528 -0.0006323497685202681 -0.0007909935548786792
          -0.0006363264514906026 -0.0007940320949720783 -0.0006403031344609373 -0.0025162094257952313 -0.0028482296990549223 -0.002513557693033483
          -0.002845268716728686 -0.0025109059602717336 -0.002842307734402451 -0.0028752753134060954 -0.0028705996811665933 -0.0028659240489270913
          -0.002175208785343164 -0.0021732921318882927 -0.0021713754784334215 -0.0022271091012946954 -0.002223718795019771 -0.0022203284887448464
          -0.0009333417764870768 -0.0009382048417833674 -0.0009430679070796579 -0.0005873717101838608 -0.0005904550591549988 -0.0005935384081261367
          -0.002176882827994258 -0.0024998396782139037 -0.0021729580287056607 -0.00249712724416995 -0.002169033229417064 -0.002494414810125996
          -0.0007326357385496476 -0.0007349313130583057 -0.0007372268875669638 -0.0009326452354806872 -0.0009375730008839363 -0.0009425007662871854
          -0.0022682593201952045 -0.002264773775581589 -0.002261288230967975 -0.0033375802620099074 -0.0033301396831647663 -0.0033226991043196243
          -0.000533919300764079 -0.000537368044466738 -0.0005408167881693969 -0.002264880439146131 -0.0022673703324146643 -0.002269860225683198
          -0.0032404538147518197 -0.003209686226207226 -0.0028911229295135793 -0.003233078152332985 -0.0032027987708805536 -0.002885539659114018
          -0.0032257024899141505 -0.0031959113155538804 -0.002879956388714457 -0.0009868098250366305 -0.0009940527360762076 -0.0010012956471157847
          -0.002343944713303155 -0.002280238918067275 -0.002339203441684732 -0.002276026210475083 -0.002334462170066309 -0.0022718135028828913
          -0.0011623449929588606 -0.0011660343194520916 -0.0011697236459453223 -0.0013865594075068008 -0.0013888173090152443 -0.001391075210523687
          -0.0024298465899052915 -0.002426852541143293 -0.0024238584923812942 -0.0005886830536585003 -0.0005919796241671411 -0.0005952761946757818
          -0.0010466441779062832 -0.0012649854982687923 -0.001047815050218431 -0.0012659083632340477 -0.001048985922530579 -0.001266831228199303
          -0.0013682351046644908 -0.0013704605693918724 -0.0013726860341192533 -0.0004589617531138053 -0.00046123831892824004 -0.00046351488474267484
          -0.002337446932811738 -0.0023341164382367084 -0.002330785943661679 -0.002396218375238016 -0.0023924631062367174 -0.0023887078372354193
          -0.0034309525380642604 -0.0034236407376540975 -0.0034163289372439345 -0.002137825627300082 -0.0021372455567635483 -0.0021366654862270146
          -0.002255009652397998 -0.002220385789084685 -0.002251601515826255 -0.0022184256974384 -0.0022481933792545114 -0.0022164656057921156
          -0.0024140527438999593 -0.002411285152033399 -0.002408517560166838 -0.002121814602354234 -0.0021461302138628784 -0.0021212637683556954
          -0.0021448973588802786 -0.002120712934357157 -0.0021436645038976783 -0.002227229928809124 -0.0022252756793584476 -0.002223321429907771
          -0.002117028307446191 -0.0021162745963653534 -0.0021155208852845163 -0.0022064708387179296 -0.002205667505884779 -0.0022048641730516285
          -0.001835921452446624 -0.0018990367230031086 -0.0018411226807528696 -0.001903022907721282 -0.0018463239090591153 -0.0019070090924394548
          -0.002094630102570418 -0.0020958202981963213 -0.0020970104938222243 -0.00218517618293789 -0.0021848578923734565 -0.0021845396018090224
        </DataArray>
        <DataArray type="Float64" Name="disp_x" format="ascii" RangeMin="0.000007251308592345567" RangeMax="0.00005595256242426879">
          0.00003911027218556148 0.00003919784441913391 0.00003719882009841303 0.00003716340393689004 0.000039114162574102765 0.00003920248257527251
          0.00003720377380839518 0.000037167770012753726 0.00003912604072041297 0.00003921565096522259 0.00003721978432738676 0.00003718181593397335
          0.000048048028138538074 0.000044710937295436676 0.00004313505608217266 0.00004511171043961418 0.00004804850428711135 0.000044712817070735094
          0.00004313623282696327 0.00004511169926083268 0.000048050071885956025 0.0000447188011341022 0.000043140081384601495 0.000045111838579259535
          0.00003731372477449121 0.00003881107418051297 0.00003731755090159629 0.000038815054911620586 0.0000373282136812816 0.000038826904056541025
          0.00004500073257304816 0.00004531226193583536 0.000048701464654311765 0.00004819512462314558 0.00004499634965235431 0.000045306100369055924
          0.00004869425409008664 0.00004818926120888349 0.0000449819109648353 0.000045289090197876226 0.00004867355138526049 0.00004817557517527137
          0.000041048622092517355 0.00004275463776289126 0.00004104918635922555 0.00004275455884312163 0.00004105057059105849 0.00004275343000718902
          0.000019336440623244626 0.000021447677295669893 0.000020994436204565147 0.000018188387139690862 0.000019332507540553937 0.0000214421887019707
          0.000020987568379779085 0.000018185490485205168 0.00001931895883002892 0.000021424399557184458 0.000020966426950608964 0.00001817534853221169
          0.00001931551081023561 0.000022862557851851487 0.00002311259332554861 0.00002003443502246321 0.000019322416513432423 0.000022868070158383482
          0.000023117585815233476 0.000020040046827485755 0.000019344529242025167 0.0000228870187159775 0.000023135074337525503 0.000020054613808776296
          0.00003715402764556946 0.000038857144855402925 0.000037157605767452154 0.00003886066557104063 0.00003716874436504738 0.00003887121372867664
          0.000012302112567426863 0.000011508299759164158 0.000014133421271462072 0.00001486007104337072 0.000012312588665967668 0.000011520503265136689
          0.000014144331723477497 0.000014869111568776008 0.000012345441133005798 0.000011559392756254578 0.000014176260901248395 0.000014895138172466863
          0.000043727701302004055 0.00004363486136240383 0.00004604073806730602 0.00004373220104531404 0.00004363930787154397 0.000046045151169711145
          0.00004374589900744415 0.00004365229876748529 0.00004605483033365052 0.00002421492945959247 0.00002809802696355063 0.000027233619490348103
          0.00002383328243493334 0.000024218398543107778 0.00002809786678202557 0.0000272343120218483 0.000023837470074593528 0.000024228287557332996
          0.00002809770539706114 0.000027236359151325773 0.000023849130385271652 0.00001940534880127905 0.000022160215823712012 0.000023092564276417867
          0.000020347129460093572 0.000019408667160131832 0.000022163115970597177 0.000023093638276966156 0.000020348523087123637 0.00001941750500934561
          0.000022171598035977888 0.00002309758053838698 0.000020351525507392717 0.00004485020470399061 0.00004484677456746272 0.00004483661646605089
          0.00002039236408365975 0.000022329102427985435 0.00002285979730325887 0.00002038934202718449 0.00002232600985306468 0.00002285623714039638
          0.000020380661468331784 0.000022316158918350438 0.000022846175574731834 0.000018176090830686742 0.000021043761096072913 0.000018180946342734176
          0.00002104812686546455 0.00001819550925691774 0.000021061110427534355 0.00004148741868005545 0.00004142474358487696 0.00003818668643405089
          0.000037724951132336675 0.000041482439663594066 0.00004142069400171514 0.00003818192486458038 0.00003771986303142119 0.00004146667543140093
          0.00004140785196857672 0.00003816784142326803 0.00003770510131035243 0.000009457364019534914 0.000010308672232462565 0.000008931710831944287
          0.000007939345886652795 0.000009470972763778018 0.00001032196213928598 0.00000894568293771086 0.000007953614643267953 0.00000951008240848464
          0.000010359446439165447 0.00000898987541231309 0.000007997036698101763 0.0000412267575809649 0.00004384417243766554 0.0000404828627684385
          0.00004122459329697625 0.00004384280869791898 0.00004048166732986208 0.00004121882677125559 0.00004383868149746486 0.00004047924183312636
          0.000007251308592345567 0.000008813209523890058 0.000007263961916462303 0.000008827395736655026 0.000007303510196301578 0.000008866707064090216
          0.000030070122929360385 0.000026196343087269208 0.000025251255476946153 0.000028391557152157807 0.00003006937061557292 0.000026197402015318076
          0.000025253722009309446 0.00002839149876444821 0.000030067065624107814 0.00002620069861944537 0.000025261945237648242 0.0000283917717324255
          0.000041444104691223936 0.000044480345110027545 0.000041440920277417764 0.00004447815195887841 0.00004143013969049452 0.00004447096360810447
          0.000013339311475118017 0.000014913395360414914 0.000013343941920353796 0.000014915355254288007 0.000013356383120334933 0.000014921389767639457
          0.00003130853039026006 0.00003294649116681796 0.00003130572922646299 0.00003294391340259934 0.000031295805528102965 0.000032935344545221234
          0.00003825982196683911 0.000037118781032168525 0.00003599778785809712 0.00003704130400635725 0.00003826272937263767 0.00003712170302602355
          0.00003599960212149489 0.00003704292039347813 0.00003827134506606655 0.00003713053281759954 0.000036005651390768404 0.00003704850436197123
          0.000024947664179619123 0.000025358960387869586 0.000024943794426192447 0.000025354543878236716 0.000024930855702047093 0.000025344302888338522
          0.000011898757424078818 0.000011906062749413597 0.000011928305949926951 0.00002383362713791926 0.000026764927584800274 0.000023833021234380313
          0.00002676504042361587 0.000023830731565776084 0.00002676479127952942 0.000017720626144089244 0.000019305904795715072 0.000017424442825177932
          0.000017721441838056727 0.000019303969886811737 0.000017423366822487806 0.000017724937588964192 0.00001929724341583121 0.000017420800318470227
          0.000012262546089963917 0.000013557206494588517 0.000010701051500471373 0.000012272020261142936 0.00001356406045099681 0.000010711056768428752
          0.000012300247557909245 0.000013584356175920164 0.000010741611922816886 0.000023548889805782345 0.000023544559972857682 0.00002353249663609433
          0.000010945256631695788 0.000010958186865889552 0.000010999446130165843 0.00005020141678628735 0.00005129652758685249 0.000050204556396458884
          0.000051298452494627965 0.00005021318844465891 0.000051304285599560246 0.00001518502893608568 0.000015189386364320194 0.00001520311580036595
          0.000029789830132555174 0.000027214210009080398 0.000029642398450817376 0.000029789747407989396 0.000027212786821095453 0.00002964268779612387
          0.00002978894311762127 0.000027210221431945857 0.000029643972321429067 0.000027098211948842107 0.000030011478635530455 0.000027099818067569845
          0.00003000935585057676 0.00002710457969953666 0.000030002833015905575 0.000036367205649556973 0.000035199848799383806 0.00003489560333889161
          0.00003621790012394108 0.00003637138502264582 0.00003520430638081084 0.00003490010319549375 0.00003622256775578283 0.00003638417526123727
          0.00003521793168389045 0.0000349143752673045 0.000036236649246010134 0.000039310864408051913 0.00003749419086931296 0.00003728342953714127
          0.00003920319178434534 0.00003931645367378712 0.000037499564325198694 0.00003728894053560311 0.00003920837305852322 0.00003933327017161726
          0.00003751637800332011 0.00003730687998020856 0.00003922326120033371 0.00004886796471247994 0.000046366351867929165 0.000048330262236115174
          0.000048871574931765174 0.0000463705687230583 0.00004833409893441 0.00004888403327052819 0.00004638403642115226 0.00004834517032471216
          0.00002171903199473324 0.0000217165247805646 0.00002170818368361858 0.000016067861790023197 0.000016068267610336973 0.00001607146768203117
          0.0000346047856553752 0.000033652339926398196 0.00003460887014552993 0.00003365519564821871 0.00003462078915346982 0.00003366404429603669
          0.00003588025186057961 0.00003778974722559202 0.00003588545378409611 0.000037794966388500565 0.00003590056681066265 0.00003780975977160903
          0.000024443817194968937 0.000024441516759067302 0.000024434303198734176 0.00004188101928851156 0.00004363485711464082 0.00004355737538146093
          0.00004133392377899421 0.000041885440905612384 0.000043639836598190355 0.000043562380652835445 0.00004133888552631455 0.00004189923226676086
          0.000043655431552319 0.00004357784650313835 0.0000413528553908689 0.000045393250091791796 0.00004539873254459703 0.000045413050362779086
          0.00004140251219882283 0.00004140617608606573 0.0000414156707838165 0.00003317358974249345 0.00003221496602369752 0.00003317223817690961
          0.00003221490586849855 0.000033167485833377715 0.00003221461026920871 0.000027904856028421686 0.000027901079711802313 0.000027887880232296092
          0.000034353550852426886 0.00003531401868283833 0.000034354164870714815 0.000035314181104697185 0.00003435503734052323 0.00003531392460497987
          0.000027065276628726886 0.000027060596363082274 0.000027043308433659366 0.00004015286343087576 0.00003880355260948406 0.00004015561285185752
          0.000038805372622170314 0.00004016348102204335 0.00003881044519810422 0.00004096163218840147 0.000040964962541577086 0.00004097415407923794
          0.00004133837327586842 0.000041343800087349394 0.00004136019626021259 0.000036992939665208234 0.00003699342459611956 0.00003699469663539412
          0.000027944283681437453 0.00002603241908909488 0.00002793867627328187 0.000026028141316738787 0.000027919041129785766 0.000026018155589682886
          0.00003493937536666177 0.00003493789275009675 0.00003493322651008016 0.00005018815629507428 0.00004948022651583523 0.000050185010204848266
          0.00004947918737947371 0.000050175968952925904 0.000049476146177623186 0.00002067987862636321 0.000023338687724090772 0.00002113278595713374
          0.000020686645134473042 0.00002334429014884452 0.000021139577964710137 0.000020710473633412726 0.000023357486414651196 0.000021161206133969058
          0.00003254061340952333 0.000037516073191036915 0.000034085288107985484 0.00003253795805968331 0.00003751134306902751 0.000034081627326713784
          0.000032530030601021536 0.00003749783425773205 0.000034068939368725024 0.000026884831991427625 0.000024260355707339175 0.00002687982488579686
          0.000024253758747861395 0.000026866170759849098 0.000024232061762488923 0.00005374035763303265 0.00005108619514197011 0.00005177058112985143
          0.0000537401838824678 0.00005108686540099192 0.000051770732097323824 0.00005373947396412495 0.00005108890297057791 0.000051770968968554686
          0.000047406738442388055 0.0000465674947108539 0.00004740494806847499 0.00004656710661717583 0.00004740014219854441 0.00004656462450902005
          0.000040521294299109856 0.0000405259402269116 0.000040539958730572 0.00003798142602287564 0.00003364012496040878 0.00003797670476288562
          0.000033637136293515275 0.000037962373193201785 0.000033628144533495006 0.00002925813726822571 0.00002494979092128098 0.000029257622302688443
          0.00002495254547094808 0.000029254461026753477 0.000024960956232494132 0.000025969492843598104 0.00002876642370547576 0.000025972602746832837
          0.00002876593323124894 0.000025983003312701504 0.00002876260989394664 0.000024109610523129447 0.000024113699876691823 0.000024125756767952347
          0.00004214348995310752 0.00004164081973641174 0.000042137853618480066 0.00004163575696835994 0.00004211877223636539 0.00004161854116786289
          0.00004602604115596656 0.00004601942950040946 0.000045998975926352666 0.00004446601925924856 0.00004447118846935343 0.0000444863703579755
          0.000049546691210146584 0.00004953889479378563 0.000049512904512339556 0.00004379864968781259 0.000043802835837615346 0.00004381507041153405
          0.00004324940633054688 0.0000432527096766577 0.00004326240795789168 0.000051547372722288356 0.00005266455549775162 0.00005153962741614256
          0.000052657585889466846 0.000051512828384768656 0.000052636428468254965 0.00003906222557364483 0.00004094126450705212 0.00003906296364166296
          0.00004094322338957541 0.00003906451019094493 0.00004094836834153808 0.000032013592519317634 0.000032014357331274076 0.000032016394599698606
          0.00003956589877058122 0.000039571559252839864 0.00003958885969477947 0.00004229960265757934 0.00004230250713928301 0.00004231096405521328
          0.000020985828981491453 0.000020985505728445663 0.000020983910171277687 0.000029383864068771943 0.00002937932132253697 0.00002936312521930781
          0.000029337432578802027 0.000029333559138432852 0.000029321427882554098 0.000033974780521641775 0.00003536476672146843 0.00003397058415397237
          0.000035361624929561735 0.0000339569810374113 0.00003535260101637214 0.00003284036773815937 0.000032836168443205946 0.000032822959709524096
          0.000026890617439902915 0.000025141734880143905 0.000026891620384148544 0.000025145638921657057 0.000026895307527642582 0.000025155917555407504
          0.00004153896254401522 0.000043939981388062084 0.0000418601750963626 0.00004154460327229935 0.0000439448853602661 0.000041865465618107404
          0.00004156073604647626 0.00004395996541854809 0.000041881222944015104 0.00004233005496319731 0.00004233475230534634 0.00004234880265694591
          0.00003176292900079785 0.0000317594048503009 0.000031747800685691956 0.00004568939663080682 0.00004611672089827843 0.000045692581920484465
          0.00004612118721935182 0.000045701231428503506 0.00004613462236902679 0.00003491672175697689 0.000035676499797327286 0.000034912329587986095
          0.000035672038610214255 0.000034898964864198586 0.00003565821042927362 0.00003645872496275416 0.000036454762275644956 0.00003644220404929424
          0.000038529302886248814 0.00003882069688193532 0.00003852549982422159 0.00003881798814380088 0.00003851306634230867 0.000038808453209215916
          0.000031157153680681746 0.00003110836792040418 0.00003242064233742183 0.00003239373342156116 0.00003115530014080186 0.00003110701146134826
          0.00003242304849330813 0.00003239509761570118 0.00003114866608331775 0.00003110495318251962 0.000032430558203433244 0.000032397862600769136
          0.00003559013466883152 0.00003559532649931305 0.00003560991651068294 0.000030287391936786462 0.000030286606027587947 0.00003028518266770258
          0.000017107446831020556 0.000018377908099744747 0.000017111475922044496 0.00001838019170152293 0.000017125353039075953 0.00001838616814648447
          0.00003713121719539194 0.000037130260889858665 0.000037126761418653676 0.00005307335835467239 0.0000506173921807503 0.00005307330191406043
          0.00005061889338688086 0.00005307332829298965 0.000050622273563317674 0.000011208871049894562 0.000009751447269935275 0.000011220271063838573
          0.000009763892983312257 0.00001125439734826052 0.000009801657197708058 0.000044271457461740245 0.00004427632173431458 0.000044290939832091753
          0.00003753654987047513 0.00003896663445981759 0.00003753445945108656 0.000038964878782890405 0.000037525945637808805 0.00003895849820703827
          0.00003382114299201663 0.00003544861333715748 0.00003546262795051816 0.00003387394228317863 0.00003382382546596651 0.00003545251975655875
          0.000035467365173559134 0.000033877421084080386 0.000033832349408488976 0.00003546402463990041 0.00003548087681102012 0.00003388786190674609
          0.0000156367150057917 0.00001564291910379383 0.000015661213248357664 0.000033876564086897905 0.00003320673159076043 0.000033880640706062865
          0.0000332097898003818 0.000033893012652081235 0.00003322021487450213 0.00001582297134445667 0.00001773960840772329 0.00001583079813168027
          0.0000177481003425923 0.000015852594127010867 0.000017772400724463613 0.000017192806916005514 0.000017201682285485854 0.00001722786708972053
          0.00004672858285665849 0.00004673348459240839 0.00004674823808161091 0.000014308450766290413 0.000014316383265179742 0.00001434132458684832
          0.00003235149083231868 0.00003235425806423392 0.00003236218636271232 0.00003125685405871266 0.000031256212426310266 0.000031254156088791593
          0.00001324332205685519 0.00001694374682742607 0.00001325258579785208 0.0000169498745654515 0.000013281040206210335 0.000016967865747914224
          0.00003451479017944358 0.00003451931569632664 0.00003453235413698442 0.000030039220103401235 0.000030036024348449802 0.0000300228747280477
          0.00004823167078248634 0.0000482356778069392 0.00004824815315235117 0.000030696885306881765 0.00003069495128929639 0.00003068888447268574
          0.00003238927443105247 0.00003239028307446025 0.00003239350723475557 0.000039079435815798 0.00003907894714120714 0.00003907653786752391
          0.000020836485936985588 0.00002060667336588017 0.000017042759440520762 0.000020842981399496782 0.000020613655834909445 0.00001705216838400075
          0.000020863154431929704 0.000020634035603712215 0.00001708045152040436 0.000030816284526947106 0.00003081567946320928 0.00003081575879180242
          0.00004985508411558064 0.00004828905641244502 0.00004985779829319738 0.00004829265947151895 0.00004986368254257779 0.000048304581400624866
          0.00003215701776698925 0.00003215905010372654 0.00003216401158282201 0.000035592831134495795 0.000035595944179102206 0.00003560444336342448
          0.000013704491490237107 0.000013716499912818373 0.000013752471757256479 0.000033405793235798725 0.0000334091399073981 0.00003341880846859156
          0.000038200439560229266 0.00003996116967011637 0.000038205082012368906 0.00003996634688090388 0.00003821818322372591 0.00003998222197892258
          0.000033930323677099414 0.00003393219978286502 0.000033937403982403496 0.0000323528081134851 0.00003235430894769687 0.000032357708663366164
          0.000050589758960805145 0.00005058282313121002 0.00005056123049536728 0.000052271036105089426 0.00005227190458371443 0.00005227323608316833
          0.000029959205922123604 0.000029958039580247754 0.00002995430699284168 0.000047923181850949015 0.00004792718597526705 0.0000479401984147147
          0.00004831917413189049 0.0000483130896133878 0.000048322855422913835 0.000048315595793036936 0.00004833318921943601 0.00004832170098562397
          0.00004870663696734355 0.00004870198947507911 0.000048688609172988446 0.00005271812752353608 0.000053196314357837284 0.00005271442803776743
          0.00005319413747938695 0.00005270235899598941 0.00005318803616441186 0.00005458543389168928 0.00005458475301854625 0.00005458273581312998
          0.00005595256242426879 0.00005595067634084676 0.000055944023613158214 0.00005124356816078111 0.00005123821309212315 0.000051220465412625154
          0.000055409765199287354 0.00005459805857029184 0.0000554057661759368 0.00005459234282795875 0.00005539693100828353 0.000054575129156640324
          0.000052735856492675295 0.000052731574012369673 0.00005271546656784239 0.00005184308519531702 0.00005183605608383711 0.0000518105760014684
        </DataArray>
        <DataArray type="Float64" Name="disp_y" format="ascii" RangeMin="-0.000021654483177618416" RangeMax="0">
          -0.000016261140902703333 -0.000017128414963924516 -0.00001737947982188092 -0.000016630928631814175 -0.00001626325199767872 -0.000017130386386112643
          -0.000017381972465222256 -0.00001663382896205783 -0.00001626968950154736 -0.000017136227896470087 -0.000017389605314973946 -0.000016642697135948684
          -0.000009885116376132068 -0.000011705646970853414 -0.000011250597396399261 -0.000009745437914056814 -0.000009885546206772223 -0.000011707222771845694
          -0.000011252879170604038 -0.000009747342643476087 -0.000009886518203960828 -0.000011711871023431826 -0.000011259762430678245 -0.000009752794464127449
          -0.000020844069323812525 -0.00002114852916060966 -0.000020845022773704514 -0.000021149668197188106 -0.000020847654722452518 -0.000021152857520637167
          -0.0000032941006637407624 -0.000001629915101513023 -0.0000014330381957131347 -0.000002859147882795069 -0.000003295794789463001 -0.0000016306786680276616
          -0.0000014327966059266449 -0.0000028593919830050457 -0.000003301319518628545 -0.0000016321378025528691 -0.000001429897643437434 -0.000002862355050425197
          -0.000011045558516829416 -0.000009680988934575376 -0.000011048719145734926 -0.000009683629047231575 -0.000011058660919563728 -0.000009692036570364292
          -0.000010061596382755737 -0.000011609182905651586 -0.000011567534043825087 -0.000009576836480202034 -0.0000100633500010069 -0.000011612263597368605
          -0.000011570359878120091 -0.000009577644460862524 -0.000010070723870168463 -0.000011621098572574366 -0.000011578518352991694 -0.000009580330342016375
          -0.000004616305325392455 -0.000005845814686319276 -0.000007185961975680832 -0.00000625612280295801 -0.000004618352330933947 -0.0000058491034019759975
          -0.000007189945786834045 -0.0000062587547323148 -0.000004624822399581879 -0.000005860127241355072 -0.0000072021380621273 -0.00000626631046637192
          -0.00001591472912161421 -0.000015495989737402434 -0.000015917941358215716 -0.00001549852759420969 -0.000015927753139156744 -0.00001550549798204088
          -0.000002003560897663169 -9.405349302795344e-7 -0.0000011896359056478774 -0.000002446662288207306 -0.000002002383684035717 -9.393050666408625e-7
          -0.0000011898577445650892 -0.0000024470659563931376 -0.0000020000544521726428 -9.349795204699293e-7 -0.0000011894851076871352 -0.000002448761984706894
          -0.000019590235986536827 -0.00001855973407769742 -0.0000182644704561984 -0.000019592038439440627 -0.000018561483241560622 -0.00001826629364390523
          -0.000019598393894876217 -0.00001856574322378741 -0.00001827124911052842 -0.0000016576539670340982 -0.000001847799341661107 -0.000003563819534423568
          -0.0000032506555933007228 -0.0000016587118220317904 -0.00000184877007078832 -0.0000035657178274105056 -0.0000032525425950656474 -0.0000016618099137420512
          -0.0000018528421329136536 -0.0000035715788023516307 -0.0000032578938801543476 -0.000007991385636478437 -0.000009133897540360575 -0.00001037662470990783
          -0.000009077073970099246 -0.000007994067860740346 -0.000009138228310465329 -0.00001038184349222365 -0.00000908020330448386 -0.000008002388755841187
          -0.000009151643726827434 -0.000010397090584734775 -0.000009090397863517662 -0.000004994391716390695 -0.000004997053395009792 -0.0000050051719246654555
          -0.000010411786899740524 -0.000011556337938409523 -0.000012226811150256533 -0.000010414161450531516 -0.000011560375630352065 -0.000012230678983392725
          -0.000010422605836679417 -0.000011571208438277317 -0.000012243213243731803 -0.000006685275034344682 -0.00000774677601970905 -0.0000066874202905695655
          -0.000007750188432404612 -0.00000669403134081206 -0.00000775992759778599 -0.000003599373791402287 -0.000005306009210617215 -0.0000057088870094305344
          -0.000003905285159191415 -0.0000036019465299218225 -0.000005309784409182071 -0.000005713088948969214 -0.000003908460741441086 -0.000003610964397019058
          -0.000005320629883868617 -0.000005725568190272717 -0.000003918358638953393 -7.734586532279496e-7 -0.0000016517412928227727 -0.0000014461404014416274
          -7.251684347322029e-7 -7.719343924840222e-7 -0.0000016500976496608904 -0.0000014437984317971874 -7.231120771608133e-7 -7.638142310289625e-7
          -0.000001644356846586908 -0.0000014390046041331545 -7.181536263166514e-7 -0.000008375480188680058 -0.000008244554975515297 -0.000009616388663025169
          -0.000008379366235039874 -0.00000824738947431908 -0.000009620173183722535 -0.000008391401393950377 -0.000008254741000728966 -0.000009631012502087825
          0 0 0 0 0 0
          -0.00001269926914205055 -0.000011611088218715032 -0.000010201728968969785 -0.000010745315512888893 -0.000012706629551622564 -0.000011617949989231451
          -0.00001020771042576648 -0.000010752302068906655 -0.000012728998972062587 -0.000011639584862745035 -0.000010226247137635079 -0.000010774278190762983
          -0.00000691891123717819 -0.00000669470005304257 -0.000006922998508654474 -0.000006697452776787933 -0.000006935312964615175 -0.0000067061708024313
          -0.0000053532825525418185 -0.000006787922895615752 -0.000005350630605079661 -0.000006785994917455124 -0.000005342487729533562 -0.000006779830316171436
          -0.000010660690502299056 -0.000012034168383419093 -0.00001066789569596522 -0.00001204098728749169 -0.000010689875370029866 -0.000012062266140438112
          -0.00001494624489968065 -0.000015426809513901727 -0.00001535290438587059 -0.000014617415415529118 -0.000014949275762034312 -0.00001543024745057413
          -0.000015357223667743637 -0.000014621362474863517 -0.000014957770067263197 -0.00001544054286760941 -0.00001536984598679349 -0.000014632948558883885
          -0.000013055762031609087 -0.000013661227097490803 -0.000013060026767519086 -0.000013665879462215208 -0.000013071297692616052 -0.000013677963181411478
          -0.000004112345559951194 -0.000004109358086651936 -0.000004100670908406612 -0.000011437278280928143 -0.00001278197520339462 -0.000011442734807197961
          -0.000012788919640193708 -0.000011459601857299753 -0.000012809467979044077 -0.000008116685882079024 -0.00000951876659405562 -0.000008626005500103103
          -0.000008117333291816855 -0.000009520426848613852 -0.00000862674062582107 -0.0000081184733584075 -0.000009525931601486827 -0.000008628461367720732
          -0.0000036157636710156055 -0.000004800842732106464 -0.000003053507794104108 -0.000003614567497202052 -0.000004799675916034493 -0.0000030505047775809843
          -0.000003610745878621476 -0.000004796942354639233 -0.0000030410302341993475 -0.00001293043161250249 -0.000012934586803933534 -0.000012946574237279505
          0 0 0 -0.00001589230895606246 -0.000014540843742932478 -0.000015893568509449537
          -0.000014541089708657082 -0.000015897351137947397 -0.0000145415096008183 -0.000006195209655866492 -0.000006194519472446413 -0.000006192661016117685
          -0.000014826888225950849 -0.000013747662440041075 -0.0000139027776146204 -0.000014834220383962446 -0.000013753693110126505 -0.000013909887488885733
          -0.000014856553549553308 -0.000013772494176081447 -0.000013930857093345355 -0.000009155035777460333 -0.000009084301717599877 -0.000009161056948429116
          -0.000009090535602131393 -0.000009179225517130393 -0.000009109091937221642 -0.000020003787989349245 -0.00001948952244005564 -0.00001911667256986108
          -0.00001934599808675915 -0.000020004589660184524 -0.000019490307151725052 -0.00001911761163730412 -0.00001934706050521898 -0.00002000707121612461
          -0.000019492036456225675 -0.000019120758254627557 -0.000019350176969586716 -0.000018916914271536052 -0.000018880030890456926 -0.000018145258073486978
          -0.000018059971362396244 -0.000018918882058785347 -0.00001888193599888421 -0.000018147499494728772 -0.00001806185395560502 -0.00001892527562115256
          -0.000018888080856430122 -0.00001815418030459188 -0.000018067525201713752 -0.000017153979441810076 -0.000016986366375061108 -0.000015904537616540355
          -0.000017155623906030224 -0.000016987947046371895 -0.00001590563843199185 -0.000017162226020563064 -0.000016993692860172716 -0.000015909289871510316
          -0.000010821966624582042 -0.000010825613341634563 -0.00001083701725809638 -0.000008051064992880548 -0.000008050724953700946 -0.00000804702787866035
          -0.000019486795438889553 -0.000018887560548128308 -0.00001948728108770262 -0.000018888433056476563 -0.000019488401079177025 -0.000018891208738635547
          -0.000018739626328174385 -0.000019606065605048458 -0.00001874138510935494 -0.000019607899429669585 -0.000018745447507187188 -0.00001961326934578583
          -0.000012322307558113188 -0.000012327258390996983 -0.000012342593525364105 -0.00001656082875705016 -0.000016735016041842782 -0.000017536497962872423
          -0.00001782864804337796 -0.000016562215241365487 -0.000016736181184360125 -0.000017537758186353715 -0.000017829956338714306 -0.000016566209184675993
          -0.000016739828100573025 -0.000017541769277174392 -0.000017833399747559832 -0.000016028858681017326 -0.000016030115250560652 -0.000016032822179510683
          -0.000015513132029704744 -0.00001551487416768756 -0.00001551983002446552 -0.000013846988163979883 -0.000014695085850392417 -0.00001385324508539896
          -0.000014701754229544458 -0.000013871625615616947 -0.000014722684341863348 -0.000014721565238827728 -0.000014727889607255823 -0.000014745614682281298
          -0.00001514571711589917 -0.000014334155616962096 -0.000015151380468057565 -0.000014339298548779312 -0.000015167919611394666 -0.000014355454818440036
          -0.000014558545702640262 -0.000014564782639051087 -0.000014579282962940567 -0.00001407488712855758 -0.000013691860625288023 -0.000014077792577436411
          -0.000013695546438776072 -0.000014085778900291204 -0.00001370655531251933 -0.000014680114837339206 -0.000014682438779456571 -0.000014688962552479407
          -0.000018803464352657253 -0.000018805195022184173 -0.000018809493341790385 -0.000013401428550287817 -0.000013406081084331144 -0.000013420215849928736
          -0.000015261926062583302 -0.000014369004326775248 -0.000015267686337968556 -0.000014374915674727145 -0.000015288169247775794 -0.00001439452676949384
          -0.000012948377667085641 -0.000012954093575265958 -0.000012970223422522163 -0.000006287430613043804 -0.000007835775104572916 -0.000006287238366447987
          -0.00000783629533878246 -0.000006287522824778192 -0.00000783838167381382 -0.00000300381884138504 -0.0000046502485331145965 -0.000004066147235991154
          -0.000003006056377322925 -0.000004652833904991814 -0.000004068474477974131 -0.0000030105139990653277 -0.000004661628669719198 -0.00000407593635710646
          -0.0000024338115161831626 -0.000001962749607120563 -0.000004462674085764659 -0.0000024354539384027894 -0.0000019645470216679806 -0.000004465867794500648
          -0.0000024398645491210962 -0.0000019706163628739683 -0.000004475423658246461 -0.000015116467301242746 -0.000013598853929627925 -0.000015122837765767112
          -0.000013604081296907417 -0.000015144605268129126 -0.000013618032304511982 -0.000010361432006690467 -0.000010675229232706705 -0.000009168936284543188
          -0.000010359871708774334 -0.000010674117979219469 -0.000009167791822758453 -0.000010355472465332672 -0.000010670540637677172 -0.00000916468405193038
          -0.000006509824283445667 -0.00000811992474189283 -0.00000651138335878654 -0.000008121757429664344 -0.000006516715082548609 -0.000008127008769434515
          -0.0000214499351032485 -0.000021451754855583526 -0.000021456916135457216 0 0 0
          0 0 0 0 0 0
          0 0 0 -0.000007630681796422923 -0.000007427211350310834 -0.000007634934755209307
          -0.000007431868703423341 -0.000007649239629995648 -0.00000744492085458739 -0.000008692068152846635 -0.00000869709000074526 -0.00000871076017737882
          0 -0.000001792623840604632 0 -0.0000017940883100336866 0 -0.0000017982537600435485
          0 0 0 -0.000015263520119731426 -0.00001526463367487856 -0.000015267113559550884
          0 0 0 -0.000014447802582427525 -0.000014449272816377547 -0.000014453571179005713
          -0.000013616567658511503 -0.00001361855286410469 -0.000013624844651665829 -0.0000013808842846309126 0 -0.000001379815178555785
          0 -0.0000013705184647790957 0 -0.00001229019985014812 -0.00001256134481297448 -0.000012294355601158575
          -0.000012564556363671156 -0.000012306397447116368 -0.00001257403786510259 -0.00001552683165182073 -0.000015533858516713095 -0.000015555816408786257
          -0.000019744469998882365 -0.00001974669621147941 -0.00001975320291606463 -0.000012994245271588502 -0.000012996895265524553 -0.000013004476238470217
          -0.000009963685385061511 -0.00000996732436435266 -0.000009977877139265925 -0.00001583924327661293 -0.000015845010667689546 -0.000015865143904430816
          -0.000016365103822662293 -0.000016370954390903873 -0.000016387263086630783 -0.000009979008758382305 -0.000011159601166315502 -0.000009985155519331796
          -0.000011165372874685478 -0.000010003587086251593 -0.000011182966185938113 -0.000008490531302046988 -0.00000849630864030493 -0.00000851345493509697
          -0.0000055338167880199 -0.000006452115207424861 -0.000005536978068693774 -0.000006455812822847933 -0.000005545096262618047 -0.000006465253414159065
          -0.000019735176169726464 -0.00002060813070046837 -0.00002067569940313539 -0.00001973733024918762 -0.000020610662807456283 -0.000020678147419466084
          -0.00001974394811470079 -0.000020618032445338 -0.00002068560774804583 -0.00002163096876628987 -0.0000216336099470388 -0.000021641407438655505
          -0.000006846900204769822 -0.000006851579826476755 -0.0000068654761615284435 -0.000012443914817883724 -0.000013357168930489717 -0.000012445255629009678
          -0.000013358230505751764 -0.000012449539230844596 -0.000013361721889048614 -0.0000061858447035524656 -0.000007794603140404555 -0.0000061903829057006786
          -0.000007800027689155764 -0.000006204235737571151 -0.00000781624499269005 -0.000009189617045041257 -0.000009195089924126538 -0.000009212145073033938
          -0.0000072578985490885684 -0.000008622818169028488 -0.0000072628720105102665 -0.000008627572131064427 -0.000007278001047800092 -0.000008643342609244953
          -0.000017264928196058188 -0.00001691187952731438 -0.000017417112752150403 -0.0000177503192530635 -0.000017268535595347385 -0.000016916125350440167
          -0.000017420669683751398 -0.00001775310930465283 -0.00001727878090851245 -0.000016927010675738806 -0.000017431940638658747 -0.000017761353738358536
          -0.000018099239765822418 -0.000018101704599016548 -0.000018108944738392287 -0.000015679339078734827 -0.000015686640889308056 -0.000015710006688957406
          -0.0000070012924348142524 -0.000008033948402048289 -0.000007002564635837549 -0.000008035510391943714 -0.0000070053224764525065 -0.00000804077533227128
          -0.00001187979561138551 -0.000011884769164524385 -0.000011899519231149149 -0.000011733816055632514 -0.00001199026725614529 -0.00001173255305019904
          -0.000011989620744508221 -0.000011728797494808655 -0.0000119861707195951 -0.000002582925945842473 -0.000002184004660183012 -0.0000025815702437157443
          -0.0000021813301219859896 -0.000002578131269748557 -0.000002173780316544704 -0.00002164168136487052 -0.000021644602220986842 -0.000021654483177618416
          -0.000010200280235286254 -0.000009511787397985524 -0.000010205484232377723 -0.000009516396300383995 -0.000010219948975811815 -0.000009529940721874239
          -0.000016617451707304 -0.000016743856671265175 -0.000017437009758013797 -0.000017270677805224937 -0.000016622307007706574 -0.00001674775638363176
          -0.00001744030587304001 -0.000017274607491874602 -0.000016637051264117283 -0.00001675926907454355 -0.000017450353387677232 -0.000017286237569555208
          -0.00000566546019804004 -0.0000056660442526208816 -0.000005667654496674267 -0.000017938697235185884 -0.00001803892180591373 -0.00001794148500060963
          -0.000018041302163518625 -0.000017950008255063035 -0.00001804822641003819 -0.000003841468876891745 -0.000002847555714822359 -0.000003842456240101551
          -0.0000028489592523066663 -0.00000384439732282018 -0.000002854080115556602 -0.0000014042182385195312 -0.0000014051111147121588 -0.0000014091694267729924
          -0.000014148676248068391 -0.00001414943835398021 -0.000014151982171119902 -0.000004345383791178328 -0.000004345504645012131 -0.000004346481484819567
          -0.00001692281742147822 -0.000016927838504723167 -0.000016943318049894852 -0.00001761816537107755 -0.000017621695312727424 -0.000017633185975925014
          -0.0000031460480685461697 -0.000005274825949929326 -0.0000031458699914773987 -0.000005276246417478511 -0.000003144976829998703 -0.000005280762440386717
          -0.000018593032201128076 -0.000018594738272968728 -0.000018599775918130073 -0.000016401382462325134 -0.000016407242523517786 -0.000016420700066651522
          -0.000014835998724294217 -0.000014836779005445459 -0.000014838996553817555 -0.000005102845110123773 -0.0000051060494426827936 -0.000005116620214090796
          -0.00001806816159483878 -0.00001807018976141098 -0.000018075422183257635 -0.000010757136257338527 -0.00001076139525443536 -0.000010773311385918064
          0 -0.0000015372558166127977 0 0 -0.0000015381423039471236 0
          0 -0.0000015415922065280648 0 -0.0000164155641654221 -0.000016421325382615417 -0.000016439899850648117
          -0.000013248811323030698 -0.000013317916802638684 -0.000013248844770210779 -0.000013318403102213622 -0.000013249316013061566 -0.000013319672908553955
          -0.000016279599724544048 -0.000016286123290271414 -0.000016305193942696993 -0.000016029382754357897 -0.00001603367003563993 -0.000016046421686087384
          0 0 0 -0.000018377887033301446 -0.000018379750940490737 -0.00001838444934496202
          -0.000020365560603750686 -0.00002058780123637621 -0.000020367090779233384 -0.000020589803443327333 -0.000020371266448621273 -0.000020596122309508764
          -0.000015904720302411974 -0.000015910283244968372 -0.000015927075922515455 -0.00001836583105755767 -0.000018367128075942103 -0.00001837105570918864
          -0.0000024183711667473357 -0.0000024175310760720035 -0.000002416914596480156 -0.00001312882198451114 -0.000013128411193202064 -0.000013126283029818924
          -0.0000037946753769687934 -0.0000037972749335795286 -0.00000380323381739751 -0.000018035742905234935 -0.000018037607978143165 -0.000018042935186598853
          -0.000012520122025379344 -0.000011393897062447875 -0.000012520392531834746 -0.000011393827014473131 -0.000012519692992996382 -0.000011393129856903162
          -0.000004520245997127988 -0.000004521537650888417 -0.000004524775562210093 -0.000005789064412787872 -0.00000718159835023782 -0.000005787717310502893
          -0.000007180085102737958 -0.000005782663464418588 -0.000007175546263757301 -0.000008953445462943588 -0.000008951482783308896 -0.000008945656454717377
          -0.000007527380586008737 -0.000007525066719170987 -0.000007517266345338543 -0.000004891297906403087 -0.000004890452352133276 -0.000004886693545243201
          0 -0.0000015865324497908353 0 -0.0000015854717670191369 0 -0.000001582653483600771
          -0.00000495976576257625 -0.000004958488208830912 -0.000004953670696898676 -0.000002990083508687447 -0.0000029897307333456834 -0.000002991140827091343
        </DataArray>
        <DataArray type="Float64" Name="disp_z" format="ascii" RangeMin="-0.0000011829181547375426" RangeMax="0">
          0 0 0 0 -2.9767397938105357e-7 -2.8745846020301996e-7
          -2.5238013249418813e-7 -2.6532790578283355e-7 -5.951901989228435e-7 -5.747971260373807e-7 -5.047761491681261e-7 -5.30735860434973e-7
          0 0 0 0 -3.8704293093800306e-7 -3.765283585176419e-7
          -3.753795800173774e-7 -3.88473864858801e-7 -7.740522582975253e-7 -7.5267513748729e-7 -7.506696970826525e-7 -7.768785494064116e-7
          0 0 -1.8641665747951797e-7 -2.0971225399893156e-7 -3.7290199023177985e-7 -4.1977421052225476e-7
          0 0 0 0 -4.609804249018241e-7 -4.742123640149115e-7
          -4.4111756689450934e-7 -4.369953430806975e-7 -9.214040629251496e-7 -9.478680276154608e-7 -8.817769584664008e-7 -8.716650094971844e-7
          0 0 -3.8082434407852654e-7 -3.97856716446403e-7 -7.620208704646258e-7 -7.956177639389228e-7
          0 0 0 0 -3.6613052036499295e-7 -3.3279282379173353e-7
          -3.555029195929394e-7 -3.9165719968970844e-7 -7.313474377834538e-7 -6.65286129413545e-7 -7.092387721432563e-7 -7.805029050885063e-7
          0 0 0 0 -4.834866029359683e-7 -5.229685241879111e-7
          -4.894777118790692e-7 -4.627816271680107e-7 -9.664834844963204e-7 -0.000001044433347192549 -9.780037812580592e-7 -9.254508931014644e-7
          0 0 -2.79966720264865e-7 -3.034725854493689e-7 -5.602144027200572e-7 -6.069287993250461e-7
          0 0 0 0 -3.7652590835912585e-7 -3.5745309964998204e-7
          -4.338901775876487e-7 -4.3816431417583994e-7 -7.51255092415338e-7 -7.1546810360549e-7 -8.665483721753716e-7 -8.756516589951772e-7
          0 0 0 -3.2719562526516624e-7 -3.3853526930774655e-7 -3.5764514815444916e-7
          -6.535810868891779e-7 -6.765175836261721e-7 -7.157383881316919e-7 0 0 0
          0 -5.75359307895197e-7 -5.841769040471835e-7 -5.730778947446667e-7 -5.690370741465482e-7 -0.000001147577036723678
          -0.00000116590169531786 -0.000001143687832019005 -0.0000011354016895073417 0 0 0
          0 -4.151724929415268e-7 -4.2384662949279337e-7 -3.9419181719366803e-7 -3.934434975579873e-7 -8.2984740009356e-7
          -8.473079935373524e-7 -7.884393597766658e-7 -7.859283687819896e-7 0 -4.4955463034120124e-7 -8.991882239362844e-7
          0 0 0 -3.5904439741999857e-7 -3.4336992087755584e-7 -3.3078752517573327e-7
          -7.173601545412893e-7 -6.859260200229926e-7 -6.627976271342259e-7 0 0 -4.2625424914533566e-7
          -4.481237328571459e-7 -8.515137361666679e-7 -8.958102844541167e-7 0 0 0
          0 -4.963340367477184e-7 -4.732232987449562e-7 -4.99824931592883e-7 -5.259260884685018e-7 -9.920836188715974e-7
          -9.466124141475264e-7 -9.992696246258377e-7 -0.0000010507672050852783 0 0 0
          0 -2.720224588364339e-7 -3.122516262711201e-7 -2.5020398334535614e-7 -1.9938005619124476e-7 -5.434021511489349e-7
          -6.225727791274655e-7 -5.013997343521177e-7 -4.0083297735073053e-7 0 0 0
          -4.221803071961564e-7 -4.1139340528591475e-7 -4.05253034787672e-7 -8.448512045770528e-7 -8.233212393528363e-7 -8.114241615617969e-7
          0 0 -1.4721893065470427e-7 -2.3154346749809944e-7 -2.982672534443483e-7 -4.6298767753449154e-7
          0 0 0 0 -3.8725606166090714e-7 -3.9368844267107375e-7
          -4.394115064042834e-7 -4.547123109949067e-7 -7.737213830195261e-7 -7.868983173850877e-7 -8.775034197249182e-7 -9.072966288779585e-7
          0 0 -4.4805736502317077e-7 -4.2428251093202485e-7 -8.965732252959157e-7 -8.489162070842609e-7
          0 0 -3.515855650737125e-7 -3.7332393531342786e-7 -7.021022341692559e-7 -7.447658543228365e-7
          0 0 -4.5713881263818163e-7 -3.9880206473328253e-7 -9.127760003790848e-7 -7.973836751823031e-7
          0 0 0 0 -3.068398229170547e-7 -2.903972104009603e-7
          -2.8641762071958354e-7 -3.07276489204907e-7 -6.142036504171802e-7 -5.815141152719051e-7 -5.739306206242166e-7 -6.155924302313911e-7
          0 0 -3.133917285138943e-7 -3.0543592046502467e-7 -6.266469903461234e-7 -6.080596570687047e-7
          0 -3.3013587820054087e-7 -6.590532278451177e-7 0 0 -3.626293038598531e-7
          -3.459757477770093e-7 -7.257570075073913e-7 -6.924619593243072e-7 0 0 0
          -3.824210528903006e-7 -3.757745880840715e-7 -3.8399522463711085e-7 -7.635768411247247e-7 -7.503374204013773e-7 -7.653627734577249e-7
          0 0 0 -3.4854264919822016e-7 -3.6282865198948314e-7 -3.028684408164863e-7
          -6.963326294051168e-7 -7.252314752104715e-7 -6.050471281957487e-7 0 -3.0906739444184137e-7 -6.192307689587738e-7
          0 -3.277362026211266e-7 -6.561255552218293e-7 0 0 -4.116387259787632e-7
          -4.231029708838081e-7 -8.212493069599457e-7 -8.446440280617282e-7 0 -3.696909900922721e-7 -7.387211070791384e-7
          0 0 0 -2.884075516922171e-7 -3.0670922181973594e-7 -3.319522258374273e-7
          -5.772837935740145e-7 -6.149059427787497e-7 -6.637190429953656e-7 0 0 -4.935509979709682e-7
          -5.01773695861911e-7 -9.8391298893422e-7 -0.0000010002910155158444 0 0 0
          0 -1.836040520770472e-7 -1.6130716309436986e-7 -1.6208912588186312e-7 -1.9403097887196316e-7 -3.6734850157813326e-7
          -3.223336202237281e-7 -3.247865930283779e-7 -3.8859204861195995e-7 0 0 0
          0 -2.6731922656420524e-7 -2.3070984225034788e-7 -2.4010670686558113e-7 -2.793376672113829e-7 -5.345355948200455e-7
          -4.617858660062679e-7 -4.803754866654473e-7 -5.584831397428125e-7 0 0 0
          -3.9627990268715025e-7 -3.7555238133118655e-7 -4.0196176734407006e-7 -7.925302290857088e-7 -7.503972248636621e-7 -8.035166683922282e-7
          0 -3.5805962773848286e-7 -7.159537472831222e-7 0 -3.8324774617516347e-7 -7.632932659268295e-7
          0 0 -1.4524748058380327e-7 -1.3328807542772144e-7 -2.9195454873918696e-7 -2.6782479418247837e-7
          0 0 -1.9584113919839792e-7 -2.2062316799215118e-7 -3.922697241567232e-7 -4.415113622597272e-7
          0 -3.3012811713873754e-7 -6.614908829539066e-7 0 0 0
          0 -3.195781062662545e-7 -3.482152968616575e-7 -3.387787652451411e-7 -3.04934074511865e-7 -6.393672898911293e-7
          -6.976841702627411e-7 -6.771976853216233e-7 -6.096197918812676e-7 0 -3.678309034749841e-7 -7.345971125835529e-7
          0 -3.2073943156779557e-7 -6.417216548152852e-7 0 0 -3.4497636782301624e-7
          -3.1384232446918925e-7 -6.901293972209768e-7 -6.272434937829121e-7 0 -2.637536744689307e-7 -5.279266531973004e-7
          0 0 -2.914452718643081e-7 -3.1555866070714007e-7 -5.834532888864038e-7 -6.32052922445921e-7
          0 -2.8836488673187306e-7 -5.788336342101252e-7 0 0 -3.2800482600950277e-7
          -3.31290406468815e-7 -6.565635464463726e-7 -6.634561823592614e-7 0 -3.2640888939509086e-7 -6.530314230838529e-7
          0 -3.028145844918433e-7 -6.050546593322854e-7 0 -3.402843504953747e-7 -6.815168059924931e-7
          0 0 -2.53771322810981e-7 -2.813502086455414e-7 -5.072693625577116e-7 -5.60438265135884e-7
          0 -3.60577205011475e-7 -7.22170270660684e-7 0 0 -3.9988062495267595e-7
          -3.9218043069972935e-7 -7.981564406261684e-7 -7.838693157030662e-7 0 0 0
          -5.324193782279022e-7 -5.459708973858339e-7 -5.336681206274148e-7 -0.0000010625545806018586 -0.0000010881204176003162 -0.0000010670268209653681
          0 0 0 -5.726265452633465e-7 -5.492920638707316e-7 -5.500124038797449e-7
          -0.0000011432267835192405 -0.0000010969455491760325 -0.000001098188902050762 0 0 -2.376390197572895e-7
          -2.9828481188021396e-7 -4.7612984881152744e-7 -5.977714334930021e-7 0 0 0
          -4.025180529341985e-7 -3.9955171028252827e-7 -3.913360390521364e-7 -8.044790539770775e-7 -7.983510128328099e-7 -7.82089330564558e-7
          0 0 -4.1261052370724067e-7 -3.988907033496133e-7 -8.246207102599788e-7 -7.977810711757143e-7
          0 -2.3928367417601884e-7 -4.789628207290124e-7 0 0 -5.514023270688968e-7
          -5.740406564935733e-7 -0.0000011007295243669942 -0.0000011463713497785155 0 0 -5.925120894533913e-7
          -5.875724644439231e-7 -0.0000011829181547375426 -0.0000011725030687962674 0 0 -5.268106451396834e-7
          -5.395526813399657e-7 -0.000001050189122788168 -0.0000010755056694100663 0 -4.7122964068452855e-7 -9.413675763103789e-7
          0 0 -5.082302002684162e-7 -5.134123508882553e-7 -0.00000101511670919988 -0.0000010258266076089306
          0 -4.6047094945510884e-7 -9.194781771900281e-7 0 -3.563751339573273e-7 -7.134304811184148e-7
          0 -4.097861881482737e-7 -8.196275752877902e-7 0 -3.468976507115007e-7 -6.947385426704951e-7
          0 -3.5123023716211556e-7 -7.028540481294143e-7 0 0 -3.8799362904045525e-7
          -3.4079005916653777e-7 -7.763469232834579e-7 -6.846359218210367e-7 0 0 -3.610329892315145e-7
          -3.5395711673930925e-7 -7.22707769372674e-7 -7.083006491436146e-7 0 -2.686765717970012e-7 -5.379346115681803e-7
          0 -2.5780121592623964e-7 -5.160269064109539e-7 0 -3.5169166537031444e-7 -7.034137410589189e-7
          0 -3.7769154642669993e-7 -7.549129919367132e-7 0 -2.0843723257459954e-7 -4.1928194434961363e-7
          0 -1.9827126129877884e-7 -3.97859848408745e-7 0 0 -4.501899215513064e-7
          -4.083446093760325e-7 -9.000278961695325e-7 -8.175144494403099e-7 0 -4.960632388103442e-7 -9.908948192975162e-7
          0 0 -5.560036448219045e-7 -5.397788065105964e-7 -0.0000011090817486034506 -0.0000010763755953255474
          0 0 0 -2.94751248417963e-7 -3.16446608011971e-7 -2.8278918151327703e-7
          -5.887978149913667e-7 -6.322851726703499e-7 -5.654211145762171e-7 0 -2.7054121358377266e-7 -5.412158537905243e-7
          0 -5.31556303849761e-7 -0.0000010610557502720533 0 0 -3.756350259660242e-7
          -3.747858276300388e-7 -7.511701710258883e-7 -7.495846673924476e-7 0 0 -5.188069372688927e-7
          -4.840758533780126e-7 -0.0000010365732673845041 -9.68095891812763e-7 0 -4.4456728340494004e-7 -8.899954842207058e-7
          0 0 -4.6845450151976166e-7 -4.34744642890203e-7 -9.36888252129793e-7 -8.708147415612524e-7
          0 0 0 0 -1.5813117705189756e-7 -1.6688609186810444e-7
          -1.6179908739827302e-7 -1.448042671939953e-7 -3.1822969004017107e-7 -3.374990024053664e-7 -3.250055976685199e-7 -2.921613095595791e-7
          0 -2.024858008904073e-7 -4.056415360695688e-7 0 -2.3639659585320907e-7 -4.750580416536654e-7
          0 0 -3.9821886950140285e-7 -3.9549521235357666e-7 -7.954711608855536e-7 -7.911450605209511e-7
          0 -3.7718297649429157e-7 -7.554570904346544e-7 0 0 -4.12581001642287e-7
          -4.1031765309413844e-7 -8.246086660375635e-7 -8.188605531358223e-7 0 0 -3.329282474394117e-7
          -2.7529597566885474e-7 -6.645901518783818e-7 -5.502716931121775e-7 0 -3.0126713521042017e-7 -6.025342217412199e-7
          0 0 -4.114838050928469e-7 -4.112310988039028e-7 -8.24532950427857e-7 -8.230290817706415e-7
          0 0 0 0 -2.2767871858951383e-7 -2.408629651855335e-7
          -2.1989643087375493e-7 -2.0151273794578956e-7 -4.5620299910704145e-7 -4.825539877616399e-7 -4.407358714929423e-7 -4.0405331093178633e-7
          0 -3.963087956222572e-7 -7.917785540474901e-7 0 0 -1.7388936543889158e-7
          -1.5016386025904646e-7 -3.489964063416113e-7 -3.0161375020495096e-7 0 0 -4.3898629573726933e-7
          -4.789794076996754e-7 -8.773930254312603e-7 -9.57151825509541e-7 0 -4.924366224668804e-7 -9.835242820968504e-7
          0 -3.8299212706595237e-7 -7.653110398692316e-7 0 -3.9565939344157e-7 -7.89920445651243e-7
          0 -1.9136989006047833e-7 -3.842614824340014e-7 0 -1.3821866844817536e-7 -2.7675242642665383e-7
          0 0 -3.9064531053555813e-7 -4.395027883965925e-7 -7.796952512839023e-7 -8.780013856298657e-7
          0 -1.6666393843956526e-7 -3.341742623451783e-7 0 -1.7814130093790387e-7 -3.5481126541301334e-7
          0 -4.009863705346984e-7 -8.006970489581695e-7 0 -5.641661375443201e-7 -0.0000011257490332206444
          0 -1.329960226194133e-7 -2.674077778498097e-7 0 -3.9127084926774954e-7 -7.833219215553874e-7
          0 0 0 -5.53021136634308e-7 -5.432542627712541e-7 -4.957748122238619e-7
          -0.0000011035459367412337 -0.0000010845018838525223 -9.891970079108192e-7 0 -1.9302184129662276e-7 -3.9042941860266065e-7
          0 0 -4.1559048242436587e-7 -4.0460381552782507e-7 -8.292860194692728e-7 -8.07897797236776e-7
          0 -2.2581547734040242e-7 -4.527216056817364e-7 0 -2.643389594329794e-7 -5.294421775693004e-7
          0 -4.21202681748274e-7 -8.410909256392468e-7 0 -1.436411998907494e-7 -2.886847980029794e-7
          0 0 -2.1330494691032987e-7 -2.472846525068335e-7 -4.2702480786067763e-7 -4.951121038985635e-7
          0 -2.613262407477122e-7 -5.235468567980446e-7 0 -1.240495317195911e-7 -2.4871546925967504e-7
          0 -4.244865313773067e-7 -8.470566618051151e-7 0 -4.18351772864281e-7 -8.353539791387403e-7
          0 -5.763196091880323e-7 -0.0000011505743600532024 0 -3.696988332870848e-7 -7.384311515153344e-7
          0 0 -3.988744049020532e-7 -3.9089283322101687e-7 -7.962347633745138e-7 -7.811334910256172e-7
          0 -4.2327089120729554e-7 -8.452625614466888e-7 0 0 -3.739525116400032e-7
          -3.809776719536304e-7 -7.476797936474639e-7 -7.613182176189743e-7 0 -3.9408302035576076e-7 -7.873659789705224e-7
          0 -3.7465202833987767e-7 -7.490071833568217e-7 0 -3.912780208720155e-7 -7.817329363581074e-7
          0 0 -3.173803996667995e-7 -3.312348499274522e-7 -6.365154084656913e-7 -6.644468235173799e-7
          0 -3.686893758341298e-7 -7.381878281091811e-7 0 -3.84279818069818e-7 -7.677664113645016e-7
        </DataArray>
      </PointData>
      <CellData>
        <DataArray type="Int32" Name="libmesh_elem_id" format="ascii" RangeMin="1392" RangeMax="3231">
          1392 1393 1402 1403 1418 1419
          1434 1435 1442 1443 1448 1449
          1454 1455 1478 1479 1500 1501
          1512 1513 1522 1523 1546 1547
          1572 1573 1582 1583 1590 1591
          1608 1609 1614 1615 1616 1617
          1630 1631 1638 1639 1650 1651
          1654 1655 1656 1657 1678 1679
          1682 1683 1684 1685 1704 1705
          1714 1715 1718 1719 1746 1747
          1760 1761 1762 1763 1772 1773
          1790 1791 1794 1795 1802 1803
          1816 1817 1824 1825 1832 1833
          1838 1839 1840 1841 1846 1847
          1848 1849 1852 1853 1856 1857
          1858 1859 1862 1863 1864 1865
          1874 1875 1876 1877 1878 1879
          1882 1883 1888 1889 1904 1905
          1906 1907 1910 1911 1916 1917
          1924 1925 1926 1927 1930 1931
          1936 1937 1946 1947 1950 1951
          1956 1957 1960 1961 1982 1983
          1996 1997 1998 1999 2026 2027
          2028 2029 2038 2039 2046 2047
          2048 2049 2052 2053 2054 2055
          2058 2059 2060 2061 2084 2085
          2088 2089 2096 2097 2102 2103
          2106 2107 2110 2111 2126 2127
          2136 2137 2138 2139 2144 2145
          2148 2149 2154 2155 2158 2159
          2162 2163 2164 2165 2170 2171
          2176 2177 2178 2179 2196 2197
          2200 2201 2202 2203 2204 2205
          2212 2213 2220 2221 2222 2223
          2224 2225 2226 2227 2228 2229
          2232 2233 2236 2237 2246 2247
          2250 2251 2252 2253 2254 2255
          2260 2261 2264 2265 2266 2267
          2274 2275 2282 2283 2308 2309
          2310 2311 2312 2313 2318 2319
          2324 2325 2328 2329 2346 2347
          2350 2351 2364 2365 2368 2369
          2370 2371 2402 2403 2416 2417
          2420 2421 2444 2445 2458 2459
          2462 2463 2466 2467 2468 2469
          2470 2471 2478 2479 2484 2485
          2488 2489 2490 2491 2502 2503
          2504 2505 2510 2511 2512 2513
          2524 2525 2550 2551 2566 2567
          2570 2571 2580 2581 2582 2583
          2602 2603 2608 2609 2616 2617
          2628 2629 2634 2635 2636 2637
          2640 2641 2642 2643 2644 2645
          2650 2651 2666 2667 2668 2669
          2684 2685 2690 2691 2696 2697
          2700 2701 2710 2711 2714 2715
          2716 2717 2726 2727 2750 2751
          2760 2761 2766 2767 2772 2773
          2782 2783 2798 2799 2802 2803
          2810 2811 2826 2827 2830 2831
          2838 2839 2860 2861 2868 2869
          2874 2875 2884 2885 2922 2923
          2928 2929 2934 2935 2938 2939
          2946 2947 2948 2949 2960 2961
          2962 2963 2964 2965 2974 2975
          2978 2979 2994 2995 2998 2999
          3004 3005 3008 3009 3020 3021
          3028 3029 3034 3035 3038 3039
          3040 3041 3042 3043 3050 3051
          3052 3053 3054 3055 3060 3061
          3066 3067 3072 3073 3076 3077
          3082 3083 3086 3087 3096 3097
          3100 3101 3102 3103 3112 3113
          3116 3117 3148 3149 3154 3155
          3158 3159 3166 3167 3182 3183
          3230 3231
        </DataArray>
        <DataArray type="Int32" Name="subdomain_id" format="ascii" RangeMin="107" RangeMax="107">
          107 107 107 107 107 107
          107 107 107 107 107 107
          107 107 107 107 107 107
          107 107 107 107 107 107
          107 107 107 107 107 107
          107 107 107 107 107 107
          107 107 107 107 107 107
          107 107 107 107 107 107
          107 107 107 107 107 107
          107 107 107 107 107 107
          107 107 107 107 107 107
          107 107 107 107 107 107
          107 107 107 107 107 107
          107 107 107 107 107 107
          107 107 107 107 107 107
          107 107 107 107 107 107
          107 107 107 107 107 107
          107 107 107 107 107 107
          107 107 107 107 107 107
          107 107 107 107 107 107
          107 107 107 107 107 107
          107 107 107 107 107 107
          107 107 107 107 107 107
          107 107 107 107 107 107
          107 107 107 107 107 107
          107 107 107 107 107 107
          107 107 107 107 107 107
          107 107 107 107 107 107
          107 107 107 107 107 107
          107 107 107 107 107 107
          107 107 107 107 107 107
          107 107 107 107 107 107
          107 107 107 107 107 107
          107 107 107 107 107 107
          107 107 107 107 107 107
          107 107 107 107 107 107
          107 107 107 107 107 107
          107 107 107 107 107 107
          107 107 107 107 107 107
          107 107 107 107 107 107
          107 107 107 107 107 107
          107 107 107 107 107 107
          107 107 107 107 107 107
          107 107 107 107 107 107
          107 107 107 107 107 107
          107 107 107 107 107 107
          107 107 107 107 107 107
          107 107 107 107 107 107
          107 107 107 107 107 107
          107 107 107 107 107 107
          107 107 107 107 107 107
          107 107 107 107 107 107
          107 107 107 107 107 107
          107 107 107 107 107 107
          107 107 107 107 107 107
          107 107 107 107 107 107
          107 107 107 107 107 107
          107 107 107 107 107 107
          107 107 107 107 107 107
          107 107 107 107 107 107
          107 107 107 107 107 107
          107 107 107 107 107 107
          107 107 107 107 107 107
          107 107 107 107 107 107
          107 107 107 107 107 107
          107 107 107 107 107 107
          107 107 107 107 107 107
          107 107 107 107 107 107
          107 107 107 107 107 107
          107 107 107 107 107 107
          107 107 107 107 107 107
          107 107 107 107 107 107
          107 107 107 107 107 107
          107 107 107 107 107 107
          107 107 107 107 107 107
          107 107
        </DataArray>
        <DataArray type="Int32" Name="processor_id" format="ascii" RangeMin="2" RangeMax="2">
          2 2 2 2 2 2
          2 2 2 2 2 2
          2 2 2 2 2 2
          2 2 2 2 2 2
          2 2 2 2 2 2
          2 2 2 2 2 2
          2 2 2 2 2 2
          2 2 2 2 2 2
          2 2 2 2 2 2
          2 2 2 2 2 2
          2 2 2 2 2 2
          2 2 2 2 2 2
          2 2 2 2 2 2
          2 2 2 2 2 2
          2 2 2 2 2 2
          2 2 2 2 2 2
          2 2 2 2 2 2
          2 2 2 2 2 2
          2 2 2 2 2 2
          2 2 2 2 2 2
          2 2 2 2 2 2
          2 2 2 2 2 2
          2 2 2 2 2 2
          2 2 2 2 2 2
          2 2 2 2 2 2
          2 2 2 2 2 2
          2 2 2 2 2 2
          2 2 2 2 2 2
          2 2 2 2 2 2
          2 2 2 2 2 2
          2 2 2 2 2 2
          2 2 2 2 2 2
          2 2 2 2 2 2
          2 2 2 2 2 2
          2 2 2 2 2 2
          2 2 2 2 2 2
          2 2 2 2 2 2
          2 2 2 2 2 2
          2 2 2 2 2 2
          2 2 2 2 2 2
          2 2 2 2 2 2
          2 2 2 2 2 2
          2 2 2 2 2 2
          2 2 2 2 2 2
          2 2 2 2 2 2
          2 2 2 2 2 2
          2 2 2 2 2 2
          2 2 2 2 2 2
          2 2 2 2 2 2
          2 2 2 2 2 2
          2 2 2 2 2 2
          2 2 2 2 2 2
          2 2 2 2 2 2
          2 2 2 2 2 2
          2 2 2 2 2 2
          2 2 2 2 2 2
          2 2 2 2 2 2
          2 2 2 2 2 2
          2 2 2 2 2 2
          2 2 2 2 2 2
          2 2 2 2 2 2
          2 2 2 2 2 2
          2 2 2 2 2 2
          2 2 2 2 2 2
          2 2 2 2 2 2
          2 2 2 2 2 2
          2 2 2 2 2 2
          2 2 2 2 2 2
          2 2 2 2 2 2
          2 2 2 2 2 2
          2 2 2 2 2 2
          2 2 2 2 2 2
          2 2 2 2 2 2
          2 2 2 2 2 2
          2 2 2 2 2 2
          2 2
        </DataArray>
      </CellData>
      <Points>
        <DataArray type="Float64" Name="Points" NumberOfComponents="3" format="ascii" RangeMin="0.0055128205128194" RangeMax="0.014586579917196396">
          0.010655961336451 0.0054415469453289 0 0.010738296327413 0.0059250363170334 0
          0.010252884061106 0.0059462536680524 0 0.010205117478458 0.0054994523140404 0
          0.010655961336451 0.0054415469453289 0.00015 0.010738296327413 0.0059250363170334 0.00015
          0.010252884061106 0.0059462536680524 0.00015 0.010205117478458 0.0054994523140404 0.00015
          0.010655961336451 0.0054415469453289 0.0003 0.010738296327413 0.0059250363170334 0.0003
          0.010252884061106 0.0059462536680524 0.0003 0.010205117478458 0.0054994523140404 0.0003
          0.011940440807394 0.0034141066074527 0 0.011459595517011 0.003824326979063 0
          0.011102612382238 0.0034627190197861 0 0.011355953963772 0.0030463545109029 0
          0.011940440807394 0.0034141066074527 0.00015 0.011459595517011 0.003824326979063 0.00015
          0.011102612382238 0.0034627190197861 0.00015 0.011355953963772 0.0030463545109029 0.00015
          0.011940440807394 0.0034141066074527 0.0003 0.011459595517011 0.003824326979063 0.0003
          0.011102612382238 0.0034627190197861 0.0003 0.011355953963772 0.0030463545109029 0.0003
          0.010057653370411 0.0084974472595183 0 0.01054988842507 0.0084422245958245 0
          0.010057653370411 0.0084974472595183 0.00015 0.01054988842507 0.0084422245958245 0.00015
          0.010057653370411 0.0084974472595183 0.0003 0.01054988842507 0.0084422245958245 0.0003
          0.011046194733105 0.00090743319272295 0 0.011064186406242 0.00044456569898216 0
          0.011549090679959 0.00043919238601916 0 0.011507246232172 0.00087204304167501 0
          0.011046194733105 0.00090743319272295 0.00015 0.011064186406242 0.00044456569898216 0.00015
          0.011549090679959 0.00043919238601916 0.00015 0.011507246232172 0.00087204304167501 0.00015
          0.011046194733105 0.00090743319272295 0.0003 0.011064186406242 0.00044456569898216 0.0003
          0.011549090679959 0.00043919238601916 0.0003 0.011507246232172 0.00087204304167501 0.0003
          0.010695724673322 0.003201084864495 0 0.010922769205465 0.002821493997395 0
          0.010695724673322 0.003201084864495 0.00015 0.010922769205465 0.002821493997395 0.00015
          0.010695724673322 0.003201084864495 0.0003 0.010922769205465 0.002821493997395 0.0003
          0.0063972422249218 0.0045440807567198 0 0.0065062213292024 0.0050164807168814 0
          0.0062389906493372 0.0053128670028646 0 0.0060512178389602 0.0047929387822649 0
          0.0063972422249218 0.0045440807567198 0.00015 0.0065062213292024 0.0050164807168814 0.00015
          0.0062389906493372 0.0053128670028646 0.00015 0.0060512178389602 0.0047929387822649 0.00015
          0.0063972422249218 0.0045440807567198 0.0003 0.0065062213292024 0.0050164807168814 0.0003
          0.0062389906493372 0.0053128670028646 0.0003 0.0060512178389602 0.0047929387822649 0.0003
          0.0077450758336629 0.0014176167893871 0 0.0081853433575 0.0016343392489207 0
          0.0081296210030831 0.0020475545417094 0 0.0077097822266787 0.0019577759081516 0
          0.0077450758336629 0.0014176167893871 0.00015 0.0081853433575 0.0016343392489207 0.00015
          0.0081296210030831 0.0020475545417094 0.00015 0.0077097822266787 0.0019577759081516 0.00015
          0.0077450758336629 0.0014176167893871 0.0003 0.0081853433575 0.0016343392489207 0.0003
          0.0081296210030831 0.0020475545417094 0.0003 0.0077097822266787 0.0019577759081516 0.0003
          0.010163700921554 0.0050965322104848 0 0.010539876174215 0.0050107335132671 0
          0.010163700921554 0.0050965322104848 0.00015 0.010539876174215 0.0050107335132671 0.00015
          0.010163700921554 0.0050965322104848 0.0003 0.010539876174215 0.0050107335132671 0.0003
          0.0067145785472978 0.00092067788586619 0 0.0066311284750677 0.00045344715700039 0
          0.0071039644964018 0.00045254776362746 0 0.0071622170579096 0.00091220258976311 0
          0.0067145785472978 0.00092067788586619 0.00015 0.0066311284750677 0.00045344715700039 0.00015
          0.0071039644964018 0.00045254776362746 0.00015 0.0071622170579096 0.00091220258976311 0.00015
          0.0067145785472978 0.00092067788586619 0.0003 0.0066311284750677 0.00045344715700039 0.0003
          0.0071039644964018 0.00045254776362746 0.0003 0.0071622170579096 0.00091220258976311 0.0003
          0.011832021157187 0.0073476785459853 0 0.011779780861271 0.0068646395959748 0
          0.012243708910156 0.0068324173193727 0 0.011832021157187 0.0073476785459853 0.00015
          0.011779780861271 0.0068646395959748 0.00015 0.012243708910156 0.0068324173193727 0.00015
          0.011832021157187 0.0073476785459853 0.0003 0.011779780861271 0.0068646395959748 0.0003
          0.012243708910156 0.0068324173193727 0.0003 0.0084907788898463 0.00044286110481525 0
          0.0089555217282148 0.00046389179151574 0 0.0088246864415892 0.00090448805343066 0
          0.0084146790711037 0.00087434414493667 0 0.0084907788898463 0.00044286110481525 0.00015
          0.0089555217282148 0.00046389179151574 0.00015 0.0088246864415892 0.00090448805343066 0.00015
          0.0084146790711037 0.00087434414493667 0.00015 0.0084907788898463 0.00044286110481525 0.0003
          0.0089555217282148 0.00046389179151574 0.0003 0.0088246864415892 0.00090448805343066 0.0003
          0.0084146790711037 0.00087434414493667 0.0003 0.0073198391209489 0.002802975731369 0
          0.007729981097025 0.0028801564362105 0 0.0077015154526268 0.0033237594367458 0
          0.0072927827923603 0.0032114269239825 0 0.0073198391209489 0.002802975731369 0.00015
          0.007729981097025 0.0028801564362105 0.00015 0.0077015154526268 0.0033237594367458 0.00015
          0.0072927827923603 0.0032114269239825 0.00015 0.0073198391209489 0.002802975731369 0.0003
          0.007729981097025 0.0028801564362105 0.0003 0.0077015154526268 0.0033237594367458 0.0003
          0.0072927827923603 0.0032114269239825 0.0003 0.011061956134478 0.0014022262787872 0
          0.011061956134478 0.0014022262787872 0.00015 0.011061956134478 0.0014022262787872 0.0003
          0.0067262777673885 0.0043003855308917 0 0.0070184374453973 0.0044097475846897 0
          0.0069143452336461 0.0047780273607631 0 0.0067262777673885 0.0043003855308917 0.00015
          0.0070184374453973 0.0044097475846897 0.00015 0.0069143452336461 0.0047780273607631 0.00015
          0.0067262777673885 0.0043003855308917 0.0003 0.0070184374453973 0.0044097475846897 0.0003
          0.0069143452336461 0.0047780273607631 0.0003 0.0072966772765568 0.0023596996909359 0
          0.0077191611848381 0.0024307703640478 0 0.0072966772765568 0.0023596996909359 0.00015
          0.0077191611848381 0.0024307703640478 0.00015 0.0072966772765568 0.0023596996909359 0.0003
          0.0077191611848381 0.0024307703640478 0.0003 0.010569749843509 0.00092230265866691 0
          0.010578573679683 0.0013844170604281 0 0.010145320905195 0.0014335884987508 0
          0.01008894187929 0.00096115561381429 0 0.010569749843509 0.00092230265866691 0.00015
          0.010578573679683 0.0013844170604281 0.00015 0.010145320905195 0.0014335884987508 0.00015
          0.01008894187929 0.00096115561381429 0.00015 0.010569749843509 0.00092230265866691 0.0003
          0.010578573679683 0.0013844170604281 0.0003 0.010145320905195 0.0014335884987508 0.0003
          0.01008894187929 0.00096115561381429 0.0003 0.0061669869081239 0.00049673093518566 0
          0.0062913293509889 0.00097410606592609 0 0.0059245902968253 0.0010856763727913 0
          0.0057061681768373 0.00065177476244477 0 0.0061669869081239 0.00049673093518566 0.00015
          0.0062913293509889 0.00097410606592609 0.00015 0.0059245902968253 0.0010856763727913 0.00015
          0.0057061681768373 0.00065177476244477 0.00015 0.0061669869081239 0.00049673093518566 0.0003
          0.0062913293509889 0.00097410606592609 0.0003 0.0059245902968253 0.0010856763727913 0.0003
          0.0057061681768373 0.00065177476244477 0.0003 0.010613957240618 0.0022894151744625 0
          0.011031068838334 0.0023895404946521 0 0.01053554486979 0.0026566023779455 0
          0.010613957240618 0.0022894151744625 0.00015 0.011031068838334 0.0023895404946521 0.00015
          0.01053554486979 0.0026566023779455 0.00015 0.010613957240618 0.0022894151744625 0.0003
          0.011031068838334 0.0023895404946521 0.0003 0.01053554486979 0.0026566023779455 0.0003
          0.0055128205128194 0 0 0.0060256410256386 0 0
          0.0055128205128194 0 0.00015 0.0060256410256386 0 0.00015
          0.0055128205128194 0 0.0003 0.0060256410256386 0 0.0003
          0.0087932726011055 0.003543484648519 0 0.0081725565838686 0.0034418576035907 0
          0.0081844882448281 0.0029554535172717 0 0.0086653225286358 0.0029358056411338 0
          0.0087932726011055 0.003543484648519 0.00015 0.0081725565838686 0.0034418576035907 0.00015
          0.0081844882448281 0.0029554535172717 0.00015 0.0086653225286358 0.0029358056411338 0.00015
          0.0087932726011055 0.003543484648519 0.0003 0.0081725565838686 0.0034418576035907 0.0003
          0.0081844882448281 0.0029554535172717 0.0003 0.0086653225286358 0.0029358056411338 0.0003
          0.010609256891376 0.0018508518753275 0 0.011063963632424 0.0019108783312894 0
          0.010609256891376 0.0018508518753275 0.00015 0.011063963632424 0.0019108783312894 0.00015
          0.010609256891376 0.0018508518753275 0.0003 0.011063963632424 0.0019108783312894 0.0003
          0.0061614658010566 0.0029736343202522 0 0.0061372854142827 0.0036106222238676 0
          0.0061614658010566 0.0029736343202522 0.00015 0.0061372854142827 0.0036106222238676 0.00015
          0.0061614658010566 0.0029736343202522 0.0003 0.0061372854142827 0.0036106222238676 0.0003
          0.0091223832784702 0.0028108558594978 0 0.0093224708097351 0.0032450014434347 0
          0.0091223832784702 0.0028108558594978 0.00015 0.0093224708097351 0.0032450014434347 0.00015
          0.0091223832784702 0.0028108558594978 0.0003 0.0093224708097351 0.0032450014434347 0.0003
          0.010365654248251 0.0046741943492533 0 0.010130092133721 0.0048347586786618 0
          0.0098673679311407 0.0047157860708196 0 0.010078628200493 0.0044157313734999 0
          0.010365654248251 0.0046741943492533 0.00015 0.010130092133721 0.0048347586786618 0.00015
          0.0098673679311407 0.0047157860708196 0.00015 0.010078628200493 0.0044157313734999 0.00015
          0.010365654248251 0.0046741943492533 0.0003 0.010130092133721 0.0048347586786618 0.0003
          0.0098673679311407 0.0047157860708196 0.0003 0.010078628200493 0.0044157313734999 0.0003
          0.0074225055052033 0.0045889494028562 0 0.0073125071067115 0.0049521547682488 0
          0.0074225055052033 0.0045889494028562 0.00015 0.0073125071067115 0.0049521547682488 0.00015
          0.0074225055052033 0.0045889494028562 0.0003 0.0073125071067115 0.0049521547682488 0.0003
          0.0061231952422177 0.002444135475079 0 0.0061231952422177 0.002444135475079 0.00015
          0.0061231952422177 0.002444135475079 0.0003 0.007634491258567 0.0037589111207536 0
          0.0080978935956725 0.0039120786728548 0 0.007634491258567 0.0037589111207536 0.00015
          0.0080978935956725 0.0039120786728548 0.00015 0.007634491258567 0.0037589111207536 0.0003
          0.0080978935956725 0.0039120786728548 0.0003 0.0067400809843091 0.0034207975388345 0
          0.0067100713183769 0.0039836679330495 0 0.0063054236008776 0.0041223407032968 0
          0.0067400809843091 0.0034207975388345 0.00015 0.0067100713183769 0.0039836679330495 0.00015
          0.0063054236008776 0.0041223407032968 0.00015 0.0067400809843091 0.0034207975388345 0.0003
          0.0067100713183769 0.0039836679330495 0.0003 0.0063054236008776 0.0041223407032968 0.0003
          0.0064429727892239 0.0018594619814901 0 0.0065003657821779 0.0023397297588745 0
          0.0060722038988066 0.0019538017587265 0 0.0064429727892239 0.0018594619814901 0.00015
          0.0065003657821779 0.0023397297588745 0.00015 0.0060722038988066 0.0019538017587265 0.00015
          0.0064429727892239 0.0018594619814901 0.0003 0.0065003657821779 0.0023397297588745 0.0003
          0.0060722038988066 0.0019538017587265 0.0003 0.0068255396015086 0.0051581133306003 0
          0.0068255396015086 0.0051581133306003 0.00015 0.0068255396015086 0.0051581133306003 0.0003
          0.0065384615384579 0 0 0.0065384615384579 0 0.00015
          0.0065384615384579 0 0.0003 0.012879713087233 0.0060908484912964 0
          0.012982043505355 0.0056371881930815 0 0.012879713087233 0.0060908484912964 0.00015
          0.012982043505355 0.0056371881930815 0.00015 0.012879713087233 0.0060908484912964 0.0003
          0.012982043505355 0.0056371881930815 0.0003 0.0065699942646101 0.0028542668018424 0
          0.0065699942646101 0.0028542668018424 0.00015 0.0065699942646101 0.0028542668018424 0.0003
          0.0084683943974961 0.0045583446766593 0 0.0079943718437571 0.0043747262241866 0
          0.0085823759797054 0.0040943119694046 0 0.0084683943974961 0.0045583446766593 0.00015
          0.0079943718437571 0.0043747262241866 0.00015 0.0085823759797054 0.0040943119694046 0.00015
          0.0084683943974961 0.0045583446766593 0.0003 0.0079943718437571 0.0043747262241866 0.0003
          0.0085823759797054 0.0040943119694046 0.0003 0.0085830886495109 0.0024681574500846 0
          0.0090044137010858 0.0023542069269131 0 0.0085830886495109 0.0024681574500846 0.00015
          0.0090044137010858 0.0023542069269131 0.00015 0.0085830886495109 0.0024681574500846 0.0003
          0.0090044137010858 0.0023542069269131 0.0003 0.0098857235699117 0.0079055319030787 0
          0.0095144479526816 0.0076594245921199 0 0.0094715724969347 0.0073263583858313 0
          0.0099283521138692 0.0073475677072736 0 0.0098857235699117 0.0079055319030787 0.00015
          0.0095144479526816 0.0076594245921199 0.00015 0.0094715724969347 0.0073263583858313 0.00015
          0.0099283521138692 0.0073475677072736 0.00015 0.0098857235699117 0.0079055319030787 0.0003
          0.0095144479526816 0.0076594245921199 0.0003 0.0094715724969347 0.0073263583858313 0.0003
          0.0099283521138692 0.0073475677072736 0.0003 0.010833716827414 0.0069257207373803 0
          0.010357413059119 0.0069077241183533 0 0.010300982556592 0.0064274708783385 0
          0.010786080808085 0.0064391381968206 0 0.010833716827414 0.0069257207373803 0.00015
          0.010357413059119 0.0069077241183533 0.00015 0.010300982556592 0.0064274708783385 0.00015
          0.010786080808085 0.0064391381968206 0.00015 0.010833716827414 0.0069257207373803 0.0003
          0.010357413059119 0.0069077241183533 0.0003 0.010300982556592 0.0064274708783385 0.0003
          0.010786080808085 0.0064391381968206 0.0003 0.012723582323863 0.006509831652106 0
          0.012251440655851 0.0062918667587536 0 0.012542392069256 0.0059723735377719 0
          0.012723582323863 0.006509831652106 0.00015 0.012251440655851 0.0062918667587536 0.00015
          0.012542392069256 0.0059723735377719 0.00015 0.012723582323863 0.006509831652106 0.0003
          0.012251440655851 0.0062918667587536 0.0003 0.012542392069256 0.0059723735377719 0.0003
          0.0071151184692216 0.0040272738406853 0 0.0071151184692216 0.0040272738406853 0.00015
          0.0071151184692216 0.0040272738406853 0.0003 0.005927800859391 0.0043689372395662 0
          0.005927800859391 0.0043689372395662 0.00015 0.005927800859391 0.0043689372395662 0.0003
          0.0092411258002763 0.0078319639415625 0 0.0089588909882048 0.0073942383853577 0
          0.0092411258002763 0.0078319639415625 0.00015 0.0089588909882048 0.0073942383853577 0.00015
          0.0092411258002763 0.0078319639415625 0.0003 0.0089588909882048 0.0073942383853577 0.0003
          0.009874674666521 0.0068715373563056 0 0.010410157305432 0.007394545582291 0
          0.009874674666521 0.0068715373563056 0.00015 0.010410157305432 0.007394545582291 0.00015
          0.009874674666521 0.0068715373563056 0.0003 0.010410157305432 0.007394545582291 0.0003
          0.0075354000991736 0.004186248288406 0 0.0075354000991736 0.004186248288406 0.00015
          0.0075354000991736 0.004186248288406 0.0003 0.01131847387487 0.0058224977902188 0
          0.011696082283392 0.0060272916092408 0 0.011725204011411 0.0063910302275778 0
          0.011265055974573 0.0064250601080915 0 0.01131847387487 0.0058224977902188 0.00015
          0.011696082283392 0.0060272916092408 0.00015 0.011725204011411 0.0063910302275778 0.00015
          0.011265055974573 0.0064250601080915 0.00015 0.01131847387487 0.0058224977902188 0.0003
          0.011696082283392 0.0060272916092408 0.0003 0.011725204011411 0.0063910302275778 0.0003
          0.011265055974573 0.0064250601080915 0.0003 0.012000241143886 0.0058170880130831 0
          0.012000241143886 0.0058170880130831 0.00015 0.012000241143886 0.0058170880130831 0.0003
          0.011120492592586 0.0052514705902296 0 0.011120492592586 0.0052514705902296 0.00015
          0.011120492592586 0.0052514705902296 0.0003 0.0092910901193945 0.0039260363263486 0
          0.0090503465409481 0.0043132092761106 0 0.0092910901193945 0.0039260363263486 0.00015
          0.0090503465409481 0.0043132092761106 0.00015 0.0092910901193945 0.0039260363263486 0.0003
          0.0090503465409481 0.0043132092761106 0.0003 0.007889027184575 0.0048982243533992 0
          0.007889027184575 0.0048982243533992 0.00015 0.007889027184575 0.0048982243533992 0.0003
          0.0094935553236164 0.004533528646427 0 0.0097061514105808 0.0041851036755216 0
          0.0094935553236164 0.004533528646427 0.00015 0.0097061514105808 0.0041851036755216 0.00015
          0.0094935553236164 0.004533528646427 0.0003 0.0097061514105808 0.0041851036755216 0.0003
          0.007602124101561 0.0050930903063015 0 0.007602124101561 0.0050930903063015 0.00015
          0.007602124101561 0.0050930903063015 0.0003 0.010723762445737 0.0044202706845482 0
          0.010410164583979 0.0041181159817359 0 0.010723762445737 0.0044202706845482 0.00015
          0.010410164583979 0.0041181159817359 0.00015 0.010723762445737 0.0044202706845482 0.0003
          0.010410164583979 0.0041181159817359 0.0003 0.01095205032792 0.0047963590452232 0
          0.01095205032792 0.0047963590452232 0.00015 0.01095205032792 0.0047963590452232 0.0003
          0.011303178752756 0.0069106117689346 0 0.011303178752756 0.0069106117689346 0.00015
          0.011303178752756 0.0069106117689346 0.0003 0.01003253261535 0.0038623502872685 0
          0.01003253261535 0.0038623502872685 0.00015 0.01003253261535 0.0038623502872685 0.0003
          0.0076528923620256 0.0053996878686031 0 0.0072494384034052 0.005322441352826 0
          0.0076528923620256 0.0053996878686031 0.00015 0.0072494384034052 0.005322441352826 0.00015
          0.0076528923620256 0.0053996878686031 0.0003 0.0072494384034052 0.005322441352826 0.0003
          0.0096442187720765 0.0035928190702974 0 0.0096442187720765 0.0035928190702974 0.00015
          0.0096442187720765 0.0035928190702974 0.0003 0.012013949131265 0.002158444108951 0
          0.012018063243501 0.0027123142038817 0 0.012013949131265 0.002158444108951 0.00015
          0.012018063243501 0.0027123142038817 0.00015 0.012013949131265 0.002158444108951 0.0003
          0.012018063243501 0.0027123142038817 0.0003 0.0080144547016537 0.00086684480617367 0
          0.008304219624614 0.0012703006012415 0 0.0080327132462595 0.0011721512048422 0
          0.0080144547016537 0.00086684480617367 0.00015 0.008304219624614 0.0012703006012415 0.00015
          0.0080327132462595 0.0011721512048422 0.00015 0.0080144547016537 0.00086684480617367 0.0003
          0.008304219624614 0.0012703006012415 0.0003 0.0080327132462595 0.0011721512048422 0.0003
          0.0094736490244467 0.0005865877812969 0 0.010068957850501 0.00047856930843549 0
          0.0096358530086744 0.0010887425154837 0 0.0094736490244467 0.0005865877812969 0.00015
          0.010068957850501 0.00047856930843549 0.00015 0.0096358530086744 0.0010887425154837 0.00015
          0.0094736490244467 0.0005865877812969 0.0003 0.010068957850501 0.00047856930843549 0.0003
          0.0096358530086744 0.0010887425154837 0.0003 0.0071984303565192 0.0057392272964834 0
          0.0067200519522164 0.0055550541115669 0 0.0071984303565192 0.0057392272964834 0.00015
          0.0067200519522164 0.0055550541115669 0.00015 0.0071984303565192 0.0057392272964834 0.0003
          0.0067200519522164 0.0055550541115669 0.0003 0.013091675611077 0.0041736873632184 0
          0.012621380555602 0.004071395146678 0 0.012601464682814 0.0035037767307713 0
          0.013091675611077 0.0041736873632184 0.00015 0.012621380555602 0.004071395146678 0.00015
          0.012601464682814 0.0035037767307713 0.00015 0.013091675611077 0.0041736873632184 0.0003
          0.012621380555602 0.004071395146678 0.0003 0.012601464682814 0.0035037767307713 0.0003
          0.01153639784925 0.0020208067996516 0 0.011496246026306 0.0025480504488598 0
          0.01153639784925 0.0020208067996516 0.00015 0.011496246026306 0.0025480504488598 0.00015
          0.01153639784925 0.0020208067996516 0.0003 0.011496246026306 0.0025480504488598 0.0003
          0.011043213382792 0.0084269911709333 0 0.011043213382792 0.0084269911709333 0.00015
          0.011043213382792 0.0084269911709333 0.0003 0.010128205128191 0 0
          0.0096153846153732 0 0 0.010128205128191 0 0.00015
          0.0096153846153732 0 0.00015 0.010128205128191 0 0.0003
          0.0096153846153732 0 0.0003 0.0091025641025551 0 0
          0.0085897435897353 0 0 0.0091025641025551 0 0.00015
          0.0085897435897353 0 0.00015 0.0091025641025551 0 0.0003
          0.0085897435897353 0 0.0003 0.0085182476127008 0.0020437661198126 0
          0.0089029205554566 0.0019047336662455 0 0.0085182476127008 0.0020437661198126 0.00015
          0.0089029205554566 0.0019047336662455 0.00015 0.0085182476127008 0.0020437661198126 0.0003
          0.0089029205554566 0.0019047336662455 0.0003 0.0081522818828449 0.0024947087352937 0
          0.0081522818828449 0.0024947087352937 0.00015 0.0081522818828449 0.0024947087352937 0.0003
          0.010641025641009 0 0 0.010579843756946 0.00045349299099366 0
          0.010641025641009 0 0.00015 0.010579843756946 0.00045349299099366 0.00015
          0.010641025641009 0 0.0003 0.010579843756946 0.00045349299099366 0.0003
          0.011153846153828 0 0 0.011153846153828 0 0.00015
          0.011153846153828 0 0.0003 0.011760912133753 0.0054122119446059 0
          0.011760912133753 0.0054122119446059 0.00015 0.011760912133753 0.0054122119446059 0.0003
          0.011666666666648 0 0 0.011666666666648 0 0.00015
          0.011666666666648 0 0.0003 0.011547825504055 0.0049713459697514 0
          0.011547825504055 0.0049713459697514 0.00015 0.011547825504055 0.0049713459697514 0.0003
          0.011349632014182 0.0045239710214715 0 0.011349632014182 0.0045239710214715 0.00015
          0.011349632014182 0.0045239710214715 0.0003 0.011997463288521 0.00046572766410539 0
          0.012179487179468 0 0 0.011997463288521 0.00046572766410539 0.00015
          0.012179487179468 0 0.00015 0.011997463288521 0.00046572766410539 0.0003
          0.012179487179468 0 0.0003 0.01039056673058 0.0035410773695937 0
          0.010772622187787 0.0038062315725381 0 0.01039056673058 0.0035410773695937 0.00015
          0.010772622187787 0.0038062315725381 0.00015 0.01039056673058 0.0035410773695937 0.0003
          0.010772622187787 0.0038062315725381 0.0003 0.0089323359070786 0.0047421281357296 0
          0.0089323359070786 0.0047421281357296 0.00015 0.0089323359070786 0.0047421281357296 0.0003
          0.010891746765568 0.007407252260552 0 0.010891746765568 0.007407252260552 0.00015
          0.010891746765568 0.007407252260552 0.0003 0.011089383238376 0.0041358143249023 0
          0.011089383238376 0.0041358143249023 0.00015 0.011089383238376 0.0041358143249023 0.0003
          0.007205317033861 0.0036141963404016 0 0.007205317033861 0.0036141963404016 0.00015
          0.007205317033861 0.0036141963404016 0.0003 0.0080269839945158 0.0054023282425744 0
          0.0080269839945158 0.0054023282425744 0.00015 0.0080269839945158 0.0054023282425744 0.0003
          0.0077721363879251 0.0058968168784219 0 0.0077721363879251 0.0058968168784219 0.00015
          0.0077721363879251 0.0058968168784219 0.0003 0.0095370253310475 0.0025850582106885 0
          0.009732219723835 0.0029713438236062 0 0.0095370253310475 0.0025850582106885 0.00015
          0.009732219723835 0.0029713438236062 0.00015 0.0095370253310475 0.0025850582106885 0.0003
          0.009732219723835 0.0029713438236062 0.0003 0.0094100372761059 0.0021522308351028 0
          0.0094100372761059 0.0021522308351028 0.00015 0.0094100372761059 0.0021522308351028 0.0003
          0.0087313387484914 0.001424359608332 0 0.0084651319029022 0.0017289788972556 0
          0.0087313387484914 0.001424359608332 0.00015 0.0084651319029022 0.0017289788972556 0.00015
          0.0087313387484914 0.001424359608332 0.0003 0.0084651319029022 0.0017289788972556 0.0003
          0.011363196701121 0.0073867521895413 0 0.011894488312007 0.0078344841271679 0
          0.011431801070778 0.0078815011129823 0 0.011363196701121 0.0073867521895413 0.00015
          0.011894488312007 0.0078344841271679 0.00015 0.011431801070778 0.0078815011129823 0.00015
          0.011363196701121 0.0073867521895413 0.0003 0.011894488312007 0.0078344841271679 0.0003
          0.011431801070778 0.0078815011129823 0.0003 0.011511795106494 0.0083968566041475 0
          0.011511795106494 0.0083968566041475 0.00015 0.011511795106494 0.0083968566041475 0.0003
          0.0093066157528448 0.0017085494075796 0 0.0093066157528448 0.0017085494075796 0.00015
          0.0093066157528448 0.0017085494075796 0.0003 0.011737204813157 0.0042624504192267 0
          0.011920232844873 0.0047153506313134 0 0.011737204813157 0.0042624504192267 0.00015
          0.011920232844873 0.0047153506313134 0.00015 0.011737204813157 0.0042624504192267 0.0003
          0.011920232844873 0.0047153506313134 0.0003 0.0097199155871303 0.0015315099671301 0
          0.0098040259351994 0.0019696894002764 0 0.0097199155871303 0.0015315099671301 0.00015
          0.0098040259351994 0.0019696894002764 0.00015 0.0097199155871303 0.0015315099671301 0.0003
          0.0098040259351994 0.0019696894002764 0.0003 0.0099068743951204 0.0023814903757239 0
          0.0099068743951204 0.0023814903757239 0.00015 0.0099068743951204 0.0023814903757239 0.0003
          0.010196799496301 0.0018655242590307 0 0.010252080701677 0.0022738797315184 0
          0.010196799496301 0.0018655242590307 0.00015 0.010252080701677 0.0022738797315184 0.00015
          0.010196799496301 0.0018655242590307 0.0003 0.010252080701677 0.0022738797315184 0.0003
          0.0082479601882269 0.0062087007836213 0 0.0083721174281176 0.0058457654542534 0
          0.0087793359412623 0.006030240425184 0 0.0086690881028679 0.0063945203238097 0
          0.0082479601882269 0.0062087007836213 0.00015 0.0083721174281176 0.0058457654542534 0.00015
          0.0087793359412623 0.006030240425184 0.00015 0.0086690881028679 0.0063945203238097 0.00015
          0.0082479601882269 0.0062087007836213 0.0003 0.0083721174281176 0.0058457654542534 0.0003
          0.0087793359412623 0.006030240425184 0.0003 0.0086690881028679 0.0063945203238097 0.0003
          0.0098103305116681 0.0063862496116293 0 0.0098103305116681 0.0063862496116293 0.00015
          0.0098103305116681 0.0063862496116293 0.0003 0.0084248193747317 0.0050261658136402 0
          0.0084248193747317 0.0050261658136402 0.00015 0.0084248193747317 0.0050261658136402 0.0003
          0.0069463016830039 0.0027787422025108 0 0.0070048409545821 0.0031125297586922 0
          0.0069463016830039 0.0027787422025108 0.00015 0.0070048409545821 0.0031125297586922 0.00015
          0.0069463016830039 0.0027787422025108 0.0003 0.0070048409545821 0.0031125297586922 0.0003
          0.010028456835002 0.0032748409090605 0 0.010028456835002 0.0032748409090605 0.00015
          0.010028456835002 0.0032748409090605 0.0003 0.013084530633285 0.0046685927017207 0
          0.012657407202949 0.0045740785705039 0 0.013084530633285 0.0046685927017207 0.00015
          0.012657407202949 0.0045740785705039 0.00015 0.013084530633285 0.0046685927017207 0.0003
          0.012657407202949 0.0045740785705039 0.0003 0.0063788755008874 0.0014091508241809 0
          0.0060137569775388 0.0015029488511318 0 0.0063788755008874 0.0014091508241809 0.00015
          0.0060137569775388 0.0015029488511318 0.00015 0.0063788755008874 0.0014091508241809 0.0003
          0.0060137569775388 0.0015029488511318 0.0003 0.01196380743939 0.0083394019710021 0
          0.01196380743939 0.0083394019710021 0.00015 0.01196380743939 0.0083394019710021 0.0003
          0.010073855840534 0.0027196155419985 0 0.010289681297386 0.0025561678844121 0
          0.010073855840534 0.0027196155419985 0.00015 0.010289681297386 0.0025561678844121 0.00015
          0.010073855840534 0.0027196155419985 0.0003 0.010289681297386 0.0025561678844121 0.0003
          0.0093223919318803 0.0053434698815888 0 0.009764317340127 0.0054658727348424 0
          0.0097769212248058 0.0059119658621614 0 0.0093027527337708 0.0057939169389015 0
          0.0093223919318803 0.0053434698815888 0.00015 0.009764317340127 0.0054658727348424 0.00015
          0.0097769212248058 0.0059119658621614 0.00015 0.0093027527337708 0.0057939169389015 0.00015
          0.0093223919318803 0.0053434698815888 0.0003 0.009764317340127 0.0054658727348424 0.0003
          0.0097769212248058 0.0059119658621614 0.0003 0.0093027527337708 0.0057939169389015 0.0003
          0.0068882925124701 0.0023177669638962 0 0.0068882925124701 0.0023177669638962 0.00015
          0.0068882925124701 0.0023177669638962 0.0003 0.0092499592325966 0.0063238181416562 0
          0.0089620052424248 0.0065330227489775 0 0.0092499592325966 0.0063238181416562 0.00015
          0.0089620052424248 0.0065330227489775 0.00015 0.0092499592325966 0.0063238181416562 0.0003
          0.0089620052424248 0.0065330227489775 0.0003 0.0072168253422346 0.001397514094839 0
          0.0076041066380058 0.00089936619415626 0 0.0072168253422346 0.001397514094839 0.00015
          0.0076041066380058 0.00089936619415626 0.00015 0.0072168253422346 0.001397514094839 0.0003
          0.0076041066380058 0.00089936619415626 0.0003 0.0075718226613923 0.00044755222139025 0
          0.0075718226613923 0.00044755222139025 0.00015 0.0075718226613923 0.00044755222139025 0.0003
          0.012116660000204 0.0051206445675074 0 0.012116660000204 0.0051206445675074 0.00015
          0.012116660000204 0.0051206445675074 0.0003 0.0068338524094732 0.0018398489073113 0
          0.0068338524094732 0.0018398489073113 0.00015 0.0068338524094732 0.0018398489073113 0.0003
          0.0088473960481577 0.0056214227923259 0 0.0088473960481577 0.0056214227923259 0.00015
          0.0088473960481577 0.0056214227923259 0.0003 0.0081402125110085 0.0066115625704341 0
          0.0081402125110085 0.0066115625704341 0.00015 0.0081402125110085 0.0066115625704341 0.0003
          0.0067824993802385 0.0013824026215467 0 0.0072591856110724 0.0018865642034293 0
          0.0067824993802385 0.0013824026215467 0.00015 0.0072591856110724 0.0018865642034293 0.00015
          0.0067824993802385 0.0013824026215467 0.0003 0.0072591856110724 0.0018865642034293 0.0003
          0.0094035295411974 0.0068662830960629 0 0.0094035295411974 0.0068662830960629 0.00015
          0.0094035295411974 0.0068662830960629 0.0003 0.0080770297303238 0.0057078658228848 0
          0.0080770297303238 0.0057078658228848 0.00015 0.0080770297303238 0.0057078658228848 0.0003
          0.012455160230445 0.0055307966461266 0 0.012455160230445 0.0055307966461266 0.00015
          0.012455160230445 0.0055307966461266 0.0003 0.0092134396095011 0.0012639463069257 0
          0.0092134396095011 0.0012639463069257 0.00015 0.0092134396095011 0.0012639463069257 0.0003
          0.0085681017610313 0.0067725899286886 0 0.0085681017610313 0.0067725899286886 0.00015
          0.0085681017610313 0.0067725899286886 0.0003 0.010337781301114 0.0029713007827362 0
          0.010337781301114 0.0029713007827362 0.00015 0.010337781301114 0.0029713007827362 0.0003
          0.0080769230769162 0 0 0.0080362994401078 0.00044130282391618 0
          0.0075641025640979 0 0 0.0080769230769162 0 0.00015
          0.0080362994401078 0.00044130282391618 0.00015 0.0075641025640979 0 0.00015
          0.0080769230769162 0 0.0003 0.0080362994401078 0.00044130282391618 0.0003
          0.0075641025640979 0 0.0003 0.0084157309119158 0.0054663429893237 0
          0.0084157309119158 0.0054663429893237 0.00015 0.0084157309119158 0.0054663429893237 0.0003
          0.012625060394875 0.0050215313919928 0 0.012340535819996 0.0049145470001145 0
          0.012625060394875 0.0050215313919928 0.00015 0.012340535819996 0.0049145470001145 0.00015
          0.012625060394875 0.0050215313919928 0.0003 0.012340535819996 0.0049145470001145 0.0003
          0.0088807280393962 0.0051824777758032 0 0.0088807280393962 0.0051824777758032 0.00015
          0.0088807280393962 0.0051824777758032 0.0003 0.00978640191627 0.0050564284414982 0
          0.00978640191627 0.0050564284414982 0.00015 0.00978640191627 0.0050564284414982 0.0003
          0.007051282051278 0 0 0.007051282051278 0 0.00015
          0.007051282051278 0 0.0003 0.0089738769927721 0.0068608682916542 0
          0.0089738769927721 0.0068608682916542 0.00015 0.0089738769927721 0.0068608682916542 0.0003
          0.010464396561549 0.007914442793445 0 0.010959162019398 0.0079079830093058 0
          0.010464396561549 0.007914442793445 0.00015 0.010959162019398 0.0079079830093058 0.00015
          0.010464396561549 0.007914442793445 0.0003 0.010959162019398 0.0079079830093058 0.0003
          0.0093768424757788 0.0049206652486621 0 0.0093768424757788 0.0049206652486621 0.00015
          0.0093768424757788 0.0049206652486621 0.0003 0.0084364690699339 0.0071912877673881 0
          0.0084364690699339 0.0071912877673881 0.00015 0.0084364690699339 0.0071912877673881 0.0003
          0.011870414872976 0.00080294526771027 0 0.011870414872976 0.00080294526771027 0.00015
          0.011870414872976 0.00080294526771027 0.0003 0.013048655853798 0.0051555709380823 0
          0.013048655853798 0.0051555709380823 0.00015 0.013048655853798 0.0051555709380823 0.0003
          0.0091480378790118 0.00093783666102615 0 0.0091480378790118 0.00093783666102615 0.00015
          0.0091480378790118 0.00093783666102615 0.0003 0.012592651705639 0.0068198098450163 0
          0.012592651705639 0.0068198098450163 0.00015 0.012592651705639 0.0068198098450163 0.0003
          0.012272070002081 0.0045810549534562 0 0.012153081904124 0.0040944528080542 0
          0.012272070002081 0.0045810549534562 0.00015 0.012153081904124 0.0040944528080542 0.00015
          0.012272070002081 0.0045810549534562 0.0003 0.012153081904124 0.0040944528080542 0.0003
          0.011634800364854 0.0014122839921498 0 0.011634800364854 0.0014122839921498 0.00015
          0.011634800364854 0.0014122839921498 0.0003 0.012451479243686 0.0021914486022899 0
          0.012674188674928 0.0028095410694266 0 0.012451479243686 0.0021914486022899 0.00015
          0.012674188674928 0.0028095410694266 0.00015 0.012451479243686 0.0021914486022899 0.0003
          0.012674188674928 0.0028095410694266 0.0003 0.013121586466294 0.0036708577033715 0
          0.013121586466294 0.0036708577033715 0.00015 0.013121586466294 0.0036708577033715 0.0003
          0.013248150362312 0.0031919567697963 0 0.013248150362312 0.0031919567697963 0.00015
          0.013248150362312 0.0031919567697963 0.0003 0.012096711335481 0.0017058387426491 0
          0.012096711335481 0.0017058387426491 0.00015 0.012096711335481 0.0017058387426491 0.0003
          0.012692307692288 0 0 0.012542896420733 0.00061304595643839 0
          0.012692307692288 0 0.00015 0.012542896420733 0.00061304595643839 0.00015
          0.012692307692288 0 0.0003 0.012542896420733 0.00061304595643839 0.0003
          0.012384518900215 0.0018567382086698 0 0.012384518900215 0.0018567382086698 0.00015
          0.012384518900215 0.0018567382086698 0.0003 0.012087580163866 0.0010424427844857 0
          0.012087580163866 0.0010424427844857 0.00015 0.012087580163866 0.0010424427844857 0.0003
          <InformationKey name="L2_NORM_RANGE" location="vtkDataArray" length="2">
            <Value index="0">
              0.0055128205128
            </Value>
            <Value index="1">
              0.014586579917
            </Value>
          </InformationKey>
        </DataArray>
      </Points>
      <Cells>
        <DataArray type="Int64" Name="connectivity" format="ascii" RangeMin="0" RangeMax="773">
          0 1 2 3 4 5
          6 7 4 5 6 7
          8 9 10 11 12 13
          14 15 16 17 18 19
          16 17 18 19 20 21
          22 23 30 31 32 33
          34 35 36 37 34 35
          36 37 38 39 40 41
          15 14 42 43 19 18
          44 45 19 18 44 45
          23 22 46 47 48 49
          50 51 52 53 54 55
          52 53 54 55 56 57
          58 59 60 61 62 63
          64 65 66 67 64 65
          66 67 68 69 70 71
          3 72 73 0 7 74
          75 4 7 74 75 4
          11 76 77 8 78 79
          80 81 82 83 84 85
          82 83 84 85 86 87
          88 89 99 100 101 102
          103 104 105 106 103 104
          105 106 107 108 109 110
          111 112 113 114 115 116
          117 118 115 116 117 118
          119 120 121 122 744 123
          30 33 745 124 34 37
          745 124 34 37 746 125
          38 41 48 126 127 128
          52 129 130 131 52 129
          130 131 56 132 133 134
          135 136 112 111 137 138
          116 115 137 138 116 115
          139 140 120 119 141 142
          143 144 145 146 147 148
          145 146 147 148 149 150
          151 152 153 154 155 156
          157 158 159 160 157 158
          159 160 161 162 163 164
          165 166 43 167 168 169
          45 170 168 169 45 170
          171 172 47 173 174 175
          153 156 176 177 157 160
          176 177 157 160 178 179
          161 164 180 181 182 183
          184 185 186 187 184 185
          186 187 188 189 190 191
          166 165 192 193 169 168
          194 195 169 168 194 195
          172 171 196 197 112 182
          181 113 116 186 185 117
          116 186 185 117 120 190
          189 121 204 205 180 183
          206 207 184 187 206 207
          184 187 208 209 188 191
          210 211 212 213 214 215
          216 217 214 215 216 217
          218 219 220 221 222 223
          128 127 224 225 131 130
          224 225 131 130 226 227
          134 133 154 153 79 78
          158 157 83 82 158 157
          83 82 162 161 87 86
          231 113 181 232 233 117
          185 234 233 117 185 234
          235 121 189 236 237 238
          239 199 240 241 242 201
          240 241 242 201 243 244
          245 203 246 247 228 248
          249 250 229 251 249 250
          229 251 252 253 230 254
          255 49 48 128 256 53
          52 131 256 53 52 131
          257 57 56 134 175 258
          79 153 177 259 83 157
          177 259 83 157 179 260
          87 161 267 237 199 198
          268 240 201 200 268 240
          201 200 269 243 203 202
          270 271 232 272 273 274
          234 275 273 274 234 275
          276 277 236 278 267 198
          228 247 268 200 229 250
          268 200 229 250 269 202
          230 253 183 279 280 204
          187 281 282 206 187 281
          282 206 191 283 284 208
          285 286 287 288 289 290
          291 292 289 290 291 292
          293 294 295 296 297 298
          299 300 301 302 303 304
          301 302 303 304 305 306
          307 308 261 309 310 311
          263 312 313 314 263 312
          313 314 265 315 316 317
          238 318 127 126 241 319
          130 129 241 319 130 129
          244 320 133 132 324 325
          287 286 326 327 291 290
          326 327 291 290 328 329
          295 294 330 298 331 288
          332 302 333 292 332 302
          333 292 334 306 335 296
          318 336 222 127 319 337
          224 130 319 337 224 130
          320 338 226 133 339 340
          341 342 343 344 345 346
          343 344 345 346 347 348
          349 350 300 1 339 342
          304 5 343 346 304 5
          343 346 308 9 347 350
          351 310 341 340 352 313
          345 344 352 313 345 344
          353 316 349 348 354 339
          1 0 355 343 5 4
          355 343 5 4 356 347
          9 8 357 358 272 180
          359 360 275 184 359 360
          275 184 361 362 278 188
          48 239 238 126 52 242
          241 129 52 242 241 129
          56 245 244 132 336 271
          363 222 337 274 364 224
          337 274 364 224 338 277
          365 226 51 321 239 48
          55 322 242 52 55 322
          242 52 59 323 245 56
          366 367 213 212 368 369
          217 216 368 369 217 216
          370 371 221 220 223 222
          363 372 225 224 364 373
          225 224 364 373 227 226
          365 374 375 210 213 376
          377 214 217 378 377 214
          217 378 379 218 221 380
          375 381 73 210 377 382
          75 214 377 382 75 214
          379 383 77 218 381 354
          0 73 382 355 4 75
          382 355 4 75 383 356
          8 77 297 300 342 384
          301 304 346 385 301 304
          346 385 305 308 350 386
          376 213 367 387 378 217
          369 388 378 217 369 388
          380 221 371 389 223 372
          390 391 225 373 392 393
          225 373 392 393 227 374
          394 395 396 357 180 205
          397 359 184 207 397 359
          184 207 398 361 188 209
          387 367 357 396 388 369
          359 397 388 369 359 397
          389 371 361 398 399 747
          748 400 401 749 750 402
          401 749 750 402 403 751
          752 404 405 102 406 407
          408 106 409 410 408 106
          409 410 411 110 412 413
          180 272 232 181 184 275
          234 185 184 275 234 185
          188 278 236 189 414 415
          144 416 417 418 148 419
          417 418 148 419 420 421
          152 422 423 424 255 391
          425 426 256 393 425 426
          256 393 427 428 257 395
          429 430 431 753 432 433
          434 754 432 433 434 754
          435 436 437 755 438 399
          400 439 440 401 402 441
          440 401 402 441 442 403
          404 443 447 415 414 448
          449 418 417 450 449 418
          417 450 451 421 420 452
          453 100 99 454 455 104
          103 456 455 104 103 456
          457 108 107 458 279 459
          460 280 281 461 462 282
          281 461 462 282 283 463
          464 284 279 465 62 459
          281 466 66 461 281 466
          66 461 283 467 70 463
          448 414 100 453 450 417
          104 455 450 417 104 455
          452 420 108 457 468 469
          415 447 470 471 418 449
          470 471 418 449 472 473
          421 451 753 431 748 756
          754 434 750 757 754 434
          750 757 755 437 752 758
          400 748 431 12 402 750
          434 16 402 750 434 16
          404 752 437 20 474 31
          469 468 475 35 471 470
          475 35 471 470 476 39
          473 472 399 438 744 759
          401 440 745 760 401 440
          745 760 403 442 746 761
          339 477 351 340 343 478
          352 344 343 478 352 344
          347 479 353 348 367 366
          358 357 369 368 360 359
          369 368 360 359 371 370
          362 361 480 32 31 474
          481 36 35 475 481 36
          35 475 482 40 39 476
          483 477 339 354 484 478
          343 355 484 478 343 355
          485 479 347 356 486 483
          354 381 487 484 355 382
          487 484 355 382 488 485
          356 383 183 182 465 279
          187 186 466 281 187 186
          466 281 191 190 467 283
          762 763 489 490 764 765
          491 492 764 765 491 492
          766 767 493 494 490 489
          32 480 492 491 36 481
          492 491 36 481 494 493
          40 482 387 495 496 376
          388 497 498 378 388 497
          498 378 389 499 500 380
          501 270 272 358 502 273
          275 360 502 273 275 360
          503 276 278 362 504 331
          298 297 505 333 302 301
          505 333 302 301 506 335
          306 305 507 486 381 375
          508 487 382 377 508 487
          382 377 509 488 383 379
          318 238 237 510 319 241
          240 511 319 241 240 511
          320 244 243 512 50 49
          255 424 54 53 256 426
          54 53 256 426 58 57
          257 428 363 513 390 372
          364 514 392 373 364 514
          392 373 365 515 394 374
          516 423 391 390 517 425
          393 392 517 425 393 392
          518 427 395 394 519 520
          205 204 521 522 207 206
          521 522 207 206 523 524
          209 208 525 519 204 280
          526 521 206 282 526 521
          206 282 527 523 208 284
          528 460 459 529 530 462
          461 531 530 462 461 531
          532 464 463 533 534 90
          535 536 537 93 538 539
          537 93 538 539 540 96
          541 542 546 525 280 460
          547 526 282 462 547 526
          282 462 548 527 284 464
          759 768 747 399 760 769
          749 401 760 769 749 401
          761 770 751 403 507 375
          376 496 508 377 378 498
          508 377 378 498 509 379
          380 500 483 486 549 550
          484 487 551 552 484 487
          551 552 485 488 553 554
          231 232 271 336 233 234
          274 337 233 234 274 337
          235 236 277 338 391 255
          128 223 393 256 131 225
          393 256 131 225 395 257
          134 227 525 546 555 556
          526 547 557 558 526 547
          557 558 527 548 559 560
          519 525 556 561 521 526
          558 562 521 526 558 562
          523 527 560 563 561 556
          564 565 562 558 566 567
          562 558 566 567 563 560
          568 569 570 571 572 573
          574 575 576 577 574 575
          576 577 578 579 580 581
          2 1 300 299 6 5
          304 303 6 5 304 303
          10 9 308 307 582 299
          298 330 583 303 302 332
          583 303 302 332 584 307
          306 334 585 363 271 270
          586 364 274 273 586 364
          274 273 587 365 277 276
          555 416 144 143 557 419
          148 147 557 419 148 147
          559 422 152 151 588 589
          237 267 590 591 240 268
          590 591 240 268 592 593
          243 269 396 594 495 387
          397 595 497 388 397 595
          497 388 398 596 499 389
          594 396 205 520 595 397
          207 522 595 397 207 522
          596 398 209 524 597 598
          430 429 599 600 433 432
          599 600 433 432 601 602
          436 435 603 246 248 604
          605 249 251 606 605 249
          251 606 607 252 254 608
          72 211 210 73 74 215
          214 75 74 215 214 75
          76 219 218 77 536 535
          609 543 539 538 610 544
          539 538 610 544 542 541
          611 545 612 561 565 613
          614 562 567 615 614 562
          567 615 616 563 569 617
          618 619 620 621 622 623
          624 625 622 623 624 625
          626 627 628 629 630 588
          267 247 631 590 268 250
          631 590 268 250 632 592
          269 253 633 634 573 572
          635 636 577 576 635 636
          577 576 637 638 581 580
          60 639 81 640 64 641
          85 642 64 641 85 642
          68 643 89 644 561 612
          520 519 562 614 522 521
          562 614 522 521 563 616
          524 523 510 231 336 318
          511 233 337 319 511 233
          337 319 512 235 338 320
          640 81 80 645 642 85
          84 646 642 85 84 646
          644 89 88 647 550 648
          477 483 552 649 478 484
          552 649 478 484 554 650
          479 485 630 247 246 651
          631 250 249 652 631 250
          249 652 632 253 252 653
          633 572 654 621 635 576
          655 625 635 576 655 625
          637 580 656 629 15 43
          166 439 19 45 169 441
          19 45 169 441 23 47
          172 443 660 639 661 651
          662 641 663 652 662 641
          663 652 664 643 665 653
          666 330 288 287 667 332
          292 291 667 332 292 291
          668 334 296 295 603 660
          651 246 605 662 652 249
          605 662 652 249 607 664
          653 252 571 570 516 669
          575 574 517 670 575 574
          517 670 579 578 518 671
          672 262 261 311 673 264
          263 314 673 264 263 314
          674 266 265 317 416 555
          546 675 419 557 547 676
          419 557 547 676 422 559
          548 677 570 573 678 657
          574 577 679 658 574 577
          679 658 578 581 680 659
          495 42 14 496 497 44
          18 498 497 44 18 498
          499 46 22 500 61 529
          459 62 65 531 461 66
          65 531 461 66 69 533
          463 70 13 507 496 14
          17 508 498 18 17 508
          498 18 21 509 500 22
          114 510 237 589 118 511
          240 591 118 511 240 591
          122 512 243 593 513 669
          516 390 514 670 517 392
          514 670 517 392 515 671
          518 394 594 681 42 495
          595 682 44 497 595 682
          44 497 596 683 46 499
          114 589 588 111 118 591
          590 115 118 591 590 115
          122 593 592 119 510 114
          113 231 511 118 117 233
          511 118 117 233 512 122
          121 235 681 594 520 612
          682 595 522 614 682 595
          522 614 683 596 524 616
          684 685 645 686 687 688
          646 689 687 688 646 689
          690 691 647 692 693 654
          572 571 694 655 576 575
          694 655 576 575 695 656
          580 579 675 546 460 528
          676 547 462 530 676 547
          462 530 677 548 464 532
          439 400 12 15 441 402
          16 19 441 402 16 19
          443 404 20 23 696 672
          648 697 698 673 649 699
          698 673 649 699 700 674
          650 701 702 618 621 654
          703 622 625 655 703 622
          625 655 704 626 629 656
          72 705 212 211 74 706
          216 215 74 706 216 215
          76 707 220 219 182 112
          136 465 186 116 138 466
          186 116 138 466 190 120
          140 467 708 686 645 80
          709 689 646 84 709 689
          646 84 710 692 647 88
          91 341 310 92 94 345
          313 95 94 345 313 95
          97 349 316 98 135 630
          651 661 137 631 652 663
          137 631 652 663 139 632
          653 665 666 287 325 711
          667 291 327 712 667 291
          327 712 668 295 329 713
          444 25 714 715 445 27
          716 717 445 27 716 717
          446 29 718 719 705 720
          366 212 706 721 368 216
          706 721 368 216 707 722
          370 220 331 504 715 714
          333 505 717 716 333 505
          717 716 335 506 719 718
          13 549 486 507 17 551
          487 508 17 551 487 508
          21 553 488 509 571 669
          513 693 575 670 514 694
          575 670 514 694 579 671
          515 695 102 405 685 99
          106 408 688 103 106 408
          688 103 110 411 691 107
          672 351 477 648 673 352
          478 649 673 352 478 649
          674 353 479 650 693 513
          363 585 694 514 364 586
          694 514 364 586 695 515
          365 587 285 714 25 24
          289 716 27 26 289 716
          27 26 293 718 29 28
          143 142 192 564 147 146
          194 566 147 146 194 566
          151 150 196 568 726 489
          763 771 727 491 765 772
          727 491 765 772 728 493
          767 773 534 536 715 504
          537 539 717 505 537 539
          717 505 540 542 719 506
          165 565 564 192 168 567
          566 194 168 567 566 194
          171 569 568 196 78 81
          639 660 82 85 641 662
          82 85 641 662 86 89
          643 664 136 135 661 63
          138 137 663 67 138 137
          663 67 140 139 665 71
          729 262 672 696 730 264
          673 698 730 264 673 698
          731 266 674 700 630 135
          111 588 631 137 115 590
          631 137 115 590 632 139
          119 592 702 585 270 501
          703 586 273 502 703 586
          273 502 704 587 276 503
          585 702 654 693 586 703
          655 694 586 703 655 694
          587 704 656 695 61 406
          528 529 65 409 530 531
          65 409 530 531 69 412
          532 533 414 732 101 100
          417 733 105 104 417 733
          105 104 420 734 109 108
          63 62 465 136 67 66
          466 138 67 66 466 138
          71 70 467 140 501 720
          618 702 502 721 622 703
          502 721 622 703 503 722
          626 704 720 501 358 366
          721 502 360 368 721 502
          360 368 722 503 362 370
          685 684 454 99 688 687
          456 103 688 687 456 103
          691 690 458 107 685 405
          640 645 688 408 642 646
          688 408 642 646 691 411
          644 647 30 141 469 31
          34 145 471 35 34 145
          471 35 38 149 473 39
          598 738 739 430 600 740
          741 433 600 740 741 433
          602 742 743 436 43 42
          681 167 45 44 682 170
          45 44 682 170 47 46
          683 173 678 711 325 723
          679 712 327 724 679 712
          327 724 680 713 329 725
          619 618 720 705 623 622
          721 706 623 622 721 706
          627 626 722 707 102 101
          528 406 106 105 530 409
          106 105 530 409 110 109
          532 412 549 13 12 739
          551 17 16 741 551 17
          16 741 553 21 20 743
          711 678 573 634 712 679
          577 636 712 679 577 636
          713 680 581 638 80 79
          258 708 84 83 259 709
          84 83 259 709 88 87
          260 710 738 598 696 697
          740 600 698 699 740 600
          698 699 742 602 700 701
          714 285 288 331 716 289
          292 333 716 289 292 333
          718 293 296 335 672 311
          310 351 673 314 313 352
          673 314 313 352 674 317
          316 353 430 739 12 431
          433 741 16 434 433 741
          16 434 436 743 20 437
          193 438 439 166 195 440
          441 169 195 440 441 169
          197 442 443 172 489 726
          33 32 491 727 37 36
          491 727 37 36 493 728
          41 40 444 715 536 543
          445 717 539 544 445 717
          539 544 446 719 542 545
          3 619 705 72 7 623
          706 74 7 623 706 74
          11 627 707 76 633 666
          711 634 635 667 712 636
          635 667 712 636 637 668
          713 638 384 534 504 297
          385 537 505 301 385 537
          505 301 386 540 506 305
          726 771 744 33 727 772
          745 37 727 772 745 37
          728 773 746 41 167 613
          565 165 170 615 567 168
          170 615 567 168 173 617
          569 171 675 732 414 416
          676 733 417 419 676 733
          417 419 677 734 420 422
          550 549 739 738 552 551
          741 740 552 551 741 740
          554 553 743 742 732 675
          528 101 733 676 530 105
          733 676 530 105 734 677
          532 109 63 661 639 60
          67 663 641 64 67 663
          641 64 71 665 643 68
          384 91 90 534 385 94
          93 537 385 94 93 537
          386 97 96 540 123 744
          438 193 124 745 440 195
          124 745 440 195 125 746
          442 197 406 61 60 407
          409 65 64 410 409 65
          64 410 412 69 68 413
          154 78 660 603 158 82
          662 605 158 82 662 605
          162 86 664 607 91 384
          342 341 94 385 346 345
          94 385 346 345 97 386
          350 349 405 407 60 640
          408 410 64 642 408 410
          64 642 411 413 68 644
          648 550 738 697 649 552
          740 699 649 552 740 699
          650 554 742 701 735 92
          310 309 736 95 313 312
          736 95 313 312 737 98
          316 315 633 582 330 666
          635 583 332 667 635 583
          332 667 637 584 334 668
          167 681 612 613 170 682
          614 615 170 682 614 615
          173 683 616 617 620 2
          299 582 624 6 303 583
          624 6 303 583 628 10
          307 584 582 633 621 620
          583 635 625 624 583 635
          625 624 584 637 629 628
          141 144 415 469 145 148
          418 471 145 148 418 471
          149 152 421 473 143 564
          556 555 147 566 558 557
          147 566 558 557 151 568
          560 559 2 620 619 3
          6 624 623 7 6 624
          623 7 10 628 627 11
          729 696 598 597 730 698
          600 599 730 698 600 599
          731 700 602 601 141 30
          123 142 145 34 124 146
          145 34 124 146 149 38
          125 150 154 603 604 155
          158 605 606 159 158 605
          606 159 162 607 608 163
          193 192 142 123 195 194
          146 124 195 194 146 124
          197 196 150 125
        </DataArray>
        <DataArray type="Int64" Name="offsets" format="ascii" RangeMin="8" RangeMax="3616">
          8 16 24 32 40 48
          56 64 72 80 88 96
          104 112 120 128 136 144
          152 160 168 176 184 192
          200 208 216 224 232 240
          248 256 264 272 280 288
          296 304 312 320 328 336
          344 352 360 368 376 384
          392 400 408 416 424 432
          440 448 456 464 472 480
          488 496 504 512 520 528
          536 544 552 560 568 576
          584 592 600 608 616 624
          632 640 648 656 664 672
          680 688 696 704 712 720
          728 736 744 752 760 768
          776 784 792 800 808 816
          824 832 840 848 856 864
          872 880 888 896 904 912
          920 928 936 944 952 960
          968 976 984 992 1000 1008
          1016 1024 1032 1040 1048 1056
          1064 1072 1080 1088 1096 1104
          1112 1120 1128 1136 1144 1152
          1160 1168 1176 1184 1192 1200
          1208 1216 1224 1232 1240 1248
          1256 1264 1272 1280 1288 1296
          1304 1312 1320 1328 1336 1344
          1352 1360 1368 1376 1384 1392
          1400 1408 1416 1424 1432 1440
          1448 1456 1464 1472 1480 1488
          1496 1504 1512 1520 1528 1536
          1544 1552 1560 1568 1576 1584
          1592 1600 1608 1616 1624 1632
          1640 1648 1656 1664 1672 1680
          1688 1696 1704 1712 1720 1728
          1736 1744 1752 1760 1768 1776
          1784 1792 1800 1808 1816 1824
          1832 1840 1848 1856 1864 1872
          1880 1888 1896 1904 1912 1920
          1928 1936 1944 1952 1960 1968
          1976 1984 1992 2000 2008 2016
          2024 2032 2040 2048 2056 2064
          2072 2080 2088 2096 2104 2112
          2120 2128 2136 2144 2152 2160
          2168 2176 2184 2192 2200 2208
          2216 2224 2232 2240 2248 2256
          2264 2272 2280 2288 2296 2304
          2312 2320 2328 2336 2344 2352
          2360 2368 2376 2384 2392 2400
          2408 2416 2424 2432 2440 2448
          2456 2464 2472 2480 2488 2496
          2504 2512 2520 2528 2536 2544
          2552 2560 2568 2576 2584 2592
          2600 2608 2616 2624 2632 2640
          2648 2656 2664 2672 2680 2688
          2696 2704 2712 2720 2728 2736
          2744 2752 2760 2768 2776 2784
          2792 2800 2808 2816 2824 2832
          2840 2848 2856 2864 2872 2880
          2888 2896 2904 2912 2920 2928
          2936 2944 2952 2960 2968 2976
          2984 2992 3000 3008 3016 3024
          3032 3040 3048 3056 3064 3072
          3080 3088 3096 3104 3112 3120
          3128 3136 3144 3152 3160 3168
          3176 3184 3192 3200 3208 3216
          3224 3232 3240 3248 3256 3264
          3272 3280 3288 3296 3304 3312
          3320 3328 3336 3344 3352 3360
          3368 3376 3384 3392 3400 3408
          3416 3424 3432 3440 3448 3456
          3464 3472 3480 3488 3496 3504
          3512 3520 3528 3536 3544 3552
          3560 3568 3576 3584 3592 3600
          3608 3616
        </DataArray>
        <DataArray type="UInt8" Name="types" format="ascii" RangeMin="12" RangeMax="12">
          12 12 12 12 12 12
          12 12 12 12 12 12
          12 12 12 12 12 12
          12 12 12 12 12 12
          12 12 12 12 12 12
          12 12 12 12 12 12
          12 12 12 12 12 12
          12 12 12 12 12 12
          12 12 12 12 12 12
          12 12 12 12 12 12
          12 12 12 12 12 12
          12 12 12 12 12 12
          12 12 12 12 12 12
          12 12 12 12 12 12
          12 12 12 12 12 12
          12 12 12 12 12 12
          12 12 12 12 12 12
          12 12 12 12 12 12
          12 12 12 12 12 12
          12 12 12 12 12 12
          12 12 12 12 12 12
          12 12 12 12 12 12
          12 12 12 12 12 12
          12 12 12 12 12 12
          12 12 12 12 12 12
          12 12 12 12 12 12
          12 12 12 12 12 12
          12 12 12 12 12 12
          12 12 12 12 12 12
          12 12 12 12 12 12
          12 12 12 12 12 12
          12 12 12 12 12 12
          12 12 12 12 12 12
          12 12 12 12 12 12
          12 12 12 12 12 12
          12 12 12 12 12 12
          12 12 12 12 12 12
          12 12 12 12 12 12
          12 12 12 12 12 12
          12 12 12 12 12 12
          12 12 12 12 12 12
          12 12 12 12 12 12
          12 12 12 12 12 12
          12 12 12 12 12 12
          12 12 12 12 12 12
          12 12 12 12 12 12
          12 12 12 12 12 12
          12 12 12 12 12 12
          12 12 12 12 12 12
          12 12 12 12 12 12
          12 12 12 12 12 12
          12 12 12 12 12 12
          12 12 12 12 12 12
          12 12 12 12 12 12
          12 12 12 12 12 12
          12 12 12 12 12 12
          12 12 12 12 12 12
          12 12 12 12 12 12
          12 12 12 12 12 12
          12 12 12 12 12 12
          12 12 12 12 12 12
          12 12 12 12 12 12
          12 12 12 12 12 12
          12 12 12 12 12 12
          12 12 12 12 12 12
          12 12 12 12 12 12
          12 12 12 12 12 12
          12 12 12 12 12 12
          12 12 12 12 12 12
          12 12 12 12 12 12
          12 12 12 12 12 12
          12 12 12 12 12 12
          12 12 12 12 12 12
          12 12 12 12 12 12
          12 12 12 12 12 12
          12 12
        </DataArray>
      </Cells>
    </Piece>
  </UnstructuredGrid>
</VTKFile>
