<?xml version="1.0"?>
<VTKFile type="UnstructuredGrid" version="0.1" byte_order="LittleEndian" header_type="UInt32" compressor="vtkZLibDataCompressor">
  <UnstructuredGrid>
    <Piece NumberOfPoints="783" NumberOfCells="456">
      <PointData>
        <DataArray type="Int32" Name="libmesh_node_id" format="ascii" RangeMin="1863" RangeMax="4982">
          1863 1864 1865 1887 1888 1889
          1890 1891 1892 1899 1900 1901
          1902 1903 1904 1905 1906 1907
          1908 1909 1910 1911 1912 1913
          1914 1915 1916 1917 1918 1919
          1926 1927 1928 1929 1930 1931
          1932 1933 1934 1935 1936 1937
          1938 1939 1940 1941 1942 1943
          1944 1945 1946 1950 1951 1952
          1953 1954 1955 1956 1957 1958
          1959 1960 1961 1962 1963 1964
          1965 1966 1967 1968 1969 1970
          1971 1972 1973 1977 1978 1979
          1980 1981 1982 1983 1984 1985
          1986 1987 1988 1989 1990 1991
          1992 1993 1994 1995 1996 1997
          1998 1999 2000 2004 2005 2006
          2007 2008 2009 2010 2011 2012
          2013 2014 2015 2016 2017 2018
          2019 2020 2021 2022 2023 2024
          2025 2026 2027 2031 2032 2033
          2034 2035 2036 2037 2038 2039
          2040 2041 2042 2043 2044 2045
          2046 2047 2048 2049 2050 2051
          2052 2053 2054 2058 2059 2060
          2061 2062 2063 2064 2065 2066
          2067 2068 2069 2070 2071 2072
          2073 2074 2075 2076 2077 2078
          2079 2080 2081 2082 2083 2084
          2085 2086 2087 2088 2089 2090
          2091 2092 2093 2094 2095 2096
          2097 2098 2099 2100 2101 2102
          2103 2104 2105 2106 2107 2108
          2109 2110 2111 2118 2119 2120
          2121 2122 2123 2136 2137 2138
          2139 2140 2141 2142 2143 2144
          2145 2146 2147 2154 2155 2156
          2157 2158 2159 2160 2161 2162
          2163 2165 2167 2169 2170 2171
          2172 2173 2174 2175 2176 2177
          2178 2179 2180 2181 2182 2183
          2209 2213 2217 2232 2233 2234
          2235 2236 2237 2238 2239 2240
          2241 2242 2243 2245 2247 2249
          2310 2311 2312 2313 2314 2315
          2364 2365 2366 2367 2368 2369
          2370 2371 2372 2373 2374 2375
          2574 2575 2576 2577 2578 2579
          2586 2587 2588 2589 2590 2591
          2634 2635 2636 2637 2638 2639
          2640 2641 2642 2673 2674 2675
          2676 2677 2678 2679 2680 2681
          2682 2683 2684 2727 2728 2729
          2730 2731 2732 2733 2734 2735
          2826 2827 2828 2829 2830 2831
          2832 2833 2834 2835 2836 2837
          2874 2875 2876 2877 2878 2879
          2901 2902 2903 2904 2905 2906
          2907 2908 2909 2910 2911 2912
          3003 3004 3005 3006 3007 3008
          3009 3010 3011 3012 3013 3014
          3015 3016 3017 3024 3025 3026
          3027 3028 3029 3030 3031 3032
          3033 3034 3035 3037 3038 3041
          3042 3045 3046 3048 3049 3050
          3051 3052 3053 3105 3106 3107
          3108 3109 3110 3168 3169 3170
          3171 3172 3173 3174 3175 3176
          3177 3178 3179 3228 3229 3230
          3231 3232 3233 3234 3235 3236
          3237 3238 3239 3246 3247 3248
          3249 3250 3251 3264 3265 3266
          3267 3268 3269 3375 3376 3377
          3393 3394 3395 3396 3397 3398
          3423 3424 3425 3426 3427 3428
          3429 3430 3431 3432 3433 3434
          3441 3442 3443 3444 3445 3446
          3465 3466 3467 3468 3469 3470
          3471 3472 3473 3474 3475 3476
          3477 3478 3479 3480 3481 3482
          3516 3517 3518 3546 3547 3548
          3549 3550 3551 3552 3553 3554
          3573 3574 3575 3576 3577 3578
          3600 3601 3602 3663 3664 3665
          3666 3667 3668 3705 3706 3707
          3723 3724 3725 3726 3727 3728
          3729 3730 3731 3732 3733 3734
          3789 3790 3791 3810 3811 3812
          3813 3814 3815 3819 3820 3821
          3840 3841 3842 3843 3844 3845
          3864 3865 3866 3891 3892 3893
          3894 3895 3896 3897 3898 3899
          3933 3934 3935 3936 3937 3938
          3945 3946 3947 3948 3949 3950
          3996 3997 3998 3999 4000 4001
          4002 4003 4004 4005 4006 4007
          4038 4039 4040 4071 4072 4073
          4074 4075 4076 4083 4084 4085
          4110 4111 4112 4113 4114 4115
          4131 4132 4133 4134 4135 4136
          4137 4138 4139 4140 4141 4142
          4143 4144 4145 4239 4240 4241
          4242 4243 4244 4245 4246 4247
          4248 4249 4250 4329 4330 4331
          4332 4333 4334 4356 4357 4358
          4359 4360 4361 4362 4363 4364
          4392 4393 4394 4419 4420 4421
          4446 4447 4448 4449 4450 4451
          4467 4468 4469 4479 4480 4481
          4503 4504 4505 4512 4513 4514
          4524 4525 4526 4542 4543 4544
          4548 4549 4550 4563 4564 4565
          4575 4576 4577 4596 4597 4598
          4632 4633 4634 4674 4675 4676
          4686 4687 4688 4755 4756 4757
          4758 4759 4760 4776 4777 4778
          4824 4825 4826 4827 4828 4829
          4839 4840 4841 4959 4960 4961
          4980 4981 4982 3036 3039 3040
          3043 3044 3047 3609 3693 3610
          3613 3695 3614 3617 3697 3618
          4021 4024 4027 4020 4023 4026
          4009 4008 4013 4012 4017 4016
          3671 4188 3675 4189 3679 4190
          2402 2409 2405 2410 2408 2411
          2389 4395 2393 4396 2397 4397
          2400 2403 2406 3939 4287 3941
          4288 3943 4289 3694 3696 3698
          4599 4380 4600 4384 4601 4388
          4830 4831 4832 4022 4025 4028
          4656 4657 4658
        </DataArray>
        <DataArray type="Float64" Name="resid_x" format="ascii" RangeMin="-0.00027643799543364267" RangeMax="0.00009684398807552341">
          -0.00002098424845931035 -0.000038583986398776915 -0.000021040567701025026 -0.0000029771655016830323 -0.000012888235161767625 -0.000016585398998181233
          0.0000033031145370010506 1.2522145276250285e-7 -0.000013002867138567353 -0.000009555768499591721 -0.000014676431091764641 0.00003452578620954938
          0.0000032564109697652555 0.0000027645731024428244 0.000016974468143526877 0.000004585216285324378 0.000005109242292355987 0.000010704791738813668
          -0.000005731815381437855 9.811236036938453e-7 0.0000029412295110553544 -0.000016453872965893623 0.0000073153816977367114 0.000004996966386894286
          0.000007576278390875046 0.000004835316175899607 -0.000011078680037801547 0.0000034682861125290287 0.000005302639243254248 -0.000009637899701431252
          0.0000257408684847249 0.0000572320408345206 0.000058987201663640576 0.000012049489474197372 0.000021292092111213634 0.00002444685610880626
          0.000025284886795873263 0.00003825733734741377 0.000028366718318739714 0.000012429122220769528 0.000019371960982006442 0.000012711387432418064
          -0.0000018717660927869417 0.000010438161906822785 0.0000046754400022663845 -0.000005090362900084244 0.00000452246176685378 -0.0000058686353443526684
          -8.660571655383364e-7 0.00000833792932475319 -0.000005383908413758576 0.000003340403499141331 0.000007360214773655116 0.00004337586429148388
          0.000029780205100138346 0.0000671197268635737 0.00006150873515986532 0.000024457485684248326 0.000030251183623430933 0.00002948605406771776
          0.000023384037841633898 0.0000334121611023086 0.000031853433873241244 0.000015846531268959296 0.000023586225542437944 0.000018934373686274597
          0.000008421650414813797 0.000019205519069309673 0.000008868492698432817 1.7257425222183542e-7 0.000009000557499749817 -2.436359078927808e-7
          9.518274945996552e-8 0.000007949978449550699 -0.0000049013313312418205 0.000009696045398577269 0.000030420452675983256 0.000056821636798431996
          0.000028515581781629606 0.00006644421765455988 0.00005479956534060193 0.000018239622717075576 0.00003950853643441832 0.00003626140428192315
          0.000022212490656148276 0.000035652607039526885 0.00003239082682027217 0.000019327901398025205 0.000025591496918497825 0.000021250776516712477
          0.000010768511021108651 0.000015184746111618352 0.000008687117685646228 0.0000013952511901393905 0.000004770675041232408 -0.000001760899353442369
          -5.835041818613718e-7 0.000003125879975307555 -0.000006421952665203179 0.00003283306215351445 0.00007950915028231975 0.0000808120404744983
          0.00004325278860628501 0.00009684398807552341 0.00006939525339122454 0.00001304207698105131 0.00004364501865072867 0.000030455407936003098
          0.000015798431488800446 0.000036532768722619124 0.000025375248797310235 0.000014009708816598021 0.00002017276326826689 0.000012557641026589295
          0.000007020410997427007 0.000008165811909321974 2.083817074449712e-7 -0.0000015594499553905905 -0.0000034146786815902885 -0.000009943892075536809
          -0.0000031318866953178315 -0.0000035805932436794308 -0.000013799418240534322 0.0000398057616699532 0.00009162781260840802 0.00008922164711577807
          0.000040201967333342026 0.00009329153467962925 0.00005864712792513771 0.0000035579192889656497 0.00003119420727326627 0.000008974682204065942
          0.0000030361426861524876 0.00002035567788150061 0.000002838424786766325 2.1307622466437692e-7 0.000004546571535257726 -0.00000732022814187161
          -0.000004202144672671437 -0.000004636651634193356 -0.000017123379425054708 -0.00001101278743798062 -0.000014458833629937828 -0.00002454155014275372
          -0.00001073840584542296 -0.000012480991342656012 -0.00002621897021670705 0.00002665421905856391 0.00005629477582402842 0.00003497145055497697
          0.000015249410616258174 0.000041042242290734166 0.00000539951737965616 -0.000018948689377421002 -0.000007558975755272979 -0.0000381114721860476
          -0.000014110943237000129 -0.000007185050499236567 -0.000028650948820985178 -0.000016776284255337615 -0.00001594815181493736 -0.000031684598399417396
          -0.000020077895844572424 -0.000021637814242136955 -0.00003822502063854927 -0.000026031787031310927 -0.000030050277108895074 -0.000044751102641793494
          -0.000024185780738150697 -0.00002599538716818728 -0.00004505674004473548 -0.000023727046183807943 -0.00002185148264688408 -0.000012633051341470747
          -0.00002163227322116157 -0.00003846812498586871 -0.000041508919424781965 -0.00003923380771331253 -0.00006380288498819553 -0.00005339412296212487
          -0.000057286321573535304 -0.00005546785372390062 -0.00007117217326779723 -0.00002876530213580253 -0.00007154346298936243 -0.0000759294549599332
          -0.000021633820669553216 -0.000053241205375531564 -0.00013821033777172698 -0.00015978385087667135 -0.000045074383126841866 -0.00006677503774277227
          -0.0001426030521641114 -0.00016628589544231964 -0.00007235864728771801 -0.000038164702060417 -0.00004861288663926544 -0.0000573533818331029
          -0.00007509743993128204 -0.00006805933088838145 -0.00009199727899011911 -0.0000681877191164304 -0.00004222593210290171 -0.00006570513036496806
          -0.00004320919159805925 -0.00007354407604864832 -0.00005582063367004508 -0.00005654273128286036 -0.000025371828909282954 -0.00007305621595277145
          -0.00003192297563189839 -0.00007190019571901018 -0.000046475590413620586 0.00000822481390683194 -0.000039698556228984216 0.000001964150379230034
          -0.00009073000152781674 -0.00003920428142567545 -0.00013407992080982645 -0.000030992881448810294 -0.000038817215740727384 -0.00004399313953573625
          -0.00005998656737452035 -0.00003876785046452724 -0.00006440334814819537 -0.00005262533953542814 -0.00005576527537876075 -0.00006673479580809882
          -0.0001371250527819612 -0.00027643799543364267 -0.0002031380950684447 -0.00008582041060734014 -0.00016677968106026952 -0.00012092971605559555
          -0.00007168687567626897 -0.000055066865064956616 -0.00013154712055585271 -0.00008249941434557151 -0.00009611571400380825 -0.0000705602161386043
          -0.000066958014317553 -0.000070702698778069 -0.000056309772774376654 -0.000030604970102210416 -0.00002494217115911468 -0.000045607386576218545
          -0.00006376319321699242 -0.00008894535565318051 -0.00006576403710667478 -0.000019473490223909096 -0.000013050208856224543 -0.000004921296837601119
          -0.000005391914648544827 -0.000036190737143115825 -0.000019822603669616967 -0.00000961176295222188 -0.000007829708796869284 -0.000049552756372417406
          -0.000029310462583698182 -0.000017685982399040512 -0.000026645144574288793 -0.00005775145024244921 -0.00008979282732646254 -0.00006844760861568489
          -0.000008376130989251607 -0.0000426783004559006 -0.000013979443821421356 -0.000059885407292625814 -0.00004949884106508762 -0.00006533980734513278
          1.101441404749437e-7 -2.3341532529030928e-7 -0.000002223657294742054 0.000005115635521635298 -0.000006654746318446314 -0.00002170998222972287
          -0.00002006567835932671 0.0000013829823193312052 -0.00004392075563375286 -0.00003340105477622757 -0.00003276901404447585 -0.00004203640945288356
          -0.00000649172458455638 -0.000005844613187866443 -0.0000023411953411489606 -0.000015282715405184888 -0.000011574658393520565 -0.00002158689566789107
          -0.000016449642586735536 -0.000029980852787936385 -4.866575697981546e-7 -0.000015386881518697493 -0.00005096208423527315 -0.0000519302719799164
          -0.000018190839815357407 -0.000012261881760622373 -0.000025710283019897417 -0.000026001193636382425 -0.000024955051153519037 -0.000046006182786495486
          -0.00004670380636095928 -0.0000693543389771456 -0.00005152234710292802 -0.0000038810288511825775 -0.000002229789877628008 -0.0000023579013905816737
          0.0000015391764498495775 -0.00001567334042329449 -0.000026464993200914222 -0.000009122716944531817 -0.00003439689498163645 -0.000047708594492767986
          -0.00005553027054716608 -0.00005952852425661348 -0.00007155721935570014 -0.000022789666443256973 -0.0000032003771686106575 -0.000003584422785696262
          -0.000021848140119351545 -0.000007627167564194792 -0.00003682898954782132 -0.000026469492190206445 -0.000030754647490027764 -0.00005206264574120212
          -0.00003885731939323733 -0.00006845333669658338 -0.000046153371425550205 0.0000015929747938514538 -0.00007271572853051467 -0.0001580110822407832
          -0.00010765145404212362 -0.0000021277350270576534 -0.00007319160598573404 -0.00010267010399966914 -0.000094836236936513 -0.000040449882511950364
          -0.000007128525683075537 -0.0000024412385299932282 -0.000011026842235750678 0.000001843422081204693 -0.000013670190735393106 -0.000006843997327532492
          -0.000006131471015358159 -0.000021172218646281493 -0.000016423542319010664 -0.0000024323432179507165 -0.00001573313614899874 -0.000010824362042249902
          -0.00006042981642240264 -0.000026948407994886736 -0.00005052632931734635 -0.00003365099247210068 -0.000081379402936399 -0.00006790008812451731
          -0.000008447916331366656 -0.000007885319497358267 -0.0000015806383419914027 -7.294703225912968e-7 -0.000008299692465962849 -0.000001030055959638787
          -0.000015168939789145242 -0.000013495028804433318 -0.000005814617888511009 -0.000056583357501249765 -0.000022833018530565852 -0.00003885447861851077
          -0.000007446277380029898 -0.00006213841323843283 -0.00004481857296223524 -0.000006728526949384417 -3.6167582662116615e-7 5.783077217103028e-7
          0.000005820268197620493 -0.00002262858746648888 -0.000006159629219126828 -0.00004411928656100628 -0.000020662680301875014 -0.00007448891562233939
          -0.00006359715034198743 -0.00007513818852844523 -0.0000799206952271092 -0.000009193337121793377 -0.000005172294107236297 -0.00002056465737632074
          -0.00002516851411515919 -0.00004167683862932314 -0.00004656303785166571 -0.00000596266787322719 -0.000009990955303962323 -0.00001474855810412734
          -0.00002193220955981623 -0.00005487078644073051 -0.00004975431385889628 -0.000035333659156977504 -0.00002965569027457704 -0.000015674807450960504
          -0.00001817094837486266 -0.000038871848068111614 -0.00004071113366199697 -0.0000026149099596750602 -8.206979327241015e-7 0.0000016390042865133125
          -0.0000013387728179381497 -0.000008882240225993598 -0.000016752831875965768 4.421518471353636e-7 -0.000019771238356280918 -0.000028137913258952096
          -0.00003165325444332012 -0.0000241280354433826 -0.000043109281096409546 -0.000055786884983088925 -0.000041233703704346425 -0.00003877628961657109
          -0.00004772886831760914 -0.00005119255666485856 -0.000042359345281628435 -0.000029902559560035513 -0.00003474357766508618 -0.00003841745797039664
          -0.00003837991610389224 -0.00005264032969432009 -0.00004246104751448598 -0.000025148980725031578 -0.00002845542448670635 -0.00002087620804580581
          -0.000026463018798050797 -0.000032346994052634415 -0.000042378558229305696 -0.000019423811072893926 -0.00004341943441810159 -0.000009080136693206953
          -0.0000514165615852491 -0.000047929019515446925 -0.000053569196343694614 -0.000018794247381492823 -0.000006222669936661873 -0.000023108212695355235
          -0.00003667307696852973 -0.00002888693351721372 -0.000018457927490889148 -0.000013746108966206094 -0.000020684047781660553 -0.000025714614532823532
          -0.00003652488919891894 -0.000008039680198024257 -0.000002827887807477225 -0.000013844079048919156 -0.00004214188540796471 -0.00002097853671756411
          -0.00003667332337720097 -0.000024416657845804934 -0.00007931443257591653 -0.00007725965392557654 -0.00008431943183451196 -0.00007130889761608472
          -0.000008446816868623586 -0.000016101332678708502 -0.000020421971981932074 -0.000013763212877604403 -0.00004736146229911142 -0.0000390036403850047
          -0.000023787913706385666 -0.00008431777656303652 -0.000021970023562190022 -0.00001223354880641736 -0.000054283353093875775 -0.000006306644059872468
          -0.00003180075794828596 -0.00007391907125953168 -0.00003343153203427818 -0.00002004302455960172 -0.00001912576218865425 -0.000007377829877697195
          -0.000026807205448786675 -0.000005839080543967867 -0.0000032580832711737173 -0.000037583096951010475 -0.000018487828067570433 -0.000013983619965074467
          -0.0000321713258525369 -0.000012884749245323235 -0.00003320624304625763 -0.000029147004475094107 -0.000021733283690927863 -0.00002515685832338299
          -0.000016483073966178097 -0.00001338688603524929 -0.000008322463372678612 -0.0000019065307719223767 -0.000021044065731334882 -0.000014631053460334442
          -0.000026737481533700702 -0.0000272603834843288 -0.00001053322131605583 -0.000006324374759003604 -0.000038551270911568736 -0.00003282213528521538
          -0.00004141058594897551 -0.00002414939092876267 -0.00008235755047047988 -0.000027560839191309583 -0.000008630926591535193 -0.00005551946131632235
          -0.0000017624794516057918 -0.000042392689135972716 -0.000011749854057385711 -0.00010420017777157398 -0.0001666917071041496 -0.00008940261714940334
          -0.00003795457322119944 -0.000044214363920325184 -0.000008776271604560293 -0.000022991107887726514 -0.00008580732000229574 -0.00009649920122445366
          -0.000010625440687750398 -0.00003958531770398288 -0.00006492449383532772 -0.00006221589771637781 -0.000020961700931021454 -0.00004032734300873919
          -0.000025051140645881986 0.000005169745771915757 -0.00003559734247771118 0.000004580496582473614 -0.000029874191995293842 0.000005038459650830163
          -0.00003433094425853156 -0.000022409836105907743 -0.000043500208422031506 -0.00001796933802911127 -0.0000032970666610232513 -0.000013198364651856309
          -0.000023196284729465333 -0.00003016591338445007 -0.000012643295164149748 -0.000009560874014269416 -0.000035228258000508106 -0.00004077687584502776
          -0.00005779164961783323 -0.00009603159911009129 -0.00006565561738280934 0.000006368580160565074 -0.00004695092113049526 0.0000018434052102556109
          0.00002215096155611107 -0.000027775980204758355 -0.000001763312768687797 -0.000014737357033833831 -0.00004296497073852379 -0.000014628233759861331
          -0.00006578324432826577 -0.00003644574543271162 -0.000027748438068186942 -0.000013687018953101315 -0.0000404319929319108 -0.000033824812356364475
          -0.00009282535293864136 -0.00010959276943267593 -0.00004458864188849887 -0.0000815664562449081 -0.000050254509496916455 -0.00006728776910147616
          -2.957749960508238e-7 -0.00001062310595956184 0.000003926355135686066 -0.000025704614385224644 -0.00005203563848121817 -0.00004133058065791673
          -0.00002853328786400766 -0.00004032669928255572 -0.000008680780494429996 -0.000037285726996572066 -0.00003592131189744663 -0.000038671296244352504
          -0.00007699570763153307 -0.00011764799594959907 -0.00008747921626062194 -0.000063053426380133 -0.00004569204521942538 -0.00007224088452595367
          -0.00007060046936446795 -0.00008969110560075322 -0.00006269638454625692 -0.000039788445625354996 -0.00003070117687098417 -0.000021540971395506148
          -0.000034101860092228264 0.000002720598446970257 -0.00003887063360785703 -0.00002494518323103989 -2.8727442336062836e-7 -0.000037380895543837056
          -0.00010721275713931888 -0.0000956642395402163 -0.00005670746948682748 -0.00006891208391879289 -0.00007969537502638957 -0.00007798034496264705
          -0.00005832325599353094 -0.00004384383169053763 -0.000047487989733807634 -0.00003244871121532711 -0.000040521270989635205 -0.00004886107225132719
          -0.00004150611927489223 -0.000024473598555729836 -0.00006845762211060702 -0.00006009243518567686 -0.00003440353547867758 -0.000038568379754799764
          -0.000055835192161568514 -0.000053947675866083955 -0.00007235988670295512 -0.00001743677233390084 -0.00007149643754011947 -0.000009448098112319059
          -0.00004125158897988479 -0.0000654106871955662 -0.00003405623896490795 -0.00009131470367318428 -0.00009154423445201232 -0.0001197381502127115
          -0.00013120187167192654 -0.00007215937383797666 -0.00008635434918113916 -0.00004295666213627314 0.0000045562958677081156 -0.00003220005382242874
          -0.00005190955339395842 -0.000010061838881636476 -0.00003628923644294346 -0.00006913484375559165 -0.00011521679568726739 -0.0000856344536637188
          -0.00009097096325727527 -0.000019191550391539636 -0.00004387342131195737 -0.00010621293501089646 -0.00014185708415492826 -0.00008736980423407203
          -0.000025685882820702943 -0.00001912858256414296 -0.000027623379065699893 -0.000029851293775529086 -0.000014000704417593823 -0.000038182693007371427
          -0.000028379415381252215 -0.00001434683832313155 -0.000010512343715962658 -0.00002005213392219929 -0.000005331877724668033 -0.00001131283451671905
          -0.00008167683707682727 -0.00008955706383018125 -0.00006285200194433571 -0.000014766316410508296 -0.000004394607041380283 -0.00001377500514720964
          -0.0001006650729760139 -0.0001392129965900324 -0.0000855464925844096 -0.000012225089546902268 -0.000004851687525286863 -0.000010836757244669926
          -0.00004028564415436975 -0.000018394816214684084 -0.00003883039242813524 -0.000043736274670802544 -0.00003381424805848354 -0.00003967162145501746
          -0.00004532226858877664 -0.000021190733444420573 -0.000050056497579831216 -0.000049338006729016115 -0.000013448070406152368 -0.000037512536501527194
          -0.00007725702518435185 -0.000019298098188791357 -0.00004553960932440759 -0.000058502867164467176 -0.000043636332344831885 -0.0000455107081158701
          -0.00007668845789465806 -0.000025631586770380466 -0.00004202181731516319 -0.00002026415575606677 -0.000013785678798949874 0.0000019781407756269687
          0.0000019729305260618446 -0.00000799154825648074 -0.00000492269666674261 -0.000036638823315726654 -0.000011024687537997124 -0.000018536713263905824
          -0.00005898935913872805 -0.0000370249277477086 -0.000042034395084655785 -0.0000230901328621691 -0.00004834148037025088 -0.000025969356583388503
          -0.00007355742105996654 -0.000048929161883037864 -0.000036068633366026503 -0.00004088205401853173 -0.0000041547928333329764 -0.00002747934219815562
          -0.00009405038938314902 -0.000046058791628222906 -0.00006330453311731432 -0.000030890921024706586 -0.000028206606119240973 -0.000022904911128662775
          -0.000026294748487032393 -0.000021240962604807123 -0.000027746554545515778 -0.00006104422985764302 -0.0001222077695435253 -0.00000782950698352547
          -0.00012307309206605055 -0.00016588788212779093 -0.00002745915927970799 -0.00012044142737188679 -0.0000946674883415266 -0.00004736933187154957
          -0.00005715851846765929 -0.00008994757655056418 -0.00005237264410506981 -0.0000950159747956647 -0.00013133186775426964 -0.00008168374138239898
          -0.00001306077204432654 0.000021775727538919654 -0.000022629529343731747 0.00004309916609557263 -0.00002971896786263528 0.000007834887662205858
          -0.000022619820801317303 -0.00004308169548883356 -0.00006048840337502526 -0.000040129571373448414 -0.00007333291442712664 -0.000047013861453226724
          -0.00009055175446359698 -0.0000954270286337433 -0.000144328125101012 -0.0001193140404076587 -0.00008845197041829067 -0.00007150603627170682
          -0.000029280820288857257 -0.00010267545088726848 -0.00007954472944504687 -0.0001454871292594362 -0.00008318739300339217 -0.00009700363015241464
          -0.00009409463025855658 -0.00012257017321104513 -0.00008627868944133255 -0.0000956979338369024 -0.00007818190810437997 -0.00013685938924101748
          -0.00008676662813478231 -0.00009416731959088764 -0.00010969061352117393 -0.00011634562217999189 -0.00015759356640909772 -0.00012999565554228099
          -0.00011959459118493498 -0.00005354708341531733 -0.0001924446609935515 -0.0000946249980753322 -0.0001236270943105744 -0.00011075298755169882
          -0.00011452083124785517 -0.00013645225075098466 -0.00008977005552646133 -0.000043542908715110684 -0.00004643595693210045 -0.00003582082216446736
          -0.00007129112567261231 -0.0000904552282401383 -0.00008268744947947937
        </DataArray>
        <DataArray type="Float64" Name="resid_y" format="ascii" RangeMin="-0.000052445591215873055" RangeMax="0.0002471934972196714">
          0.000027855384795631363 0.00003452114623477692 0.000020413614159059054 0.000009100550401680563 0.00003700264994670882 0.00003619445402362406
          -0.0000035954972255509976 0.000009758142861457375 0.000022686102278915432 0.00004152434608482511 0.00016537097139388696 0.00013232725335442577
          0.00004820210701781541 0.0001380188800522708 0.00010012473931508142 0.00004381019833649136 0.00010443227394696386 0.00007388742595033915
          0.00003984145354814228 0.00009220189832709336 0.00006124122914669128 0.00003143632571467325 0.00006149903012742097 0.000045623045343334834
          -0.0000022804397177590696 4.226004876178857e-7 0.000018455608601690432 -0.0000015089489370837504 0.0000010885265707759155 0.000017137408759755612
          -0.00001545233749486452 -0.00003930045640399005 0.000016915153828241103 -0.000016267093293227675 -0.000031334207236360934 0.000010155819411099276
          -0.00000522400099575715 -0.00002635226407073088 0.000012755489447964508 -0.000001285644971756733 -0.000015595427437085918 0.000011074249183472273
          0.000009326067199642157 -0.0000019899638308597256 0.000013442872402423534 0.00002588316816733681 0.000016516007142313924 0.000025990063735131796
          0.000015887807469628507 0.000007158897959493385 0.000020840092816288777 0.000043463343540980914 0.00008060056746775346 0.00006740398200394404
          0.000014867824449441014 -0.00000374054355090081 0.000034762316523870296 0.000021644163433039154 -0.00000792920168043304 0.000028819581744082834
          0.000029536600428158727 0.0000036586154292736484 0.00003147446020413183 0.000026420143511677457 0.000008019144500336778 0.00002984118919724041
          0.00002483156113634779 0.000008255213317194185 0.000027875932905034595 0.00002294865225108177 0.000008136639606673565 0.00002534897188562809
          0.00001797736568846537 0.000006603126878167685 0.00002571305641133753 -0.000011391971456470307 -0.000034096467746561054 -0.000007129322442400721
          0.0000040362841546293104 -0.000052445591215873055 -0.0000011116985869641383 0.000015002854940382448 -0.00003223656830518562 0.0000063873163877598005
          0.000021220545242870564 -0.000010564019855772641 0.000015109580362786604 0.00002577980090756691 0.0000013527714604038427 0.000024871996409018757
          0.000026741701067374123 0.0000061459118787100635 0.00002806826637444769 0.000026488737279463034 0.000010034871862113666 0.000029000079928421033
          0.00002091413988616203 0.000007583147203206464 0.000025199735539327417 0.000017112922152576204 -0.00000976622123054216 -0.000011564551960427383
          0.000010088476381085731 -0.00002536096268127702 2.6207955124146753e-7 0.000011882071484527884 -0.000007629993185723216 0.000003469114656805619
          0.00002182738571085245 0.000006946002041791945 0.000014537088679254274 0.00003019627947907326 0.00001314286473539164 0.000027249457744647765
          0.00003231815635826654 0.000013994761635429884 0.00003272086691816917 0.00003195655401128615 0.000015828490616749333 0.000034947370588029464
          0.000026952877089442967 0.000015173685524909677 0.00003353711769160661 0.00002409404419986827 0.0000196572608768264 2.561595993932908e-7
          0.000013412077015988177 0.00000346073810670363 8.559927337104672e-7 0.000006921926205109147 0.000013123109112712222 0.000002485218516704718
          0.000021607299551393983 0.000027160414995494597 0.000014820284714400084 0.00003149466133930273 0.000023918075550077855 0.00002813268121100443
          0.000035812397281485137 0.000020085863824459427 0.00003569037182072493 0.000036433852653651455 0.000019081458616627966 0.00003880359670282996
          0.000031563694837470624 0.000016585392632627316 0.00003855936097060808 0.00003081986359632083 0.00005031337647876111 0.0000257146262778174
          0.0000261023814752126 0.00005231868694374753 0.00001958722675210467 0.00001128380283932362 0.00004871540897161131 0.000001547543008920127
          0.000017827999828926022 0.000036132107304090444 0.000013030548282416676 0.00002866031008888492 0.000025886528380272833 0.00002611874428821992
          0.00003571173064207192 0.00002088603618501106 0.00003416640661534423 0.00003775082814520131 0.000019343355343648394 0.00003934625539951664
          0.0000358128969601447 0.000018253352003231443 0.000044499171496893 0.00002122311165046742 0.000023072423467628 0.0000018303856850667571
          0.0000042446192094515445 0.000026917732971955266 0.000032097529309285666 0.000010239845739201323 0.000011558757934003808 0.000033218868318099504
          0.000046018558069599313 0.000020897560910036056 0.000015800863731020576 0.000004909126171556699 0.00002201947858276182 0.00004457754571982053
          0.00003080668304849491 0.000026457155912693042 0.0000454882348082759 0.00007821062326890393 0.000067536230292836 -0.000011195604025057704
          0.000006209567646882699 0.00003312613124545338 0.000026013010947543297 -0.00000602217000958416 0.000011190205901148026 0.000011286194415510709
          0.000030126147812198356 -0.000012367284848185944 0.000005452582333267952 0.000023562422621836374 0.000007688453648166393 0.000020107383493636263
          0.000023025869174846114 0.000014623953721266958 0.00001908800679380207 0.00004669983041997658 0.0000027706759017523484 0.0000564377500104434
          0.0000013204943981389317 0.000059989129770263855 0.000013495276492822214 0.00005157450236725758 0.00005841917814330966 0.0001395290210272071
          0.00008988674013049591 0.00006692481454495525 0.00003286733930951691 0.00003617793485252317 0.000038066739407721694 0.000040289375901768907
          0.000036564190094470544 0.00002409764664010588 0.00002690109318072135 0.00004692168633920607 0.0000382739731564323 0.00005345328877799996
          0.00003126699558078606 0.00002775028757157419 0.000009577602076383737 -0.000022182701766957844 -0.000018193870613509786 -0.000012149098970699185
          -0.000040964312193532415 -0.000018632706924639683 -0.00003832908126364873 -0.00001518246875760118 -0.000017630024069160977 -0.0000046323431308493285
          0.00002356858567637704 0.000016276880300125293 0.000005986647414099253 0.000025794865078591217 0.000006419610397424141 0.000021286318310824448
          0.0000026885893615437653 0.000011087285451833948 0.000033516704276322085 0.000021794575604200048 0.000017180929160143243 0.0000039596003234693145
          0.0000020556169329603857 0.000028786781069290238 0.00003153900280988137 0.000021840566247176285 0.000017269883793621932 0.00004575345657929428
          0.00004145753159058574 0.00003648909507183301 0.000041217607618507235 0.00001905165791487272 0.00003096945197890097 0.00003774975234662262
          0.000024517922938688957 0.00004989711518113213 0.000017339742443681083 0.000030796539770863024 0.00005664440710770324 0.000052922306193185775
          -7.435931970358606e-7 -0.0000015738078357682705 -0.0000031941321456743776 -0.000005032174326381755 7.214838718336281e-7 0.000008904042823016517
          0.000004153237017533867 0.000007522989061887336 0.00003416469765300627 0.000020332302903103283 0.000024620650292395824 0.000040579744926345224
          0.000024570094262897635 0.000025117545652523013 0.00001846161541830746 0.00002042355495831833 0.000023541815806771282 0.000025033158172871762
          0.00003327280922075116 0.00001859584482521645 0.000018837211057500317 0.000004570811849116327 0.00005329334844249734 0.000043362246709753235
          0.000005120728748727113 7.268467646093235e-7 0.000026425071444236004 0.00001461331758998135 0.000011713418862252176 0.00003372911706241849
          0.000038667474840940914 0.00006204947159759583 0.00003381440413800438 0.0000013117501214410243 -0.0000037019147566246663 -0.000006368828709102728
          -0.000007863820188044532 0.000020374213869522872 0.000015080042274722566 0.000022007473493261195 0.00003835900547815088 0.00008275505077731671
          0.00007581976645534838 0.00011190029104580015 0.000116374677363109 0.000016220580425711784 -0.0000010576260504532864 0.000010858900318162779
          0.00002598305013790103 7.079100765305935e-7 0.00001789366178318614 0.0000324735863325952 0.00003049504105366932 0.00004346595163462648
          0.00005465450749045711 0.00006034321689888343 0.00004767624138274362 -5.231821311457718e-7 0.00011810368530414117 0.0001364332791071437
          0.0000974045121073814 -0.000003931070041911927 0.000099836213611669 0.00009227015441773748 0.00008600910972441159 0.000027498782016320555
          0.000019168587498723244 0.000011744697793379666 0.000016959380298484095 0.0000022542067677835953 0.000017555930084081628 0.000011005623425239947
          0.0000016013599867907569 0.000019817764093783136 0.00007590060295797549 -0.000003700749121740912 0.000014915269016037638 0.00004628225891089785
          0.00008691746024805033 0.0000026484146181428303 0.00008219728452670862 0.00010646927858033207 0.0001494706161432359 0.00009052190449733693
          0.000010982585103342171 0.000010869914309073053 0.000004510917200809331 0.00000696318007260225 0.0000013736236290640136 0.0000033546696456415726
          0.00002580286151898344 0.000012135080980052448 0.000006937855451772182 0.00002728710813252634 0.00001537180747915659 0.00002061910413797899
          0.000032079850613930816 0.00008197242731538754 0.00009646128004978105 5.384790882079216e-7 0.00006427069331570168 0.000014532384380593587
          -0.000012789911902746486 0.000010555814604974387 0.00008298285553561165 0.00004827808070738404 0.000011356699837463714 0.00008542305049955641
          0.00015007812865412348 0.00012255092377952762 0.00011187947881679356 0.00003366861732867184 0.00001987264709779092 0.00008118735132368405
          0.00007046454427234346 0.00010404871596555185 0.0000912428726164156 0.000025129881231406026 0.000032680147348303906 0.000003186647687083294
          0.000004443817856979865 0.000044171957313557386 0.000035000607060037964 0.00003089761994227308 0.000011622566878614557 0.000032866080050104884
          0.000010057695490365767 0.00004655027389530858 0.00004013634321888872 0.000001823936961214967 -0.000002481024950689442 -0.0000034434215097564613
          -0.000005511559851178582 0.000011723838972702016 0.000007696726004355336 0.00002390508358787735 0.000021098841303466773 0.00005497193477677423
          0.00004878898657845708 0.00006476807232462523 0.00007874269526842066 0.00009117435430432141 0.00006872696521063176 0.00010052054837799557
          9.407891632916277e-7 -0.0000040369936035247744 0.000017735893335214456 0.000014614702472165106 0.00003267627811314594 -0.000010870805308010878
          0.000028188841185727148 0.00001769375654107376 0.000031662992871456935 0.00001840457219328892 0.000027987501548955296 0.00002155824992949862
          0.000032859398142796176 0.00002925290310493156 0.00004064853010516539 0.00003564170084607073 0.00004010517216310357 0.000018999456305313425
          0.00002319720857912877 0.00004055106437018258 0.00003641774386449383 0.00003830491069138631 0.000025829016819307882 0.000032728391411301905
          0.00002486850561363857 0.000027587942750645703 0.000016472546165192947 0.000023509589526304192 0.00003592798341334885 0.00003513495403477049
          0.0000615781081826066 5.357157106620353e-7 -0.000004060769126592451 0.000012199859856920972 0.000050818111456846574 0.0000023587402287212483
          0.0000016186282086666157 0.000026032929510675512 0.00008527728355500232 0.00004841540448701897 0.00004398586599541239 0.00006610779882080739
          0.00006395394796249003 0.00003327828242325262 0.00005096139791700878 0.000022202099904739675 0.00006664775638868387 0.0000483640505007793
          0.000030392037983509963 0.000014890413206931387 0.00005535729389302452 0.00002474756748703554 0.0000037519546071309445 0.000044194541563647664
          0.00002567421554523536 0.00003331853807247466 0.00003857664049861792 0.0000625297797877053 0.00002338427113827285 0.00001528431966447974
          0.00003569322840883335 0.000015321778066700042 0.000007705424110875103 0.00004230540985842787 0.000032474033334015454 0.000014847032493041368
          0.000024769362115931864 0.0000015595210898326772 0.000051600773539675626 0.00003774986813926025 0.000025626246644214548 0.000029813675544455506
          0.000026651179270455183 0.00000688583155308755 0.000025046377336281067 -1.0152575338740442e-7 0.000021904041636933158 0.000010584510249079864
          0.00003696941399334783 0.00002558016706225366 0.00002861587676859182 0.000008597926594142505 0.000033682592093598265 0.00002172819640437057
          0.00007473019369407452 0.000026419181827928764 0.00015938076086383698 0.000016650896532030036 0.000013645974434581265 0.0000251055353230039
          -0.000006225936180395686 0.000020705723665229506 0.000008926356509050826 0.00005143104560542157 0.00005428882026202453 0.00004509453697988837
          0.0000707404833669191 0.00005878026220484771 -0.0000034411055733520046 0.000031770504865778065 0.0001544735125192584 0.0001306038942174622
          -2.4224642118826634e-7 0.00007808418617092326 0.00009558025543935159 0.00007896304095528738 0.000027890791346730365 0.00008343473797566697
          0.00005836384103161574 0.00003526215318851774 0.00004390983229567483 0.000042635571934856314 0.00004920484180611848 0.000027085581301908995
          0.000034038458375030764 0.00005997392545465524 0.00005265904744328545 0.000032469998749520834 0.00001709841472306156 0.000019087656756566762
          0.00002101159736454805 0.000027858041303206044 0.00000388933465051821 0.000013256645085349406 0.000024193695590060856 0.000039931776273378905
          0.00006324208446421668 0.00012716920618082925 0.00008446017065109716 0.00009421508660031289 0.0000757477815984944 0.000031414714608005156
          0.0000616953875487372 0.00006541488045046662 0.00004481047140810065 0.00007048343173904988 0.00010823268779537945 0.00005568971957485005
          0.000054994379437248164 0.00002794585665626126 0.00003758523087761881 0.000012820192372935482 0.00004893424567193293 0.00004113784130159101
          0.00006813359162468995 0.00008180927527284484 0.000044692473268831065 0.00004213472970513235 0.0000952504107513321 0.0000913467984366232
          0.00004659076807296894 0.000032762166182278424 0.000027428924876799626 0.000025707961042061717 0.00008737394058460843 0.0000679153114286242
          0.00006058942538168799 0.00005484807659039172 0.00002290545682896803 0.00003292117649522641 0.000049355098192201824 0.00003425445880241365
          0.0001158636757059413 0.0001338948815129647 0.00010817976394938067 0.00014289797913688302 0.00006470505941515462 0.00011544186222520398
          0.0001538202669132023 0.00022596252742450654 0.00012984527926406843 0.00005447302690173017 0.00004151931102351625 0.00004769198809828276
          0.00008855733094842097 0.00001822893822621581 0.00007636886355654945 0.000025282295072933704 -4.989115448784595e-7 0.000029561003621388776
          0.00003003420230189742 0.00012312125567500581 -0.000007649136377382675 0.00011251437036629165 0.000054286528147078766 0.0001325562466687703
          0.00007041133130486314 0.000025405927184800337 0.00010506991783254538 4.323088719782042e-7 0.00007339883105522693 0.00003983838447842343
          0.00006359931689746585 0.000018133162047895973 0.00008789045522483371 0.00010818566513501934 0.000029918042726687945 0.00007286622269753445
          0.00003333385153201501 0.000012992911551604897 0.000046199036271926675 0.000015447312937871827 0.000018945538186831284 0.000033243333336279227
          0.000046392641737804524 0.00004029321915997516 0.000050760564104170014 0.0000796852620210866 0.000053785765801422913 0.00010155585151715857
          0.00006623510176750544 0.00008103772955713427 0.00007326280184664913 0.000029251145940196663 -7.962464376246037e-7 0.000025696974652343607
          0.00007624305990498032 0.00004127031772910598 0.000046867321152139086 0.0001048933984688586 0.00009451214742294163 0.00008773165574865044
          0.00006646459472316527 0.000022459403918716897 0.00003982476059593079 0.0000537020299330674 0.00005485224571181481 0.00004915843824590538
          0.00005233669184504311 0.000020803497293046813 0.00004969180758662359 0.00009719488606883993 0.000023791874085271614 0.0000640236132460302
          0.000012339136488868918 0.000006942818093463865 0.000011456497261044807 0.000008456091832590579 0.00000153704968351015 0.00001077850495742258
          0.000060762552382156304 0.00006745686526516206 0.000041389173841513416 0.00001157010049977758 0.000006723126038915561 0.000015621364062336218
          0.00007752980064752724 0.00009961937346738767 0.00005884948123796238 0.000018955102567115578 0.000011375478816771922 0.000015886273956190744
          0.000044367506703231474 0.000016931400955263326 0.0000342795112334357 0.0000958255171060688 0.00004011855039037435 0.00006276735988148749
          0.00003727146839106049 0.000014207762389816664 0.00003639276161441357 0.00006641495582299095 0.00003489922654573152 0.00006012688986142649
          0.00008031194598608245 0.00003587140487725307 0.0000532810769287035 0.0001009186056035909 0.00006519716951336636 0.0000655392617289613
          0.00011889639675673885 0.00004366069552866683 0.00006861418755178816 0.000010066692758236608 0.00001828701018753709 -0.0000014599936749076434
          0.000007547901230893408 0.000006060960138101843 0.000009631886583834522 0.00002690298149921229 0.000012746552399481303 0.000012863084752002402
          0.000057474089378978244 0.00002463475416823735 0.000009841588918636096 0.000005757015637499439 0.000026291242051564023 0.000010371801009469162
          0.0001231893374732027 0.00006562227799141764 0.00007453978518839584 0.00011302782966140926 0.00007390086381338823 0.00007100374715928717
          0.000052071672219478754 0.000037955529590657025 0.00005693371871096087 0.00009751454716055465 0.000043486803049321184 0.00009105849016853053
          0.00005746772801870463 0.00006187255734822761 0.00005168062896407973 0.000046939804441471084 0.00012277314012909893 0.00003641990712874993
          0.00010160489894774083 0.00019006380668511874 0.00008948051778919289 0.00010518269940341246 0.00010816977220663715 0.00007485283467099577
          0.00012187415274367112 0.0002471934972196714 0.0001410506141958541 0.00009129996508497676 0.00012745996385695596 0.00009879242403034415
          0.00003106714666082592 0.000027898554487453073 0.00006332953533354398 0.00006620534383011255 0.0000555462251190411 0.000050991939060552206
          9.406598138073791e-7 0.00004105473117415638 0.000018249385548504277 0.000010233738799133099 0.00006695014264852632 0.00003897215026299385
          0.00010969605842806734 0.000125418866579078 0.0002023295535500333 0.00016500268971950116 0.0001303771062316425 0.00009721789077754214
          0.000027762585522362118 0.000111109809793156 0.000059820367021110044 0.00008670777971801075 0.00007052145098221038 0.00006837555991783331
          0.0001276442344536879 0.00017177135375644192 0.00010863203644049298 0.00009850359833925466 0.00006728495687828573 0.00015410342210522496
          0.00011472340234311429 0.00007499451930342328 0.00007254074375146607 0.00008721070582458357 0.00014889175777241248 0.0001119667703884282
          0.00010233973519090458 0.000010790988832377196 0.00014901908570677525 0.00004275993432107522 0.0000814422911158616 0.00004790043600470806
          0.00007398128646270846 0.00009652550264264981 0.00006439944538037118 0.000026512103358935363 0.00003524894517343766 0.00003958507914138612
          0.00006531109252466 0.00007619941468729047 0.000059687607702429285
        </DataArray>
        <DataArray type="Float64" Name="resid_z" format="ascii" RangeMin="0" RangeMax="0">
          0 0 0 0 0 0
          0 0 0 0 0 0
          0 0 0 0 0 0
          0 0 0 0 0 0
          0 0 0 0 0 0
          0 0 0 0 0 0
          0 0 0 0 0 0
          0 0 0 0 0 0
          0 0 0 0 0 0
          0 0 0 0 0 0
          0 0 0 0 0 0
          0 0 0 0 0 0
          0 0 0 0 0 0
          0 0 0 0 0 0
          0 0 0 0 0 0
          0 0 0 0 0 0
          0 0 0 0 0 0
          0 0 0 0 0 0
          0 0 0 0 0 0
          0 0 0 0 0 0
          0 0 0 0 0 0
          0 0 0 0 0 0
          0 0 0 0 0 0
          0 0 0 0 0 0
          0 0 0 0 0 0
          0 0 0 0 0 0
          0 0 0 0 0 0
          0 0 0 0 0 0
          0 0 0 0 0 0
          0 0 0 0 0 0
          0 0 0 0 0 0
          0 0 0 0 0 0
          0 0 0 0 0 0
          0 0 0 0 0 0
          0 0 0 0 0 0
          0 0 0 0 0 0
          0 0 0 0 0 0
          0 0 0 0 0 0
          0 0 0 0 0 0
          0 0 0 0 0 0
          0 0 0 0 0 0
          0 0 0 0 0 0
          0 0 0 0 0 0
          0 0 0 0 0 0
          0 0 0 0 0 0
          0 0 0 0 0 0
          0 0 0 0 0 0
          0 0 0 0 0 0
          0 0 0 0 0 0
          0 0 0 0 0 0
          0 0 0 0 0 0
          0 0 0 0 0 0
          0 0 0 0 0 0
          0 0 0 0 0 0
          0 0 0 0 0 0
          0 0 0 0 0 0
          0 0 0 0 0 0
          0 0 0 0 0 0
          0 0 0 0 0 0
          0 0 0 0 0 0
          0 0 0 0 0 0
          0 0 0 0 0 0
          0 0 0 0 0 0
          0 0 0 0 0 0
          0 0 0 0 0 0
          0 0 0 0 0 0
          0 0 0 0 0 0
          0 0 0 0 0 0
          0 0 0 0 0 0
          0 0 0 0 0 0
          0 0 0 0 0 0
          0 0 0 0 0 0
          0 0 0 0 0 0
          0 0 0 0 0 0
          0 0 0 0 0 0
          0 0 0 0 0 0
          0 0 0 0 0 0
          0 0 0 0 0 0
          0 0 0 0 0 0
          0 0 0 0 0 0
          0 0 0 0 0 0
          0 0 0 0 0 0
          0 0 0 0 0 0
          0 0 0 0 0 0
          0 0 0 0 0 0
          0 0 0 0 0 0
          0 0 0 0 0 0
          0 0 0 0 0 0
          0 0 0 0 0 0
          0 0 0 0 0 0
          0 0 0 0 0 0
          0 0 0 0 0 0
          0 0 0 0 0 0
          0 0 0 0 0 0
          0 0 0 0 0 0
          0 0 0 0 0 0
          0 0 0 0 0 0
          0 0 0 0 0 0
          0 0 0 0 0 0
          0 0 0 0 0 0
          0 0 0 0 0 0
          0 0 0 0 0 0
          0 0 0 0 0 0
          0 0 0 0 0 0
          0 0 0 0 0 0
          0 0 0 0 0 0
          0 0 0 0 0 0
          0 0 0 0 0 0
          0 0 0 0 0 0
          0 0 0 0 0 0
          0 0 0 0 0 0
          0 0 0 0 0 0
          0 0 0 0 0 0
          0 0 0 0 0 0
          0 0 0 0 0 0
          0 0 0 0 0 0
          0 0 0 0 0 0
          0 0 0 0 0 0
          0 0 0 0 0 0
          0 0 0 0 0 0
          0 0 0 0 0 0
          0 0 0 0 0 0
          0 0 0 0 0 0
          0 0 0 0 0 0
          0 0 0 0 0 0
          0 0 0 0 0 0
          0 0 0 0 0 0
          0 0 0 0 0 0
          0 0 0 0 0 0
          0 0 0 0 0 0
          0 0 0
        </DataArray>
        <DataArray type="Float64" Name="stress_zz" format="ascii" RangeMin="-286521.5162862809" RangeMax="592647.3000199354">
          -8514.986647014333 -8906.429025001278 -9297.871402988221 -9351.965888594883 -9275.589624664637 -9199.213360734393
          -13937.703728419958 -14338.315641164438 -14738.92755390892 40131.584478781435 39849.8139001088 39568.043321436155
          22792.800942514375 23208.311264932585 23623.821587350794 7808.139018487378 7881.780910510322 7955.422802533266
          -2429.2312455192277 -2580.076378954139 -2730.9215123890503 -7646.925386026369 -7391.594864423783 -7136.264342821197
          -15882.536026471304 -15872.077607605059 -15861.619188738814 -19090.747812757603 -19937.38230456684 -20784.016796376076
          44239.07137011282 43575.072445933845 42911.073521754864 14951.899108794398 15392.004639725828 15832.110170657257
          -3876.9385319754524 -3859.189635414338 -3841.4407388532227 -13320.992876450175 -13517.547196249454 -13714.10151604873
          -15747.575620777623 -15544.053618138369 -15340.531615499112 -23373.123182159285 -23387.74404068113 -23402.364899202974
          -23186.187589430014 -23842.601481783844 -24499.015374137667 92308.67072009286 94702.42790776992 97096.18509544696
          33276.32031820953 31944.862300708133 30613.404283206735 -6748.524500458936 -6423.746232026253 -6098.967963593574
          -23819.54644219504 -24030.416637984115 -24241.286833773192 -27768.495233297992 -28004.10524893689 -28239.715264575778
          -24729.9148481422 -24822.227430753417 -24914.540013364633 -23295.893579976357 -23154.398035508697 -23012.902491041033
          -23042.977043527222 -23343.29488576341 -23643.61272799959 75363.10565613823 79725.94391799204 84088.7821798459
          -12921.137431706029 -13634.35750772862 -14347.577583751214 -48068.85090613178 -47168.281875392684 -46267.71284465358
          -50500.69867945885 -50523.662560776895 -50546.62644209493 -42779.23136170664 -42804.29648345253 -42829.361605198406
          -31488.424244393165 -31686.90298165784 -31885.38171892253 -19934.714762609223 -19702.63092657016 -19470.5470905311
          -24366.89975943476 -24212.73348802297 -24058.567216611176 -36208.85357993181 -35218.92543467235 -34228.99728941289
          -107938.12565504611 -110120.66915888136 -112303.2126627166 -96454.6077311523 -97166.04788177056 -97877.48803238879
          -74745.16337024877 -75647.55117413084 -76549.93897801291 -51892.25823708816 -52101.068865597656 -52309.879494107154
          -30610.532546044225 -30921.946638057234 -31233.360730070246 -15935.989441815243 -16046.07360111174 -16156.157760408234
          -11513.341716590314 -10950.257666263311 -10387.17361593631 -205097.6551924447 -216208.72789717422 -227319.8006019037
          -165411.82965018178 -169645.9719114125 -173880.11417264323 -115193.55879805877 -116023.21772928174 -116852.87666050473
          -66178.60276650032 -67937.2471095463 -69695.89145259227 -30048.084770243768 -31127.334347039163 -32206.58392383456
          -15315.106246516676 -15477.331873264398 -15639.557500012117 -2025.9532182723938 -2124.6774635467427 -2223.4017088210912
          -2317.157891588653 -1774.8857553464472 -1232.6136191042415 -209399.62825290574 -200424.6507092531 -191449.67316560046
          -113509.8455875497 -108633.41757272795 -103756.9895579062 -93864.36022587196 -92569.0719469522 -91273.78366803241
          29393.979020495084 30126.980385639432 30859.98175078378 11572.762266108966 11015.133653948804 10457.505041788638
          11287.038514795804 11601.765056100681 11916.491597405553 3677.188114539033 3677.6185161999774 3678.0489178609228
          -180.63438183138896 -392.7995457574936 -604.9647096835988 55430.327606701976 39580.2577111115 52640.85560114554
          75586.37391263478 57036.90964063493 40368.075349304905 52307.340934160995 75987.46565164617 58643.49167456787
          41155.89298749831 51973.82626717647 76388.55739065754 -161503.24466712133 190202.82401145567 175117.29274123214
          -66279.68656368872 -165869.13520348654 183820.76820322702 158657.1825839278 -70176.01111895598 -170235.02573985173
          177438.7123949984 142197.0724266234 -74072.33567422329 -43301.91849162873 81809.97441641954 -42661.368879679976
          85079.51483535541 -42020.81926773122 88349.05525429128 74802.65049116181 87894.59044179322 76522.12386080294
          91476.08672153659 78241.59723044407 95057.58300127994 14129.607773173726 62158.37617196186 15057.375936001443
          63496.38829794183 15985.14409882916 64834.400423921805 -281943.856516651 323290.7436952613 -284232.686401466
          301627.8337318592 -286521.5162862809 279964.92376845726 96015.99752581026 48858.974536716356 96598.69945650276
          46534.661449329906 97181.40138719526 44210.34836194348 771.0465436945719 -221.8928466202771 -1214.8322369351263
          418714.55597487336 407071.1542696007 395427.752564328 592647.3000199354 584188.1328729871 575728.965726039
          85777.31605734323 43307.544299406494 66727.40890325539 44382.85725925163 47677.50174916756 45458.17021909676
          80437.92164858547 79547.82842071913 78657.73519285276 64254.43542293371 65051.61604045297 65848.79665797224
          -2512.2146550269413 -2430.0339323012113 -2347.8532095754817 -12431.081105102658 -16450.401810544874 -9998.976047148899
          1684.7396443950638 -13371.955965676945 -16547.60276352232 -9895.792364092853 1480.0766784547627 -14312.830826251233
          -16644.803716499766 -9792.608681036803 1275.4137125144607 850.0804094758946 806.0872559341765 762.0941023924579
          13021.6215182893 9818.33408370949 13458.985607694118 9628.042453569917 13896.349697098933 9437.750823430342
          -4263.868895151084 -7636.9043238941695 -11962.737151431433 -5649.9428005356785 -4261.00279371037 -8001.019693012615
          -12457.93932953921 -5748.116084294228 -4258.136692269656 -8365.135062131061 -12953.141507646988 -5846.289368052776
          -20683.366362839755 -35607.78351221321 -21287.037169084062 -36934.18620818839 -21890.70797532837 -38260.58890416357
          2783.126226745883 1858.7365309407073 2904.9870548637264 2084.5745408947946 3026.8478829815695 2310.412550848882
          -11815.626356989125 -12406.197808945315 7260.570343514725 -11973.373023500848 -14012.069237077007 8455.300210740483
          -12131.119690012569 -15617.940665208698 9650.030077966241 -1287.1763824539444 -2220.57986769857 1988.70868031234
          -3153.81568458321 -1110.8473732768457 -2378.7276780279153 2039.1828115919234 -3174.169110594142 -934.518364099747
          -2536.87548835726 2089.6569428715065 -3194.5225366050736 -7941.468716804559 -10842.870885293178 -7066.033889894632
          -8253.450707964976 -11206.1795326736 -7027.641563750504 -8565.43269912539 -11569.488180054022 -6989.249237606376
          -2017.3065887537573 -7386.702114480185 -3392.959523463225 2626.873719451622 -2078.7620434208993 -7746.654045208675
          -3485.2687581707455 2666.419924901074 -2140.2174980880422 -8106.6059759371665 -3577.5779928782663 2705.9661303505254
          -33185.78214240067 -14864.995896926657 -35006.75296154107 -15385.829690899835 -36827.723780681474 -15906.663484873008
          1049.203859932854 -1018.6618023727385 -538.516621855747 5091.310770184625 1055.4240282168003 -1029.3701961159727
          -657.9594704109857 5127.0608099110805 1061.644196500747 -1040.0785898592069 -777.4023189662244 5162.810849637535
          2702.35110424666 3670.5918263120284 20117.599491661276 2990.5403046462266 4590.117924478867 21413.034096633768
          3278.7295050457933 5509.644022645705 22708.468701606256 350.707805300201 -778.6227603011127 387.82905746668126
          -739.059724371923 424.9503096331616 -699.4966884427336 3431.376134044467 4145.92104535085 9009.721920631757
          3514.4093911890213 3299.7720770211863 4080.0152399091394 9337.412040806534 3366.4443516099536 3168.168019997905
          4014.1094344674284 9665.10216098131 3218.4793120308864 -2672.9481934151713 -5003.688407983658 -2753.7484130654825
          -5037.204293133603 -2834.5486327157937 -5070.7201782835455 2699.8284868348046 8293.943724368854 2870.1033543439844
          8454.445122618514 3040.3782218531646 8614.946520868174 -3015.244749390096 -5692.559664619265 -3070.2714890721613
          -5950.626688240561 -3125.298228754227 -6208.693711861858 -7268.8170257395905 -3766.8603030579316 -7011.815602716551
          -8376.57748508176 -7185.825302193699 -3734.893486868523 -6887.6067144484 -8409.3398175353 -7102.833578647807
          -3702.926670679114 -6763.3978261802495 -8442.10214998884 -3385.637213248585 -3264.4944606643976 -3143.3517080802108
          -4596.790659015169 -4426.1103661287925 -4255.430073242419 -3019.4988382499196 1670.517698905452 -3042.70643765143
          1907.1519981182012 -3065.9140370529412 2143.78629733095 4672.120448395304 17953.332939999887 4960.010022397277
          19296.612240615243 5247.89959639925 20639.891541230598 18902.495277112987 42754.23334633038 19538.59645595125
          45859.2319078674 20174.697634789514 48964.23046940443 1860.35862096502 2374.503019822525 2888.6474186800297
          -4591.9772666396775 3822.0099038087096 -4927.4437798821955 3769.106291353409 -5262.9102931247135 3716.2026788981084
          750.6386824670129 5969.333987534171 6306.091178516752 -2818.2571017782093 751.5957713382768 5670.455264426144
          6656.037352920955 -2521.3381512257506 752.5528602095409 5371.576541318117 7005.98352732516 -2224.4192006732915
          -7881.848852216114 1192.5899586542978 -7892.431814548353 1261.2945978910589 -7903.014776880592 1329.99923712782
          4698.466447248371 -5005.964568006951 16486.783712235938 4385.760549175476 -5556.5785297034245 16992.90923098584
          4073.0546511025823 -6107.192491399897 17499.034749735743 -10336.976289507627 -7839.719550700812 -4998.576172506769
          -10290.086606130359 -8047.136819840398 -4853.563000412331 -10243.196922753088 -8254.554088979983 -4708.549828317894
          1083.4061536816441 1179.1277958471567 1274.8494380126685 -5789.788050516376 -5808.388498459051 -5826.988946401724
          -6899.896317362784 -1063.2439870671938 -7265.746602560667 -1341.4376629032586 -7631.596887758549 -1619.6313387393234
          7912.196380743452 7453.738339721486 8402.182642260144 7098.703959986192 8892.168903776836 6743.669580250898
          1667.049409792909 1620.7342606296768 1574.4191114664445 3969.099427397897 2701.5463044225153 4171.177684790581
          2766.900351833115 4373.255942183267 2832.2543992437145 -1840.0416765986124 -1909.3673062809148 -1978.6929359632177
          7396.247910322878 7966.86601519537 7652.9325548301595 7410.457134596269 7549.080878359812 8175.511812070758
          7682.835314285964 7470.407716602282 7701.913846396746 8384.157608946145 7712.738073741765 7530.358298608295
          10719.03340617714 10234.897696631651 9750.761987086164 -2895.7308102287157 -1686.1870254688745 -2768.4157090253157
          -1766.0687838000867 -2641.100607821916 -1845.9505421312983 4044.5776932621593 3776.553243934871 3508.5287946075823
          -1538.9763003720423 -1052.807094203226 -1673.218260473755 -1328.9045506499867 -1807.4602205754675 -1605.0020070967478
          -3313.041069862161 -3357.153488463914 -3401.265907065668 1713.7370411668849 3793.776007961447 4924.165131755938
          1497.9506568579295 3813.6019691237343 4789.401936124631 1282.1642725489744 3833.427930286022 4654.638740493323
          7503.832171546164 10712.35447992202 7427.544594455121 10900.50304179927 7351.257017364078 11088.651603676517
          7216.580932568344 4436.88180427737 7341.546003517375 4441.574857315162 7466.511074466404 4446.267910352955
          2519.9852697747874 -7701.768465009293 2658.881178681204 -8013.146203409349 2797.7770875876204 -8324.523941809406
          6940.1997636115675 13658.71909748926 7185.662936097031 14005.196166990696 7431.126108582492 14351.673236492134
          -2960.3511956028015 -3043.9865945012443 -3127.621993399687 9504.354054533715 9895.90930265234 10287.464550770965
          -2587.2644021242872 -2508.777613879256 -2430.290825634225 -17363.913470823925 -18316.603280794705 -19269.293090765485
          -4422.428538377986 -4644.511627253112 -4866.594716128238 436.9316918052207 488.4257194419208 539.9197470786214
          5027.799135937365 2312.7620541512706 5077.792961813268 2386.704052832096 5127.786787689174 2460.6460515129206
          -7051.656009332576 -6105.283012722019 -7411.194509672747 -6410.28278851519 -7770.733010012918 -6715.282564308363
          -3259.595360132224 -3413.3994723736782 -3567.203584615131 5570.028991645895 5859.504314284724 6148.979636923554
          134.67632220403178 218.68526803308623 -223.04867477290327 69.56678662365422 259.7411575873116 -87.52289455973772
          4.457251043276528 300.7970471415371 48.00288565342794 -4521.8860648427935 1166.7363716276823 -4621.875069208246
          1309.0906509832291 -4721.864073573699 1451.444930338776 1913.6975902291138 2021.3855693176201 2129.073548406126
          7752.209359525752 7749.413662090904 7746.617964656058 5394.499115498069 5490.855548852558 5587.211982207047
          2669.1348483537236 2687.968440912357 2706.80203347099 349.2647396120568 378.50370709376904 407.74267457548126
          -13583.893485754203 -14090.77560677613 -14597.65772779806 -3519.285764227404 -3375.7851103054245 -3232.2844563834446
          -3042.6818105154193 -2841.004008863678 -2639.3262072119364 -7632.3996749442795 -7296.433232493322 -6960.466790042365
          2106.2131505816274 2443.1338403296472 2780.0545300776666 -6231.172285452082 -6121.072067023615 -6010.971848595149
          1373.2663477716137 1535.8295963335188 1698.3928448954239 2214.771044319443 2909.667015919599 3604.5629875197556
          1688.9618734038377 1481.914689709164 1274.86750601449 -8110.662407577116 -8244.215833158578 -8377.769258740042
          -2208.5204159169375 -2131.294633223322 -2054.068850529706 -1045.355336324647 -1057.2941569749814 -1069.2329776253157
          -1359.7949698042219 -1183.7628896058436 -1007.7308094074654 -5954.798228249707 -6399.029816478371 -6843.261404707036
          517.459619550538 473.6012030221948 429.74278649385224 1054.3522771066541 17904.64782449197 1188.3974424562898
          18645.675974308713 1322.4426078059255 19386.704124125456 -4218.357699749703 -4003.693978327423 -3789.030256905143
          34892.25989389962 37185.142337295605 35668.63650795955 37218.287213214615 36445.013122019474 37251.432089133625
          11336.624252809443 12028.958655998018 12721.293059186597 5170.037682897506 5064.7269208131065 4959.416158728707
          -10287.418201126271 -10407.562908526632 -10527.707615926991 -5541.144600125117 -5711.118200119247 -5434.956051275961
          -5592.799436672683 -5328.767502426806 -5474.480673226118 1087.3762308048922 1447.1155215251133 6681.978789617028
          1151.7913414445868 1598.320205460953 6962.819684331799 1216.206452084281 1749.5248893967928 7243.66057904657
          3326.652675224819 3251.7929534482973 3176.9332316717755 1482.994727107088 1431.1388682786674 1379.283009450247
          1092.761474352558 7580.9923086023355 1085.1836040541907 7597.174994013623 1077.6057337558234 7613.357679424911
          2282.823784694499 -2236.3263694216216 2310.1081378556537 -2209.9848492086535 2337.3924910168084 -2183.6433289956854
          3119.446382763681 4948.420934219198 3122.23356448707 4883.359966860116 3125.0207462104595 4818.298999501035
          3084.9335843722047 5532.109499535703 3027.659818921541 5595.7924817284475 2970.3860534708783 5659.4754639211915
          1474.1660814528054 1543.8347331522277 1613.5033848516505 3231.6612236274927 2055.64446728135 3313.8489673702516
          2028.2595394378088 3396.036711113011 2000.8746115942674 7.032203549550468 -26.255577882476427 -59.54335931450332
          -467.4588190091611 2331.78463367701 -594.3879442836399 2381.1573091687555 -721.3170695581186 2430.529984660502
          1573.289401021118 1610.3464124484985 1647.4034238758788 5969.249097427242 6002.1761190404 6035.103140653558
          1309.8519819389073 1251.492342451852 1193.1327029647969
        </DataArray>
        <DataArray type="Float64" Name="peeq" format="ascii" RangeMin="0" RangeMax="0">
          0 0 0 0 0 0
          0 0 0 0 0 0
          0 0 0 0 0 0
          0 0 0 0 0 0
          0 0 0 0 0 0
          0 0 0 0 0 0
          0 0 0 0 0 0
          0 0 0 0 0 0
          0 0 0 0 0 0
          0 0 0 0 0 0
          0 0 0 0 0 0
          0 0 0 0 0 0
          0 0 0 0 0 0
          0 0 0 0 0 0
          0 0 0 0 0 0
          0 0 0 0 0 0
          0 0 0 0 0 0
          0 0 0 0 0 0
          0 0 0 0 0 0
          0 0 0 0 0 0
          0 0 0 0 0 0
          0 0 0 0 0 0
          0 0 0 0 0 0
          0 0 0 0 0 0
          0 0 0 0 0 0
          0 0 0 0 0 0
          0 0 0 0 0 0
          0 0 0 0 0 0
          0 0 0 0 0 0
          0 0 0 0 0 0
          0 0 0 0 0 0
          0 0 0 0 0 0
          0 0 0 0 0 0
          0 0 0 0 0 0
          0 0 0 0 0 0
          0 0 0 0 0 0
          0 0 0 0 0 0
          0 0 0 0 0 0
          0 0 0 0 0 0
          0 0 0 0 0 0
          0 0 0 0 0 0
          0 0 0 0 0 0
          0 0 0 0 0 0
          0 0 0 0 0 0
          0 0 0 0 0 0
          0 0 0 0 0 0
          0 0 0 0 0 0
          0 0 0 0 0 0
          0 0 0 0 0 0
          0 0 0 0 0 0
          0 0 0 0 0 0
          0 0 0 0 0 0
          0 0 0 0 0 0
          0 0 0 0 0 0
          0 0 0 0 0 0
          0 0 0 0 0 0
          0 0 0 0 0 0
          0 0 0 0 0 0
          0 0 0 0 0 0
          0 0 0 0 0 0
          0 0 0 0 0 0
          0 0 0 0 0 0
          0 0 0 0 0 0
          0 0 0 0 0 0
          0 0 0 0 0 0
          0 0 0 0 0 0
          0 0 0 0 0 0
          0 0 0 0 0 0
          0 0 0 0 0 0
          0 0 0 0 0 0
          0 0 0 0 0 0
          0 0 0 0 0 0
          0 0 0 0 0 0
          0 0 0 0 0 0
          0 0 0 0 0 0
          0 0 0 0 0 0
          0 0 0 0 0 0
          0 0 0 0 0 0
          0 0 0 0 0 0
          0 0 0 0 0 0
          0 0 0 0 0 0
          0 0 0 0 0 0
          0 0 0 0 0 0
          0 0 0 0 0 0
          0 0 0 0 0 0
          0 0 0 0 0 0
          0 0 0 0 0 0
          0 0 0 0 0 0
          0 0 0 0 0 0
          0 0 0 0 0 0
          0 0 0 0 0 0
          0 0 0 0 0 0
          0 0 0 0 0 0
          0 0 0 0 0 0
          0 0 0 0 0 0
          0 0 0 0 0 0
          0 0 0 0 0 0
          0 0 0 0 0 0
          0 0 0 0 0 0
          0 0 0 0 0 0
          0 0 0 0 0 0
          0 0 0 0 0 0
          0 0 0 0 0 0
          0 0 0 0 0 0
          0 0 0 0 0 0
          0 0 0 0 0 0
          0 0 0 0 0 0
          0 0 0 0 0 0
          0 0 0 0 0 0
          0 0 0 0 0 0
          0 0 0 0 0 0
          0 0 0 0 0 0
          0 0 0 0 0 0
          0 0 0 0 0 0
          0 0 0 0 0 0
          0 0 0 0 0 0
          0 0 0 0 0 0
          0 0 0 0 0 0
          0 0 0 0 0 0
          0 0 0 0 0 0
          0 0 0 0 0 0
          0 0 0 0 0 0
          0 0 0 0 0 0
          0 0 0 0 0 0
          0 0 0 0 0 0
          0 0 0 0 0 0
          0 0 0 0 0 0
          0 0 0 0 0 0
          0 0 0 0 0 0
          0 0 0 0 0 0
          0 0 0
        </DataArray>
        <DataArray type="Float64" Name="pe11" format="ascii" RangeMin="0" RangeMax="0">
          0 0 0 0 0 0
          0 0 0 0 0 0
          0 0 0 0 0 0
          0 0 0 0 0 0
          0 0 0 0 0 0
          0 0 0 0 0 0
          0 0 0 0 0 0
          0 0 0 0 0 0
          0 0 0 0 0 0
          0 0 0 0 0 0
          0 0 0 0 0 0
          0 0 0 0 0 0
          0 0 0 0 0 0
          0 0 0 0 0 0
          0 0 0 0 0 0
          0 0 0 0 0 0
          0 0 0 0 0 0
          0 0 0 0 0 0
          0 0 0 0 0 0
          0 0 0 0 0 0
          0 0 0 0 0 0
          0 0 0 0 0 0
          0 0 0 0 0 0
          0 0 0 0 0 0
          0 0 0 0 0 0
          0 0 0 0 0 0
          0 0 0 0 0 0
          0 0 0 0 0 0
          0 0 0 0 0 0
          0 0 0 0 0 0
          0 0 0 0 0 0
          0 0 0 0 0 0
          0 0 0 0 0 0
          0 0 0 0 0 0
          0 0 0 0 0 0
          0 0 0 0 0 0
          0 0 0 0 0 0
          0 0 0 0 0 0
          0 0 0 0 0 0
          0 0 0 0 0 0
          0 0 0 0 0 0
          0 0 0 0 0 0
          0 0 0 0 0 0
          0 0 0 0 0 0
          0 0 0 0 0 0
          0 0 0 0 0 0
          0 0 0 0 0 0
          0 0 0 0 0 0
          0 0 0 0 0 0
          0 0 0 0 0 0
          0 0 0 0 0 0
          0 0 0 0 0 0
          0 0 0 0 0 0
          0 0 0 0 0 0
          0 0 0 0 0 0
          0 0 0 0 0 0
          0 0 0 0 0 0
          0 0 0 0 0 0
          0 0 0 0 0 0
          0 0 0 0 0 0
          0 0 0 0 0 0
          0 0 0 0 0 0
          0 0 0 0 0 0
          0 0 0 0 0 0
          0 0 0 0 0 0
          0 0 0 0 0 0
          0 0 0 0 0 0
          0 0 0 0 0 0
          0 0 0 0 0 0
          0 0 0 0 0 0
          0 0 0 0 0 0
          0 0 0 0 0 0
          0 0 0 0 0 0
          0 0 0 0 0 0
          0 0 0 0 0 0
          0 0 0 0 0 0
          0 0 0 0 0 0
          0 0 0 0 0 0
          0 0 0 0 0 0
          0 0 0 0 0 0
          0 0 0 0 0 0
          0 0 0 0 0 0
          0 0 0 0 0 0
          0 0 0 0 0 0
          0 0 0 0 0 0
          0 0 0 0 0 0
          0 0 0 0 0 0
          0 0 0 0 0 0
          0 0 0 0 0 0
          0 0 0 0 0 0
          0 0 0 0 0 0
          0 0 0 0 0 0
          0 0 0 0 0 0
          0 0 0 0 0 0
          0 0 0 0 0 0
          0 0 0 0 0 0
          0 0 0 0 0 0
          0 0 0 0 0 0
          0 0 0 0 0 0
          0 0 0 0 0 0
          0 0 0 0 0 0
          0 0 0 0 0 0
          0 0 0 0 0 0
          0 0 0 0 0 0
          0 0 0 0 0 0
          0 0 0 0 0 0
          0 0 0 0 0 0
          0 0 0 0 0 0
          0 0 0 0 0 0
          0 0 0 0 0 0
          0 0 0 0 0 0
          0 0 0 0 0 0
          0 0 0 0 0 0
          0 0 0 0 0 0
          0 0 0 0 0 0
          0 0 0 0 0 0
          0 0 0 0 0 0
          0 0 0 0 0 0
          0 0 0 0 0 0
          0 0 0 0 0 0
          0 0 0 0 0 0
          0 0 0 0 0 0
          0 0 0 0 0 0
          0 0 0 0 0 0
          0 0 0 0 0 0
          0 0 0 0 0 0
          0 0 0 0 0 0
          0 0 0 0 0 0
          0 0 0 0 0 0
          0 0 0 0 0 0
          0 0 0
        </DataArray>
        <DataArray type="Float64" Name="pe22" format="ascii" RangeMin="0" RangeMax="0">
          0 0 0 0 0 0
          0 0 0 0 0 0
          0 0 0 0 0 0
          0 0 0 0 0 0
          0 0 0 0 0 0
          0 0 0 0 0 0
          0 0 0 0 0 0
          0 0 0 0 0 0
          0 0 0 0 0 0
          0 0 0 0 0 0
          0 0 0 0 0 0
          0 0 0 0 0 0
          0 0 0 0 0 0
          0 0 0 0 0 0
          0 0 0 0 0 0
          0 0 0 0 0 0
          0 0 0 0 0 0
          0 0 0 0 0 0
          0 0 0 0 0 0
          0 0 0 0 0 0
          0 0 0 0 0 0
          0 0 0 0 0 0
          0 0 0 0 0 0
          0 0 0 0 0 0
          0 0 0 0 0 0
          0 0 0 0 0 0
          0 0 0 0 0 0
          0 0 0 0 0 0
          0 0 0 0 0 0
          0 0 0 0 0 0
          0 0 0 0 0 0
          0 0 0 0 0 0
          0 0 0 0 0 0
          0 0 0 0 0 0
          0 0 0 0 0 0
          0 0 0 0 0 0
          0 0 0 0 0 0
          0 0 0 0 0 0
          0 0 0 0 0 0
          0 0 0 0 0 0
          0 0 0 0 0 0
          0 0 0 0 0 0
          0 0 0 0 0 0
          0 0 0 0 0 0
          0 0 0 0 0 0
          0 0 0 0 0 0
          0 0 0 0 0 0
          0 0 0 0 0 0
          0 0 0 0 0 0
          0 0 0 0 0 0
          0 0 0 0 0 0
          0 0 0 0 0 0
          0 0 0 0 0 0
          0 0 0 0 0 0
          0 0 0 0 0 0
          0 0 0 0 0 0
          0 0 0 0 0 0
          0 0 0 0 0 0
          0 0 0 0 0 0
          0 0 0 0 0 0
          0 0 0 0 0 0
          0 0 0 0 0 0
          0 0 0 0 0 0
          0 0 0 0 0 0
          0 0 0 0 0 0
          0 0 0 0 0 0
          0 0 0 0 0 0
          0 0 0 0 0 0
          0 0 0 0 0 0
          0 0 0 0 0 0
          0 0 0 0 0 0
          0 0 0 0 0 0
          0 0 0 0 0 0
          0 0 0 0 0 0
          0 0 0 0 0 0
          0 0 0 0 0 0
          0 0 0 0 0 0
          0 0 0 0 0 0
          0 0 0 0 0 0
          0 0 0 0 0 0
          0 0 0 0 0 0
          0 0 0 0 0 0
          0 0 0 0 0 0
          0 0 0 0 0 0
          0 0 0 0 0 0
          0 0 0 0 0 0
          0 0 0 0 0 0
          0 0 0 0 0 0
          0 0 0 0 0 0
          0 0 0 0 0 0
          0 0 0 0 0 0
          0 0 0 0 0 0
          0 0 0 0 0 0
          0 0 0 0 0 0
          0 0 0 0 0 0
          0 0 0 0 0 0
          0 0 0 0 0 0
          0 0 0 0 0 0
          0 0 0 0 0 0
          0 0 0 0 0 0
          0 0 0 0 0 0
          0 0 0 0 0 0
          0 0 0 0 0 0
          0 0 0 0 0 0
          0 0 0 0 0 0
          0 0 0 0 0 0
          0 0 0 0 0 0
          0 0 0 0 0 0
          0 0 0 0 0 0
          0 0 0 0 0 0
          0 0 0 0 0 0
          0 0 0 0 0 0
          0 0 0 0 0 0
          0 0 0 0 0 0
          0 0 0 0 0 0
          0 0 0 0 0 0
          0 0 0 0 0 0
          0 0 0 0 0 0
          0 0 0 0 0 0
          0 0 0 0 0 0
          0 0 0 0 0 0
          0 0 0 0 0 0
          0 0 0 0 0 0
          0 0 0 0 0 0
          0 0 0 0 0 0
          0 0 0 0 0 0
          0 0 0 0 0 0
          0 0 0 0 0 0
          0 0 0 0 0 0
          0 0 0 0 0 0
          0 0 0
        </DataArray>
        <DataArray type="Float64" Name="pe33" format="ascii" RangeMin="0" RangeMax="0">
          0 0 0 0 0 0
          0 0 0 0 0 0
          0 0 0 0 0 0
          0 0 0 0 0 0
          0 0 0 0 0 0
          0 0 0 0 0 0
          0 0 0 0 0 0
          0 0 0 0 0 0
          0 0 0 0 0 0
          0 0 0 0 0 0
          0 0 0 0 0 0
          0 0 0 0 0 0
          0 0 0 0 0 0
          0 0 0 0 0 0
          0 0 0 0 0 0
          0 0 0 0 0 0
          0 0 0 0 0 0
          0 0 0 0 0 0
          0 0 0 0 0 0
          0 0 0 0 0 0
          0 0 0 0 0 0
          0 0 0 0 0 0
          0 0 0 0 0 0
          0 0 0 0 0 0
          0 0 0 0 0 0
          0 0 0 0 0 0
          0 0 0 0 0 0
          0 0 0 0 0 0
          0 0 0 0 0 0
          0 0 0 0 0 0
          0 0 0 0 0 0
          0 0 0 0 0 0
          0 0 0 0 0 0
          0 0 0 0 0 0
          0 0 0 0 0 0
          0 0 0 0 0 0
          0 0 0 0 0 0
          0 0 0 0 0 0
          0 0 0 0 0 0
          0 0 0 0 0 0
          0 0 0 0 0 0
          0 0 0 0 0 0
          0 0 0 0 0 0
          0 0 0 0 0 0
          0 0 0 0 0 0
          0 0 0 0 0 0
          0 0 0 0 0 0
          0 0 0 0 0 0
          0 0 0 0 0 0
          0 0 0 0 0 0
          0 0 0 0 0 0
          0 0 0 0 0 0
          0 0 0 0 0 0
          0 0 0 0 0 0
          0 0 0 0 0 0
          0 0 0 0 0 0
          0 0 0 0 0 0
          0 0 0 0 0 0
          0 0 0 0 0 0
          0 0 0 0 0 0
          0 0 0 0 0 0
          0 0 0 0 0 0
          0 0 0 0 0 0
          0 0 0 0 0 0
          0 0 0 0 0 0
          0 0 0 0 0 0
          0 0 0 0 0 0
          0 0 0 0 0 0
          0 0 0 0 0 0
          0 0 0 0 0 0
          0 0 0 0 0 0
          0 0 0 0 0 0
          0 0 0 0 0 0
          0 0 0 0 0 0
          0 0 0 0 0 0
          0 0 0 0 0 0
          0 0 0 0 0 0
          0 0 0 0 0 0
          0 0 0 0 0 0
          0 0 0 0 0 0
          0 0 0 0 0 0
          0 0 0 0 0 0
          0 0 0 0 0 0
          0 0 0 0 0 0
          0 0 0 0 0 0
          0 0 0 0 0 0
          0 0 0 0 0 0
          0 0 0 0 0 0
          0 0 0 0 0 0
          0 0 0 0 0 0
          0 0 0 0 0 0
          0 0 0 0 0 0
          0 0 0 0 0 0
          0 0 0 0 0 0
          0 0 0 0 0 0
          0 0 0 0 0 0
          0 0 0 0 0 0
          0 0 0 0 0 0
          0 0 0 0 0 0
          0 0 0 0 0 0
          0 0 0 0 0 0
          0 0 0 0 0 0
          0 0 0 0 0 0
          0 0 0 0 0 0
          0 0 0 0 0 0
          0 0 0 0 0 0
          0 0 0 0 0 0
          0 0 0 0 0 0
          0 0 0 0 0 0
          0 0 0 0 0 0
          0 0 0 0 0 0
          0 0 0 0 0 0
          0 0 0 0 0 0
          0 0 0 0 0 0
          0 0 0 0 0 0
          0 0 0 0 0 0
          0 0 0 0 0 0
          0 0 0 0 0 0
          0 0 0 0 0 0
          0 0 0 0 0 0
          0 0 0 0 0 0
          0 0 0 0 0 0
          0 0 0 0 0 0
          0 0 0 0 0 0
          0 0 0 0 0 0
          0 0 0 0 0 0
          0 0 0 0 0 0
          0 0 0 0 0 0
          0 0 0 0 0 0
          0 0 0 0 0 0
          0 0 0
        </DataArray>
        <DataArray type="Float64" Name="disp_x" format="ascii" RangeMin="0.0000014975857441377367" RangeMax="0.000008804082512748904">
          0.0000039373681556358435 0.00000393735943262939 0.000003937332768234125 0.000003593595117606204 0.0000035935847031434563 0.0000035935561787711615
          0.000003944172431521401 0.00000394416435886968 0.000003944139800883286 0.0000018351386994592 0.0000018350876986200816 0.0000018349316760082701
          0.0000021902946674987604 0.0000021902531847968946 0.000002190129905109745 0.000002544984126317852 0.000002544953542117989 0.0000025448616053135127
          0.0000028986438278323873 0.0000028986216691905593 0.0000028985559718575587 0.0000032510443539661717 0.0000032510300081445075 0.000003250983969382982
          0.0000036021876430778404 0.0000036021786962292573 0.0000036021555800872827 0.000003952213334206911 0.0000039522065246530535 0.000003952185755228638
          0.0000018441639539007245 0.0000018441018434087608 0.0000018439109348184857 0.0000022010086882329865 0.0000022009617077668764 0.0000022008221500155306
          0.0000025564874240998077 0.000002556455397619219 0.0000025563590159622 0.0000029101786692702943 0.0000029101572158647677 0.000002910094090144368
          0.0000032620768297101797 0.0000032620644716611605 0.0000032620241269455923 0.0000036123876256023622 0.000003612381251366972 0.000003612366863743024
          0.000003961456093283801 0.00000396145169432798 0.000003961436443950749 0.0000014979999312566545 0.0000014978915073851036 0.0000014975857441377367
          0.0000018580041782887188 0.000001857931358751361 0.000001857706947077684 0.0000022162065497362584 0.0000022161560785685452 0.000002216006771228124
          0.000002571766844738954 0.0000025717361649840572 0.0000025716440487254005 0.000002924675114630478 0.0000029246574468775555 0.00000292460486868703
          0.0000032753105287802057 0.0000032753018310903396 0.000003275274734045704 0.000003624162765053483 0.00000362416034406755 0.000003624153765848495
          0.000003971703172457629 0.000003971703424891556 0.000003971704752785845 0.0000015163960697763733 0.0000015162617919139437 0.0000015158832260762811
          0.0000018788373005100133 0.0000018787574055373694 0.0000018785100269711053 0.0000022371786092838036 0.000002237130292526421 0.000002236987350487432
          0.0000025913945733496 0.0000025913704630640878 0.0000025912976275747394 0.0000029422324787059535 0.0000029422224540576096 0.0000029421923842891676
          0.0000032905819545614154 0.0000032905797050884644 0.0000032905740622171534 0.0000036372144369113434 0.0000036372176184921857 0.000003637223462770864
          0.0000039826790848772804 0.000003982685309785425 0.00000398270891207672 0.000001546538258495543 0.000001546384618690584 0.0000015459486855282097
          0.000001909113100918856 0.00000190903598292677 0.000001908796804335584 0.0000022648416991366633 0.000002264806058078226 0.0000022647002442459213
          0.0000026153838156124076 0.0000026153742362074207 0.000002615345946151593 0.0000029624237822833155 0.0000029624265656014894 0.000002962433962284408
          0.0000033072976178655154 0.0000033073054959175863 0.0000033073305759602373 0.000003650949927436333 0.000003650960160268568 0.000003650988821268381
          0.0000039939582603741345 0.0000039939702141636255 0.00000399400614917471 0.0000015936365368062174 0.0000015935041858681555 0.0000015930886195783892
          0.000001950259863133343 0.000001950207698268069 0.000001950042591513391 0.000002298814656059239 0.0000022988101834512997 0.00000229879420886277
          0.0000026426682399812764 0.0000026426855277399627 0.000002642739360266753 0.0000029839589373283237 0.0000029839803195649845 0.0000029840394498363214
          0.0000033243315088674486 0.000003324352412455203 0.0000033244180821182242 0.0000036644397944471328 0.000003664459613570876 0.0000036645147556256012
          0.0000040046431572089075 0.00000400466182979816 0.000004004719607057497 0.000001659174126974089 0.0000016591275578798617 0.0000016589964609368451
          0.0000020005248145728846 0.0000020005531578867916 0.0000020006173240034844 0.0000023363739243031955 0.00000233642222720331 0.0000023365745667437323
          0.000002670220002061949 0.0000026702706230532597 0.000002670439734787292 0.0000030046786308003297 0.0000030047255037427023 0.000003004853527503425
          0.0000033399883301408603 0.0000033400248632202894 0.0000033401410518254403 0.0000036764180669103505 0.000003676449757589547 0.000003676538933211986
          0.00000401387962946195 0.000004013904055037893 0.00000401398078343255 0.0000031047641833985295 0.000003406540097056678 0.000003448769777072148
          0.0000031765747536621176 0.0000031048235193952508 0.000003406589325960794 0.0000034488212738045863 0.0000031766428715094835 0.0000031050109471505723
          0.000003406733166675241 0.0000034489741682530217 0.0000031768514697892874 0.0000022312222031454657 0.000002242090612851382 0.0000018926595894425954
          0.000001943557742792532 0.000002231333641064866 0.0000022423142101593402 0.0000018929945281565022 0.0000019436888946680446 0.0000022316688729872503
          0.000002242917478169488 0.000001893940684021872 0.0000019440804927659957 0.0000025250161423709194 0.000002601243882026736 0.0000025251180728109456
          0.0000026013571113988845 0.0000025253919862150222 0.000002601729154805371 0.0000029118568332916546 0.000002797862335643412 0.000002911946691602914
          0.0000027979376465023557 0.0000029122103617189747 0.0000027981638379251346 0.00000371062524262203 0.0000036906553172962397 0.00000371066432836332
          0.0000036907005603497014 0.0000037107911947608246 0.000003690829263750191 0.0000016159301223640457 0.0000016548503971368362 0.0000016160481176718121
          0.0000016552562302126473 0.0000016164178438883043 0.0000016564877053859981 0.0000036909323170135495 0.000003360519846488744 0.0000036909785876963532
          0.0000033605793234856088 0.000003691104420341261 0.000003360757873001096 0.000004021815929748824 0.000004021846375162424 0.000004021937519003873
          0.00000180972618741593 0.0000018102159694620178 0.0000018118519551657572 0.0000020930273826936252 0.000002093284378493651 0.000002094331159261511
          0.000002396831985520392 0.0000027118090189740933 0.0000023970193328632578 0.0000027119312985180285 0.0000023976107790388644 0.0000027122727584099507
          0.0000030332935933642294 0.0000030333759099840073 0.0000030336399112734075 0.000004024523760596254 0.000004024558100394553 0.000004024678211936594
          0.000004609522051428607 0.0000046095173049281005 0.000004609503873966931 0.000004319355849612895 0.000004290717702893373 0.000004587299067329964
          0.000004628428305478346 0.000004319372236634716 0.000004290729378702523 0.000004587308396057389 0.0000046284415492071956 0.0000043194252909719844
          0.000004290765971722365 0.000004587336246534668 0.000004628470591275955 0.000004849171116875888 0.000004849166751647966 0.000004849151724265957
          0.000004710747079869284 0.0000043386545684789234 0.000004710766829613562 0.000004338674839442182 0.000004710829699000593 0.0000043387370018237086
          0.000005296038742640481 0.0000050493331781510115 0.000004843188424962482 0.000004989448958276505 0.000005296036351061061 0.000005049330533048034
          0.000004843185117779031 0.000004989445456801269 0.000005296029180851396 0.000005049320043013196 0.000004843177268434944 0.0000049894336066040854
          0.000004538681699305352 0.000004260159278922274 0.0000045386872954725356 0.000004260165665365707 0.000004538696041503651 0.0000042601887045659705
          0.000005238098128723954 0.000005551967219229592 0.000005238095135585779 0.00000555196568139071 0.000005238086316786309 0.000005551960885729607
          0.000005154879130115188 0.000005026238225506935 0.000004941799523997922 0.000005154892560306507 0.000005026255409764278 0.00000494181566047733
          0.000005154933403091082 0.000005026310614627153 0.000004941863465779731 0.000006720743258434866 0.000007047704119035768 0.000007161074440715366
          0.000006806428278290808 0.000006720746381843637 0.000007047706721439699 0.000007161077505826805 0.000006806431887663148 0.000006720756578529045
          0.000007047715833016704 0.0000071610855511629875 0.000006806443872573451 0.000005583083098553975 0.000005634265310246965 0.0000053466934862486815
          0.000005583082056414745 0.000005634264641805845 0.000005346692380768901 0.000005583079522311404 0.000005634263822960807 0.000005346690756505512
          0.000006457160816288251 0.000006816731863071276 0.000006950100331858797 0.000006546779487853281 0.000006457160799650306 0.000006816732009000504
          0.000006950101214013863 0.000006546780182760498 0.000006457161994594155 0.000006816732889252246 0.000006950104411271069 0.000006546782823960557
          0.000004243856775890008 0.000004441226680163279 0.000004243859626957061 0.000004441229279937495 0.000004243868671543874 0.00000444123338240308
          0.000006537241519911832 0.000006506710283582719 0.000006869879773878617 0.00000689422576352804 0.0000065372474671087965 0.0000065067159187842935
          0.00000686988435159207 0.000006894230560102782 0.000006537266229270276 0.000006506733031283238 0.00000686989824784898 0.00000689424411190562
          0.000004739258715547242 0.000004318694405624864 0.00000451310838949762 0.000004739261827272052 0.00000431869353084783 0.000004513107977018872
          0.000004739272980226091 0.000004318689640739597 0.00000451311137813205 0.0000061853191025371255 0.000006165501155681038 0.000006185326711685166
          0.000006165507402750478 0.00000618534886992791 0.000006165525481231214 0.00000683046416101817 0.000006876694829152775 0.000007223262675067162
          0.000007215460791801161 0.000006830470271414179 0.00000687670035907174 0.0000072232673357387116 0.000007215465865064776 0.0000068304899838958126
          0.000006876717857706878 0.000007223279366263725 0.000007215481669258432 0.00000789887654731181 0.000008068577639431941 0.00000789888095901692
          0.000008068580986969535 0.000007898894607788153 0.000008068589827769305 0.0000068994715166998984 0.000006596293756497768 0.000006899473644473998
          0.0000065962949101179225 0.000006899482252909222 0.0000065962976513501955 0.000005771065585046127 0.000005915838153072454 0.000005771064857050389
          0.000005915837397795266 0.000005771061270294468 0.00000591583409852941 0.000005787054837175934 0.0000054637140119952315 0.000005434633450732343
          0.00000583142603623193 0.000005787059229241645 0.000005463717844829904 0.000005434635335376489 0.000005831428160215344 0.000005787074745298436
          0.0000054637271722013285 0.000005434639853529314 0.000005831436415307057 0.000006457456794129225 0.0000064574615102574065 0.000006457475520332689
          0.000004547233908294653 0.000004547229757858015 0.0000045472191854505875 0.000005362223838094296 0.000005154807898157425 0.000005362220792479187
          0.000005154804787759675 0.0000053622118553639595 0.0000051547964726085424 0.000004889690110742796 0.0000049201700428338475 0.000004889699192227864
          0.0000049201820673312985 0.000004889727275072616 0.000004920219390326293 0.000004800861793348951 0.0000046124016247785944 0.000004800883731642187
          0.000004612422097854721 0.000004800954628389662 0.000004612497636642437 0.000004840846342018541 0.000004840851832086776 0.000004840868678524674
          0.000005125266282179802 0.0000051662535429989485 0.000005125270475317065 0.000005166260458990479 0.000005125282641873421 0.000005166283030707233
          0.0000061556931340516056 0.0000060943667208769375 0.0000057170587797208694 0.000005806247453639853 0.000006155701446611053 0.0000060943757948489884
          0.00000571706895263928 0.000005806256402199428 0.000006155725861281706 0.000006094403221385506 0.000005717101756128836 0.0000058062846161429714
          0.00000571257598727964 0.0000060228058860787255 0.000005712576192974155 0.000006022805779272344 0.000005712575186282196 0.000006022804012133373
          0.000005191385201357046 0.000005357197414668858 0.000005583362688170171 0.00000519140249414777 0.0000053572108825522 0.0000055833746984207764
          0.000005191448350674149 0.0000053572423795156294 0.000005583417360859789 0.000005391654619497118 0.000005101269442110949 0.000005076863399479845
          0.0000053916551930393675 0.000005101271304402194 0.0000050768633200918925 0.000005391657801963324 0.000005101275817824357 0.000005076863727250764
          0.000006151370612328045 0.0000061513720209088255 0.000006151376359893334 0.00000505775480309341 0.000005057753538680276 0.000005057747537399097
          0.00000478519715316369 0.000004782735510701297 0.000004785195086887362 0.000004782734962957161 0.00000478518845386218 0.0000047827311607085764
          0.0000052101629101029 0.0000052023746472737555 0.000005210175014364443 0.000005202384345031938 0.000005210214440821342 0.000005202412301626353
          0.000007330215853793096 0.000007330220080566592 0.000007330233002075341 0.000004991005123824418 0.000005210036235579929 0.000004991000979839956
          0.000005210033061961022 0.000004990987963993093 0.000005210025492000258 0.000005539765600259554 0.000005539762811567612 0.000005539753871589616
          0.000008085210801548605 0.000008113831685005294 0.00000793304306690041 0.000007797744224753105 0.00000808521353060264 0.000008113834905692862
          0.000007933046379997558 0.000007797747152676972 0.000008085222279977617 0.000008113843743863814 0.000007933056373221663 0.000007797756351806523
          0.000005976337833366357 0.000005976349127524002 0.0000059763792363852405 0.00000580918753380038 0.0000054909466880904066 0.000005809193078446392
          0.000005490953234069882 0.000005809209620416421 0.0000054909722946471706 0.0000047888288075056225 0.000004788830542489647 0.0000047888372933563614
          0.000005400268865712247 0.0000056125894334877355 0.0000054002665167596385 0.000005612587437965806 0.000005400259038290464 0.000005612581209852089
          0.000007431465808007854 0.000007431466623191979 0.000007431469073223875 0.0000071594389059955555 0.000007653320016223323 0.000007554858336492168
          0.00000715944447688721 0.000007653324846705978 0.000007554862471402815 0.000007159460975728876 0.00000765333944635085 0.00000755487364897146
          0.000006309523250168096 0.000006427012439727142 0.000006309523723383885 0.000006427013933576268 0.00000630952451678838 0.000006427016908262956
          0.000007493074625051722 0.000007671709304225655 0.000007493077933830055 0.00000767171352730995 0.000007493086520138837 0.000007671725258276402
          0.000006655229467228488 0.000006294683641658631 0.0000066552316495391316 0.000006294685731691244 0.000006655239578658818 0.000006294689603070877
          0.0000068282918273256024 0.000006614561515138644 0.000006828294404078666 0.000006614564042803931 0.0000068283037112325384 0.0000066145676252881
          0.000007935291743788515 0.00000793529520802588 0.000007935305072078764 0.000007252705155753042 0.000007252710393163333 0.000007252724710402833
          0.000008254032461207243 0.000008254035777054175 0.00000825404526366896 0.000006077629088592146 0.0000060776322848676335 0.00000607764179713173
          0.000007732530156667998 0.000007732534837515157 0.000007732547932603788 0.000005646792366119792 0.00000564678996161761 0.00000564678152528636
          0.000006460748991693459 0.00000652414851811883 0.000006460757311111997 0.000006524156113098712 0.000006460779902734216 0.000006524177436557046
          0.000007217462202519781 0.000007216536701326155 0.000007217463852158054 0.000007216538714101098 0.0000072174674449167175 0.000007216544424470048
          0.000007190397908549782 0.000007190400043064673 0.00000719040548922745 0.00000758757747151016 0.000007587582986712109 0.0000075876020229371114
          0.000005843236048075691 0.0000061268459935259226 0.000006067063676922172 0.000005843234933462133 0.000006126845118493161 0.000006067063366466272
          0.000005843231177739331 0.000006126841174254816 0.000006067061188494563 0.000007544698340959288 0.000007613220348534271 0.000007544699738126094
          0.000007613222135640241 0.000007544701238950655 0.000007613227168941691 0.000005884254102811491 0.0000058842527362598665 0.0000058842460762050025
          0.0000063701037924848124 0.000006370112329891227 0.000006370137126910445 0.000007695958483316306 0.00000769596078350492 0.000007695968234837487
          0.000006212285189950559 0.0000062122855996429604 0.000006212283831358824 0.0000059497899214681885 0.000005949788108063641 0.0000059497826183966524
          0.000006093415997964352 0.000006093419970816095 0.000006093432002091105 0.0000061302108510109545 0.000006130216090931788 0.00000613023095026042
          0.000004231019403111953 0.000004231012716556861 0.000004230990236379368 0.000004224469724418784 0.0000042244634199375015 0.000004224441134622299
          0.00000606818247432888 0.000006068181379445388 0.0000060681773821701106 0.000004226562215596594 0.0000042265564504976815 0.000004226535765866714
          0.000006301071941407497 0.000006301071275118645 0.000006301069315310287 0.000004246775149695134 0.000004246771502173494 0.000004246752328249577
          0.000005517943938573105 0.000005517952518753979 0.000005517977524882978 0.000006397964628469959 0.000006397967858715469 0.000006397974142236005
          0.000005518863680162268 0.0000055188739502646524 0.000005518903103957316 0.000005836159480229043 0.000005836166831188129 0.00000583618811608408
          0.000005848138374494723 0.000005848147303440185 0.000005848172266769048 0.000006967364904085476 0.000006967368372465282 0.0000069673779948120446
          0.000007364954131691911 0.000007364956842921307 0.000007364961812234985 0.0000045046551463467795 0.000004512491384477734 0.000004504651961293571
          0.000004512490269493839 0.000004504645551401753 0.000004512489161691985 0.000004511206634788158 0.000004511202918976366 0.000004511193055335457
          0.000004360082770373453 0.000004411533364671189 0.000004360107426833687 0.000004411559391137024 0.000004360156716169458 0.000004411633147051756
          0.000007480432288786236 0.000007480438046375706 0.000007480453499899023 0.000006764503835577274 0.0000067645116981105065 0.000006764533169856016
          0.000005461406996753918 0.000005461418912467219 0.000005461451151000294 0.000008222552175879585 0.000008374126951203264 0.000008222556222803908
          0.000008374130382113756 0.000008222566612988769 0.000008374141260872375 0.000007760726382333846 0.000007256335753518686 0.000007469458734415582
          0.000007760727753496863 0.000007256336765914224 0.000007469459196526127 0.000007760732344817698 0.0000072563369820740535 0.000007469462149191408
          0.0000081555891029214 0.000008155592295302082 0.000008155602088856678 0.000008464031023995185 0.000008464034315676957 0.000008464042900391372
          0.000008093691841326771 0.00000795053245713204 0.000008093695917538543 0.000007950536578999203 0.000008093707878639695 0.00000795054952675648
          0.000008804071263709085 0.000008573517589979137 0.000008804073980563978 0.00000857352083287569 0.000008804082512748904 0.000008573530129681124
          0.000007977223647506103 0.00000803733313526456 0.000007977225891630093 0.000008037336331463052 0.000007977233309684008 0.000008037344890202766
          0.000008391528106745564 0.000008393057154924469 0.000008391530565132621 0.0000083930603130892 0.000008391538282759527 0.000008393069456470334
          0.000007896876503768205 0.00000789687834429529 0.000007896883372090404 0.000005644071059631004 0.000006095572531252798 0.000005644068596116468
          0.000006095570982672225 0.000005644060828940029 0.0000060955658839541535 0.0000070334358835209914 0.0000070334357542973545 0.000007033434265437282
          0.000006387762289787163 0.0000064706031596809455 0.000006387761438566067 0.000006470602194652923 0.00000638775822528181 0.000006470598729946334
          0.000006623029398465207 0.000006623029623498216 0.0000066230295795396385 0.000008323166972668884 0.000008323170158905161 0.000008323179957231769
          0.0000067242609074400725 0.000006724260628116375 0.000006724258915954313
        </DataArray>
        <DataArray type="Float64" Name="disp_y" format="ascii" RangeMin="-0.0000030744987763142325" RangeMax="-0.0000013570149532189678">
          -0.000002053269084220535 -0.0000020532821022707985 -0.0000020533207764871226 -0.0000021494444629017075 -0.000002149461262147447 -0.0000021495123759820725
          -0.0000021538729639596533 -0.000002153888467223129 -0.000002153934547921963 -0.0000021949260597959676 -0.000002194934398461185 -0.0000021949609429515053
          -0.000002212420800745093 -0.0000022124385292364205 -0.000002212492092632011 -0.0000022264485180700246 -0.0000022264706442602712 -0.000002226537279944737
          -0.0000022371897329252903 -0.0000022372130671093537 -0.0000022372833480505394 -0.0000022451154747006783 -0.000002245138272750051 -0.000002245206536827594
          -0.0000022507579528838624 -0.000002250778811190724 -0.0000022508420680366205 -0.0000022545931079706397 -0.0000022546121319932593 -0.0000022546669079870815
          -0.000002296477988783619 -0.000002296499462381861 -0.000002296563585456195 -0.0000023154741176330967 -0.0000023155041147781573 -0.000002315594198498988
          -0.000002329800188040929 -0.0000023298327875300048 -0.0000023299302849989314 -0.000002340143069872011 -0.0000023401746697287126 -0.0000023402691381929235
          -0.0000023473463713738254 -0.000002347375147439749 -0.0000023474614901830665 -0.0000023521864650094085 -0.0000023522122681697998 -0.000002352288350771067
          -0.0000023552466977351973 -0.0000023552686490366967 -0.0000023553368122396407 -0.000002374222615470152 -0.0000023742467924529343 -0.000002374318001509398
          -0.000002400828984988038 -0.0000024008711428506768 -0.000002400996932393296 -0.0000024205364477283655 -0.000002420584434310378 -0.0000024207271289306572
          -0.000002434335756616407 -0.000002434382156998152 -0.0000024345202178790797 -0.0000024436176109728825 -0.0000024436589872756957 -0.00000244378255586714
          -0.0000024496446120042117 -0.00000244968008593442 -0.000002449785670529805 -0.0000024533809840633807 -0.000002453411254978653 -0.0000024535014839817708
          -0.0000024556013784748322 -0.0000024556262670969064 -0.0000024557022637398307 -0.000002480045170226977 -0.0000024801028331643924 -0.0000024802817490623365
          -0.0000025083229742393536 -0.0000025083961058492494 -0.0000025086162314537 -0.00000252734924268675 -0.000002527420429519352 -0.000002527634981302937
          -0.000002539526911968857 -0.0000025395892799754617 -0.0000025397770389148237 -0.0000025470401778839914 -0.0000025470917760008453 -0.000002547246158074509
          -0.000002551491211866644 -0.0000025515328073773635 -0.000002551658105869435 -0.000002553959656968849 -0.0000025539934445124557 -0.0000025540931489934214
          -0.0000025550787760627202 -0.000002555106587231281 -0.0000025551923424068203 -0.0000025910525694859816 -0.0000025911767787014925 -0.000002591533656186067
          -0.0000026184624759028113 -0.000002618584307565681 -0.0000026189405338526454 -0.000002634914969062959 -0.0000026350205841701794 -0.000002635328663727025
          -0.0000026443539928160794 -0.000002644434075031819 -0.0000026446708348959467 -0.000002649547563967185 -0.0000026496090876709056 -0.0000026497917726581648
          -0.000002652248415429989 -0.000002652295347116939 -0.000002652434109471588 -0.000002653428521771836 -0.0000026534643741425127 -0.000002653571079862763
          -0.000002653654355263911 -0.0000026536832688768756 -0.000002653768198886926 -0.000002706130396634055 -0.000002706372610937284 -0.000002707096259555429
          -0.000002729047138528892 -0.0000027292374521916505 -0.0000027297964382742342 -0.0000027413811080708524 -0.000002741515794016656 -0.0000027419484010416284
          -0.0000027472858370480527 -0.000002747384729053865 -0.000002747671787563336 -0.0000027500986676158743 -0.000002750166968516449 -0.000002750374749016186
          -0.0000027512687505338245 -0.0000027513184800299332 -0.000002751467236140218 -0.000002751416225898415 -0.0000027514517365141753 -0.0000027515581756738868
          -0.000002750972024369171 -0.000002750998143865404 -0.0000027510791861238446 -0.000002820153335038983 -0.0000028205184181849658 -0.000002821653094908984
          -0.0000028361849314963496 -0.000002836404453566295 -0.0000028371268636735187 -0.0000028443244395095935 -0.0000028444777719940914 -0.00000284491284709312
          -0.0000028465269338897462 -0.00000284662387068184 -0.000002846938371046749 -0.000002847922863612382 -0.000002847992228960793 -0.000002848196052334418
          -0.0000028480857421820215 -0.0000028481312500909823 -0.0000028482715959233026 -0.0000028477021768348947 -0.0000028477351245218737 -0.0000028478307454759687
          -0.0000028469044454373178 -0.00000284692713551732 -0.0000028469880808452296 -0.000002925230397223851 -0.0000029270744221099975 -0.0000029963046767452916
          -0.000002993585091046728 -0.000002925278653310044 -0.0000029271108235889787 -0.0000029963279388624794 -0.0000029936181716088074 -0.0000029254373299190386
          -0.00000292721174585616 -0.000002996396992523519 -0.000002993704091811266 -0.0000029308769074983204 -0.000003006460101382385 -0.000002987052185652351
          -0.0000029174187835053266 -0.000002931044623620238 -0.000003006601646254923 -0.0000029874217146333098 -0.0000029177231001571644 -0.000002931540735380493
          -0.000003007036110843527 -0.0000029886043717934407 -0.000002918490121397601 -0.000002933671964313932 -0.0000030019352997821344 -0.000002933776259970661
          -0.0000030020010100373388 -0.0000029340953760522756 -0.000003002195688869906 -0.00000300054909879363 -0.0000029265323745586222 -0.000003000594004925283
          -0.000002926606345437433 -0.0000030007060508319795 -0.0000029268278154602987 -0.0000029389797804866057 -0.000003012023124643429 -0.000002939003999785694
          -0.0000030120429880355332 -0.0000029390870977639543 -0.000003012099763169235 -0.0000029040763596972654 -0.0000029702528359703583 -0.000002904641510993519
          -0.0000029709207972130366 -0.0000029062285834889017 -0.000002972984263162331 -0.0000030743052997201197 -0.0000030737074248777863 -0.0000030743246219576175
          -0.000003073722721948339 -0.00000307435908831951 -0.0000030737602934445157 -0.000002961200690842571 -0.000002961218419797566 -0.000002961266997759291
          -0.0000030431989730893102 -0.0000030436314791890386 -0.000003045071251929687 -0.00000305690746877041 -0.0000030571310678365137 -0.0000030575947271748604
          -0.0000030663018862678136 -0.000003070056611049549 -0.000003066381225336535 -0.000003070099893560643 -0.0000030665118439610983 -0.000003070177591112019
          -0.0000030725456169636996 -0.0000030725658034263936 -0.0000030726410999976898 -0.0000030744422048112796 -0.0000030744549920324818 -0.0000030744987763142325
          -0.0000018734644575462552 -0.0000018734734444776338 -0.0000018735003251461898 -0.0000027640658124406265 -0.000002665200366501946 -0.000002665643899100681
          -0.000002767468847432384 -0.0000027640869025956366 -0.0000026652228412415654 -0.0000026656621789590547 -0.0000027674860180653444 -0.0000027641442666528818
          -0.0000026652918906167227 -0.0000026657175708684482 -0.000002767533633366034 -0.0000017684532508268055 -0.0000017684604990351888 -0.0000017684821669122248
          -0.0000028809857669749314 -0.000002867255319044519 -0.000002880998432650663 -0.0000028672742686339426 -0.0000028810430216219065 -0.000002867338968806666
          -0.000001962019520120114 -0.0000020215098924283466 -0.000002005372117011772 -0.000001910535466691848 -0.0000019620278897286396 -0.0000020215196468562893
          -0.000002005382287589271 -0.000001910543725954926 -0.0000019620522658168872 -0.00000202154952557561 -0.000002005412653918059 -0.0000019105681185143863
          -0.0000025665580957843816 -0.0000025703550562870887 -0.0000025665771125596606 -0.000002570377778314023 -0.0000025666351956830817 -0.0000025704500782772383
          -0.0000018011997035386578 -0.0000018806061818281095 -0.0000018012074006998194 -0.0000018806137149015395 -0.000001801230385569427 -0.000001880637009702794
          -0.0000028516769319908795 -0.000002943943654160615 -0.000002833065084753201 -0.0000028516849843035456 -0.0000029439526099522057 -0.0000028330778134881
          -0.0000028516997759625596 -0.0000029439788945771166 -0.0000028331026526270444 -0.0000023831945348324947 -0.0000023493529801313198 -0.0000024595420814677257
          -0.0000024955103087597837 -0.0000023832013110233985 -0.0000023493591962389155 -0.0000024595480498297107 -0.0000024955164835367676 -0.00000238322194688
          -0.000002349381070691984 -0.0000024595655497725783 -0.0000024955349168557977 -0.000001992947538374476 -0.0000020639259416808123 -0.0000020827862943344436
          -0.000001992955615807454 -0.000002063934372041065 -0.0000020827959334202907 -0.0000019929780581001774 -0.000002063961065532533 -0.0000020828241501556037
          -0.0000018235061376945451 -0.0000018344181772093998 -0.0000019287470423646837 -0.000001951133719024486 -0.0000018235124598635276 -0.000001834423864289737
          -0.000001928753187068385 -0.000001951141012315998 -0.000001823531624213305 -0.00000183444126070917 -0.0000019287732818048473 -0.000001951163557480896
          -0.0000025034225248013957 -0.0000024775952899630332 -0.0000025034448965947042 -0.0000024776136283310765 -0.0000025035055839176927 -0.0000024776635285611096
          -0.000002749038143697501 -0.0000026337699918080425 -0.000002615449919639718 -0.000002737312433155813 -0.0000027490440333354223 -0.000002633776888591294
          -0.000002615456737659038 -0.0000027373176605244643 -0.000002749061985519968 -0.0000026337976865718853 -0.000002615477114322805 -0.0000027373343825018726
          -0.0000024233009372521834 -0.000002399143264391358 -0.000002368993217318715 -0.000002423316811254656 -0.0000023991618005866603 -0.0000023690098953094903
          -0.0000024233657027890292 -0.000002399211449444343 -0.0000023690592778334625 -0.000002760527734103129 -0.000002648222788847472 -0.000002760534437301296
          -0.0000026482304973288177 -0.000002760554788978341 -0.0000026482539203837515 -0.000002961504487833322 -0.0000028538960453280735 -0.00000285097198796745
          -0.0000029566869282542602 -0.000002961508155338307 -0.00000285390060083475 -0.000002850975023427822 -0.0000029566899240659706 -0.0000029615204249476832
          -0.00000285391306941607 -0.0000028509837965568835 -0.0000029566992680618392 -0.0000028156593583699863 -0.0000027213600100682403 -0.0000028156630125401322
          -0.0000027213640995145325 -0.0000028156742777545918 -0.0000027213774171997 -0.0000020487880881945107 -0.000002053099583313634 -0.0000020487951613417074
          -0.0000020531070619803673 -0.0000020488160077711756 -0.0000020531287997231737 -0.0000019512546997928562 -0.000002031404776716582 -0.0000019512623644103474
          -0.000002031412633786496 -0.000001951282726982911 -0.00000203143590799713 -0.0000024316202464587146 -0.0000024270595104192922 -0.0000023060556910468783
          -0.0000022989162412512466 -0.00000243163053031338 -0.000002427071180902239 -0.0000023060670576568885 -0.000002298925500183218 -0.0000024316612296587314
          -0.000002427105378377306 -0.000002306102806534841 -0.000002298953806909178 -0.0000025198487406906323 -0.0000025198570233290476 -0.0000025198809511311654
          -0.0000020031799324537 -0.000002003190883280664 -0.0000020032234263246175 -0.0000015409733878189986 -0.0000016146960575490037 -0.0000015409791894010946
          -0.000001614702391633075 -0.000001540996721241921 -0.000001614720697635676 -0.000002661334103315896 -0.0000027620084516425366 -0.0000026613499366036174
          -0.0000027620204531476242 -0.0000026613958596568782 -0.000002762064286085614 -0.000003073556216677725 -0.000002973282115289173 -0.000003073563694674101
          -0.0000029732920476860772 -0.0000030735803864586555 -0.0000029733199288458266 -0.000002552085049535722 -0.0000025521012993003577 -0.000002552148978839674
          -0.000002425566704384588 -0.0000025458954528918864 -0.000002425580987506109 -0.0000025459093766161264 -0.0000024256244140974418 -0.0000025459526576245296
          -0.0000028662133338339024 -0.0000029707853981225294 -0.0000029719293088608373 -0.000002870426123017376 -0.0000028662191737231296 -0.00000297079008620079
          -0.000002971935595802523 -0.0000028704323775024783 -0.0000028662353188193292 -0.000002970805037329097 -0.000002971953172182711 -0.0000028704509217328254
          -0.00000216758104007991 -0.000002127158791773379 -0.0000021675909969919566 -0.0000021271672011023373 -0.0000021676202101255397 -0.000002127193200566514
          -0.000003072321544867118 -0.0000029682137833532343 -0.000003071011012640776 -0.0000030723331595947475 -0.0000029682224584523746 -0.000003071018475662427
          -0.0000030723779570122625 -0.000002968252021802042 -0.0000030710347347616862 -0.0000021892938924197576 -0.000002307898870798934 -0.0000021951914910408947
          -0.0000021893053198699218 -0.0000023079119397398974 -0.0000021952035947656702 -0.000002189338403991808 -0.0000023079491224793076 -0.0000021952395983780893
          -0.000002225235884030007 -0.0000022252440289749154 -0.000002225266883332433 -0.0000020929579847089985 -0.000002092969302727278 -0.00000209300374152945
          -0.000002097497235737938 -0.0000021958608995300632 -0.000002097509509468393 -0.0000021958747041565704 -0.0000020975469526065682 -0.000002195915987120411
          -0.0000027626353274285876 -0.000002660418021153213 -0.000002762645355234332 -0.00000266043111986116 -0.000002762677464544886 -0.0000026604683005067603
          -0.000002596837340292412 -0.000002596842920117108 -0.0000025968596288809996 -0.0000016875860035588417 -0.0000017153768862418837 -0.0000016875924870861468
          -0.000001715383995203603 -0.00000168761185557875 -0.0000017154043751581351 -0.0000014555678862122271 -0.0000014555724646334938 -0.0000014555850579441976
          -0.0000023360230649197676 -0.0000024011334978977275 -0.0000024417840809818356 -0.0000023626047546398365 -0.0000023360279515543797 -0.000002401138507979553
          -0.0000024417888023242005 -0.0000023626100257732876 -0.000002336044309002939 -0.0000024011524514503805 -0.0000024418037026403537 -0.0000023626259609129014
          -0.0000030694408752652957 -0.000003069446011898161 -0.000003069461233459084 -0.0000025466864542008983 -0.000002546997174462816 -0.000002546696522762938
          -0.0000025470090130114793 -0.000002546726480637442 -0.0000025470435569758704 -0.000002301555009344056 -0.0000023015703867180456 -0.0000023016155225358757
          -0.0000016718664405188234 -0.0000017390184535680967 -0.0000016718727394360627 -0.000001739025012879908 -0.0000016718900998851643 -0.0000017390451768733737
          -0.000001937080418406177 -0.00000193708543163846 -0.0000019370996637977477 -0.000003063476661915484 -0.0000029275293629526515 -0.0000030610788089008488
          -0.0000030634813745791113 -0.0000029275334635609775 -0.000003061082758401762 -0.0000030634935992699635 -0.0000029275441871666205 -0.000003061096530066044
          -0.000002081941839693905 -0.000002168862302773488 -0.000002081949735818434 -0.0000021688696332418723 -0.0000020819727233660012 -0.0000021688913401056293
          -0.0000024102109084415303 -0.000002504491582210748 -0.000002410216969657934 -0.00000250449689469985 -0.0000024102347979621673 -0.000002504510528253931
          -0.0000022587528443902746 -0.000002317030543554201 -0.0000022587595989256173 -0.0000023170381941122664 -0.000002258779989077634 -0.0000023170593074352183
          -0.0000021480890355672075 -0.0000021241956252593086 -0.0000021480962516747544 -0.0000021242032391020708 -0.000002148115506531941 -0.000002124224566169427
          -0.0000025781520127777716 -0.0000025781566754759434 -0.000002578168851618548 -0.0000027407010284869633 -0.0000027407072807240747 -0.000002740723852397381
          -0.0000026344950207416575 -0.000002634499876251655 -0.0000026345147238730352 -0.0000023536464645745355 -0.0000023536559000469503 -0.0000023536799083745613
          -0.0000026690609548514142 -0.000002669066813006929 -0.0000026690823853654193 -0.000001607784984338692 -0.0000016077907422421116 -0.0000016078082033397029
          -0.0000029662055182131228 -0.0000028606385975475254 -0.0000029662103623195065 -0.000002860644095996517 -0.0000029662234797821513 -0.0000028606587350829532
          -0.00000197442856966921 -0.0000020538992391995976 -0.0000019744349427707293 -0.000002053905381078383 -0.000001974449932439846 -0.0000020539250488857717
          -0.0000021874486165920533 -0.0000021874550697710225 -0.0000021874735749337707 -0.0000027724855159149356 -0.0000027724909630193336 -0.0000027725083003305764
          -0.0000018130392679608772 -0.0000017418505115274704 -0.000001893423087939408 -0.0000018130465815057756 -0.0000017418564160273376 -0.0000018934305352246438
          -0.0000018130689495005903 -0.0000017418734155898916 -0.0000018934530973011483 -0.0000020350307801765054 -0.0000021489461105441323 -0.000002035036751140241
          -0.0000021489523075591734 -0.0000020350545297167465 -0.000002148971219504425 -0.0000016770177754844853 -0.0000016770240800829466 -0.0000016770395886298357
          -0.0000030676633380929217 -0.000003067668415030989 -0.0000030676820859570727 -0.0000022632209125295695 -0.0000022632270538502326 -0.0000022632440577831017
          -0.0000019878179314961726 -0.0000019878259466427935 -0.0000019878479486710645 -0.00000153462095879116 -0.0000015346260863431992 -0.000001534641853272176
          -0.000002431343737084902 -0.000002431352960947715 -0.0000024313838134430475 -0.000002537802981464143 -0.0000025378131607055187 -0.0000025378407784028073
          -0.0000020193715606338227 -0.0000020193834959879814 -0.000002019419142096437 -0.000002122938815626887 -0.0000021229529787406674 -0.0000021229960219597634
          -0.0000016295222610905078 -0.0000016295280727583552 -0.0000016295452183039255 -0.0000022211737457140093 -0.000002221190895446838 -0.000002221241912107233
          -0.0000016604670450328556 -0.0000016604727183186595 -0.0000016604904624291325 -0.0000023168209836140574 -0.000002316839395363067 -0.0000023168965508695
          -0.000002661431691326559 -0.00000266144254853141 -0.000002661474261548899 -0.0000024126145387652888 -0.000002412623397411695 -0.0000024126477620979333
          -0.0000027675603375498756 -0.000002767569007113809 -0.0000027675960741788797 -0.000002657475039292844 -0.000002657484604655044 -0.0000026575120664428838
          -0.0000027678962541855506 -0.000002767904690312899 -0.000002767928527664535 -0.000002269942348207272 -0.0000022699501269900744 -0.0000022699693725494975
          -0.0000023053551344045993 -0.0000023053624509483173 -0.0000023053819571491838 -0.0000022041550469412562 -0.0000022995041132588467 -0.000002204170728482954
          -0.0000022995208089440613 -0.0000022042178110880943 -0.0000022995737907928258 -0.0000021054783816874653 -0.0000021054918567964737 -0.000002105530834988866
          -0.0000029698066602858554 -0.000003074142945002847 -0.0000029698196017580235 -0.000003074147109127037 -0.000002969857461665443 -0.0000030741439860967947
          -0.0000028472360116539115 -0.0000028472416723789553 -0.0000028472515463347928 -0.000003065674671638396 -0.0000030656798787723808 -0.0000030656916789457663
          -0.0000028652172930853242 -0.000002865224937203193 -0.0000028652453526255134 -0.000002848585776692483 -0.0000027638932921557695 -0.0000028485903846328064
          -0.0000027638974443268 -0.00000284860255103029 -0.0000027639093578735225 -0.0000018690994488337529 -0.000001853999382972424 -0.000001812247898232547
          -0.000001869104347246553 -0.0000018540049144608435 -0.000001812252537436346 -0.000001869119403433081 -0.0000018540199950002191 -0.0000018122670000259441
          -0.0000025013205976297374 -0.000002501324989609586 -0.0000025013385426776805 -0.000002552200782490329 -0.000002552205720944565 -0.000002552220146375178
          -0.0000029507025077812497 -0.0000030584638482442692 -0.0000029507067177633593 -0.0000030584687056290227 -0.0000029507203875755605 -0.000003058483590744332
          -0.0000026102442575542013 -0.00000268925313538594 -0.0000026102483743752106 -0.000002689257568454581 -0.000002610261341456389 -0.000002689268737386317
          -0.0000021241264793615502 -0.0000022370386656650216 -0.000002124131898256111 -0.000002237044708757548 -0.0000021241476116873077 -0.00000223706225187443
          -0.000002232045502142359 -0.000002337893558900682 -0.0000022320505051185348 -0.0000023378995117349634 -0.000002232065831247145 -0.0000023379151606693297
          -0.0000020079929035403578 -0.000002007998580764997 -0.000002008014646008208 -0.0000013570149532189678 -0.0000013955169433020176 -0.0000013570187288166345
          -0.0000013955212537463647 -0.0000013570290142258062 -0.00000139553428702577 -0.0000017510181954012567 -0.000001751023277167631 -0.0000017510378756200966
          -0.0000015659087536469839 -0.0000014700030235449678 -0.0000015659140361881724 -0.000001470007363228437 -0.0000015659288224541078 -0.0000014700193569690578
          -0.0000017036914201849857 -0.0000017036969880917578 -0.0000017037120929326361 -0.000002425880308270353 -0.00000242588523703341 -0.0000024258995288128348
          -0.0000016039477687647984 -0.0000016039528457837706 -0.0000016039688281703712
        </DataArray>
        <DataArray type="Float64" Name="disp_z" format="ascii" RangeMin="-7.204551419506534e-8" RangeMax="0">
          0 -3.50655724785071e-8 -7.013251068353656e-8 0 -3.502762202186049e-8 -7.005341443996191e-8
          0 -3.498814286101193e-8 -6.997829778390285e-8 0 -3.574708255836783e-8 -7.149213654308614e-8
          0 -3.5470316570386713e-8 -7.0940806584001e-8 0 -3.525882540518698e-8 -7.051767405063133e-8
          0 -3.51043796609481e-8 -7.020826722734853e-8 0 -3.4995235834011664e-8 -6.999181319604174e-8
          0 -3.492223885000523e-8 -6.984217545789406e-8 0 -3.489715351574142e-8 -6.97963985878458e-8
          0 -3.566579752638681e-8 -7.132935277206096e-8 0 -3.534025776953533e-8 -7.068097525759353e-8
          0 -3.5109175738398516e-8 -7.021839880686592e-8 0 -3.495381386657282e-8 -6.990715907960839e-8
          0 -3.48531528784351e-8 -6.970804187855506e-8 0 -3.479375042191008e-8 -6.958414204643352e-8
          0 -3.478662209807918e-8 -6.957766294710079e-8 0 -3.6017705736252804e-8 -7.204551419506534e-8
          0 -3.549572184622057e-8 -7.098859603639307e-8 0 -3.5128673206475036e-8 -7.025762249417375e-8
          0 -3.489404223678612e-8 -6.978790829517961e-8 0 -3.475368134894022e-8 -6.950716786247594e-8
          0 -3.467703325012606e-8 -6.935452561215811e-8 0 -3.464184128508239e-8 -6.928341124680407e-8
          0 -3.4645452571618314e-8 -6.928994604397054e-8 0 -3.5793929515037176e-8 -7.160520490288268e-8
          0 -3.518309295295908e-8 -7.036305055607523e-8 0 -3.4803070200128454e-8 -6.960745417712833e-8
          0 -3.459558725346739e-8 -6.919170250440777e-8 0 -3.449755598466503e-8 -6.899534040435331e-8
          0 -3.4464848802722817e-8 -6.892950773075018e-8 0 -3.44665838197874e-8 -6.8934943059686e-8
          0 -3.448815920272967e-8 -6.897272314657498e-8 0 -3.53161013588381e-8 -7.063309396154298e-8
          0 -3.466323286145331e-8 -6.931860774203256e-8 0 -3.432872840909411e-8 -6.865266741442234e-8
          0 -3.420310617778017e-8 -6.84047519944692e-8 0 -3.418743324498027e-8 -6.837425870179639e-8
          0 -3.421967211286425e-8 -6.843737362646956e-8 0 -3.427753426640072e-8 -6.855687025462558e-8
          0 -3.433158322171562e-8 -6.866176197967133e-8 0 -3.440751139119946e-8 -6.881415852783213e-8
          0 -3.384772852711674e-8 -6.769987265166401e-8 0 -3.365294019399031e-8 -6.73152426895128e-8
          0 -3.3732092390790625e-8 -6.746687385681227e-8 0 -3.383029964382559e-8 -6.765862972787323e-8
          0 -3.3958009826702586e-8 -6.791708970904206e-8 0 -3.407919894226756e-8 -6.815995621456023e-8
          0 -3.417684871770299e-8 -6.835291801959242e-8 0 -3.2630583212281087e-8 -6.524377571772973e-8
          0 -3.261970593131408e-8 -6.52619304121421e-8 0 -3.27757590168348e-8 -6.552301103502554e-8
          0 -3.316479198469873e-8 -6.63463073752904e-8 0 -3.343870049252941e-8 -6.68714180974385e-8
          0 -3.3680673038709426e-8 -6.736120580041569e-8 0 -3.389293088641097e-8 -6.778652636825481e-8
          0 -3.4041571550299154e-8 -6.807738183857973e-8 0 0 0
          0 -3.324066987134786e-8 -3.353514464462213e-8 -3.346402774186473e-8 -3.314297432642637e-8 -6.648950179780425e-8
          -6.706840204174915e-8 -6.694358402305522e-8 -6.626546191802011e-8 0 0 0
          0 -3.191793468532913e-8 -3.10719746820277e-8 -2.976341709297551e-8 -3.13283668136158e-8 -6.388151986311567e-8
          -6.206702757389258e-8 -5.960893416843498e-8 -6.25801557002599e-8 0 0 -3.23921476516222e-8
          -3.2159660427554044e-8 -6.480428744990974e-8 -6.429411595840946e-8 0 0 -3.278196675314561e-8
          -3.283092635809995e-8 -6.55835009794241e-8 -6.564944808952976e-8 0 0 -3.3747898633338644e-8
          -3.36098985470595e-8 -6.749704963729362e-8 -6.720156416966463e-8 0 0 -3.054663709160387e-8
          -2.814462027530902e-8 -6.109828913131006e-8 -5.618323773504228e-8 0 0 -3.3570647848924167e-8
          -3.3291924204170145e-8 -6.715038087377386e-8 -6.658507356344435e-8 0 -3.3938287158894075e-8 -6.787732320509732e-8
          0 -2.669443943333874e-8 -5.3177989695968996e-8 0 -2.9666533884402513e-8 -5.936488107375748e-8
          0 0 -3.139046498081455e-8 -3.221761461160965e-8 -6.288537513950354e-8 -6.442724045332041e-8
          0 -3.28542008068524e-8 -6.570974609541202e-8 0 -3.382715805868485e-8 -6.765439581094783e-8
          0 -3.5091983367384545e-8 -7.018389433360597e-8 0 0 0
          0 -3.427866583935326e-8 -3.4388217050686163e-8 -3.443576366963727e-8 -3.4341984405629976e-8 -6.855667332514037e-8
          -6.877800891228942e-8 -6.88707841568803e-8 -6.868210698657484e-8 0 -3.5120383251427575e-8 -7.023976396003986e-8
          0 0 -3.426081271245854e-8 -3.416749497148793e-8 -6.852693109755956e-8 -6.834130479585562e-8
          0 0 0 0 -3.500796659527237e-8 -3.4995633658315836e-8
          -3.501294725154145e-8 -3.505046852496268e-8 -7.00143059446827e-8 -6.999464962205522e-8 -7.00245921917421e-8 -7.010146526225782e-8
          0 0 -3.454033446165231e-8 -3.4520441473564665e-8 -6.907869170810301e-8 -6.904180261880892e-8
          0 0 -3.508284891654666e-8 -3.503430683175365e-8 -7.016619945334592e-8 -7.006838584636944e-8
          0 0 0 -3.4412458991148064e-8 -3.4362712484729357e-8 -3.4353139469007163e-8
          -6.882393334870068e-8 -6.87321126774555e-8 -6.869402619930581e-8 0 0 0
          0 -3.482671815655244e-8 -3.486329202553104e-8 -3.482561703160569e-8 -3.479312936097707e-8 -6.965262375278645e-8
          -6.972612904197763e-8 -6.965172992047551e-8 -6.958645474823904e-8 0 0 0
          -3.4994598479020605e-8 -3.495939984783784e-8 -3.494623823365268e-8 -6.999407690453089e-8 -6.991791016113089e-8 -6.989094630379026e-8
          0 0 0 0 -3.504843713746899e-8 -3.505552954021078e-8
          -3.5015789057841256e-8 -3.49959021180168e-8 -7.00959702260661e-8 -7.011428111307964e-8 -7.003047000599412e-8 -6.999067871060604e-8
          0 0 -3.460258529554455e-8 -3.463153906483167e-8 -6.92106802391857e-8 -6.926460757452184e-8
          0 0 0 0 -3.467031567493064e-8 -3.470985360445822e-8
          -3.475199179933322e-8 -3.470733440239257e-8 -6.93406883830329e-8 -6.941916283522694e-8 -6.95042307512314e-8 -6.941499193983859e-8
          0 0 0 -3.468819411195449e-8 -3.4693677088881734e-8 -3.4722946906879804e-8
          -6.937700514573377e-8 -6.938293379043539e-8 -6.944692612648318e-8 0 0 -3.462399383228359e-8
          -3.46707706403761e-8 -6.924811202725816e-8 -6.934191769022742e-8 0 0 0
          0 -3.4642476941861574e-8 -3.4674074562461396e-8 -3.470392554248968e-8 -3.4685994007477536e-8 -6.928405130943188e-8
          -6.934794118409868e-8 -6.940944151086302e-8 -6.937213230585798e-8 0 0 -3.477280510897581e-8
          -3.480483409094262e-8 -6.954610396203166e-8 -6.960879170870583e-8 0 0 -3.496767817310658e-8
          -3.495559755039235e-8 -6.993549580867574e-8 -6.991292359148142e-8 0 0 -3.5002633032087254e-8
          -3.496819415715702e-8 -7.000395853225741e-8 -6.993549015463712e-8 0 0 0
          0 -3.4753198378844774e-8 -3.4732887347554127e-8 -3.4810220896382664e-8 -3.48314938149562e-8 -6.950623723122263e-8
          -6.946552585396676e-8 -6.961979591864526e-8 -6.966212636570749e-8 0 -3.475608869851994e-8 -6.951234883376133e-8
          0 -3.502612682467659e-8 -7.00537142921089e-8 0 0 -3.517288613029147e-8
          -3.5156189450040944e-8 -7.034583732064206e-8 -7.03130239652699e-8 0 0 -3.448740825498647e-8
          -3.4395232356816056e-8 -6.89765635327628e-8 -6.879170556605473e-8 0 0 -3.4194072903233846e-8
          -3.410393472531008e-8 -6.83952369326816e-8 -6.818282220305935e-8 0 -3.4570356144165536e-8 -6.913931375571242e-8
          0 0 -3.472066401859956e-8 -3.46181419455782e-8 -6.944256038247791e-8 -6.923651095727441e-8
          0 0 0 0 -3.458211673917319e-8 -3.45437165338014e-8
          -3.447683083548764e-8 -3.452690036141348e-8 -6.916419058318177e-8 -6.90870706518888e-8 -6.89544761065721e-8 -6.905385499135896e-8
          0 0 -3.4905660808931155e-8 -3.4920983132419615e-8 -6.981269723512731e-8 -6.984195112018462e-8
          0 0 0 -3.4296089570693216e-8 -3.4411821432058467e-8 -3.441312789386105e-8
          -6.85807627279017e-8 -6.88206579697067e-8 -6.882999475708487e-8 0 0 0
          -3.4889120358579177e-8 -3.480586172733407e-8 -3.488114996318861e-8 -6.97779963892665e-8 -6.961152911308372e-8 -6.976295111048341e-8
          0 -3.487385474256699e-8 -6.974593956145608e-8 0 -3.4948624591910346e-8 -6.989714937764514e-8
          0 0 -3.495408517146195e-8 -3.488300555747508e-8 -6.990695847259363e-8 -6.976558350671609e-8
          0 0 -3.446927347832022e-8 -3.453853984493379e-8 -6.894105122999943e-8 -6.907748478530093e-8
          0 -3.479038257879695e-8 -6.958060524633354e-8 0 0 -3.513871499418089e-8
          -3.511912902553394e-8 -7.027716913524745e-8 -7.023820324017597e-8 0 -3.518903144806605e-8 -7.0378455076451e-8
          0 0 0 0 -3.490998804563247e-8 -3.4892607337866e-8
          -3.487353972669012e-8 -3.4889457984768815e-8 -6.981960441520865e-8 -6.978419478297624e-8 -6.974795625255592e-8 -6.977931856936965e-8
          0 -3.449467618189274e-8 -6.898732613523643e-8 0 0 -3.4687772168526614e-8
          -3.465646116166086e-8 -6.937549816204278e-8 -6.931264891413017e-8 0 -3.4797476430477334e-8 -6.95940580353427e-8
          0 0 -3.5127963943689856e-8 -3.509765154679713e-8 -7.025592948776135e-8 -7.019562317178425e-8
          0 -3.5020736291571314e-8 -7.004168428098864e-8 0 0 0
          -3.465622281681948e-8 -3.472709573963069e-8 -3.4686461605712045e-8 -6.931179851731578e-8 -6.945485065697585e-8 -6.937195333067902e-8
          0 0 -3.49426317911078e-8 -3.490598731698872e-8 -6.988583400689923e-8 -6.981390724776709e-8
          0 0 -3.485612596457907e-8 -3.483789494814289e-8 -6.971238520175915e-8 -6.96753929312892e-8
          0 0 -3.487649820626609e-8 -3.4843123120038637e-8 -6.975304843571705e-8 -6.968592293426978e-8
          0 0 -3.492416949787219e-8 -3.492386786190049e-8 -6.984755799313154e-8 -6.984604402689497e-8
          0 -3.4837719290084244e-8 -6.967495422621926e-8 0 -3.4730508480103427e-8 -6.946039728017329e-8
          0 -3.4838291440363986e-8 -6.967637211838014e-8 0 -3.482633636213659e-8 -6.965703014368453e-8
          0 -3.480420546502234e-8 -6.960911072920468e-8 0 -3.513600291191102e-8 -7.027159395101454e-8
          0 0 -3.459737115109926e-8 -3.4631715975174904e-8 -6.919488426151078e-8 -6.926289343462801e-8
          0 0 -3.500889358698764e-8 -3.4982958825787134e-8 -7.001883604519804e-8 -6.996642614354936e-8
          0 -3.492959117166528e-8 -6.985856984643389e-8 0 -3.4753302317507756e-8 -6.950712623703498e-8
          0 0 0 -3.506002177612453e-8 -3.508000146494756e-8 -3.5023049491992504e-8
          -7.011971877974323e-8 -7.016061810129464e-8 -7.004717091219752e-8 0 0 -3.499186332417971e-8
          -3.495160309031284e-8 -6.998304099601435e-8 -6.990305611914287e-8 0 -3.5106076511997814e-8 -7.021265718309416e-8
          0 -3.455780335656778e-8 -6.9115690086903e-8 0 -3.4915612178127345e-8 -6.983141608665414e-8
          0 -3.498205465707524e-8 -6.996496946641747e-8 0 -3.5148721155334996e-8 -7.029777754268629e-8
          0 -3.4781107464631714e-8 -6.956095463017041e-8 0 -3.4720924961657144e-8 -6.944197228428358e-8
          0 -3.5039267166042316e-8 -7.007718213522799e-8 0 -3.496646495642096e-8 -6.993101955048115e-8
          0 -3.5112579493482096e-8 -7.022291846734434e-8 0 -3.488136140786104e-8 -6.975899076729784e-8
          0 -3.510175083176083e-8 -7.020374905741908e-8 0 -3.478363298834792e-8 -6.95664650553283e-8
          0 -3.458599672303396e-8 -6.917185848784372e-8 0 -3.480270111943275e-8 -6.960506878382472e-8
          0 -3.452593457674985e-8 -6.905198491957226e-8 0 -3.462969536692463e-8 -6.925921657851265e-8
          0 -3.457563251678604e-8 -6.915137669655827e-8 0 -3.4895275450741185e-8 -6.979319700240221e-8
          0 -3.48914307695771e-8 -6.97826057727264e-8 0 0 -3.488474309924932e-8
          -3.479073195052864e-8 -6.977252131647493e-8 -6.958408968145362e-8 0 -3.495991220872305e-8 -6.992072930838895e-8
          0 0 -3.4046357697752884e-8 -3.4047221854588926e-8 -6.809553344627154e-8 -6.810121026631183e-8
          0 -3.471824541555542e-8 -6.943321963843734e-8 0 -3.461006428407805e-8 -6.921981808310641e-8
          0 -3.4469315020170475e-8 -6.893595869991808e-8 0 0 -3.478466367803397e-8
          -3.4812559953246734e-8 -6.95684943290963e-8 -6.962541805931114e-8 0 0 0
          -3.504498547927125e-8 -3.5038996574334024e-8 -3.5052333441764924e-8 -7.009024553970258e-8 -7.007694608156414e-8 -7.010440416853551e-8
          0 -3.486906998944835e-8 -6.973814028394636e-8 0 -3.48724886596572e-8 -6.974549492781764e-8
          0 0 -3.475335815274793e-8 -3.4712113605749206e-8 -6.950634240058741e-8 -6.942382105501565e-8
          0 0 -3.4869786739778875e-8 -3.484100576714621e-8 -6.973889071716118e-8 -6.968223601851214e-8
          0 0 -3.497446936980034e-8 -3.494143751695659e-8 -6.994928485472325e-8 -6.988331194668531e-8
          0 0 -3.49582456152769e-8 -3.492706892208174e-8 -6.991617741578864e-8 -6.985446479699266e-8
          0 -3.5004921619276785e-8 -7.000985310157094e-8 0 0 -3.5202218763012106e-8
          -3.5178898869278925e-8 -7.040449452362245e-8 -7.035719514008464e-8 0 -3.507305731741232e-8 -7.01458993271167e-8
          0 0 -3.5133253403937326e-8 -3.515096865241207e-8 -7.026797368054288e-8 -7.030122408423468e-8
          0 -3.508499324402303e-8 -7.016908200945374e-8 0 -3.489744769667192e-8 -6.979493638057275e-8
          0 -3.511407073964363e-8 -7.022782858866275e-8
        </DataArray>
      </PointData>
      <CellData>
        <DataArray type="Int32" Name="libmesh_elem_id" format="ascii" RangeMin="1184" RangeMax="3139">
          1184 1185 1192 1193 1194 1195
          1196 1197 1198 1199 1200 1201
          1202 1203 1210 1211 1212 1213
          1214 1215 1216 1217 1218 1219
          1220 1221 1226 1227 1228 1229
          1230 1231 1232 1233 1234 1235
          1236 1237 1238 1239 1244 1245
          1246 1247 1248 1249 1250 1251
          1252 1253 1254 1255 1256 1257
          1262 1263 1264 1265 1266 1267
          1268 1269 1270 1271 1272 1273
          1274 1275 1280 1281 1282 1283
          1284 1285 1286 1287 1288 1289
          1290 1291 1292 1293 1294 1295
          1296 1297 1298 1299 1302 1303
          1308 1309 1310 1311 1312 1313
          1318 1319 1320 1321 1322 1323
          1324 1325 1332 1333 1334 1335
          1336 1337 1340 1341 1342 1343
          1346 1347 1350 1351 1352 1353
          1354 1355 1362 1363 1364 1365
          1368 1369 1370 1371 1382 1383
          1396 1397 1408 1409 1452 1453
          1456 1457 1468 1469 1476 1477
          1486 1487 1510 1511 1518 1519
          1532 1533 1558 1559 1560 1561
          1564 1565 1566 1567 1570 1571
          1586 1587 1602 1603 1618 1619
          1622 1623 1628 1629 1634 1635
          1680 1681 1686 1687 1696 1697
          1700 1701 1708 1709 1710 1711
          1728 1729 1740 1741 1750 1751
          1754 1755 1764 1765 1766 1767
          1782 1783 1804 1805 1814 1815
          1836 1837 1868 1869 1880 1881
          1884 1885 1890 1891 1900 1901
          1908 1909 1918 1919 1928 1929
          1948 1949 1952 1953 1968 1969
          1970 1971 1972 1973 1986 1987
          2004 2005 2006 2007 2008 2009
          2014 2015 2018 2019 2020 2021
          2030 2031 2040 2041 2044 2045
          2050 2051 2062 2063 2064 2065
          2068 2069 2082 2083 2092 2093
          2120 2121 2128 2129 2130 2131
          2134 2135 2146 2147 2160 2161
          2180 2181 2184 2185 2186 2187
          2208 2209 2214 2215 2216 2217
          2230 2231 2234 2235 2248 2249
          2262 2263 2270 2271 2276 2277
          2286 2287 2292 2293 2294 2295
          2296 2297 2302 2303 2304 2305
          2314 2315 2316 2317 2320 2321
          2330 2331 2332 2333 2344 2345
          2354 2355 2362 2363 2366 2367
          2374 2375 2382 2383 2390 2391
          2400 2401 2404 2405 2408 2409
          2410 2411 2412 2413 2414 2415
          2430 2431 2440 2441 2448 2449
          2456 2457 2460 2461 2474 2475
          2486 2487 2494 2495 2498 2499
          2500 2501 2506 2507 2520 2521
          2522 2523 2564 2565 2572 2573
          2578 2579 2586 2587 2592 2593
          2596 2597 2600 2601 2620 2621
          2624 2625 2658 2659 2660 2661
          2670 2671 2688 2689 2694 2695
          2722 2723 2754 2755 2764 2765
          2778 2779 2780 2781 2796 2797
          2824 2825 2832 2833 2846 2847
          2848 2849 2862 2863 2870 2871
          2878 2879 2880 2881 2886 2887
          2902 2903 2930 2931 2940 2941
          2958 2959 2968 2969 2988 2989
          3062 3063 3064 3065 3090 3091
          3106 3107 3132 3133 3138 3139
        </DataArray>
        <DataArray type="Int32" Name="subdomain_id" format="ascii" RangeMin="105" RangeMax="143">
          105 105 105 105 105 105
          105 105 105 105 105 105
          105 105 105 105 105 105
          105 105 105 105 105 105
          105 105 105 105 105 105
          105 105 105 105 105 105
          105 105 105 105 105 105
          105 105 105 105 105 105
          105 105 105 105 105 105
          105 105 105 105 105 105
          105 105 105 105 105 105
          105 105 105 105 105 105
          105 105 105 105 105 105
          105 105 105 105 106 106
          106 106 106 106 106 106
          106 106 106 106 106 106
          106 106 106 106 106 106
          106 106 106 106 106 106
          106 106 106 106 106 106
          106 106 106 106 106 106
          106 106 143 143 143 143
          143 143 143 143 107 107
          107 107 107 107 107 107
          107 107 107 107 107 107
          107 107 107 107 107 107
          107 107 107 107 107 107
          107 107 107 107 107 107
          107 107 107 107 107 107
          107 107 107 107 107 107
          107 107 107 107 107 107
          107 107 107 107 107 107
          107 107 107 107 107 107
          107 107 107 107 107 107
          107 107 107 107 107 107
          107 107 107 107 107 107
          107 107 107 107 107 107
          107 107 107 107 107 107
          107 107 107 107 107 107
          107 107 107 107 107 107
          107 107 107 107 107 107
          107 107 107 107 107 107
          107 107 107 107 107 107
          107 107 107 107 107 107
          107 107 107 107 107 107
          107 107 107 107 107 107
          107 107 107 107 107 107
          107 107 107 107 107 107
          107 107 107 107 107 107
          107 107 107 107 107 107
          107 107 107 107 107 107
          107 107 107 107 107 107
          107 107 107 107 107 107
          107 107 107 107 107 107
          107 107 107 107 107 107
          107 107 107 107 107 107
          107 107 107 107 107 107
          107 107 107 107 107 107
          107 107 107 107 107 107
          107 107 107 107 107 107
          107 107 107 107 107 107
          107 107 107 107 107 107
          107 107 107 107 107 107
          107 107 107 107 107 107
          107 107 107 107 107 107
          107 107 107 107 107 107
          107 107 107 107 107 107
          107 107 107 107 107 107
          107 107 107 107 107 107
          107 107 107 107 107 107
          107 107 107 107 107 107
          107 107 107 107 107 107
          107 107 107 107 107 107
          107 107 107 107 107 107
          107 107 107 107 107 107
          107 107 107 107 107 107
          107 107 107 107 107 107
        </DataArray>
        <DataArray type="Int32" Name="processor_id" format="ascii" RangeMin="4" RangeMax="4">
          4 4 4 4 4 4
          4 4 4 4 4 4
          4 4 4 4 4 4
          4 4 4 4 4 4
          4 4 4 4 4 4
          4 4 4 4 4 4
          4 4 4 4 4 4
          4 4 4 4 4 4
          4 4 4 4 4 4
          4 4 4 4 4 4
          4 4 4 4 4 4
          4 4 4 4 4 4
          4 4 4 4 4 4
          4 4 4 4 4 4
          4 4 4 4 4 4
          4 4 4 4 4 4
          4 4 4 4 4 4
          4 4 4 4 4 4
          4 4 4 4 4 4
          4 4 4 4 4 4
          4 4 4 4 4 4
          4 4 4 4 4 4
          4 4 4 4 4 4
          4 4 4 4 4 4
          4 4 4 4 4 4
          4 4 4 4 4 4
          4 4 4 4 4 4
          4 4 4 4 4 4
          4 4 4 4 4 4
          4 4 4 4 4 4
          4 4 4 4 4 4
          4 4 4 4 4 4
          4 4 4 4 4 4
          4 4 4 4 4 4
          4 4 4 4 4 4
          4 4 4 4 4 4
          4 4 4 4 4 4
          4 4 4 4 4 4
          4 4 4 4 4 4
          4 4 4 4 4 4
          4 4 4 4 4 4
          4 4 4 4 4 4
          4 4 4 4 4 4
          4 4 4 4 4 4
          4 4 4 4 4 4
          4 4 4 4 4 4
          4 4 4 4 4 4
          4 4 4 4 4 4
          4 4 4 4 4 4
          4 4 4 4 4 4
          4 4 4 4 4 4
          4 4 4 4 4 4
          4 4 4 4 4 4
          4 4 4 4 4 4
          4 4 4 4 4 4
          4 4 4 4 4 4
          4 4 4 4 4 4
          4 4 4 4 4 4
          4 4 4 4 4 4
          4 4 4 4 4 4
          4 4 4 4 4 4
          4 4 4 4 4 4
          4 4 4 4 4 4
          4 4 4 4 4 4
          4 4 4 4 4 4
          4 4 4 4 4 4
          4 4 4 4 4 4
          4 4 4 4 4 4
          4 4 4 4 4 4
          4 4 4 4 4 4
          4 4 4 4 4 4
          4 4 4 4 4 4
          4 4 4 4 4 4
          4 4 4 4 4 4
          4 4 4 4 4 4
          4 4 4 4 4 4
        </DataArray>
      </CellData>
      <Points>
        <DataArray type="Float64" Name="Points" NumberOfComponents="3" format="ascii" RangeMin="0.009206309225653747" RangeMax="0.01648243122598367">
          0.005 0.0086896551724064 0 0.005 0.0086896551724064 0.00015
          0.005 0.0086896551724064 0.0003 0.0045555555555561 0.0091034482758539 0
          0.0045555555555561 0.0091034482758539 0.00015 0.0045555555555561 0.0091034482758539 0.0003
          0.005 0.0091034482758539 0 0.005 0.0091034482758539 0.00015
          0.005 0.0091034482758539 0.0003 0.0023333333333353 0.0095172413793029 0
          0.0023333333333353 0.0095172413793029 0.00015 0.0023333333333353 0.0095172413793029 0.0003
          0.0027777777777802 0.0095172413793029 0 0.0027777777777802 0.0095172413793029 0.00015
          0.0027777777777802 0.0095172413793029 0.0003 0.0032222222222248 0.0095172413793029 0
          0.0032222222222248 0.0095172413793029 0.00015 0.0032222222222248 0.0095172413793029 0.0003
          0.0036666666666675 0.0095172413793029 0 0.0036666666666675 0.0095172413793029 0.00015
          0.0036666666666675 0.0095172413793029 0.0003 0.0041111111111126 0.0095172413793029 0
          0.0041111111111126 0.0095172413793029 0.00015 0.0041111111111126 0.0095172413793029 0.0003
          0.0045555555555561 0.0095172413793029 0 0.0045555555555561 0.0095172413793029 0.00015
          0.0045555555555561 0.0095172413793029 0.0003 0.005 0.0095172413793029 0
          0.005 0.0095172413793029 0.00015 0.005 0.0095172413793029 0.0003
          0.0023333333333355 0.0099310344827529 0 0.0023333333333355 0.0099310344827529 0.00015
          0.0023333333333355 0.0099310344827529 0.0003 0.0027777777777806 0.0099310344827529 0
          0.0027777777777806 0.0099310344827529 0.00015 0.0027777777777806 0.0099310344827529 0.0003
          0.0032222222222251 0.0099310344827529 0 0.0032222222222251 0.0099310344827529 0.00015
          0.0032222222222251 0.0099310344827529 0.0003 0.0036666666666677 0.0099310344827529 0
          0.0036666666666677 0.0099310344827529 0.00015 0.0036666666666677 0.0099310344827529 0.0003
          0.0041111111111127 0.0099310344827529 0 0.0041111111111127 0.0099310344827529 0.00015
          0.0041111111111127 0.0099310344827529 0.0003 0.0045555555555561 0.0099310344827529 0
          0.0045555555555561 0.0099310344827529 0.00015 0.0045555555555561 0.0099310344827529 0.0003
          0.005 0.0099310344827529 0 0.005 0.0099310344827529 0.00015
          0.005 0.0099310344827529 0.0003 0.0018888888888904 0.010344827586203 0
          0.0018888888888904 0.010344827586203 0.00015 0.0018888888888904 0.010344827586203 0.0003
          0.0023333333333357 0.010344827586203 0 0.0023333333333357 0.010344827586203 0.00015
          0.0023333333333357 0.010344827586203 0.0003 0.0027777777777809 0.010344827586203 0
          0.0027777777777809 0.010344827586203 0.00015 0.0027777777777809 0.010344827586203 0.0003
          0.0032222222222255 0.010344827586203 0 0.0032222222222255 0.010344827586203 0.00015
          0.0032222222222255 0.010344827586203 0.0003 0.0036666666666679 0.010344827586203 0
          0.0036666666666679 0.010344827586203 0.00015 0.0036666666666679 0.010344827586203 0.0003
          0.0041111111111129 0.010344827586203 0 0.0041111111111129 0.010344827586203 0.00015
          0.0041111111111129 0.010344827586203 0.0003 0.0045555555555562 0.010344827586203 0
          0.0045555555555562 0.010344827586203 0.00015 0.0045555555555562 0.010344827586203 0.0003
          0.005 0.010344827586203 0 0.005 0.010344827586203 0.00015
          0.005 0.010344827586203 0.0003 0.0018888888888905 0.010758620689653 0
          0.0018888888888905 0.010758620689653 0.00015 0.0018888888888905 0.010758620689653 0.0003
          0.0023333333333359 0.010758620689653 0 0.0023333333333359 0.010758620689653 0.00015
          0.0023333333333359 0.010758620689653 0.0003 0.0027777777777812 0.010758620689653 0
          0.0027777777777812 0.010758620689653 0.00015 0.0027777777777812 0.010758620689653 0.0003
          0.0032222222222258 0.010758620689653 0 0.0032222222222258 0.010758620689653 0.00015
          0.0032222222222258 0.010758620689653 0.0003 0.0036666666666681 0.010758620689653 0
          0.0036666666666681 0.010758620689653 0.00015 0.0036666666666681 0.010758620689653 0.0003
          0.004111111111113 0.010758620689653 0 0.004111111111113 0.010758620689653 0.00015
          0.004111111111113 0.010758620689653 0.0003 0.0045555555555562 0.010758620689653 0
          0.0045555555555562 0.010758620689653 0.00015 0.0045555555555562 0.010758620689653 0.0003
          0.005 0.010758620689653 0 0.005 0.010758620689653 0.00015
          0.005 0.010758620689653 0.0003 0.0018888888888907 0.0111724137931 0
          0.0018888888888907 0.0111724137931 0.00015 0.0018888888888907 0.0111724137931 0.0003
          0.002333333333336 0.0111724137931 0 0.002333333333336 0.0111724137931 0.00015
          0.002333333333336 0.0111724137931 0.0003 0.0027777777777815 0.0111724137931 0
          0.0027777777777815 0.0111724137931 0.00015 0.0027777777777815 0.0111724137931 0.0003
          0.0032222222222261 0.0111724137931 0 0.0032222222222261 0.0111724137931 0.00015
          0.0032222222222261 0.0111724137931 0.0003 0.0036666666666682 0.0111724137931 0
          0.0036666666666682 0.0111724137931 0.00015 0.0036666666666682 0.0111724137931 0.0003
          0.0041111111111132 0.0111724137931 0 0.0041111111111132 0.0111724137931 0.00015
          0.0041111111111132 0.0111724137931 0.0003 0.0045555555555562 0.0111724137931 0
          0.0045555555555562 0.0111724137931 0.00015 0.0045555555555562 0.0111724137931 0.0003
          0.005 0.0111724137931 0 0.005 0.0111724137931 0.00015
          0.005 0.0111724137931 0.0003 0.0018888888888908 0.01158620689655 0
          0.0018888888888908 0.01158620689655 0.00015 0.0018888888888908 0.01158620689655 0.0003
          0.0023333333333362 0.01158620689655 0 0.0023333333333362 0.01158620689655 0.00015
          0.0023333333333362 0.01158620689655 0.0003 0.0027777777777818 0.01158620689655 0
          0.0027777777777818 0.01158620689655 0.00015 0.0027777777777818 0.01158620689655 0.0003
          0.0032222222222264 0.01158620689655 0 0.0032222222222264 0.01158620689655 0.00015
          0.0032222222222264 0.01158620689655 0.0003 0.0036666666666684 0.01158620689655 0
          0.0036666666666684 0.01158620689655 0.00015 0.0036666666666684 0.01158620689655 0.0003
          0.0041111111111133 0.01158620689655 0 0.0041111111111133 0.01158620689655 0.00015
          0.0041111111111133 0.01158620689655 0.0003 0.0045555555555563 0.01158620689655 0
          0.0045555555555563 0.01158620689655 0.00015 0.0045555555555563 0.01158620689655 0.0003
          0.005 0.01158620689655 0 0.005 0.01158620689655 0.00015
          0.005 0.01158620689655 0.0003 0.0018888888888909 0.012 0
          0.0018888888888909 0.012 0.00015 0.0018888888888909 0.012 0.0003
          0.0023333333333364 0.012 0 0.0023333333333364 0.012 0.00015
          0.0023333333333364 0.012 0.0003 0.0027777777777821 0.012 0
          0.0027777777777821 0.012 0.00015 0.0027777777777821 0.012 0.0003
          0.0032222222222267 0.012 0 0.0032222222222267 0.012 0.00015
          0.0032222222222267 0.012 0.0003 0.0036666666666686 0.012 0
          0.0036666666666686 0.012 0.00015 0.0036666666666686 0.012 0.0003
          0.0041111111111135 0.012 0 0.0041111111111135 0.012 0.00015
          0.0041111111111135 0.012 0.0003 0.0045555555555563 0.012 0
          0.0045555555555563 0.012 0.00015 0.0045555555555563 0.012 0.0003
          0.005 0.012 0 0.005 0.012 0.00015
          0.005 0.012 0.0003 0.0037820013226837 0.012336480560236 0
          0.004185794034024 0.012345264070133 0 0.0042342826387353 0.012652901224832 0
          0.0038676442772706 0.012640465852933 0 0.0037820013226837 0.012336480560236 0.00015
          0.004185794034024 0.012345264070133 0.00015 0.0042342826387353 0.012652901224832 0.00015
          0.0038676442772706 0.012640465852933 0.00015 0.0037820013226837 0.012336480560236 0.0003
          0.004185794034024 0.012345264070133 0.0003 0.0042342826387353 0.012652901224832 0.0003
          0.0038676442772706 0.012640465852933 0.0003 0.0025889714655165 0.012382221976315 0
          0.0025681692138844 0.01272809974993 0 0.0020604062010233 0.012679406151259 0
          0.0021948734460593 0.012348192846391 0 0.0025889714655165 0.012382221976315 0.00015
          0.0025681692138844 0.01272809974993 0.00015 0.0020604062010233 0.012679406151259 0.00015
          0.0021948734460593 0.012348192846391 0.00015 0.0025889714655165 0.012382221976315 0.0003
          0.0025681692138844 0.01272809974993 0.0003 0.0020604062010233 0.012679406151259 0.0003
          0.0021948734460593 0.012348192846391 0.0003 0.0029921846324185 0.012381457466683 0
          0.0030781171064664 0.012687491868191 0 0.0029921846324185 0.012381457466683 0.00015
          0.0030781171064664 0.012687491868191 0.00015 0.0029921846324185 0.012381457466683 0.0003
          0.0030781171064664 0.012687491868191 0.0003 0.0035064061826528 0.012674722493539 0
          0.0033673902656471 0.012343623774248 0 0.0035064061826528 0.012674722493539 0.00015
          0.0033673902656471 0.012343623774248 0.00015 0.0035064061826528 0.012674722493539 0.0003
          0.0033673902656471 0.012343623774248 0.0003 0.0045893247731344 0.012399526217393 0
          0.004557077400537 0.01272310643902 0 0.0045893247731344 0.012399526217393 0.00015
          0.004557077400537 0.01272310643902 0.00015 0.0045893247731344 0.012399526217393 0.0003
          0.004557077400537 0.01272310643902 0.0003 0.0017386847932316 0.012348636106575 0
          0.001702980389272 0.012655949584096 0 0.0017386847932316 0.012348636106575 0.00015
          0.001702980389272 0.012655949584096 0.00015 0.0017386847932316 0.012348636106575 0.0003
          0.001702980389272 0.012655949584096 0.0003 0.0045555555555563 0.013 0
          0.0041111111111135 0.013 0 0.0045555555555563 0.013 0.00015
          0.0041111111111135 0.013 0.00015 0.0045555555555563 0.013 0.0003
          0.0041111111111135 0.013 0.0003 0.005 0.012499999999989 0
          0.005 0.012499999999989 0.00015 0.005 0.012499999999989 0.0003
          0.0018888888888909 0.013 0 0.0018888888888909 0.013 0.00015
          0.0018888888888909 0.013 0.0003 0.0023333333333364 0.013 0
          0.0023333333333364 0.013 0.00015 0.0023333333333364 0.013 0.0003
          0.0027777777777821 0.013 0 0.0032222222222267 0.013 0
          0.0027777777777821 0.013 0.00015 0.0032222222222267 0.013 0.00015
          0.0027777777777821 0.013 0.0003 0.0032222222222267 0.013 0.0003
          0.0036666666666686 0.013 0 0.0036666666666686 0.013 0.00015
          0.0036666666666686 0.013 0.0003 0.005 0.013 0
          0.005 0.013 0.00015 0.005 0.013 0.0003
          0.0058653844060618 0.0079194158644502 0 0.0058653844060618 0.0079194158644502 0.00015
          0.0058653844060618 0.0079194158644502 0.0003 0.0054092385319303 0.011645775400863 0
          0.0053833488776842 0.01122289251627 0 0.0057681451700529 0.011227839215398 0
          0.0058121034548515 0.011664867476358 0 0.0054092385319303 0.011645775400863 0.00015
          0.0053833488776842 0.01122289251627 0.00015 0.0057681451700529 0.011227839215398 0.00015
          0.0058121034548515 0.011664867476358 0.00015 0.0054092385319303 0.011645775400863 0.0003
          0.0053833488776842 0.01122289251627 0.0003 0.0057681451700529 0.011227839215398 0.0003
          0.0058121034548515 0.011664867476358 0.0003 0.0061750164335738 0.0074760206739226 0
          0.0061750164335738 0.0074760206739226 0.00015 0.0061750164335738 0.0074760206739226 0.0003
          0.0059117305299751 0.012157336766967 0 0.005424823391927 0.012092657417535 0
          0.0059117305299751 0.012157336766967 0.00015 0.005424823391927 0.012092657417535 0.00015
          0.0059117305299751 0.012157336766967 0.0003 0.005424823391927 0.012092657417535 0.0003
          0.0067343691031854 0.0082749920647978 0 0.0064165220606644 0.0085260954574503 0
          0.0061549788754448 0.0084621147205563 0 0.0063465715243025 0.0080645757596712 0
          0.0067343691031854 0.0082749920647978 0.00015 0.0064165220606644 0.0085260954574503 0.00015
          0.0061549788754448 0.0084621147205563 0.00015 0.0063465715243025 0.0080645757596712 0.00015
          0.0067343691031854 0.0082749920647978 0.0003 0.0064165220606644 0.0085260954574503 0.0003
          0.0061549788754448 0.0084621147205563 0.0003 0.0063465715243025 0.0080645757596712 0.0003
          0.0057156085606184 0.010806935576218 0 0.0053556270258422 0.010821833746382 0
          0.0057156085606184 0.010806935576218 0.00015 0.0053556270258422 0.010821833746382 0.00015
          0.0057156085606184 0.010806935576218 0.0003 0.0053556270258422 0.010821833746382 0.0003
          0.0066683322798844 0.007604545062767 0 0.0070645065688863 0.0079329639302151 0
          0.0066683322798844 0.007604545062767 0.00015 0.0070645065688863 0.0079329639302151 0.00015
          0.0066683322798844 0.007604545062767 0.0003 0.0070645065688863 0.0079329639302151 0.0003
          0.0064939459679252 0.012038015964773 0 0.0063228400853618 0.012437164584428 0
          0.0062168099714575 0.011953445524179 0 0.0064939459679252 0.012038015964773 0.00015
          0.0063228400853618 0.012437164584428 0.00015 0.0062168099714575 0.011953445524179 0.00015
          0.0064939459679252 0.012038015964773 0.0003 0.0063228400853618 0.012437164584428 0.0003
          0.0062168099714575 0.011953445524179 0.0003 0.0085394683783431 0.010062707851298 0
          0.0089610661825476 0.0099263712092025 0 0.0091044702108566 0.010399281799278 0
          0.0086466489465924 0.010543823526793 0 0.0085394683783431 0.010062707851298 0.00015
          0.0089610661825476 0.0099263712092025 0.00015 0.0091044702108566 0.010399281799278 0.00015
          0.0086466489465924 0.010543823526793 0.00015 0.0085394683783431 0.010062707851298 0.0003
          0.0089610661825476 0.0099263712092025 0.0003 0.0091044702108566 0.010399281799278 0.0003
          0.0086466489465924 0.010543823526793 0.0003 0.0070988195317831 0.0084027120924791 0
          0.0071605082668525 0.0086998196459927 0 0.0067922174506807 0.0087792626202703 0
          0.0070988195317831 0.0084027120924791 0.00015 0.0071605082668525 0.0086998196459927 0.00015
          0.0067922174506807 0.0087792626202703 0.00015 0.0070988195317831 0.0084027120924791 0.0003
          0.0071605082668525 0.0086998196459927 0.0003 0.0067922174506807 0.0087792626202703 0.0003
          0.0082212914374119 0.0076937845711927 0 0.0086800066977864 0.007743247126247 0
          0.0088477729813042 0.00814241905886 0 0.0083314775318771 0.0082316914297717 0
          0.0082212914374119 0.0076937845711927 0.00015 0.0086800066977864 0.007743247126247 0.00015
          0.0088477729813042 0.00814241905886 0.00015 0.0083314775318771 0.0082316914297717 0.00015
          0.0082212914374119 0.0076937845711927 0.0003 0.0086800066977864 0.007743247126247 0.0003
          0.0088477729813042 0.00814241905886 0.0003 0.0083314775318771 0.0082316914297717 0.0003
          0.0053430701544214 0.010541301697294 0 0.0055999206723275 0.01043253025418 0
          0.0053430701544214 0.010541301697294 0.00015 0.0055999206723275 0.01043253025418 0.00015
          0.0053430701544214 0.010541301697294 0.0003 0.0055999206723275 0.01043253025418 0.0003
          0.0082934157409751 0.011625007594535 0 0.0082561968973057 0.011128478524087 0
          0.0087259762319724 0.011059252375005 0 0.0087558560903097 0.01158375342748 0
          0.0082934157409751 0.011625007594535 0.00015 0.0082561968973057 0.011128478524087 0.00015
          0.0087259762319724 0.011059252375005 0.00015 0.0087558560903097 0.01158375342748 0.00015
          0.0082934157409751 0.011625007594535 0.0003 0.0082561968973057 0.011128478524087 0.0003
          0.0087259762319724 0.011059252375005 0.0003 0.0087558560903097 0.01158375342748 0.0003
          0.0059886023840467 0.010204624020488 0 0.005451541046517 0.010106162675601 0
          0.0057038380696848 0.0099786893665285 0 0.0059886023840467 0.010204624020488 0.00015
          0.005451541046517 0.010106162675601 0.00015 0.0057038380696848 0.0099786893665285 0.00015
          0.0059886023840467 0.010204624020488 0.0003 0.005451541046517 0.010106162675601 0.0003
          0.0057038380696848 0.0099786893665285 0.0003 0.0078369912454539 0.011665931946432 0
          0.0078144148304188 0.011182309200361 0 0.0078369912454539 0.011665931946432 0.00015
          0.0078144148304188 0.011182309200361 0.00015 0.0078369912454539 0.011665931946432 0.0003
          0.0078144148304188 0.011182309200361 0.0003 0.0086735759699153 0.012550377000034 0
          0.0087327775394086 0.012086203404192 0 0.0091819131238462 0.012082911785298 0
          0.0091730578335362 0.01253941989127 0 0.0086735759699153 0.012550377000034 0.00015
          0.0087327775394086 0.012086203404192 0.00015 0.0091819131238462 0.012082911785298 0.00015
          0.0091730578335362 0.01253941989127 0.00015 0.0086735759699153 0.012550377000034 0.0003
          0.0087327775394086 0.012086203404192 0.0003 0.0091819131238462 0.012082911785298 0.0003
          0.0091730578335362 0.01253941989127 0.0003 0.010056105947498 0.011950542930398 0
          0.010274327777913 0.011549885364188 0 0.010056105947498 0.011950542930398 0.00015
          0.010274327777913 0.011549885364188 0.00015 0.010056105947498 0.011950542930398 0.0003
          0.010274327777913 0.011549885364188 0.0003 0.0087795014641276 0.0086485955844896 0
          0.0083912374962093 0.008661976024637 0 0.0087795014641276 0.0086485955844896 0.00015
          0.0083912374962093 0.008661976024637 0.00015 0.0087795014641276 0.0086485955844896 0.0003
          0.0083912374962093 0.008661976024637 0.0003 0.0073407145553935 0.0082277946262138 0
          0.0075218701602762 0.0085641736532836 0 0.0073407145553935 0.0082277946262138 0.00015
          0.0075218701602762 0.0085641736532836 0.00015 0.0073407145553935 0.0082277946262138 0.0003
          0.0075218701602762 0.0085641736532836 0.0003 0.0073357310625303 0.010250124356937 0
          0.0069197896843151 0.010226005241683 0 0.0068905371289043 0.0097153304797672 0
          0.0074001182371208 0.0096888945892578 0 0.0073357310625303 0.010250124356937 0.00015
          0.0069197896843151 0.010226005241683 0.00015 0.0068905371289043 0.0097153304797672 0.00015
          0.0074001182371208 0.0096888945892578 0.00015 0.0073357310625303 0.010250124356937 0.0003
          0.0069197896843151 0.010226005241683 0.0003 0.0068905371289043 0.0097153304797672 0.0003
          0.0074001182371208 0.0096888945892578 0.0003 0.0081958803856553 0.010639401227375 0
          0.0081958803856553 0.010639401227375 0.00015 0.0081958803856553 0.010639401227375 0.0003
          0.0057785311780113 0.0084598603588589 0 0.0057785311780113 0.0084598603588589 0.00015
          0.0057785311780113 0.0084598603588589 0.0003 0.0068354780286894 0.0065149558629347 0
          0.0065694481807909 0.0068273110654121 0 0.0068354780286894 0.0065149558629347 0.00015
          0.0065694481807909 0.0068273110654121 0.00015 0.0068354780286894 0.0065149558629347 0.0003
          0.0065694481807909 0.0068273110654121 0.0003 0.0061608287914901 0.011213609336371 0
          0.0061928612734976 0.011646193292464 0 0.0061608287914901 0.011213609336371 0.00015
          0.0061928612734976 0.011646193292464 0.00015 0.0061608287914901 0.011213609336371 0.0003
          0.0061928612734976 0.011646193292464 0.0003 0.0060256410256453 0.013 0
          0.0057791181770977 0.012558961975135 0 0.0060256410256453 0.013 0.00015
          0.0057791181770977 0.012558961975135 0.00015 0.0060256410256453 0.013 0.0003
          0.0057791181770977 0.012558961975135 0.0003 0.0061071771839093 0.010748184383761 0
          0.0061071771839093 0.010748184383761 0.00015 0.0061071771839093 0.010748184383761 0.0003
          0.0064845320073614 0.010216336118065 0 0.0065278935143817 0.010725783571784 0
          0.0064845320073614 0.010216336118065 0.00015 0.0065278935143817 0.010725783571784 0.00015
          0.0064845320073614 0.010216336118065 0.0003 0.0065278935143817 0.010725783571784 0.0003
          0.0077968354342878 0.012121840026842 0 0.0077167513193965 0.012573751507337 0
          0.0072251022123942 0.012571145425366 0 0.0073422863282366 0.012132364188728 0
          0.0077968354342878 0.012121840026842 0.00015 0.0077167513193965 0.012573751507337 0.00015
          0.0072251022123942 0.012571145425366 0.00015 0.0073422863282366 0.012132364188728 0.00015
          0.0077968354342878 0.012121840026842 0.0003 0.0077167513193965 0.012573751507337 0.0003
          0.0072251022123942 0.012571145425366 0.0003 0.0073422863282366 0.012132364188728 0.0003
          0.0072550033809581 0.0091349332579085 0 0.0076541519095837 0.0089672912460138 0
          0.0072550033809581 0.0091349332579085 0.00015 0.0076541519095837 0.0089672912460138 0.00015
          0.0072550033809581 0.0091349332579085 0.0003 0.0076541519095837 0.0089672912460138 0.0003
          0.0065384615384679 0.013 0 0.0067552646820212 0.012548340065985 0
          0.007051282051287 0.013 0 0.0065384615384679 0.013 0.00015
          0.0067552646820212 0.012548340065985 0.00015 0.007051282051287 0.013 0.00015
          0.0065384615384679 0.013 0.0003 0.0067552646820212 0.012548340065985 0.0003
          0.007051282051287 0.013 0.0003 0.0068431084681841 0.0092248064360522 0
          0.0064629827835734 0.0097214310503871 0 0.0064401841603361 0.009249995775159 0
          0.0068431084681841 0.0092248064360522 0.00015 0.0064629827835734 0.0097214310503871 0.00015
          0.0064401841603361 0.009249995775159 0.00015 0.0068431084681841 0.0092248064360522 0.0003
          0.0064629827835734 0.0097214310503871 0.0003 0.0064401841603361 0.009249995775159 0.0003
          0.0078142698619037 0.0093821750433109 0 0.0078142698619037 0.0093821750433109 0.00015
          0.0078142698619037 0.0093821750433109 0.0003 0.0064227954769353 0.0088235452462607 0
          0.0064227954769353 0.0088235452462607 0.00015 0.0064227954769353 0.0088235452462607 0.0003
          0.0060749446210727 0.008846093909968 0 0.0060643722245677 0.0092551370126649 0
          0.0060749446210727 0.008846093909968 0.00015 0.0060643722245677 0.0092551370126649 0.00015
          0.0060749446210727 0.008846093909968 0.0003 0.0060643722245677 0.0092551370126649 0.0003
          0.0065702926001918 0.011654169374977 0 0.006566373886869 0.011214840249119 0
          0.0065702926001918 0.011654169374977 0.00015 0.006566373886869 0.011214840249119 0.00015
          0.0065702926001918 0.011654169374977 0.0003 0.006566373886869 0.011214840249119 0.0003
          0.0093206781870799 0.010991873758601 0 0.0093206781870799 0.010991873758601 0.00015
          0.0093206781870799 0.010991873758601 0.0003 0.0063586074578252 0.0071353312088165 0
          0.0066361392369192 0.0072470897144222 0 0.0063586074578252 0.0071353312088165 0.00015
          0.0066361392369192 0.0072470897144222 0.00015 0.0063586074578252 0.0071353312088165 0.0003
          0.0066361392369192 0.0072470897144222 0.0003 0.0070635342364542 0.0061542378287001 0
          0.0070635342364542 0.0061542378287001 0.00015 0.0070635342364542 0.0061542378287001 0.0003
          0.010295501843898 0.0098988447327244 0 0.010331968632679 0.010177975560165 0
          0.0100990439633 0.010345969653311 0 0.0099255608427027 0.010003443747144 0
          0.010295501843898 0.0098988447327244 0.00015 0.010331968632679 0.010177975560165 0.00015
          0.0100990439633 0.010345969653311 0.00015 0.0099255608427027 0.010003443747144 0.00015
          0.010295501843898 0.0098988447327244 0.0003 0.010331968632679 0.010177975560165 0.0003
          0.0100990439633 0.010345969653311 0.0003 0.0099255608427027 0.010003443747144 0.0003
          0.0075641025641077 0.013 0 0.0075641025641077 0.013 0.00015
          0.0075641025641077 0.013 0.0003 0.007358052416256 0.010740056955422 0
          0.0069470918478694 0.010735576046615 0 0.007358052416256 0.010740056955422 0.00015
          0.0069470918478694 0.010735576046615 0.00015 0.007358052416256 0.010740056955422 0.0003
          0.0069470918478694 0.010735576046615 0.0003 0.0060634003212644 0.00969554800092 0
          0.0060634003212644 0.00969554800092 0.00015 0.0060634003212644 0.00969554800092 0.0003
          0.0068797309840753 0.0070620910964483 0 0.0071475509773245 0.0073405239650904 0
          0.0068797309840753 0.0070620910964483 0.00015 0.0071475509773245 0.0073405239650904 0.00015
          0.0068797309840753 0.0070620910964483 0.0003 0.0071475509773245 0.0073405239650904 0.0003
          0.0094632087818517 0.0081862945076399 0 0.0094632087818517 0.0081862945076399 0.00015
          0.0094632087818517 0.0081862945076399 0.0003 0.0091025641025756 0.013 0
          0.0097400134531557 0.012425583162504 0 0.0096153846153981 0.013 0
          0.0091025641025756 0.013 0.00015 0.0097400134531557 0.012425583162504 0.00015
          0.0096153846153981 0.013 0.00015 0.0091025641025756 0.013 0.0003
          0.0097400134531557 0.012425583162504 0.0003 0.0096153846153981 0.013 0.0003
          0.0080231150782377 0.0087799001252051 0 0.0081700325353194 0.0091480386714452 0
          0.0080231150782377 0.0087799001252051 0.00015 0.0081700325353194 0.0091480386714452 0.00015
          0.0080231150782377 0.0087799001252051 0.0003 0.0081700325353194 0.0091480386714452 0.0003
          0.0095329104644106 0.010197774343332 0 0.0097620082938393 0.010606176712681 0
          0.0095329104644106 0.010197774343332 0.00015 0.0097620082938393 0.010606176712681 0.00015
          0.0095329104644106 0.010197774343332 0.0003 0.0097620082938393 0.010606176712681 0.0003
          0.008459458524824 0.0095324383395712 0 0.0079941048127097 0.0097727986382514 0
          0.008459458524824 0.0095324383395712 0.00015 0.0079941048127097 0.0097727986382514 0.00015
          0.008459458524824 0.0095324383395712 0.0003 0.0079941048127097 0.0097727986382514 0.0003
          0.0086852410268287 0.0090671784981495 0 0.0084121010432185 0.0089624922946051 0
          0.0086852410268287 0.0090671784981495 0.00015 0.0084121010432185 0.0089624922946051 0.00015
          0.0086852410268287 0.0090671784981495 0.0003 0.0084121010432185 0.0089624922946051 0.0003
          0.010101546658348 0.010930204106287 0 0.010101546658348 0.010930204106287 0.00015
          0.010101546658348 0.010930204106287 0.0003 0.009219770580739 0.01160836207586 0
          0.009219770580739 0.01160836207586 0.00015 0.009219770580739 0.01160836207586 0.0003
          0.010512959331867 0.011182607317474 0 0.010512959331867 0.011182607317474 0.00015
          0.010512959331867 0.011182607317474 0.0003 0.0077135351973544 0.0099243016659867 0
          0.0077135351973544 0.0099243016659867 0.00015 0.0077135351973544 0.0099243016659867 0.0003
          0.0098399724462143 0.011314297129672 0 0.0098399724462143 0.011314297129672 0.00015
          0.0098399724462143 0.011314297129672 0.0003 0.0071955324717728 0.0067909271139751 0
          0.0071955324717728 0.0067909271139751 0.00015 0.0071955324717728 0.0067909271139751 0.0003
          0.0081933420545987 0.012561933470251 0 0.0082754308174791 0.012106448253662 0
          0.0081933420545987 0.012561933470251 0.00015 0.0082754308174791 0.012106448253662 0.00015
          0.0081933420545987 0.012561933470251 0.0003 0.0082754308174791 0.012106448253662 0.0003
          0.0091885294783446 0.0083400759786555 0 0.009185366627384 0.008676208234384 0
          0.0091885294783446 0.0083400759786555 0.00015 0.009185366627384 0.008676208234384 0.00015
          0.0091885294783446 0.0083400759786555 0.0003 0.009185366627384 0.008676208234384 0.0003
          0.0091484396571168 0.0092413935725907 0 0.0091484396571168 0.0092413935725907 0.00015
          0.0091484396571168 0.0092413935725907 0.0003 0.0096530361744126 0.011754958706862 0
          0.0096530361744126 0.011754958706862 0.00015 0.0096530361744126 0.011754958706862 0.0003
          0.0074385983748104 0.0076487872335333 0 0.0078026145042184 0.0073499712891003 0
          0.0077209126941719 0.0079857422349365 0 0.0074385983748104 0.0076487872335333 0.00015
          0.0078026145042184 0.0073499712891003 0.00015 0.0077209126941719 0.0079857422349365 0.00015
          0.0074385983748104 0.0076487872335333 0.0003 0.0078026145042184 0.0073499712891003 0.0003
          0.0077209126941719 0.0079857422349365 0.0003 0.0096060866574151 0.0086034051599073 0
          0.0096917093907041 0.0090884547689663 0 0.0096060866574151 0.0086034051599073 0.00015
          0.0096917093907041 0.0090884547689663 0.00015 0.0096060866574151 0.0086034051599073 0.0003
          0.0096917093907041 0.0090884547689663 0.0003 0.0074956671905203 0.0070789212715492 0
          0.0074956671905203 0.0070789212715492 0.00015 0.0074956671905203 0.0070789212715492 0.0003
          0.0080769230769304 0.013 0 0.0080769230769304 0.013 0.00015
          0.0080769230769304 0.013 0.0003 0.0097960013481072 0.0095766790072516 0
          0.0097960013481072 0.0095766790072516 0.00015 0.0097960013481072 0.0095766790072516 0.0003
          0.0079025965714766 0.0083828176281282 0 0.0079025965714766 0.0083828176281282 0.00015
          0.0079025965714766 0.0083828176281282 0.0003 0.0075832963246375 0.0064815260672887 0
          0.0075832963246375 0.0064815260672887 0.00015 0.0075832963246375 0.0064815260672887 0.0003
          0.0077301559610225 0.010254379585944 0 0.0077301559610225 0.010254379585944 0.00015
          0.0077301559610225 0.010254379585944 0.0003 0.0077729216102883 0.010708725243031 0
          0.0077729216102883 0.010708725243031 0.00015 0.0077729216102883 0.010708725243031 0.0003
          0.0053754057810206 0.0085370600870078 0 0.0053754057810206 0.0085370600870078 0.00015
          0.0053754057810206 0.0085370600870078 0.0003 0.0053590367872451 0.0089652268696161 0
          0.0053590367872451 0.0089652268696161 0.00015 0.0053590367872451 0.0089652268696161 0.0003
          0.0077314143265107 0.0068791993815975 0 0.0077314143265107 0.0068791993815975 0.00015
          0.0077314143265107 0.0068791993815975 0.0003 0.0053527694027008 0.0093707431616054 0
          0.0053527694027008 0.0093707431616054 0.00015 0.0053527694027008 0.0093707431616054 0.0003
          0.0080272182678723 0.0070086219794164 0 0.0080272182678723 0.0070086219794164 0.00015
          0.0080272182678723 0.0070086219794164 0.0003 0.0053686841699875 0.0097656204902227 0
          0.0053686841699875 0.0097656204902227 0.00015 0.0053686841699875 0.0097656204902227 0.0003
          0.0069753270353201 0.011225035595701 0 0.0069753270353201 0.011225035595701 0.00015
          0.0069753270353201 0.011225035595701 0.0003 0.0081230348422786 0.010180774741819 0
          0.0081230348422786 0.010180774741819 0.00015 0.0081230348422786 0.010180774741819 0.0003
          0.0069714542407681 0.011681487349241 0 0.0069714542407681 0.011681487349241 0.00015
          0.0069714542407681 0.011681487349241 0.0003 0.0073877269320336 0.011214628569732 0
          0.0073877269320336 0.011214628569732 0.00015 0.0073877269320336 0.011214628569732 0.0003
          0.0073992085993983 0.011689991378362 0 0.0073992085993983 0.011689991378362 0.00015
          0.0073992085993983 0.011689991378362 0.0003 0.0088599825232994 0.0095868605102716 0
          0.0088599825232994 0.0095868605102716 0.00015 0.0088599825232994 0.0095868605102716 0.0003
          0.0093698999071837 0.0097470513643601 0 0.0093698999071837 0.0097470513643601 0.00015
          0.0093698999071837 0.0097470513643601 0.0003 0.005708830284701 0.0092938500467527 0
          0.005710003284826 0.0096895337898706 0 0.005708830284701 0.0092938500467527 0.00015
          0.005710003284826 0.0096895337898706 0.00015 0.005708830284701 0.0092938500467527 0.0003
          0.005710003284826 0.0096895337898706 0.0003 0.0057253261942579 0.008884797777202 0
          0.0057253261942579 0.008884797777202 0.00015 0.0057253261942579 0.008884797777202 0.0003
          0.0054465956081518 0.012540682824845 0 0.0055128205128226 0.013 0
          0.0054465956081518 0.012540682824845 0.00015 0.0055128205128226 0.013 0.00015
          0.0054465956081518 0.012540682824845 0.0003 0.0055128205128226 0.013 0.0003
          0.0095150035075373 0.012074113937236 0 0.0095150035075373 0.012074113937236 0.00015
          0.0095150035075373 0.012074113937236 0.0003 0.008589743589753 0.013 0
          0.008589743589753 0.013 0.00015 0.008589743589753 0.013 0.0003
          0.0068932543961937 0.012102712522565 0 0.0068932543961937 0.012102712522565 0.00015
          0.0068932543961937 0.012102712522565 0.0003 0.010475172867508 0.012102844227475 0
          0.010669582432454 0.011743114144408 0 0.010475172867508 0.012102844227475 0.00015
          0.010669582432454 0.011743114144408 0.00015 0.010475172867508 0.012102844227475 0.0003
          0.010669582432454 0.011743114144408 0.0003 0.0098857235699117 0.0079055319030787 0
          0.0092411258002763 0.0078319639415625 0 0.0095144479526816 0.0076594245921199 0
          0.0098857235699117 0.0079055319030787 0.00015 0.0092411258002763 0.0078319639415625 0.00015
          0.0095144479526816 0.0076594245921199 0.00015 0.0098857235699117 0.0079055319030787 0.0003
          0.0092411258002763 0.0078319639415625 0.0003 0.0095144479526816 0.0076594245921199 0.0003
          0.010385522435479 0.010608007769118 0 0.010385522435479 0.010608007769118 0.00015
          0.010385522435479 0.010608007769118 0.0003 0.010783127360108 0.010836567412064 0
          0.010783127360108 0.010836567412064 0.00015 0.010783127360108 0.010836567412064 0.0003
          0.010310686327751 0.012539165738252 0 0.010128205128219 0.013 0
          0.010310686327751 0.012539165738252 0.00015 0.010128205128219 0.013 0.00015
          0.010310686327751 0.012539165738252 0.0003 0.010128205128219 0.013 0.0003
          0.011222013645511 0.011097826594996 0 0.010925822172272 0.011428925131881 0
          0.011222013645511 0.011097826594996 0.00015 0.010925822172272 0.011428925131881 0.00015
          0.011222013645511 0.011097826594996 0.0003 0.010925822172272 0.011428925131881 0.0003
          0.010158980545183 0.0089928081418126 0 0.010234809282542 0.0094751596931164 0
          0.010158980545183 0.0089928081418126 0.00015 0.010234809282542 0.0094751596931164 0.00015
          0.010158980545183 0.0089928081418126 0.0003 0.010234809282542 0.0094751596931164 0.0003
          0.010689703280164 0.0094649590365737 0 0.010691300612525 0.0099168298135774 0
          0.010689703280164 0.0094649590365737 0.00015 0.010691300612525 0.0099168298135774 0.00015
          0.010689703280164 0.0094649590365737 0.0003 0.010691300612525 0.0099168298135774 0.0003
          0.010057653370411 0.0084974472595183 0 0.010057653370411 0.0084974472595183 0.00015
          0.010057653370411 0.0084974472595183 0.0003 0.0071984303565192 0.0057392272964834 0
          0.0077721363879251 0.0058968168784219 0 0.0071984303565192 0.0057392272964834 0.00015
          0.0077721363879251 0.0058968168784219 0.00015 0.0071984303565192 0.0057392272964834 0.0003
          0.0077721363879251 0.0058968168784219 0.0003 0.0089588909882048 0.0073942383853577 0
          0.0089588909882048 0.0073942383853577 0.00015 0.0089588909882048 0.0073942383853577 0.0003
          0.0081402125110085 0.0066115625704341 0 0.0082479601882269 0.0062087007836213 0
          0.0081402125110085 0.0066115625704341 0.00015 0.0082479601882269 0.0062087007836213 0.00015
          0.0081402125110085 0.0066115625704341 0.0003 0.0082479601882269 0.0062087007836213 0.0003
          0.0084364690699339 0.0071912877673881 0 0.0084364690699339 0.0071912877673881 0.00015
          0.0084364690699339 0.0071912877673881 0.0003 0.010601303654319 0.010290632654442 0
          0.010601303654319 0.010290632654442 0.00015 0.010601303654319 0.010290632654442 0.0003
          0.0085681017610313 0.0067725899286886 0 0.0085681017610313 0.0067725899286886 0.00015
          0.0085681017610313 0.0067725899286886 0.0003
          <InformationKey name="L2_NORM_RANGE" location="vtkDataArray" length="2">
            <Value index="0">
              0.0092063092257
            </Value>
            <Value index="1">
              0.016482431226
            </Value>
          </InformationKey>
        </DataArray>
      </Points>
      <Cells>
        <DataArray type="Int64" Name="connectivity" format="ascii" RangeMin="0" RangeMax="782">
          27 24 3 6 28 25
          4 7 28 25 4 7
          29 26 5 8 33 30
          9 12 34 31 10 13
          34 31 10 13 35 32
          11 14 36 33 12 15
          37 34 13 16 37 34
          13 16 38 35 14 17
          39 36 15 18 40 37
          16 19 40 37 16 19
          41 38 17 20 42 39
          18 21 43 40 19 22
          43 40 19 22 44 41
          20 23 45 42 21 24
          46 43 22 25 46 43
          22 25 47 44 23 26
          48 45 24 27 49 46
          25 28 49 46 25 28
          50 47 26 29 57 54
          30 33 58 55 31 34
          58 55 31 34 59 56
          32 35 60 57 33 36
          61 58 34 37 61 58
          34 37 62 59 35 38
          63 60 36 39 64 61
          37 40 64 61 37 40
          65 62 38 41 66 63
          39 42 67 64 40 43
          67 64 40 43 68 65
          41 44 69 66 42 45
          70 67 43 46 70 67
          43 46 71 68 44 47
          72 69 45 48 73 70
          46 49 73 70 46 49
          74 71 47 50 78 75
          51 54 79 76 52 55
          79 76 52 55 80 77
          53 56 81 78 54 57
          82 79 55 58 82 79
          55 58 83 80 56 59
          84 81 57 60 85 82
          58 61 85 82 58 61
          86 83 59 62 87 84
          60 63 88 85 61 64
          88 85 61 64 89 86
          62 65 90 87 63 66
          91 88 64 67 91 88
          64 67 92 89 65 68
          93 90 66 69 94 91
          67 70 94 91 67 70
          95 92 68 71 96 93
          69 72 97 94 70 73
          97 94 70 73 98 95
          71 74 102 99 75 78
          103 100 76 79 103 100
          76 79 104 101 77 80
          105 102 78 81 106 103
          79 82 106 103 79 82
          107 104 80 83 108 105
          81 84 109 106 82 85
          109 106 82 85 110 107
          83 86 111 108 84 87
          112 109 85 88 112 109
          85 88 113 110 86 89
          114 111 87 90 115 112
          88 91 115 112 88 91
          116 113 89 92 117 114
          90 93 118 115 91 94
          118 115 91 94 119 116
          92 95 120 117 93 96
          121 118 94 97 121 118
          94 97 122 119 95 98
          126 123 99 102 127 124
          100 103 127 124 100 103
          128 125 101 104 129 126
          102 105 130 127 103 106
          130 127 103 106 131 128
          104 107 132 129 105 108
          133 130 106 109 133 130
          106 109 134 131 107 110
          135 132 108 111 136 133
          109 112 136 133 109 112
          137 134 110 113 138 135
          111 114 139 136 112 115
          139 136 112 115 140 137
          113 116 141 138 114 117
          142 139 115 118 142 139
          115 118 143 140 116 119
          144 141 117 120 145 142
          118 121 145 142 118 121
          146 143 119 122 150 147
          123 126 151 148 124 127
          151 148 124 127 152 149
          125 128 153 150 126 129
          154 151 127 130 154 151
          127 130 155 152 128 131
          156 153 129 132 157 154
          130 133 157 154 130 133
          158 155 131 134 159 156
          132 135 160 157 133 136
          160 157 133 136 161 158
          134 137 162 159 135 138
          163 160 136 139 163 160
          136 139 164 161 137 140
          165 162 138 141 166 163
          139 142 166 163 139 142
          167 164 140 143 168 165
          141 144 169 166 142 145
          169 166 142 145 170 167
          143 146 171 172 173 174
          175 176 177 178 175 176
          177 178 179 180 181 182
          183 184 185 186 187 188
          189 190 187 188 189 190
          191 192 193 194 183 195
          196 184 187 197 198 188
          187 197 198 188 191 199
          200 192 201 202 171 174
          203 204 175 178 203 204
          175 178 205 206 179 182
          173 172 207 208 177 176
          209 210 177 176 209 210
          181 180 211 212 202 201
          196 195 204 203 198 197
          204 203 198 197 206 205
          200 199 213 186 185 214
          215 190 189 216 215 190
          189 216 217 194 193 218
          162 172 171 159 163 176
          175 160 163 176 175 160
          164 180 179 161 173 208
          219 220 177 210 221 222
          177 210 221 222 181 212
          223 224 159 171 202 156
          160 175 204 157 160 175
          204 157 161 179 206 158
          168 225 207 165 169 226
          209 166 169 226 209 166
          170 227 211 167 185 184
          231 228 189 188 232 229
          189 188 232 229 193 192
          233 230 234 184 196 235
          236 188 198 237 236 188
          198 237 238 192 200 239
          183 186 150 153 187 190
          151 154 187 190 151 154
          191 194 152 155 201 240
          235 196 203 241 237 198
          203 241 237 198 205 242
          239 200 174 220 240 201
          178 222 241 203 178 222
          241 203 182 224 242 205
          165 207 172 162 166 209
          176 163 166 209 176 163
          167 211 180 164 208 207
          225 243 210 209 226 244
          210 209 226 244 212 211
          227 245 195 153 156 202
          197 154 157 204 197 154
          157 204 199 155 158 206
          147 150 186 213 148 151
          190 215 148 151 190 215
          149 152 194 217 183 195
          153 187 197 154 187 197
          154 191 199 155 173 174
          220 177 178 222 177 178
          222 181 182 224 234 184
          231 236 188 232 236 188
          232 238 192 233 243 208
          219 244 210 221 244 210
          221 245 212 223 249 250
          251 252 253 254 255 256
          253 254 255 256 257 258
          259 260 264 265 249 252
          266 267 253 256 266 267
          253 256 268 269 257 260
          270 271 272 273 274 275
          276 277 274 275 276 277
          278 279 280 281 282 251
          250 283 284 255 254 285
          284 255 254 285 286 259
          258 287 273 288 289 270
          277 290 291 274 277 290
          291 274 281 292 293 278
          294 295 264 296 297 298
          266 299 297 298 266 299
          300 301 268 302 303 304
          305 306 307 308 309 310
          307 308 309 310 311 312
          313 314 270 315 316 317
          274 318 319 320 274 318
          319 320 278 321 322 323
          324 325 326 327 328 329
          330 331 328 329 330 331
          332 333 334 335 283 336
          337 282 285 338 339 284
          285 338 339 284 287 340
          341 286 342 343 344 345
          346 347 348 349 346 347
          348 349 350 351 352 353
          354 337 355 356 357 339
          358 359 357 339 358 359
          360 341 361 362 343 342
          363 364 347 346 365 366
          347 346 365 366 351 350
          367 368 369 370 371 372
          373 374 375 376 373 374
          375 376 377 378 379 380
          711 381 382 712 713 383
          384 714 713 383 384 714
          715 385 386 716 327 326
          387 388 331 330 389 390
          331 330 389 390 335 334
          391 392 393 394 316 315
          395 396 319 318 395 396
          319 318 397 398 322 321
          399 400 401 402 403 404
          405 406 403 404 405 406
          407 408 409 410 306 344
          343 411 310 348 347 412
          310 348 347 412 314 352
          351 413 414 246 273 272
          415 247 277 276 415 247
          277 276 416 248 281 280
          423 424 252 251 425 426
          256 255 425 426 256 255
          427 428 260 259 429 430
          264 295 431 432 266 298
          431 432 266 298 433 434
          268 301 282 337 354 435
          284 339 357 436 284 339
          357 436 286 341 360 437
          354 438 439 435 357 440
          441 436 357 440 441 436
          360 442 443 437 444 445
          446 447 448 449 450 451
          448 449 450 451 452 453
          454 455 456 316 394 457
          458 319 396 459 458 319
          396 459 460 322 398 461
          462 463 446 464 465 466
          450 467 465 466 450 467
          468 469 454 470 471 401
          472 473 474 405 475 476
          474 405 475 476 477 409
          478 479 402 456 457 480
          406 458 459 481 406 458
          459 481 410 460 461 482
          471 456 402 401 474 458
          406 405 474 458 406 405
          477 460 410 409 473 483
          317 471 476 484 320 474
          476 484 320 474 479 485
          323 477 486 483 473 487
          488 484 476 489 488 484
          476 489 490 485 479 491
          483 271 270 317 484 275
          274 320 484 275 274 320
          485 279 278 323 492 424
          423 493 494 426 425 495
          494 426 425 495 496 428
          427 497 498 344 306 305
          499 348 310 309 499 348
          310 309 500 352 314 313
          501 502 288 261 503 504
          290 262 503 504 290 262
          505 506 292 263 429 295
          463 462 431 298 466 465
          431 298 466 465 433 301
          469 468 510 511 512 513
          514 515 516 517 514 515
          516 517 518 519 520 521
          464 446 445 522 467 450
          449 523 467 450 449 523
          470 454 453 524 525 526
          400 399 527 528 404 403
          527 528 404 403 529 530
          408 407 487 473 472 531
          489 476 475 532 489 476
          475 532 491 479 478 533
          288 273 246 261 290 277
          247 262 290 277 247 262
          292 281 248 263 435 439
          493 423 436 441 495 425
          436 441 495 425 437 443
          497 427 288 502 534 535
          290 504 536 537 290 504
          536 537 292 506 538 539
          717 540 718 719 720 541
          721 722 720 541 721 722
          723 542 724 725 543 372
          544 545 546 376 547 548
          546 376 547 548 549 380
          550 551 480 457 552 553
          481 459 554 555 481 459
          554 555 482 461 556 557
          558 559 498 305 560 561
          499 309 560 561 499 309
          562 563 500 313 400 526
          439 438 404 528 441 440
          404 528 441 440 408 530
          443 442 564 565 480 553
          566 567 481 555 566 567
          481 555 568 569 482 557
          570 564 553 571 572 566
          555 573 572 566 555 573
          574 568 557 575 726 576
          559 512 727 577 561 516
          727 577 561 516 728 578
          563 520 579 345 344 498
          580 349 348 499 580 349
          348 499 581 353 352 500
          729 582 576 726 730 583
          577 727 730 583 577 727
          731 584 578 728 438 354
          531 472 440 357 532 475
          440 357 532 475 442 360
          533 478 438 472 401 400
          440 475 405 404 440 475
          405 404 442 478 409 408
          565 585 402 480 567 586
          406 481 567 586 406 481
          569 587 410 482 545 544
          732 733 548 547 734 735
          548 547 734 735 551 550
          736 737 534 502 501 418
          536 504 503 420 536 504
          503 420 538 506 505 422
          251 282 435 423 255 284
          436 425 255 284 436 425
          259 286 437 427 576 588
          498 559 577 589 499 561
          577 589 499 561 578 590
          500 563 591 534 418 417
          592 536 420 419 592 536
          420 419 593 538 422 421
          369 594 595 370 373 596
          597 374 373 596 597 374
          377 598 599 378 326 600
          601 387 330 602 603 389
          330 602 603 389 334 604
          605 391 606 570 387 601
          607 572 389 603 607 572
          389 603 608 574 391 605
          317 316 456 471 320 319
          458 474 320 319 458 474
          323 322 460 477 483 486
          272 271 484 488 276 275
          484 488 276 275 485 490
          280 279 582 729 738 739
          583 730 740 741 583 730
          740 741 584 731 742 743
          588 382 381 609 589 384
          383 610 589 384 383 610
          590 386 385 611 612 613
          324 614 615 616 328 617
          615 616 328 617 618 619
          332 620 382 582 739 712
          384 583 741 714 384 583
          741 714 386 584 743 716
          582 382 588 576 583 384
          589 577 583 384 589 577
          584 386 590 578 595 342
          345 370 597 346 349 374
          597 346 349 374 599 350
          353 378 621 622 606 601
          623 624 607 603 623 624
          607 603 625 626 608 605
          609 579 498 588 610 580
          499 589 610 580 499 589
          611 581 500 590 540 621
          601 600 541 623 603 602
          541 623 603 602 542 625
          605 604 591 627 535 534
          592 628 537 536 592 628
          537 536 593 629 539 538
          594 630 522 445 596 631
          523 449 596 631 523 449
          598 632 524 453 744 745
          633 622 746 747 634 624
          746 747 634 624 748 749
          635 626 324 327 636 614
          328 331 637 617 328 331
          637 617 332 335 638 620
          745 750 751 510 747 752
          753 514 747 752 753 514
          749 754 755 518 639 591
          417 507 640 592 419 508
          640 592 419 508 641 593
          421 509 371 370 345 579
          375 374 349 580 375 374
          349 580 379 378 353 581
          642 399 402 585 643 403
          406 586 643 403 406 586
          644 407 410 587 645 525
          399 642 646 527 403 643
          646 527 403 643 647 529
          407 644 326 718 540 600
          330 721 541 602 330 721
          541 602 334 724 542 604
          621 540 717 756 623 541
          720 757 623 541 720 757
          625 542 723 758 639 507
          759 760 640 508 761 762
          640 508 761 762 641 509
          763 764 388 387 570 571
          390 389 572 573 390 389
          572 573 392 391 574 575
          648 651 6 0 649 652
          7 1 649 652 7 1
          650 653 8 2 613 612
          535 627 616 615 537 628
          616 615 537 628 619 618
          539 629 627 591 639 654
          628 592 640 655 628 592
          640 655 629 593 641 656
          612 289 288 535 615 291
          290 537 615 291 290 537
          618 293 292 539 651 657
          27 6 652 658 28 7
          652 658 28 7 653 659
          29 8 756 744 622 621
          757 746 624 623 757 746
          624 623 758 748 626 625
          660 613 627 654 661 616
          628 655 661 616 628 655
          662 619 629 656 657 663
          48 27 658 664 49 28
          658 664 49 28 659 665
          50 29 666 493 439 526
          667 495 441 528 667 495
          441 528 668 497 443 530
          669 565 564 303 670 567
          566 307 670 567 566 307
          671 569 568 311 663 355
          72 48 664 358 73 49
          664 358 73 49 665 361
          74 50 672 492 493 666
          673 494 495 667 673 494
          495 667 674 496 497 668
          144 249 265 168 145 253
          267 169 145 253 267 169
          146 257 269 170 411 669
          303 306 412 670 307 310
          412 670 307 310 413 671
          311 314 765 718 326 325
          766 721 330 329 766 721
          330 329 767 724 334 333
          525 645 364 675 527 646
          366 676 527 646 366 676
          529 647 368 677 768 639
          760 769 770 640 762 771
          770 640 762 771 772 641
          764 773 669 411 645 642
          670 412 646 643 670 412
          646 643 671 413 647 644
          639 768 660 654 640 770
          661 655 640 770 661 655
          641 772 662 656 642 585
          565 669 643 586 567 670
          643 586 567 670 644 587
          569 671 393 315 270 289
          395 318 274 291 395 318
          274 291 397 321 278 293
          675 364 363 678 676 366
          365 679 676 366 365 679
          677 368 367 680 552 636
          327 388 554 637 331 390
          554 637 331 390 556 638
          335 392 675 678 672 666
          676 679 673 667 676 679
          673 667 677 680 674 668
          666 526 525 675 667 528
          527 676 667 528 527 676
          668 530 529 677 250 120
          96 283 254 121 97 285
          254 121 97 285 258 122
          98 287 444 447 678 363
          448 451 679 365 448 451
          679 365 452 455 680 367
          614 636 394 393 617 637
          396 395 617 637 396 395
          620 638 398 397 249 144
          120 250 253 145 121 254
          253 145 121 254 257 146
          122 258 564 681 304 303
          566 682 308 307 566 682
          308 307 568 683 312 311
          364 645 411 343 366 646
          412 347 366 646 412 347
          368 647 413 351 72 355
          337 336 73 358 339 338
          73 358 339 338 74 361
          341 340 304 681 606 684
          308 682 607 685 308 682
          607 685 312 683 608 686
          636 552 457 394 637 554
          459 396 637 554 459 396
          638 556 461 398 72 336
          283 96 73 338 285 97
          73 338 285 97 74 340
          287 98 289 612 614 393
          291 615 617 395 291 615
          617 395 293 618 620 397
          687 487 531 688 689 489
          532 690 689 489 532 690
          691 491 533 692 688 531
          354 356 690 532 357 359
          690 532 357 359 692 533
          360 362 388 571 553 552
          390 573 555 554 390 573
          555 554 392 575 557 556
          693 486 487 687 694 488
          489 689 694 488 489 689
          695 490 491 691 564 570
          606 681 566 572 607 682
          566 572 607 682 568 574
          608 683 414 272 486 693
          415 276 488 694 415 276
          488 694 416 280 490 695
          225 696 697 243 226 698
          699 244 226 698 699 244
          227 700 701 245 774 324
          613 660 775 328 616 661
          775 328 616 661 776 332
          619 662 544 702 609 381
          547 703 610 383 547 703
          610 383 550 704 611 385
          688 356 355 663 690 359
          358 664 690 359 358 664
          692 362 361 665 324 774
          765 325 328 775 766 329
          328 775 766 329 332 776
          767 333 684 558 305 304
          685 560 309 308 685 560
          309 308 686 562 313 312
          544 372 371 702 547 376
          375 703 547 376 375 703
          550 380 379 704 711 732
          544 381 713 734 547 383
          713 734 547 383 715 736
          550 385 513 512 559 558
          517 516 561 560 517 516
          561 560 521 520 563 562
          777 726 512 511 778 727
          516 515 778 727 516 515
          779 728 520 519 777 511
          510 751 778 515 514 753
          778 515 514 753 779 519
          518 755 294 296 424 492
          297 299 426 494 297 299
          426 494 300 302 428 496
          369 705 630 594 373 706
          631 596 373 706 631 596
          377 707 632 598 633 513
          558 684 634 517 560 685
          634 517 560 685 635 521
          562 686 684 606 622 633
          685 607 624 634 685 607
          624 634 686 608 626 635
          708 672 678 447 709 673
          679 451 709 673 679 451
          710 674 680 455 513 633
          745 510 517 634 747 514
          517 634 747 514 521 635
          749 518 774 660 768 780
          775 661 770 781 775 661
          770 781 776 662 772 782
          702 371 579 609 703 375
          580 610 703 375 580 610
          704 379 581 611 687 688
          663 657 689 690 664 658
          689 690 664 658 691 692
          665 659 696 265 264 430
          698 267 266 432 698 267
          266 432 700 269 268 434
          696 430 429 697 698 432
          431 699 698 432 431 699
          700 434 433 701 264 252
          424 296 266 256 426 299
          266 256 426 299 268 260
          428 302 708 294 492 672
          709 297 494 673 709 297
          494 673 710 300 496 674
          447 446 463 708 451 450
          466 709 451 450 466 709
          455 454 469 710 693 687
          657 651 694 689 658 652
          694 689 658 652 695 691
          659 653 595 594 445 444
          597 596 449 448 597 596
          449 448 599 598 453 452
          696 225 168 265 698 226
          169 267 698 226 169 267
          700 227 170 269 705 369
          372 543 706 373 376 546
          706 373 376 546 707 377
          380 549 414 693 651 648
          415 694 652 649 415 694
          652 649 416 695 653 650
          444 363 342 595 448 365
          346 597 448 365 346 597
          452 367 350 599 708 463
          295 294 709 466 298 297
          709 466 298 297 710 469
          301 300
        </DataArray>
        <DataArray type="Int64" Name="offsets" format="ascii" RangeMin="8" RangeMax="3632">
          8 16 24 32 40 48
          56 64 72 80 88 96
          104 112 120 128 136 144
          152 160 168 176 184 192
          200 208 216 224 232 240
          248 256 264 272 280 288
          296 304 312 320 328 336
          344 352 360 368 376 384
          392 400 408 416 424 432
          440 448 456 464 472 480
          488 496 504 512 520 528
          536 544 552 560 568 576
          584 592 600 608 616 624
          632 640 648 656 664 672
          680 688 696 704 712 720
          728 736 744 752 760 768
          776 784 792 800 808 816
          824 832 840 848 856 864
          872 880 888 896 904 912
          920 928 936 944 952 960
          968 976 982 988 994 1000
          1006 1012 1018 1024 1032 1040
          1048 1056 1064 1072 1080 1088
          1096 1104 1112 1120 1128 1136
          1144 1152 1160 1168 1176 1184
          1192 1200 1208 1216 1224 1232
          1240 1248 1256 1264 1272 1280
          1288 1296 1304 1312 1320 1328
          1336 1344 1352 1360 1368 1376
          1384 1392 1400 1408 1416 1424
          1432 1440 1448 1456 1464 1472
          1480 1488 1496 1504 1512 1520
          1528 1536 1544 1552 1560 1568
          1576 1584 1592 1600 1608 1616
          1624 1632 1640 1648 1656 1664
          1672 1680 1688 1696 1704 1712
          1720 1728 1736 1744 1752 1760
          1768 1776 1784 1792 1800 1808
          1816 1824 1832 1840 1848 1856
          1864 1872 1880 1888 1896 1904
          1912 1920 1928 1936 1944 1952
          1960 1968 1976 1984 1992 2000
          2008 2016 2024 2032 2040 2048
          2056 2064 2072 2080 2088 2096
          2104 2112 2120 2128 2136 2144
          2152 2160 2168 2176 2184 2192
          2200 2208 2216 2224 2232 2240
          2248 2256 2264 2272 2280 2288
          2296 2304 2312 2320 2328 2336
          2344 2352 2360 2368 2376 2384
          2392 2400 2408 2416 2424 2432
          2440 2448 2456 2464 2472 2480
          2488 2496 2504 2512 2520 2528
          2536 2544 2552 2560 2568 2576
          2584 2592 2600 2608 2616 2624
          2632 2640 2648 2656 2664 2672
          2680 2688 2696 2704 2712 2720
          2728 2736 2744 2752 2760 2768
          2776 2784 2792 2800 2808 2816
          2824 2832 2840 2848 2856 2864
          2872 2880 2888 2896 2904 2912
          2920 2928 2936 2944 2952 2960
          2968 2976 2984 2992 3000 3008
          3016 3024 3032 3040 3048 3056
          3064 3072 3080 3088 3096 3104
          3112 3120 3128 3136 3144 3152
          3160 3168 3176 3184 3192 3200
          3208 3216 3224 3232 3240 3248
          3256 3264 3272 3280 3288 3296
          3304 3312 3320 3328 3336 3344
          3352 3360 3368 3376 3384 3392
          3400 3408 3416 3424 3432 3440
          3448 3456 3464 3472 3480 3488
          3496 3504 3512 3520 3528 3536
          3544 3552 3560 3568 3576 3584
          3592 3600 3608 3616 3624 3632
        </DataArray>
        <DataArray type="UInt8" Name="types" format="ascii" RangeMin="12" RangeMax="13">
          12 12 12 12 12 12
          12 12 12 12 12 12
          12 12 12 12 12 12
          12 12 12 12 12 12
          12 12 12 12 12 12
          12 12 12 12 12 12
          12 12 12 12 12 12
          12 12 12 12 12 12
          12 12 12 12 12 12
          12 12 12 12 12 12
          12 12 12 12 12 12
          12 12 12 12 12 12
          12 12 12 12 12 12
          12 12 12 12 12 12
          12 12 12 12 12 12
          12 12 12 12 12 12
          12 12 12 12 12 12
          12 12 12 12 12 12
          12 12 12 12 12 12
          12 12 12 12 12 12
          12 12 13 13 13 13
          13 13 13 13 12 12
          12 12 12 12 12 12
          12 12 12 12 12 12
          12 12 12 12 12 12
          12 12 12 12 12 12
          12 12 12 12 12 12
          12 12 12 12 12 12
          12 12 12 12 12 12
          12 12 12 12 12 12
          12 12 12 12 12 12
          12 12 12 12 12 12
          12 12 12 12 12 12
          12 12 12 12 12 12
          12 12 12 12 12 12
          12 12 12 12 12 12
          12 12 12 12 12 12
          12 12 12 12 12 12
          12 12 12 12 12 12
          12 12 12 12 12 12
          12 12 12 12 12 12
          12 12 12 12 12 12
          12 12 12 12 12 12
          12 12 12 12 12 12
          12 12 12 12 12 12
          12 12 12 12 12 12
          12 12 12 12 12 12
          12 12 12 12 12 12
          12 12 12 12 12 12
          12 12 12 12 12 12
          12 12 12 12 12 12
          12 12 12 12 12 12
          12 12 12 12 12 12
          12 12 12 12 12 12
          12 12 12 12 12 12
          12 12 12 12 12 12
          12 12 12 12 12 12
          12 12 12 12 12 12
          12 12 12 12 12 12
          12 12 12 12 12 12
          12 12 12 12 12 12
          12 12 12 12 12 12
          12 12 12 12 12 12
          12 12 12 12 12 12
          12 12 12 12 12 12
          12 12 12 12 12 12
          12 12 12 12 12 12
          12 12 12 12 12 12
          12 12 12 12 12 12
          12 12 12 12 12 12
          12 12 12 12 12 12
          12 12 12 12 12 12
          12 12 12 12 12 12
          12 12 12 12 12 12
          12 12 12 12 12 12
          12 12 12 12 12 12
        </DataArray>
      </Cells>
    </Piece>
  </UnstructuredGrid>
</VTKFile>
