<?xml version="1.0"?>
<VTKFile type="UnstructuredGrid" version="0.1" byte_order="LittleEndian" header_type="UInt32" compressor="vtkZLibDataCompressor">
  <UnstructuredGrid>
    <Piece NumberOfPoints="780" NumberOfCells="454">
      <PointData>
        <DataArray type="Int32" Name="libmesh_node_id" format="ascii" RangeMin="1278" RangeMax="5063">
          1278 1279 1280 1281 1282 1283
          1284 1285 1286 1287 1288 1289
          1290 1291 1292 1293 1294 1295
          1296 1297 1298 1299 1300 1301
          1302 1303 1304 1305 1306 1307
          1308 1309 1310 1311 1312 1313
          1314 1315 1316 1317 1318 1319
          1320 1321 1322 1323 1324 1325
          1329 1330 1331 1332 1333 1334
          1335 1336 1337 1338 1339 1340
          1341 1342 1343 1344 1345 1346
          1347 1348 1349 1350 1351 1352
          1356 1357 1358 1359 1360 1361
          1362 1363 1364 1365 1366 1367
          1368 1369 1370 1371 1372 1373
          1374 1375 1376 1377 1378 1379
          1383 1384 1385 1386 1387 1388
          1389 1390 1391 1392 1393 1394
          1395 1396 1397 1398 1399 1400
          1401 1402 1403 1404 1405 1406
          1410 1411 1412 1413 1414 1415
          1416 1417 1418 1419 1420 1421
          1422 1423 1424 1425 1426 1427
          1428 1429 1430 1431 1432 1433
          1437 1438 1439 1440 1441 1442
          1443 1444 1445 1446 1447 1448
          1449 1450 1451 1452 1453 1454
          1455 1456 1457 1458 1459 1460
          1461 1462 1463 1464 1465 1466
          1467 1468 1469 1470 1471 1472
          1473 1474 1475 1476 1477 1478
          1479 1480 1481 1482 1483 1484
          1485 1486 1487 1488 1489 1490
          1491 1492 1493 1494 1495 1496
          1497 1498 1499 1500 1501 1502
          1503 1504 1505 1506 1507 1508
          1509 1510 1511 1512 1513 1514
          1515 1516 1517 1518 1519 1520
          1521 1522 1523 1524 1525 1526
          1527 1528 1529 1530 1531 1532
          1533 1534 1535 1536 1537 1538
          1539 1540 1541 1542 1543 1544
          1545 1546 1547 1548 1549 1550
          1551 1552 1553 1554 1555 1556
          1557 1558 1559 1560 1561 1562
          1563 1564 1565 1566 1567 1568
          1569 1570 1571 1572 1573 1574
          1575 1576 1577 1578 1579 1580
          1581 1582 1583 1584 1585 1586
          1587 1588 1589 1590 1591 1592
          1593 1594 1595 1596 1597 1598
          1599 1600 1601 1602 1603 1604
          1605 1606 1607 1608 1609 1610
          1611 1612 1613 1614 1615 1616
          1617 1618 1619 1620 1621 1622
          1623 1624 1625 1626 1627 1628
          1629 1630 1631 1632 1633 1634
          1635 1636 1637 1638 1639 1640
          1641 1642 1643 1644 1645 1646
          1647 1648 1649 1650 1651 1652
          1653 1654 1655 1656 1657 1658
          1659 1660 1661 1662 1663 1664
          1665 1666 1667 1668 1669 1670
          1671 1672 1673 1674 1675 1676
          1680 1681 1682 1683 1684 1685
          1686 1687 1688 1689 1690 1691
          1692 1693 1694 1695 1696 1697
          1698 1699 1700 1701 1702 1703
          1707 1708 1709 1710 1711 1712
          1713 1714 1715 1716 1717 1718
          1719 1720 1721 1722 1723 1724
          1725 1726 1727 1728 1729 1730
          1734 1735 1736 1737 1738 1739
          1740 1741 1742 1743 1744 1745
          1746 1747 1748 1749 1750 1751
          1752 1753 1754 1755 1756 1757
          1761 1762 1763 1764 1765 1766
          1767 1768 1769 1770 1771 1772
          1773 1774 1775 1776 1777 1778
          1779 1780 1781 1782 1783 1784
          1791 1792 1793 1794 1795 1796
          1797 1798 1799 1800 1801 1802
          1803 1804 1805 1806 1807 1808
          1809 1810 1811 1818 1819 1820
          1821 1822 1823 1824 1825 1826
          1827 1828 1829 1830 1831 1832
          1833 1834 1835 1836 1837 1838
          1845 1846 1847 1848 1849 1850
          1851 1852 1853 1854 1855 1856
          1857 1858 1859 1860 1861 1862
          1872 1873 1874 1875 1876 1877
          1878 1879 1880 1881 1882 1883
          1884 1885 1886 2184 2185 2186
          2187 2188 2189 2190 2191 2192
          2193 2194 2195 2196 2197 2198
          2199 2200 2201 2202 2203 2204
          2205 2206 2207 2208 2210 2211
          2212 2214 2215 2216 2218 2219
          2244 2246 2248 2262 2263 2264
          2265 2266 2267 2268 2269 2270
          2271 2272 2273 2592 2593 2594
          2595 2596 2597 2913 2914 2915
          2916 2917 2918 2919 2920 2921
          3336 3337 3338 3339 3340 3341
          3582 3583 3584 3585 3586 3587
          3688 3690 3692 3699 3700 3701
          3702 3703 3704 4161 4162 4163
          4164 4165 4166 4527 4528 4529
          4530 4531 4532 4536 4537 4538
          4539 4540 4541 4671 4672 4673
          4698 4699 4700 4701 4702 4703
          4725 4726 4727 4770 4771 4772
          4884 4885 4886 4905 4906 4907
          4983 4984 4985 5034 5035 5036
          5061 5062 5063 1863 1864 1865
          1887 1888 1889 1890 1891 1892
          1902 1899 1903 1900 1904 1901
          1905 1906 1907 1908 1909 1910
          1911 1912 1913 1914 1915 1916
          2209 2213 2217 2245 2247 2249
          2526 2525 2530 2529 2534 2533
          3234 3235 3236 3237 3238 3239
          3300 3301 3302 3303 3304 3305
          3366 3367 3368 3663 3665 3667
          3687 3386 3689 3389 3691 3392
          3705 3706 3707 3939 3940 3941
          3942 3943 3944 4467 4468 4469
          3455 3458 3461 3210 3120 3212
          3124 3214 3128 4441 4443 4445
          3119 3123 3127 3231 3232 3233
        </DataArray>
        <DataArray type="Float64" Name="resid_x" format="ascii" RangeMin="-0.4352027037304378" RangeMax="0.37469920704527837">
          0.1949789525384542 0.12706460090240812 0.37469920704527837 0.28026903342999976 0.17429625170045338 0.1490959468941626
          -0.06607617772810892 -0.11923049370140815 -0.13748434045600932 -0.2848333009920947 -0.0780593878546032 -0.18771080610617652
          0.09703705185754696 0.020495983707673915 0.2947824066018647 0.07548952192897573 0.16912728574459823 0.0806605177250801
          -0.16006710487479925 0.06784323015820082 -0.4352027037304378 0.07560896161786657 -0.25056287246723574 -0.024881276384820517
          -0.05757300057720016 -0.08694720982939685 -0.09355179447373452 -0.15212260921455112 -0.031649762369161394 -0.0584088334785573
          0.036415728231295574 0.02895371044326467 0.06748770040630614 0.05317580120137766 0.03229907917916197 0.025716273070940154
          0.009262159350700294 0.0028360518940226953 0.01755326567775306 0.0049210440916231946 0.006394408178752364 0.001330524687332968
          -0.034259817208641685 -0.022789683367808067 -0.07282650188620465 -0.048321290244072834 -0.042198605556683866 -0.030801209817914454
          0.11164408305512197 0.22141318304664992 0.10444074631143252 0.09807729604220405 0.1775179741907067 0.07729776122900489
          -0.03382951736445872 -0.07508443006281684 -0.04104756140924071 -0.16296834727920917 -0.3097870337365114 -0.14233993700812153
          0.0002904448172045271 0.00012019262208307069 0.00011897249232095675 0.005377180121802105 0.007029785478413153 0.0017637622558561716
          0.0062281631508254165 0.009110308608048179 0.0023898771963546395 -0.0065532824643970145 -0.013543514564897663 -0.01011971651342547
          0.12018815133197691 0.2421665011737133 0.1226566077646929 0.0694533459274469 0.11581894061067022 0.041670793038697695
          -0.16647591987460508 -0.3342705083006656 -0.15694980968465355 -0.012175363786023574 -0.018350426857725033 -0.006672922892965616
          -0.003472987114341297 -0.0057569469824758635 -0.003824975707401812 -0.0016821696693614108 -0.0011703634014210706 -0.003274620919880622
          0.00033870255861945253 -0.00013993869417294746 -0.0020196725426790962 0.0028303756847858352 0.00017511973013806248 -0.004131434512985699
          0.00982832864693961 0.01986684134064376 0.010167310976832766 0.09540426725507789 0.16444001690564747 0.06722100143550769
          -0.06846356427895373 -0.14615771487384688 -0.06396717872945512 -0.0072199169193929436 0.0017835492207156634 0.004462082285010105
          -0.02695190311553297 -0.049756488492826545 -0.02358836603010772 0.000491035274172269 0.003118862367906594 -0.0023396528565484687
          0.00040513172218181737 0.00009941365640742106 -0.0022324701728337892 -0.0007190519261266459 -0.00169856904792276 -0.0038570725695423747
          -0.0005601668015930983 0.0011215721728667916 0.0076074183972991705 0.008210984321444847 0.007772412995573852 -0.00420634145791432
          0.049654206707117066 0.06825834212674353 0.025094204161576705 -0.020230973563236887 -0.008699096905911308 0.002132133933638869
          -0.03369616794351771 -0.050629625521301236 -0.025131521472521623 -0.0013584667967192487 -0.0002191234986663737 -0.0022552770340507067
          0.0033308946349004387 0.0009017856089510445 -0.003668019728244154 0.00039181842785573906 -0.0026313577848611214 -0.006251119360292989
          0.0008642922469963565 0.003025087510145852 0.0051912960630300375 0.022361202925990753 0.04374078344779786 0.019030371103979427
          0.029413179944216772 0.04229138153384593 0.014432086981038594 -0.028331556929639845 -0.06631708858596763 -0.03607653626620788
          -0.007898123961222137 -0.004322736663513016 -0.0033702882155339786 -0.0017596277948404015 0.0029241433655835536 0.0006821208644121057
          0.004345471289614711 0.0020868809140734967 -0.004644329854856188 0.003013177881864948 0.0014767082045579194 -0.005314365937336696
          -0.007779777517084696 -0.013452570677706888 -0.0008015356154400521 0.024777425332598746 0.053260816257184374 0.0297683998192122
          0.07284984148225782 0.1337122469205152 0.05903519732041218 -0.04860555086938145 -0.09493121245911551 -0.05432950777452916
          -0.035794165631584995 -0.07916899275746259 -0.04103163244999841 -0.0023173701845724537 -0.002129287827022708 -0.003415660875671911
          0.0020390028880350464 0.0020205541518873993 -0.005225327375632638 0.003205247342959794 0.0006582326463129284 -0.004648276703953957
          0.0006956654758205616 -0.00017143200313984863 -0.005749231069670735 -0.1021251970226622 -0.17442473823525262 -0.0561450404736803
          0.08483025461571625 0.18840884337291186 0.1135630271081336 0.08320756020026199 0.08688883537845316 -0.007323651761715233
          -0.12695251648391315 -0.22896084991533527 -0.10851160386477154 -0.02642022868860039 -0.04771093152990469 -0.0230869992300331
          -0.0020536414403915515 -0.006640620295998101 -0.007520231128069099 -0.0005887869918748123 -0.003184599428692536 -0.00857452871545128
          0.0017489380724304837 -0.00011048388892609395 -0.0048375951455854604 0.0006526929920838143 -0.00133703451135192 -0.006700899077622502
          -0.03062690722472894 -0.0268106176844789 0.007591189296187295 0.07678411825980902 0.13322639783583412 0.058692738216501894
          -0.006863934768109647 -0.05379153427856398 -0.05722894918881938 -0.07852151414461339 -0.142512943295781 -0.06383281134238494
          -0.0035183106020233446 -0.003728349989377655 -0.006633326197539979 -0.0011950402975382524 -0.002349474282713704 -0.006084266204211097
          0.0004316504043635483 -0.001784711951836826 -0.007061322627581301 0.0009792943198401183 -0.00016498667327802252 -0.005303762143505253
          0.0004925654728182849 -0.0002581221723878535 -0.005497009308937706 0.01674049933212629 0.044495922270769483 0.03352044870765525
          0.028620807708143126 0.03044525558543576 0.004761518707184997 -0.031960961995490145 -0.062165490812226665 -0.03766005946309736
          -0.011314295926151186 -0.021037144410797737 -0.014072006337690013 0.0015575678744816912 -0.0004106737616869083 -0.006864146537234106
          0.001055515105166549 0.0008837333162499128 -0.006411537393662403 0.0007561201398345041 0.00007516841966292986 -0.005867328109006031
          0.0006061336165030795 0.000014598602418480766 -0.004972571909749313 -0.00022505294332786363 -0.0010197575081343224 -0.005206019799318895
          0.0071132317033075765 0.018396337765846482 0.013226299104736938 -0.0024404542661122797 -0.0046559936524159795 -0.006308574705885306
          -0.002252320551543896 -0.0035377621910903656 -0.007912576079296407 0.0005291040985544448 -0.0028423331464950685 -0.009395257776920296
          0.0021147460550250408 -0.0019876781919725417 -0.008557054751881399 0.001720444320882919 0.0009694718531383373 -0.007101012358459613
          0.0010513680673422954 0.0005605832007988809 -0.005663935718622781 0.0009310231692447601 0.0011688172932093899 -0.004319780841040455
          -0.0013179187253351543 0.00024271441098822066 -0.0031921587109504657 0.03486911537605408 0.07272228690827731 0.03193994328636052
          -0.04873106053209675 -0.10049179098420691 -0.06075956460860965 0.0007780431192419002 0.002631075376581027 -0.008009283049644544
          0.0021810040602061598 -0.0005291306295558407 -0.009547377439296234 0.0030285982510380727 0.0003637521754971118 -0.008163653486266575
          0.0020268429954910516 0.0016056311926861966 -0.006739244333601846 0.0010555095132751546 0.0011015978055004538 -0.005251154205794251
          0.0006038101051411005 0.0009774747134061457 -0.004581029279678184 -0.0014322004904845365 -0.0005698326208185556 -0.001827318648706111
          0.11096576321710039 0.1915783610374433 0.06404810984453313 -0.11445494820754964 -0.18876077291456772 -0.08354458699060707
          0.0004813191405279582 0.0031841578298683615 -0.01026578189794769 0.0007436647214862369 0.004325068930295384 -0.006747516295895206
          0.0018682175357924713 0.0017989770488680001 -0.007537854454469084 0.001799064407588702 0.0013571409711206073 -0.006270950416390697
          0.0005187211567942995 0.0007194725362102972 -0.004905093927049187 0.0007774929362236449 0.0020797737072095757 -0.0031665872612887114
          0.0002966960174406452 0.0031136586764377583 -0.00016888190039132667 0.02051459514980536 0.026351008617647054 0.0006284175943571668
          -0.015288227008382727 -0.017817062041773468 -0.012297930757839026 -0.00023268770633189106 -0.0004773629095740084 -0.01014251106350006
          0.00003467399907375324 0.00048199872158694035 -0.008395746118605718 0.0007335171952544961 0.0009159421009772295 -0.007809918008066408
          0.0004457433278401979 -0.000332041629851787 -0.006453764971527498 -0.0005049304753423911 0.00012231315331412418 -0.004020872424924882
          -0.0004602140244269748 0.0016599558650503 -0.0018309164671936884 0.0005332580322336966 0.0029396264796162086 -0.00025906929729035966
          -0.003543379482062292 -0.00005288591247776253 -0.007997676655175923 0.000375071165471752 0.0003532262172378786 -0.010789877189348651
          0.0005568210391730943 0.0004488489294831588 -0.008885646885585352 0.0005899378519385046 0.00018079667703352342 -0.00811976210777443
          -0.000399540186491798 0.00028856573870683633 -0.004780086884175638 0.00022836806162018775 0.002131425068887971 -0.0020602024587974554
          -0.00015420913772867806 0.003388730943900242 0.00012180266809647122 -0.00035903468986386855 0.002016785500291718 0.00037723372965459134
          -0.0011461585831966659 -0.0012844220064138767 -0.010626843954234744 0.0007688582653160303 0.0013464508548777232 -0.009940340248672186
          0.00023238357694532752 0.00016862087888203092 -0.009070360537799527 -0.0007976513739222924 -0.0006278745853691703 -0.0071618779634468055
          -0.0004111315366026602 -0.00001370641668074768 -0.004766252009129168 -0.00035121970885754195 0.0022749000627131366 -0.0014667774130456834
          0.00029667532351140835 0.002899824773793469 0.0004569856751936996 0.001110793805120025 0.004445571575121043 0.002478603772796184
          -0.003323327056723002 -0.009684859476333685 -0.013665932667286995 -0.00006132288308036138 -0.002948134695885063 -0.010166520132154133
          -0.0008455104735274332 -0.0032995156637545264 -0.010906615776322681 0.0007354092418347946 -0.0012564539938875185 -0.008102866778751938
          -0.00018288964964341403 0.00014614306509397323 -0.003378607508264686 -0.001960594116965808 0.0014220310575963069 -0.0014814348639919928
          -0.0003492067348380701 0.0021109664027489927 0.0001111034597922611 -0.0035784097570314977 -0.0021331263974841974 0.0006816710134107673
          0.005566619585417598 0.01012385349263667 -0.002265238639841627 0.0021019446482535287 -0.00021899661287250183 -0.005542154940330057
          0.003282768053816554 0.005408754278927397 -0.005834757693046644 0.0010239360396600006 0.007937496491109641 -0.004765419781995739
          0.0053839213578816825 0.004391187224273452 -0.00120158813164295 0.0013036003419832909 0.007837298388971625 0.0022988278781435056
          -0.0014104957478799918 0.002446957741249811 0.0011667058485445025 -0.0006265686179034446 0.0047000864088939664 0.004511814143161708
          -0.0003843955354270179 -0.00423560046226612 -0.007406507188841616 0.0006771194160162253 0.007442834927658737 0.0030640188854054173
          -0.002277518801803602 0.013421722139828951 0.006597448336629341 0.010091015094223721 0.007726428839220922 -0.001580694937541871
          0.000842988873841044 0.009412326807573201 0.0037898882059428374 0.0008702946140166645 0.007854435355289624 0.005406512453427048
          -0.0005509700094372683 0.004449731576747773 0.0061317228263795265 -0.13141651460156467 -0.28621582261038014 -0.15455941655870653
          -0.021526852258110907 -0.025535230729309077 0.0041011252837064305 -0.005841220310219164 -0.0011332734506170894 -0.00453984473639224
          0.004598406919614106 0.005047783381590065 -0.0016486328627980384 -0.0018795532745246035 0.006072449186361517 0.004031983592493127
          -0.003394087106976862 0.00045879847428054177 0.0037083640560506836 -0.002897664594968763 0.0005918679485414913 0.005621157935138399
          -0.13578115808875246 -0.2804288145744849 -0.14391664598482024 0.0004341517567727493 0.019589286589571486 0.024820783852363526
          0.005906956070663938 0.00509180907750828 -0.007208393056847839 -0.01073828028218049 -0.010041473824845326 0.0017896805633776935
          -0.008683679884561535 -0.007432289547206317 0.0008564233661294551 -0.004267983776325757 -0.006943694269606837 0.0009453160857573195
          0.0019412129356091157 -0.0038078407165720307 0.0016737448785058007 -0.0032797099634249705 -0.0010537916028612315 0.006604060696894898
          -0.003589821939685933 -0.005054519848478378 0.006006878770349999 -0.0021066617424381207 0.0030369360749604724 0.0029064949473438517
          -0.0038768991663724606 -0.0038828632984904132 0.004818852316531341 -0.0011315780420488863 -0.001131138693041489 0.0017682627185395816
          0.0016699347220097138 -0.0016057958348172363 -0.0036037656836080956 0.0017180708928759003 0.0038489360926243776 0.0037117181508947716
          -0.0022257231344191553 -0.0017726595809159917 0.0038916881977408835 0.001363414089715853 0.0011162172120275926 0.0006440354436989537
          0.00025827756870988594 0.002817136067994497 0.0025510241644193243 0.00027291670196483153 -0.0012008082748398152 -0.005778226575349876
          -0.002915797211652027 -0.006215046360241061 -0.007975937445115377 -0.0000035510964506713094 -0.0032077360923707943 -0.0005088291881083506
          0.0010320768263945013 -0.005435448647403085 0.0010818392238070018 0.0076491034058392415 0.00621003554839028 0.005821073836914437
          -0.002822552742753004 -0.006463673953447824 0.0012423141849193797 -0.0004895746450435112 0.0005634776161471677 0.000675292348504275
          0.0023147270192103164 0.0030864410099127326 0.0028897867735606653 0.000530728270534464 0.0035336418762126343 -0.0003309797506512169
          -0.0020228129634851655 -0.001902184239395588 0.0017084098903854539 0.0026370214264717085 0.0005574038184299468 0.004542322416157152
          -0.0005772130805130615 -0.007601374294297969 -0.007371598229497955 -0.0013461804280661127 -0.0038796366055287024 -0.005184853627968167
          0.0009244502683749545 -0.0056705504632930115 -0.00916904560407783 0.0019381168728589415 0.0006334451352119075 0.0005188395326420903
          0.0014018376650439812 0.0024602133454632025 -0.00002392323011024544 0.003243819043181606 -0.007934192831109854 -0.008756441958786443
          -0.00032397275678558435 -0.004041361583278058 0.0025602183247881993 -0.006992140197069618 0.007391438324317545 0.0041353418719110024
          0.0018340937071901209 0.003877464773908379 -0.0003156509474928626 -0.0014301569504260314 -0.0017126742006539075 0.0026152174820985863
          -0.0025180291507158614 0.004876232309438677 0.002272032172707217 -0.002072394283404222 -0.0026417746065781067 0.003839495603739529
          0.0015667680407176476 0.005257417535982967 0.004119878533253463 -0.0007371924111131412 0.0007360580131294814 0.0011959964770659193
          0.0012649361930707759 -0.0010581168776160332 -0.000773777681053911 0.000386127801669911 0.0007169435911120736 0.0006142120066283674
          0.004702350485212836 -0.003259433572895265 -0.0007252009226589307 0.0009224398461480376 -0.0017336498227216168 -0.008445853455638641
          0.0024065549282110688 0.0007266175557507637 0.0032339986480427463 -0.0022177986110099024 -0.004335169191923782 -0.0077924689719135465
          0.0004781085589469214 0.0016768741027624046 -0.0013113494083860644 0.002981753469694759 0.0027167055407266716 -0.010030851871297486
          -0.0018995832268267066 -0.0001399100207959414 0.002463272652963866 0.0021189047509642123 -0.0023782002619658904 -0.009034556262081495
          0.003749992718747208 0.004073705430428731 -0.009286598602889384 0.006425852647988783 0.009109964329174325 -0.007557419923796438
          0.004715408057473169 0.008028187528431818 -0.0016243870735346277 -0.0029234628644800864 -0.006668815823941188 0.0015681327475363105
          -0.0016162848962846255 -0.006061314373338789 0.001801752127846612 -0.00009446816092140153 -0.001407139445261052 0.0016068258358896692
          -0.00725167308658925 -0.0019156675074336604 -0.008186295824065937 -0.006160323510894017 0.00411413923824222 0.00344990463440098
          -0.004324053437460229 0.002616037122461279 0.012673410819625808 0.0028776701396897586 0.005075799716523832 0.0040325296520129505
          -0.0018953050787757775 -0.004588517048429885 0.0025164339482377507 -0.0035221847527537875 -0.009923880137849395 -0.0029358236707097696
          -0.004339764160034676 -0.0034450930067499996 0.005062893739179231 -0.006393652497687086 -0.007202411464900749 -0.0007313882677610906
          0.0016140043659067516 -0.00017373320198643682 0.0017934901024823091 -0.0023110220549806826 0.0016805462731266374 0.0031993434717785263
          -0.001522676382453625 -0.004224725706596821 -0.003269484814651946 -0.0030726657725637097 -0.0014374837064572432 0.0009589460828856033
          0.0027138425156501 0.001853382338824261 0.0063591773893705295 0.0034837913333980453 -0.0019831600502655533 -0.002605097342888385
          0.002144242481655567 0.005659185734227634 -0.004149391449193018 -0.0030329536133795187 -0.003920601005441782 0.0012219351231665954
          0.002298160222816925 -0.000054100353163555326 0.0024531647589807193 -0.0025345166504973093 -0.0013857405689110536 -0.0018265612776513507
          -0.006313464833477056 -0.010293829964910017 -0.0009734508738272751 -0.008275337389525905 -0.004227343922064364 -0.011510979368049234
          -0.004853942145456536 -0.0012442391029745536 0.0011057006339023623 -0.001334253125075513 0.001442755944597529 0.006206624879031786
          0.0023396592262088234 0.0056888843028453095 -0.007067971430254616 -0.00003627881699053148 0.003811163459895184 0.001564231448341502
          0.010056747342392924 -0.01185786206904993 -0.014832705460698037 0.00501836140874623 0.0087046721947317 -0.007071322655978207
          0.005652169764493564 0.010513100906727857 -0.008012786916351544 -0.004867640832350695 -0.0026666608295222716 0.0019520522189298006
        </DataArray>
        <DataArray type="Float64" Name="resid_y" format="ascii" RangeMin="-1.199035563826794" RangeMax="0.22643527777561853">
          0.0316024674709543 -0.18387418318557097 0.08258194384649531 -0.27781930221462225 0.05089682319633976 0.11904432740151438
          -0.02587640060598087 0.0976637429939601 -0.039483751710307824 0.22643527777561853 -0.011722465247049146 0.03581547358065473
          -0.11816696266474284 0.04503542629565599 -0.18189396913823688 0.11073992735552463 -0.07578077207419216 0.0962792505818193
          0.018925641643469326 0.07468467164613082 0.0490473637484441 0.11780086754043609 0.03996899917227188 0.0512647659538073
          0.032839077719681205 0.04405590697829183 0.05174613088395051 0.01881315464710584 0.015366230640516093 -0.11562780669030197
          0.009053744338782366 -0.10541635954092982 0.017645969708298292 -0.27779542027344567 0.008451760986189383 -0.26351595862434474
          0.020800602562906223 -0.09616054902584231 0.04104738221226889 -0.24898116129652548 0.020095998698181072 -0.22316355609597588
          0.009806058391013506 0.12359735928011334 0.018796737075459785 0.1686185315463869 0.008919036349592457 0.06799011248151604
          -0.012925265037649125 -0.030728721767065828 -0.018631852140325686 -0.005224625597798814 -0.013765976937814894 -0.010741543497131308
          0.06985162553816524 0.13924019480670669 0.06825872780042175 0.06214238796203907 0.12519559091338892 0.06066100429777013
          -0.0008389661336195703 -0.000002360666737949435 -0.000038671401980772124 0.002936918747465378 0.005894893606334717 0.0018345203348905659
          0.009102314809951995 0.01700108899995778 0.006540949382147332 0.005587060331670307 0.010273853153067225 0.0027285165900114983
          0.03230766227845917 0.06732363738823337 0.033874334413976165 0.022833876696799614 0.049225892835493286 0.02665982472408407
          0.02733201954217515 0.05710009098085045 0.025709971510388882 0.006822187312641155 0.01924997934510669 0.00728319952687452
          -0.0015702321508997974 0.001118949530073965 -0.0007410804454993924 -0.0007833827278400651 0.0019051032495917553 -0.0007077817293005273
          -0.0020400943786786363 -0.0024414474344297 -0.002328851838513779 -0.001298301277008973 -0.0016246246887992588 -0.0016660511229290575
          0.004807281581624821 0.011100980912225458 0.004702723227168269 0.05458851235807123 0.1074630754213889 0.051045081685012365
          0.02509143767144309 0.05229190853083006 0.025228022438564868 -0.019155013292469894 -0.035429803211616546 -0.0155802106840561
          -0.0051511233068918805 -0.009215221098920673 -0.0038521311899102906 0.0010667033180317143 0.0008514441458127853 -0.0001637981809464173
          -0.0010752017578951056 -0.0016283185041286452 -0.001793242154198349 -0.0012683200325473987 -0.0019858699646205236 -0.0018024000405629514
          -0.00021890594156335347 -0.0006619440543385591 -0.0029528598858709863 0.008470648451135186 0.013021477867142112 -0.0010721770935000902
          -0.0007218405915981746 -0.003935673439275436 -0.00589886096761516 0.002747155626167924 0.005759558102896162 0.0008310897968485387
          0.005153539825322601 0.01253987654745356 0.005397326801918401 -0.0003321364037305874 0.0007656514450554708 -0.000864107223312649
          -0.001797547862112281 -0.0026133704505499344 -0.0024517785075835463 -0.0010007012991020137 -0.0014825798938872814 -0.0018614153123783783
          -0.0015300350318113026 -0.00003152011830580975 0.0011300495826482432 -0.016636512255244873 -0.030233756043880462 -0.012736907496555233
          -0.018410990932065024 -0.040511984739215606 -0.02159672489966047 0.01060118428795584 0.013906163919135572 0.006206442745983143
          0.0023071295086727894 0.004818240368683779 -0.00046294108488420527 -0.0021591653882108153 -0.0033115699395720455 -0.0032354956708803284
          -0.0026516869694105383 -0.003020224542071015 -0.0019472237115482072 -0.0021887896880052327 -0.002652773755048854 -0.0020952665635870504
          -0.003366945323650736 -0.0048694095437999615 -0.0017402246700419094 -0.0064823993999961645 -0.02230163183529012 -0.01806828444510645
          -0.042740276022467175 -0.08024459071350626 -0.03335776737802648 -0.013079761039612336 -0.020490891166344116 -0.004683061679035538
          0.005734618354359289 0.006856959688581743 0.0005914653021409921 -0.005129618880885589 -0.009779396996789369 -0.006257662379671625
          -0.003478823117390395 -0.00445544087901828 -0.0026641916061496684 -0.0023357633028148195 -0.002239953091312752 -0.002041643707560159
          -0.0022962484225152457 -0.0027502110436946614 -0.0017768287290641505 -0.02511062235242989 -0.048416820802500204 -0.025438122537479766
          -0.02518946925165763 -0.044431546109984954 -0.02204263372002313 -0.011312718375367903 -0.011367427351298282 -0.00405133590714396
          0.010093296071302937 0.02712173098468168 0.014930199773634412 0.003478958953548106 0.009898275014134816 0.0018302350697246839
          -0.0034145319796896056 -0.004205171280080855 -0.0037023982465052563 -0.003305305999620256 -0.003730917423539759 -0.003270440698788679
          -0.0026117237166672913 -0.0029894255620598886 -0.0032253077840105338 -0.0022815751411872087 -0.003050853375211826 -0.002223465022792581
          0.026364809130993448 0.0459036260282551 0.02147668327503348 -0.005446354161598471 0.002564683781809296 0.007191621672967857
          0.03159744826233568 0.06427087976534729 0.02741464740000099 0.020875521178305212 0.03926761583741034 0.012815992951960342
          -0.003041348852421244 -0.002049904219973586 -0.0025184815350553502 -0.002588018184021379 -0.0021780049762769593 -0.0029076709515459265
          -0.0034344647776743398 -0.0035059990980892963 -0.0034011478709655707 -0.002903262180931676 -0.0028074571850635333 -0.0030464697898267
          -0.002218528510486595 -0.0024773364263237507 -0.002376590963687031 0.009012699242565203 0.02361232095345206 0.013113985622150486
          0.02848835544035322 0.05922701257631857 0.02975279707058104 0.02504949392461031 0.05014389151149923 0.02122365610283028
          0.00280231206606546 0.0062192323666344085 -0.00031799722119396634 -0.0026787100280689646 -0.002481022022428614 -0.0032286139960087112
          -0.002450520640305043 -0.0014174037161071018 -0.002551798299323782 -0.003293369233439647 -0.0029279447910684486 -0.0034362945790842314
          -0.002789270433063956 -0.0023372472493857765 -0.0028400230439024066 -0.0019901536649898355 -0.0017817784817973914 -0.0017119494877274044
          -0.00886137574112715 -0.014266962241230724 -0.005974846947226491 0.0007137969427433721 0.002887633644124532 0.001374686938222014
          -0.0010851971322908271 -0.0003032442378516076 -0.0023223266912709706 -0.0025529358062060803 -0.0006423443664951289 -0.0016398756383597668
          -0.0016949708786906381 0.00036730051568001354 -0.001415695078880841 -0.0024910011322555325 -0.0012837206290136627 -0.0024177542184817824
          -0.0029763594537774996 -0.0023218668185325253 -0.0027968116592856918 -0.0024848153864869826 -0.0017966956307329807 -0.002491522490952497
          -0.0014884224978670285 -0.0009453138220040166 -0.00186085683871412 -0.033537693871491 -0.06763016896186269 -0.03706768659352786
          -0.030667205127724806 -0.061456689388901364 -0.03692597138977316 -0.0034523258265594103 -0.0030956923068854447 -0.004046531274214948
          -0.0016692978114877244 0.00291685446796075 -0.00002818117360903205 -0.0017554125179397584 0.0010432020925043028 -0.00116928021467666
          -0.0023057425446541546 -0.0008067728644202132 -0.0021771924006777077 -0.002907857049950724 -0.0019384165279669463 -0.0026323407831977397
          -0.0029956912935741875 -0.002622895335344211 -0.0026735695180754027 -0.002209348093340415 -0.002247753778319133 -0.002336537774140432
          0.006715129100926087 0.04235815182510519 0.017182760682962747 0.010185596888710235 0.03245406613536228 0.02516941084118951
          -0.0036225064280013264 -0.0017598452605902537 -0.003593184806209959 -0.0030193586066989964 -0.0005671063756138572 -0.002629279188053224
          -0.0031678179046643606 -0.0018023093526526868 -0.0028159843841555343 -0.002700567520317221 -0.0015812691475882712 -0.002569772663280012
          -0.0025573373561698642 -0.0018368819708365347 -0.002431853354649821 -0.0021730157215380796 -0.001764005707892674 -0.002161004507935854
          -0.002145183357995281 -0.002119219876195358 -0.0020375220126168797 0.013338109300046586 0.009320179470294176 -0.001818232625985905
          0.01935530133486081 0.03457809715189428 0.0013179904176271184 -0.002280154846643234 0.0004131684506506472 -0.0026514132904518206
          -0.004258078725095538 -0.004169590673281043 -0.004911238757709713 -0.0035047267984974484 -0.0028139004704231807 -0.003641579180490351
          -0.0029062747667519817 -0.0016606459494275527 -0.00257226478222633 -0.0021888193528865063 -0.0013885772377704164 -0.0021030320597342778
          -0.0021427918976554133 -0.0016049098003416157 -0.0014482523588340464 -0.001579164727879401 -0.0012309609650433175 -0.0010068508522713855
          -0.0016501247485116166 -0.001042816425826043 -0.0033312250600080473 -0.0014049700030203116 0.0017436806014068384 -0.0015518626917709888
          -0.003609072741474262 -0.0022641353801777786 -0.003856667803073366 -0.003540681274901647 -0.002691255876652421 -0.0035864571803279066
          -0.002965447223416795 -0.00239729955497614 -0.0029532799922111774 -0.0022126275111036403 -0.001655034891047194 -0.0018523454312074084
          -0.001474222108517706 -0.000915694358712249 -0.0009688963111478266 -0.002055129588597826 -0.0014069747146988054 -0.0006415767503119008
          -0.0017808453368812205 -0.0001811494278651793 -0.003392067387553932 -0.0018944686361589413 0.0014235481089973634 -0.0022315042556353415
          -0.0030768583753038037 -0.0006008086341787733 -0.0029518898234115465 -0.0032903445217340455 -0.002497730458609071 -0.003838381333357954
          -0.003502870312167339 -0.0029306152664990426 -0.0032757998204108463 -0.0019458501809097098 -0.001344679099993664 -0.002105676289782893
          -0.0001259250038599946 0.001097830229002117 -0.0003119822216597068 0.00035534003783488366 0.0017369629205075676 0.0004990790553712765
          -0.002613205320874612 0.0009177343258033321 -0.00044927231498625986 -0.002135230577204772 0.0014511710215334706 -0.0014092433187401499
          -0.0044425062891575995 -0.0029040006738908497 -0.0041610266285006525 -0.0039058817220440356 -0.0029335973105830693 -0.0030631255212087982
          -0.002439796229882163 -0.0018392352537852097 -0.002309233905131887 -0.0023659306425330706 -0.0023151208835053283 -0.0018209031579460577
          -0.0003268288657388152 0.00008287660750694315 -0.00038592988658736616 -0.0007674269806063339 -0.001868813030551919 -0.000791119323635292
          -0.006245227189598301 -0.00889290195162129 -0.0055534204382030605 -0.004793612391471802 -0.0035437106777238547 -0.003378874684334371
          -0.003939594143642977 -0.0005291061609472014 -0.0036274861923198953 -0.0026225689548955017 -0.0010348473714157924 -0.003954542908834957
          -0.0014598171098197943 -0.00043573299087294737 -0.0016550234135331715 -0.0021442351807600124 -0.0006017840004559627 -0.0009391620231224973
          -0.0006888267331385811 0.0001395943424731816 -0.0003869569835008857 -0.00022153927479309776 0.0007020058715902083 0.0006227389791111371
          -0.007842524981386267 -0.00984280613087829 -0.003560330092445163 -0.0048916499109633305 -0.0020980227532005347 -0.002009225649752283
          0.00045087398905790943 0.006309591590909443 -0.0018371798491753771 -0.0026114679269869656 -0.0005189936890052649 -0.002647286756094769
          -0.00022785126150948187 0.0014743401576961523 -0.0012217032644996073 -0.0008547009422816831 -0.0008784961672032021 -0.0010179491231745441
          -0.0006717270296663913 -0.00031585076429446746 0.000058557322028751635 -0.07453330198808561 -0.15660461988035113 -0.08082194475653698
          -0.0034167817839628953 -0.008478367229078694 -0.009368906953444674 -0.00029291548669937995 0.003243711853260056 -0.0001147372624552001
          0.0022360361942775353 0.0070457172238921895 0.0009395041219266154 -0.001225606643603272 -0.0017665122778174336 -0.0029598313740293314
          -0.0013359204445427264 -0.001782075211871681 -0.0018582588641724573 -0.003912068207183039 -0.006041994543217188 -0.003429946286579888
          0.07840635251516298 0.1641238425209277 0.08376587973719285 -0.002557550576988088 -0.0000365532210213626 -0.0010329442890596452
          -0.006516030178991494 -0.005393746477544814 -0.0021419530058882086 0.0009527882014093159 0.0051149092729337875 -0.00040322050494590034
          -0.0020373809402535192 -0.001584502494372808 -0.0021625897995607435 -0.0038519919205637354 -0.004395716577436093 -0.0017088761705017497
          -0.006426903723287081 -0.0122211296595921 -0.007565273094127134 -0.00633618636093447 -0.008199915094963928 -0.00389818738414649
          -0.0047738851151556405 -0.00800643296884962 -0.007619522326310135 -0.0018055021456644393 -0.0020716753844232105 -0.0033570959762191377
          -0.002079528436134903 -0.0018267132772703532 -0.00020569405275494557 -0.0005186909246346766 -0.0008684938284581889 -0.0005334521437567741
          -0.001002481880551298 -0.002801490896917669 -0.002034062499378847 -0.00025007720969072444 -0.0011652724938610026 -0.0012566715483853519
          -0.0012125957153136246 -0.0003351248441945537 -0.0011232234880847458 -0.002033909133246581 0.00031000611141189516 -0.0018851667833626462
          -0.0027609632749992508 -0.004356384330462149 0.0004995939791922477 -0.0027930187357822767 -0.005251335475544017 -0.003103792732598254
          -0.0002884299848040506 -0.001537184612974682 -0.002924042508360647 -0.0021903053788165927 -0.00041867288954067217 0.00038136484647186
          -0.0043930216235482655 -0.00015916062735948922 0.00030430509920556514 -0.0025264314223588935 -0.002057236682836361 -0.0006442764887596569
          -0.0004775435797118588 -0.001495530865084027 -0.0012809105733949666 -0.0006100808778321809 0.0016517570272062687 -0.005390880571120249
          -0.002995458397405476 0.00013213006216800105 0.0034726944512715463 -0.009975122008759205 -0.005575027967742702 -0.0006270925303751285
          0.0008791030126642785 -0.0032626288355019073 -0.0026686435608311576 -0.002639488026004 -0.002957769871227145 -0.005352217276450522
          -0.005575775364211943 -0.0031594294268426637 -0.002960650607701787 -0.0002508881212285874 -0.0009468940070537224 -0.0028124896669747684
          0.00013094881918014611 -0.0024499877291349614 -0.0029896317542842527 0.0004419132742393417 -0.0010240778849056609 -0.0007680085314291929
          -0.002702829533180351 -0.0020746349556642896 -0.0037061443645526326 -0.0033442858086781824 -0.001425931755269838 -0.0019179070082360195
          -0.0007740888933494838 0.0009753203905207286 -0.0019626370487915157 -0.00044753958383123016 -0.0007233846436994762 -0.0017429306770510855
          -0.00008458913937903212 -0.00036450505590054916 -0.001359750243169422 -0.0004620357540041642 -0.002017357674026013 -0.0011440175574996825
          -0.006314994851788755 -0.0006833538835143843 -0.0031099141892104443 0.0008796806772998211 -0.0003134015552746783 0.0020751577352952078
          0.00024814974284678715 0.0011122735812522655 0.00035978761078991894 0.0003518520600119396 -0.0045992346662696686 0.002255188410947781
          -0.006882969114910971 0.0007897908964904221 -0.0037638521083203993 -0.0018732272731886435 -0.0016764152395142978 -0.002701865060431047
          -0.0027744019590100893 -0.0016779379913696435 -0.0019050326552100053 -0.0011430164561663236 -0.0014743535446021805 -0.0009694414373252469
          -0.0030535055821104273 -0.000997137338732662 -0.005607526276053154 -0.0013010471617375674 -0.0029174677007124394 -0.001113317857719398
          -0.0011319214359787055 -0.0010095880933602697 -0.0007666864211484381 -0.0008919409667214051 -0.0018634613427263025 -0.002083686574243959
          -0.0004132472902169809 0.0012037438027003994 0.0011886984100004383 0.005221801141126359 0.009778090586344823 0.004785645270349748
          -0.0034892596229258444 -0.005408593553823171 -0.0026303488134565844 -0.0024493503028742425 -0.0035623548022586937 -0.0016224040709861276
          0.00006633195385641333 0.0006877285301934988 0.0006636989167545376 -0.0014735763183227335 -0.004312997164805266 -0.002878511619543611
          -0.0024108485267491098 -0.005146564721196123 -0.0019073404699536667 -0.002438883259966107 -0.0046632146322936885 -0.0019670849829092063
          -0.004216660880072776 0.00016234139275045356 -0.009038134218163352 -0.0008150722112776343 -0.005660709821359133 -0.001322989355771631
          -0.0060105651557563755 -0.01325286042446261 -0.004390166750876334 -0.004037878475264156 -0.010049353429776975 -0.004210768441023083
          -0.0009877540873918234 -0.0033505440747632065 -0.002357275984705365 -0.0014955193573161774 -0.00217527127019701 -0.00012711659028197264
          -0.0023610485468002484 -0.0021120349520812876 0.0012129992197622286 -0.0035243384760852287 -0.0038668039670803345 0.00037272022238782343
          0.0013891459573522752 0.002133002562277886 0.001460763047838709 0.0045902883438081465 -0.000370377228506108 0.0014399021155813152
          -0.001743584365542783 -0.002284668790402705 -0.005055959568357138 -0.00432716318515175 -0.0002700010189411739 -0.0009227352121656263
          -0.0024553583867967244 -0.003166891357793966 -0.003541509572743101 -0.0055888848750992315 -0.002291875588332354 -0.0031959260147571555
          -0.0016118650241842558 -0.004480299503710816 -0.0027518774606842544 -0.002302612892954553 -0.0043864483637683915 -0.001219174125824507
          -0.0021580636982442836 -0.004621870267909722 -0.002505879624806584 -0.007694169075963153 -0.0006997997225224872 -0.0026864352057167917
          -0.001462767933943454 -0.0054507257737507475 -0.0003123541778825567 0.007325162900408744 0.004721396215832563 0.012639505709127086
          0.009905675087690913 0.004045067280725401 0.0033281095304281694 -0.0012014681875216482 -0.004724208426136078 -0.003173430501700325
          -0.002977310050992915 -0.006503008946850908 -0.0038827863959883524 -0.5863349162016988 -0.007415567096847209 -1.199035563826794
          -0.014960171669342603 -0.6104066485049197 -0.007105783339878546 -0.004174890832120248 -0.007425316366266865 -0.0038691660173004183
          -0.004992059112236297 -0.009601151969933774 -0.003970107272433854 -0.0011964032027742544 -0.002444124462161912 0.0009894824504938504
        </DataArray>
        <DataArray type="Float64" Name="resid_z" format="ascii" RangeMin="0" RangeMax="0">
          0 0 0 0 0 0
          0 0 0 0 0 0
          0 0 0 0 0 0
          0 0 0 0 0 0
          0 0 0 0 0 0
          0 0 0 0 0 0
          0 0 0 0 0 0
          0 0 0 0 0 0
          0 0 0 0 0 0
          0 0 0 0 0 0
          0 0 0 0 0 0
          0 0 0 0 0 0
          0 0 0 0 0 0
          0 0 0 0 0 0
          0 0 0 0 0 0
          0 0 0 0 0 0
          0 0 0 0 0 0
          0 0 0 0 0 0
          0 0 0 0 0 0
          0 0 0 0 0 0
          0 0 0 0 0 0
          0 0 0 0 0 0
          0 0 0 0 0 0
          0 0 0 0 0 0
          0 0 0 0 0 0
          0 0 0 0 0 0
          0 0 0 0 0 0
          0 0 0 0 0 0
          0 0 0 0 0 0
          0 0 0 0 0 0
          0 0 0 0 0 0
          0 0 0 0 0 0
          0 0 0 0 0 0
          0 0 0 0 0 0
          0 0 0 0 0 0
          0 0 0 0 0 0
          0 0 0 0 0 0
          0 0 0 0 0 0
          0 0 0 0 0 0
          0 0 0 0 0 0
          0 0 0 0 0 0
          0 0 0 0 0 0
          0 0 0 0 0 0
          0 0 0 0 0 0
          0 0 0 0 0 0
          0 0 0 0 0 0
          0 0 0 0 0 0
          0 0 0 0 0 0
          0 0 0 0 0 0
          0 0 0 0 0 0
          0 0 0 0 0 0
          0 0 0 0 0 0
          0 0 0 0 0 0
          0 0 0 0 0 0
          0 0 0 0 0 0
          0 0 0 0 0 0
          0 0 0 0 0 0
          0 0 0 0 0 0
          0 0 0 0 0 0
          0 0 0 0 0 0
          0 0 0 0 0 0
          0 0 0 0 0 0
          0 0 0 0 0 0
          0 0 0 0 0 0
          0 0 0 0 0 0
          0 0 0 0 0 0
          0 0 0 0 0 0
          0 0 0 0 0 0
          0 0 0 0 0 0
          0 0 0 0 0 0
          0 0 0 0 0 0
          0 0 0 0 0 0
          0 0 0 0 0 0
          0 0 0 0 0 0
          0 0 0 0 0 0
          0 0 0 0 0 0
          0 0 0 0 0 0
          0 0 0 0 0 0
          0 0 0 0 0 0
          0 0 0 0 0 0
          0 0 0 0 0 0
          0 0 0 0 0 0
          0 0 0 0 0 0
          0 0 0 0 0 0
          0 0 0 0 0 0
          0 0 0 0 0 0
          0 0 0 0 0 0
          0 0 0 0 0 0
          0 0 0 0 0 0
          0 0 0 0 0 0
          0 0 0 0 0 0
          0 0 0 0 0 0
          0 0 0 0 0 0
          0 0 0 0 0 0
          0 0 0 0 0 0
          0 0 0 0 0 0
          0 0 0 0 0 0
          0 0 0 0 0 0
          0 0 0 0 0 0
          0 0 0 0 0 0
          0 0 0 0 0 0
          0 0 0 0 0 0
          0 0 0 0 0 0
          0 0 0 0 0 0
          0 0 0 0 0 0
          0 0 0 0 0 0
          0 0 0 0 0 0
          0 0 0 0 0 0
          0 0 0 0 0 0
          0 0 0 0 0 0
          0 0 0 0 0 0
          0 0 0 0 0 0
          0 0 0 0 0 0
          0 0 0 0 0 0
          0 0 0 0 0 0
          0 0 0 0 0 0
          0 0 0 0 0 0
          0 0 0 0 0 0
          0 0 0 0 0 0
          0 0 0 0 0 0
          0 0 0 0 0 0
          0 0 0 0 0 0
          0 0 0 0 0 0
          0 0 0 0 0 0
          0 0 0 0 0 0
          0 0 0 0 0 0
          0 0 0 0 0 0
          0 0 0 0 0 0
          0 0 0 0 0 0
          0 0 0 0 0 0
        </DataArray>
        <DataArray type="Float64" Name="stress_zz" format="ascii" RangeMin="-7925842.59033044" RangeMax="7399510.996412343">
          4650549.597929649 7399510.996412343 4607915.76745247 7039118.697237737 4565281.936975293 6678726.39806313
          -1505141.7311102874 -4941312.706016175 -1405476.7082593483 -4746400.154778071 -1305811.6854084097 -4551487.603539968
          3171910.492346157 3397610.9950306127 3264019.8647714495 3696800.663260319 3356129.2371967416 3995990.331490024
          448572.86040403467 532882.1121787807 404132.6584344226 446168.69322252687 359692.4564648105 359455.2742662729
          -2209603.1036108714 -1860085.885535583 -2052563.8939406807 -1693011.2844887811 -1895524.6842704895 -1525936.6834419793
          -1803713.7097245993 -1655630.3664742613 -1967040.9922650773 -1808157.5482949126 -2130368.2748055556 -1960684.730115564
          1148299.1756608356 55579.07472307439 693861.9927821379 -456720.6111699337 239424.80990343983 -969020.2970629418
          -1936366.6301889718 -1968653.1508916817 -917769.5263308658 -1539012.5288380445 100827.57752724027 -1109371.9067844073
          1845287.36125612 1913647.3656220392 1982007.3699879583 2345072.5754123568 2316844.440467194 2288616.305522031
          2063963.4078057474 1929860.7466384373 1795758.0854711272 -505922.0991597649 -564443.6843271103 -622965.2694944555
          -2534127.717810756 -2390756.4650955647 -2247385.212380374 -1961994.4160647863 -2109081.533949231 -2256168.651833675
          1138447.3628489713 776871.4307256576 415295.4986023439 324474.3393277846 1108978.5405051294 1893482.7416824745
          1357947.2842351987 1253772.2580772454 1149597.231919292 2050791.7469198918 1968963.7229334826 1887135.6989470734
          480902.13476941496 365995.1524458489 251088.1701222831 -1517073.611800554 -1595824.234006307 -1674574.8562120604
          -2404535.595387902 -2281337.785075301 -2158139.9747626996 -2062977.799514105 -2181157.693897519 -2299337.588280932
          365823.14520355314 39326.89056995092 -287169.3640636513 3216926.874803641 3193331.6230391 3169736.3712745598
          614574.5026266432 530211.8578392918 445849.21305194043 263721.37744976394 175867.7788240204 88014.18019827682
          -927179.9433823574 -991135.6844628493 -1055091.425543341 -1403537.2876269156 -1470155.086262117 -1536772.8848973182
          -2112018.350187586 -2025380.5511510016 -1938742.752114417 -1712731.4090949064 -1865211.8181451529 -2017692.2271953984
          1244194.3201231689 1000908.5637947333 757622.8074662976 3083076.8646363295 3373699.1531591155 3664321.4416819005
          -68959.94766592127 -128028.65417678954 -187097.36068765778 -1273674.6764761792 -1277192.41093876 -1280710.145401341
          -1660900.9897819795 -1691980.6670788634 -1723060.3443757473 -1268990.7383499336 -1360457.9437464995 -1451925.149143065
          -1822270.8093331882 -1755606.1202726816 -1688941.4312121754 -973254.9775328924 -1172332.1049016234 -1371409.2322703544
          1577940.3058422233 1421254.4599745418 1264568.6141068602 2298074.934538029 2801417.972314617 3304761.0100912056
          -778314.9899811742 -780074.3848991047 -781833.7798170352 -1613285.3002933033 -1552481.1666715844 -1491677.0330498654
          -1502202.0941128884 -1508857.0866626997 -1515512.0792125105 -1504829.421202039 -1557095.3932317928 -1609361.3652615466
          -1624536.1164355096 -1554183.9790024222 -1483831.8415693347 -509258.7564293267 -722949.5181014703 -936640.279773614
          1312893.505446535 1184867.6480351328 1056841.7906237307 2245540.9887426216 2677269.4977024808 3108998.00666234
          -312680.9549724998 -369201.47778626153 -425722.0006000233 -1061239.091105498 -1021447.7654046903 -981656.4397038827
          -951694.8797505458 -919489.5143515161 -887284.1489524868 -1175652.59311068 -1195902.8019633484 -1216153.0108160167
          -1629118.098467085 -1635843.1265572822 -1642568.1546474793 -1340126.6750204735 -1266858.0774682811 -1193589.4799160885
          -31934.391060334572 -246260.61585623174 -460586.8406521289 1468663.5513917534 1388111.465547589 1307559.3797034244
          1965449.2763124248 2417262.3552549463 2869075.4341974673 -255017.97655789356 -326120.0674183498 -397222.158278806
          -796451.0662310949 -714131.1791322255 -631811.2920333559 -504022.151846487 -496569.21755912964 -489116.2832717721
          -1222348.2116439594 -1275960.8189805332 -1329573.4263171072 -1684422.2611049493 -1687274.70694369 -1690127.1527824309
          -930151.339028155 -862274.2464011209 -794397.1537740869 626154.671286047 426662.4039862808 227170.13668651474
          2024194.1031050533 1977649.7954676382 1931105.487830223 2126508.168324322 2558944.5358325336 2991380.903340745
          -539286.9314335502 -597894.3054890475 -656501.679544545 -998436.9341759519 -922687.6589773204 -846938.3837786886
          -1309208.4123410182 -1304449.8057418063 -1299691.1991425944 -1804867.8178433117 -1846315.50919481 -1887763.2005463082
          -1556641.815492819 -1546684.2927308525 -1536726.7699688852 -402466.0073444679 -358248.0739126663 -314030.1404808646
          1275221.8850335819 1065600.6501419903 855979.415250399 2855899.783636154 2785225.7611271506 2714551.7386181476
          3235026.637467495 3595374.8873417946 3955723.137216094 -1565314.9932210513 -1641185.9176530992 -1717056.8420851468
          -2229750.3450176483 -2178001.138711144 -2126251.932404641 -2579660.81529704 -2550171.511991063 -2520682.208685085
          -2171152.9312945725 -2159481.932196495 -2147810.9330984177 -985850.2583002667 -971468.212255277 -957086.166210287
          422893.019545348 429053.16454214125 435213.3095389346 1950908.562817321 1777333.4881119598 1603758.413406599
          3471144.582378558 3420708.7437447594 3370272.90511096 4195638.474962202 4410784.318763579 4625930.1625649575
          -2545242.3821997573 -2608382.6833715895 -2671522.9845434213 -3490251.6120989593 -3399269.960062073 -3308288.3080251873
          -3060608.860441083 -3011129.2923314176 -2961649.724221752 -1765907.4992035115 -1740020.2239798026 -1714132.9487560934
          -100948.6199168727 -105061.87742029777 -109175.13492372283 1377887.0130769545 1365378.0562112075 1352869.09934546
          2616690.883588011 2531677.80200121 2446664.7204144094 3033952.1425612117 3032785.9848668477 3031619.827172484
          4109315.2936003013 4280258.027584041 4451200.76156778 -3428266.139688509 -3421425.2466323096 -3414584.35357611
          -4020407.770163629 -3855728.7043487956 -3691049.638533962 -2468400.3795239744 -2469416.908643556 -2470433.437763137
          -883591.0752676558 -891906.5237334546 -900221.9721992537 864606.1537201703 853370.4109641252 842134.6682080801
          2141912.04507005 2127057.433838555 2112202.8226070604 2913782.985763651 2845370.8829794577 2776958.780195264
          3109525.30501275 3053839.0849448894 2998152.8648770284 4240329.515912442 4413952.395381264 4587575.274850087
          -4550617.857845572 -4546182.068576102 -4541746.279306633 -4202810.777597753 -4030657.0336794816 -3858503.289761208
          -1578907.4256365031 -1649816.5594701422 -1720725.6933037813 202720.59759340357 163697.2012562163 124673.80491902906
          1830276.5840763724 1815516.7220900662 1800756.86010376 2826563.235899426 2806024.975058949 2785486.714218472
          3242694.7301491993 3187514.4857418193 3132334.2413344393 3609573.450244482 3558750.9314413723 3507928.4126382614
          2823427.6948574632 2903022.304521679 2982616.9141858947 -5794345.854976021 -5820546.124107928 -5846746.393239835
          -4034935.065606108 -3872532.055881908 -3710129.0461577084 -768018.8729248022 -858233.898388359 -948448.9238519159
          1358201.955971446 1309215.253971626 1260228.5519718062 2774087.004493864 2748685.231637804 2723283.4587817434
          3557925.328501342 3535353.679534243 3512782.030567144 3814418.9959039832 3791421.0290406626 3768423.0621773414
          3403512.205948271 3372797.1378980945 3342082.069847918 2843928.381794053 2864486.215408253 2885044.0490224524
          -3087029.203734851 -2872863.5344738234 -2658697.8652127953 472341.51622068515 365507.3797447923 258673.2432688995
          2487453.565424224 2434663.6181772714 2381873.670930319 3578778.4080374828 3549353.916493836 3519929.4249501885
          4130075.332211837 4097500.7080019126 4064926.083791988 4265900.248828683 4251933.694583735 4237967.140338787
          3720433.1341874725 3731764.584042173 3743096.0338968737 1772286.858882273 1888506.0585519166 2004725.2582215604
          -1584273.5307777384 -1299748.174330827 -1015222.817883916 2124372.7394351396 1967757.322617818 1811141.905800496
          3620956.6185065927 3567958.3867324265 3514960.1549582607 4273393.5008903155 4251048.948643043 4228704.396395771
          4400055.034853555 4354833.21565778 4309611.396462003 4096323.123793504 4078829.080991569 4061335.0381896337
          3434718.9192664027 3495658.886637127 3556598.8540078523 1971543.0889613172 2149600.865209879 2327658.6414584406
          -19496.94684782508 389613.84603818296 798724.638924191 3713496.0354899783 3520318.9150243606 3327141.794558743
          4725926.5404131245 4667281.745664919 4608636.950916711 4929746.077929998 4908948.168008582 4888150.258087166
          4556276.052829853 4511390.633599293 4466505.2143687345 3258007.898532935 3302584.2835164876 3347160.668500039
          1221815.498610028 1327587.0437099398 1433358.588809851 362381.2308841412 234444.1154337867 106506.99998343224
          1274545.1895972495 1882924.5966697393 2491304.003742229 4988813.452435297 4763186.598203004 4537559.743970712
          5618139.301941068 5551857.630831562 5485575.959722059 5396977.313264221 5377527.692182207 5358078.071100194
          4454431.894966258 4410882.5880534705 4367333.281140683 2275836.610404559 2437491.0066879005 2599145.4029712426
          -1327009.11383333 -1086315.1460721497 -845621.1783109689 -3515350.977414103 -3921129.0038413615 -4326907.030268621
          5803595.293164549 5575494.086867799 5347392.880571051 6422261.894486148 6312729.755971351 6203197.617456554
          5412207.323239798 5382663.528527436 5353119.733815073 3721814.637041551 3680504.1549264174 3639193.672811283
          1069675.1297392384 1270969.379276805 1472263.6288143718 -2357820.1852583634 -2192139.1871550316 -2026458.1890517003
          -2736793.670275773 -3373305.4116496383 -4009817.1530235047 6578278.931998486 6455689.442262514 6333099.952526541
          7145192.269781569 6950851.055017104 6756509.84025264 4828578.656547344 4756269.341166181 4683960.025785018
          2596689.384501204 2565234.310396011 2533779.236290818 10540.865724232863 232764.26811174495 454987.67049925704
          -2191948.896316043 -2198257.605293731 -2204566.31427142 -1706760.2674671316 -2381544.8253305433 -3056329.383193955
          6732145.470120315 6659144.107649405 6586142.745178495 6683036.888633633 6461906.262081983 6240775.635530333
          3851938.5824517296 3769312.768551559 3686686.9546513883 1479466.652633442 1458055.027968301 1436643.4033031599
          -880373.176158997 -618485.8543435847 -356598.53252817254 -2661360.917219114 -2724363.80955239 -2787366.7018856667
          6318436.299331835 6178945.208556212 6039454.117780589 5046492.753322966 4853875.895531017 4661259.03773907
          2455990.8339614314 2405973.5829204936 2355956.3318795566 94574.30887971874 72953.27247122172 51332.23606272467
          -2247516.829234012 -1991752.66168066 -1735988.4941273083 2193713.0946927834 1287519.1954552196 2558837.1838749815
          2330136.4901484414 1993627.4741866973 1251533.9757758281 2592667.070672678 2155451.489793004 1793541.8536806107
          1215548.7560964369 2626496.957470374 1980766.4894375678 -578421.4319463905 -831253.9918220236 1950282.2765190033
          659693.0891875067 -1000644.7797049779 -1220131.3773119678 1866575.080455531 603941.7642452638 -1422868.1274635652
          -1609008.7628019117 1782867.8843920575 548190.439303021 1333120.034242263 -1591943.9469744526 -2809534.933920299
          1683064.9007837144 -1569106.8945005669 -3449858.572332792 2033009.7673251661 -1546269.8420266812 -4090182.2107452857
          4382163.335731965 5112454.495974935 5842745.656217904 2313385.0714551248 4658470.248829252 2541084.3424225687
          3439883.3485993515 2335661.284949202 4828722.277589264 2374260.072560835 3201491.371410904 2357937.49844328
          4998974.3063492775 2207435.8026991016 2963099.394222456 554214.8454829999 1300901.0019085715 223125.08715226123
          1289944.7830142267 -107964.67117847747 1278988.5641198817 3594081.714528307 3703577.989895503 458285.33446898166
          3719698.215856469 4031864.3847677647 669485.2841356089 3845314.7171846307 4360150.779640026 880685.2338022364
          1663489.2365202336 -919762.1869721897 1650525.6840318535 -1211817.1200476082 1637562.1315434729 -1503872.053123027
          -196679.676238174 -899559.6480293317 -491185.4051062001 -804454.7023651905 -785691.133974226 -709349.7567010492
          240141.0735846893 155728.6593335113 71316.24508233333 3079899.3734641736 3526004.707976074 2941935.743808273
          3698532.0999717633 2803972.114152373 3871059.491967452 -1711549.5830714758 -2540382.5809402354 -1876953.1089316467
          -3128727.5343505493 -2042356.6347918177 -3717072.4877608623 4745494.573324918 1098150.0907402765 4984015.325259056
          1115407.2895665907 5222536.077193194 1132664.488392905 3390351.34037414 1675597.0198562373 3252456.6081045563
          1635926.1255375943 3114561.8758349735 1596255.2312189518 591516.5721448374 801426.5915054608 1011336.6108660845
          1949448.9568138397 -130334.06490619178 2417194.8823131183 685637.0067031872 2884940.8078123964 1501608.0783125665
          1131724.92479165 786436.9308047848 441148.9368179192 -2809229.9297024095 -2075512.9557319637 -1341795.981761517
          -2788022.7396194376 -3667604.9907061853 -4547187.241792934 -7925842.59033044 -6332654.3826486105 -4739466.174966785
          -2476361.1546664913 -2754932.7154376716 -3033504.276208852 -4211783.670905151 -3666603.7913034316 -3121423.911701712
          -2324943.408148913 -1611553.92008458 -898164.432020248 -3153329.9059323412 -3658701.3831414566 -4164072.8603505706
          -4151201.376791762 -4253606.651912447 -4356011.927033132 -4654040.405330733 -5146375.866715717 -5638711.328100702
          3234416.2738219616 5720138.033362323 3047839.171871177 5582794.529531291 2861262.0699203922 5445451.025700258
          375998.4746946156 330592.18688453664 285185.8990744578 -1923687.0792500824 -1954147.0627279524 -1984607.0462058224
          -3926221.518989085 -3710144.430910442 -3494067.3428317998 -5137925.982901182 -5243282.30299724 -5348638.623093299
          -1148460.9499998514 -654214.6418317877 -159968.33366372398 48478.24427313125 337945.60459798074 627412.9649228305
          1088594.4102221979 3879528.3119581095 810149.1069451742 3809222.6179319234 531703.8036681502 3738916.9239057377
          -995498.3161483174 -3410520.2633659504 -1071198.8513167659 -3476885.259856092 -1146899.3864852143 -3543250.2563462323
          -412791.8943186343 -895936.1691050807 -365734.73543377785 -918798.8004483932 -318677.5765489214 -941661.4317917057
          -929819.9223329446 -941996.9783006853 -954174.0342684258 -4374521.450414877 -4341497.114852599 -4308472.7792903185
          102226.94614044594 94625.3535761052 -62479.97986271343 -76084.98618954554 -227186.9058658728 -246795.32595519623
          2212275.361359666 2286136.9185414417 2359998.4757232172 1787207.7780646347 3613840.342632648 1810733.0132798508
          3817796.9383165394 1834258.2484950668 4021753.5340004307 -2209478.7396346526 -1799073.5536052687 -1388668.3675758848
          -2579260.594966747 -2565561.5222194768 -2551862.4494722066 -2876141.019958295 -3333081.9431980536 -2772279.5063830055
          -3840648.251951915 -2668417.9928077157 -4348214.560705778 -3163078.8565917136 -3373724.42433222 -3584369.992072727
          -5623039.344603566 -6117824.925296681 -6612610.505989796 -2311569.660871509 -1947794.7653754605 -1584019.8698794115
        </DataArray>
        <DataArray type="Float64" Name="peeq" format="ascii" RangeMin="0" RangeMax="0.010197993995726169">
          0.0001234358915983739 0.00022355156029207475 0.00013181397642727927 0.0002435824065637346 0.00014019206125618464 0.0002636132528353945
          0.000014300259312342742 0.000020173053677784526 0.000013401349444641805 0.000019518058780473997 0.000012502439576940867 0.000018863063883163467
          0.0000034051292375014044 0.000006810258475002809 0.0000017025646187507022 0.0000034051292375014044 0 0
          0.000008708257859391952 0 0.000009913086594330298 1.418778485873658e-7 0.000011117915329268646 2.837556971747316e-7
          0.0001249004011609623 0.00009109613316940805 0.0001283047874894697 0.00009350890853625847 0.00013170917381797706 0.0000959216839031089
          0.0004518465992098838 0.0003960293588028954 0.0004547761018689441 0.0003991942056117675 0.00045770560452800435 0.0004023590524206396
          0.0009697755560047964 0.0009191661646616484 0.0009768321408429276 0.0009269384940889811 0.0009838887256810591 0.0009347108235163137
          0.0016384406952622832 0.0016389086792495426 0.0016582791144964671 0.001657723118793557 0.001678117533730651 0.0016765375583375716
          0.000011660111452336526 0.00001002277314541196 0.000008385434838487394 0.000004213732473450481 0.000003642320054404807 0.0000030709076353591326
          8.641411028445973e-7 0.0000012006676134209529 0.0000015371941239973083 0.00004384998903317165 0.000046415513824984075 0.0000489810386167965
          0.00022581644912371952 0.00023007648922313795 0.00023433652932255635 0.0006034533592011593 0.000606179777546758 0.0006089061958923568
          0.0011471360848031684 0.0011533388828800688 0.001159541680956969 0.001814991221932112 0.0018343108554387663 0.0018536304889454206
          0 0 0 0 0 0
          0.000015497176852663096 0.000016643417789542094 0.000017789658726421092 0.00012055354087974295 0.00012385537123036323 0.00012715720158098354
          0.00038589910729328524 0.00038990774692291625 0.00039391638655254726 0.0008319098199048518 0.0008345767183613827 0.0008372436168179136
          0.0014405144356760579 0.0014461087972808292 0.0014517031588856006 0.0021409362897293082 0.0021575266425941926 0.0021741169954590774
          0 0 0 0.0000020533270263707106 0.000002489644339011611 0.0000029259616516525113
          0.00005845607019989411 0.00006047468959371824 0.00006249330898754237 0.00024756631895289855 0.00025125157516482405 0.0002549368313767496
          0.000600771305959718 0.0006044520267085239 0.00060813274745733 0.0011275491184040659 0.0011296384005804701 0.0011317276827568744
          0.00179061730760066 0.0017955123740837407 0.0018004074405668213 0.00248874175878922 0.0025035969196717405 0.002518452080554261
          1.4527086632472435e-8 1.281044332125053e-7 2.4168177979253816e-7 0.000022255150372180368 0.000023690161646054776 0.000025125172919929173
          0.0001453407254280845 0.0001483634651634264 0.0001513862048987683 0.0004252064132591745 0.00042902599982134993 0.00043284558638352535
          0.0008696490198217031 0.0008729154421319139 0.0008761818644421247 0.0014788750458113145 0.0014801107857565336 0.0014813465257017522
          0.00219345787175928 0.002198217266292637 0.0022029766608259935 0.0029454618385384755 0.0029587522401856164 0.002972042641832757
          0.000010601557346421918 0.000011388020555457364 0.000012174483764492809 0.00008469914825877448 0.00008735575258567393 0.0000900123569125734
          0.0002898918136132281 0.00029375909465547556 0.000297626375697723 0.0006561092701973399 0.0006602968701565164 0.0006644844701156929
          0.0011945412631970142 0.0011974340773054308 0.0012003268914138469 0.001887522948248241 0.0018881168456578367 0.0018887107430674325
          0.0026661883105713064 0.002670790345832951 0.0026753923810945955 0.003483334135264848 0.003494144208840548 0.003504954282416247
          0.000004040291724829262 0.000004522064276729233 0.000005003836828629204 0.00005136214652625479 0.00005331866962682341 0.00005527519272739203
          0.00020043469946101413 0.0002039786892383985 0.00020752267901578286 0.0004891591344278047 0.0004934792609265584 0.0004977993874253119
          0.0009489111764053751 0.0009531798118191493 0.0009574484472329233 0.0015882141074754477 0.0015904750604506337 0.00159273601342582
          0.002364496829449595 0.0023643769946761588 0.0023642571599027224 0.0031988023488489217 0.003202585684413248 0.003206369019977574
          0.004048211187345218 0.004056303407859004 0.00406439562837279 0.000023327239027828735 0.000024588099834329316 0.000025848960640829898
          0.0001292253731830157 0.00013229585684322202 0.0001353663405034284 0.0003590742124055875 0.00036316312470058233 0.00036725203699557716
          0.0007395283281905266 0.0007441832939406692 0.0007488382596908116 0.001309359784336136 0.0013133209457434193 0.0013172821071507023
          0.0020574668924971257 0.0020587369725371266 0.002060007052577127 0.002912223152684696 0.002911019513266801 0.002909815873848906
          0.0037795670653316318 0.0037819093324775125 0.003784251599623394 0.004614726843471195 0.004620365544535232 0.00462600424559927
          0.00006378356314299691 0.00006590553519907652 0.00006802750725515612 0.00023675721000043185 0.00024074855714440577 0.00024473990428837975
          0.000552482668458465 0.0005572901057884114 0.0005620975431183579 0.001048040027010698 0.0010527878995802921 0.0010575357721498866
          0.001744027752667764 0.0017473737575217031 0.0017507197623756422 0.002598330872886701 0.00259846184592947 0.002598592818972239
          0.0035184615872486304 0.003515966559384112 0.0035134715315195937 0.004393948439908783 0.004394441457109669 0.004394934474310557
          0.005166798659020963 0.005170082263649126 0.005173365868277289 0.0001321511386216297 0.00013552662598446589 0.0001389021133473021
          0.0003731647785596971 0.0003782022698666019 0.0003832397611735066 0.0007953960938150885 0.0008008954699248243 0.0008063948460345603
          0.0014301164223859536 0.0014345701522874206 0.0014390238821888868 0.0022577339178871093 0.0022599274538143105 0.002262120989741512
          0.0032012331240086713 0.0031999349214734667 0.0031986367189382613 0.004155833077966634 0.004152025077444333 0.004148217076922031
          0.0050109271980193345 0.005009472033811055 0.005008016869602774 0.0057058838289011145 0.005706643882791705 0.005707403936682296
          0.00023310141642196895 0.0002378535564571049 0.0002426056964922409 0.0005549027023232373 0.0005612610878742186 0.0005676194734251997
          0.0011111918715026221 0.0011169755815722193 0.0011227592916418165 0.0018973340221904206 0.001900845879818577 0.0019043577374467326
          0.002846810235223379 0.0028473119796464355 0.0028478137240694913 0.003854584132074714 0.003851673571787432 0.0038487630115001496
          0.00481010791672273 0.0048050291289754585 0.004799950341228187 0.0056246284555771684 0.005621193702527734 0.005617758949478299
          0.006368856270920491 0.006366937553047572 0.0063650188351746535 0.0003670031389933133 0.0003732453381600486 0.00037948753732678384
          0.0007978902178738983 0.0008054594368475539 0.0008130286558212094 0.001514553686642418 0.0015199115631434582 0.0015252694396444984
          0.002451901701200054 0.0024537705734055805 0.0024556394456111065 0.0035023011391216523 0.0035008555926871023 0.0034994100462525514
          0.004546199474495998 0.004541795988135979 0.00453739250177596 0.005479468186076295 0.005473338545842248 0.005467208905608199
          0.006229610338416712 0.006224552030987006 0.006219493723557301 0.006767072749036637 0.006764144006106731 0.006761215263176824
          0.0005521310161361825 0.0005598386465335797 0.000567546276930977 0.0011231412532625418 0.001131390167927876 0.0011396390825932103
          0.0020116681355209216 0.0020159026825323986 0.002020137229543876 0.0030893259368974134 0.003089088537293512 0.0030888511376896107
          0.004213146964234461 0.0042096332196318795 0.004206119475029298 0.005258896792648994 0.0052530673363102645 0.005247237879971535
          0.006133775818478148 0.006126848373101919 0.006119920927725691 0.006775918482723728 0.006769797918346291 0.006763677353968852
          0.007158282722284078 0.007153556346094325 0.007148829969904574 0.0008147271654547212 0.0008230145591138101 0.0008313019527728991
          0.0015581665208944501 0.001565931541357814 0.0015736965618211776 0.0026113033355384466 0.0026138237162579596 0.002616344096977473
          0.003801720960584032 0.0037991547487864754 0.0037965885369889182 0.004961741728713569 0.004956166383324175 0.004950591037934782
          0.005966826369917728 0.0059596457505837865 0.005952465131249846 0.006735334323409588 0.006727844352536494 0.006720354381663399
          0.007226944994221219 0.007220279245390483 0.0072136134965597445 0.007440755978337479 0.007434549979952316 0.007428343981567153
          0.002118373942501974 0.0021244751651780204 0.0021305763878540665 0.0033195178240420877 0.003319731029137361 0.0033199442342326337
          0.004577167235412078 0.004572226798668615 0.004567286361925153 0.005720999384481005 0.005713676942631167 0.005706354500781326
          0.0066387057336269 0.006630502828233257 0.006622299922839614 0.007262561703427822 0.0072546967313231485 0.007246831759218474
          0.0075682992527886395 0.007561626361231025 0.007554953469673411 0.007591530951016059 0.007584879011230496 0.007578227071444935
          0.0028152439498202357 0.0028190904106537846 0.0028229368714873335 0.004129119728201493 0.004126774736506877 0.004124429744812263
          0.005396314509425982 0.005389057099307891 0.0053817996891898 0.006461405652239191 0.006452721031597481 0.006444036410955771
          0.007239428257536808 0.007230889028641401 0.007222349799745994 0.007690236067482672 0.0076828848724235935 0.007675533677364513
          0.007814314968775935 0.007807898800658596 0.007801482632541257 0.007659161114573704 0.0076516668423551575 0.007644172570136613
          0.003654784400306985 0.0036561300631556045 0.003657475726004224 0.005019998143947345 0.005015491715540419 0.005010985287133493
          0.0062331174852249555 0.006223821833119581 0.006214526181014207 0.0071589263077767185 0.0071491496827233575 0.0071393730576699965
          0.007744053721661793 0.007735840100424071 0.007727626479186347 0.007989221688882305 0.007983622117118764 0.007978022545355224
          0.007952228897083106 0.007946357621147681 0.007940486345212255 0.007711846017243512 0.007701589840853928 0.007691333664464346
          0.004629367890324757 0.0046285797759357435 0.00462779166154673 0.0059652611034741974 0.0059596161173096785 0.00595397113114516
          0.007058308505403062 0.007047558557991043 0.007036808610579023 0.007793046048020358 0.00778257239210611 0.007772098736191864
          0.008145401012493163 0.008137948052330111 0.00813049509216706 0.008156207153884255 0.00815257457949565 0.008148942005107046
          0.00793998892046958 0.007934372189979859 0.00792875545949014 0.007624048906260736 0.007609932618194328 0.00759581633012792
          0.006932094377528895 0.0069266637457169305 0.006921233113904967 0.007842921673184266 0.007831512116937611 0.007820102560690954
          0.008338733879717456 0.008328142680918825 0.008317551482120192 0.008426972076074958 0.008420776373479317 0.008414580670883675
          0.008186357116813788 0.008184233626085162 0.008182110135356534 0.0077503914664399385 0.0077441598539347055 0.007737928241429473
          0.007207254107035122 0.0071925421632639186 0.007177830219492715 0.007888881101348815 0.007884516361381565 0.007880151621414318
          0.008550749612446793 0.008539447217479533 0.008528144822512275 0.008753538588697051 0.008743509151391465 0.008733479714085881
          0.008539974093036971 0.008535316664516825 0.008530659235996678 0.00801849792316953 0.00801731083656448 0.008016123749959433
          0.00731799735250422 0.007311487640245456 0.00730497792798669 0.006493180248760802 0.006482743053033223 0.0064723058573056425
          0.008806782366650792 0.00880368322470804 0.00880058408276529 0.009127707015579124 0.009117331632091885 0.009106956248604643
          0.008973672987325508 0.00896494427641261 0.008956215565499713 0.008417096011959588 0.008414055327194412 0.008411014642429234
          0.007586157068987611 0.007586189560158611 0.007586222051329611 0.0066267147218115625 0.006621984158596094 0.006617253595380625
          0.009615386785264808 0.009613470106399472 0.009611553427534138 0.009505167150645241 0.009496656886361537 0.00948814662207783
          0.008934172376237953 0.00892757212352007 0.008920971870802185 0.008009113698850379 0.00800820976592221 0.008007305832994041
          0.006885783068491641 0.006888258108052783 0.0068907331476139285 0.006942155956041018 0.00742247791605271 0.0074093429881029295
          0.007193957326341803 0.00693721318467123 0.007413658848069716 0.007401549478154563 0.007185782034654402 0.006932270413301441
          0.007404839780086723 0.0073937559682061985 0.007177606742967 0.006140554957247575 0.006427665345478018 0.0058442890807691595
          0.005415741727857478 0.006130526302021094 0.006417358564019947 0.005840800779257568 0.005413358474896017 0.0061204976467946134
          0.006407051782561877 0.0058373124777459755 0.005410975221934556 0.005935949745524566 0.005574919549785505 0.006577377604987283
          0.005940773530337715 0.005576846891695424 0.006567905805360397 0.005945597315150865 0.005578774233605346 0.0065584340057335145
          0.005528447528693953 0.005538771436912289 0.005549095345130625 0.007316864331961078 0.007115196647672212 0.0072806127869997775
          0.007288989751877554 0.007310096464560795 0.0071098582056919445 0.007270211045450121 0.00727935789403094 0.007303328597160511
          0.007104519763711677 0.0072598093039004654 0.007269726036184325 0.005671683003186224 0.004890307670844194 0.005663286727763192
          0.004890815922248123 0.0056548904523401585 0.00489132417365205 0.006618846113914629 0.005944794931715893 0.005984911303767581
          0.006618367543586225 0.005948345903258665 0.0059892765190231664 0.00661788897325782 0.005951896874801438 0.00599364173427875
          0.004313017389713327 0.005130633044792709 0.0043180834822645325 0.005124988455013961 0.004323149574815738 0.0051193438652352135
          0.00702152186505899 0.006115577077107663 0.007013188837472197 0.006118734666399661 0.0070048558098854035 0.00612189225569166
          0.006888247369406027 0.00687814011079373 0.006868032852181431 0.006795342633765493 0.0060903421878387995 0.006792991257347035
          0.00609434856277848 0.006790639880928576 0.006098354937718162 0.007330141137021458 0.006985608074307908 0.0073209321174880085
          0.006979183837000201 0.00731172309795456 0.006972759599692491 0.0069242847870894615 0.0070720074263515955 0.006919924524413037
          0.007063569842514258 0.006915564261736614 0.007055132258676921 0.006236167253680828 0.006673829928912739 0.006231556901133258
          0.006667614854148829 0.00622694654858569 0.006661399779384919 0.003733910016270408 0.003745173979632638 0.0037564379429948684
          0.0028780255851285175 0.003183986521844267 0.0028977602635346426 0.003201391580345972 0.0029174949419407663 0.0032187966388476773
          0.006548196244272923 0.006538021462725976 0.00652784668117903 0.0027214793499836295 0.00274138307688585 0.0027612868037880703
          0.0072557673500257824 0.007239245793548007 0.007222724237070231 0.0024219166324775487 0.002443448606133869 0.00246498057979019
          0.004588644341195222 0.004586858224442628 0.004585072107690035 0.004008523626728141 0.004012320038936037 0.004016116451143934
          0.0035581035019574448 0.0035673657615187316 0.0035766280210800185 0.00563117118159425 0.005626304412745558 0.005621437643896864
          0.005750018899162693 0.005748900943973619 0.0057477829887845455 0.0047321746135253265 0.004731916390263238 0.004731658167001148
          0.00960154692454285 0.010197993995726169 0.009595711966039536 0.010197086161943425 0.009589877007536222 0.010196178328160683
          0.00858159945952931 0.008578251408358006 0.008574903357186702 0.0073052891884284234 0.0073075827658972345 0.0073098763433660455
          0.005970599957360618 0.00597622601349876 0.0059818520696369015 0.004782851880751738 0.004785425268970438 0.004787998657189138
          0.004620487671166565 0.004632485490324222 0.004644483309481877 0.004678068745182266 0.004687425125483369 0.0046967815057844696
          0.007282020492085088 0.006996913774485203 0.007272387675299687 0.006993936524776906 0.007262754858514284 0.006990959275068609
          0.004956227595039957 0.004938649480538113 0.004961356192096035 0.004944065402246452 0.004966484789152115 0.004949481323954792
          0.006740993713988378 0.007030281435433046 0.00673456018387255 0.0070227950673347975 0.0067281266537567224 0.0070153086992365485
          0.00638939798036 0.006382416649710378 0.006375435319060753 0.004882552721938778 0.00488928874373539 0.004896024765532004
          0.007220289351003021 0.007355439091115466 0.007209876645869409 0.007348983481310973 0.007199463940735798 0.007342527871506479
          0.005166056875703855 0.005172252679500271 0.005178448483296687 0.005583475330009018 0.0063180408699207435 0.005588085828192578
          0.006323676495023147 0.00559269632637614 0.006329312120125549 0.004674858251416809 0.004683021552748341 0.004691184854079872
          0.005997077276477693 0.0059888785710904505 0.005980679865703208 0.0033362996450689943 0.00417624788901902 0.003344768744595949
          0.004175920973728155 0.0033532378441229033 0.00417559405843729 0.005608268607281869 0.005598156500417065 0.005588044393552263
          0.005121072285520686 0.005111232816789415 0.005101393348058145 0.0038946395024356865 0.003908543812454655 0.0039224481224736235
        </DataArray>
        <DataArray type="Float64" Name="pe11" format="ascii" RangeMin="0" RangeMax="0.010188378759976515">
          0.00012267279655864453 0.0002220551811141324 0.00013066820649560167 0.00024131335508777602 0.00013866361643255878 0.00026057152906141964
          0.000014236368693016295 0.000020055350987349384 0.000013288852888356521 0.000019301722321068498 0.00001234133708369675 0.000018548093654787612
          0.0000034008737854175013 0.0000068017475708350025 0.0000017004368927087506 0.0000034008737854175013 0 0
          0.00000870396077016513 0 0.000009908649866409293 1.4186944655556705e-7 0.000011113338962653454 2.837388931111341e-7
          0.00012484452560172944 0.000091073315963053 0.00012824860920212193 0.0000934837990248697 0.00013165269280251442 0.0000958942820866864
          0.0004516248608624436 0.00039589423863310377 0.000454547350063116 0.0003990452934124062 0.00045746983926378846 0.0004021963481917087
          0.0009692015231312553 0.0009186388093175678 0.0009762461465192702 0.0009264027676823222 0.000983290769907285 0.0009341667260470769
          0.0016368582941039414 0.0016371936379436102 0.0016565669804860812 0.0016558094049517252 0.0016762756668682209 0.0016744251719598405
          0.000011645206001578346 0.00001001152895171365 0.000008377851901848953 0.000004208693199341603 0.0000036379917278222732 0.0000030672902563029435
          8.639508731115668e-7 0.0000012004174115612776 0.0000015368839500109886 0.00004381886564110337 0.00004638631999918727 0.00004895377435727118
          0.00022563965078634557 0.0002299081394094115 0.00023417662803247737 0.0006029317281498086 0.0006056691900073883 0.000608406651864968
          0.0011461032822160497 0.0011523120213699678 0.0011585207605238853 0.001813416931754715 0.0018326850039153582 0.0018519530760760016
          0 0 0 0 0 0
          0.000015490207785429964 0.000016636976070636183 0.0000177837443558424 0.00012045983842349844 0.0001237690530913331 0.00012707826775916774
          0.00038549737539234953 0.0003895273939673749 0.0003935574125424004 0.0008308791699821046 0.0008335739236361204 0.0008362686772901359
          0.0014385767396911534 0.001444195983769606 0.0014498152278480587 0.002138397763584231 0.0021549388821205857 0.002171480000656941
          0 0 0 0.0000020531880262344503 0.0000024894754544529205 0.0000029257628826713908
          0.00005842909247690951 0.00006044948368758662 0.00006246987489826374 0.00024735946831126265 0.00025105681561267835 0.00025475416291409405
          0.0006000141455329446 0.0006037259752596453 0.000607437804986346 0.0011257642084711277 0.0011278904429076271 0.0011300166773441263
          0.0017874857730989968 0.0017924068912889405 0.0017973280094788838 0.002484775648179663 0.002499611779015367 0.0025144479098510707
          1.4527043636209756e-8 1.280997410156435e-7 2.4167243839507726e-7 0.000022248732123445643 0.000023683698711001085 0.000025118665298556527
          0.00014525769526550563 0.00014828277959132746 0.0001513078639171493 0.00042478048284619996 0.0004286123259098764 0.0004324441689735528
          0.0008683251163778966 0.0008716252887245395 0.0008749254610711825 0.0014760427030352987 0.0014773211968821145 0.0014785996907289304
          0.0021889788154741026 0.0021937707447617725 0.002198562674049443 0.002940259676752407 0.00295354508459473 0.0029668304924370527
          0.000010599348719880905 0.000011385748565584548 0.000012172148411288194 0.00008466458645281719 0.00008732114866030158 0.00008997771086778596
          0.00028966298879113707 0.00029353330188925986 0.00029740361498738265 0.0006552514374953038 0.000659450184609127 0.0006636489317229501
          0.0011923519754982433 0.0011952764666423041 0.0011982009577863647 0.001883502852171746 0.0018841370735083092 0.0018847712948448722
          0.0026605487838753804 0.002665171571834793 0.0026697943597942062 0.003476904279353134 0.0034876559780227683 0.0034984076766924038
          0.000004039930103176857 0.000004521616982870932 0.000005003303862565007 0.000051348939879639906 0.00005330496724402363 0.00005526099460840735
          0.00020032195758996495 0.0002038654412938301 0.0002074089249976952 0.0004886281578522718 0.0004929519472215947 0.0004972757365909176
          0.0009473018986810278 0.0009515833710303282 0.0009558648433796286 0.0015848338662309985 0.0015871266972063611 0.0015894195281817235
          0.002359299423229398 0.002359208569274565 0.0023591177153197327 0.0031923551624765613 0.003196123038376687 0.0031998909142768135
          0.004041045271381254 0.00404901982077907 0.004056994370176884 0.000023324113738965233 0.000024584509511493652 0.000025844905284022074
          0.0001291803642051282 0.0001322488763272891 0.00013531738844945 0.00035878948703936336 0.00036287582908398807 0.00036696217112861283
          0.0007384441673254188 0.000743101893789632 0.000747759620253845 0.0013066079534652063 0.00131058525450826 0.0013145625555513133
          0.0020526123038433317 0.0020539180741982617 0.002055223844553192 0.002905912501545846 0.0029047284404870146 0.0029035443794281825
          0.003772766977904428 0.0037750568816149795 0.003777346785325532 0.004607713507518593 0.004613180507934311 0.004618647508350028
          0.0000637717673831527 0.00006589168589707503 0.00006801160441099734 0.00023663909989258717 0.00024062443094121345 0.0002446097619898397
          0.0005518491925018657 0.0005566501141196446 0.0005614510357374236 0.0010459960753775046 0.0010507469460796926 0.0010554978167818807
          0.001739691161591366 0.001743055729010772 0.0017464202964301773 0.002591834166788031 0.0025919981945837266 0.0025921622223794225
          0.00351114840421504 0.0035086604682975767 0.003506172532380113 0.004387071729797347 0.004387487369167695 0.004387903008538043
          0.00516038470495622 0.005163463563658566 0.005166542422360912 0.00013211373791776837 0.0001354829486189891 0.0001388521593202098
          0.0003728735082608902 0.00037789642551427775 0.00038291934276766523 0.0007940647917917947 0.0007995529326137252 0.0008050410734356558
          0.0014265228848870022 0.0014309842889658714 0.0014354456930447403 0.002251383168086123 0.0022535981448347903 0.002255813121583458
          0.0031931497212667635 0.0031918686982514615 0.0031905876752361595 0.004147792890760947 0.004143965243877012 0.004140137596993078
          0.005004066584954352 0.005002518142937961 0.005000969700921572 0.005699963664443092 0.0057005104243378225 0.005701057184232552
          0.00023299247662433934 0.00023772936905404113 0.0002424662614837429 0.0005541830315352956 0.0005605149476644475 0.0005668468637935993
          0.0011085237278950866 0.0011142953028335976 0.0011200668777721088 0.0018914691237627026 0.001894996794871124 0.0018985244659795457
          0.002838173282427081 0.002838696382500564 0.002839219482574047 0.0038452139597626436 0.0038423047756790925 0.0038393955915955414
          0.004802081595832508 0.004796967260189547 0.004791852924546586 0.005618840663449851 0.005615315249925654 0.0056117898364014575
          0.006364816156866916 0.006362713619305698 0.00636061108174448 0.0003666897793059197 0.00037290024006452957 0.0003791107008231394
          0.0007962068459918772 0.0008037364130266983 0.0008112659800615194 0.0015096189329036544 0.0015149680229763025 0.0015203171130489508
          0.0024431034927325035 0.0024449938401692726 0.002446884187606042 0.0034914839406002345 0.003490050405797852 0.0034886168709954693
          0.004536219008828829 0.004531799106542082 0.004527379204255333 0.005472282387253534 0.005466105289831924 0.005459928192410314
          0.0062254017972949455 0.0062202568229653525 0.006215111848635761 0.006764445163504057 0.006761372918111207 0.006758300672718356
          0.0005512472737694396 0.0005588950302043174 0.0005665427866391949 0.001119540683130032 0.0011277351444950877 0.0011359296058601435
          0.002003402625611279 0.0020076298826233246 0.0020118571396353702 0.0030772913293547347 0.003077070948987831 0.0030768505686209276
          0.004200755238016028 0.00419723295405698 0.004193710670097931 0.005249241741931852 0.005243366664962742 0.005237491587993633
          0.006127917786193977 0.006120915730938097 0.006113913675682217 0.006772956731906941 0.006766736240302095 0.00676051574869725
          0.007156712481236384 0.007151857801763259 0.007147003122290134 0.0008124240749834123 0.0008206087814366548 0.0008287934878898973
          0.001551207013907591 0.0015588996108204364 0.0015665922077332819 0.0025987732794855076 0.002601275061614112 0.0026037768437427167
          0.0037867360051149533 0.0037841615243003677 0.0037815870434857813 0.004948755452806448 0.0049431371450041565 0.004937518837201865
          0.005958337039265134 0.005951078070515091 0.00594381910176505 0.006731130351817236 0.0067235418522143126 0.00671595335261139
          0.0072252398755827535 0.007218465881897812 0.007211691888212868 0.007439746039774893 0.007433425195696018 0.007427104351617143
          0.0021063357529820807 0.00211232795046132 0.00211832014794056 0.0033023873148811233 0.0033025448426960277 0.003302702370510932
          0.004560241196234118 0.0045552452369821235 0.004550249277730131 0.005708636118391785 0.005701222368798007 0.005693808619204229
          0.006632007387606125 0.006623692169189541 0.006615376950772959 0.0072599637876976 0.007251987415955935 0.00724401104421427
          0.007567209646851693 0.007560446749051034 0.007553683851250373 0.007590054099922668 0.007583312597418398 0.007576571094914128
          0.002796520120633491 0.002800183588618218 0.0028038470566029445 0.00410799141489796 0.004105523082167273 0.004103054749436585
          0.00537909498934081 0.005371727675365213 0.005364360361389615 0.006451000298540692 0.006442174643771963 0.006433348989003232
          0.0072349023246431905 0.007226218948374122 0.007217535572105051 0.00768864636582764 0.007681173720820007 0.007673701075812374
          0.007812334293604865 0.007805830348316532 0.007799326403028198 0.007654180438797401 0.00764666408923395 0.007639147739670497
          0.003628541597641938 0.003629580974769254 0.00363062035189657 0.004996498742236054 0.004991771020664562 0.00498704329909307
          0.0062175273160895465 0.006208072851131007 0.0061986183861724685 0.007151492715559372 0.0071415484374010435 0.0071316041592427125
          0.007741472358032077 0.007733113879737226 0.007724755401442371 0.00798721250206276 0.007981509104780639 0.007975805707498517
          0.007947558477346732 0.007941562304320976 0.007935566131295221 0.007702918090332035 0.007692564263155664 0.0076822104359792935
          0.0045962577818917955 0.00459501183747656 0.0045937658930613225 0.005941887684176427 0.005935906951234759 0.005929926218293089
          0.00704607289987501 0.007035125435875551 0.007024177971876091 0.00778866966007952 0.007778030030219638 0.007767390400359755
          0.00814316548325079 0.008135605744096159 0.008128046004941528 0.008150715227551545 0.008147031228660203 0.008143347229768862
          0.007928780612327189 0.007923053836073798 0.007917327059820409 0.007609463389370753 0.007595201791742481 0.007580940194114208
          0.006911659699194699 0.006905798117733931 0.006899936536273164 0.007834916278529577 0.007823286945911221 0.007811657613292865
          0.008335989781126794 0.008325251060576614 0.008314512340026435 0.008421798150799603 0.008415545788185104 0.008409293425570605
          0.00817348996743808 0.008171370879929465 0.00816925179242085 0.0077302202109193 0.00772394166817302 0.00771766312542674
          0.007185617507086774 0.007170830613263075 0.007156043719439375 0.007873633662036484 0.007868804448811894 0.007863975235587305
          0.008546177498933098 0.008534659222870788 0.008523140946808477 0.008749047920827707 0.008738905002404141 0.008728762083980575
          0.008527601906248202 0.008522944460782571 0.008518287015316938 0.007995866433295655 0.007994731454876114 0.007993596476456574
          0.007290337622677554 0.0072837966260387785 0.007277255629400004 0.006467450548162721 0.006456853608097295 0.006446256668031868
          0.008797267644554605 0.008793744140978561 0.008790220637402521 0.009123296703349437 0.009112743886600772 0.009102191069852106
          0.008962265643893283 0.00895347715488959 0.008944688665885896 0.008393440825817559 0.008390467339044357 0.008387493852271157
          0.007553203224497821 0.007553327016971079 0.0075534508094443386 0.006593383156649124 0.006588581934393949 0.006583780712138774
          0.00960917187335728 0.009606938911186608 0.009604705949015937 0.009494762275793638 0.009486150456471746 0.009477538637149854
          0.008909660195907564 0.008903070484411729 0.008896480772915891 0.007971232687208445 0.007970453513896733 0.007969674340585021
          0.006843551157766941 0.006846130398362949 0.00684870963895896 0.006932016403393299 0.007419236683658247 0.007407628776524779
          0.007190019263451786 0.006926963180384003 0.007410281292907932 0.007399733735507562 0.007181775597791405 0.0069219099573747086
          0.007401325902157616 0.007391838694490347 0.0071735319321310255 0.0061347256672617066 0.006423065851134915 0.0058384645404023355
          0.00540880656461783 0.0061245216385433544 0.006412627115892585 0.005834752683271676 0.005406212025915628 0.0061143176098250014
          0.006402188380650256 0.005831040826141016 0.0054036174872134244 0.005912363912951297 0.005551172140692683 0.006552943509638454
          0.005917277541970367 0.005552937408400847 0.006543398713120639 0.005922191170989436 0.005554702676109011 0.006533853916602822
          0.005508423340035652 0.0055189239585726095 0.005529424577109569 0.007315852144203818 0.007113487527164758 0.007279536149585621
          0.00728761133566682 0.007308954483301262 0.007107989119134246 0.007268988020635953 0.0072778508241245175 0.007302056822398707
          0.007102490711103735 0.007258439891686285 0.007268090312582215 0.00566479874193436 0.004882911708439173 0.005656191287209309
          0.004883228933757576 0.005647583832484258 0.004883546159075981 0.006605852902401575 0.00592661446420321 0.005966165662104117
          0.006605439775137584 0.005930251421159025 0.0059704151366263124 0.006605026647873591 0.00593388837811484 0.005974664611148506
          0.00430613276724917 0.005122882382834146 0.004311031279261905 0.005116994404868503 0.004315929791274641 0.005111106426902859
          0.007003909066118233 0.00609647026178918 0.006995633432752155 0.00609959834104646 0.006987357799386076 0.006102726420303741
          0.006885727310665395 0.006875479384778825 0.0068652314588922535 0.006786711704306392 0.006075006605672258 0.006784351154254402
          0.0060791765263676825 0.006781990604202414 0.006083346447063105 0.0073203004319204075 0.006971401934606707 0.007311080659059411
          0.0069648459796397355 0.007301860886198414 0.006958290024672765 0.00692192274390889 0.007070361424582338 0.006917379417263972
          0.007061758934541568 0.006912836090619055 0.007053156444500798 0.006231388239075233 0.006670641776308889 0.00622654789139921
          0.0066642297530171615 0.006221707543723187 0.006657817729725433 0.00372809049055588 0.0037392093812379907 0.003750328271920102
          0.0028744096780866702 0.003179308601421937 0.002893825075420782 0.003196467452297722 0.0029132404727548935 0.003213626303173507
          0.006544527701199124 0.006534219408450611 0.006523911115702097 0.0027167552344869467 0.0027363695156270794 0.002755983796767212
          0.007236150390433377 0.007219550259155913 0.007202950127878447 0.0024167867375794218 0.002437985426615202 0.002459184115650982
          0.004580592230838 0.004578494345407064 0.004576396459976127 0.003998178755465819 0.004001504316248199 0.004004829877030579
          0.0035481207727995705 0.003556846160723189 0.0035655715486468073 0.005603549478519108 0.0055983637415626415 0.005593178004606175
          0.005714236964750378 0.005712995417488374 0.005711753870226371 0.004706671510169027 0.004705982518142136 0.004705293526115244
          0.009576409403258962 0.010188378759976515 0.009570562272236717 0.010187307414269962 0.009564715141214472 0.010186236068563408
          0.008538328602248488 0.008535041201808324 0.008531753801368159 0.0072532411115438025 0.007255654971921519 0.007258068832299238
          0.005923707721292717 0.005929386183372678 0.0059350646454526396 0.004750663055991372 0.004753064107749127 0.004755465159506882
          0.004600478547135214 0.00461252366788754 0.004624568788639866 0.0046585648333433635 0.004668010295455978 0.004677455757568592
          0.007280422059188992 0.0069922820751209605 0.0072706307755653465 0.006989217894970623 0.007260839491941701 0.006986153714820284
          0.004935173871718979 0.004918394542390262 0.004940474280365396 0.004923738357865507 0.004945774689011811 0.004929082173340751
          0.006737159078971531 0.007027762322771733 0.006730553074032429 0.0070201524416162635 0.006723947069093327 0.007012542560460794
          0.006384085046539369 0.006376896009502887 0.006369706972466405 0.004862985888820465 0.004869614301372056 0.004876242713923647
          0.007218840347588818 0.007353750611534934 0.00720825466056927 0.007347155311460461 0.007197668973549723 0.007340560011385987
          0.005146947257602775 0.005153487654213893 0.005160028050825011 0.005566904141139563 0.006306140828176855 0.005571753069597477
          0.006311927269776569 0.005576601998055392 0.006317713711376283 0.0046521075387053554 0.004660040460567248 0.004667973382429141
          0.005989927526933305 0.005981532217766764 0.005973136908600225 0.003329486109763913 0.004165431883212388 0.003337618218928161
          0.004164849192667064 0.0033457503280924093 0.0041642665021217416 0.0055995217909577295 0.005589252446350683 0.005578983101743638
          0.005108415686977046 0.005098454356149166 0.005088493025321286 0.0038772924139672885 0.003891208902661645 0.0039051253913560007
        </DataArray>
        <DataArray type="Float64" Name="pe22" format="ascii" RangeMin="-0.005327063061668637" RangeMax="0">
          -0.00005743401614120988 -0.0001039652775003423 -0.000058897590125816705 -0.00010834094019723712 -0.00006036116411042353 -0.00011271660289413195
          -0.00000681294990275858 -0.000009618989042702311 -0.000006202281995332179 -0.000008904893450916642 -0.000005591614087905778 -0.000008190797859130975
          -0.0000015829001542115726 -0.000003165800308423145 -7.914500771057863e-7 -0.0000015829001542115726 0 0
          -0.000004437500792983875 0 -0.000005026930708748917 -7.108023295323713e-8 -0.000005616360624513959 -1.4216046590647427e-7
          -0.00006255696031167827 -0.0000453568035828642 -0.00006397598096835858 -0.00004631768965836691 -0.0000653950016250389 -0.00004727857573386961
          -0.0002247008735467999 -0.00019626746621603916 -0.00022500180676450078 -0.00019670983185804153 -0.00022530273998220169 -0.0001971521975000439
          -0.000488833280553342 -0.0004652807712977931 -0.0004887509801392744 -0.00046561017481262475 -0.0004886686797252067 -0.0004659395783274565
          -0.000822145094366097 -0.0008080373507435835 -0.0008255800559222383 -0.0008116137219359458 -0.0008290150174783794 -0.0008151900931283082
          -0.000005451377391038737 -0.000004727120027198144 -0.00000400286266335755 -0.0000020034553814074247 -0.0000017498352698738577 -0.0000014962151583402907
          -4.42458932417501e-7 -6.121878551388858e-7 -7.819167778602707e-7 -0.00002236737105708666 -0.000023560864383584564 -0.000024754357710082472
          -0.00011365593701471733 -0.00011534296376430696 -0.00011702999051389659 -0.00030071824907253306 -0.00030082126109868195 -0.00030092427312483085
          -0.0005774258673596629 -0.0005771917216866882 -0.0005769575760137134 -0.0009253119395675211 -0.0009278321679039518 -0.0009303523962403827
          0 0 0 0 0 0
          -0.000007911445465565114 -0.00000846605345430163 -0.00000902066144303815 -0.00006114364426431764 -0.00006253485117622737 -0.0000639260580881371
          -0.00019344742579284043 -0.0001947303922204259 -0.0001960133586480114 -0.0004134220622985665 -0.00041335342477494583 -0.0004132847872513251
          -0.0007241844792541482 -0.0007241661650969605 -0.0007241478509397729 -0.0010801288093729691 -0.0010818515850820238 -0.001083574360791079
          0 0 0 -0.0000010331973425740332 -0.0000012471411490336151 -0.000001461084955493197
          -0.00002956150626690131 -0.000030444585399789284 -0.000031327664532677265 -0.00012418528223967279 -0.0001254573260189748 -0.00012672936979827676
          -0.00029807074555380104 -0.00029886538009768325 -0.0002996600146415655 -0.0005565133607549071 -0.000555992962161989 -0.0005554725635690707
          -0.0008947202291030071 -0.0008943423112584313 -0.0008939643934138554 -0.0012476972867136414 -0.0012492484705732092 -0.0012507996544327772
          -7.2391877704510015e-9 -6.345777336053416e-8 -1.1967635895061732e-7 -0.000011169163384392654 -0.000011837063354967105 -0.000012504963325541555
          -0.00007262135922479087 -0.00007376977428390215 -0.00007491818934301343 -0.00021043700431222983 -0.00021132469127438014 -0.00021221237823653046
          -0.00042604223829797387 -0.00042625272718652916 -0.0004264632160750846 -0.000723056017482373 -0.0007218911066043861 -0.0007207261957263994
          -0.0010898785665396137 -0.0010891529068864383 -0.001088427247233263 -0.001477324670173474 -0.0014786774808838758 -0.0014800302915942776
          -0.0000052895464123821365 -0.000005661732495704077 -0.000006033918579026016 -0.00004217326131924147 -0.0000433019009804363 -0.00004443054064163112
          -0.00014313708495774 -0.00014433821785817859 -0.00014553935075861722 -0.0003201733339358884 -0.00032074653159441845 -0.0003213197292529484
          -0.0005778347507875366 -0.0005774646540070767 -0.0005770945572266166 -0.0009148279501444288 -0.0009131522147245183 -0.0009114764793046077
          -0.001318458086043922 -0.0013177302831488542 -0.001317002480253786 -0.0017422248833549026 -0.001743580573949177 -0.0017449362645434515
          -0.0000020079740842310758 -0.000002239560149808608 -0.0000024711462153861403 -0.000025532389111734647 -0.000026400602918131055 -0.000027268816724527466
          -0.00009890724204531808 -0.0001001967627393625 -0.00010148628343340695 -0.0002384661986629001 -0.0002394300697710864 -0.00024039394087927265
          -0.0004568332644377283 -0.00045697756345753097 -0.0004571218624773336 -0.0007600188630351554 -0.0007590761240725717 -0.000758133385109988
          -0.0011385119848415168 -0.0011365266836315053 -0.0011345413824214935 -0.0015750850018674347 -0.0015743929116551058 -0.0015737008214427768
          -0.0020186559105069644 -0.0020201310007204013 -0.002021606090933838 -0.000011584789418835559 -0.000012168655409973727 -0.000012752521401111898
          -0.00006384919973250415 -0.00006509136687719966 -0.00006633353402189518 -0.00017527427479599195 -0.00017644218817998732 -0.0001776101015639827
          -0.0003555673887773145 -0.0003561833438724546 -0.0003567992989675947 -0.0006227272540679381 -0.0006223300053042461 -0.0006219327565405542
          -0.0009767781198022664 -0.0009753854363649156 -0.0009739927529275649 -0.0013963918636144051 -0.0013944250341834396 -0.001392458204752474
          -0.001854824137900007 -0.0018543118774365134 -0.0018537996169730201 -0.0022959698331122716 -0.0022975728656377346 -0.002299175898163198
          -0.00003155868383602337 -0.00003248714999934148 -0.00003341561616265959 -0.00011594072250272475 -0.00011737018444543201 -0.0001187996463881393
          -0.00026607466091943305 -0.00026711466344338204 -0.0002681546659673311 -0.0004969519299403485 -0.0004970736664873804 -0.0004971954030344121
          -0.0008211275023503356 -0.0008201929721867056 -0.0008192584420230757 -0.001227312984274837 -0.0012257655833182955 -0.0012242181823617542
          -0.0016840638846598755 -0.001682504055537826 -0.0016809442264157772 -0.002152192946927436 -0.0021521461630379774 -0.0021520993791485188
          -0.00256667743013789 -0.002568482730192316 -0.0025702880302467413 -0.00006497431601170898 -0.00006635271173964642 -0.00006773110746758387
          -0.00018050181219424847 -0.00018203303762386259 -0.00018356426305347673 -0.00037731771208603744 -0.00037808604440806774 -0.000378854376730098
          -0.0006695542616180016 -0.0006690535309827582 -0.0006685528003475148 -0.0010551366456405592 -0.001053730031829356 -0.0010523234180181524
          -0.0015087686069474454 -0.0015072183090730352 -0.0015056680111986249 -0.0019912541882140295 -0.001990078854096825 -0.0019889035199796208
          -0.002455394376375022 -0.0024556908412059248 -0.002455987306036827 -0.002833831509171099 -0.002835663632652287 -0.0028374957561334755
          -0.00011358484862323744 -0.00011531831219654285 -0.00011705177576984825 -0.000264341710814858 -0.00026588712033239945 -0.00026743252984994095
          -0.0005190301826676879 -0.0005192201254042004 -0.000519410068140713 -0.0008789783061304861 -0.0008777650236489519 -0.0008765517411674181
          -0.0013248567794686573 -0.0013231451048390562 -0.001321433430209455 -0.0018185072214880527 -0.0018171120389228151 -0.0018157168563575775
          -0.002313099507859744 -0.0023123562442081786 -0.0023116129805566127 -0.002767681048788357 -0.002768229786044814 -0.0027687785233012708
          -0.0031939481008717526 -0.0031958035864745257 -0.003197659072077299 -0.00017618301035878512 -0.00017811122344925362 -0.00018003943653972212
          -0.0003732651686142691 -0.00037455888375960346 -0.0003758525989049378 -0.0006971823430976463 -0.0006965125243906564 -0.0006958427056836664
          -0.0011275348054570979 -0.001125671736112773 -0.0011238086667684478 -0.0016291797275102364 -0.001627452119852635 -0.0016257245121950332
          -0.002153804933090698 -0.0021529392132085697 -0.0021520734933264413 -0.0026508968899312353 -0.0026511108417415856 -0.0026513247935519364
          -0.0030825257223578667 -0.0030839814222341716 -0.003085437122110477 -0.0034075003750518524 -0.003410130479111515 -0.003412760583171178
          -0.00025931619808565877 -0.00026115181079259 -0.00026298742349952127 -0.0005149447443400982 -0.0005156253477945728 -0.0005163059512490475
          -0.0009147702332879913 -0.0009131983008978305 -0.0009116263685076694 -0.0014159650769176636 -0.001413750144142698 -0.0014115352113677334
          -0.001966548981033779 -0.001965168496012391 -0.0019637880109910025 -0.0025091860655328956 -0.002509146538200787 -0.0025091070108686792
          -0.0029917969648375472 -0.0029931470845819103 -0.0029944972043262734 -0.003372714839819639 -0.0033753777871704167 -0.0033780407345211944
          -0.0036174661579438994 -0.003621022370484073 -0.003624578583024246 -0.000371984454860916 -0.00037303396334891143 -0.000374083471836907
          -0.0007004433548227434 -0.0007000462281633178 -0.0006996491015038923 -0.00117766657620961 -0.001175413690122049 -0.001173160804034488
          -0.001744504872642383 -0.001742391935764812 -0.0017402789988872412 -0.0023320318547785848 -0.002331364747485289 -0.0023306976401919937
          -0.0028742594804113896 -0.0028751844683556882 -0.002876109456299987 -0.0033171341017711516 -0.0033193890775432126 -0.003321644053315274
          -0.00362477327018722 -0.003628018546027229 -0.003631263821867238 -0.0037827964136652858 -0.0037863028812499954 -0.003789809348834705
          -0.000936595587482177 -0.0009349028960040296 -0.0009332102045258824 -0.0014924174532651362 -0.0014898376261744603 -0.0014872577990837845
          -0.002111941534768943 -0.0021103950452397075 -0.0021088485557104715 -0.002715547027340015 -0.002715878164311542 -0.0027162093012830695
          -0.0032346134606051104 -0.003236595342284556 -0.0032385772239640017 -0.0036170096844949885 -0.0036200025627576454 -0.0036229954410203027
          -0.003832218713426792 -0.003835319710992575 -0.0038384207085583578 -0.003891962005089241 -0.0038947117953831052 -0.00389746158567697
          -0.0012310220258683097 -0.0012283976232218543 -0.001225773220575399 -0.00186131196110301 -0.001858927831853265 -0.0018565437026035196
          -0.002513685063991819 -0.00251306114951601 -0.0025124372350402006 -0.0031051158721700648 -0.00310648784797635 -0.0031078598237826347
          -0.003573876465034379 -0.0035767602394437925 -0.003579644013853206 -0.0038792558208612174 -0.003882957837683194 -0.00388665985450517
          -0.004000813904278642 -0.004004023182031858 -0.004007232459785075 -0.003961305200769913 -0.00396412319962051 -0.0039669411984711075
          -0.0015921717444779277 -0.0015893821267668749 -0.0015865925090558218 -0.002282150052264668 -0.002280594951593174 -0.0022790398509216795
          -0.002941906346812643 -0.002942442914581638 -0.0029429794823506326 -0.0034907693174335563 -0.003493058428327968 -0.0034953475392223796
          -0.0038798928074368633 -0.003883284178307177 -0.003886675549177491 -0.004088349986611811 -0.004092459205931529 -0.004096568425251246
          -0.004120442734850275 -0.004124572340829816 -0.00412870194680936 -0.004027125183642759 -0.004030927213867364 -0.00403472924409197
          -0.002025625366257754 -0.002023808263072636 -0.002021991159887518 -0.0027501593147541046 -0.002750018749436295 -0.0027498781841184855
          -0.0033868064232911374 -0.0033886102540309397 -0.0033904140847707412 -0.0038635038268381282 -0.003866672659370339 -0.0038698414919025497
          -0.004146759309517185 -0.0041506430717829805 -0.004154526834048776 -0.00423632703839661 -0.004240853732619099 -0.004245380426841586
          -0.004160998962765807 -0.004166059358083793 -0.004171119753401778 -0.004007685347092095 -0.004011857089345211 -0.004016028831598326
          -0.0032569284420902434 -0.0032586818914645396 -0.0032604353408388362 -0.0038370588879885247 -0.003840190375238686 -0.003843321862488848
          -0.004209909133804524 -0.0042141023424444035 -0.004218295551084283 -0.0043610146844673325 -0.0043659522407771805 -0.004370889797087029
          -0.004310808345035638 -0.004316542487591187 -0.004322276630146735 -0.004096532821841884 -0.004102109138373858 -0.004107685454905831
          -0.0037924361083396165 -0.00379604341711193 -0.0037996507258842432 -0.003792060715191296 -0.0037959174250201022 -0.0037997741348489086
          -0.004274255850937999 -0.004278833931150111 -0.004283412011362223 -0.004503762467279092 -0.004509225470982186 -0.00451468847468528
          -0.004490310083855673 -0.004496560735880607 -0.00450281138790554 -0.004274215205407125 -0.0042808986433535935 -0.004287582081300062
          -0.003894394478653259 -0.003899244309728005 -0.0039040941408027495 -0.0034318258451947795 -0.0034332409320318976 -0.0034346560188690165
          -0.004343089060704285 -0.004349110718092868 -0.004355132375481451 -0.0046667143542813445 -0.004672963554560219 -0.004679212754839094
          -0.0047043773316587925 -0.0047111272160277025 -0.0047178771003966126 -0.0044916608413283765 -0.004498551004086137 -0.004505441166843898
          -0.004086917392468874 -0.004093064602785956 -0.004099211813103037 -0.003549024769858129 -0.0035516992002035245 -0.003554373630548921
          -0.004871118056322609 -0.00487943652688845 -0.00488775499745429 -0.004970866995112934 -0.004978905672876793 -0.004986944350640649
          -0.004768462277825614 -0.004776048309479523 -0.0047836343411334315 -0.004331089847001863 -0.0043374769636590794 -0.0043438640803162955
          -0.0037412674523749573 -0.003745676015638224 -0.0037500845789014904 -0.003699376219796372 -0.003850182444304789 -0.0038049126482243584
          -0.0037425698361998002 -0.003701858239453014 -0.003852629349648054 -0.0038076154660326013 -0.003744440724110813 -0.0037043402591096556
          -0.0038550762549913195 -0.003810318283840844 -0.003746311612021825 -0.002997980857955433 -0.0031468167171979982 -0.0028812995378458867
          -0.002667611616165005 -0.002997622773773942 -0.0031475773940652296 -0.002882802919413883 -0.0026684671451792257 -0.002997264689592451
          -0.003148338070932462 -0.0028843063009818784 -0.002669322674193446 -0.003231275746872494 -0.002993956784536421 -0.003508547616118433
          -0.0032338640478349204 -0.0029952715029738577 -0.0035111660209408164 -0.003236452348797347 -0.0029965862214112945 -0.0035137844257632006
          -0.0030394008689346302 -0.0030411540006474364 -0.003042907132360245 -0.0037243214683365827 -0.0036077377442251804 -0.0037032477522647798
          -0.0037380384481687672 -0.003727563781755136 -0.0036105474870754993 -0.003705163230082866 -0.0037402389563221455 -0.00373080609517369
          -0.0036133572299258173 -0.003707078707900952 -0.0037424394644755238 -0.002744379256641201 -0.002405501285579881 -0.002742948628812811
          -0.0024057826975692233 -0.0027415180009844223 -0.0024060641095585656 -0.0035879386895931293 -0.003262623940502231 -0.003266840227282499
          -0.0035893731060342034 -0.0032634719258273544 -0.0032703507739334607 -0.0035908075224752767 -0.003264319911152477 -0.0032738613205844213
          -0.002118810215740458 -0.002455373269429121 -0.0021188179984822407 -0.002453211513439339 -0.002118825781224024 -0.002451049757449557
          -0.0037312296858715106 -0.0033167260964836534 -0.0037341978490103367 -0.003320227129353913 -0.0037371660121491624 -0.003323728162224173
          -0.0034263441141824435 -0.003427543541400676 -0.0034287429686189084 -0.0036241133641483018 -0.003328887663033582 -0.003626241633375728
          -0.003329955568712489 -0.0036283699026031535 -0.0033310234743913958 -0.0038386092086560046 -0.0037229188570599013 -0.0038418893932962036
          -0.0037268956449084795 -0.003845169577936403 -0.0037308724327570573 -0.0035088536896700855 -0.0035794079470625457 -0.0035110436624048633
          -0.0035811944599017085 -0.003513233635139641 -0.003582980972740871 -0.0030843994530062547 -0.003340947680818655 -0.003085696946380796
          -0.003342239301812925 -0.003086994439755337 -0.0033435309228071943 -0.0018349754699275292 -0.0018349767152296887 -0.0018349779605318483
          -0.0013990729148107303 -0.0015569474557598668 -0.0014006951022657063 -0.0015576259008878478 -0.001402317289720682 -0.0015583043460158288
          -0.0032139071787873745 -0.003214532909869981 -0.0032151586409525875 -0.0013314557598673624 -0.0013335620451213575 -0.0013356683303753527
          -0.0038513035795199302 -0.003853853157654774 -0.0038564027357896186 -0.0011847813397505493 -0.0011881636365734755 -0.0011915459333964016
          -0.0021726249685117996 -0.0021692654016483006 -0.002165905834784802 -0.0018647530117697378 -0.0018623415001812627 -0.0018599299885927881
          -0.0016437902878858395 -0.0016438107078483308 -0.0016438311278108217 -0.0029960598186376357 -0.002994669098451062 -0.002993278378264489
          -0.003093112181605598 -0.0030933813012985574 -0.003093650420991516 -0.0025208905140388727 -0.002517916585209166 -0.0025149426563794595
          -0.00513127464727447 -0.005305624157875043 -0.005140802203882857 -0.005316343609771839 -0.005150329760491245 -0.005327063061668637
          -0.0046565043146246385 -0.004664120791934797 -0.004671737269244955 -0.003994812015105399 -0.003999650229907171 -0.004004488444708943
          -0.0032618408359159365 -0.0032637517461068877 -0.003265662656297839 -0.002573557816202655 -0.002571531260741961 -0.0025695047052812676
          -0.0025308837745600743 -0.0025317440464314215 -0.002532604318302768 -0.002567958877079613 -0.0025675465026522354 -0.0025671341282248582
          -0.003732867707993556 -0.003671632434340005 -0.0037341371653582395 -0.0036740910102499844 -0.0037354066227229224 -0.0036765495861599633
          -0.0027076373324046946 -0.0026771236923413843 -0.002707825392483305 -0.00267885636240979 -0.0027080134525619155 -0.002680589032478196
          -0.0033056466079519286 -0.003500866677543786 -0.003305691261896803 -0.0035025076056201475 -0.0033057359158416774 -0.0035041485336965083
          -0.0030822714959428347 -0.003081124266929108 -0.003079977037915381 -0.0026620186581554953 -0.0026628252224575157 -0.0026636317867595365
          -0.003655010015742244 -0.003758785457662345 -0.0036566493911844872 -0.0037611015932619554 -0.003658288766626731 -0.003763417728861567
          -0.0028412951043670816 -0.0028406499550576647 -0.0028400048057482486 -0.003032938475172474 -0.0034124176322590603 -0.0030333622334123376
          -0.003415474016621252 -0.0030337859916522007 -0.003418530400983444 -0.0025289307124049037 -0.0025279561530833004 -0.0025269815937616967
          -0.0028399106278803755 -0.0028377123002947873 -0.0028355139727091992 -0.0015810555380672484 -0.0019291670674713352 -0.0015800341492885242
          -0.001927204187866961 -0.0015790127605098004 -0.0019252413082625867 -0.0026078192170566226 -0.002604408110707482 -0.0026009970043583425
          -0.0023358675829832443 -0.0023332551104513627 -0.0023306426379194807 -0.002130753161707257 -0.0021303904070244586 -0.0021300276523416608
        </DataArray>
        <DataArray type="Float64" Name="pe33" format="ascii" RangeMin="-0.004882754602101469" RangeMax="0">
          -0.00006523878041743468 -0.00011808990361379013 -0.00007177061636978495 -0.00013297241489053892 -0.00007830245232213526 -0.0001478549261672877
          -0.000007423418790257713 -0.000010436361944647071 -0.000007086570893024343 -0.000010396828870151853 -0.0000067497229957909725 -0.000010357295795656636
          -0.00000181797363120593 -0.00000363594726241186 -9.08986815602965e-7 -0.00000181797363120593 0 0
          -0.000004266459977181253 0 -0.000004881719157660373 -7.078921360232994e-8 -0.000005496978338139493 -1.4157842720465988e-7
          -0.0000622875652900512 -0.00004571651238018879 -0.00006427262823376335 -0.00004716610936650276 -0.0000662576911774755 -0.00004861570635281673
          -0.0002269239873156437 -0.00019962677241706453 -0.00022954554329861524 -0.0002023354615543646 -0.00023216709928158675 -0.0002050441506916647
          -0.0004803682425779134 -0.0004533580380197748 -0.00048749516637999583 -0.0004607925928696976 -0.0004946220901820784 -0.0004682271477196204
          -0.0008147131997378444 -0.0008291562872000267 -0.0008309869245638426 -0.0008441956830157794 -0.000847260649389841 -0.0008592350788315322
          -0.000006193828610539608 -0.000005284408924515506 -0.000004374989238491404 -0.000002205237817934178 -0.0000018881564579484163 -0.0000015710750979626545
          -4.214919406940657e-7 -5.882295564223919e-7 -7.549671721507182e-7 -0.000021451494584016708 -0.000022825455615602706 -0.000024199416647188704
          -0.00011198371377162822 -0.0001145651756451045 -0.00011714663751858075 -0.00030221347907727553 -0.0003048479289087064 -0.0003074823787401371
          -0.0005686774148563867 -0.0005751202996832794 -0.0005815631845101719 -0.0008881049921871938 -0.0009048528360114063 -0.0009216006798356189
          0 0 0 0 0 0
          -0.000007578762319864848 -0.000008170922616334549 -0.00000876308291280425 -0.000059316194159180764 -0.00006123420191510568 -0.00006315220967103059
          -0.000192049949599509 -0.00019479700174694905 -0.00019754405389438902 -0.00041745710768353796 -0.00042022049886117444 -0.0004229838900388108
          -0.000714392260437005 -0.0007200298186726454 -0.0007256673769082858 -0.0010582689542112619 -0.001073087297038562 -0.0010879056398658618
          0 0 0 -0.0000010199906836604167 -0.000001242334305419305 -0.0000014646779271781933
          -0.000028867586210008195 -0.00003000489828779733 -0.00003114221036558646 -0.00012317418607158981 -0.0001255994895937035 -0.0001280247931158172
          -0.0003019433999791435 -0.000304860595161962 -0.00030777779034478047 -0.0005692508477162204 -0.000571897480745638 -0.0005745441137750555
          -0.0008927655439959894 -0.0008980645800305087 -0.0009033636160650279 -0.0012370783614660218 -0.0012503633084421574 -0.001263648255418293
          -7.287855865758753e-9 -6.464196765510933e-8 -1.219960794444599e-7 -0.000011079568739052993 -0.000011846635356033984 -0.000012613701973014973
          -0.00007263633604071469 -0.00007451300530742527 -0.00007638967457413585 -0.00021434347853397002 -0.0002172876346354962 -0.00022023179073702234
          -0.0004422828780799225 -0.0004453725615380102 -0.0004484622449960979 -0.0007529866855529254 -0.0007554300902777283 -0.0007578734950025312
          -0.001099100248934489 -0.0011046178378753342 -0.0011101354268161796 -0.001462935006578933 -0.0014748676037108538 -0.0014868002008427748
          -0.0000053098023074987664 -0.000005724016069880471 -0.000006138229832262176 -0.000042491325133575706 -0.00004401924767986526 -0.00004554717022615481
          -0.00014652590383339696 -0.00014919508403108122 -0.00015186426422876542 -0.00033507810355941527 -0.0003387036530147085 -0.00034232920247000164
          -0.0006145172247107065 -0.0006178118126352274 -0.0006211064005597482 -0.0009686749020273164 -0.0009709848587837906 -0.0009732948155402646
          -0.001342090697831458 -0.0013474412886859389 -0.0013527918795404193 -0.001734679395998231 -0.0017440754040735913 -0.001753471412148952
          -0.00000203195601894578 -0.0000022820568330623223 -0.000002532157647178865 -0.000025816550767905256 -0.000026904364325892566 -0.00002799217788387987
          -0.00010141471554464689 -0.00010366867855446756 -0.00010592264156428823 -0.0002501619591893716 -0.00025352187745050824 -0.0002568817957116449
          -0.0004904686342432996 -0.0004946058075727972 -0.0004987429809022949 -0.000824815003195843 -0.0008280505731337892 -0.0008312861430717355
          -0.0012207874383878803 -0.0012226818856430597 -0.0012245763328982391 -0.0016172701606091263 -0.0016217301267215808 -0.0016261900928340358
          -0.00202238936087429 -0.002028888820058668 -0.002035388279243046 -0.000011739324320129674 -0.000012415854101519923 -0.000013092383882910173
          -0.00006533116447262401 -0.00006715750945008941 -0.00006898385442755482 -0.00018351521224337132 -0.00018643364090400072 -0.00018935206956463015
          -0.00038287677854810433 -0.00038691854991717726 -0.0003909603212862502 -0.0006838806993972683 -0.0006882552492040136 -0.000692629799010759
          -0.0010758341840410655 -0.001078532637833346 -0.0010812310916256266 -0.0015095206379314406 -0.0015103034063035743 -0.0015110861746757082
          -0.0019179428400044193 -0.0019207450041784655 -0.001923547168352512 -0.0023117436744063205 -0.0023156076422965748 -0.002319471610186829
          -0.000032213083547129316 -0.00003340453589773353 -0.00003459598824833775 -0.00012069837738986238 -0.00012325424649578138 -0.0001258101156017004
          -0.0002857745315824325 -0.00028953545067626253 -0.0002932963697700925 -0.000549044145437156 -0.0005536732795923122 -0.0005583024137474685
          -0.0009185636592410305 -0.0009228627568240662 -0.0009271618544071016 -0.0013645211825131943 -0.0013662326112654313 -0.0013679440400176683
          -0.0018270845195551642 -0.0018261564127597498 -0.0018252283059643354 -0.0022348787828699104 -0.0022353412061297175 -0.0022358036293895246
          -0.0025937072748183293 -0.00259498083346625 -0.0025962543921141702 -0.00006713942190605935 -0.00006913023687934264 -0.00007112105185262592
          -0.00019237169606664176 -0.00019586338789041508 -0.00019935507971418845 -0.0004167470797057572 -0.0004214668882056574 -0.00042618669670555756
          -0.0007569686232690004 -0.0007619307579831129 -0.0007668928926972254 -0.0011962465224455636 -0.0011998681130054344 -0.0012034897035653053
          -0.0016843811143193183 -0.0016846503891784262 -0.001684919664037534 -0.0021565387025469173 -0.002153886389780187 -0.0021512340770134565
          -0.002548672208579329 -0.002546827301732037 -0.002544982394884745 -0.002866132155271994 -0.002864846791685536 -0.0028635614280990776
          -0.00011940762800110186 -0.00012241105685749826 -0.00012541448571389463 -0.0002898413207204376 -0.0002946278273320479 -0.0002994143339436582
          -0.0005894935452273986 -0.000595075177429397 -0.0006006568096313958 -0.0010124908176322163 -0.0010172317712221718 -0.0010219727248121273
          -0.0015133165029584234 -0.0015155512776615075 -0.0015177860523645917 -0.002026706738274591 -0.0020251927367562774 -0.0020236787352379635
          -0.0024889820879727634 -0.002484611015981368 -0.002480239943989973 -0.0028511596146614934 -0.00284708546388084 -0.0028430113131001867
          -0.0031708680559951645 -0.0031669100328311725 -0.0031629520096671812 -0.0001905067689471346 -0.00019478901661527595 -0.0001990712642834173
          -0.00042294167737760814 -0.0004291775292670948 -0.0004354133811565816 -0.000812436589806008 -0.0008184554985856461 -0.0008244744073652844
          -0.0013155686872754052 -0.0013193221040565 -0.001323075520837594 -0.0018623042130899974 -0.001862598285945216 -0.001862892358800435
          -0.0023824140757381313 -0.0023788598933335106 -0.0023753057109288907 -0.0028213854973222993 -0.0028149944480903386 -0.002808603398858377
          -0.003142876074937079 -0.0031362754007311813 -0.0031296747265252833 -0.0033569447884522047 -0.0033512424389996907 -0.003345540089547177
          -0.0002919310756837807 -0.00029774321941172723 -0.0003035553631396737 -0.0006045959387899339 -0.0006121097967005149 -0.0006196236546110958
          -0.0010886323923232875 -0.0010944315817254945 -0.0011002307711277012 -0.001661326252437071 -0.0016633208048451324 -0.0016653153572531935
          -0.0022342062569822487 -0.002232064458044588 -0.0022299226591069267 -0.002740055676398956 -0.0027342201267619545 -0.002728384577124952
          -0.0031361208213564295 -0.0031277686463561855 -0.003119416471355942 -0.0034002418920873025 -0.0033913584531316786 -0.0033824750141760547
          -0.003539246323292485 -0.003530835431279186 -0.003522424539265887 -0.00044043962012249637 -0.0004475748180877433 -0.0004547100160529902
          -0.0008507636590848473 -0.0008588533826571184 -0.0008669431062293892 -0.0014211067032758968 -0.0014258613714920626 -0.0014306160397082285
          -0.0020422311324725705 -0.002041769588535555 -0.0020413080445985396 -0.002616723598027862 -0.002611772397518867 -0.002606821197009871
          -0.0030840775588537425 -0.003075893602159402 -0.0030677096454650617 -0.0034139962500460835 -0.0034041527746710995 -0.0033943092992961155
          -0.0036004666053955333 -0.0035904473358705814 -0.0035804280663456305 -0.0036569496261096056 -0.003647122314446022 -0.003637295002782439
          -0.0011697401654999036 -0.0011774250544572902 -0.0011851099434146768 -0.001809969861615987 -0.0018127072165215663 -0.0018154445714271465
          -0.0024482996614651736 -0.002444850191742416 -0.0024414007220196583 -0.0029930890910517694 -0.0029853442044864642 -0.00297759931792116
          -0.0033973939270010136 -0.0033870968269049846 -0.0033767997268089557 -0.0036429541032026104 -0.003631984853198289 -0.003621015603193967
          -0.0037349909334249004 -0.003725127038058458 -0.0037152631426920152 -0.003698092094833426 -0.003688600802035293 -0.003679109509237159
          -0.0015654980947651805 -0.0015717859653963627 -0.0015780738360275447 -0.0022466794537949492 -0.0022465952503140066 -0.002246511046833064
          -0.0028654099253489903 -0.002858666525849202 -0.0028519231263494137 -0.0033458844263706267 -0.0033356867957956113 -0.0033254891652205964
          -0.003661025859608812 -0.003649458708930327 -0.003637891558251843 -0.0038093905449664224 -0.0037982158831368134 -0.003787041221307204
          -0.003811520389326221 -0.0038018071662846726 -0.0037920939432431237 -0.0036928752380274883 -0.003682540889613439 -0.00367220654119939
          -0.0020363698531640096 -0.0020401988480023784 -0.002044027842840748 -0.002714348689971385 -0.0027111760690713875 -0.002708003448171391
          -0.0032756209692769017 -0.003265629936549368 -0.003255638903821835 -0.0036607233981258147 -0.0036484900090730738 -0.003636256620020333
          -0.003861579550595213 -0.003849829701430047 -0.0038380798522648814 -0.003898862515450949 -0.00388904989884911 -0.0038792372822472714
          -0.0038271157424964565 -0.0038169899634911586 -0.0038068641844858607 -0.0036757929066892733 -0.0036616370492882984 -0.003647481191887323
          -0.002570632415634041 -0.0025712035744039226 -0.0025717747331738044 -0.0031917283694223213 -0.003185888201798462 -0.0031800480341746032
          -0.00365926647658387 -0.00364651518184461 -0.0036337638871053505 -0.003925165833241391 -0.003911357370849298 -0.003897548908457206
          -0.003996406173733603 -0.003984962672313177 -0.003973519170892752 -0.003914388189154933 -0.0039061774960411047 -0.0038979668029272777
          -0.00376778164956138 -0.003756994477990005 -0.0037462073064186306 -0.003601778042278657 -0.0035833447023972684 -0.0035649113625158798
          -0.0036547312571044545 -0.00364711622626939 -0.003639501195434326 -0.0039978573905410505 -0.003983096570672534 -0.003968335750804016
          -0.004126080647322266 -0.00411114871813221 -0.0040962167889421535 -0.00406078346633227 -0.004049593547407921 -0.004038403628483573
          -0.00386268162240244 -0.003854828392338277 -0.003846975162274115 -0.003633687389077415 -0.0036218325297991617 -0.00360997767052091
          -0.0033931813987471567 -0.003374787196151144 -0.003356392993555131 -0.004081572946845188 -0.004072887023791791 -0.004064201100738395
          -0.004271921647995097 -0.004255825291720675 -0.004239728935446253 -0.0042452854535486115 -0.0042296795314219525 -0.0042140736092952935
          -0.004037291822392528 -0.004026383724901962 -0.004015475627411396 -0.0037216512278885295 -0.0037138328115225204 -0.0037060143951565113
          -0.0033959431440242936 -0.003384552316310773 -0.003373161488597253 -0.0030356247029679415 -0.003023612676065396 -0.0030116006491628508
          -0.004454178583850318 -0.004444633422885693 -0.004435088261921068 -0.004456582349068091 -0.00443978033204055 -0.00442297831501301
          -0.00425788831223449 -0.004242349938861886 -0.004226811565489282 -0.003901779984489181 -0.0038919163349582196 -0.0038820526854272575
          -0.0034662858320289452 -0.0034602624141851232 -0.0034542389963413012 -0.003044358386790995 -0.0030368827341904245 -0.003029407081589854
          -0.004738053817034671 -0.004727502384298157 -0.004716950951561645 -0.004523895280680703 -0.004507244783594954 -0.004490594286509206
          -0.004141197918081951 -0.004127022174932205 -0.004112846431782459 -0.003640142840206581 -0.003632976550237653 -0.003625810260268725
          -0.003102283705391982 -0.003100454382724727 -0.003098625060057471 -0.0032326401835969256 -0.003569054239353458 -0.0036027161283004186
          -0.0034474494272519855 -0.003225104940930989 -0.0035576519432598767 -0.0035921182694749598 -0.003437334873680592 -0.003217569698265052
          -0.0035462496471662967 -0.0035815204106495017 -0.0034272203201091986 -0.003136744809306274 -0.0032762491339369156 -0.002957165002556448
          -0.0027411949484528247 -0.003126898864769412 -0.003265049721827354 -0.0029519497638577927 -0.0027377448807364008 -0.003117052920232549
          -0.003253850309717793 -0.002946734525159137 -0.002734294813019977 -0.0026810881660788016 -0.0025572153561562614 -0.003044395893520021
          -0.0026834134941354456 -0.0025576659054269884 -0.0030322326921798206 -0.002685738822192089 -0.0025581164546977153 -0.00302006949083962
          -0.0024690224711010206 -0.0024777699579251722 -0.0024865174447493235 -0.0035915306758672353 -0.0035057497829395767 -0.003576288397320841
          -0.0035495728874980516 -0.0035813907015461257 -0.003497441632058747 -0.0035638247905530863 -0.0035376118678023703 -0.003571250727225016
          -0.003489133481177917 -0.003551361183785331 -0.0035256508481066894 -0.002920419485293158 -0.002477410422859291 -0.0029132426583964965
          -0.0024774462361883526 -0.0029060658314998345 -0.0024774820495174145 -0.003017914212808444 -0.0026639905237009764 -0.0026993254348216165
          -0.0030160666691033786 -0.0026667794953316695 -0.00270006436269285 -0.003014219125398314 -0.002669568466962362 -0.002700803290564084
          -0.002187322551508711 -0.0026675091134050247 -0.002192213280779664 -0.002663782891429163 -0.0021971040100506167 -0.002660056669453302
          -0.003272679380246721 -0.0027797441653055256 -0.0032614355837418166 -0.002779371211692546 -0.003250191787236912 -0.002778998258079567
          -0.00345938319648295 -0.0034479358433781478 -0.0034364884902733446 -0.003162598340158089 -0.0027461189426386742 -0.0031581095208786745
          -0.002749220957655192 -0.00315362070159926 -0.002752322972671709 -0.0034816912232644016 -0.0032484830775468035 -0.0034691912657632065
          -0.003237950334731255 -0.003456691308262012 -0.003227417591915707 -0.0034130690542388026 -0.0034909534775197904 -0.003406335754859108
          -0.003480564474639857 -0.0033996024554794127 -0.0034701754717599235 -0.003146988786068979 -0.0033296940954902336 -0.0031408509450184144
          -0.0033219904512042354 -0.00313471310396785 -0.0033142868069182367 -0.0018931150206283503 -0.0019042326660083015 -0.0019153503113882534
          -0.00147533676327594 -0.0016223611456620702 -0.0014931299731550756 -0.0016388415514098737 -0.0015109231830342114 -0.0016553219571576775
          -0.0033306205224117474 -0.0033196864985806282 -0.0033087524747495082 -0.001385299474619584 -0.0014028074705057217 -0.0014203154663918593
          -0.003384846810913448 -0.0033656971015011377 -0.0033465473920888263 -0.0012320053978288725 -0.0012498217900417264 -0.0012676381822545799
          -0.0024079672623262003 -0.002409228943758762 -0.002410490625191325 -0.0021334257436960804 -0.0021391628160669354 -0.002144899888437791
          -0.0019043304849137308 -0.001913035452874858 -0.001921740420835985 -0.0026074896598814725 -0.002603694643111579 -0.002599899626341685
          -0.0026211247831447806 -0.0026196141161898175 -0.002618103449234854 -0.002185780996130155 -0.002188065932932969 -0.0021903508697357836
          -0.00444513475598449 -0.004882754602101469 -0.004429760068353859 -0.004870963804498118 -0.004414385380723227 -0.004859173006894768
          -0.003881824287623849 -0.0038709204098735265 -0.003860016532123203 -0.0032584290964384017 -0.0032560047420143482 -0.003253580387590295
          -0.0026618668853767794 -0.0026656344372657905 -0.0026694019891548015 -0.002177105239788717 -0.0021815328470071657 -0.0021859604542256144
          -0.0020695947725751385 -0.002080779621456118 -0.0020919644703370974 -0.0020906059562637498 -0.0021004637928037414 -0.0021103216293437326
          -0.0035475543511954352 -0.0033206496407809536 -0.003536493610207106 -0.0033151268847206373 -0.003525432869218778 -0.00330960412866032
          -0.0022275365393142833 -0.002241270850048877 -0.0022326488878820893 -0.002244881995455716 -0.0022377612364498953 -0.002248493140862555
          -0.0034315124710196016 -0.003526895645227947 -0.0034248618121356248 -0.0035176448359961155 -0.0034182111532516488 -0.0035083940267642845
          -0.0033018135505965343 -0.003295771742573779 -0.0032897299345510233 -0.0022009672306649696 -0.0022067890789145396 -0.0022126109271641096
          -0.003563830331846572 -0.003594965153872588 -0.0035516052693847816 -0.0035860537181985038 -0.0035393802069229904 -0.003577142282524419
          -0.0023056521532356924 -0.002312837699156227 -0.002320023245076762 -0.002533965665967088 -0.002893723195917795 -0.002538390836185139
          -0.0028964532531553164 -0.0025428160064031903 -0.0028991833103928387 -0.0021231768263004504 -0.0021320843074839465 -0.002140991788667443
          -0.0031500168990529287 -0.003143819917471977 -0.0031376229358910245 -0.0017484305716966647 -0.002236264815741052 -0.0017575840696396371
          -0.002237645004800103 -0.0017667375675826092 -0.002239025193859154 -0.002991702573901106 -0.0029848443356432003 -0.0029779860973852944
          -0.002772548103993801 -0.0027651992456978036 -0.002757850387401806 -0.001746539252260032 -0.0017608184956371857 -0.0017750977390143395
        </DataArray>
        <DataArray type="Float64" Name="disp_x" format="ascii" RangeMin="0.0000018206329441780252" RangeMax="0.00004366899876902671">
          0.000002421779963035315 0.0000024818011478477903 0.0000024198759453630262 0.0000024934042427326992 0.0000024158754175339307 0.000002484320121791708
          0.0000029924989551694763 0.000003011716913532164 0.0000029911856513425486 0.000003010502886505945 0.0000029876468085449822 0.00000300525072966462
          0.000003536287674432735 0.00000354535229023081 0.0000035371205117991865 0.0000035437563972870463 0.0000035370437430703047 0.000003546111509767515
          0.00000407436451617021 0.000004089058166616674 0.000004074186071886097 0.000004089327490676737 0.000004075929261831595 0.000004087492974944501
          0.000004637152330720055 0.000004631403316919848 0.000004640388759872461 0.00000463395449423214 0.000004649522677408662 0.000004642259281864784
          0.000005299297507595848 0.000005268005117965601 0.000005304775916063572 0.000005273231840656423 0.000005321807500977953 0.000005289828594550087
          0.000006155240850274382 0.000006087212626823113 0.0000061610397799811584 0.000006093862274939951 0.000006180595203683839 0.000006113461596151976
          0.000007269711586123862 0.000007188618334215645 0.000007283933016158355 0.000007202267495406211 0.000007316392067360292 0.000007244938481356278
          0.000002396852322769278 0.000002396453907049982 0.000002395023933849024 0.0000029612808985088515 0.000002960565317098036 0.000002958567839674651
          0.0000035138394021512 0.0000035137513521722537 0.000003513863636213074 0.0000040646009670648165 0.000004066173222964729 0.000004070371517522281
          0.000004665023232146848 0.000004668877226495193 0.000004680083460807361 0.000005389435276417448 0.000005395167941064705 0.000005413789222361277
          0.000006325574862840029 0.000006332117929022821 0.000006350883379171855 0.000007514894815546806 0.000007528030854300792 0.0000075645249718690814
          0.000002393882347725507 0.0000023935604193507457 0.0000023923371997799067 0.00000294745921139291 0.000002947059276568212 0.0000029458065150404236
          0.0000034985800695499123 0.0000034991621009846034 0.000003501057415355626 0.000004074641459372634 0.0000040768996620937756 0.000004083795380759968
          0.000004729070303402488 0.000004733901540569216 0.000004747712206238891 0.000005538935025503634 0.000005545525453975188 0.000005566575964783181
          0.000006589061684795752 0.0000065969071444575 0.0000066203717117556454 0.000007957979357077572 0.000007969320349105847 0.000008004931046928405
          0.0000023870284851522013 0.000002386782697121249 0.000002386003389504932 0.000002947061790909011 0.0000029469734700498695 0.0000029463589496651575
          0.0000035030780623712768 0.0000035042881398415305 0.000003508269889437588 0.0000041127673666274314 0.000004116244962731617 0.0000041267121764661476
          0.0000048424204129955444 0.0000048483667150251735 0.00000486585306079476 0.000005768419976826834 0.000005775777349871133 0.000005799585522205859
          0.0000069733395015980025 0.000006981518341720038 0.000007004830340144269 0.000008488796015799431 0.000008501046755937233 0.000008536333418051487
          0.000002385602332811979 0.000002385643634595764 0.0000023854788079502225 0.000002947294478733403 0.0000029477084516082552 0.0000029488675690524375
          0.000003528645428233499 0.0000035307772299975067 0.0000035377235532752372 0.000004195530185111617 0.0000042003826578967476 0.0000042146430037560935
          0.000005023291582976401 0.0000050306144426465236 0.000005051980752442444 0.00000609165201133151 0.000006099657578440082 0.000006125706427861053
          0.000007466390291182314 0.0000074749818682065 0.0000074989410142588145 0.000009164130749150697 0.000009177216363331841 0.0000092164861967398
          0.000002386986116538918 0.0000023872798156701286 0.000002387880022465815 0.0000029571262817107474 0.0000029585476849708123 0.0000029629091237222245
          0.0000035841613103638976 0.0000035876381256440215 0.000003598345820762404 0.000004334799607651665 0.000004340577038586994 0.000004358484506439488
          0.0000052869955154923806 0.000005295494037093754 0.000005320463805310021 0.000006520057310321871 0.00000652884737261238 0.000006557260921948586
          0.000008090682670768878 0.000008100020718200214 0.000008126040811702574 0.000010017680241891838 0.000010031333389054723 0.000010072237594937852
          0.0000018238756047669962 0.000001824083845614217 0.0000018244934471388695 0.0000023887246640518047 0.000002389583761612797 0.0000023923267134337374
          0.0000029911227252828487 0.0000029937496527706834 0.0000030015234584790523 0.0000036825040142060787 0.000003687359744057145 0.000003702062939390134
          0.000004540027096620203 0.000004547355642483536 0.0000045697810398673204 0.000005646658292526202 0.000005656282539281143 0.000005684909081091714
          0.000007076478182318994 0.000007085902546578249 0.000007116379202528252 0.000008875662721472915 0.00000888555358424983 0.000008913000956689681
          0.00001105069410412747 0.000011064170893735525 0.000011104756645917817 0.0000018206329441780252 0.0000018217570854599691 0.000001824436204775361
          0.0000024056545217153987 0.000002407829826183211 0.00000241380014775694 0.000003056616664535041 0.0000030597181400076032 0.0000030702113529172134
          0.000003832219497333778 0.000003838860967139923 0.000003858707762269933 0.000004825244636275492 0.000004834335766005377 0.000004861657611069933
          0.000006119667220450267 0.0000061303503205864864 0.000006162461350645679 0.000007781751468051438 0.000007791773259194686 0.00000782401159189434
          0.000009840417096267208 0.000009850432327758819 0.00000987801634988482 0.00001227732140604198 0.000012290113888273032 0.000012328329204024404
          0.0000018301747434400288 0.000001831763201370596 0.000001836159658701996 0.00000244651061768495 0.0000024493110872492107 0.000002458065811230993
          0.000003160427759920629 0.000003165577469751598 0.0000031813915921640188 0.000004049914844096932 0.0000040581449074096875 0.000004083018095039175
          0.000005209641145913315 0.000005220188974832642 0.0000052520076747873116 0.000006724860398877473 0.000006736621190910544 0.000006772042468418808
          0.00000865118907594473 0.000008661627224337714 0.000008694885597789087 0.000010994329317420517 0.000011003990032995571 0.000011030685756582785
          0.000013705940506766065 0.000013717096691762703 0.000013750452203838306 0.0000018633963823796603 0.0000018656277983973038 0.0000018717034088371028
          0.000002522084166486411 0.000002526101134344735 0.000002538811424158051 0.000003318602901371179 0.0000033258886329917786 0.000003347648951549851
          0.000004349054680017607 0.000004359034238569966 0.000004389373095145396 0.00000571230206165856 0.000005724159035622496 0.000005760126828964974
          0.000007483104135807831 0.000007495495732472021 0.0000075327965837531835 0.000009694673476178286 0.000009705024129596871 0.000009738115963668888
          0.00001233042399981586 0.000012339497816789302 0.000012364151269594221 0.000015312756911812024 0.000015321840765728015 0.00001534910770290564
          0.000001925093078064412 0.0000019280189822703683 0.000001936244463532227 0.0000026405705030816866 0.000002646502036646637 0.000002664387434808913
          0.000003544073449850375 0.0000035533684433650895 0.0000035815075609888515 0.0000047494903554546295 0.000004761303624922472 0.000004797281010465438
          0.000006354230740213777 0.0000063671748026534 0.000006406496452817647 0.000008412262206714115 0.000008424626790683633 0.000008462006354462414
          0.000010923720363747284 0.00001093379074344274 0.000010964205633635532 0.000013833762504728386 0.000013841629211444214 0.00001386431528644472
          0.000017066606752213026 0.000017073619796194562 0.0000170954685551641 0.0000020218197818687334 0.000002025814249680265 0.0000020373117659666964
          0.000002808081437629906 0.0000028158097164187747 0.000002839862397177328 0.00000385174429966292 0.000003863377904232937 0.000003898629795858863
          0.000005275047370264225 0.000005288435881919834 0.000005329174774039743 0.000007157526895152896 0.000007171026612694467 0.000007211980581939087
          0.000009524392802567918 0.00000953655352840149 0.00000957301113254024 0.000012347115264849801 0.000012356395968054772 0.000012385353333956407
          0.00001556080008319624 0.000015567101181563384 0.000015585591290846114 0.000019070955529696415 0.000019075828894063887 0.0000190876884497322
          0.0000021572938810097458 0.000002162563451458293 0.000002177704046813944 0.0000030410288713329072 0.0000030515957894119757 0.000003083715117441805
          0.000004267574879738512 0.000004281343501723552 0.0000043233652045492005 0.000005950906248898657 0.000005965505585950093 0.000006009592203802355
          0.000008143671696256743 0.000008157273768853997 0.000008198426754312542 0.000010838834485648377 0.000010850140280592797 0.000010884239676380493
          0.000013978218876838568 0.000013986314339077306 0.000014010580793346637 0.00001746645356761142 0.000017471241850000563 0.00001748547524279537
          0.000021183206558747293 0.000021185734321594838 0.000021193332893828726 0.0000023254671634822 0.00000233338337510264 0.000002356067320170237
          0.0000033660864491047713 0.000003378534086420773 0.000003417305229992611 0.00000482204568729345 0.0000048375808133865696 0.0000048846143673389385
          0.000006804735620969951 0.000006819936665234974 0.000006865954964079143 0.000009335850440932994 0.000009348898066872 0.000009388267236003231
          0.00001236878730144796 0.00001237867530431169 0.000012408369023241847 0.00001581024212115938 0.000015816541409149134 0.000015835612768468863
          0.000019540954832102337 0.000019543851281558035 0.000019552238364856772 0.000023431314180868743 0.000023431338940012148 0.000023429830855214065
          0.00000379525807606151 0.000003809650478579951 0.0000038552631218265234 0.000005542010956070387 0.000005558586470580224 0.000005608578836642283
          0.000007866912880624116 0.00000788186034658335 0.00000792701176113472 0.000010752724495943434 0.000010764512143230784 0.000010800120212059074
          0.000014117836548013628 0.000014125794543632428 0.00001414967699878046 0.000017837921618901812 0.000017841981375805514 0.000017853756974724883
          0.000021764377787199568 0.000021764972514016322 0.000021766984206258055 0.000025757427740721157 0.00002575536335008873 0.000025748812224223525
          0.000004365636710992449 0.000004381194358290565 0.0000044317115424983425 0.000006460255012405667 0.000006477147553566927 0.000006527564317423337
          0.000009163670890144737 0.000009177421892827357 0.00000921885193798082 0.00001240957098507184 0.000012419388683547852 0.000012448903475703953
          0.00001608275185631142 0.000016088359068741675 0.000016105239879669333 0.000020040010518250602 0.00002004163079537437 0.000020046178114359346
          0.00002412258963658657 0.000024120911903052964 0.000024114607386630554 0.00002816356533683319 0.000028160207654913967 0.00002814684745890555
          0.000005115777627610369 0.000005131213666849742 0.000005183045849981417 0.000007610514821978363 0.0000076267097919603336 0.000007674484129548487
          0.000010715593393068087 0.000010727381398714012 0.000010762719139118568 0.000014316883817167392 0.00001432388921828274 0.000014345068382204874
          0.00001826436454757291 0.00001826693631864194 0.00001827459796941472 0.000022395053573404778 0.000022394730033769455 0.000022392610890263676
          0.000026564658401989164 0.000026562009398622018 0.000026555059812567655 0.0000306764056662444 0.00003066954524988533 0.000030650479449228237
          0.000006085870936940641 0.000006099289899828048 0.000006147205428615367 0.000009022002972458767 0.000009036445810645288 0.000009078507733359571
          0.00001253724475076997 0.000012546425356385912 0.00001257363045268069 0.00001647535907350622 0.000016479195905442208 0.00001649073446947809
          0.00002065944888864597 0.000020658628769251293 0.000020656443839197335 0.000024912455793049714 0.000024909764945389866 0.000024899179389691724
          0.000029091515185334748 0.000029087831251182 0.000029076129781311343 0.00003313298821441549 0.0000331241475439536 0.00003310350442068581
          0.000010717633936982692 0.000010729322533294641 0.0000107626088284455 0.000014635828249344487 0.000014641899212868038 0.000014659383711303028
          0.00001888038275684855 0.000018880762329719203 0.00001888182912757551 0.000023251888506566113 0.000023247761876471558 0.00002323576657311586
          0.00002757046305821045 0.00002756581573866499 0.00002754879232652656 0.00003171727954952289 0.00003171117550768849 0.00003169589479759832
          0.00003565699844337528 0.000035644848380590246 0.000035612137824798345 0.00001271002628419015 0.000012717565194205213 0.000012739596558749983
          0.0000170140183805391 0.0000170167242562048 0.00001702369094801663 0.000021520697714156525 0.000021517214456345207 0.00002150655613534038
          0.000026010863652314276 0.000026003483644052644 0.000025981829487677886 0.00003031635134479639 0.00003030944281921095 0.00003028466872166357
          0.000034330883698190285 0.00003432165338980889 0.000034298252700398254 0.000038002478683043785 0.00003798767807686864 0.000037943617052614644
          0.000015027865228146408 0.000015030589012971333 0.000015038221761823842 0.000019677600585921895 0.000019675919495830432 0.000019669362426352616
          0.00002436477028242513 0.00002435705464478444 0.000024334085331654026 0.000028871891847138527 0.000028861429496536027 0.000028829999738663397
          0.00003304373669629435 0.00003303431609209247 0.00003300151366400751 0.00003678992171123013 0.00003677793388527148 0.00003674819195284948
          0.00001766896436522376 0.000017665794709586906 0.000017655845499569178 0.00002258875466206931 0.00002258197699727026 0.000022559768412399366
          0.000027343789117274348 0.00002733222852387544 0.000027297841730955725 0.00003173830861695107 0.00003172478354752179 0.00003168375270588129
          0.00003563959205488753 0.000035627813690977915 0.0000355888383486161 0.00003387565411666836 0.000029557732464693636 0.0000270826572049399
          0.00003056964581892187 0.000033864782433022107 0.000029551647996727212 0.000027079527309366205 0.000030562769178112984 0.000033829867203381375
          0.000029534225544872535 0.000027070600050186632 0.000030545092151561975 0.000016479647666503456 0.00001800140591506127 0.000015636437962312037
          0.000014135946561721185 0.000016491148911545775 0.000018011372499725378 0.000015648308181015497 0.000014150092650264337 0.00001652415513176917
          0.000018038833711925786 0.000015688165483726727 0.000014197283165270132 0.000038905406234454354 0.000039934168414498975 0.00003743945133301604
          0.000038888355675641816 0.00003991770956751462 0.000037423393375585514 0.000038831263722561104 0.000039860183416644063 0.00003736655875800475
          0.00003971664622486307 0.00003970381261176583 0.00003966713397390614 0.000024548178101481686 0.000022119988646916066 0.000024835090898077292
          0.000027790909634737647 0.000024548451883082087 0.00002212347442564312 0.000024835708450735354 0.000027787000335976645 0.000024549585185655028
          0.00002213532120489995 0.000024841251225031732 0.000027774889386998902 0.000014669149831556638 0.000012688269474906207 0.00001468455798133075
          0.000012704289476988486 0.00001472814187046592 0.000012756501181556406 0.00003548653759722564 0.00003832378827461927 0.00003834491094395959
          0.00003547607492360793 0.00003831381801907063 0.00003833431215922171 0.000035439633234969334 0.000038285643629658397 0.00003829833690930833
          0.000011388828233034219 0.000013063740610845416 0.000011406443261082626 0.000013082488274708424 0.000011463254748068277 0.000013136175709665645
          0.000035042389797045764 0.00003807909804550125 0.00003502917954126089 0.0000380652819451752 0.00003498629356674909 0.000038019679267978416
          0.00002081351612887264 0.000020819486307635544 0.000020835457369923923 0.00003393087838971679 0.000037723951017174006 0.00003392175050278017
          0.0000377145869943888 0.00003389337221164613 0.00003768504227694004 0.0000318973776791549 0.000034543347727719114 0.000031889098832268906
          0.000034532235950803635 0.000031872075523932556 0.000034498890969578186 0.000020599772722679528 0.000021950890110498846 0.000020605151270022723
          0.0000219555502085105 0.000020622021433448288 0.00002196917002277944 0.00001722965817367939 0.000019298558740423165 0.000017239129162742773
          0.00001930624065533636 0.000017271912413086953 0.000019328618445127526 0.000010313334830198128 0.00001033202829571028 0.000010392645140299879
          0.00000899716495243702 0.000009500488157283997 0.00000901935527008349 0.000009519542482265336 0.000009076119180529348 0.000009577689094388488
          0.00001873643886739693 0.00001874618689228687 0.000018771986718515018 0.000008467190242148417 0.000008488012018513569 0.000008566081673474979
          0.000035192818223593464 0.00003518099312640073 0.00003514329671297249 0.000008109862120145958 0.000008129205008735985 0.000008195728139640954
          0.000011729716760886247 0.000011752118998788442 0.000011816922764140887 0.000010634739949656473 0.000010658652350951771 0.000010738682759335847
          0.00000989187530500054 0.000009917248586075722 0.000009995392046974686 0.00004008516651936021 0.00004007029277955697 0.0000400217441211916
          0.000039001260952549155 0.000038988901683412716 0.00003895672330673936 0.00004186645402761423 0.00004185295648695156 0.000041810364815850375
          0.00002567469934773415 0.00002059712760314938 0.00002566277782369125 0.000020587658005578574 0.000025625089138789302 0.000020559658935635254
          0.00003035906449948555 0.000030343889087404143 0.000030297955812020184 0.00003449032166760425 0.00003447452101660691 0.000034426754911802495
          0.00003799579924387701 0.00003798329565162131 0.00003794206320223461 0.00004090387569742213 0.00004089246194225326 0.00004086249424280735
          0.00004218884191154971 0.00004217669824578826 0.000042142471341436785 0.000042084574352958184 0.00004207596993545274 0.000042053037471872466
          0.000027084608284189112 0.00003149720504605646 0.000027081823792448598 0.00003148906040293627 0.000027071293517955447 0.00003146337593403594
          0.00004195106601290827 0.00004169691718954205 0.00004194268482337147 0.00004168786115716142 0.00004191892784637179 0.00004166428512395883
          0.000019328293974211204 0.000021821578914354253 0.000019336103646038918 0.000021825642932623836 0.00001935591231959086 0.00002183772211899447
          0.00001701503148155133 0.000017026739525654523 0.000017061887051924866 0.00004175269705919367 0.000041742840657319826 0.00004171677860766349
          0.00002376276584099089 0.000025764391675433968 0.000023764486283790326 0.00002576414711087865 0.000023772523016899774 0.000025764189697170284
          0.00004184318827117159 0.00004183680272516023 0.00004181694866057911 0.0000409391295964607 0.00003662722763520684 0.000040934619344752206
          0.00003662028950729176 0.000040923522856596094 0.00003659743869743383 0.00004179879299098713 0.00004178440475347139 0.00004173370888302174
          0.000015062520276887957 0.000015078290565820501 0.0000151259567910167 0.000008931687247344246 0.000010243787889633591 0.000008955994403281792
          0.000010269834607168915 0.000009033266597893404 0.000010349240985884875 0.000013472918826711792 0.000013492676857647346 0.000013551815711024903
          0.000012040857811546564 0.000012064149862550555 0.000012137441938536103 0.00004366899876902671 0.000043658599617907065 0.00004363474296009784
        </DataArray>
        <DataArray type="Float64" Name="disp_y" format="ascii" RangeMin="-0.00002878534679192809" RangeMax="0">
          -1.8343539549578162e-7 0 -1.8477635301187738e-7 0 -1.9023007694958708e-7 0
          -1.549811819237962e-7 0 -1.5475471293405542e-7 0 -1.530136022999256e-7 0
          -1.5826128609634952e-7 0 -1.5775550610123998e-7 0 -1.582402921972192e-7 0
          -1.5641379001188095e-7 0 -1.5600111975338284e-7 0 -1.5465739633670887e-7 0
          -1.729956444606164e-7 0 -1.7202824556832075e-7 0 -1.6881468845316003e-7 0
          -2.27096710185516e-7 0 -2.2572893461640448e-7 0 -2.2110732932616795e-7 0
          -3.313182852832097e-7 0 -3.299000991188812e-7 0 -3.2515751728836705e-7 0
          -5.148147643544663e-7 0 -5.1289849942448e-7 0 -5.106573610184202e-7 0
          -3.3716969967179926e-7 -3.3787136353894225e-7 -3.3925949402693e-7 -3.2028435258183584e-7 -3.202841782260957e-7 -3.2065357472827506e-7
          -3.1258698323904147e-7 -3.1240772911789004e-7 -3.115062408607014e-7 -3.197011872559859e-7 -3.187122290173055e-7 -3.1576257140583373e-7
          -3.645804131739018e-7 -3.6285067182809927e-7 -3.574863042697136e-7 -4.797478563742702e-7 -4.771538219653897e-7 -4.694615413685011e-7
          -6.934273805696518e-7 -6.902584037541175e-7 -6.801226628549001e-7 -0.00000101174337083538 -0.0000010086867102841404 -9.96923727308486e-7
          -4.836459167089861e-7 -4.836123270478562e-7 -4.83573806293433e-7 -4.774770569500825e-7 -4.774046727635612e-7 -4.771550378591628e-7
          -4.748211791497102e-7 -4.741852329805967e-7 -4.7277375022010036e-7 -4.970394405048047e-7 -4.955247513012294e-7 -4.911576661289369e-7
          -5.831502692279606e-7 -5.806526111462305e-7 -5.729934584342697e-7 -7.738689993231594e-7 -7.702844364267421e-7 -7.593944258923985e-7
          -0.000001102931965469643 -0.0000010986015977586338 -0.0000010848831957883117 -0.0000016044934023447547 -0.0000015999829889172342 -0.0000015855271800082218
          -6.335713916370052e-7 -6.335641646586953e-7 -6.335608023545554e-7 -6.31526526816738e-7 -6.311875560279785e-7 -6.302091580475405e-7
          -6.409720823582736e-7 -6.399243183504749e-7 -6.370849944444547e-7 -6.936225793863748e-7 -6.915624662616306e-7 -6.852752542323031e-7
          -8.373715099098246e-7 -8.340120976568825e-7 -8.236620827038561e-7 -0.0000011203037639833594 -0.0000011158954660152185 -0.0000011019988789832042
          -0.0000015871131436168945 -0.000001581966535414239 -0.0000015665776886894674 -0.000002262969263152074 -0.000002257407005296239 -0.000002242503309630582
          -7.860327810207036e-7 -7.859682155221673e-7 -7.86111756526453e-7 -7.889795303465054e-7 -7.883088055671575e-7 -7.86749345887205e-7
          -8.170006304024856e-7 -8.153367971649031e-7 -8.10200893873908e-7 -9.158787685338966e-7 -9.12973944970694e-7 -9.041942958396442e-7
          -0.0000011361409563418556 -0.0000011319280598720024 -0.00000111899373414175 -0.0000015319142024284148 -0.0000015265857302918247 -0.0000015103803547744266
          -0.0000021469629589383694 -0.0000021408950138443615 -0.0000021225662843610066 -0.0000029966760424128775 -0.00000299050217399582 -0.000002970847121616664
          -9.400225486442095e-7 -9.396354479853308e-7 -9.38857342714972e-7 -9.530747959800622e-7 -9.518767851608299e-7 -9.48299623097497e-7
          -0.000001013901536810058 -0.0000010115441023925285 -0.0000010043381337856138 -0.0000011734819219867684 -0.000001169720688670498 -0.0000011581472456119603
          -0.000001488824395469035 -0.000001483681178117358 -0.0000014679547741791312 -0.0000020155611079701927 -0.000002009317268360835 -0.0000019903241825285033
          -0.000002793500741469426 -0.0000027864679929595815 -0.0000027651981395945497 -0.00000384043721661005 -0.0000038334173179580345 -0.000003811448061482918
          -0.000001092069513118537 -0.0000010918623473333837 -0.000001091864206809999 -0.0000010978083374302503 -0.0000010971183529534117 -0.0000010948723881864835
          -0.0000011328021584032099 -0.0000011309796059404472 -0.0000011255700209620604 -0.0000012401910386017139 -0.0000012369875550081875 -0.0000012274235344371301
          -0.0000014773024101973871 -0.000001472609680200904 -0.0000014581332096417727 -0.0000019065773839950178 -0.0000019004296594285093 -0.0000018815285361692466
          -0.000002583018558404819 -0.000002575772182424906 -0.000002553655482489924 -0.0000035428320008592144 -0.000003535041613450762 -0.000003511573184212167
          -0.000004800030407691182 -0.0000047926738286463245 -0.0000047698942484988365 -0.0000012469145304430879 -0.0000012466069158958797 -0.0000012455851321508113
          -0.0000012673376584115531 -0.0000012660340094168665 -0.0000012623154833152639 -0.0000013360069170013385 -0.000001333465188472785 -0.0000013260354673534797
          -0.0000015047152757534547 -0.00000150060706531162 -0.0000014881420591272694 -0.0000018389794076211109 -0.0000018332273537796198 -0.000001815620077263529
          -0.00000240415787857188 -0.000002396971358101161 -0.000002374876831884376 -0.0000032506428456629745 -0.0000032424964845923164 -0.000003217622653840267
          -0.000004406004030673889 -0.000004397638655609161 -0.000004372313298500464 -0.000005875297888593432 -0.0000058679483176132205 -0.000005844946861454527
          -0.0000014073352853159785 -0.0000014065859319051162 -0.0000014042719212390257 -0.0000014543586596447111 -0.0000014525055463960532 -0.0000014473164721373986
          -0.0000015693790690058879 -0.0000015660844417456574 -0.0000015560689498822127 -0.0000018175860655833113 -0.0000018124864140492843 -0.0000017968249887524218
          -0.0000022721046170048683 -0.0000022652613431046444 -0.00000224430380147655 -0.0000029977686278299544 -0.000002989656428222822 -0.0000029648107443590128
          -0.000004034159541930318 -0.000004025473228312463 -0.000003998862650988751 -0.000005392679148093422 -0.000005384324237983116 -0.000005358346788360812
          -0.000007065741490117407 -0.000007058462313401969 -0.00000703610813414958 -0.0000015806682302848357 -0.0000015793448147332317 -0.0000015756399224792902
          -0.0000016628776872851924 -0.000001660492787931505 -0.0000016534515082221088 -0.000001840641018031759 -0.0000018364120922789209 -0.0000018237021735815103
          -0.000002190804250878869 -0.0000021845829701701694 -0.000002165464103101154 -0.0000027923625602225053 -0.000002784481439156502 -0.000002760151902660858
          -0.0000037025639521014445 -0.000003693731903707526 -0.00000366675114167135 -0.000004945106673718323 -0.000004936239793407579 -0.000004909494950313456
          -0.000006509826817619993 -0.000006501435151320615 -0.000006477213453716692 -0.000008368073680096502 -0.000008361537955965986 -0.000008340318452979234
          -0.0000017708406819577987 -0.0000017691059570732347 -0.0000017642305156826055 -0.0000018987868053075297 -0.000001895597591387817 -0.000001886164120811496
          -0.0000021583414013318496 -0.0000021530278009035402 -0.0000021367285400918412 -0.0000026390425363980926 -0.000002631629756381716 -0.000002608749272538003
          -0.0000034168235925621055 -0.000003408004851706938 -0.0000033808764205215878 -0.000004532982949969147 -0.000004523662616541334 -0.000004495343139880455
          -0.000005988960313460155 -0.0000059800535855999325 -0.000005953282008057554 -0.000007757566318284328 -0.000007749641813254374 -0.000007725538290905014
          -0.000009780054151124385 -0.000009773910877808213 -0.00000975548625859985 -0.0000019795847725019702 -0.0000019771777421369896 -0.000001970458779936134
          -0.0000021675277976404233 -0.0000021633263588846325 -0.000002150991865030521 -0.000002535557688727475 -0.0000025289658893283893 -0.000002508403549563814
          -0.0000031798473937526124 -0.0000031712566575885065 -0.000003144772657473768 -0.0000041622288055506755 -0.000004152655225035285 -0.000004123430077699423
          -0.000005500998987798622 -0.000005491476965424396 -0.000005462647483427405 -0.000007174847158559122 -0.000007166205789423994 -0.000007139804726808688
          -0.00000913452163068983 -0.000009127218334778189 -0.000009104691246828045 -0.000011336335292659452 -0.000011331057992028955 -0.000011314121803761034
          -0.0000022079985914461127 -0.0000022043214168486702 -0.0000021940945378753584 -0.0000024764119915029683 -0.0000024706800900573313 -0.000002452923327869706
          -0.00000298982974447781 -0.0000029818057089976303 -0.0000029571027611543584 -0.000003832062642279676 -0.000003822452390041188 -0.00000379290171608027
          -0.000005044337866623941 -0.00000503432801336686 -0.000005003782826804258 -0.000006617976782952564 -0.0000066086164516050485 -0.000006580282938441108
          -0.000008507540207239356 -0.000008499600188733595 -0.000008475669031907358 -0.000010649823980211808 -0.000010643600115552874 -0.000010625438737311952
          -0.000012978746338461297 -0.000012974759428393772 -0.000012962090311068657 -0.000002465905636199037 -0.0000024610982772516328 -0.0000024461909545554757
          -0.0000028435954204146244 -0.0000028361522808204456 -0.0000028128933049802476 -0.0000035395333861530457 -0.0000035300079972963453 -0.000003500733575977302
          -0.000004614593245198391 -0.000004604206379119717 -0.0000045723924800541215 -0.0000060782277784222055 -0.000006068148472450385 -0.000006037486316637822
          -0.00000789168712516648 -0.000007882912882330196 -0.00000785640196667058 -0.000009986073086912455 -0.000009979289247831464 -0.000009959001429434022
          -0.000012281850021693933 -0.000012277442917142068 -0.000012263997141585943 -0.000014700783319401628 -0.000014698942766643955 -0.00001469234067364433
          -0.000003291164342855285 -0.00000328179522617777 -0.000003252629072984829 -0.000004208234818464633 -0.000004197364438524078 -0.000004163828080079075
          -0.000005546362845870254 -0.000005535481105874921 -0.00000550234549695681 -0.000007275219227839321 -0.0000072655212367586625 -0.00000723624653952883
          -0.000009324263852230286 -0.000009316584663230419 -0.000009293354263382246 -0.000011601679158768295 -0.000011596442578120252 -0.000011580478682885357
          -0.000014012713046689567 -0.000014009780793402473 -0.000014001855551840975 -0.000016480501273856237 -0.000016479917807746066 -0.000016479846624573252
          -0.000003843962941344178 -0.000003832642809549174 -0.000003797385231800768 -0.000005023560162993359 -0.0000050116172729818 -0.0000049750673608047815
          -0.000006645327369504542 -0.000006634387064069582 -0.000006601200200381312 -0.000008640782223115276 -0.000008631931578855104 -0.000008605327503914789
          -0.000010910326801975122 -0.00001090412244746881 -0.000010885713272533085 -0.00001334141597944482 -0.000013337953909885036 -0.000013327661786742077
          -0.000015825889055138108 -0.00001582489758068124 -0.000015821067849175205 -0.000018285063566392044 -0.000018285573939369407 -0.000018286498793672873
          -0.000004533484555527804 -0.0000045203119869343966 -0.000004479715671784063 -0.00000601109743065512 -0.000005998560688630406 -0.000005960615432252554
          -0.000007926324798367218 -0.00000791584682530615 -0.00000788415619134249 -0.000010175678726895162 -0.00001016803581804924 -0.000010145039223750358
          -0.000012636866144737873 -0.000012632381951775851 -0.000012619272657325238 -0.000015184396666088165 -0.000015182873318675224 -0.000015179003882120336
          -0.00001770541820642928 -0.00001770603113860525 -0.000017708881587649823 -0.00002012251257348069 -0.000020124466581797296 -0.000020126832871488048
          -0.000005394575726510296 -0.000005380047734961253 -0.000005335432243289719 -0.0000071943360259559525 -0.000007181803488258091 -0.0000071441475606909685
          -0.000009399255597262096 -0.000009389703980855112 -0.00000936107300190783 -0.000011876876023052446 -0.000011870746058883112 -0.000011852350335915083
          -0.000014488883855698975 -0.00001448620910721552 -0.000014478375220561755 -0.000017104820456922552 -0.000017105320288467016 -0.000017106854645543404
          -0.000019620535147553775 -0.000019623157125355914 -0.000019631686312479493 -0.000021973137947138854 -0.00002197768892876168 -0.000021989756702556974
          -0.000008593159679973165 -0.000008581251682554082 -0.00000854613486177218 -0.0000110688883704709 -0.000011060783759339153 -0.000011036353949364378
          -0.000013737280950388729 -0.000013733053977126914 -0.000013720343475569448 -0.000016449023430536927 -0.000016448416829680634 -0.000016446726770315077
          -0.00001907768184639567 -0.00001908045728063067 -0.00001908785963645745 -0.000021534368745251873 -0.000021539552651544457 -0.00002155431332495011
          -0.000023779832701503806 -0.000023788017004580635 -0.000023809995324974965 -0.000010221760082835804 -0.000010211059095159341 -0.000010179704178576342
          -0.000012935936353323547 -0.000012929954561256532 -0.000012911619164326778 -0.000015742605801189916 -0.000015740895096363787 -0.000015735632949934914
          -0.000018489838311300483 -0.000018491978212986646 -0.000018498298104253272 -0.00002106699410593903 -0.000021072503483158554 -0.00002108845666271872
          -0.000023402302380406 -0.000023410174915330546 -0.00002343473945646798 -0.000025459483604491042 -0.000025469495334871284 -0.000025500660040397355
          -0.000012087285692844053 -0.000012078319624176798 -0.000012051463061107549 -0.00001499143791670801 -0.000014988086990224483 -0.000014978292782525012
          -0.00001786238342925232 -0.000017863792977122834 -0.000017868051724250597 -0.000020566594532893083 -0.000020572005818810723 -0.000020588161467662584
          -0.000023015286032064213 -0.00002302367132874113 -0.000023049167664914114 -0.00002515526765683877 -0.000025165544827878898 -0.000025197234424913237
          -0.000014202762611918544 -0.00001419692745504395 -0.00001417902349229733 -0.000017204287370517922 -0.000017204335110224987 -0.00001720483582262985
          -0.00002004656646521544 -0.000020051616292453758 -0.00002006686855886127 -0.000022615306299184024 -0.000022623993402390184 -0.0000226502871685947
          -0.000024850771859782074 -0.000024861509566078963 -0.000024894667349071636 -0.00002157641763314707 -0.00001886464336377536 -0.00001702550855823553
          -0.000019212039634787245 -0.000021581701795894464 -0.000018866323254709264 -0.000017025722353650495 -0.000019214970507829316 -0.000021594175275376607
          -0.00001887064071536647 -0.000017027293566505687 -0.000019224690261167188 -0.000008130861492596693 -0.000009534908091213149 -0.000008174690065653223
          -0.000006883681763950028 -0.000008126323444364877 -0.000009531450850541783 -0.000008169008344403433 -0.000006877576961493402 -0.000008112346721386498
          -0.000009521093353223087 -0.000008152334123734401 -0.000006859110656252574 -0.000025315770434682594 -0.00002638537651525092 -0.00002468869138042229
          -0.0000253243593561317 -0.000026395500059870455 -0.000024696395844424244 -0.00002535028945907096 -0.000026431937021207795 -0.00002472396355369642
          -0.000025801452041092854 -0.00002580880112843817 -0.000025836404300369223 -0.000015136418258996828 -0.000013334327498646044 -0.000015021526742290037
          -0.000017158428202783135 -0.000015134990465601308 -0.000013331814080491616 -0.000015020708920505075 -0.00001715963082024747 -0.000015131081617327008
          -0.000013321803987125088 -0.000015018500691943199 -0.000017164067388030743 -0.0000065101301391712335 -0.000005601078958829481 -0.0000065053555162013215
          -0.000005594569693727845 -0.000006489948239657956 -0.000005574427259722516 -0.000022483028076535805 -0.000024393591268977987 -0.000024568311112517993
          -0.00002248758944706699 -0.000024399775214262616 -0.0000245747808501606 -0.000022506631388335133 -0.000024419868471629384 -0.000024592837559992988
          -0.000004403956968328605 -0.000005054315751601645 -0.000004397337807627278 -0.000005049426855800343 -0.00000437698102635433 -0.000005034865675823823
          -0.000022767088043983966 -0.00002458765390469443 -0.000022774372144990394 -0.000024594426887906035 -0.000022794237593488966 -0.00002462355020927883
          -0.000011718551204515078 -0.0000117157154224824 -0.00001170880051745724 -0.000021338576858634002 -0.00002377227769531738 -0.000021343978678437183
          -0.000023778823072003557 -0.000021359616843733834 -0.000023802658796276592 -0.00002063386905893281 -0.00002222485587691162 -0.00002063707579679101
          -0.000022231261592039637 -0.00002064538820767728 -0.000022248987343534267 -0.000012172036230098028 -0.000012915046365397776 -0.000012168231401235936
          -0.00001291231279447794 -0.000012157306053122018 -0.000012905388743520929 -0.000009460435587805638 -0.000011011729476810637 -0.000009455701320933194
          -0.000011007774330748877 -0.000009441118832527158 -0.000010996774247107593 -0.000003354636115898649 -0.0000033489684868062643 -0.0000033294135134191945
          -0.0000017726941753958544 -0.000002479823902605676 -0.0000017686435854867963 -0.0000024752070305704614 -0.0000017582266102458919 -0.000002459291275575166
          -0.00001027194791215661 -0.00001026865061303259 -0.000010260298252228614 -0.0000010831342336178278 -0.0000010833042266852905 -0.0000010763678879518961
          -0.000023168238873092628 -0.00002317497828391039 -0.000023194773908775584 -5.677583907342413e-7 -5.673407870917828e-7 -5.683041400519458e-7
          -0.0000037754374413379993 -0.000003771123499546952 -0.0000037563807859968708 -0.0000026008249578988815 -0.0000026002480255092694 -0.0000025920640398195724
          -0.000001988026358057329 -0.000001985415036937317 -0.0000019880820259847317 -0.00002695046372221592 -0.000026961567310881386 -0.000026996168412091998
          -0.000026728790080259533 -0.00002674017134988206 -0.00002677521497902914 -0.000028244061713819597 -0.000028254570519814254 -0.000028288061891615115
          -0.00001952779080183765 -0.00001653969891727832 -0.000019532069868736466 -0.00001653831139126421 -0.000019545060823607957 -0.000016533812808571123
          -0.00002222730055637278 -0.00002223609371283266 -0.000022262846144942437 -0.000024559844630731018 -0.00002457128272934492 -0.00002460637199830678
          -0.000026505214528985577 -0.000026517234571836456 -0.000026554633260772884 -0.000028083130946792647 -0.000028094219204889607 -0.00002812891279805809
          -0.000027556689779113112 -0.000027564931982842523 -0.00002758896894978542 -0.000027327418991753268 -0.000027335747972436668 -0.00002735896877459637
          -0.000016262604543948926 -0.000019428091041975687 -0.000016264031406641528 -0.000019431984869749394 -0.000016268621186673173 -0.000019443015920527758
          -0.000026692144615128122 -0.0000266901476094639 -0.000026699012459627734 -0.00002669724047687881 -0.00002671569510227901 -0.000026718056716747046
          -0.000009579344742583082 -0.00001188653963269983 -0.000009577258470194115 -0.000011885067282801274 -0.000009570802014264535 -0.00001187987223930438
          -0.00000754069958167417 -0.0000075386799746620925 -0.000007533129204615887 -0.000026916675519905392 -0.00002692567821468373 -0.000026949948478074217
          -0.000013856810809026342 -0.000014804797297446381 -0.000013856973935141024 -0.000014806706256302513 -0.000013853903339011926 -0.000014811850005653927
          -0.000026373060819212784 -0.00002638092917509872 -0.000026400301764724314 -0.000025436664987459905 -0.000022793602786669612 -0.000025445058800854615
          -0.000022800658287565204 -0.000025475226343952837 -0.000022819209152038597 -0.00002775674249464251 -0.00002776667632077513 -0.0000277975146690015
          -0.000005751374013382352 -0.0000057497969277975755 -0.00000574435733769147 0 -0.0000015203667005219893 0
          -0.0000015175581111654235 0 -0.0000015122212531128595 -0.000004230745012016335 -0.000004229452467606996 -0.000004228169724138896
          -0.000002884353545645463 -0.0000028826120057568116 -0.000002883275472980563 -0.000028756514917615295 -0.00002876380933015032 -0.00002878534679192809
        </DataArray>
        <DataArray type="Float64" Name="disp_z" format="ascii" RangeMin="-0.0000015849691990001925" RangeMax="0">
          0 0 -6.487745767896161e-8 -8.031357902026874e-8 -1.2697732222062978e-7 -1.7234519935756456e-7
          0 0 -5.313213900039579e-8 -4.760514920600948e-8 -1.075584469252695e-7 -8.778296998034403e-8
          0 0 -5.1820371381825915e-8 -5.516432705216421e-8 -1.0328218113410678e-7 -1.125730056212616e-7
          0 0 -5.132772907343239e-8 -5.170696262082799e-8 -1.0309398876567459e-7 -1.0252488579106945e-7
          0 0 -6.114340476305697e-8 -5.685580087784595e-8 -1.2422117730235605e-7 -1.1595952780795089e-7
          0 0 -8.768391405226666e-8 -8.274614025005634e-8 -1.7621107436401685e-7 -1.6621111853725668e-7
          0 0 -1.2697119587150005e-7 -1.2129429675355316e-7 -2.5615855456823225e-7 -2.4564519319076925e-7
          0 0 -1.6697903168231864e-7 -1.6746451369506502e-7 -3.4186561753460126e-7 -3.414090698315438e-7
          0 -5.7954304981443545e-8 -1.1645994013361045e-7 0 -5.4514352005664845e-8 -1.0886864415203906e-7
          0 -5.187363598868682e-8 -1.045562657369076e-7 0 -5.522115083682696e-8 -1.1140172057252009e-7
          0 -6.952892265347166e-8 -1.4062996375016095e-7 0 -9.989399913847193e-8 -2.0036480539854434e-7
          0 -1.4066237708592462e-7 -2.8397438125506606e-7 0 -1.7678858025780477e-7 -3.5891111421250727e-7
          0 -5.7473513179309095e-8 -1.1487062128916851e-7 0 -5.354716666640158e-8 -1.0724434532197062e-7
          0 -5.3826083094748336e-8 -1.0845430035099116e-7 0 -6.179622628962528e-8 -1.2467404719660718e-7
          0 -8.153105790865912e-8 -1.646856704554604e-7 0 -1.1649838430530996e-7 -2.3368626169551195e-7
          0 -1.645443112621829e-7 -3.3131280304190555e-7 0 -2.130073946388014e-7 -4.299638613127507e-7
          0 -5.775730443613056e-8 -1.1556146883048819e-7 0 -5.499278356140373e-8 -1.1045441292502628e-7
          0 -5.6619261815913856e-8 -1.1416475201575695e-7 0 -7.121751894090885e-8 -1.438798329187588e-7
          0 -9.839563166010898e-8 -1.9840445701894926e-7 0 -1.4071349142908506e-7 -2.8198789325235375e-7
          0 -1.9192453094447965e-7 -3.8583915762624325e-7 0 -2.343500043851856e-7 -4.7173988285261247e-7
          0 -5.718999354340562e-8 -1.1449103661720885e-7 0 -5.665822810617203e-8 -1.137151478390878e-7
          0 -6.377970150796629e-8 -1.2891760237185062e-7 0 -8.489570572852184e-8 -1.715123057535117e-7
          0 -1.2023186954913666e-7 -2.42065814344219e-7 0 -1.6932924861356848e-7 -3.387698130416247e-7
          0 -2.2251916509373878e-7 -4.473980640330373e-7 0 -2.6623555520549724e-7 -5.363533538477186e-7
          0 -5.689220999973149e-8 -1.1403168089065889e-7 0 -6.053434787961614e-8 -1.2191861608135924e-7
          0 -7.539085020669239e-8 -1.5216426545466997e-7 0 -1.0377253871538634e-7 -2.0932124603926934e-7
          0 -1.4697836151025261e-7 -2.9567293939304395e-7 0 -2.0208663918100934e-7 -4.0417111960539396e-7
          0 -2.5947101972084714e-7 -5.212896981213957e-7 0 -3.074716472868668e-7 -6.180110511421761e-7
          0 -5.6879942498195264e-8 -1.1380824831938752e-7 0 -5.9204047407721596e-8 -1.1907235830631972e-7
          0 -6.895709435162999e-8 -1.3915798594945967e-7 0 -9.065878526311843e-8 -1.8282008829032474e-7
          0 -1.2795404333948237e-7 -2.577715036030488e-7 0 -1.7953635888990642e-7 -3.605661971611832e-7
          0 -2.4066666673149694e-7 -4.812776635262905e-7 0 -3.0108378165356167e-7 -6.042069890546161e-7
          0 -3.509830289782401e-7 -7.042834317392626e-7 0 -5.702978216003327e-8 -1.1487791906966253e-7
          0 -6.508175132250095e-8 -1.3049786504267537e-7 0 -7.991450194966215e-8 -1.6126017577631107e-7
          0 -1.1033451963629539e-7 -2.2295026579761207e-7 0 -1.5824788657316698e-7 -3.1815677160291125e-7
          0 -2.1826271005212022e-7 -4.377401478269442e-7 0 -2.851368760058813e-7 -5.698742278563727e-7
          0 -3.469974852275743e-7 -6.954179373068559e-7 0 -3.9511872743628655e-7 -7.919259255516327e-7
          0 -5.994406868865575e-8 -1.2052204179932743e-7 0 -7.254565396867005e-8 -1.4594105812917956e-7
          0 -9.604676458982402e-8 -1.939833363923697e-7 0 -1.3679188392071234e-7 -2.757083503111885e-7
          0 -1.942043348525287e-7 -3.9010547126553485e-7 0 -2.628796655762372e-7 -5.265662177698495e-7
          0 -3.343029910311943e-7 -6.675207918314872e-7 0 -3.9637959564984354e-7 -7.930292252402248e-7
          0 -4.397067821681141e-7 -8.80359096734976e-7 0 -6.524869191583576e-8 -1.3120854565493504e-7
          0 -8.288133024384197e-8 -1.6744587865780971e-7 0 -1.1681627975457003e-7 -2.356772129990692e-7
          0 -1.693872275730076e-7 -3.407507192598728e-7 0 -2.3711031427814011e-7 -4.7569769150299203e-7
          0 -3.1209852151981716e-7 -6.243879328600235e-7 0 -3.852248685868753e-7 -7.689152814203009e-7
          0 -4.454091806420437e-7 -8.906835213783981e-7 0 -4.814561171524232e-7 -9.624688028713864e-7
          0 -7.246828642663958e-8 -1.4617007662151588e-7 0 -9.747977289674966e-8 -1.9708947729515433e-7
          0 -1.4344272684224441e-7 -2.891506581802655e-7 0 -2.089809614807989e-7 -4.19830316450007e-7
          0 -2.8632508261321633e-7 -5.73501604415133e-7 0 -3.6509812748919815e-7 -7.296060282188792e-7
          0 -4.344676932580399e-7 -8.67185775053244e-7 0 -4.85683629272485e-7 -9.699796338925088e-7
          0 -5.252359904447457e-7 -0.0000010499555453260663 0 -8.206550374757448e-8 -1.6555526644349612e-7
          0 -1.1668863035402688e-7 -2.3619030803102253e-7 0 -1.780732852515872e-7 -3.5860271316707766e-7
          0 -2.5611127299178224e-7 -5.13547935250454e-7 0 -3.400519953565082e-7 -6.80188671154184e-7
          0 -4.18968370914228e-7 -8.367735458685644e-7 0 -4.851964213031469e-7 -9.680725220719105e-7
          0 -5.359959469287945e-7 -0.0000010699412676987194 0 -5.583212796294286e-7 -0.0000011151080475092462
          0 -9.609126156908855e-8 -1.9451856482840783e-7 0 -1.430265861921338e-7 -2.89632057251693e-7
          0 -2.213559012571341e-7 -4.449835669885883e-7 0 -3.0968300595365343e-7 -6.199537576638366e-7
          0 -3.9707263855062005e-7 -7.934030705753777e-7 0 -4.736247131456174e-7 -9.452790382097866e-7
          0 -5.334220042120468e-7 -0.0000010639979573677834 0 -5.710180778365431e-7 -0.000001138959642981207
          0 -5.912006860740278e-7 -0.0000011801202541978319 0 -1.1908687406585177e-7 -2.4063702881687543e-7
          0 -1.8235067892756486e-7 -3.6858718388304846e-7 0 -2.7232560339658436e-7 -5.463309435404865e-7
          0 -3.6849841404145984e-7 -7.367195567515802e-7 0 -4.5583988615248287e-7 -9.099246302358041e-7
          0 -5.259099143326078e-7 -0.0000010491087695805595 0 -5.747462844245808e-7 -0.0000011463129793272983
          0 -6.028261043279831e-7 -0.0000012024203457562752 0 -6.08717208117871e-7 -0.0000012138477749674073
          0 -2.3201670659643536e-7 -4.6770782105850963e-7 0 -3.327627485277372e-7 -6.663503458846677e-7
          0 -4.307571191956712e-7 -8.602140697041473e-7 0 -5.13223039378973e-7 -0.0000010238190326532867
          0 -5.737088099866884e-7 -0.0000011439506036583608 0 -6.090174264144009e-7 -0.000001214486000322229
          0 -6.205007398792868e-7 -0.0000012379435793924562 0 -6.171664258895349e-7 -0.0000012322149702448475
          0 -2.9351890560930187e-7 -5.905490435140998e-7 0 -4.004005064177808e-7 -8.003530213546036e-7
          0 -4.944214654736998e-7 -9.864375553609861e-7 0 -5.663347583599333e-7 -0.0000011293538527825924
          0 -6.131923283369463e-7 -0.000001222564995407889 0 -6.346997570661985e-7 -0.0000012655842161791463
          0 -6.307901066902264e-7 -0.000001258308103737505 0 -6.045233248230159e-7 -0.0000012073330774220605
          0 -3.6611538930958784e-7 -7.352509871041294e-7 0 -4.721698449302562e-7 -9.426733774834999e-7
          0 -5.56747738736072e-7 -0.000001110015500011088 0 -6.136372189986313e-7 -0.0000012232960963993183
          0 -6.419729850384449e-7 -0.0000012801239691039242 0 -6.449544987184699e-7 -0.0000012871458428160711
          0 -6.332038222814469e-7 -0.000001263702333363512 0 -6.189141568715079e-7 -0.0000012333174020031005
          0 -4.4706326336996833e-7 -8.96678110669356e-7 0 -5.443584478154526e-7 -0.000001086042156519109
          0 -6.144942703712358e-7 -0.0000012246577272838303 0 -6.529458908587494e-7 -0.0000013014513489055994
          0 -6.613204874286852e-7 -0.000001318877662148111 0 -6.44478324880672e-7 -0.0000012870484598870547
          0 -6.153745562490972e-7 -0.0000012282613148094874 0 -6.002766377344385e-7 -0.0000011933811088021366
          0 -6.136706264395253e-7 -0.0000012242013961585483 0 -6.648233612444533e-7 -0.0000013245574015634704
          0 -6.824016531635646e-7 -0.0000013599337930266785 0 -6.696587569139785e-7 -0.0000013357038840816877
          0 -6.358899752956161e-7 -0.0000012703642336571162 0 -5.992109139057859e-7 -0.0000011950253279115032
          0 -5.813165613870322e-7 -0.0000011552654458220106 0 -6.748011730625802e-7 -0.0000013464025153272328
          0 -7.059927538137758e-7 -0.000001406718386788828 0 -6.997801171996266e-7 -0.0000013942257820555023
          0 -6.655331588261172e-7 -0.00000132759657545429 0 -6.153837635129044e-7 -0.000001229282146622793
          0 -5.630001966666324e-7 -0.0000011213016028274437 0 -5.258059969385082e-7 -0.0000010462745523765774
          0 -7.295827349479088e-7 -0.0000014555957408816002 0 -7.329880254444904e-7 -0.0000014603308550965972
          0 -7.005185513103012e-7 -0.0000013957977976932147 0 -6.443137943015664e-7 -0.0000012854077196589518
          0 -5.753135948557425e-7 -0.0000011495735946081772 0 -5.081305128662961e-7 -0.0000010124112873537394
          0 -7.732366712648909e-7 -0.0000015428730362912977 0 -7.40882598872491e-7 -0.0000014758392605258758
          0 -6.81670134808725e-7 -0.000001358549029789996 0 -6.031153974627664e-7 -0.0000012036456913512235
          0 -5.1736915924214e-7 -0.0000010350042729118717 0 0 0
          0 -5.468629440613194e-7 -5.955477342891666e-7 -5.960972400012809e-7 -5.771299269601605e-7 -0.0000010900768947466316
          -0.0000011872853009727065 -0.0000011890807200031394 -0.0000011512359966267538 0 0 0
          0 -5.384196274988074e-7 -5.588781872858423e-7 -5.047429386212189e-7 -4.737237128364105e-7 -0.0000010720759593036264
          -0.0000011126364384169174 -0.0000010082591996038401 -9.465293108421913e-7 0 0 0
          -4.418143239381246e-7 -4.296244667271338e-7 -5.239509535036658e-7 -8.86700867996926e-7 -8.607013364935178e-7 -0.0000010411126400968025
          0 -3.9788200139127143e-7 -8.002696013510875e-7 0 0 0
          0 -6.017982951626899e-7 -5.800847897906354e-7 -6.005843806923006e-7 -5.974549905838048e-7 -0.0000012003017149086885
          -0.0000011583427679906417 -0.0000011964402586323506 -0.0000011899729582037025 0 0 -4.993878968745773e-7
          -4.32570495429234e-7 -9.951563150970702e-7 -8.658960919321247e-7 0 0 0
          -5.015421529924817e-7 -4.3738040419589924e-7 -4.4699450141775525e-7 -0.0000010044040809580983 -8.763612776548172e-7 -8.947453859107708e-7
          0 0 -3.865237101711255e-7 -4.5914564406342033e-7 -7.756078258678802e-7 -9.154977427035414e-7
          0 0 -5.588178349243025e-7 -4.694987096276224e-7 -0.0000011123554815392342 -9.397403761351124e-7
          0 -5.756390357387747e-7 -0.0000011466786582970562 0 0 -5.349256091125272e-7
          -4.6133381530452845e-7 -0.000001067606462959339 -9.237289030784273e-7 0 0 -5.778762368398075e-7
          -5.711974251091227e-7 -0.0000011500538997762284 -0.0000011387846104498148 0 0 -5.650691209193908e-7
          -5.807857372949095e-7 -0.0000011280119862563817 -0.0000011581414978528917 0 0 -5.313880088926303e-7
          -5.624840233963409e-7 -0.0000010613869993087931 -0.0000011231589159571756 0 -3.3972747586096673e-7 -6.855694876829745e-7
          0 0 -2.7655745742247263e-7 -2.9317249977898977e-7 -5.639953289867604e-7 -5.943834627974229e-7
          0 -5.623434818082357e-7 -0.0000011212585365825966 0 -2.573096718204835e-7 -5.254718055974499e-7
          0 -5.800154252323076e-7 -0.0000011531435775799266 0 -2.1055127106190156e-7 -4.2137278635306304e-7
          0 -4.1914882402003033e-7 -8.370711986394797e-7 0 -3.7104818488753743e-7 -7.449664025784071e-7
          0 -3.209355153375034e-7 -6.353721954070386e-7 0 -4.5784596110820057e-7 -9.144626391015802e-7
          0 -4.4164078732558493e-7 -8.817621328640903e-7 0 -3.880878314665864e-7 -7.769083845504714e-7
          0 0 -7.278733448388673e-7 -7.945169662776715e-7 -0.0000014502654542927953 -0.0000015849691990001925
          0 -6.402374433483663e-7 -0.0000012766437002304411 0 -5.422773551035266e-7 -0.0000010835215096266397
          0 -4.4740554051424273e-7 -8.970161778218337e-7 0 -3.724312215330922e-7 -7.454207139526399e-7
          0 -3.482504062130205e-7 -7.021691767404728e-7 0 -3.611111684437179e-7 -7.25345900848752e-7
          0 0 -6.05782375088612e-7 -5.548500126544825e-7 -0.000001207117012840296 -0.0000011077927391833846
          0 0 -3.8956950194947073e-7 -3.8462043824149355e-7 -7.803075788148746e-7 -7.693257507102041e-7
          0 0 -5.736652778609536e-7 -5.912737174786606e-7 -0.0000011462124106531054 -0.000001180163199141251
          0 -5.57317046989286e-7 -0.0000011127711597073018 0 -3.7374943403632605e-7 -7.495958060118316e-7
          0 0 -5.934643615897553e-7 -6.041976643205086e-7 -0.0000011827193100493584 -0.0000012047315164723876
          0 -3.790620101577281e-7 -7.612753660409156e-7 0 0 -4.2043972099957624e-7
          -4.866554482164143e-7 -8.431112047188045e-7 -9.750010441092177e-7 0 -3.5065686813323496e-7 -7.046823507525172e-7
          0 -5.342542458495844e-7 -0.0000010670781312687897 0 0 -3.247483877011245e-7
          -4.239686095817161e-7 -6.54978925592939e-7 -8.476004086785182e-7 0 -5.120640160051824e-7 -0.0000010217559836132595
          0 -4.990514031997631e-7 -9.959779843470383e-7 0 -3.046788412436276e-7 -6.148747463447132e-7
        </DataArray>
      </PointData>
      <CellData>
        <DataArray type="Int32" Name="libmesh_elem_id" format="ascii" RangeMin="776" RangeMax="3207">
          776 777 778 779 780 781
          782 783 784 785 786 787
          788 789 794 795 796 797
          798 799 800 801 802 803
          804 805 806 807 812 813
          814 815 816 817 818 819
          820 821 822 823 824 825
          830 831 832 833 834 835
          836 837 838 839 840 841
          842 843 848 849 850 851
          852 853 854 855 856 857
          858 859 860 861 866 867
          868 869 870 871 872 873
          874 875 876 877 878 879
          884 885 886 887 888 889
          890 891 892 893 894 895
          896 897 900 901 902 903
          904 905 906 907 908 909
          910 911 912 913 914 915
          918 919 920 921 922 923
          924 925 926 927 928 929
          930 931 932 933 936 937
          938 939 940 941 942 943
          944 945 946 947 948 949
          950 951 954 955 956 957
          958 959 960 961 962 963
          964 965 966 967 968 969
          972 973 974 975 976 977
          978 979 980 981 982 983
          984 985 986 987 990 991
          992 993 994 995 996 997
          998 999 1000 1001 1002 1003
          1004 1005 1008 1009 1010 1011
          1012 1013 1014 1015 1016 1017
          1018 1019 1020 1021 1022 1023
          1028 1029 1030 1031 1032 1033
          1034 1035 1036 1037 1038 1039
          1040 1041 1046 1047 1048 1049
          1050 1051 1052 1053 1054 1055
          1056 1057 1058 1059 1064 1065
          1066 1067 1068 1069 1070 1071
          1072 1073 1074 1075 1076 1077
          1082 1083 1084 1085 1086 1087
          1088 1089 1090 1091 1092 1093
          1094 1095 1102 1103 1104 1105
          1106 1107 1108 1109 1110 1111
          1112 1113 1120 1121 1122 1123
          1124 1125 1126 1127 1128 1129
          1130 1131 1138 1139 1140 1141
          1142 1143 1144 1145 1146 1147
          1148 1149 1156 1157 1158 1159
          1160 1161 1162 1163 1164 1165
          1166 1167 1174 1175 1176 1177
          1178 1179 1180 1181 1182 1183
          1374 1375 1376 1377 1378 1379
          1384 1385 1388 1389 1404 1405
          1458 1459 1536 1537 1542 1543
          1624 1625 1648 1649 1658 1659
          1672 1673 1770 1771 1810 1811
          1818 1819 1828 1829 1830 1831
          1866 1867 2074 2075 2078 2079
          2116 2117 2124 2125 2288 2289
          2290 2291 2336 2337 2342 2343
          2348 2349 2352 2353 2356 2357
          2358 2359 2424 2425 2452 2453
          2464 2465 2496 2497 2526 2527
          2530 2531 2532 2533 2554 2555
          2560 2561 2590 2591 2594 2595
          2622 2623 2736 2737 2740 2741
          2762 2763 2768 2769 2794 2795
          2800 2801 2864 2865 2890 2891
          2904 2905 2920 2921 2956 2957
          2986 2987 3018 3019 3036 3037
          3088 3089 3114 3115 3144 3145
          3156 3157 3176 3177 3184 3185
          3190 3191 3206 3207
        </DataArray>
        <DataArray type="Int32" Name="subdomain_id" format="ascii" RangeMin="105" RangeMax="107">
          105 105 105 105 105 105
          105 105 105 105 105 105
          105 105 105 105 105 105
          105 105 105 105 105 105
          105 105 105 105 105 105
          105 105 105 105 105 105
          105 105 105 105 105 105
          105 105 105 105 105 105
          105 105 105 105 105 105
          105 105 105 105 105 105
          105 105 105 105 105 105
          105 105 105 105 105 105
          105 105 105 105 105 105
          105 105 105 105 105 105
          105 105 105 105 105 105
          105 105 105 105 105 105
          105 105 105 105 105 105
          105 105 105 105 105 105
          105 105 105 105 105 105
          105 105 105 105 105 105
          105 105 105 105 105 105
          105 105 105 105 105 105
          105 105 105 105 105 105
          105 105 105 105 105 105
          105 105 105 105 105 105
          105 105 105 105 105 105
          105 105 105 105 105 105
          105 105 105 105 105 105
          105 105 105 105 105 105
          105 105 105 105 105 105
          105 105 105 105 105 105
          105 105 105 105 105 105
          105 105 105 105 105 105
          105 105 105 105 105 105
          105 105 105 105 105 105
          105 105 105 105 105 105
          105 105 105 105 105 105
          105 105 105 105 105 105
          105 105 105 105 105 105
          105 105 105 105 105 105
          105 105 105 105 105 105
          105 105 105 105 105 105
          105 105 105 105 105 105
          105 105 105 105 105 105
          105 105 105 105 105 105
          105 105 105 105 105 105
          105 105 105 105 105 105
          105 105 105 105 105 105
          105 105 105 105 105 105
          105 105 105 105 105 105
          105 105 105 105 105 105
          105 105 105 105 105 105
          105 105 105 105 105 105
          105 105 105 105 105 105
          107 107 107 107 107 107
          107 107 107 107 107 107
          107 107 107 107 107 107
          107 107 107 107 107 107
          107 107 107 107 107 107
          107 107 107 107 107 107
          107 107 107 107 107 107
          107 107 107 107 107 107
          107 107 107 107 107 107
          107 107 107 107 107 107
          107 107 107 107 107 107
          107 107 107 107 107 107
          107 107 107 107 107 107
          107 107 107 107 107 107
          107 107 107 107 107 107
          107 107 107 107 107 107
          107 107 107 107 107 107
          107 107 107 107 107 107
          107 107 107 107 107 107
          107 107 107 107 107 107
          107 107 107 107 107 107
          107 107 107 107
        </DataArray>
        <DataArray type="Int32" Name="processor_id" format="ascii" RangeMin="6" RangeMax="6">
          6 6 6 6 6 6
          6 6 6 6 6 6
          6 6 6 6 6 6
          6 6 6 6 6 6
          6 6 6 6 6 6
          6 6 6 6 6 6
          6 6 6 6 6 6
          6 6 6 6 6 6
          6 6 6 6 6 6
          6 6 6 6 6 6
          6 6 6 6 6 6
          6 6 6 6 6 6
          6 6 6 6 6 6
          6 6 6 6 6 6
          6 6 6 6 6 6
          6 6 6 6 6 6
          6 6 6 6 6 6
          6 6 6 6 6 6
          6 6 6 6 6 6
          6 6 6 6 6 6
          6 6 6 6 6 6
          6 6 6 6 6 6
          6 6 6 6 6 6
          6 6 6 6 6 6
          6 6 6 6 6 6
          6 6 6 6 6 6
          6 6 6 6 6 6
          6 6 6 6 6 6
          6 6 6 6 6 6
          6 6 6 6 6 6
          6 6 6 6 6 6
          6 6 6 6 6 6
          6 6 6 6 6 6
          6 6 6 6 6 6
          6 6 6 6 6 6
          6 6 6 6 6 6
          6 6 6 6 6 6
          6 6 6 6 6 6
          6 6 6 6 6 6
          6 6 6 6 6 6
          6 6 6 6 6 6
          6 6 6 6 6 6
          6 6 6 6 6 6
          6 6 6 6 6 6
          6 6 6 6 6 6
          6 6 6 6 6 6
          6 6 6 6 6 6
          6 6 6 6 6 6
          6 6 6 6 6 6
          6 6 6 6 6 6
          6 6 6 6 6 6
          6 6 6 6 6 6
          6 6 6 6 6 6
          6 6 6 6 6 6
          6 6 6 6 6 6
          6 6 6 6 6 6
          6 6 6 6 6 6
          6 6 6 6 6 6
          6 6 6 6 6 6
          6 6 6 6 6 6
          6 6 6 6 6 6
          6 6 6 6 6 6
          6 6 6 6 6 6
          6 6 6 6 6 6
          6 6 6 6 6 6
          6 6 6 6 6 6
          6 6 6 6 6 6
          6 6 6 6 6 6
          6 6 6 6 6 6
          6 6 6 6 6 6
          6 6 6 6 6 6
          6 6 6 6 6 6
          6 6 6 6 6 6
          6 6 6 6 6 6
          6 6 6 6 6 6
          6 6 6 6
        </DataArray>
      </CellData>
      <Points>
        <DataArray type="Float64" Name="Points" NumberOfComponents="3" format="ascii" RangeMin="0.0018888888888872" RangeMax="0.010555613193541787">
          0.0018888888888873 0.00041379310344749 0 0.0018888888888872 0 0
          0.0018888888888873 0.00041379310344749 0.00015 0.0018888888888872 0 0.00015
          0.0018888888888873 0.00041379310344749 0.0003 0.0018888888888872 0 0.0003
          0.0023333333333313 0.00041379310344749 0 0.0023333333333311 0 0
          0.0023333333333313 0.00041379310344749 0.00015 0.0023333333333311 0 0.00015
          0.0023333333333313 0.00041379310344749 0.0003 0.0023333333333311 0 0.0003
          0.0027777777777734 0.00041379310344749 0 0.0027777777777731 0 0
          0.0027777777777734 0.00041379310344749 0.00015 0.0027777777777731 0 0.00015
          0.0027777777777734 0.00041379310344749 0.0003 0.0027777777777731 0 0.0003
          0.003222222222218 0.00041379310344749 0 0.0032222222222177 0 0
          0.003222222222218 0.00041379310344749 0.00015 0.0032222222222177 0 0.00015
          0.003222222222218 0.00041379310344749 0.0003 0.0032222222222177 0 0.0003
          0.0036666666666636 0.00041379310344749 0 0.0036666666666634 0 0
          0.0036666666666636 0.00041379310344749 0.00015 0.0036666666666634 0 0.00015
          0.0036666666666636 0.00041379310344749 0.0003 0.0036666666666634 0 0.0003
          0.0041111111111091 0.00041379310344749 0 0.004111111111109 0 0
          0.0041111111111091 0.00041379310344749 0.00015 0.004111111111109 0 0.00015
          0.0041111111111091 0.00041379310344749 0.0003 0.004111111111109 0 0.0003
          0.0045555555555554 0.00041379310344749 0 0.0045555555555553 0 0
          0.0045555555555554 0.00041379310344749 0.00015 0.0045555555555553 0 0.00015
          0.0045555555555554 0.00041379310344749 0.0003 0.0045555555555553 0 0.0003
          0.005 0.00041379310344749 0 0.005 0 0
          0.005 0.00041379310344749 0.00015 0.005 0 0.00015
          0.005 0.00041379310344749 0.0003 0.005 0 0.0003
          0.0018888888888875 0.00082758620689497 0 0.0018888888888875 0.00082758620689497 0.00015
          0.0018888888888875 0.00082758620689497 0.0003 0.0023333333333315 0.00082758620689497 0
          0.0023333333333315 0.00082758620689497 0.00015 0.0023333333333315 0.00082758620689497 0.0003
          0.0027777777777737 0.00082758620689497 0 0.0027777777777737 0.00082758620689497 0.00015
          0.0027777777777737 0.00082758620689497 0.0003 0.0032222222222183 0.00082758620689497 0
          0.0032222222222183 0.00082758620689497 0.00015 0.0032222222222183 0.00082758620689497 0.0003
          0.0036666666666638 0.00082758620689497 0 0.0036666666666638 0.00082758620689497 0.00015
          0.0036666666666638 0.00082758620689497 0.0003 0.0041111111111093 0.00082758620689497 0
          0.0041111111111093 0.00082758620689497 0.00015 0.0041111111111093 0.00082758620689497 0.0003
          0.0045555555555554 0.00082758620689497 0 0.0045555555555554 0.00082758620689497 0.00015
          0.0045555555555554 0.00082758620689497 0.0003 0.005 0.00082758620689497 0
          0.005 0.00082758620689497 0.00015 0.005 0.00082758620689497 0.0003
          0.0018888888888876 0.0012413793103426 0 0.0018888888888876 0.0012413793103426 0.00015
          0.0018888888888876 0.0012413793103426 0.0003 0.0023333333333317 0.0012413793103426 0
          0.0023333333333317 0.0012413793103426 0.00015 0.0023333333333317 0.0012413793103426 0.0003
          0.002777777777774 0.0012413793103426 0 0.002777777777774 0.0012413793103426 0.00015
          0.002777777777774 0.0012413793103426 0.0003 0.0032222222222186 0.0012413793103426 0
          0.0032222222222186 0.0012413793103426 0.00015 0.0032222222222186 0.0012413793103426 0.0003
          0.003666666666664 0.0012413793103426 0 0.003666666666664 0.0012413793103426 0.00015
          0.003666666666664 0.0012413793103426 0.0003 0.0041111111111095 0.0012413793103426 0
          0.0041111111111095 0.0012413793103426 0.00015 0.0041111111111095 0.0012413793103426 0.0003
          0.0045555555555554 0.0012413793103426 0 0.0045555555555554 0.0012413793103426 0.00015
          0.0045555555555554 0.0012413793103426 0.0003 0.005 0.0012413793103426 0
          0.005 0.0012413793103426 0.00015 0.005 0.0012413793103426 0.0003
          0.0018888888888877 0.0016551724137901 0 0.0018888888888877 0.0016551724137901 0.00015
          0.0018888888888877 0.0016551724137901 0.0003 0.0023333333333319 0.0016551724137901 0
          0.0023333333333319 0.0016551724137901 0.00015 0.0023333333333319 0.0016551724137901 0.0003
          0.0027777777777743 0.0016551724137901 0 0.0027777777777743 0.0016551724137901 0.00015
          0.0027777777777743 0.0016551724137901 0.0003 0.0032222222222189 0.0016551724137901 0
          0.0032222222222189 0.0016551724137901 0.00015 0.0032222222222189 0.0016551724137901 0.0003
          0.0036666666666642 0.0016551724137901 0 0.0036666666666642 0.0016551724137901 0.00015
          0.0036666666666642 0.0016551724137901 0.0003 0.0041111111111096 0.0016551724137901 0
          0.0041111111111096 0.0016551724137901 0.00015 0.0041111111111096 0.0016551724137901 0.0003
          0.0045555555555555 0.0016551724137901 0 0.0045555555555555 0.0016551724137901 0.00015
          0.0045555555555555 0.0016551724137901 0.0003 0.005 0.0016551724137901 0
          0.005 0.0016551724137901 0.00015 0.005 0.0016551724137901 0.0003
          0.0018888888888879 0.0020689655172371 0 0.0018888888888879 0.0020689655172371 0.00015
          0.0018888888888879 0.0020689655172371 0.0003 0.002333333333332 0.0020689655172371 0
          0.002333333333332 0.0020689655172371 0.00015 0.002333333333332 0.0020689655172371 0.0003
          0.0027777777777746 0.0020689655172371 0 0.0027777777777746 0.0020689655172371 0.00015
          0.0027777777777746 0.0020689655172371 0.0003 0.0032222222222192 0.0020689655172371 0
          0.0032222222222192 0.0020689655172371 0.00015 0.0032222222222192 0.0020689655172371 0.0003
          0.0036666666666643 0.0020689655172371 0 0.0036666666666643 0.0020689655172371 0.00015
          0.0036666666666643 0.0020689655172371 0.0003 0.0041111111111098 0.0020689655172371 0
          0.0041111111111098 0.0020689655172371 0.00015 0.0041111111111098 0.0020689655172371 0.0003
          0.0045555555555555 0.0020689655172371 0 0.0045555555555555 0.0020689655172371 0.00015
          0.0045555555555555 0.0020689655172371 0.0003 0.005 0.0020689655172371 0
          0.005 0.0020689655172371 0.00015 0.005 0.0020689655172371 0.0003
          0.001888888888888 0.0024827586206843 0 0.001888888888888 0.0024827586206843 0.00015
          0.001888888888888 0.0024827586206843 0.0003 0.0023333333333322 0.0024827586206843 0
          0.0023333333333322 0.0024827586206843 0.00015 0.0023333333333322 0.0024827586206843 0.0003
          0.0027777777777749 0.0024827586206843 0 0.0027777777777749 0.0024827586206843 0.00015
          0.0027777777777749 0.0024827586206843 0.0003 0.0032222222222196 0.0024827586206843 0
          0.0032222222222196 0.0024827586206843 0.00015 0.0032222222222196 0.0024827586206843 0.0003
          0.0036666666666645 0.0024827586206843 0 0.0036666666666645 0.0024827586206843 0.00015
          0.0036666666666645 0.0024827586206843 0.0003 0.0041111111111099 0.0024827586206843 0
          0.0041111111111099 0.0024827586206843 0.00015 0.0041111111111099 0.0024827586206843 0.0003
          0.0045555555555555 0.0024827586206843 0 0.0045555555555555 0.0024827586206843 0.00015
          0.0045555555555555 0.0024827586206843 0.0003 0.005 0.0024827586206843 0
          0.005 0.0024827586206843 0.00015 0.005 0.0024827586206843 0.0003
          0.0014444444444442 0.0028965517241314 0 0.0014444444444442 0.0028965517241314 0.00015
          0.0014444444444442 0.0028965517241314 0.0003 0.0018888888888881 0.0028965517241314 0
          0.0018888888888881 0.0028965517241314 0.00015 0.0018888888888881 0.0028965517241314 0.0003
          0.0023333333333324 0.0028965517241314 0 0.0023333333333324 0.0028965517241314 0.00015
          0.0023333333333324 0.0028965517241314 0.0003 0.0027777777777753 0.0028965517241314 0
          0.0027777777777753 0.0028965517241314 0.00015 0.0027777777777753 0.0028965517241314 0.0003
          0.0032222222222199 0.0028965517241314 0 0.0032222222222199 0.0028965517241314 0.00015
          0.0032222222222199 0.0028965517241314 0.0003 0.0036666666666647 0.0028965517241314 0
          0.0036666666666647 0.0028965517241314 0.00015 0.0036666666666647 0.0028965517241314 0.0003
          0.0041111111111101 0.0028965517241314 0 0.0041111111111101 0.0028965517241314 0.00015
          0.0041111111111101 0.0028965517241314 0.0003 0.0045555555555556 0.0028965517241314 0
          0.0045555555555556 0.0028965517241314 0.00015 0.0045555555555556 0.0028965517241314 0.0003
          0.005 0.0028965517241314 0 0.005 0.0028965517241314 0.00015
          0.005 0.0028965517241314 0.0003 0.0014444444444442 0.0033103448275785 0
          0.0014444444444442 0.0033103448275785 0.00015 0.0014444444444442 0.0033103448275785 0.0003
          0.0018888888888882 0.0033103448275785 0 0.0018888888888882 0.0033103448275785 0.00015
          0.0018888888888882 0.0033103448275785 0.0003 0.0023333333333326 0.0033103448275785 0
          0.0023333333333326 0.0033103448275785 0.00015 0.0023333333333326 0.0033103448275785 0.0003
          0.0027777777777756 0.0033103448275785 0 0.0027777777777756 0.0033103448275785 0.00015
          0.0027777777777756 0.0033103448275785 0.0003 0.0032222222222202 0.0033103448275785 0
          0.0032222222222202 0.0033103448275785 0.00015 0.0032222222222202 0.0033103448275785 0.0003
          0.0036666666666649 0.0033103448275785 0 0.0036666666666649 0.0033103448275785 0.00015
          0.0036666666666649 0.0033103448275785 0.0003 0.0041111111111102 0.0033103448275785 0
          0.0041111111111102 0.0033103448275785 0.00015 0.0041111111111102 0.0033103448275785 0.0003
          0.0045555555555556 0.0033103448275785 0 0.0045555555555556 0.0033103448275785 0.00015
          0.0045555555555556 0.0033103448275785 0.0003 0.005 0.0033103448275785 0
          0.005 0.0033103448275785 0.00015 0.005 0.0033103448275785 0.0003
          0.0014444444444443 0.0037241379310256 0 0.0014444444444443 0.0037241379310256 0.00015
          0.0014444444444443 0.0037241379310256 0.0003 0.0018888888888884 0.0037241379310256 0
          0.0018888888888884 0.0037241379310256 0.00015 0.0018888888888884 0.0037241379310256 0.0003
          0.0023333333333328 0.0037241379310256 0 0.0023333333333328 0.0037241379310256 0.00015
          0.0023333333333328 0.0037241379310256 0.0003 0.0027777777777759 0.0037241379310256 0
          0.0027777777777759 0.0037241379310256 0.00015 0.0027777777777759 0.0037241379310256 0.0003
          0.0032222222222205 0.0037241379310256 0 0.0032222222222205 0.0037241379310256 0.00015
          0.0032222222222205 0.0037241379310256 0.0003 0.003666666666665 0.0037241379310256 0
          0.003666666666665 0.0037241379310256 0.00015 0.003666666666665 0.0037241379310256 0.0003
          0.0041111111111104 0.0037241379310256 0 0.0041111111111104 0.0037241379310256 0.00015
          0.0041111111111104 0.0037241379310256 0.0003 0.0045555555555556 0.0037241379310256 0
          0.0045555555555556 0.0037241379310256 0.00015 0.0045555555555556 0.0037241379310256 0.0003
          0.005 0.0037241379310256 0 0.005 0.0037241379310256 0.00015
          0.005 0.0037241379310256 0.0003 0.0014444444444444 0.0041379310344727 0
          0.0014444444444444 0.0041379310344727 0.00015 0.0014444444444444 0.0041379310344727 0.0003
          0.0018888888888885 0.0041379310344727 0 0.0018888888888885 0.0041379310344727 0.00015
          0.0018888888888885 0.0041379310344727 0.0003 0.002333333333333 0.0041379310344727 0
          0.002333333333333 0.0041379310344727 0.00015 0.002333333333333 0.0041379310344727 0.0003
          0.0027777777777762 0.0041379310344727 0 0.0027777777777762 0.0041379310344727 0.00015
          0.0027777777777762 0.0041379310344727 0.0003 0.0032222222222208 0.0041379310344727 0
          0.0032222222222208 0.0041379310344727 0.00015 0.0032222222222208 0.0041379310344727 0.0003
          0.0036666666666652 0.0041379310344727 0 0.0036666666666652 0.0041379310344727 0.00015
          0.0036666666666652 0.0041379310344727 0.0003 0.0041111111111105 0.0041379310344727 0
          0.0041111111111105 0.0041379310344727 0.00015 0.0041111111111105 0.0041379310344727 0.0003
          0.0045555555555557 0.0041379310344727 0 0.0045555555555557 0.0041379310344727 0.00015
          0.0045555555555557 0.0041379310344727 0.0003 0.005 0.0041379310344727 0
          0.005 0.0041379310344727 0.00015 0.005 0.0041379310344727 0.0003
          0.0014444444444444 0.0045517241379199 0 0.0014444444444444 0.0045517241379199 0.00015
          0.0014444444444444 0.0045517241379199 0.0003 0.0018888888888886 0.0045517241379199 0
          0.0018888888888886 0.0045517241379199 0.00015 0.0018888888888886 0.0045517241379199 0.0003
          0.0023333333333331 0.0045517241379199 0 0.0023333333333331 0.0045517241379199 0.00015
          0.0023333333333331 0.0045517241379199 0.0003 0.0027777777777765 0.0045517241379199 0
          0.0027777777777765 0.0045517241379199 0.00015 0.0027777777777765 0.0045517241379199 0.0003
          0.0032222222222211 0.0045517241379199 0 0.0032222222222211 0.0045517241379199 0.00015
          0.0032222222222211 0.0045517241379199 0.0003 0.0036666666666654 0.0045517241379199 0
          0.0036666666666654 0.0045517241379199 0.00015 0.0036666666666654 0.0045517241379199 0.0003
          0.0041111111111107 0.0045517241379199 0 0.0041111111111107 0.0045517241379199 0.00015
          0.0041111111111107 0.0045517241379199 0.0003 0.0045555555555557 0.0045517241379199 0
          0.0045555555555557 0.0045517241379199 0.00015 0.0045555555555557 0.0045517241379199 0.0003
          0.005 0.0045517241379199 0 0.005 0.0045517241379199 0.00015
          0.005 0.0045517241379199 0.0003 0.0014444444444445 0.0049655172413669 0
          0.0014444444444445 0.0049655172413669 0.00015 0.0014444444444445 0.0049655172413669 0.0003
          0.0018888888888888 0.0049655172413669 0 0.0018888888888888 0.0049655172413669 0.00015
          0.0018888888888888 0.0049655172413669 0.0003 0.0023333333333333 0.0049655172413669 0
          0.0023333333333333 0.0049655172413669 0.00015 0.0023333333333333 0.0049655172413669 0.0003
          0.0027777777777768 0.0049655172413669 0 0.0027777777777768 0.0049655172413669 0.00015
          0.0027777777777768 0.0049655172413669 0.0003 0.0032222222222214 0.0049655172413669 0
          0.0032222222222214 0.0049655172413669 0.00015 0.0032222222222214 0.0049655172413669 0.0003
          0.0036666666666656 0.0049655172413669 0 0.0036666666666656 0.0049655172413669 0.00015
          0.0036666666666656 0.0049655172413669 0.0003 0.0041111111111108 0.0049655172413669 0
          0.0041111111111108 0.0049655172413669 0.00015 0.0041111111111108 0.0049655172413669 0.0003
          0.0045555555555557 0.0049655172413669 0 0.0045555555555557 0.0049655172413669 0.00015
          0.0045555555555557 0.0049655172413669 0.0003 0.005 0.0049655172413669 0
          0.005 0.0049655172413669 0.00015 0.005 0.0049655172413669 0.0003
          0.0014444444444445 0.0053793103448139 0 0.0014444444444445 0.0053793103448139 0.00015
          0.0014444444444445 0.0053793103448139 0.0003 0.0018888888888889 0.0053793103448139 0
          0.0018888888888889 0.0053793103448139 0.00015 0.0018888888888889 0.0053793103448139 0.0003
          0.0023333333333335 0.0053793103448139 0 0.0023333333333335 0.0053793103448139 0.00015
          0.0023333333333335 0.0053793103448139 0.0003 0.0027777777777771 0.0053793103448139 0
          0.0027777777777771 0.0053793103448139 0.00015 0.0027777777777771 0.0053793103448139 0.0003
          0.0032222222222217 0.0053793103448139 0 0.0032222222222217 0.0053793103448139 0.00015
          0.0032222222222217 0.0053793103448139 0.0003 0.0036666666666658 0.0053793103448139 0
          0.0036666666666658 0.0053793103448139 0.00015 0.0036666666666658 0.0053793103448139 0.0003
          0.004111111111111 0.0053793103448139 0 0.004111111111111 0.0053793103448139 0.00015
          0.004111111111111 0.0053793103448139 0.0003 0.0045555555555558 0.0053793103448139 0
          0.0045555555555558 0.0053793103448139 0.00015 0.0045555555555558 0.0053793103448139 0.0003
          0.005 0.0053793103448139 0 0.005 0.0053793103448139 0.00015
          0.005 0.0053793103448139 0.0003 0.0014444444444446 0.0057931034482612 0
          0.0014444444444446 0.0057931034482612 0.00015 0.0014444444444446 0.0057931034482612 0.0003
          0.001888888888889 0.0057931034482612 0 0.001888888888889 0.0057931034482612 0.00015
          0.001888888888889 0.0057931034482612 0.0003 0.0023333333333337 0.0057931034482612 0
          0.0023333333333337 0.0057931034482612 0.00015 0.0023333333333337 0.0057931034482612 0.0003
          0.0027777777777774 0.0057931034482612 0 0.0027777777777774 0.0057931034482612 0.00015
          0.0027777777777774 0.0057931034482612 0.0003 0.003222222222222 0.0057931034482612 0
          0.003222222222222 0.0057931034482612 0.00015 0.003222222222222 0.0057931034482612 0.0003
          0.0036666666666659 0.0057931034482612 0 0.0036666666666659 0.0057931034482612 0.00015
          0.0036666666666659 0.0057931034482612 0.0003 0.0041111111111112 0.0057931034482612 0
          0.0041111111111112 0.0057931034482612 0.00015 0.0041111111111112 0.0057931034482612 0.0003
          0.0045555555555558 0.0057931034482612 0 0.0045555555555558 0.0057931034482612 0.00015
          0.0045555555555558 0.0057931034482612 0.0003 0.005 0.0057931034482612 0
          0.005 0.0057931034482612 0.00015 0.005 0.0057931034482612 0.0003
          0.0018888888888891 0.0062068965517097 0 0.0018888888888891 0.0062068965517097 0.00015
          0.0018888888888891 0.0062068965517097 0.0003 0.0023333333333339 0.0062068965517097 0
          0.0023333333333339 0.0062068965517097 0.00015 0.0023333333333339 0.0062068965517097 0.0003
          0.0027777777777778 0.0062068965517097 0 0.0027777777777778 0.0062068965517097 0.00015
          0.0027777777777778 0.0062068965517097 0.0003 0.0032222222222224 0.0062068965517097 0
          0.0032222222222224 0.0062068965517097 0.00015 0.0032222222222224 0.0062068965517097 0.0003
          0.0036666666666661 0.0062068965517097 0 0.0036666666666661 0.0062068965517097 0.00015
          0.0036666666666661 0.0062068965517097 0.0003 0.0041111111111113 0.0062068965517097 0
          0.0041111111111113 0.0062068965517097 0.00015 0.0041111111111113 0.0062068965517097 0.0003
          0.0045555555555558 0.0062068965517097 0 0.0045555555555558 0.0062068965517097 0.00015
          0.0045555555555558 0.0062068965517097 0.0003 0.005 0.0062068965517097 0
          0.005 0.0062068965517097 0.00015 0.005 0.0062068965517097 0.0003
          0.0018888888888893 0.0066206896551586 0 0.0018888888888893 0.0066206896551586 0.00015
          0.0018888888888893 0.0066206896551586 0.0003 0.002333333333334 0.0066206896551586 0
          0.002333333333334 0.0066206896551586 0.00015 0.002333333333334 0.0066206896551586 0.0003
          0.0027777777777781 0.0066206896551586 0 0.0027777777777781 0.0066206896551586 0.00015
          0.0027777777777781 0.0066206896551586 0.0003 0.0032222222222227 0.0066206896551586 0
          0.0032222222222227 0.0066206896551586 0.00015 0.0032222222222227 0.0066206896551586 0.0003
          0.0036666666666663 0.0066206896551586 0 0.0036666666666663 0.0066206896551586 0.00015
          0.0036666666666663 0.0066206896551586 0.0003 0.0041111111111115 0.0066206896551586 0
          0.0041111111111115 0.0066206896551586 0.00015 0.0041111111111115 0.0066206896551586 0.0003
          0.0045555555555559 0.0066206896551586 0 0.0045555555555559 0.0066206896551586 0.00015
          0.0045555555555559 0.0066206896551586 0.0003 0.005 0.0066206896551586 0
          0.005 0.0066206896551586 0.00015 0.005 0.0066206896551586 0.0003
          0.0018888888888894 0.0070344827586082 0 0.0018888888888894 0.0070344827586082 0.00015
          0.0018888888888894 0.0070344827586082 0.0003 0.0023333333333342 0.0070344827586082 0
          0.0023333333333342 0.0070344827586082 0.00015 0.0023333333333342 0.0070344827586082 0.0003
          0.0027777777777784 0.0070344827586082 0 0.0027777777777784 0.0070344827586082 0.00015
          0.0027777777777784 0.0070344827586082 0.0003 0.003222222222223 0.0070344827586082 0
          0.003222222222223 0.0070344827586082 0.00015 0.003222222222223 0.0070344827586082 0.0003
          0.0036666666666665 0.0070344827586082 0 0.0036666666666665 0.0070344827586082 0.00015
          0.0036666666666665 0.0070344827586082 0.0003 0.0041111111111116 0.0070344827586082 0
          0.0041111111111116 0.0070344827586082 0.00015 0.0041111111111116 0.0070344827586082 0.0003
          0.0045555555555559 0.0070344827586082 0 0.0045555555555559 0.0070344827586082 0.00015
          0.0045555555555559 0.0070344827586082 0.0003 0.005 0.0070344827586082 0
          0.005 0.0070344827586082 0.00015 0.005 0.0070344827586082 0.0003
          0.0018888888888895 0.0074482758620575 0 0.0018888888888895 0.0074482758620575 0.00015
          0.0018888888888895 0.0074482758620575 0.0003 0.0023333333333344 0.0074482758620575 0
          0.0023333333333344 0.0074482758620575 0.00015 0.0023333333333344 0.0074482758620575 0.0003
          0.0027777777777787 0.0074482758620575 0 0.0027777777777787 0.0074482758620575 0.00015
          0.0027777777777787 0.0074482758620575 0.0003 0.0032222222222233 0.0074482758620575 0
          0.0032222222222233 0.0074482758620575 0.00015 0.0032222222222233 0.0074482758620575 0.0003
          0.0036666666666666 0.0074482758620576 0 0.0036666666666666 0.0074482758620576 0.00015
          0.0036666666666666 0.0074482758620576 0.0003 0.0041111111111118 0.0074482758620576 0
          0.0041111111111118 0.0074482758620576 0.00015 0.0041111111111118 0.0074482758620576 0.0003
          0.0045555555555559 0.0074482758620576 0 0.0045555555555559 0.0074482758620576 0.00015
          0.0045555555555559 0.0074482758620576 0.0003 0.005 0.0074482758620575 0
          0.005 0.0074482758620575 0.00015 0.005 0.0074482758620575 0.0003
          0.0023333333333346 0.0078620689655065 0 0.0023333333333346 0.0078620689655065 0.00015
          0.0023333333333346 0.0078620689655065 0.0003 0.002777777777779 0.0078620689655065 0
          0.002777777777779 0.0078620689655065 0.00015 0.002777777777779 0.0078620689655065 0.0003
          0.0032222222222236 0.0078620689655065 0 0.0032222222222236 0.0078620689655065 0.00015
          0.0032222222222236 0.0078620689655065 0.0003 0.0036666666666668 0.0078620689655065 0
          0.0036666666666668 0.0078620689655065 0.00015 0.0036666666666668 0.0078620689655065 0.0003
          0.0041111111111119 0.0078620689655065 0 0.0041111111111119 0.0078620689655065 0.00015
          0.0041111111111119 0.0078620689655065 0.0003 0.004555555555556 0.0078620689655065 0
          0.004555555555556 0.0078620689655065 0.00015 0.004555555555556 0.0078620689655065 0.0003
          0.005 0.0078620689655065 0 0.005 0.0078620689655065 0.00015
          0.005 0.0078620689655065 0.0003 0.0023333333333348 0.0082758620689564 0
          0.0023333333333348 0.0082758620689564 0.00015 0.0023333333333348 0.0082758620689564 0.0003
          0.0027777777777793 0.0082758620689564 0 0.0027777777777793 0.0082758620689564 0.00015
          0.0027777777777793 0.0082758620689564 0.0003 0.0032222222222239 0.0082758620689564 0
          0.0032222222222239 0.0082758620689564 0.00015 0.0032222222222239 0.0082758620689564 0.0003
          0.003666666666667 0.0082758620689564 0 0.003666666666667 0.0082758620689564 0.00015
          0.003666666666667 0.0082758620689564 0.0003 0.0041111111111121 0.0082758620689564 0
          0.0041111111111121 0.0082758620689564 0.00015 0.0041111111111121 0.0082758620689564 0.0003
          0.004555555555556 0.0082758620689564 0 0.004555555555556 0.0082758620689564 0.00015
          0.004555555555556 0.0082758620689564 0.0003 0.005 0.0082758620689564 0
          0.005 0.0082758620689564 0.00015 0.005 0.0082758620689564 0.0003
          0.002333333333335 0.0086896551724064 0 0.002333333333335 0.0086896551724064 0.00015
          0.002333333333335 0.0086896551724064 0.0003 0.0027777777777796 0.0086896551724064 0
          0.0027777777777796 0.0086896551724064 0.00015 0.0027777777777796 0.0086896551724064 0.0003
          0.0032222222222242 0.0086896551724064 0 0.0032222222222242 0.0086896551724064 0.00015
          0.0032222222222242 0.0086896551724064 0.0003 0.0036666666666672 0.0086896551724064 0
          0.0036666666666672 0.0086896551724064 0.00015 0.0036666666666672 0.0086896551724064 0.0003
          0.0041111111111122 0.0086896551724064 0 0.0041111111111122 0.0086896551724064 0.00015
          0.0041111111111122 0.0086896551724064 0.0003 0.004555555555556 0.0086896551724064 0
          0.004555555555556 0.0086896551724064 0.00015 0.004555555555556 0.0086896551724064 0.0003
          0.0023333333333351 0.0091034482758539 0 0.0023333333333351 0.0091034482758539 0.00015
          0.0023333333333351 0.0091034482758539 0.0003 0.0027777777777799 0.0091034482758539 0
          0.0027777777777799 0.0091034482758539 0.00015 0.0027777777777799 0.0091034482758539 0.0003
          0.0032222222222245 0.0091034482758539 0 0.0032222222222245 0.0091034482758539 0.00015
          0.0032222222222245 0.0091034482758539 0.0003 0.0036666666666673 0.0091034482758539 0
          0.0036666666666673 0.0091034482758539 0.00015 0.0036666666666673 0.0091034482758539 0.0003
          0.0041111111111124 0.0091034482758539 0 0.0041111111111124 0.0091034482758539 0.00015
          0.0041111111111124 0.0091034482758539 0.0003 0.0058597010152523 0.0063127004857001 0
          0.0053951839928307 0.0062556571299739 0 0.0053921082338215 0.005828945826549 0
          0.0057916174309905 0.0058352682535246 0 0.0058597010152523 0.0063127004857001 0.00015
          0.0053951839928307 0.0062556571299739 0.00015 0.0053921082338215 0.005828945826549 0.00015
          0.0057916174309905 0.0058352682535246 0.00015 0.0058597010152523 0.0063127004857001 0.0003
          0.0053951839928307 0.0062556571299739 0.0003 0.0053921082338215 0.005828945826549 0.0003
          0.0057916174309905 0.0058352682535246 0.0003 0.0057558905586118 0.0030553709280972 0
          0.0057130501801562 0.0035159257865852 0 0.005360618756523 0.0035837068269911 0
          0.0053739732009329 0.0031599138809835 0 0.0057558905586118 0.0030553709280972 0.00015
          0.0057130501801562 0.0035159257865852 0.00015 0.005360618756523 0.0035837068269911 0.00015
          0.0053739732009329 0.0031599138809835 0.00015 0.0057558905586118 0.0030553709280972 0.0003
          0.0057130501801562 0.0035159257865852 0.0003 0.005360618756523 0.0035837068269911 0.0003
          0.0053739732009329 0.0031599138809835 0.0003 0.0056439388514995 0.0075162532529611 0
          0.0053753336003136 0.0081134227852172 0 0.0053162760057692 0.0077147827843445 0
          0.0056439388514995 0.0075162532529611 0.00015 0.0053753336003136 0.0081134227852172 0.00015
          0.0053162760057692 0.0077147827843445 0.00015 0.0056439388514995 0.0075162532529611 0.0003
          0.0053753336003136 0.0081134227852172 0.0003 0.0053162760057692 0.0077147827843445 0.0003
          0.0059025575310583 0.0073410103875386 0 0.0059025575310583 0.0073410103875386 0.00015
          0.0059025575310583 0.0073410103875386 0.0003 0.005369078903807 0.0054112957512825 0
          0.0053441966179727 0.0050059769161847 0 0.0056930202847481 0.0049554676612008 0
          0.0057606246390047 0.0053811345728149 0 0.005369078903807 0.0054112957512825 0.00015
          0.0053441966179727 0.0050059769161847 0.00015 0.0056930202847481 0.0049554676612008 0.00015
          0.0057606246390047 0.0053811345728149 0.00015 0.005369078903807 0.0054112957512825 0.0003
          0.0053441966179727 0.0050059769161847 0.0003 0.0056930202847481 0.0049554676612008 0.0003
          0.0057606246390047 0.0053811345728149 0.0003 0.0057438065986578 0.0025718646608386 0
          0.0053684283361675 0.002728434685479 0 0.0057438065986578 0.0025718646608386 0.00015
          0.0053684283361675 0.002728434685479 0.00015 0.0057438065986578 0.0025718646608386 0.0003
          0.0053684283361675 0.002728434685479 0.0003 0.0061712548385041 0.0061513410385421 0
          0.006445117357903 0.0062971891343806 0 0.0062246515840748 0.0066057171706914 0
          0.0061712548385041 0.0061513410385421 0.00015 0.006445117357903 0.0062971891343806 0.00015
          0.0062246515840748 0.0066057171706914 0.00015 0.0061712548385041 0.0061513410385421 0.0003
          0.006445117357903 0.0062971891343806 0.0003 0.0062246515840748 0.0066057171706914 0.0003
          0.0053553835295756 0.0022900157905326 0 0.0057116151882083 0.0021168511926722 0
          0.0053553835295756 0.0022900157905326 0.00015 0.0057116151882083 0.0021168511926722 0.00015
          0.0053553835295756 0.0022900157905326 0.0003 0.0057116151882083 0.0021168511926722 0.0003
          0.0054233068561349 0.007134337670225 0 0.0059254586078826 0.006969673542248 0
          0.0054233068561349 0.007134337670225 0.00015 0.0059254586078826 0.006969673542248 0.00015
          0.0054233068561349 0.007134337670225 0.0003 0.0059254586078826 0.006969673542248 0.0003
          0.0057792643598707 0.0040250905144168 0 0.0057792643598707 0.0040250905144168 0.00015
          0.0057792643598707 0.0040250905144168 0.0003 0.0061880810420103 0.0058441905555885 0
          0.0066005814160285 0.0059502230786403 0 0.0061880810420103 0.0058441905555885 0.00015
          0.0066005814160285 0.0059502230786403 0.00015 0.0061880810420103 0.0058441905555885 0.0003
          0.0066005814160285 0.0059502230786403 0.0003 0.0054017220983371 0.0066575347525889 0
          0.0057115805714605 0.0066548075405697 0 0.0054017220983371 0.0066575347525889 0.00015
          0.0057115805714605 0.0066548075405697 0.00015 0.0054017220983371 0.0066575347525889 0.0003
          0.0057115805714605 0.0066548075405697 0.0003 0.005332609719228 0.0047287620137874 0
          0.0055816175545808 0.004587255111362 0 0.005332609719228 0.0047287620137874 0.00015
          0.0055816175545808 0.004587255111362 0.00015 0.005332609719228 0.0047287620137874 0.0003
          0.0055816175545808 0.004587255111362 0.0003 0.0053693194142364 0.0039518184911864 0
          0.0054474185858658 0.0042751360204936 0 0.0053693194142364 0.0039518184911864 0.00015
          0.0054474185858658 0.0042751360204936 0.00015 0.0053693194142364 0.0039518184911864 0.0003
          0.0054474185858658 0.0042751360204936 0.0003 0.0053395672611724 0.0018614292474742 0
          0.0053395672611724 0.0018614292474742 0.00015 0.0053395672611724 0.0018614292474742 0.0003
          0.0053367365074525 0.0010378216876611 0 0.0053236825500972 0.0014543115259673 0
          0.0053367365074525 0.0010378216876611 0.00015 0.0053236825500972 0.0014543115259673 0.00015
          0.0053367365074525 0.0010378216876611 0.0003 0.0053236825500972 0.0014543115259673 0.0003
          0.0056326688189693 0.0038271453778623 0 0.0056326688189693 0.0038271453778623 0.00015
          0.0056326688189693 0.0038271453778623 0.0003 0.0053236477572007 0.00066751117045644 0
          0.0053236477572007 0.00066751117045644 0.00015 0.0053236477572007 0.00066751117045644 0.0003
          0.0052365987891119 0.0074441888076402 0 0.0052365987891119 0.0074441888076402 0.00015
          0.0052365987891119 0.0074441888076402 0.0003 0.0052651323069134 0.00040272801788152 0
          0.0052651323069134 0.00040272801788152 0.00015 0.0052651323069134 0.00040272801788152 0.0003
          0.005675081773805 0.0016743369040255 0 0.005675081773805 0.0016743369040255 0.00015
          0.005675081773805 0.0016743369040255 0.0003 0.0056481668838523 0.0012062671985027 0
          0.0056481668838523 0.0012062671985027 0.00015 0.0056481668838523 0.0012062671985027 0.0003
          0.0055517738097912 0.00099492145317098 0 0.0055517738097912 0.00099492145317098 0.00015
          0.0055517738097912 0.00099492145317098 0.0003 0.005 0.0086896551724064 0
          0.005 0.0086896551724064 0.00015 0.005 0.0086896551724064 0.0003
          0.0045555555555561 0.0091034482758539 0 0.0045555555555561 0.0091034482758539 0.00015
          0.0045555555555561 0.0091034482758539 0.0003 0.005 0.0091034482758539 0
          0.005 0.0091034482758539 0.00015 0.005 0.0091034482758539 0.0003
          0.0027777777777802 0.0095172413793029 0 0.0023333333333353 0.0095172413793029 0
          0.0027777777777802 0.0095172413793029 0.00015 0.0023333333333353 0.0095172413793029 0.00015
          0.0027777777777802 0.0095172413793029 0.0003 0.0023333333333353 0.0095172413793029 0.0003
          0.0032222222222248 0.0095172413793029 0 0.0032222222222248 0.0095172413793029 0.00015
          0.0032222222222248 0.0095172413793029 0.0003 0.0036666666666675 0.0095172413793029 0
          0.0036666666666675 0.0095172413793029 0.00015 0.0036666666666675 0.0095172413793029 0.0003
          0.0041111111111126 0.0095172413793029 0 0.0041111111111126 0.0095172413793029 0.00015
          0.0041111111111126 0.0095172413793029 0.0003 0.0045555555555561 0.0095172413793029 0
          0.0045555555555561 0.0095172413793029 0.00015 0.0045555555555561 0.0095172413793029 0.0003
          0.0058653844060618 0.0079194158644502 0 0.0058653844060618 0.0079194158644502 0.00015
          0.0058653844060618 0.0079194158644502 0.0003 0.0061750164335738 0.0074760206739226 0
          0.0061750164335738 0.0074760206739226 0.00015 0.0061750164335738 0.0074760206739226 0.0003
          0.0060512178389602 0.0047929387822649 0 0.0062389906493372 0.0053128670028646 0
          0.0060512178389602 0.0047929387822649 0.00015 0.0062389906493372 0.0053128670028646 0.00015
          0.0060512178389602 0.0047929387822649 0.0003 0.0062389906493372 0.0053128670028646 0.0003
          0.0068354780286894 0.0065149558629347 0 0.0065694481807909 0.0068273110654121 0
          0.0068354780286894 0.0065149558629347 0.00015 0.0065694481807909 0.0068273110654121 0.00015
          0.0068354780286894 0.0065149558629347 0.0003 0.0065694481807909 0.0068273110654121 0.0003
          0.0061614658010566 0.0029736343202522 0 0.0061372854142827 0.0036106222238676 0
          0.0061614658010566 0.0029736343202522 0.00015 0.0061372854142827 0.0036106222238676 0.00015
          0.0061614658010566 0.0029736343202522 0.0003 0.0061372854142827 0.0036106222238676 0.0003
          0.0061231952422177 0.002444135475079 0 0.0061231952422177 0.002444135475079 0.00015
          0.0061231952422177 0.002444135475079 0.0003 0.0063586074578252 0.0071353312088165 0
          0.0063586074578252 0.0071353312088165 0.00015 0.0063586074578252 0.0071353312088165 0.0003
          0.005927800859391 0.0043689372395662 0 0.0063054236008776 0.0041223407032968 0
          0.005927800859391 0.0043689372395662 0.00015 0.0063054236008776 0.0041223407032968 0.00015
          0.005927800859391 0.0043689372395662 0.0003 0.0063054236008776 0.0041223407032968 0.0003
          0.0070635342364542 0.0061542378287001 0 0.0070635342364542 0.0061542378287001 0.00015
          0.0070635342364542 0.0061542378287001 0.0003 0.0071984303565192 0.0057392272964834 0
          0.0067200519522164 0.0055550541115669 0 0.0071984303565192 0.0057392272964834 0.00015
          0.0067200519522164 0.0055550541115669 0.00015 0.0071984303565192 0.0057392272964834 0.0003
          0.0067200519522164 0.0055550541115669 0.0003 0.0053754057810206 0.0085370600870078 0
          0.0053754057810206 0.0085370600870078 0.00015 0.0053754057810206 0.0085370600870078 0.0003
          0.0060722038988066 0.0019538017587265 0 0.0060722038988066 0.0019538017587265 0.00015
          0.0060722038988066 0.0019538017587265 0.0003 0.0055128205128194 0 0
          0.0057061681768373 0.00065177476244477 0 0.0055128205128194 0 0.00015
          0.0057061681768373 0.00065177476244477 0.00015 0.0055128205128194 0 0.0003
          0.0057061681768373 0.00065177476244477 0.0003 0.0060137569775388 0.0015029488511318 0
          0.0060137569775388 0.0015029488511318 0.00015 0.0060137569775388 0.0015029488511318 0.0003
          0.0059245902968253 0.0010856763727913 0 0.0059245902968253 0.0010856763727913 0.00015
          0.0059245902968253 0.0010856763727913 0.0003 0.0057785311780113 0.0084598603588589 0
          0.0057785311780113 0.0084598603588589 0.00015 0.0057785311780113 0.0084598603588589 0.0003
          <InformationKey name="L2_NORM_RANGE" location="vtkDataArray" length="2">
            <Value index="0">
              0.0018888888889
            </Value>
            <Value index="1">
              0.010555613194
            </Value>
          </InformationKey>
        </DataArray>
      </Points>
      <Cells>
        <DataArray type="Int64" Name="connectivity" format="ascii" RangeMin="0" RangeMax="779">
          6 0 1 7 8 2
          3 9 8 2 3 9
          10 4 5 11 12 6
          7 13 14 8 9 15
          14 8 9 15 16 10
          11 17 18 12 13 19
          20 14 15 21 20 14
          15 21 22 16 17 23
          24 18 19 25 26 20
          21 27 26 20 21 27
          28 22 23 29 30 24
          25 31 32 26 27 33
          32 26 27 33 34 28
          29 35 36 30 31 37
          38 32 33 39 38 32
          33 39 40 34 35 41
          42 36 37 43 44 38
          39 45 44 38 39 45
          46 40 41 47 51 48
          0 6 52 49 2 8
          52 49 2 8 53 50
          4 10 54 51 6 12
          55 52 8 14 55 52
          8 14 56 53 10 16
          57 54 12 18 58 55
          14 20 58 55 14 20
          59 56 16 22 60 57
          18 24 61 58 20 26
          61 58 20 26 62 59
          22 28 63 60 24 30
          64 61 26 32 64 61
          26 32 65 62 28 34
          66 63 30 36 67 64
          32 38 67 64 32 38
          68 65 34 40 69 66
          36 42 70 67 38 44
          70 67 38 44 71 68
          40 46 75 72 48 51
          76 73 49 52 76 73
          49 52 77 74 50 53
          78 75 51 54 79 76
          52 55 79 76 52 55
          80 77 53 56 81 78
          54 57 82 79 55 58
          82 79 55 58 83 80
          56 59 84 81 57 60
          85 82 58 61 85 82
          58 61 86 83 59 62
          87 84 60 63 88 85
          61 64 88 85 61 64
          89 86 62 65 90 87
          63 66 91 88 64 67
          91 88 64 67 92 89
          65 68 93 90 66 69
          94 91 67 70 94 91
          67 70 95 92 68 71
          99 96 72 75 100 97
          73 76 100 97 73 76
          101 98 74 77 102 99
          75 78 103 100 76 79
          103 100 76 79 104 101
          77 80 105 102 78 81
          106 103 79 82 106 103
          79 82 107 104 80 83
          108 105 81 84 109 106
          82 85 109 106 82 85
          110 107 83 86 111 108
          84 87 112 109 85 88
          112 109 85 88 113 110
          86 89 114 111 87 90
          115 112 88 91 115 112
          88 91 116 113 89 92
          117 114 90 93 118 115
          91 94 118 115 91 94
          119 116 92 95 123 120
          96 99 124 121 97 100
          124 121 97 100 125 122
          98 101 126 123 99 102
          127 124 100 103 127 124
          100 103 128 125 101 104
          129 126 102 105 130 127
          103 106 130 127 103 106
          131 128 104 107 132 129
          105 108 133 130 106 109
          133 130 106 109 134 131
          107 110 135 132 108 111
          136 133 109 112 136 133
          109 112 137 134 110 113
          138 135 111 114 139 136
          112 115 139 136 112 115
          140 137 113 116 141 138
          114 117 142 139 115 118
          142 139 115 118 143 140
          116 119 147 144 120 123
          148 145 121 124 148 145
          121 124 149 146 122 125
          150 147 123 126 151 148
          124 127 151 148 124 127
          152 149 125 128 153 150
          126 129 154 151 127 130
          154 151 127 130 155 152
          128 131 156 153 129 132
          157 154 130 133 157 154
          130 133 158 155 131 134
          159 156 132 135 160 157
          133 136 160 157 133 136
          161 158 134 137 162 159
          135 138 163 160 136 139
          163 160 136 139 164 161
          137 140 165 162 138 141
          166 163 139 142 166 163
          139 142 167 164 140 143
          174 171 144 147 175 172
          145 148 175 172 145 148
          176 173 146 149 177 174
          147 150 178 175 148 151
          178 175 148 151 179 176
          149 152 180 177 150 153
          181 178 151 154 181 178
          151 154 182 179 152 155
          183 180 153 156 184 181
          154 157 184 181 154 157
          185 182 155 158 186 183
          156 159 187 184 157 160
          187 184 157 160 188 185
          158 161 189 186 159 162
          190 187 160 163 190 187
          160 163 191 188 161 164
          192 189 162 165 193 190
          163 166 193 190 163 166
          194 191 164 167 198 195
          168 171 199 196 169 172
          199 196 169 172 200 197
          170 173 201 198 171 174
          202 199 172 175 202 199
          172 175 203 200 173 176
          204 201 174 177 205 202
          175 178 205 202 175 178
          206 203 176 179 207 204
          177 180 208 205 178 181
          208 205 178 181 209 206
          179 182 210 207 180 183
          211 208 181 184 211 208
          181 184 212 209 182 185
          213 210 183 186 214 211
          184 187 214 211 184 187
          215 212 185 188 216 213
          186 189 217 214 187 190
          217 214 187 190 218 215
          188 191 219 216 189 192
          220 217 190 193 220 217
          190 193 221 218 191 194
          225 222 195 198 226 223
          196 199 226 223 196 199
          227 224 197 200 228 225
          198 201 229 226 199 202
          229 226 199 202 230 227
          200 203 231 228 201 204
          232 229 202 205 232 229
          202 205 233 230 203 206
          234 231 204 207 235 232
          205 208 235 232 205 208
          236 233 206 209 237 234
          207 210 238 235 208 211
          238 235 208 211 239 236
          209 212 240 237 210 213
          241 238 211 214 241 238
          211 214 242 239 212 215
          243 240 213 216 244 241
          214 217 244 241 214 217
          245 242 215 218 246 243
          216 219 247 244 217 220
          247 244 217 220 248 245
          218 221 252 249 222 225
          253 250 223 226 253 250
          223 226 254 251 224 227
          255 252 225 228 256 253
          226 229 256 253 226 229
          257 254 227 230 258 255
          228 231 259 256 229 232
          259 256 229 232 260 257
          230 233 261 258 231 234
          262 259 232 235 262 259
          232 235 263 260 233 236
          264 261 234 237 265 262
          235 238 265 262 235 238
          266 263 236 239 267 264
          237 240 268 265 238 241
          268 265 238 241 269 266
          239 242 270 267 240 243
          271 268 241 244 271 268
          241 244 272 269 242 245
          273 270 243 246 274 271
          244 247 274 271 244 247
          275 272 245 248 279 276
          249 252 280 277 250 253
          280 277 250 253 281 278
          251 254 282 279 252 255
          283 280 253 256 283 280
          253 256 284 281 254 257
          285 282 255 258 286 283
          256 259 286 283 256 259
          287 284 257 260 288 285
          258 261 289 286 259 262
          289 286 259 262 290 287
          260 263 291 288 261 264
          292 289 262 265 292 289
          262 265 293 290 263 266
          294 291 264 267 295 292
          265 268 295 292 265 268
          296 293 266 269 297 294
          267 270 298 295 268 271
          298 295 268 271 299 296
          269 272 300 297 270 273
          301 298 271 274 301 298
          271 274 302 299 272 275
          306 303 276 279 307 304
          277 280 307 304 277 280
          308 305 278 281 309 306
          279 282 310 307 280 283
          310 307 280 283 311 308
          281 284 312 309 282 285
          313 310 283 286 313 310
          283 286 314 311 284 287
          315 312 285 288 316 313
          286 289 316 313 286 289
          317 314 287 290 318 315
          288 291 319 316 289 292
          319 316 289 292 320 317
          290 293 321 318 291 294
          322 319 292 295 322 319
          292 295 323 320 293 296
          324 321 294 297 325 322
          295 298 325 322 295 298
          326 323 296 299 327 324
          297 300 328 325 298 301
          328 325 298 301 329 326
          299 302 333 330 303 306
          334 331 304 307 334 331
          304 307 335 332 305 308
          336 333 306 309 337 334
          307 310 337 334 307 310
          338 335 308 311 339 336
          309 312 340 337 310 313
          340 337 310 313 341 338
          311 314 342 339 312 315
          343 340 313 316 343 340
          313 316 344 341 314 317
          345 342 315 318 346 343
          316 319 346 343 316 319
          347 344 317 320 348 345
          318 321 349 346 319 322
          349 346 319 322 350 347
          320 323 351 348 321 324
          352 349 322 325 352 349
          322 325 353 350 323 326
          354 351 324 327 355 352
          325 328 355 352 325 328
          356 353 326 329 360 357
          330 333 361 358 331 334
          361 358 331 334 362 359
          332 335 363 360 333 336
          364 361 334 337 364 361
          334 337 365 362 335 338
          366 363 336 339 367 364
          337 340 367 364 337 340
          368 365 338 341 369 366
          339 342 370 367 340 343
          370 367 340 343 371 368
          341 344 372 369 342 345
          373 370 343 346 373 370
          343 346 374 371 344 347
          375 372 345 348 376 373
          346 349 376 373 346 349
          377 374 347 350 378 375
          348 351 379 376 349 352
          379 376 349 352 380 377
          350 353 381 378 351 354
          382 379 352 355 382 379
          352 355 383 380 353 356
          387 384 360 363 388 385
          361 364 388 385 361 364
          389 386 362 365 390 387
          363 366 391 388 364 367
          391 388 364 367 392 389
          365 368 393 390 366 369
          394 391 367 370 394 391
          367 370 395 392 368 371
          396 393 369 372 397 394
          370 373 397 394 370 373
          398 395 371 374 399 396
          372 375 400 397 373 376
          400 397 373 376 401 398
          374 377 402 399 375 378
          403 400 376 379 403 400
          376 379 404 401 377 380
          405 402 378 381 406 403
          379 382 406 403 379 382
          407 404 380 383 411 408
          384 387 412 409 385 388
          412 409 385 388 413 410
          386 389 414 411 387 390
          415 412 388 391 415 412
          388 391 416 413 389 392
          417 414 390 393 418 415
          391 394 418 415 391 394
          419 416 392 395 420 417
          393 396 421 418 394 397
          421 418 394 397 422 419
          395 398 423 420 396 399
          424 421 397 400 424 421
          397 400 425 422 398 401
          426 423 399 402 427 424
          400 403 427 424 400 403
          428 425 401 404 429 426
          402 405 430 427 403 406
          430 427 403 406 431 428
          404 407 435 432 408 411
          436 433 409 412 436 433
          409 412 437 434 410 413
          438 435 411 414 439 436
          412 415 439 436 412 415
          440 437 413 416 441 438
          414 417 442 439 415 418
          442 439 415 418 443 440
          416 419 444 441 417 420
          445 442 418 421 445 442
          418 421 446 443 419 422
          447 444 420 423 448 445
          421 424 448 445 421 424
          449 446 422 425 450 447
          423 426 451 448 424 427
          451 448 424 427 452 449
          425 428 453 450 426 429
          454 451 427 430 454 451
          427 430 455 452 428 431
          459 456 432 435 460 457
          433 436 460 457 433 436
          461 458 434 437 462 459
          435 438 463 460 436 439
          463 460 436 439 464 461
          437 440 465 462 438 441
          466 463 439 442 466 463
          439 442 467 464 440 443
          468 465 441 444 469 466
          442 445 469 466 442 445
          470 467 443 446 471 468
          444 447 472 469 445 448
          472 469 445 448 473 470
          446 449 474 471 447 450
          475 472 448 451 475 472
          448 451 476 473 449 452
          477 474 450 453 478 475
          451 454 478 475 451 454
          479 476 452 455 483 480
          459 462 484 481 460 463
          484 481 460 463 485 482
          461 464 486 483 462 465
          487 484 463 466 487 484
          463 466 488 485 464 467
          489 486 465 468 490 487
          466 469 490 487 466 469
          491 488 467 470 492 489
          468 471 493 490 469 472
          493 490 469 472 494 491
          470 473 495 492 471 474
          496 493 472 475 496 493
          472 475 497 494 473 476
          498 495 474 477 499 496
          475 478 499 496 475 478
          500 497 476 479 504 501
          480 483 505 502 481 484
          505 502 481 484 506 503
          482 485 507 504 483 486
          508 505 484 487 508 505
          484 487 509 506 485 488
          510 507 486 489 511 508
          487 490 511 508 487 490
          512 509 488 491 513 510
          489 492 514 511 490 493
          514 511 490 493 515 512
          491 494 516 513 492 495
          517 514 493 496 517 514
          493 496 518 515 494 497
          519 516 495 498 520 517
          496 499 520 517 496 499
          521 518 497 500 525 522
          501 504 526 523 502 505
          526 523 502 505 527 524
          503 506 528 525 504 507
          529 526 505 508 529 526
          505 508 530 527 506 509
          531 528 507 510 532 529
          508 511 532 529 508 511
          533 530 509 512 534 531
          510 513 535 532 511 514
          535 532 511 514 536 533
          512 515 537 534 513 516
          538 535 514 517 538 535
          514 517 539 536 515 518
          687 537 516 519 688 538
          517 520 688 538 517 520
          689 539 518 521 543 540
          522 525 544 541 523 526
          544 541 523 526 545 542
          524 527 546 543 525 528
          547 544 526 529 547 544
          526 529 548 545 527 530
          549 546 528 531 550 547
          529 532 550 547 529 532
          551 548 530 533 552 549
          531 534 553 550 532 535
          553 550 532 535 554 551
          533 536 690 552 534 537
          691 553 535 538 691 553
          535 538 692 554 536 539
          693 690 537 687 694 691
          538 688 694 691 538 688
          695 692 539 689 696 697
          540 543 698 699 541 544
          698 699 541 544 700 701
          542 545 702 696 543 546
          703 698 544 547 703 698
          544 547 704 700 545 548
          705 702 546 549 706 703
          547 550 706 703 547 550
          707 704 548 551 708 705
          549 552 709 706 550 553
          709 706 550 553 710 707
          551 554 711 708 552 690
          712 709 553 691 712 709
          553 691 713 710 554 692
          555 556 557 558 559 560
          561 562 559 560 561 562
          563 564 565 566 567 568
          569 570 571 572 573 574
          571 572 573 574 575 576
          577 578 579 714 580 581
          582 715 583 584 582 715
          583 584 585 716 586 587
          579 588 717 714 582 589
          718 715 582 589 718 715
          585 590 719 716 591 592
          593 594 595 596 597 598
          595 596 597 598 599 600
          601 602 594 558 557 591
          598 562 561 595 598 562
          561 595 602 566 565 599
          603 567 570 604 605 571
          574 606 605 571 574 606
          607 575 578 608 555 609
          610 611 559 612 613 614
          559 612 613 614 563 615
          616 617 594 593 720 721
          598 597 722 723 598 597
          722 723 602 601 724 725
          726 727 611 610 728 729
          614 613 728 729 614 613
          730 731 617 616 567 732
          733 568 571 734 735 572
          571 734 735 572 575 736
          737 576 604 618 619 603
          606 620 621 605 606 620
          621 605 608 622 623 607
          567 603 738 732 571 605
          739 734 571 605 739 734
          575 607 740 736 579 624
          625 588 582 626 627 589
          582 626 627 589 585 628
          629 590 625 741 717 588
          627 742 718 589 627 742
          718 589 629 743 719 590
          744 630 733 745 746 631
          735 747 746 631 735 747
          748 632 737 749 633 634
          610 609 635 636 613 612
          635 636 613 612 637 638
          616 615 634 750 726 610
          636 751 728 613 636 751
          728 613 638 752 730 616
          555 558 633 609 559 562
          635 612 559 562 635 612
          563 566 637 615 753 750
          634 754 755 751 636 756
          755 751 636 756 757 752
          638 758 639 640 625 624
          641 642 627 626 641 642
          627 626 643 644 629 628
          625 611 727 741 627 614
          729 742 627 614 729 742
          629 617 731 743 634 633
          721 754 636 635 723 756
          636 635 723 756 638 637
          725 758 580 759 687 519
          583 760 688 520 583 760
          688 520 586 761 689 521
          581 580 519 498 584 583
          520 499 584 583 520 499
          587 586 521 500 592 645
          646 593 596 647 648 597
          596 647 648 597 600 649
          650 601 651 652 300 273
          653 654 301 274 653 654
          301 274 655 656 302 275
          569 651 273 246 573 653
          274 247 573 653 274 247
          577 655 275 248 556 405
          381 557 560 406 382 561
          560 406 382 561 564 407
          383 565 570 569 246 219
          574 573 247 220 574 573
          247 220 578 577 248 221
          557 381 354 591 561 382
          355 595 561 382 355 595
          565 383 356 599 604 570
          219 192 606 574 220 193
          606 574 220 193 608 578
          221 194 640 555 611 625
          642 559 614 627 642 559
          614 627 644 563 617 629
          618 604 192 165 620 606
          193 166 620 606 193 166
          622 608 194 167 657 618
          165 141 658 620 166 142
          658 620 166 142 659 622
          167 143 660 661 117 93
          662 663 118 94 662 663
          118 94 664 665 119 95
          661 657 141 117 663 658
          142 118 663 658 142 118
          665 659 143 119 762 738
          603 619 763 739 605 621
          763 739 605 621 764 740
          607 623 429 639 624 453
          430 641 626 454 430 641
          626 454 431 643 628 455
          666 568 733 630 667 572
          735 631 667 572 735 631
          668 576 737 632 669 660
          93 69 670 662 94 70
          670 662 94 70 671 664
          95 71 592 327 300 645
          596 328 301 647 596 328
          301 647 600 329 302 649
          721 633 558 594 723 635
          562 598 723 635 562 598
          725 637 566 602 744 720
          593 646 746 722 597 648
          746 722 597 648 748 724
          601 650 477 453 624 672
          478 454 626 673 478 454
          626 673 479 455 628 674
          327 592 591 354 328 596
          595 355 328 596 595 355
          329 600 599 356 669 675
          765 766 670 676 767 768
          670 676 767 768 671 677
          769 770 639 429 405 556
          641 430 406 560 641 430
          406 560 643 431 407 564
          581 672 624 579 584 673
          626 582 584 673 626 582
          587 674 628 585 678 619
          618 657 679 621 620 658
          679 621 620 658 680 623
          622 659 42 43 765 675
          44 45 767 676 44 45
          767 676 46 47 769 677
          646 645 300 652 648 647
          301 654 648 647 301 654
          650 649 302 656 619 678
          771 762 621 679 772 763
          621 679 772 763 623 680
          773 764 744 646 652 630
          746 648 654 631 746 648
          654 631 748 650 656 632
          678 681 774 771 679 682
          775 772 679 682 775 772
          680 683 776 773 681 678
          657 661 682 679 658 663
          682 679 658 663 683 680
          659 665 666 630 652 651
          667 631 654 653 667 631
          654 653 668 632 656 655
          651 569 568 666 653 573
          572 667 653 573 572 667
          655 577 576 668 681 684
          766 774 682 685 768 775
          682 685 768 775 683 686
          770 776 759 580 714 777
          760 583 715 778 760 583
          715 778 761 586 716 779
          672 581 498 477 673 584
          499 478 673 584 499 478
          674 587 500 479 639 556
          555 640 641 560 559 642
          641 560 559 642 643 564
          563 644 675 669 69 42
          676 670 70 44 676 670
          70 44 677 671 71 46
          684 681 661 660 685 682
          663 662 685 682 663 662
          686 683 665 664 660 669
          766 684 662 670 768 685
          662 670 768 685 664 671
          770 686
        </DataArray>
        <DataArray type="Int64" Name="offsets" format="ascii" RangeMin="8" RangeMax="3632">
          8 16 24 32 40 48
          56 64 72 80 88 96
          104 112 120 128 136 144
          152 160 168 176 184 192
          200 208 216 224 232 240
          248 256 264 272 280 288
          296 304 312 320 328 336
          344 352 360 368 376 384
          392 400 408 416 424 432
          440 448 456 464 472 480
          488 496 504 512 520 528
          536 544 552 560 568 576
          584 592 600 608 616 624
          632 640 648 656 664 672
          680 688 696 704 712 720
          728 736 744 752 760 768
          776 784 792 800 808 816
          824 832 840 848 856 864
          872 880 888 896 904 912
          920 928 936 944 952 960
          968 976 984 992 1000 1008
          1016 1024 1032 1040 1048 1056
          1064 1072 1080 1088 1096 1104
          1112 1120 1128 1136 1144 1152
          1160 1168 1176 1184 1192 1200
          1208 1216 1224 1232 1240 1248
          1256 1264 1272 1280 1288 1296
          1304 1312 1320 1328 1336 1344
          1352 1360 1368 1376 1384 1392
          1400 1408 1416 1424 1432 1440
          1448 1456 1464 1472 1480 1488
          1496 1504 1512 1520 1528 1536
          1544 1552 1560 1568 1576 1584
          1592 1600 1608 1616 1624 1632
          1640 1648 1656 1664 1672 1680
          1688 1696 1704 1712 1720 1728
          1736 1744 1752 1760 1768 1776
          1784 1792 1800 1808 1816 1824
          1832 1840 1848 1856 1864 1872
          1880 1888 1896 1904 1912 1920
          1928 1936 1944 1952 1960 1968
          1976 1984 1992 2000 2008 2016
          2024 2032 2040 2048 2056 2064
          2072 2080 2088 2096 2104 2112
          2120 2128 2136 2144 2152 2160
          2168 2176 2184 2192 2200 2208
          2216 2224 2232 2240 2248 2256
          2264 2272 2280 2288 2296 2304
          2312 2320 2328 2336 2344 2352
          2360 2368 2376 2384 2392 2400
          2408 2416 2424 2432 2440 2448
          2456 2464 2472 2480 2488 2496
          2504 2512 2520 2528 2536 2544
          2552 2560 2568 2576 2584 2592
          2600 2608 2616 2624 2632 2640
          2648 2656 2664 2672 2680 2688
          2696 2704 2712 2720 2728 2736
          2744 2752 2760 2768 2776 2784
          2792 2800 2808 2816 2824 2832
          2840 2848 2856 2864 2872 2880
          2888 2896 2904 2912 2920 2928
          2936 2944 2952 2960 2968 2976
          2984 2992 3000 3008 3016 3024
          3032 3040 3048 3056 3064 3072
          3080 3088 3096 3104 3112 3120
          3128 3136 3144 3152 3160 3168
          3176 3184 3192 3200 3208 3216
          3224 3232 3240 3248 3256 3264
          3272 3280 3288 3296 3304 3312
          3320 3328 3336 3344 3352 3360
          3368 3376 3384 3392 3400 3408
          3416 3424 3432 3440 3448 3456
          3464 3472 3480 3488 3496 3504
          3512 3520 3528 3536 3544 3552
          3560 3568 3576 3584 3592 3600
          3608 3616 3624 3632
        </DataArray>
        <DataArray type="UInt8" Name="types" format="ascii" RangeMin="12" RangeMax="12">
          12 12 12 12 12 12
          12 12 12 12 12 12
          12 12 12 12 12 12
          12 12 12 12 12 12
          12 12 12 12 12 12
          12 12 12 12 12 12
          12 12 12 12 12 12
          12 12 12 12 12 12
          12 12 12 12 12 12
          12 12 12 12 12 12
          12 12 12 12 12 12
          12 12 12 12 12 12
          12 12 12 12 12 12
          12 12 12 12 12 12
          12 12 12 12 12 12
          12 12 12 12 12 12
          12 12 12 12 12 12
          12 12 12 12 12 12
          12 12 12 12 12 12
          12 12 12 12 12 12
          12 12 12 12 12 12
          12 12 12 12 12 12
          12 12 12 12 12 12
          12 12 12 12 12 12
          12 12 12 12 12 12
          12 12 12 12 12 12
          12 12 12 12 12 12
          12 12 12 12 12 12
          12 12 12 12 12 12
          12 12 12 12 12 12
          12 12 12 12 12 12
          12 12 12 12 12 12
          12 12 12 12 12 12
          12 12 12 12 12 12
          12 12 12 12 12 12
          12 12 12 12 12 12
          12 12 12 12 12 12
          12 12 12 12 12 12
          12 12 12 12 12 12
          12 12 12 12 12 12
          12 12 12 12 12 12
          12 12 12 12 12 12
          12 12 12 12 12 12
          12 12 12 12 12 12
          12 12 12 12 12 12
          12 12 12 12 12 12
          12 12 12 12 12 12
          12 12 12 12 12 12
          12 12 12 12 12 12
          12 12 12 12 12 12
          12 12 12 12 12 12
          12 12 12 12 12 12
          12 12 12 12 12 12
          12 12 12 12 12 12
          12 12 12 12 12 12
          12 12 12 12 12 12
          12 12 12 12 12 12
          12 12 12 12 12 12
          12 12 12 12 12 12
          12 12 12 12 12 12
          12 12 12 12 12 12
          12 12 12 12 12 12
          12 12 12 12 12 12
          12 12 12 12 12 12
          12 12 12 12 12 12
          12 12 12 12 12 12
          12 12 12 12 12 12
          12 12 12 12 12 12
          12 12 12 12 12 12
          12 12 12 12 12 12
          12 12 12 12 12 12
          12 12 12 12 12 12
          12 12 12 12 12 12
          12 12 12 12 12 12
          12 12 12 12 12 12
          12 12 12 12
        </DataArray>
      </Cells>
    </Piece>
  </UnstructuredGrid>
</VTKFile>
