<?xml version="1.0"?>
<VTKFile type="UnstructuredGrid" version="0.1" byte_order="LittleEndian" header_type="UInt32" compressor="vtkZLibDataCompressor">
  <UnstructuredGrid>
    <Piece NumberOfPoints="789" NumberOfCells="452">
      <PointData>
        <DataArray type="Int32" Name="libmesh_node_id" format="ascii" RangeMin="0" RangeMax="1901">
          0 1 2 3 4 5
          6 7 8 9 10 11
          12 13 14 15 16 17
          18 19 20 21 22 23
          24 25 26 27 28 29
          30 31 32 33 34 35
          36 37 38 39 40 41
          42 43 44 45 46 47
          48 49 50 51 52 53
          54 55 56 57 58 59
          60 61 62 63 64 65
          66 67 68 69 70 71
          72 73 74 75 76 77
          78 79 80 81 82 83
          84 85 86 87 88 89
          90 91 92 93 94 95
          96 97 98 99 100 101
          102 103 104 105 106 107
          108 109 110 111 112 113
          114 115 116 117 118 119
          180 181 182 183 184 185
          186 187 188 189 190 191
          192 193 194 195 196 197
          198 199 200 201 202 203
          204 205 206 207 208 209
          210 211 212 213 214 215
          216 217 218 219 220 221
          222 223 224 225 226 227
          228 229 230 231 232 233
          234 235 236 237 238 239
          270 271 272 273 274 275
          276 277 278 279 280 281
          282 283 284 285 286 287
          288 289 290 291 292 293
          294 295 296 297 298 299
          300 301 302 303 304 305
          306 307 308 309 310 311
          312 313 314 315 316 317
          318 319 320 321 322 323
          324 325 326 327 328 329
          360 361 362 363 364 365
          366 367 368 369 370 371
          372 373 374 375 376 377
          378 379 380 381 382 383
          384 385 386 387 388 389
          390 391 392 393 394 395
          396 397 398 399 400 401
          402 403 404 405 406 407
          408 409 410 411 412 413
          414 415 416 417 418 419
          450 451 452 453 454 455
          456 457 458 459 460 461
          462 463 464 465 466 467
          468 469 470 471 472 473
          474 475 476 477 478 479
          480 481 482 483 484 485
          486 487 488 489 490 491
          492 493 494 495 496 497
          498 499 500 501 502 503
          504 505 506 507 508 509
          540 541 542 543 544 545
          546 547 548 549 550 551
          552 553 554 555 556 557
          558 559 560 561 562 563
          564 565 566 567 568 569
          570 571 572 573 574 575
          576 577 578 579 580 581
          582 583 584 585 586 587
          588 589 590 591 592 593
          594 595 596 597 598 599
          630 631 632 633 634 635
          636 637 638 639 640 641
          642 643 644 645 646 647
          648 649 650 651 652 653
          654 655 656 657 658 659
          660 661 662 663 664 665
          666 667 668 669 670 671
          672 673 674 675 676 677
          678 679 680 681 682 683
          684 685 686 687 688 689
          720 721 722 723 724 725
          726 727 728 729 730 731
          732 733 734 735 736 737
          738 739 740 741 742 743
          744 745 746 747 748 749
          750 751 752 753 754 755
          756 757 758 759 760 761
          762 763 764 765 766 767
          768 769 770 771 772 773
          774 775 776 777 778 779
          810 811 812 813 814 815
          816 817 818 819 820 821
          822 823 824 825 826 827
          828 829 830 831 832 833
          834 835 836 837 838 839
          840 841 842 843 844 845
          846 847 848 849 850 851
          852 853 854 855 856 857
          858 859 860 861 862 863
          864 865 866 867 868 869
          870 871 872 873 874 875
          1272 1273 1274 1275 1276 1277
          1326 1327 1328 1353 1354 1355
          1380 1381 1382 1407 1408 1409
          1434 1435 1436 1677 1678 1679
          1704 1705 1706 1731 1732 1733
          1758 1759 1760 1785 1786 1787
          1788 1789 1790 1812 1813 1814
          1815 1816 1817 1839 1840 1841
          1842 1843 1844 1866 1867 1868
          1869 1870 1871 120 121 122
          123 124 125 240 241 242
          330 331 332 420 421 422
          510 511 512 600 601 602
          690 691 692 780 781 782
          783 784 785 876 786 877
          787 878 788 1278 1279 1280
          1281 1282 1283 1329 1330 1331
          1356 1357 1358 1383 1384 1385
          1410 1411 1412 1437 1438 1439
          1461 1462 1463 1464 1465 1466
          1488 1489 1490 1515 1516 1517
          1542 1543 1544 1569 1570 1571
          1596 1597 1598 1623 1624 1625
          1650 1651 1652 1680 1653 1681
          1654 1682 1655 1707 1708 1709
          1734 1735 1736 1761 1762 1763
          1791 1764 1792 1765 1793 1766
          1818 1819 1820 1845 1846 1847
          1872 1873 1874 1893 879 1894
          880 1895 881 1896 1897 1898
          1899 1900 1901
        </DataArray>
        <DataArray type="Float64" Name="resid_x" format="ascii" RangeMin="-16.87599445736112" RangeMax="0.018048069544215117">
          -4.08560605260938 1.6481797260325948e-8 1.8624160880165164e-8 -8.174069578654333 -8.171133661306472 2.751866405859005e-7
          2.9567301496058462e-8 -16.34798970393276 -4.085492612219729 -4.80462535534798e-7 8.459014999573355e-7 -8.173853521830631
          -0.0000031350414477770983 -8.18238070587552 -0.0000019388214145266147 -16.364627866243037 0.0000016155721471733386 -8.182187810621851
          -0.000004787601942446429 -8.19542961630387 -0.000005636954968579744 -16.390742742035616 2.190090375719933e-7 -8.195264216831083
          -0.000004081613035999965 -8.212195499387844 -0.000006741074670912894 -16.42429131939337 -3.2100413704938546e-7 -8.212055235516154
          -0.0000019136687718912526 -8.231466786531225 -0.0000033833695018969934 -16.462849120252177 0.0000011185369244159915 -8.231345605772784
          -0.000002743126588988787 -8.25193600620403 -0.000001001290050872683 -16.503801820224513 0.000002718232312126645 -8.251832065396833
          -0.000008658861952781649 -8.272362613398695 -0.000004936678228872893 -16.544669480968693 0.0000023686795076471867 -8.27228110678972
          -0.000014382579688998476 -8.291757152637556 -0.0000140663235441707 -16.583494072592597 -8.596236149571723e-7 -8.291731529514795
          -0.00001061830510007411 -8.309623972363388 -0.00001685967799414101 -16.619319409423554 -0.0000030938539010705313 -8.309700727350958
          0.0000028895755272984047 -8.326532069033107 -0.000003597896514051513 -16.653070126006053 -0.0000021513493955183094 -8.326527795722988
          0.000012773968363966048 -8.343250261717476 0.00001404392280957012 -16.686463321998154 -0.0000011986499099947423 -8.343185689457334
          0.000010100033529525376 -8.361395921679055 0.0000139773197753712 -16.722799648580214 -0.0000014242014678700343 -8.361408799190565
          0.000007282080094483945 -8.38289073071217 0.000005349715011426781 -16.765894994744457 -0.000002446768711195091 -8.383090350374435
          0.00001652370091687061 -8.406984174404421 0.000009528107837830646 -16.814143625725595 -0.000004455033957739829 -8.407309916090032
          0.000027097293666678013 -8.427592350392933 0.000025874003362069686 -16.855151169407204 -0.000001609613270225907 -8.42757013593318
          0.000028202666536358834 -8.438259799729385 0.000033633733295346246 -16.87599445736112 0.000011057903407163394 -8.437186079482096
          0.000027326970868379874 -8.431160609995644 0.000033221520840065466 -16.861387854861697 0.00002188067089115009 -8.42853249001207
          0.000013588521896146233 -8.399867573825226 0.000017050034370136302 -16.79970021413926 0.000029976227814643153 -8.395919791917983
          -0.00012549788328541922 -8.352624607679111 -0.00038157152520046367 -16.711405145483262 0.00010020227197760079 -8.352671340938258
          0.0000017341108611290679 -0.000006486875066435971 0.000011082371724313589 0.0000017897131483479711 0.000008565368023738529 0.000013384336756239179
          -0.000020377648391800562 -0.00002347400462898719 0.000003959563579236658 -0.000027142047401618186 -0.00003435923705819022 -8.439999019671518e-7
          -0.000012349356391716526 -0.000009428398779931513 0.000009476384422058004 0.0000208653942825876 0.00004414841654387658 0.000030353699580487614
          0.00004519385551748911 0.00007634697541014646 0.000036040876961074275 0.000033084364730484594 0.0000364566918458209 0.0000022928305911662505
          -0.00000923200321167883 -0.00004817378695154417 -0.000044784910347317464 -0.00002787362158596096 -0.00006468022135841522 -0.0000431761729231539
          0.0000019403196649392385 0.000005771523794884104 -0.000004952910598987614 0.00002618740835025335 0.00003183226324043886 -0.00001061540982849607
          -0.000017309993415537406 -0.00005518778857371842 -0.00005574072987890588 -0.00007980170641008755 -0.00013639032362000592 -0.0000706253903270948
          -0.000037901959053954215 -0.00005039371265969095 -0.000022227438840616287 0.0000482771471954635 0.00006293411901925339 -0.0000070896006105769516
          0.00006764481466792205 0.00010008231542002477 0.0000038067434076083373 0.00008125328023655953 0.00010904178106407869 0.00003111855630155702
          0.0002189551394158329 0.0001750774317939019 0.00006157134906015216 0.0001775167604183281 -0.00008911136194100777 -0.00022261213020691173
          -1.4396664216320687e-7 -8.944324756399169e-7 9.594307419646952e-7 0.000001547187248540638 0.000001503003898228883 0.0000037355436521835372
          -0.0000016039590287064698 -8.026443580888554e-7 0.0000013272214980375452 -0.000002168004606062368 -0.0000017264845126874206 -6.427628473915092e-7
          -0.0000013358968136145677 -4.3440390395943496e-7 7.612517327615365e-7 2.0272692502487644e-7 0.000001886406896467463 0.000004582274345743542
          0.0000014748505980932691 0.0000017327474850503677 0.000005354728686235433 2.738420059600344e-7 -0.000003935086381190445 -0.0000018287127128147063
          -0.00000345980164961901 -0.000011581657673787049 -0.000012117552062207437 -0.000006231338314677259 -0.000010571136515480362 -0.000012116377066995199
          -0.000003946204598648251 2.874256983531609e-7 -0.0000018060142714659833 0.0000042319555166869804 0.000004424594998830855 0.0000012730879550559848
          0.000004686019154931387 -4.392608676795362e-8 -0.000004033880022902281 -0.0000032650805303902075 -0.000003561214976244287 -0.000010249771236203742
          -0.000003261902056017618 0.00000432675940142957 -0.0000037919394353380653 0.000007911039239694162 0.000014153801063621074 0.000005833799431087527
          0.000010482390512933648 0.000013698608279710811 5.644791194470145e-7 -0.000005556997224154259 0.000003986988279969239 0.000004176038115311087
          0.00006009420233876739 0.00001287443565978208 -0.000004927817754740715 -0.00016261013838114735 -0.0003083480932986049 0.0003197370926981691
          4.0948807811247434e-7 9.501157638425184e-8 6.175592277557485e-7 0.000001223048129439519 0.0000017322337777514463 0.0000036934393721210768
          -7.323285107219135e-7 -6.445907114738247e-7 0.000001023205124184301 -0.0000014857730121775603 -0.000001117752467472144 -8.027398843424294e-7
          -7.244170978637499e-7 -4.0792422328905786e-7 6.423369924846156e-7 8.745510964303094e-7 7.317132180162389e-7 0.000004111554532393313
          0.000001153102785700355 1.9044114818456137e-7 0.000004159930186098393 -0.000002274322373096993 -0.000003449616256645527 -0.0000036500559144059253
          -0.000007006328644365567 -0.000007933920332270361 -0.000013364119398673324 -0.00000636303658119175 -0.0000074388886410758914 -0.000012668698913032017
          -0.000001287618962564352 -1.4707287743220832e-7 -0.0000017498058211273815 0.000004976438582104947 0.000002642812396480565 0.000002633491900994045
          0.0000035611100441812482 -2.3654283154428413e-7 -0.0000026507048183077586 -0.000002035921419007991 0.0000011791600975641359 -0.0000066970561070078816
          -0.0000054919383645213316 0.000002085243688831895 -0.000003463825628102768 0.000012293233184301755 0.0000204862857122734 0.000006963594396225403
          0.00000480243887857057 0.000012652853637717953 0.000007995456973830528 -0.000006076442215174893 0.000022519149307953512 -0.000009229680553168862
          0.00006934485786480593 0.00027741032290773404 0.0009600405933127831 0.00017526302997161736 0.008521136695487819 0.0019224769964711896
          5.791120516462911e-7 1.4761595767964764e-7 3.079676025308231e-7 8.513640565865899e-7 0.0000016291915487798292 0.0000033997121917650475
          -0.0000011896344958017835 -5.848392321539109e-7 8.467998471317628e-7 -0.0000019842867695629707 -0.0000011218017652581125 -8.600964793714638e-7
          -0.0000010572048170232051 -9.657316963895823e-7 6.315469986972744e-7 5.707483383687872e-7 -4.540924232188104e-7 0.000003597424353962708
          4.596035552140165e-9 -9.729847132433633e-7 0.0000027287600072867235 -0.0000049066256169183475 -0.0000027116840701779665 -0.0000053678022196024244
          -0.000010254888171523646 -0.000005151306858408589 -0.000014051113439883522 -0.000008406165489027728 -0.000004762743395225755 -0.000012061043848987651
          -0.0000011363894429905486 -3.892265887373014e-8 -9.728536749520345e-7 0.000005769268041078135 0.0000020982934758606575 0.000003672534234056002
          0.0000022492510982630165 9.079891212238067e-7 -5.519015937593963e-7 -8.362755536950317e-7 0.000004994496195287468 -0.0000020019649387137406
          -0.000004068284566116631 0.0000052956294807060544 -9.442338981813236e-7 0.00001471864457514016 0.0000140628563380929 0.0000022575771279065293
          0.000015436025202042458 0.000014964046695098432 -0.00001292806344199704 0.000005581399282306165 0.000060586087279546064 0.00008242100696254084
          0.000009942382562577734 0.002284437724029864 -0.0005569853099220978 0.0005204694384186581 -0.004344188613006672 -0.003158674695247221
          5.7484183191292e-7 -1.7395164331190927e-7 1.4583559870828822e-7 6.428567038696542e-7 0.000001689661690562616 0.0000033725667609729726
          -0.0000023558179993443673 -6.112378239109262e-7 9.057406424872738e-7 -0.0000032050575802244907 -0.0000014007170054952667 -7.414868878896641e-7
          -0.0000017914111580807912 -0.0000012757730178947213 8.723880959848884e-7 -1.8432970705362095e-7 -0.0000010045820273418826 0.0000031089170242637465
          -0.0000018438870164061427 -0.0000016658518537937539 0.0000010027542121093802 -0.000007944591922992572 -0.0000020854707631912106 -0.000007436351499912064
          -0.000013514751805665526 -0.000003475903018745896 -0.000015048743070344983 -0.000010899621590176878 -0.0000039926102264331575 -0.000011953908264139557
          -0.0000019544384493030975 6.312908915617754e-7 -4.127852166746493e-7 0.000004857929620349921 0.0000018560180246041114 0.000004002589350626806
          0.000002079138860189289 0.000002310876927147376 0.0000018654044771082567 -7.330315261455667e-7 0.00000835592473880098 0.000004719395778174373
          -5.630294976910477e-7 0.000004904066158495368 0.0000027825939810099953 0.000024574662000453884 0.000017844071114936355 -0.000002841391174790431
          0.00001571199831573722 0.00010302908543735612 0.0002489284662461344 0.000029421013276298424 0.001795026467820371 0.0011450478606311876
          0.00011853960722962853 -0.002383233307594601 -0.0013155634664654414 -0.00030280596685194894 -0.004251774382263207 -0.002237205023665645
          2.2010465272614965e-7 -0.0000011352645223894342 1.800671514118335e-7 5.021815061567736e-7 0.0000023548004035589543 0.000004176502613972843
          -0.000004239625910784639 -8.01733624378187e-7 0.0000015252611040850184 -0.000005148009946331911 -0.0000016189226839102844 -2.297958916486209e-7
          -0.0000026757091786677734 -0.000001110448216934401 0.0000013853289733134488 -0.0000011795158885163914 -8.749421507303623e-7 0.00000242044986364931
          -0.0000042998319473852575 -0.0000020438183794269094 -0.000001357132474844036 -0.000012210070097218306 -0.0000017020201310558036 -0.00001041304877080762
          -0.00001718206449030646 -0.0000030684429450644757 -0.000017217678545122794 -0.00001475504088599422 -0.000004469169569532028 -0.000014554704319991174
          -0.0000024620990668466902 0.0000015442415035593626 -0.000003215802826694869 0.000005072467914146728 0.000003107611473041061 0.0000025226926343435707
          0.000003668600326633964 0.0000038647422710980095 0.000006120171486934112 0.0000028636823374839082 0.00000779299951592094 0.000010005758804609854
          0.000013108516180970753 0.000009345779358405082 0.000008785531044885886 0.000020957621009287664 0.00001901737561382788 -0.000020036163263625895
          0.000020609371611080007 0.0013089653927247369 0.00014535624822809012 0.004924301901086281 -0.008863881921998384 -0.0006186223895268128
          0.0010663265781696296 -0.003956646612686576 -0.001276011960277934 -0.00023332390600305786 -0.00033755210432673266 -0.002469104048458348
          -4.7159921745532074e-7 -0.0000028680077788223457 3.9834081988487924e-7 3.079508807957154e-7 0.0000037175321914162396 0.000006019872440532481
          -0.0000071615016201675985 -0.0000013134911851508946 0.00000233484609335477 -0.00000734344639674589 -0.0000018693468470942776 2.0931928190748295e-7
          -0.000002267997215810169 -5.680409875807868e-7 0.0000018166764181870576 -0.0000018796391172415383 -1.848852226871145e-7 6.686644375974993e-7
          -0.00000641273400336928 -0.0000025493551918387425 -0.0000046314172186257 -0.000017950507197106447 -0.0000022580643337377637 -0.00001404247195324615
          -0.000022385756505372 -0.000003878688973557587 -0.000021866408612680743 -0.000020241326994074882 -0.000006231521466837364 -0.00002386193314407592
          -0.00000256797224729155 0.000002228701610818007 -0.000011626025709254861 0.0000057641233341954035 0.000004136968682288966 0.0000015528019199351206
          0.000004381573641687453 -8.229306267537595e-7 0.000008809263451148297 0.00001237093265782363 0.000012931053252174252 0.000022666419107864044
          0.000019076530398898228 0.000020087275643732028 0.000027811931094134934 0.00002341013455708918 0.0003357093363423047 0.0011027553266664825
          0.0021068814619944476 0.003936346169787441 0.003386717884555246 -0.00417848016895217 0.007940084625888133 -0.0025868705817657656
          -0.0013450442948688135 0.002994047008894718 -0.0022717374153975456 0.0001481088871582159 0.0006114132223764557 -0.003971383781756543
          -0.0000013398365039662963 -0.000004844606298348708 8.620250477875402e-7 5.092182595589634e-7 0.00003345679386956846 0.000049955542688273624
          -0.000006307326147592107 0.000005984384428892042 0.00002097287114199986 -0.000012546909477606505 3.951156379855547e-8 -0.0000041892042581537225
          -0.000009800015205563284 -0.00000515899711306389 -0.00001964803535248194 -0.000003281464680426893 -0.000006046372710066805 -0.0000388123512333749
          -0.00002983740612005903 -0.00004855367452183401 -0.00004324442284531216 0.000006657205776861019 0.00008147647021772286 0.00003614544499086492
          0.0001679654092017202 0.00039587370146065837 0.00013787811090892887 0.0002455103976979345 0.0005285040419895637 0.00021131717264388783
          0.0002748471562847854 0.0005373052640411657 0.00023967550794168346 0.00025988471902227417 0.0004965832631302902 0.00028200580418147325
          0.00019518875144619585 0.0003479378510782283 0.00022484905386033205 0.00008542297555624856 0.00015784424538978215 0.000005435548493970543
          -0.00008693380607915913 -0.00020023316180317607 -0.00043068196738982323 -0.00009700393596379087 -0.0005061422673557914 -0.002206875666325381
          -0.0021523541250401124 -0.005239000140747407 -0.006498927993631831 -0.0004574603223566065 -0.0009922968972109203 -0.003739250300573538
          0.0007312824264298357 0.0005650063699986774 -0.005540764517069974 0.0003540913878530283 0.00018365579882662075 -0.007016706493979896
          0.000512572527517019 0.00022354468524810045 -0.008044016782000618 0.0011916098847035705 0.0024061010630518354 -0.007147609840179037
          -0.0004948078359836572 -0.0002898541101323815 -0.0009306371844068906 -0.0005836501571847563 -0.0003780697464863536 -0.00023001417258061707
          -0.00025720188590572235 -0.00047674138291853296 -0.0001998838553438631 -0.000059712348672746884 -0.00007396861999620086 -0.000021893674231776572
          0.00007422953519853337 0.000165879118338097 0.00006630504227267409 0.00011805584918089806 0.00021431223093415497 0.00009864840868356595
          0.00002004780160724806 0.00004724115808318885 0.000016101265035040058 0.0001152507507535816 0.00019991195634982972 -0.0033802476292494887
          0.0005782860261080991 0.0009954295673471059 -0.0047623329174069085 0.0006072525094258374 0.0011437808941363592 -0.006400996602081044
          0.00037268497509401755 0.0006002082329525926 -0.007861869028237933 0.00019580326033974416 0.00040361365360563894 -0.008217887950613179
          -0.00030971897463416553 -0.0004938208546167999 -0.008337332430460975 0.0006418961810661372 0.0006460669724641654 -0.0078640872057818
          -0.0008273690784936782 -0.0013869706185203334 -0.007322182609822203 0.0007729814150523318 0.00015613149812487848 -0.006875434295981808
          -0.0015944116608817005 -0.002588790126643925 -0.00587802763978873 0.0002733153422838086 0.00030400738744962297 -0.00387016413472141
          -0.0022343714742012466 -0.003950055195134361 -0.0035052087313598435 -0.0001307518659912077 -8.309867405157814 -0.000632075097643181
          -16.649030271680488 -0.0003254379014006048 -8.329527700592006 -0.00015042371552365097 -0.0007451112969949492 -0.00006016061057056987
          0.0003973120351163928 0.0005834828680084669 0.0009116600525578278 -0.0013657430902265233 0.018048069544215117 0.0022916519337208285
          0.0009031879224332684 -0.01672641212710424 -0.005900815468998566 0.0005196374061924303 -0.0004287988977731416 -0.0031720609010266188
          -0.00014709915363120274 0.00018557084434878135 -0.00504069500482629 -0.000755227697160521 -0.00051421306342192 -0.005398034608910862
          -0.0008611525032069522 0.00001746648626976821 -0.0062391097376099935 0.00033859662547008895 0.0002789500974005321 -0.0006162680337808979
          -0.00014502512730274475 -0.007500959389562745 -0.008809414149294703 0.00018000865690126489 0.0001205747244394928 0.00029883947792086474
          0.00018836368010965998 0.00008777824004368995 0.00004010099384643695 0.000013438520703346057 0.00008551276432910981 0.0000082006141486346
          -0.00006139889142886545 -0.00006891971952782683 -0.000043120240110994246 -0.000057630667473773656 -0.00013802281196007016 -0.000043111021888364576
          -0.00009032802821984376 -0.00022173972839212297 -0.00006386688003523489 -0.00004625809940250747 -0.00017361443862284887 -0.000030448439371610903
          -0.00017522750781573393 -0.00023145554746939467 -0.00011543746115361131 -0.000036008700416978456 -0.00008807826954182474 0.0000113516701567562
          -0.0002560218219951338 -0.00047811137310205254 -0.0001911505898899435 -0.00020880760241404062 -0.00043464914607938 -0.00014788399106890893
          -0.00008417933377735665 -0.000210172633593686 -0.000028707887736345583 0.00001505513600719155 0.00000829972112015298 -0.00006435992776587796
          0.00010367956848078563 0.0013110764785828621 0.0000018457190211762509 0.00007459613685156796 0.00048740512692191373 -0.000867075794406702
          0.000013723089470119021 0.00009004996713635194 -0.0020527551740041616 0.00024593231990799325 0.000008284313593343029 0.00046645856514970774
          0.00010092945398021413 -0.005967451711867966 -0.004603588171151252 0.0005002165911420775 0.000897494993782999 -0.007110317491695994
          0.00033953919124662946 0.0005507986387591757 -0.008066901224541567 -0.00001879408545679695 0.000021383086110660088 -0.00841794015043451
          -0.00044413195689507745 -0.00028677779271735204 -0.0012746580476807878 -0.0004725703682328941 -0.006979454348877923 -0.007729363378138565
          -0.0008622804220017599 -0.0017371319285537368 -0.005358234030946818 -0.001185953595594924 -0.002473677335402158 -0.0039401310968631975
          -0.0014080099510227484 -0.0025586382126903118 -0.0010878231391977522 -0.0004501630172502047 0.000949188203493101 -0.00025907019396465003
          -0.000422290112103596 -0.00010508728523817013 -0.006346204470790262 -0.0022446419586872324 -0.003107111070791646 -0.000018865914450216792
          -0.0014482582119743626 -0.0035843274492890487 0.0011966521609227954
        </DataArray>
        <DataArray type="Float64" Name="resid_y" format="ascii" RangeMin="-0.5522928543963485" RangeMax="0.005847041659860053">
          -0.038658339609884095 -0.07726859799307789 -9.452812457094728e-8 -0.000012411836793992104 -0.07734077138026763 -0.15458171777395796
          -1.9215665778699043e-7 -0.000037508197382157826 -0.03871766736050058 -0.07738402454076482 -0.000001749188127439516 -0.000025209647406890245
          -0.000006297143394264071 -0.00002311827562270774 5.212836448192926e-7 -0.000058349584710890023 -0.0000018743197954113056 -0.00003736713868975755
          -0.000004988721813481423 -0.00001784973137439888 0.0000027242378140904244 -0.00004401829267540458 3.955431790159114e-7 -0.0000276547976974309
          -0.0000024995559670670797 -0.000008132188185940026 0.0000029686442139034708 -0.0000206882185014301 3.9836671896636977e-7 -0.000014416685628355908
          -0.0000017634050251333355 -0.00001097033775767503 0.0000017906637559961247 -0.00003320583366886454 -0.0000026528811058121327 -0.00002600591948043879
          -0.0000047666782671401675 -0.00003293835625511887 0.0000017354565160498936 -0.0000935328273742736 -0.000005714474183897422 -0.00006625294050775082
          -0.000007518939128273172 -0.0000515979727244778 0.000005064639603695464 -0.00013790546397015463 -0.000003665195268939825 -0.00009095009356611256
          -0.0000023300518694341354 -0.00003125348199672917 0.00001042535356249319 -0.00007770045138378451 0.0000043170215932794576 -0.00004625920048913906
          0.000009676427353076666 0.000023316321272164042 0.000011940742965073359 0.00006409185373888043 0.00001017441635331462 0.00004512192998221837
          0.000013825985248600015 0.00005482239891346774 0.000005860294185561221 0.00013760031747741402 0.000008190130666940743 0.00008708183641736172
          0.000006237510178308536 0.00003751561199261122 -0.0000010448890029324254 0.0000940576326290063 0.000004595403353083172 0.00006131292327604676
          0.000007132545513051369 0.000026942155170066318 4.6449157369704563e-7 0.00007724025169346393 0.000007223022311465821 0.00005893433914429258
          0.000015719777376618782 0.00006173362011435007 0.000002511007474934046 0.0001708824724273375 0.000012523034820188794 0.00012163273564199523
          0.000016557696160282576 0.00010585951979484587 -0.0000038131832593504833 0.0002861433426748147 0.000011404963869511564 0.0001910862842187666
          0.00001400543810936572 0.00011081084052716461 -0.000015178670454155108 0.00030048466720570405 0.000004146366181720373 0.00020245693873695292
          0.000012964834249389046 0.00009105023469938023 -0.000020785702366493686 0.00024945963154908435 -0.0000063729631358741545 0.00016708698900178703
          0.000013013182055654493 0.00011341540236987219 -0.000019417425583825865 0.0003128374567087852 -0.000006569239879739008 0.00021421275732092654
          0.000011283424841086742 0.0001488556083796208 -0.000007410115204047052 0.00048080260691406307 -0.00001583095840088783 0.00034999025545781604
          0.000031153046890275427 0.00022429472596455224 -0.000032128278411161504 0.0007762085434214264 0.0000662648551455064 0.0004866545867041397
          -0.07713850621943773 -0.00002340965479151469 -0.15432024258458504 -0.00003535447178162898 -0.07725479174836028 -0.00002241531258508067
          -0.000027200466102432486 -0.00003649451355033223 -0.00002468474389592107 -0.000012525783862224471 -0.000014037961895217721 -0.00001198934664858875
          -0.000007738142798488501 -0.000009772749739872522 -0.000008104901836544776 -0.00003737464291132114 -0.000058581796948599385 -0.000033981830064061525
          -0.00009133675476757225 -0.00013895605989745763 -0.00007803590368664348 -0.00010947694770927635 -0.0001600764393103124 -0.00008945868099589915
          -0.00004276807864398574 -0.00005846143560815642 -0.00003261985021010827 0.00005611779694943836 0.0000808668978649757 0.00004637213601112883
          0.00008309869793354796 0.00011976281297536306 0.00007186332533067052 0.00005718759475070029 0.00009163444571188423 0.000057368203631245895
          0.00009364126383635402 0.00014803701373782008 0.00008248011687294471 0.00018240936569020177 0.00028158732426837585 0.0001552601287409458
          0.00021293141638618202 0.0003217467776924776 0.00019258177783553626 0.0001703593092509878 0.00023530762941285227 0.00014568633579706974
          0.00011579786301311318 0.0001393054262474394 0.0000966944230862618 0.000019328346571749477 -0.000009954430396953706 0.000038396592035805366
          0.00005504388859681186 -0.00005057889104526092 -0.000017170581353184722 -0.00017709180595027602 -0.000482456316999072 -0.00002175117082788003
          -0.07691115110510398 -0.000006519927885854926 -0.1538661869569532 -0.000002018808605196154 -0.07702917972536731 -0.000006609688324887841
          -0.000010211657950717767 -0.000003332775369152552 -0.000009341806725439439 -0.000006909384567856114 -0.000002903395567736833 -0.000007445065480428392
          -0.000005182534950444462 -0.0000018547272711000318 -0.000007223818900385648 -0.000010978656246961316 -0.000002016557577956546 -0.000013337041708215425
          -0.00002246830402419242 -0.000003375139942807248 -0.000022497053391322408 -0.00002490535673178168 -0.0000025878176595356406 -0.000021698585922713676
          -0.000005769335669314479 0.000003632146815223114 -0.000003945101641804338 0.00002100838988743775 0.000009615616336430821 0.0000159224071914002
          0.000028520723673368387 0.00001231515326292204 0.000025226645737688735 0.00002391971897299644 0.000014068588852153563 0.000028082750293076386
          0.00003099595701987895 0.000014227220576382149 0.000034028392767324056 0.0000486694904131002 0.000016627769820788674 0.000049846349572800486
          0.00006061522296174626 0.000012362797280694726 0.000056750634286957535 0.00005384223062505217 0.0000037113677523598065 0.00004911128320473496
          0.00005729863703753113 0.000007858457483148062 0.00006757312128688464 0.0000534089689530684 0.000002668141837455784 0.00003146354413883362
          0.00010241433726989463 -0.00000444513345938119 0.000025489616945095772 0.00004721347483902655 -0.0000501547971801658 0.00009192755235392508
          -0.07659460665730092 -0.000005643035324305601 -0.15323488385956108 -0.0000020475610746709116 -0.07671612525712038 -0.000005750433932236176
          -0.00000917593143950901 -0.0000032770631613610046 -0.000008489087693276665 -0.00000734021373595406 -0.0000030245436790365954 -0.000007958311857715616
          -0.000007699484678012902 -0.0000024288481937501105 -0.000009710332839960034 -0.000014021558970664372 -0.0000028289218993726717 -0.00001629312889705331
          -0.00002282727546094876 -0.0000034954179960258736 -0.000023239805209011866 -0.000021916766768728668 -0.0000013572567910402622 -0.000019635521652010268
          -0.000004397314431324462 0.000004728416479499176 -0.000002222263757414855 0.000018487429345973028 0.00001069144472370942 0.000016546665139408057
          0.000029359636760047103 0.000013941438288145314 0.000027321521471439236 0.00003057857253933177 0.000014665644858531668 0.00003381670047779284
          0.00003815469995543941 0.00001842162401209657 0.000044251447449017434 0.000054547764452295144 0.00001716833161418546 0.00005307103774233879
          0.0000646088963074179 0.000021289594949472357 0.0000620208369397704 0.00005673206196205732 -0.000007886155640735026 0.000053094824925818684
          0.00007282088818975213 0.000011443866491891996 0.000051769167868906396 0.00005020392208770347 -0.00001182200211498341 0.00002932752054918275
          0.00005726370111136525 0.0000020435156400169796 -0.000016089600779457813 -0.00004087426162772273 -0.0021148133540368347 -0.0006050242631353286
          -0.07618361674746355 -0.000004909492871893462 -0.15241531970292227 -0.0000019033815333233117 -0.07631101443798716 -0.0000052371262501890725
          -0.000008487172748976313 -0.000003002129157096689 -0.000008223234057656847 -0.000008003054865132753 -0.0000029157477085886563 -0.000008847518449116298
          -0.000009592325055637896 -0.000002403188932791067 -0.000011670580008962816 -0.000015550417129583938 -0.00000274130044970039 -0.000017737213782939576
          -0.000021776360882040657 -0.0000030636753564558528 -0.000022296769815847994 -0.000018853818303785075 -6.379245052132165e-7 -0.000016976002416964342
          -0.000003842606460066622 0.0000050336067348305535 -9.771102199157555e-7 0.000015505011529338975 0.000010975265517867983 0.0000159481274073503
          0.00002789259982883402 0.000014660297748970985 0.000028099190046905476 0.00003292825372003261 0.000014659391488543172 0.00003718713929858064
          0.000044002458440758896 0.00001954906665978945 0.0000482045957711022 0.00005665112526896665 0.000018149754736213053 0.000054261278423631265
          0.00006545518890151841 0.000018294743484241482 0.00006060339126586628 0.00006322918521829007 0.000009946824189317749 0.000060813104011590846
          0.00005918958733831803 0.0000026806524612427163 0.00005967881756237248 0.00007215671745874896 -0.000006863268476625661 0.000013943160202437022
          0.00003489466767731854 -0.00030586721373514203 -0.00016579008880568402 0.000013217987839243828 -0.0013477705986256056 -0.00021693112847538665
          -0.07567663532673985 -0.000004801421592523503 -0.15140380456565317 -0.0000019270271843299658 -0.075812617909261 -0.000005337822456881469
          -0.000008412113716993463 -0.000002627078176817288 -0.000008765393832446677 -0.00000870014129148583 -0.0000026862673465979925 -0.00001009409635647357
          -0.000010773127657848214 -0.000002260967762408861 -0.000013172270014912002 -0.00001595788840903778 -0.000002655339228919973 -0.000017965892597081312
          -0.000020169342782004607 -0.0000028595063173153523 -0.000020087343286671888 -0.000016401465633142376 -3.4114254786332676e-7 -0.000014068824845205052
          -0.000004711934041938537 0.000004878033307349761 -8.480830827536923e-7 0.000012131000737478081 0.000011037600426280075 0.000013889421599622837
          0.000024476918568997613 0.00001432571910758157 0.000026472716343390462 0.000033476916779219545 0.000015065852174332706 0.00003785086856245706
          0.00004662184352419163 0.000019892398899469532 0.000048904939320998375 0.000060972474214063266 0.000017833547763614066 0.00005230442096159499
          0.0000647671576859965 0.000021835076721918312 0.00006013076338896167 0.000059494431543884174 0.000014448937018379793 0.00006429740852298416
          0.00005743509720051304 -0.000008221800059687867 0.000006459477012582537 0.00007793843409363566 0.000010836685051016093 0.00009747570348941914
          -0.000008106790133682786 0.000012208810187555597 0.00018061217138781727 -0.00017320352751801216 -0.000480256580221744 -0.00012518509148928825
          -0.07507178994667507 -0.000004878742390593271 -0.15019432453274245 -0.000001850099528057092 -0.07521647591490285 -0.000005778698323452569
          -0.000008334152482018797 -0.0000020946869701207738 -0.000009628690603363799 -0.000008846273510054736 -0.000002325074400441607 -0.000010913422353105162
          -0.000010955331998636908 -0.000002095611790181584 -0.000013576778663301758 -0.00001529023927672457 -0.0000026952535301036362 -0.000016590096977998903
          -0.000017936953105285314 -0.0000029336631261825397 -0.0000166170432428156 -0.000014141186407357065 -2.3736512536759458e-7 -0.000011309624062864898
          -0.000007796852183741126 0.000004978949547707057 -0.0000016994365561288916 0.00000882849400902358 0.000010924456442972658 0.000011807402851855137
          0.000018170213438972738 0.000013687822299511543 0.000026174444367511873 0.00003032953482988085 0.000014609751013659744 0.000039253702820062075
          0.000045924662538457395 0.000017738097971675693 0.00004718761606163288 0.000060633956893048346 0.00002459387339958513 0.00005550100855482992
          0.0000583695974414114 0.000020339020686571674 0.000060865588990467734 0.00005587364070678419 0.00001699202686490653 0.000056365859482807035
          0.00005489290231790872 -0.0001654496827706159 -0.00015438988606163162 -0.0005154503680288164 0.0016323663694060297 0.00023378720436179057
          0.0004980948596896538 -0.0012436262278690269 0.0001787540340154603 0.00010868551423696797 0.00023974287216792234 0.0001291142529978584
          -0.0743672461184042 -0.000004141460807773056 -0.14877994680665246 -0.0000014423897791854268 -0.07450178943366052 -0.000005747555447549457
          -0.0000070693952013770045 -0.0000012600124267500568 -0.000009123659068868695 -0.000007879128030366389 -0.0000016633546651642628 -0.000009123644647023033
          -0.000011133114416403411 -0.0000018553369913951179 -0.000011317470309399336 -0.00001398144797939982 -0.0000030433944117197465 -0.000012886448775228931
          -0.000013761869466527576 -0.0000027660773118040605 -0.000012952312700334478 -0.000010884307053291714 3.725381857513921e-7 -0.00001009582762300995
          -0.000012371509707131273 0.000005786820477721166 -0.0000035712536593374145 0.0000070295267344984425 0.000010342562553861123 0.000015047856348704425
          0.000013354065344271804 0.000012909289815211944 0.000030395426396177816 0.000028865442650766182 0.000012803634795673091 0.00003911284821855182
          0.00004326161457017183 0.00001862814963077622 0.00004736758513517597 0.00005199583338816316 0.00002300714078169036 0.000059316342520633614
          0.00006142402045226231 0.000032918985795798994 0.000054299089520669364 0.00004160745970264307 -0.000020595255383448752 -0.00008096045275644836
          -0.00020038042458204314 -0.0009461728533162878 0.00009229059610746382 0.00015342430570746551 0.0015574973176208373 0.00021690409141780775
          0.00037170832998940223 0.00024798792905363076 0.00024376251950569694 0.0004715224585194605 0.0006174193237130088 0.00029438341186047157
          -0.18135092759089394 -9.789594131726087e-7 -0.3628243570509163 -8.280528074888771e-7 -0.1815441080406327 -0.00001094145786417755
          -0.000015012217184695587 -0.000016355859121131022 -0.000023128830984292525 -0.000019423558384357165 -0.000011097260070425108 -0.000017091613169872844
          -0.00001830591413579108 -0.000004359426225758467 -0.000013233550819169437 -0.000020804423360054614 4.2189736157438595e-7 -0.000020761011515241234
          -0.00004526209604141518 -0.000060245423473132 -0.000054636933277008026 0.000010519501985273294 0.00011241196909228535 0.000038744783401517546
          -0.000008483525668123715 0.00003471341181032761 0.00004463163541559845 -0.000035604524728921616 0.000044184736461838625 0.00003328240653147074
          0.000011058459078200356 0.00005149701284565267 0.00006127390326707283 0.00002864094881829815 0.00004085655797636534 0.00008822360695512343
          0.00005477744584153621 0.000058021136185387734 0.00007216833918413657 0.00011015620348314714 0.00005535206905299406 0.00011667279645227735
          0.00012845699816654843 0.00006666833555807328 0.00014139863766193805 0.00032600710905716923 0.00037382060970431175 -0.00019051734728825487
          0.00029645440305337 0.0005947342754622498 0.0008206704637866435 0.0006230828066234873 0.0011309179602657649 0.0003217966100663716
          0.0006200438909134132 0.0011623608002505614 0.00032078478505681574 0.0005959717908390338 0.0014066739831296582 0.00032737147840666836
          0.0006379639832037043 0.001438559431157893 -0.000018610905815563683 0.0005049263808742932 0.0014378913969980145 -0.00032663617718831084
          0.00007341693620535605 -0.2759543044781956 0.00013943483231490528 -0.5522928543963485 0.000028600442687126693 -0.27768197234194997
          0.00014292575565416632 0.00012645124805393815 0.00007184134566709521 0.000040760062327810376 0.00007648487435057971 0.000027045848059875643
          0.000008488034562548208 0.000057272585279849464 0.00001911329207354706 -0.00008177055567443192 -0.00005773551455715009 -0.000026474266540704727
          -0.00024499508327649466 -0.00026938671181608864 -0.00018034968215074887 0.00066482373502319 0.0012802291646221153 0.000602254874031094
          0.0005774890674865585 0.0009003776409249875 0.0004180643946154472 0.0005002718697156849 0.0009305547774273171 0.00030260984974272986
          0.0003804210633097105 0.0008330560184979241 0.0002135403652356871 0.0005032389969409357 0.0010950699147236342 0.00015880244831634194
          0.00030178187952512037 0.0006096365615605448 0.00047261759550343285 0.0002590245955979009 0.0005652699701241826 -0.0003711407355264651
          0.000039709975276802645 -0.0002915723479925969 0.000044351923138341576 0.00004665954644045289 0.00017315591151201293 -0.0008111488175592818
          -0.000049810300972841226 -0.0007135019299139844 -0.0000569241377966212 0.0012773666060436617 0.0008964828648894141 -0.0010714300677383548
          0.0006745075481180141 0.0006701265699585734 0.00048565891023477636 0.00018353140720542283 0.00009366934902842183 0.00012090271444437084
          0.0003177576900902229 -0.0001298689026199007 0.00014932859941214904 0.0001129492939772464 0.00015599607354879752 0.00007247815712746464
          0.0002478539214678527 0.00036394472634806996 0.00019398959889126155 0.0013773533047779715 0.0027229992066180597 0.0006713679074216161
          0.00019644262530574275 0.0018941045095254294 0.0005233035080723092 0.00011782040869273702 0.00029906852773198267 0.00022715414841978365
          0.00012477418240122717 0.00023601048491006527 0.00009677080461373277 0.00032920166826982955 0.0007136654447028601 0.0005154799217618189
          -0.00009774893580705157 0.00028417579332562504 0.0008364264489392204 0.000697507161615929 -0.00026608316110210417 0.0011519562858854915
          -0.00018777165431904663 -0.0004459257419867635 0.0007111133656871882 0.000022602816104277945 -0.24824997615667263 0.0000684011916643884
          -0.49803087396886603 -0.000008859397924554369 -0.2517747589926489 0.0001587184216880616 0.00009458293617263525 0.00005208617998210541
          -0.000001934283186774688 0.000040797848079934806 -0.00003084981681084065 -8.031526322060945e-7 0.000042210013312948824 -0.000010760538875359549
          -0.00005193204539682972 0.0000040054206825040906 0.00000950683762998561 -0.00010712573605951847 0.00001672829718836477 -0.00011944484080270157
          -0.000005109800898184247 0.00006908844485220555 7.899543666978204e-7 -2.365773619505962e-7 0.00002552929749660704 -0.00011811754675686292
          0.0000026205949291147057 0.00005907985857123155 0.00001090612705414995 -0.0001084021803961499 -0.0000968660812645794 -0.00003082246190791449
          -0.0000841977747591538 0.00001960070431000771 0.00004698578896172867 -0.0000054996271954127485 0.00006133525961588004 0.00007463979675081944
          0.00004300380252376945 -0.00047917952137102593 -0.00003146857441480022 0.00022091169262861143 0.0009403773699679929 0.00042200712473691726
          0.0005022994990442897 0.0008539683440178525 0.00042731377895993683 0.00029624807853984025 0.0004065876403838986 0.00043086487489341074
          0.0006459385570677934 0.00026278130070481187 0.000371976514712713 0.0003057456223380939 0.0005612166348418768 0.00035751437938413844
          0.00033939575024899415 0.00060346628392971 0.00041120313884535076 0.0006828528115669918 0.001053609471401984 0.0005812185455937868
          0.00022917260513338755 0.00026145686524740863 -0.0004957367608714458 -0.00005308198603262704 0.00031571173228811533 0.00048438174363057973
          0.00028322050333240423 -0.0001798349832052848 0.00044237345552317064 0.00044662261360550737 -0.00013857397308558728 0.0007695986063956384
          0.0019288574312341378 0.0018676846658257085 0.0006651256187049648 0.0009680823373985348 0.000652199063395642 0.002091187840817854
          0.0008863058503614241 -0.0004018721224748889 -0.0006765579161354118 0.0009238550822735919 0.0021478337354269295 0.001154441394246697
          0.0021677895689450055 0.005847041659860053 0.004011598752372003
        </DataArray>
        <DataArray type="Float64" Name="resid_z" format="ascii" RangeMin="0" RangeMax="0">
          0 0 0 0 0 0
          0 0 0 0 0 0
          0 0 0 0 0 0
          0 0 0 0 0 0
          0 0 0 0 0 0
          0 0 0 0 0 0
          0 0 0 0 0 0
          0 0 0 0 0 0
          0 0 0 0 0 0
          0 0 0 0 0 0
          0 0 0 0 0 0
          0 0 0 0 0 0
          0 0 0 0 0 0
          0 0 0 0 0 0
          0 0 0 0 0 0
          0 0 0 0 0 0
          0 0 0 0 0 0
          0 0 0 0 0 0
          0 0 0 0 0 0
          0 0 0 0 0 0
          0 0 0 0 0 0
          0 0 0 0 0 0
          0 0 0 0 0 0
          0 0 0 0 0 0
          0 0 0 0 0 0
          0 0 0 0 0 0
          0 0 0 0 0 0
          0 0 0 0 0 0
          0 0 0 0 0 0
          0 0 0 0 0 0
          0 0 0 0 0 0
          0 0 0 0 0 0
          0 0 0 0 0 0
          0 0 0 0 0 0
          0 0 0 0 0 0
          0 0 0 0 0 0
          0 0 0 0 0 0
          0 0 0 0 0 0
          0 0 0 0 0 0
          0 0 0 0 0 0
          0 0 0 0 0 0
          0 0 0 0 0 0
          0 0 0 0 0 0
          0 0 0 0 0 0
          0 0 0 0 0 0
          0 0 0 0 0 0
          0 0 0 0 0 0
          0 0 0 0 0 0
          0 0 0 0 0 0
          0 0 0 0 0 0
          0 0 0 0 0 0
          0 0 0 0 0 0
          0 0 0 0 0 0
          0 0 0 0 0 0
          0 0 0 0 0 0
          0 0 0 0 0 0
          0 0 0 0 0 0
          0 0 0 0 0 0
          0 0 0 0 0 0
          0 0 0 0 0 0
          0 0 0 0 0 0
          0 0 0 0 0 0
          0 0 0 0 0 0
          0 0 0 0 0 0
          0 0 0 0 0 0
          0 0 0 0 0 0
          0 0 0 0 0 0
          0 0 0 0 0 0
          0 0 0 0 0 0
          0 0 0 0 0 0
          0 0 0 0 0 0
          0 0 0 0 0 0
          0 0 0 0 0 0
          0 0 0 0 0 0
          0 0 0 0 0 0
          0 0 0 0 0 0
          0 0 0 0 0 0
          0 0 0 0 0 0
          0 0 0 0 0 0
          0 0 0 0 0 0
          0 0 0 0 0 0
          0 0 0 0 0 0
          0 0 0 0 0 0
          0 0 0 0 0 0
          0 0 0 0 0 0
          0 0 0 0 0 0
          0 0 0 0 0 0
          0 0 0 0 0 0
          0 0 0 0 0 0
          0 0 0 0 0 0
          0 0 0 0 0 0
          0 0 0 0 0 0
          0 0 0 0 0 0
          0 0 0 0 0 0
          0 0 0 0 0 0
          0 0 0 0 0 0
          0 0 0 0 0 0
          0 0 0 0 0 0
          0 0 0 0 0 0
          0 0 0 0 0 0
          0 0 0 0 0 0
          0 0 0 0 0 0
          0 0 0 0 0 0
          0 0 0 0 0 0
          0 0 0 0 0 0
          0 0 0 0 0 0
          0 0 0 0 0 0
          0 0 0 0 0 0
          0 0 0 0 0 0
          0 0 0 0 0 0
          0 0 0 0 0 0
          0 0 0 0 0 0
          0 0 0 0 0 0
          0 0 0 0 0 0
          0 0 0 0 0 0
          0 0 0 0 0 0
          0 0 0 0 0 0
          0 0 0 0 0 0
          0 0 0 0 0 0
          0 0 0 0 0 0
          0 0 0 0 0 0
          0 0 0 0 0 0
          0 0 0 0 0 0
          0 0 0 0 0 0
          0 0 0 0 0 0
          0 0 0 0 0 0
          0 0 0 0 0 0
          0 0 0 0 0 0
          0 0 0 0 0 0
          0 0 0 0 0 0
          0 0 0 0 0 0
          0 0 0
        </DataArray>
        <DataArray type="Float64" Name="stress_zz" format="ascii" RangeMin="-13204776.233701823" RangeMax="6324458.859630486">
          3364.446520002551 3452.2831102345795 3097.848257156271 3036.112426854276 3393.148916897153 3463.2709811933464
          3108.29486363291 3056.999021611811 3421.851313791755 3474.258852152113 3118.7414701095495 3077.8856163693463
          2241.5688178124897 2260.2334271081327 2225.439223959066 2233.409513732345 2209.309630105643 2206.5856003565577
          1090.3093153730424 1177.5827956274998 1037.3807798897249 1098.0375235026013 984.4522444064075 1018.4922513777027
          -352.1329219482565 -306.82461831706576 -410.91899778214184 -379.876780704803 -469.7050736160273 -452.9289430925403
          -2033.5522805494018 -2122.5164456488233 -2071.926201660357 -2143.6962491961403 -2110.3001227713116 -2164.8760527434574
          -3689.2115204757447 -3886.2763037081695 -3716.380206622267 -3865.9324078549794 -3743.5488927687907 -3845.5885120017892
          -4983.393212734746 -5049.53097867336 -5036.666204361795 -5081.437934911738 -5089.939195988845 -5113.344891150116
          -4882.4426947075035 -4535.344797808166 -5186.4309474971815 -4898.029760133732 -5490.41920028686 -5260.714722459297
          -3554.682887386978 -2969.7366943122024 -4119.8053622787775 -3633.6391730941077 -4684.927837170577 -4297.541651876012
          -2409.885434572065 -2066.060492931472 -2760.416085235017 -2479.0533561897873 -3110.946735897969 -2892.0462194481033
          419.2510627941387 577.8523909726974 376.6528049646902 524.8407771222147 334.0545471352415 471.8291632717321
          5712.820469986442 6285.666422373107 6247.1076331249515 6692.918919522751 6781.394796263459 7100.171416672396
          8256.63535585902 9463.259236048329 9728.976793148622 10574.654909757937 11201.318230438224 11686.050583467544
          7546.1887695510795 7684.476598308262 9095.466657819676 9227.25785413294 10644.74454608827 10770.039109957619
          14922.480441681499 8104.127294376674 13087.894810601552 8402.43490761371 11253.309179521604 8700.742520850747
          46876.81035488312 22071.73379070513 30143.96051973106 13567.365784374912 13411.110684578985 5062.997778044692
          131334.77808465948 72213.71346978065 77578.83802840096 37176.385282621515 23822.897972142448 2139.057095462391
          330907.7186977975 219607.88913392264 197204.45204742983 124358.57562036824 63501.18539706215 29109.262106813836
          749649.9586806039 558162.8660038231 466962.267815513 331862.9190321997 184274.5769504221 105562.9720605763
          3574.2670780452167 3210.7077187054992 3543.8699568027155 3183.7680489536274 3513.4728355602138 3156.828379201756
          2289.263257695346 2255.0288761704987 2220.7944946456514 1054.810954522205 1003.6009046513738 952.3908547805424
          -387.57588491195776 -452.82526203222926 -518.0746391525008 -2014.2245123220407 -2074.6265953170955 -2135.028678312151
          -3586.7944555365893 -3672.0679698412937 -3757.341484145998 -4962.361615511644 -5002.5983442929555 -5042.835073074266
          -5693.636617617864 -5855.708804051078 -6017.7809904842925 -5226.292013854752 -5636.512434614907 -6046.732855375061
          -3634.7103796006286 -3845.698963404572 -4056.6875472085158 -389.3188270758104 -314.96246434473596 -240.60610161366162
          4058.2281437383253 5023.245286482335 5988.262429226346 5531.408783693787 7911.6111995828205 10291.813615471856
          8797.598692725074 9895.795623665053 10993.992554605029 39249.80339424506 29616.592543952327 19983.381693659598
          130676.42632872607 86731.3046514718 42786.182974217525 319668.037197338 205376.41831363348 91084.79942992899
          663794.2690520473 419757.89733713947 175721.52562223174 1230254.759723519 818648.5925463561 407042.4253691931
          3698.986075303349 3305.897708873533 3623.257176006558 3240.851490607961 3547.528276709767 3175.8052723423893
          2330.699258467651 2271.6591198607157 2212.618981253781 1070.4293137669426 998.6070494612292 926.7847851555157
          -384.0362220195638 -469.1936351521282 -554.3510482846924 -1992.486512975559 -2089.397505699364 -2186.308498423169
          -3631.0848795267493 -3719.582899382427 -3808.080919238104 -4602.755127519506 -4835.830501832717 -5068.905876145928
          -7599.644905079049 -6838.365638720007 -6077.0863723609655 -11141.098995250351 -8704.552108849362 -6268.005222448371
          -7639.408420607117 -6077.857501428317 -4516.306582249516 -2301.536501276294 -1902.1207092711686 -1502.7049172660434
          499.5486568469298 2374.788890194372 4250.0291235418135 1948.5673275745567 5502.153813802598 9055.74030003064
          15788.417500113217 14445.229379923796 13102.04125973437 93145.98468941932 66009.58061595872 38873.17654249813
          294774.2581265227 197920.6131483179 101066.96817011313 646771.692903226 428694.5156385043 210617.33837378264
          1136508.8484912012 749654.3826606763 362799.91683015134 1705816.4152303021 1068415.3032399833 431014.1912496649
          3900.47665289913 3406.698319550099 3777.2164967531307 3316.7924057343043 3653.956340607132 3226.88649191851
          2297.0952471748196 2241.3417108811436 2185.5881745874676 1022.921112502383 955.0459999704979 887.1708874386128
          -373.9894069210301 -462.4499760520877 -550.9105451831454 -1907.5747559587721 -2025.232625954195 -2142.890495949618
          -3399.1352769015202 -3548.6023906441983 -3698.0695043868764 -4666.87566935363 -4935.213526196461 -5203.551383039291
          -7156.028037496419 -6302.537170540464 -5449.04630358451 216.3273524018182 -2043.35142009603 -4303.030192593879
          2439.2594041762795 -672.7824330971716 -3784.824270370622 -6278.65428529784 -5038.054501942557 -3797.4547185872752
          -6079.294950520811 -2600.26518780442 878.7645749119706 360.5864754881246 4172.626363632231 7984.666251776338
          38958.40068880063 29714.08818097148 20469.77567314232 193094.60201091183 133030.09196854985 72965.58192618784
          540586.0673935562 366334.2355068742 192082.40362019202 1020868.3615234784 682155.0453044832 343441.7290854879
          1452327.393445874 874980.570807938 297633.74817000143 1268535.5136249317 471608.6580677743 -325318.19748938305
          4033.2458974202664 3403.239855417476 3892.5634204284825 3328.4772719544662 3751.8809434366985 3253.714688491457
          2139.31274232096 2130.1638737076346 2121.0150050943093 861.2931369699934 840.6788892131866 820.06464145638
          -519.5823013664232 -550.5720662254997 -581.5618310845764 -2076.1538294577476 -2121.5788270629387 -2167.0038246681297
          -3551.484803845039 -3632.409549548279 -3713.3342952515186 -4729.507072145335 -4977.650516302613 -5225.79396045989
          -7421.170564129847 -6486.548190887757 -5551.925817645669 -368.14868018677316 -2372.8140561552764 -4377.47943212378
          281.0897012778132 -2056.565570971387 -4394.220843220586 -14478.581680368157 -11100.39587234685 -7722.2100643255435
          -15754.267100637207 -10059.160317262382 -4364.053533887558 11951.870013043117 11115.785733793895 10279.701454544673
          101727.67046313347 71658.11383859123 41588.557214048975 346967.3816518439 236094.8707878539 125222.35992386378
          757926.1380853546 522265.90879658086 286605.6795078071 1060192.882543348 665003.5190152425 269814.1554871372
          515393.3602316405 94462.31176558395 -326468.73670047265 -1969039.613042497 -1750504.7911603432 -1531969.9692781898
          3641.388971328569 2832.0818771645027 3661.5423671707235 2962.71926041731 3681.695763012878 3093.356643670119
          1390.0494927100654 1618.793753751264 1847.538014792462 81.71280956320217 308.5295002680617 535.3461909729215
          -1375.2732897328501 -1112.9697481257563 -850.6662065186622 -3103.919612950762 -2789.9680537533823 -2476.0164945560023
          -4753.413178156121 -4432.908068859475 -4112.402959562829 -5494.045671554071 -5414.6707927638945 -5335.295913973717
          -9081.027148324996 -7957.761573692216 -6834.495999059434 -13603.191516960356 -10532.45474705479 -7461.717977149221
          -15293.953619722928 -11145.980051690574 -6998.006483658221 -29184.293931617984 -21547.571790606504 -13910.849649595022
          -26309.545181776084 -19131.64695333802 -11953.748724899953 63035.30460755207 44062.95680834113 25090.60900913017
          251558.34764492442 171965.13299681759 92371.91834871074 506661.11547885503 348504.34435657994 190347.57323430484
          558930.485165936 387331.87991929374 215733.27467265134 -513486.1468141454 -414425.08698641113 -315364.0271586769
          -3494722.617679453 -2481139.3631305913 -1467556.108581729 -7609820.608156072 -5194000.710670104 -2778180.8131841365
          1405.4907225125396 543.32713317373 2353.370634162942 1565.662743613138 3301.2505458133446 2587.998354052547
          -928.5424556948109 153.3231253681326 1235.188706431076 -2406.3748325163115 -1243.883859123236 -81.39288573016049
          -4197.37437954694 -2841.4921142850703 -1485.6098490232011 -6469.903756810863 -4850.3071957406955 -3230.7106346705295
          -8555.952166380212 -6807.064783636648 -5058.1774008930815 -9570.055495856153 -7798.474503828551 -6026.8935118009485
          -11684.019588669758 -9816.100477045293 -7948.181365420829 -14707.211188648671 -12550.91636573905 -10394.621542829427
          -22513.53610690128 -16350.900313806504 -10188.26452071173 -51453.52827645776 -35576.59087801026 -19699.653479562774
          -30296.74640153986 -23371.327383630247 -16445.908365720636 212839.65239642689 137377.48247303223 61915.31254963759
          571034.5651654003 381201.50433476485 191368.44350412954 476791.9200158731 354999.9488631901 233207.977710507
          -1094649.8213149193 -733617.1810402023 -372584.54076548555 -4732995.6225981675 -3259676.4539121925 -1786357.285226217
          -9172822.351112824 -6277320.048824848 -3381817.7465368714 -12455185.062574038 -8566597.72463068 -4678010.386687321
          -3834.3658412543427 -4224.071182067833 -2891.2204483615515 -3141.9303092362647 -1948.0750554687602 -2059.789436404695
          -5015.472718899466 -4120.896707390825 -3226.320695882185 -6795.444510928415 -6065.151070067695 -5334.857629206977
          -9289.860657452045 -8348.482493052445 -7407.104328652844 -12419.370185318974 -11234.302948686114 -10049.235712053258
          -15745.07990788155 -14467.487094517312 -13189.894281153076 -16040.145005743823 -15919.027367806228 -15797.909729868632
          -19366.336040245144 -18894.79151740339 -18423.246994561636 -33535.663480438496 -25855.065472562874 -18174.467464687248
          -45753.52533000473 -31661.90338689379 -17570.281443782842 -57608.03246529163 -57977.263728382924 -58346.49499147421
          24695.56640826248 -19276.68540909251 -63248.937226447495 503564.6947181842 382461.22023563477 261357.74575308524
          1069491.0663582266 849131.083769416 628771.1011806052 -109465.01681712805 -210004.7079923405 -310544.39916755306
          -4140321.426279978 -3548486.293104489 -2956651.1599289984 -8661748.34846678 -7300809.968233833 -5939871.588000888
          -11463884.353229698 -10019778.650421457 -8575672.947613217 -12418584.409805235 -11426944.40219096 -10435304.394576682
          -8313.207745319145 -6060.101005978275 -4276.865167436064 -4531.815247807811 -240.52258955298475 -3003.529489637347
          -5760.277903806209 -6464.13478280856 -7167.991661810914 -8387.429586551838 -8833.514292909442 -9279.598999267046
          -10622.641767222602 -11152.86490054865 -11683.088033874694 -13511.346726446276 -14503.713475975212 -15496.080225504149
          -17720.519519344984 -19038.014986366612 -20355.51045338824 -24685.539875855575 -24490.636526990296 -24295.733178125007
          -33200.8025445587 -30159.886862275318 -27118.971179991942 -49506.38914499216 -46447.50015872724 -43388.611172462326
          -18776.60006913239 -27994.606217671986 -37212.612366211586 162830.76776054746 114204.448222931 65578.12868531456
          352556.961195959 235013.72947191668 117470.49774787438 124736.11041569593 -22621.753496931928 -169979.6174095596
          -958090.4163303219 -1044703.4266961308 -1131316.4370619396 -3227291.998177383 -3239941.8262415035 -3252591.6543056243
          -6350927.545680406 -6262158.520274048 -6173389.494867688 -8542687.284761516 -8718552.939657709 -8894418.594553903
          -9094755.486675493 -10091163.837906308 -11087572.189137118 -8222811.674789789 -10245010.319575476 -12267208.96436116
          -5779504.091845872 -8849199.482354414 -11918894.872862956 -2833831.338570091 -6624589.891194506 -10415348.443818921
          29496.87658507814 63646.85584604122 15368.751576835357 35324.394355407596 1240.6265685925748 7001.932864773971
          -3672.9045496219815 -3741.6134627502097 -3810.322375878439 -2966.8462960155816 -3413.905523708898 -3860.964751402215
          -5009.52272720439 -6138.058008150334 -7266.593289096279 -11328.821387372702 -10941.25662819418 -10553.691869015656
          -19073.901436365184 -14950.294678151002 -10826.687919936821 -5293428.36596161 -5119521.304256313 -4945614.242551015
          -5568381.708941757 -5500329.8789481 -5432278.048954443 -5290220.7720701005 -5373060.825860814 -5455900.879651529
          -4494463.759472661 -4699005.251986811 -4903546.744500961 -3164394.9828311093 -3465031.479102856 -3765667.9753746036
          2053897.5735475188 2506527.790310383 2959158.007073247 -1635193.2377948028 -1973753.7669496136 -2312314.296104425
          3200433.683013295 3859067.924829209 4517702.166645124 -269207.49188729713 -537876.0763209059 -806544.6607545146
          3983924.096003804 4824529.327607851 5665134.559211898 918936.8716383912 799938.4664166176 680940.0611948441
          4434222.3998257555 5375072.52213268 6315922.644439605 1615377.5218729912 1407931.3573569986 1009896.9073911266
          841829.4049397402 404416.2929092621 275727.45252248197 1957590.0134285605 1227180.3012007435 496770.5889729266
          1499027.2897214452 595161.9763641215 -308703.3369932019 -1212804.7546693715 -1476724.9945526246 -1740645.2344358775
          -5861443.314617043 -4323779.860616811 -2786116.406616578 -10266750.648044277 -6914875.299941591 -3562999.951838904
          -13204776.233701823 -9050488.20818338 -4896200.182664936 -10940131.574459461 -10725505.631282227 -10510879.688104993
          -7446539.20342399 -8201278.019665305 -8956016.835906617 -367922.0938154644 -3696918.9987334027 -4288344.762155211
          -5226516.322197666 -8208767.430494957 -6756113.64566193 -77789.38193124843 -161585.59727925452 -45833.3480943798
          -93062.26464441429 -13877.31425751117 -24538.93200957403 3950.3579392596544 1327.498034276483 -1295.3618707066883
          -2611.4683686605294 -1851.4019056773595 -1091.3354426941905 -10454.95285701326 -5786.49750123128 -1118.0421454492966
          -20153.556678443365 -16226.733947388122 -12299.911216332875 -6880.019166057598 -15469.707537729935 -24059.395909402265
          -29248.790619473017 -28668.11997522813 -28087.44933098324 117751.82152777587 88401.11399085124 59050.4064539266
          -3143.6883656502614 -16770.988093425323 -30398.287821200385 147463.17893843245 111966.11144423015 76469.04395002786
          252425.5180990498 176322.46969036545 100219.42128168116 -190374.76347936626 -292979.7479735359 -395584.73246770556
          -1344348.38349374 -1386124.5552371966 -1427900.726980653 -2740256.6590878535 -2697118.5259190104 -2653980.392750167
          -4199718.230500754 -4066145.5594404405 -3932572.8883801256 -3327296.560399109 -4056535.378046315 -3227349.8309413474
          -3914340.916358688 -3127403.101483586 -3772146.4546710607 -2346978.0478885286 -2235570.8075941433 -2124163.567299758
          -1014698.9694522258 -837026.401386281 -659353.833320336 567586.2778800059 853788.7666768164 1139991.255473627
          4920966.145914435 3690367.4755233494 4702561.505849605 3506384.4151057405 4484156.8657847755 3322401.3546881313
          5794436.898754798 5551797.512442649 5309158.126130502 6217729.293185034 5960325.77850076 5702922.263816485
          6078469.423202268 5829215.710786105 5579961.998369943 2057892.4253181112 1737073.4242369856 2094105.3582275072
          -1781214.1536830207 2130318.291136903 -5299501.731603027 4480125.519761679 5402292.189696083 6324458.859630486
          5223552.618522779 4997924.891644576 4772297.164766371
        </DataArray>
        <DataArray type="Float64" Name="peeq" format="ascii" RangeMin="0" RangeMax="0.006220107053627795">
          0 0 0 0 0 0
          0 0 0 0 0 0
          0 0 0 0 0 0
          0 0 0 0 0 0
          0 0 0 0 0 0
          0 0 0 0 0 0
          0 0 0 0 0 0
          0 0 0 0 0 0
          0 0 0 0 0 0
          0 0 0 0 0 0
          0 0 0 0 0 0
          0 0 0 0 0 0
          0 0 0 0 0 0
          0 0 0 0 0 0
          0 0 0 0 0 0
          0 0 0 0 0 0
          0 0 0 0 0 0
          0 0 0 0 0 0
          0 0 0 0 0 0
          0 0 0 0 0 0
          0 0 0 0 0 0
          0 0 0 0 0 0
          0 0 0 0 0 0
          0 0 0 0 0 0
          0 0 0 0 0 0
          0 0 0 0 0 0
          0 0 0 0 0 0
          0 0 0 0 0 0
          0 0 0 0 0 0
          0 0 0 0 0 0
          0 0 0 0 0 0
          0 0 0 0 0 0
          0 0 0 0 0 0
          0 0 0 0 0 0
          0 0 0 0 0 0
          0 0 0 0 0 0
          0 0 0 0 0 0
          0 0 0 0 0 0
          0 0 0 0 0 0
          0 0 0 0 2.1472502394742652e-8 4.2945004789485304e-8
          0 0 0 0 0 0
          0 0 0 0 0 0
          0 0 0 0 0 0
          0 0 0 0 0 0
          0 0 0 1.224035315115515e-7 6.120176575577575e-8 0
          1.224035315115515e-7 6.120176575577575e-8 0 0 0 0
          0 0 0 0 0 0
          0 0 0 0 0 0
          0 0 0 0 0 0
          0 4.229151854810247e-7 8.458303709620494e-7 0 0.000004329724015928758 0.000008659448031857516
          0 0 0 0 0 0
          0 0 0 0 0 0
          0 0 0 0 0 0
          0 0 0 0 0 0
          0 0 0 1.224035315115515e-7 6.120176575577575e-8 0
          1.224035315115515e-7 6.120176575577575e-8 0 0 0 0
          0 0 0 0 0 0
          0 0 0 0 0 0
          0 0 0 0 4.540332401541577e-7 9.080664803083154e-7
          0 0.0000058678497917171394 0.00001173569958343428 0.000005876716745272263 0.00002948644394729999 0.00005309617114932772
          0 0 0 0 0 0
          0 0 0 0 0 0
          0 0 0 0 0 0
          0 0 0 0 0 0
          0 0 0 0 0 0
          0 0 0 0 0 0
          0 0 0 0 0 0
          0 0 0 0 0 0
          0 2.2598530847709818e-8 4.5197061695419635e-8 0 0.000003937574016017843 0.000007875148032035685
          0.000010230947022804818 0.000029675147575510016 0.00004911934812821522 0.0000668915520068739 0.00011103065441301176 0.00015516975681914965
          0 0 0 0 0 0
          0 0 0 0 0 0
          0 0 0 0 0 0
          0 0 0 0 0 0
          0 0 0 0 0 0
          0 0 0 0 0 0
          0 0 0 0 0 0
          0 0 0 0 0 0
          0 9.398466254938204e-7 0.000001879693250987641 0.000012460678110515564 0.000021292505462496767 0.00003012433281447797
          0.00007849747871698179 0.00010153300354036604 0.00012456852836375033 0.00025615160025221017 0.00028772020942155317 0.00031928881859089617
          0 0 0 0 0 0
          0 0 0 0 0 0
          0 0 0 0 0 0
          0 0 0 0 0 0
          0 0 0 0 0 0
          0 0 0 0 0 0
          0 0 0 0 0 0
          0 0 0 0 8.740168971474705e-8 1.748033794294941e-7
          0.00000905606630127418 0.00001254114504999654 0.0000160262237987189 0.00007237589886543759 0.00008207346992258085 0.0000917710409797241
          0.00024991081104605296 0.0002597361055579844 0.0002695614000699158 0.0005890689233869919 0.0005888433382653366 0.0005886177531436814
          0 0 0 0 0 0
          0 0 0 0 0 0
          0 0 0 0 0 0
          0 0 0 0 0 0
          0 0 0 0 0 0
          0 0 0 0 0 0
          0 0 0 0 0 0
          0.0000036567287587591812 0.0000047837275797399254 0.00000591072640072067 0.00003116426199753609 0.00003428557782843216 0.00003740689365932822
          0.000112870133828398 0.00011914407926228888 0.0001254180246961798 0.00029303284788605773 0.0003000923050352532 0.00030715176218444856
          0.0006174261030574039 0.0006182588683187612 0.0006190916335801187 0.0011244848822844376 0.0011130725086306043 0.0011016601349767713
          0.0018509899663880633 0.0018221999367927146 0.001793409907197366 0.002800451407613772 0.00275154017661395 0.002702628945614128
          0 0 0 0 0 0
          0 0 0 0 0 0
          0 0 0 0 0 0
          0 0 0 0.00024412794519865013 0.0002510179869097667 0.0002579080286208833
          0.00047870304356189815 0.0004858407890097294 0.0004929785344575606 0.0008308128805495314 0.000835976150698588 0.0008411394208476448
          0.001322512887674365 0.001323563278293926 0.0013246136689134865 0.0019722776264843333 0.001967118235990765 0.0019619588454971968
          0.003030513282756008 0.0030280184087566817 0.003025523534757355 0.0027821932579475315 0.002769267110642931 0.0027563409633383313
          0.003821775680190608 0.0038174972484437534 0.0038132188166968995 0.003727791818007903 0.0037068613445038127 0.003685930870999723
          0.004647152059637059 0.00464196738170399 0.00463678270377092 0.004756116502297677 0.004728742341771921 0.004701368181246165
          0.005455585408668687 0.005450273152246197 0.005444960895823707 0 0 0
          0 0 0 0 0 0
          0 0.0000020825758286648067 0.000004165151657329613 0.0000043730938608299964 0.000024493352961586537 0.00004461361206234308
          0.000058472137909993286 0.00011088965563761403 0.00016330717336523478 0.0002446697159906763 0.00030834821483621 0.00037202671368174377
          0.0006118659706745719 0.0006405118720047196 0.0006691577733348671 0.0011445227512437996 0.0011256642376972614 0.001106805724150723
          0.001959678507623302 0.0019157079657817202 0.0018717374239401385 0.0039291179791457725 0.0030281982375563623 0.003861932051536984
          0.0029574235871977377 0.0037947461239281957 0.0028866489368391136 0 0 0
          0 0 0 0 0 0
          0 0 0 0 0 0
          0 0 0 0 0 0
          0 0 0 0 0 0
          0 0 0 0 0 0
          0 0 0 0 4.103338802743601e-8 8.206677605487202e-8
          0.000005903235073940399 0.000007127644208687698 0.000008352053343434996 0.00003585747625648899 0.00003880938768258501 0.00004176129910868103
          0.00010675295250244071 0.00011161124838415204 0.00011646954426586335 0.0007610460440869978 0.00045569359214099386 0.0007670318664973104
          0.0004623070842182227 0.000773017688907623 0.0004689205762954514 0.0011684193885857 0.0011729559010944385 0.001177492413603177
          0.0016852009152036078 0.0016876162814845094 0.0016900316477654112 0.002310106184237809 0.0023100150993963686 0.002309924014554928
          0.004029646812318812 0.00333984604651713 0.004022955767420102 0.003334688311530612 0.004016264722521393 0.0033295305765440935
          0.00470949248340954 0.004702235135617232 0.004694977787824923 0.005338631594434521 0.005331756648622257 0.0053248817028099926
          0.005865129341970254 0.005859329003501567 0.00585352866503288 0.005786468288843377 0.005152922450230819 0.005755945946259718
          0.005074710449787374 0.005725423603676059 0.004996498449343929 0.006175223336117532 0.006170374477933567 0.006165525619749602
          0.006220107053627795 0.0062158859563416595 0.006211664859055523
        </DataArray>
        <DataArray type="Float64" Name="pe11" format="ascii" RangeMin="0" RangeMax="0.006214837066630454">
          0 0 0 0 0 0
          0 0 0 0 0 0
          0 0 0 0 0 0
          0 0 0 0 0 0
          0 0 0 0 0 0
          0 0 0 0 0 0
          0 0 0 0 0 0
          0 0 0 0 0 0
          0 0 0 0 0 0
          0 0 0 0 0 0
          0 0 0 0 0 0
          0 0 0 0 0 0
          0 0 0 0 0 0
          0 0 0 0 0 0
          0 0 0 0 0 0
          0 0 0 0 0 0
          0 0 0 0 0 0
          0 0 0 0 0 0
          0 0 0 0 0 0
          0 0 0 0 0 0
          0 0 0 0 0 0
          0 0 0 0 0 0
          0 0 0 0 0 0
          0 0 0 0 0 0
          0 0 0 0 0 0
          0 0 0 0 0 0
          0 0 0 0 0 0
          0 0 0 0 0 0
          0 0 0 0 0 0
          0 0 0 0 0 0
          0 0 0 0 0 0
          0 0 0 0 0 0
          0 0 0 0 0 0
          0 0 0 0 0 0
          0 0 0 0 0 0
          0 0 0 0 0 0
          0 0 0 0 0 0
          0 0 0 0 0 0
          0 0 0 0 0 0
          0 0 0 0 2.144925057640218e-8 4.289850115280436e-8
          0 0 0 0 0 0
          0 0 0 0 0 0
          0 0 0 0 0 0
          0 0 0 0 0 0
          0 0 0 1.2229846719659156e-7 6.114923359829578e-8 0
          1.2229846719659156e-7 6.114923359829578e-8 0 0 0 0
          0 0 0 0 0 0
          0 0 0 0 0 0
          0 0 0 0 0 0
          0 4.225284295434054e-7 8.450568590868108e-7 0 0.000004322444696429363 0.000008644889392858725
          0 0 0 0 0 0
          0 0 0 0 0 0
          0 0 0 0 0 0
          0 0 0 0 0 0
          0 0 0 1.2229846719659156e-7 6.114923359829578e-8 0
          1.2229846719659156e-7 6.114923359829578e-8 0 0 0 0
          0 0 0 0 0 0
          0 0 0 0 0 0
          0 0 0 0 4.5348161597329426e-7 9.069632319465885e-7
          0 0.000005857904594584104 0.000011715809189168209 0.0000058646872522469845 0.000029406908940749513 0.00005294913062925204
          0 0 0 0 0 0
          0 0 0 0 0 0
          0 0 0 0 0 0
          0 0 0 0 0 0
          0 0 0 0 0 0
          0 0 0 0 0 0
          0 0 0 0 0 0
          0 0 0 0 0 0
          0 2.2564043813109738e-8 4.5128087626219475e-8 0 0.000003930121928338594 0.000007860243856677187
          0.000010210711327696126 0.00002960034517031752 0.000048989979012938916 0.00006661413484434245 0.00011055823084103003 0.00015450232683771758
          0 0 0 0 0 0
          0 0 0 0 0 0
          0 0 0 0 0 0
          0 0 0 0 0 0
          0 0 0 0 0 0
          0 0 0 0 0 0
          0 0 0 0 0 0
          0 0 0 0 0 0
          0 9.379069438365286e-7 0.0000018758138876730572 0.000012425763002839659 0.000021233648302423916 0.000030041533602008176
          0.00007814474712652527 0.00010110242607213865 0.000124060105017752 0.00025413514189503257 0.0002856250162108991 0.00031711489052676546
          0 0 0 0 0 0
          0 0 0 0 0 0
          0 0 0 0 0 0
          0 0 0 0 0 0
          0 0 0 0 0 0
          0 0 0 0 0 0
          0 0 0 0 0 0
          0 0 0 0 8.71886337633542e-8 1.743772675267084e-7
          0.000009029197094592955 0.0000124985094995351 0.000015967821904477242 0.00007205011936722315 0.00008166407456556486 0.00009127802976390658
          0.00024807428371927023 0.00025767371319328355 0.00026727314266729687 0.0005819352393787172 0.0005813337398912644 0.0005807322404038118
          0 0 0 0 0 0
          0 0 0 0 0 0
          0 0 0 0 0 0
          0 0 0 0 0 0
          0 0 0 0 0 0
          0 0 0 0 0 0
          0 0 0 0 0 0
          0.000003650680854330402 0.000004774946742066334 0.000005899212629802265 0.00003108490526902504 0.00003419250515412019 0.00003730010503921533
          0.00011242547428608269 0.00011865104257754425 0.00012487661086900583 0.00029125411650119575 0.00029818622535081774 0.00030511833420043973
          0.0006117480190852822 0.0006123076020233498 0.0006128671849614171 0.0011096161585922063 0.0010976821140967587 0.001085748069601311
          0.0018193272112318388 0.0017896744113521407 0.0017600216114724426 0.0027460713491053723 0.0026960253629973877 0.002645979376889402
          0 0 0 0 0 0
          0 0 0 0 0 0
          0 0 0 0 0 0
          0 0 0 0.00024321101858666824 0.0002500620425631406 0.00025691306653961296
          0.00047623450234692076 0.00048330325050603196 0.0004903719986651431 0.0008251647223551554 0.0008302230099642856 0.000835281297573416
          0.0013112486925957686 0.001312155487067203 0.0013130622815386368 0.0019525812167257657 0.0019472365942929716 0.0019418919718601775
          0.0030125693115603223 0.0030098715393183863 0.0030071737670764515 0.0027522875059571945 0.0027391360977985584 0.0027259846896399214
          0.0038026386441490393 0.0037980883377692694 0.0037935380313894995 0.003688872796624773 0.0036677054110741568 0.0036465380255235403
          0.00462985284880735 0.004624376937938324 0.004618901027069298 0.004713287353274575 0.004685715118030358 0.00465814288278614
          0.005442834207810587 0.005437277730862094 0.005431721253913599 0 0 0
          0 0 0 0 0 0
          0 0.000002077338413760438 0.000004154676827520876 0.000004354646849215383 0.00002440037811271669 0.000044446109376218
          0.000058134032493029774 0.00011027429631261921 0.00016241456013220868 0.0002425891476126159 0.0003058286546046026 0.00036906816159658926
          0.0006037592983096737 0.0006325999334804158 0.0006614405686511577 0.0011239690727674263 0.0011047742924179531 0.0010855795120684802
          0.0019152252950862098 0.0018712784366628778 0.0018273315782395465 0.0038532330116109086 0.002954104103844963 0.003784947572000674
          0.002883860803915288 0.0037166621323904397 0.0028136175039856137 0 0 0
          0 0 0 0 0 0
          0 0 0 0 0 0
          0 0 0 0 0 0
          0 0 0 0 0 0
          0 0 0 0 0 0
          0 0 0 0 4.0996472449040233e-8 8.199294489808047e-8
          0.000005896288125631996 0.000007118698214731455 0.000008341108303830914 0.000035794990400497355 0.00003873933052253115 0.00004168367064456493
          0.00010647373743076987 0.00011131347097097891 0.00011615320451118796 0.0007575615982336263 0.0004540549724666607 0.0007635147907240215
          0.0004606420882545629 0.0007694679832144168 0.0004672292040424652 0.0011620244015414175 0.0011665173527219143 0.0011710103039024116
          0.001674910411788602 0.0016772557218110965 0.0016796010318335906 0.002295565221026562 0.0022953495513235935 0.0022951338816206246
          0.00401807709453968 0.0033273066170242355 0.004011228523840419 0.0033220538035433267 0.004004379953141159 0.0033168009900624174
          0.0047006685856962 0.004693204989906229 0.004685741394116259 0.005333293725192718 0.005326204066626169 0.005319114408059619
          0.005861952283152174 0.005855991514338769 0.0058500307455253645 0.005747588865848026 0.0050659951332151796 0.005716933714862069
          0.004987000729598051 0.005686278563876113 0.004908006325980922 0.006167704535621 0.0061627189331796076 0.006157733330738215
          0.006214837066630454 0.006210575546406267 0.006206314026182078
        </DataArray>
        <DataArray type="Float64" Name="pe22" format="ascii" RangeMin="-0.003210615203846575" RangeMax="0">
          0 0 0 0 0 0
          0 0 0 0 0 0
          0 0 0 0 0 0
          0 0 0 0 0 0
          0 0 0 0 0 0
          0 0 0 0 0 0
          0 0 0 0 0 0
          0 0 0 0 0 0
          0 0 0 0 0 0
          0 0 0 0 0 0
          0 0 0 0 0 0
          0 0 0 0 0 0
          0 0 0 0 0 0
          0 0 0 0 0 0
          0 0 0 0 0 0
          0 0 0 0 0 0
          0 0 0 0 0 0
          0 0 0 0 0 0
          0 0 0 0 0 0
          0 0 0 0 0 0
          0 0 0 0 0 0
          0 0 0 0 0 0
          0 0 0 0 0 0
          0 0 0 0 0 0
          0 0 0 0 0 0
          0 0 0 0 0 0
          0 0 0 0 0 0
          0 0 0 0 0 0
          0 0 0 0 0 0
          0 0 0 0 0 0
          0 0 0 0 0 0
          0 0 0 0 0 0
          0 0 0 0 0 0
          0 0 0 0 0 0
          0 0 0 0 0 0
          0 0 0 0 0 0
          0 0 0 0 0 0
          0 0 0 0 0 0
          0 0 0 0 0 0
          0 0 0 0 -9.995442188599901e-9 -1.9990884377199802e-8
          0 0 0 0 0 0
          0 0 0 0 0 0
          0 0 0 0 0 0
          0 0 0 0 0 0
          0 0 0 -5.684052721733357e-8 -2.8420263608666785e-8 0
          -5.684052721733357e-8 -2.8420263608666785e-8 0 0 0 0
          0 0 0 0 0 0
          0 0 0 0 0 0
          0 0 0 0 0 0
          0 -1.974575743736506e-7 -3.949151487473012e-7 0 -0.000001974200864709962 -0.000003948401729419924
          0 0 0 0 0 0
          0 0 0 0 0 0
          0 0 0 0 0 0
          0 0 0 0 0 0
          0 0 0 -5.684052721733357e-8 -2.8420263608666785e-8 0
          -5.684052721733357e-8 -2.8420263608666785e-8 0 0 0 0
          0 0 0 0 0 0
          0 0 0 0 0 0
          0 0 0 0 -2.0979804852964983e-7 -4.1959609705929967e-7
          0 -0.000002671953508238509 -0.000005343907016477018 -0.000002728122221735168 -0.000013106949307388154 -0.00002348577639304114
          0 0 0 0 0 0
          0 0 0 0 0 0
          0 0 0 0 0 0
          0 0 0 0 0 0
          0 0 0 0 0 0
          0 0 0 0 0 0
          0 0 0 0 0 0
          0 0 0 0 0 0
          0 -1.0319607948876746e-8 -2.063921589775349e-8 0 -0.0000017789436902997348 -0.000003557887380599469
          -0.000004633907206497451 -0.000013176922038286885 -0.000021719936870076323 -0.000029369595625633243 -0.000047725877331057115 -0.000066082159036481
          0 0 0 0 0 0
          0 0 0 0 0 0
          0 0 0 0 0 0
          0 0 0 0 0 0
          0 0 0 0 0 0
          0 0 0 0 0 0
          0 0 0 0 0 0
          0 0 0 0 0 0
          0 -4.208493420647292e-7 -8.416986841294584e-7 -0.000005468217288393281 -0.000009356806292346682 -0.000013245395296300084
          -0.00003352495466523608 -0.00004332155052584705 -0.00005311814638645803 -0.00010482476361166131 -0.00011735762986434514 -0.00012989049611702893
          0 0 0 0 0 0
          0 0 0 0 0 0
          0 0 0 0 0 0
          0 0 0 0 0 0
          0 0 0 0 0 0
          0 0 0 0 0 0
          0 0 0 0 0 0
          0 0 0 0 -3.8514597512502286e-8 -7.702919502500457e-8
          -0.0000039351743119263785 -0.0000054188188041747485 -0.000006902463296423119 -0.000030556131053407936 -0.00003446076975108206 -0.000038365408448756184
          -0.00010095530100541726 -0.00010430050823687763 -0.000107645715468338 -0.000224095051864272 -0.0002228652246212664 -0.00022163539737826078
          0 0 0 0 0 0
          0 0 0 0 0 0
          0 0 0 0 0 0
          0 0 0 0 0 0
          0 0 0 0 0 0
          0 0 0 0 0 0
          0 0 0 0 0 0
          -0.0000016591586170127301 -0.0000021549557578050163 -0.0000026507528985973023 -0.000013898372853938611 -0.000015166689038713758 -0.00001643500522348891
          -0.00004902761003347567 -0.00005128063342992622 -0.000053533656826376766 -0.00012276368002601016 -0.00012452573576977923 -0.00012628779151354827
          -0.0002472921977742023 -0.000245342545486976 -0.00024339289319974975 -0.0004287277613380748 -0.0004212434466354369 -0.000413759131932799
          -0.0006776645478723653 -0.0006645904237718372 -0.0006515162996713091 -0.001006369256480025 -0.0009897927421683066 -0.0009732162278565885
          0 0 0 0 0 0
          0 0 0 0 0 0
          0 0 0 0 0 0
          0 0 0 -0.00010871963459825021 -0.00011095956594295247 -0.00011319949728765478
          -0.00020875360546812664 -0.00021032294680759528 -0.00021189228814706392 -0.0003543611197121489 -0.0003542247544675632 -0.0003540883892229775
          -0.0005525230755034924 -0.0005501347054987863 -0.0005477463354940801 -0.0008115213698860026 -0.0008070033651708175 -0.0008024853604556323
          -0.0013407990842382613 -0.0013394663035546438 -0.0013381335228710269 -0.0011388611278440866 -0.0011332170956183927 -0.0011275730633926988
          -0.0017179253646346523 -0.0017179806124469391 -0.0017180358602592264 -0.0015383662835587568 -0.0015333493211259462 -0.0015283323586931358
          -0.0021371635618386213 -0.0021394373753592854 -0.002141711188879949 -0.0020063072421650885 -0.00200383953815277 -0.002001371834140451
          -0.0025807374853930175 -0.0025857015941635475 -0.002590665702934078 0 0 0
          0 0 0 0 0 0
          0 -9.262648628378027e-7 -0.0000018525297256756053 -0.0000020038792540008724 -0.000010695836483881758 -0.000019387793713762642
          -0.00002592133950345815 -0.00004726921680873919 -0.00006861709411402024 -0.00010265105098159315 -0.0001261995625548152 -0.00014974807412803726
          -0.00023695473337761552 -0.0002469749378879836 -0.00025699514239835167 -0.00040977295903666316 -0.00040217430163358333 -0.00039457564423050345
          -0.0006743338646321372 -0.0006609667815868012 -0.0006475996985414653 -0.0014247497620867133 -0.0010346856284847146 -0.0014084151246348956
          -0.0010184180364355823 -0.001392080487183078 -0.0010021504443864498 0 0 0
          0 0 0 0 0 0
          0 0 0 0 0 0
          0 0 0 0 0 0
          0 0 0 0 0 0
          0 0 0 0 0 0
          0 0 0 0 -1.90798308294583e-8 -3.81596616589166e-8
          -0.0000027478142504417243 -0.0000032971860394383364 -0.0000038465578284349485 -0.000016529415061672407 -0.000017769477586506667 -0.000019009540111340927
          -0.000048457128682754286 -0.000050296035148854456 -0.00005213494161495464 -0.00033959644270251636 -0.00020604502281772882 -0.00034037986441216064
          -0.00020775665279487617 -0.000341163286121805 -0.00020946828277202355 -0.0005157790544289206 -0.0005154452275723323 -0.0005151114007157441
          -0.0007393119029564582 -0.0007380183159953102 -0.0007367247290341623 -0.0010138482826667176 -0.0010121145826090744 -0.0010103808825514316
          -0.0018772428280507281 -0.0015306963910186823 -0.001877091230595737 -0.0015295205278927537 -0.0018769396331407456 -0.001528344664766825
          -0.00224035775819428 -0.0022416566492651398 -0.002242955540335999 -0.002602216710448831 -0.0026052559289421865 -0.002608295147435542
          -0.0029352321793722717 -0.0029401288539085135 -0.0029450255284447554 -0.002524486901204072 -0.0019330673429193762 -0.0025260994826134687
          -0.0019208020489144206 -0.0025277120640228657 -0.001908536754909465 -0.003014108265373949 -0.0030219688684346773 -0.0030298294714954056
          -0.0031970728081659834 -0.0032038440060062788 -0.003210615203846575
        </DataArray>
        <DataArray type="Float64" Name="pe33" format="ascii" RangeMin="-0.003223101964643953" RangeMax="0">
          0 0 0 0 0 0
          0 0 0 0 0 0
          0 0 0 0 0 0
          0 0 0 0 0 0
          0 0 0 0 0 0
          0 0 0 0 0 0
          0 0 0 0 0 0
          0 0 0 0 0 0
          0 0 0 0 0 0
          0 0 0 0 0 0
          0 0 0 0 0 0
          0 0 0 0 0 0
          0 0 0 0 0 0
          0 0 0 0 0 0
          0 0 0 0 0 0
          0 0 0 0 0 0
          0 0 0 0 0 0
          0 0 0 0 0 0
          0 0 0 0 0 0
          0 0 0 0 0 0
          0 0 0 0 0 0
          0 0 0 0 0 0
          0 0 0 0 0 0
          0 0 0 0 0 0
          0 0 0 0 0 0
          0 0 0 0 0 0
          0 0 0 0 0 0
          0 0 0 0 0 0
          0 0 0 0 0 0
          0 0 0 0 0 0
          0 0 0 0 0 0
          0 0 0 0 0 0
          0 0 0 0 0 0
          0 0 0 0 0 0
          0 0 0 0 0 0
          0 0 0 0 0 0
          0 0 0 0 0 0
          0 0 0 0 0 0
          0 0 0 0 0 0
          0 0 0 0 -1.1453808387802267e-8 -2.2907616775604534e-8
          0 0 0 0 0 0
          0 0 0 0 0 0
          0 0 0 0 0 0
          0 0 0 0 0 0
          0 0 0 -6.54579399792579e-8 -3.272896998962895e-8 0
          -6.54579399792579e-8 -3.272896998962895e-8 0 0 0 0
          0 0 0 0 0 0
          0 0 0 0 0 0
          0 0 0 0 0 0
          0 -2.250708551697548e-7 -4.501417103395096e-7 0 -0.0000023482438317194 -0.0000046964876634388
          0 0 0 0 0 0
          0 0 0 0 0 0
          0 0 0 0 0 0
          0 0 0 0 0 0
          0 0 0 -6.54579399792579e-8 -3.272896998962895e-8 0
          -6.54579399792579e-8 -3.272896998962895e-8 0 0 0 0
          0 0 0 0 0 0
          0 0 0 0 0 0
          0 0 0 0 -2.436835674436444e-7 -4.873671348872888e-7
          0 -0.000003185951086345595 -0.00000637190217269119 -0.0000031365650305118164 -0.000016299959633361362 -0.000029463354236210903
          0 0 0 0 0 0
          0 0 0 0 0 0
          0 0 0 0 0 0
          0 0 0 0 0 0
          0 0 0 0 0 0
          0 0 0 0 0 0
          0 0 0 0 0 0
          0 0 0 0 0 0
          0 -1.2244435864232984e-8 -2.4488871728465967e-8 0 -0.0000021511782380388584 -0.000004302356476077717
          -0.000005576804121198672 -0.00001642342313203063 -0.000027270042142862586 -0.000037244539218709185 -0.00006283235350997288 -0.0000884201678012366
          0 0 0 0 0 0
          0 0 0 0 0 0
          0 0 0 0 0 0
          0 0 0 0 0 0
          0 0 0 0 0 0
          0 0 0 0 0 0
          0 0 0 0 0 0
          0 0 0 0 0 0
          0 -5.170576017717992e-7 -0.0000010341152035435984 -0.0000069575457144463765 -0.000011876842010077232 -0.00001679613830570809
          -0.000044619792461289184 -0.00005778087554629157 -0.00007094195863129397 -0.00014931037828337125 -0.0001682673863465539 -0.00018722439440973653
          0 0 0 0 0 0
          0 0 0 0 0 0
          0 0 0 0 0 0
          0 0 0 0 0 0
          0 0 0 0 0 0
          0 0 0 0 0 0
          0 0 0 0 0 0
          0 0 0 0 -4.867403625085189e-8 -9.734807250170378e-8
          -0.000005094022782666576 -0.00000707969069536035 -0.000009065358608054122 -0.000041493988313815204 -0.00004720330481448279 -0.00005291262131515039
          -0.0001471189827138529 -0.00015337320495640587 -0.00015962742719895887 -0.00035784018751444516 -0.00035846851526999813 -0.00035909684302555105
          0 0 0 0 0 0
          0 0 0 0 0 0
          0 0 0 0 0 0
          0 0 0 0 0 0
          0 0 0 0 0 0
          0 0 0 0 0 0
          0 0 0 0 0 0
          -0.0000019915222373176717 -0.000002619990984261317 -0.000003248459731204962 -0.00001718653241508643 -0.000019025816115406423 -0.000020865099815726415
          -0.00006339786425260701 -0.00006737040914761802 -0.00007134295404262905 -0.0001684904364751855 -0.0001736604895810385 -0.00017883054268689146
          -0.0003644558213110798 -0.00036696505653637364 -0.0003694742917616675 -0.0006808883972541314 -0.0006764386674613217 -0.000671988937668512
          -0.0011416626633594734 -0.0011250839875803032 -0.0011085053118011332 -0.0017397020926253472 -0.0017062326208290804 -0.0016727631490328133
          0 0 0 0 0 0
          0 0 0 0 0 0
          0 0 0 0 0 0
          0 0 0 -0.00013449138398841806 -0.00013910247662018808 -0.00014371356925195814
          -0.00026748089687879406 -0.0002729803036984366 -0.00027847971051807915 -0.00047080360264300635 -0.0004759982554967224 -0.00048119290835043846
          -0.0007587256170922761 -0.0007620207815684163 -0.0007653159460445566 -0.001141059846839763 -0.001140233229122154 -0.0011394066114045448
          -0.0016717702273220604 -0.001670405235763742 -0.0016690402442054242 -0.0016134263781131082 -0.0016059190021801648 -0.0015984116262472217
          -0.0020847132795143867 -0.0020801077253223294 -0.002075502171130272 -0.002150506513066016 -0.00213435608994821 -0.0021182056668304044
          -0.002492689286968729 -0.0024849395625790383 -0.0024771898381893472 -0.002706980111109486 -0.0026818755798775867 -0.002656771048645688
          -0.002862096722417569 -0.002851576136698544 -0.0028410555509795206 0 0 0
          0 0 0 0 0 0
          0 -0.0000011510735509226356 -0.000002302147101845271 -0.000002350767595214512 -0.000013704541628834934 -0.000025058315662455355
          -0.00003221269298957163 -0.00006300507950388004 -0.00009379746601818846 -0.00013993809663102275 -0.00017962909204978739 -0.000219320087468552
          -0.00036680456493205814 -0.0003856249955924321 -0.0004044454262528061 -0.0007141961137307629 -0.0007025999907843697 -0.0006910038678379766
          -0.0012408914304540722 -0.0012103116550760767 -0.0011797318796980811 -0.0024284832495241942 -0.0019194184753602475 -0.002376532447365778
          -0.0018654427674797054 -0.002324581645207361 -0.0018114670595991633 0 0 0
          0 0 0 0 0 0
          0 0 0 0 0 0
          0 0 0 0 0 0
          0 0 0 0 0 0
          0 0 0 0 0 0
          0 0 0 0 -2.1916641619581915e-8 -4.383328323916383e-8
          -0.00000314847387519027 -0.000003821512175293117 -0.000004494550475395964 -0.000019265575338824938 -0.000020969852936024464 -0.000022674130533223987
          -0.000058016608748015587 -0.000061017435822124445 -0.0000640182628962333 -0.00041796515553110976 -0.0002480099496489318 -0.0004231349263118608
          -0.0002528854354596867 -0.0004283046970926118 -0.00025776092127044155 -0.0006462453471124967 -0.0006510721251495819 -0.0006558989031866673
          -0.0009355985088321438 -0.0009392374058157861 -0.0009428763027994286 -0.001281716938359844 -0.0012832349687145186 -0.0012847529990691932
          -0.002140834266488951 -0.001796610226005552 -0.0021341372932446815 -0.0017925332756505725 -0.002127440320000413 -0.0017884563252955927
          -0.0024603108275019197 -0.0024515483406410896 -0.0024427858537802594 -0.002731077014743886 -0.002720948137683981 -0.002710819260624076
          -0.0029267201037799003 -0.002915862660430254 -0.002905005217080607 -0.003223101964643953 -0.003132927790295803 -0.0031908342322485997
          -0.0030661986806836306 -0.0031585664998532463 -0.0029994695710714578 -0.00315359627024705 -0.0031407500647449293 -0.0031279038592428084
          -0.0030177642584644695 -0.0030067315403999855 -0.0029956988223355024
        </DataArray>
        <DataArray type="Float64" Name="disp_x" format="ascii" RangeMin="0" RangeMax="0.000012685928084810055">
          0 1.3790819181920042e-7 1.379590067570393e-7 0 0 1.3790648330182965e-7
          1.3795733045606337e-7 0 0 1.3790108225427221e-7 1.379521893756771e-7 0
          1.3810599547965045e-7 0 1.381045064716051e-7 0 1.3809985823366175e-7 0
          1.3833478357357403e-7 0 1.3833349095996198e-7 0 1.3832948680064536e-7 0
          1.3862524590302903e-7 0 1.3862414920456703e-7 0 1.3862077314850664e-7 0
          1.3895338552184952e-7 0 1.3895248200366973e-7 0 1.3894963549638535e-7 0
          1.392929598917984e-7 0 1.3929222275359342e-7 0 1.3928985917924338e-7 0
          1.3961907043707664e-7 0 1.396184848789964e-7 0 1.3961659269328853e-7 0
          1.399127042579079e-7 0 1.3991202810324668e-7 0 1.399107839678199e-7 0
          1.4015965720701076e-7 0 1.401613772555979e-7 0 1.4016290332145623e-7 0
          1.403800230334049e-7 0 1.4038000479387277e-7 0 1.4037921043783338e-7 0
          1.4058359542937834e-7 0 1.4058304596801812e-7 0 1.4058126759789424e-7 0
          1.4080917072439833e-7 0 1.4080901568214465e-7 0 1.4080875496063397e-7 0
          1.4111716902777213e-7 0 1.4111773998592683e-7 0 1.411214895354344e-7 0
          1.4152516572257856e-7 0 1.4152680957574562e-7 0 1.4153751658398977e-7 0
          1.4191115360573952e-7 0 1.4191248927116842e-7 0 1.4192007454482953e-7 0
          1.4217241853231385e-7 0 1.4217452806733255e-7 0 1.4216794148149924e-7 0
          1.4214413224266756e-7 0 1.4216079391607816e-7 0 1.421228618490821e-7 0
          1.415849306980377e-7 0 1.4163155745792715e-7 0 1.415842193105357e-7 0
          1.405195762062101e-7 0 1.4070173431939677e-7 0 1.405947908033571e-7 0
          2.758172289748915e-7 2.7591902425651456e-7 2.758138225960219e-7 2.759157086595525e-7 2.7580312114408985e-7 2.759055261822375e-7
          2.7621367522863066e-7 2.762106574454529e-7 2.7620135937024425e-7 2.7667202063977746e-7 2.766694219788767e-7 2.766613068601152e-7
          2.772535997068e-7 2.7725141885865e-7 2.772445816489665e-7 2.779104281636529e-7 2.779086273004783e-7 2.7790301635986894e-7
          2.785902260766237e-7 2.785886985148565e-7 2.7858416049532703e-7 2.7924321912661627e-7 2.7924200520164633e-7 2.7923825259902373e-7
          2.798322524408562e-7 2.798303096893762e-7 2.798268203821918e-7 2.803235246226527e-7 2.803285481849322e-7 2.803327783044076e-7
          2.8076408172478673e-7 2.8076427614642995e-7 2.807626306860882e-7 2.8116769263168987e-7 2.811666566104979e-7 2.811635636609018e-7
          2.816128765919133e-7 2.8161248650677474e-7 2.816121014416521e-7 2.82222216495907e-7 2.82222454065936e-7 2.822280472828319e-7
          2.8303605263002813e-7 2.8303785289645786e-7 2.8305611470194905e-7 2.837981598808636e-7 2.8380213022712006e-7 2.8381599261594285e-7
          2.8430795153380007e-7 2.843272151077141e-7 2.843168029544953e-7 2.8423231989717893e-7 2.843102588504579e-7 2.8429345783798627e-7
          2.8308642572609134e-7 2.8329568228210703e-7 2.832733563647038e-7 2.808412701824169e-7 2.8137024837495447e-7 2.817251296387818e-7
          4.137279952828697e-7 4.138813715771723e-7 4.137227845315613e-7 4.138763531316947e-7 4.137067597117781e-7 4.138609486944148e-7
          4.143249639201941e-7 4.143203453506988e-7 4.1430614104858373e-7 4.150143219151755e-7 4.150103090416655e-7 4.149977950532265e-7
          4.1588811927268273e-7 4.158847721284041e-7 4.158742748774591e-7 4.168744667424469e-7 4.1687179266512996e-7 4.1686344302232116e-7
          4.178956381785408e-7 4.1789340850311255e-7 4.1788690533919497e-7 4.188764742725108e-7 4.188754177382668e-7 4.1887041411778243e-7
          4.197651134385486e-7 4.1976038418570097e-7 4.1975431960354087e-7 4.204942564940893e-7 4.2050876490065306e-7 4.205168193726148e-7
          4.2115652984328366e-7 4.211569299952064e-7 4.2115426229841986e-7 4.217535437962967e-7 4.2175196137598347e-7 4.217484982761582e-7
          4.2240699461492976e-7 4.2240623109708757e-7 4.224061952614887e-7 4.233047579630004e-7 4.233018514898107e-7 4.2330474922518303e-7
          4.2452003755964475e-7 4.2451769284919647e-7 4.245353230050707e-7 4.256338049245791e-7 4.2564554399541447e-7 4.256625038765406e-7
          4.263482383244693e-7 4.2642475684335923e-7 4.264515528445713e-7 4.261719272258745e-7 4.2643393793023443e-7 4.2656295222733755e-7
          4.243245339014349e-7 4.2493537476493104e-7 4.2542796806056974e-7 4.208221493515552e-7 4.221191761232525e-7 4.2342971096183496e-7
          5.51641403166893e-7 5.518471058525654e-7 5.516345213006004e-7 5.518404263776122e-7 5.516132264036745e-7 5.518198784782998e-7
          5.524412747731338e-7 5.524350988228613e-7 5.52416097991182e-7 5.533635066886523e-7 5.533581606831989e-7 5.53341436705397e-7
          5.545314741969178e-7 5.54527010510895e-7 5.545130667681091e-7 5.558492579215897e-7 5.55845914115183e-7 5.558349659995174e-7
          5.572145614761885e-7 5.57211378652587e-7 5.572031683065212e-7 5.585240704637225e-7 5.585245119437991e-7 5.585179686792764e-7
          5.597170414959806e-7 5.597060605204234e-7 5.597001997627285e-7 5.606764704096238e-7 5.607127949881354e-7 5.607119759213423e-7
          5.61562461018925e-7 5.615624324821879e-7 5.615580244541733e-7 5.623432819396174e-7 5.623414221324681e-7 5.623381353389122e-7
          5.631896192665181e-7 5.631869720200942e-7 5.631866080210533e-7 5.643522104575989e-7 5.643417854952981e-7 5.643328241526744e-7
          5.659644241761721e-7 5.659514648616001e-7 5.659510710034119e-7 5.67381492793046e-7 5.674161950089631e-7 5.674417307163194e-7
          5.682021957790286e-7 5.684246440041211e-7 5.685987962185143e-7 5.677759881079601e-7 5.684643468561443e-7 5.691449624247596e-7
          5.651173960584777e-7 5.665016819585389e-7 5.683435936960908e-7 5.601765375595311e-7 5.627813922306613e-7 5.67045961463435e-7
          6.895583126539565e-7 6.898173975428552e-7 6.895499984978985e-7 6.89809140765522e-7 6.895237566849671e-7 6.897836767923828e-7
          6.905642604314753e-7 6.90556621623632e-7 6.905330479322172e-7 6.917218274726387e-7 6.917152464785721e-7 6.916946519208045e-7
          6.931864317286311e-7 6.931810826326599e-7 6.931640614894808e-7 6.948389510057309e-7 6.948346837808822e-7 6.948215346025426e-7
          6.965496594075356e-7 6.965473036487047e-7 6.965376903489602e-7 6.981980539049394e-7 6.981937577557604e-7 6.981865257723505e-7
          6.996672138517228e-7 6.996755466427272e-7 6.996696848168055e-7 7.0097228112119e-7 7.009344476627706e-7 7.009263973524604e-7
          7.019856127584626e-7 7.019843670359739e-7 7.019786494804082e-7 7.029412257966052e-7 7.029388116863371e-7 7.029356247456405e-7
          7.039628045302727e-7 7.039544309498962e-7 7.039507324199766e-7 7.053535528751231e-7 7.053293908349665e-7 7.052915016750826e-7
          7.073538403410831e-7 7.073252442349481e-7 7.072742298711749e-7 7.089902273041277e-7 7.090820406437236e-7 7.091515286475151e-7
          7.097160460733999e-7 7.102586707714345e-7 7.108585177496404e-7 7.088352768104379e-7 7.102846527420596e-7 7.124077004391126e-7
          7.051844800833347e-7 7.079271380326782e-7 7.125660826323051e-7 6.991432725459112e-7 7.035418776176637e-7 7.152658949838259e-7
          8.274794865086013e-7 8.277935782582194e-7 8.27470123217271e-7 8.277837568792565e-7 8.274398330724588e-7 8.277537290234786e-7
          8.286957874306387e-7 8.286867066431057e-7 8.286588621460498e-7 8.30091651239397e-7 8.300839333886186e-7 8.300599302033379e-7
          8.31856165660998e-7 8.318499216722659e-7 8.318303726958933e-7 8.338466267035086e-7 8.338419072632783e-7 8.338271024002456e-7
          8.359083751087228e-7 8.359053335464961e-7 8.358951588242359e-7 8.378915957675172e-7 8.378891802240327e-7 8.378817903254889e-7
          8.396691567667945e-7 8.396718526210442e-7 8.396680721506684e-7 8.412019123173418e-7 8.411870171273121e-7 8.411727092615702e-7
          8.424258544300769e-7 8.424254461644702e-7 8.424219281483869e-7 8.435569995477598e-7 8.435498219409231e-7 8.435435801694616e-7
          8.447359946840205e-7 8.447135035120028e-7 8.44696763295718e-7 8.46293936064488e-7 8.462517914898943e-7 8.46157196460892e-7
          8.486583452342056e-7 8.486216434383174e-7 8.484810774872149e-7 8.503758300812983e-7 8.50603348427249e-7 8.507984387460868e-7
          8.50736822396082e-7 8.51818084269853e-7 8.535328188540236e-7 8.491646194640308e-7 8.518145754541852e-7 8.565042803387307e-7
          8.44870261007313e-7 8.492547231147458e-7 8.612134912193693e-7 8.373976161041201e-7 8.468052386789291e-7 8.757502493468438e-7
          9.654057396950582e-7 9.65777427071313e-7 9.653957211465324e-7 9.657657064415712e-7 9.653633174073192e-7 9.657312061686538e-7
          9.668380642388982e-7 9.668273167771714e-7 9.667953767001006e-7 9.684757986432368e-7 9.684667390713279e-7 9.684397052742039e-7
          9.70543906595653e-7 9.705365830212083e-7 9.705149619584136e-7 9.728768670271867e-7 9.728713168298807e-7 9.728553707879246e-7
          9.752940220811637e-7 9.752902496910579e-7 9.752800366465265e-7 9.77616890390229e-7 9.776151280478576e-7 9.776092436964154e-7
          9.79703097100834e-7 9.7970364187563e-7 9.79700304250116e-7 9.8146829249823e-7 9.814649451252008e-7 9.81461927892304e-7
          9.82886746666973e-7 9.82888388274996e-7 9.8289333635433e-7 9.842014822554197e-7 9.841809769149909e-7 9.841608278409853e-7
          9.855325684891407e-7 9.854793179769875e-7 9.854194233254745e-7 9.871483977673027e-7 9.870934928188176e-7 9.869159546080704e-7
          9.897875064197457e-7 9.898112377098103e-7 9.895551427282263e-7 9.914463161966336e-7 9.919013484450605e-7 9.925170490678818e-7
          9.911549453969957e-7 9.930666556979928e-7 9.967207830403374e-7 9.8946890481253e-7 9.928726297589692e-7 0.0000010027727345787562
          9.847694416642537e-7 9.930227825343987e-7 0.0000010185964705456472 9.856616780045658e-7 0.000001002138388599345 0.0000010516698134409333
          0.0000011033390799811582 0.0000011037717614592933 0.000001103327234607582 0.0000011037569186235178 0.0000011032963300377765 0.0000011037162409800838
          0.0000011049942076284672 0.0000011049806292261997 0.0000011049439603070626 0.0000011068781240674763 0.0000011068664663800974 0.0000011068357430416587
          0.0000011092541022557886 0.0000011092442957983317 0.0000011092199188784574 0.0000011119348518780638 0.0000011119268578712543 0.0000011119089088642618
          0.0000011147136993769385 0.0000011147069957201226 0.0000011146958031765816 0.000001117380371001993 0.0000011173769510137455 0.0000011173724573959485
          0.0000011197761475821194 0.0000011197752023934838 0.0000011197723956246186 0.000001121783026315899 0.0000011217827194185832 0.0000011217916138727113
          0.0000011233766805658149 0.0000011233771633702726 0.0000011233980425269775 0.000001124885436920354 0.0000011248365726682282 0.000001124776030675587
          0.0000011264020904772894 0.0000011262801887161613 0.0000011260997786807417 0.000001127859686998984 0.0000011278429031829033 0.0000011275787899175328
          0.0000011305055836722446 0.0000011308091446801456 0.0000011306060476931252 0.000001132045196149953 0.0000011329063759758941 0.000001134501494271287
          0.000001131748265535144 0.00000113375238417088 0.0000011404603773763233 0.0000011310286198611668 0.0000011353759716544635 0.00000115348686148797
          0.0000011381771564196158 0.000001147579647774945 0.0000011847941795067028 0.000001166073633399475 0.0000011815340222544053 0.0000012433622065933296
          0.0000012412807367588603 0.000001241779657635728 0.000001241267832186066 0.0000012417614576145986 0.0000012412420044620338 0.0000012417066539651466
          0.0000012431664031263828 0.000001243150840906886 0.0000012431059681150299 0.0000012453014208558961 0.0000012452887738660228 0.0000012452487163702956
          0.000001247989862344924 0.0000012479792219833132 0.00000124794617367431 0.0000012510241052364773 0.000001251015666688146 0.0000012509889242720314
          0.0000012541733124228968 0.0000012541646374298052 0.0000012541441284705947 0.0000012571867403547274 0.000001257184151577126 0.000001257174220592402
          0.0000012598885233822393 0.0000012598976348675459 0.00000125988799551427 0.0000012621601261056264 0.000001262156680952395 0.0000012621653059818154
          0.000001263926479435147 0.0000012638937487602767 0.0000012639335262023036 0.0000012655955222340744 0.000001265525327950753 0.0000012653682457416357
          0.0000012673097471352168 0.0000012672192061275199 0.0000012667302294354437 0.0000012683891228726582 0.0000012684897791986914 0.0000012682034285657135
          0.0000012705790753333297 0.0000012711393924425944 0.0000012719675853226995 0.0000012723174021310094 0.0000012733657895094262 0.0000012768655124828156
          0.0000012726179863273235 0.0000012754369162897863 0.0000012860534781952662 0.0000012825671683916531 0.0000012889954805137227 0.0000013109987478437086
          0.0000013159096203913438 0.0000013268904335350477 0.0000013630841929574803 0.0000013891171198023976 0.0000014052866790579061 0.0000014581736653781851
          0.0000015318026266077344 0.0000015532153952513215 0.000001622750045365027 0.0000017935472679865603 0.0000018189570750175826 0.0000019004993190038983
          0.000001793950435730644 0.0000017932492639666509 0.0000017939212208621156 0.0000017931904874300756 0.0000017938431376377218 0.0000017929882598591702
          0.0000017960743897736013 0.000001796055986772579 0.00000179599089584365 0.0000017992562048138805 0.0000017992362906438393 0.0000017991768295947816
          0.0000018032407390736474 0.0000018032226809027477 0.0000018031703303630477 0.0000018077544281358416 0.0000018077403469659156 0.000001807700844919366
          0.0000018124450478628551 0.0000018124444561348524 0.0000018124158296467138 0.0000018600116031231895 0.0000018650044893259197 0.0000018798631530030432
          0.0000019232025403359616 0.000001930826652953168 0.0000019528764291802235 0.0000020448341020884596 0.000002055104816753394 0.000002084048521981669
          0.0000022536309336246036 0.000002266020691188382 0.0000023000263692037913 0.0000025846973816549997 0.0000025983235232687145 0.000002633547435772909
          0.000004246724738705864 0.00000425776076889483 0.000004296040166460751 0.0000030797015024222443 0.000003093042600586456 0.000003123884260028871
          0.00000511331439057713 0.000005121389553250389 0.0000051527496102023934 0.000003782725281176459 0.0000037939876049364825 0.000003814852326761537
          0.0000062272648418960706 0.000006231004220848207 0.000006251295954181722 0.000004737953358692988 0.000004745496237229277 0.000004752390552237782
          0.000007610967066916969 0.0000076094951436034276 0.0000076155067196788364 1.3903467086129438e-7 0 1.3943307024891743e-7
          0 1.3987098679343566e-7 0 2.7792175675187187e-7 2.791303296798155e-7 2.798111730410352e-7
          4.162441370308563e-7 4.187173348185335e-7 4.229614219837538e-7 5.543497855404943e-7 5.587624335531987e-7 5.688354166290216e-7
          6.916718925818392e-7 6.997114598200817e-7 7.279074566523456e-7 8.346492872532375e-7 8.533693484818836e-7 9.084372951193146e-7
          0.000001008178455458969 0.000001034128162181742 0.0000011149397312524007 0.0000012370318356175147 0.000001259174532993116 0.0000013490744923212433
          0.00000139768292921425 0.0000014258798747319352 0.0000015403101980134103 0.0000022417880425162737 0.0000017187517226084908 0.0000022684011466583927
          0.0000017506305290685357 0.0000023528979915366326 0.000001877828814070914 0.000002346473240287802 0.0000023451163585409627 0.000002346485109090333
          0.0000023450573474265516 0.000002346429944665098 0.0000023451835459847113 0.0000023495099595035237 0.0000023494704550330743 0.0000023493808605606955
          0.000002353693001661193 0.000002353668099385409 0.000002353590813242662 0.0000023590566285303136 0.000002359041367758709 0.000002358978249477794
          0.0000023652113299494 0.0000023652040702183435 0.000002365159168102476 0.0000023715902560150976 0.0000023715649329159087 0.0000023715685213701144
          0.0000018169492412549702 0.0000018169478370354154 0.000001816935919800022 0.0000023777856502505898 0.0000023777382755351124 0.000002377675817056527
          0.000001820896922660612 0.000001820872276616909 0.0000018208946170563424 0.0000018242925341467799 0.0000018242375156294588 0.0000018241289707768697
          0.0000018268813020830134 0.0000018268103144810844 0.000001826453405922377 0.0000018280364700402852 0.000001828149318996693 0.0000018280381919939782
          0.0000018294731055681316 0.0000018299664994080539 0.0000018307028762779688 0.0000018303017162288117 0.0000018313483879980924 0.0000018344187411237086
          0.0000018352621590221881 0.0000018377780787411014 0.0000018456919231901201 0.0000026086609121596646 0.000002487751462277965 0.0000026176460727670082
          0.0000024944537397265675 0.000002645373746115418 0.0000025149748058159685 0.0000028138508773689517 0.0000028247792059596768 0.0000028589707925064143
          0.000003132472488974687 0.000003144639129904868 0.0000031835286151689994 0.0000035980417906746205 0.0000036104025852457244 0.000003651053908165324
          0.0000064101575786213 0.000005431291003573774 0.000006420497647526303 0.0000054432392075510045 0.000006450392437528976 0.0000054784663115208546
          0.000007619537481591643 0.00000762737905955843 0.000007649269810382895 0.000009071599827670344 0.000009076037318444625 0.000009087491017914943
          0.000010766438617768514 0.000010766678002395116 0.000010765591908539663 0.000005991227823966172 0.0000029590599020747394 0.000005993660849698167
          0.0000029833037381909345 0.000005984442779821827 0.0000030591565404729114 0.000009278273300175956 0.000009271286727586786 0.000009260892142252563
          0.000012685928084810055 0.000012681274917531453 0.000012665914907605449
        </DataArray>
        <DataArray type="Float64" Name="disp_y" format="ascii" RangeMin="-0.00001022542836879494" RangeMax="0">
          0 0 -1.3737493984646696e-7 -1.3736499301615005e-7 0 0
          -1.3736837282427043e-7 -1.3735869312528904e-7 0 0 -1.3734845019551083e-7 -1.3733905862714108e-7
          -2.7488606173654994e-7 -2.7486587031823364e-7 -2.7487303726978474e-7 -2.748532446937048e-7 -2.748343303401487e-7 -2.748148874591268e-7
          -4.1264422056402386e-7 -4.126129975820438e-7 -4.1262556794087967e-7 -4.125946451139099e-7 -4.125699303696733e-7 -4.125392709581214e-7
          -5.507180784820863e-7 -5.506753618574426e-7 -5.50694595001236e-7 -5.506520172051273e-7 -5.506243347792069e-7 -5.505819139853773e-7
          -6.891200210079383e-7 -6.890659008515314e-7 -6.890925580965461e-7 -6.890386727704349e-7 -6.890101658271245e-7 -6.889566021505642e-7
          -8.277969537594188e-7 -8.277317361690665e-7 -8.277662543601817e-7 -8.277017127246372e-7 -8.276742734480821e-7 -8.276104468545501e-7
          -9.666289212962747e-7 -9.665523524840852e-7 -9.665957759357186e-7 -9.665201580555834e-7 -9.66496450773277e-7 -9.66421718639232e-7
          -0.0000011054423768959565 -0.0000011053527088838914 -0.0000011054070051093623 -0.0000011053179966416278 -0.0000011053023785060122 -0.0000011052139050292226
          -0.000001244029612258178 -0.0000012439259289392629 -0.0000012439930431115904 -0.0000012438889056078645 -0.0000012438836845399178 -0.0000012437790291951936
          -0.0000013821888546985016 -0.0000013820729085020579 -0.0000013821510140926045 -0.0000013820340890426815 -0.0000013820358564606554 -0.0000013819180567313282
          -0.0000015197595468434731 -0.00000151963640960269 -0.0000015197193721672325 -0.000001519595865936335 -0.0000015195985819928967 -0.0000015194747664032133
          -0.0000016566819013130658 -0.0000016565614041558027 -0.0000016566401883693646 -0.0000016565192804667516 -0.0000016565156555514575 -0.00000165639453072948
          -0.0000017931123523841285 -0.000001793010465267068 -0.0000017930720606189085 -0.0000017929691803636084 -0.0000017929493265106281 -0.000001792846074526361
          -0.000001929459577229069 -0.0000019293966095085035 -0.0000019294294997575143 -0.000001929364680689006 -0.0000019293353131703137 -0.000001929269660091869
          -0.000002066205234186247 -0.0000020662038764602166 -0.000002066196699755694 -0.000002066193821673001 -0.0000020661677828660616 -0.000002066161358817859
          -0.000002203764012979392 -0.000002203838873998752 -0.000002203785386939489 -0.0000022038583207068344 -0.0000022038430810903194 -0.0000022039141155899515
          -0.0000023423475966007897 -0.0000023424701065834945 -0.000002342393975870866 -0.0000023425202832071517 -0.0000023425536056725018 -0.00000234266837962797
          -0.000002481485778998413 -0.000002481566401189662 -0.0000024815395091523346 -0.0000024816273299148197 -0.0000024817257194943336 -0.0000024818239213585765
          -0.0000026197579996123808 -0.0000026196113026884633 -0.0000026197091371971686 -0.000002619541560199997 -0.00000261982573825532 -0.000002619634499384402
          0 -1.3740594928274612e-7 0 -1.373991354162655e-7 0 -1.3737911327498222e-7
          -2.749485075259117e-7 -2.749353042643393e-7 -2.748963972175333e-7 -4.127392915624284e-7 -4.127205276862898e-7 -4.1266467611165955e-7
          -5.508467862498727e-7 -5.508232307298181e-7 -5.507527324753609e-7 -6.892831807317953e-7 -6.892554788026876e-7 -6.89172801779873e-7
          -8.279954453385341e-7 -8.279641422567673e-7 -8.278718197914915e-7 -9.668632238215242e-7 -9.668295229347025e-7 -9.667299456686036e-7
          -0.0000011057142604360167 -0.000001105678205407223 -0.0000011055729163960333 -0.0000012443386989018784 -0.0000012443024787013289 -0.000001244193205369306
          -0.0000013825323075361188 -0.0000013824953419816826 -0.0000013823807860834339 -0.0000015201267753608463 -0.000001520086604205196 -0.000001519965439478372
          -0.0000016570435311251102 -0.000001657002057543082 -0.0000016568768764349632 -0.0000017934162282550084 -0.00000179337652389231 -0.0000017932517202552606
          -0.0000019296432641956086 -0.0000019296139527527844 -0.0000019295181484949596 -0.000002066203876164336 -0.0000020661955746583526 -0.0000020661693948271844
          -0.000002203537029896104 -0.0000022035541949094314 -0.0000022036185282537912 -0.0000023419682865950416 -0.0000023419989235676974 -0.000002342157247490216
          -0.0000024812333384093626 -0.000002481243670556267 -0.000002481429050803642 -0.0000026201792328444147 -0.0000026200323561159715 -0.000002620003955215772
          0 -1.3745709955232983e-7 0 -1.3745021056522048e-7 0 -1.3742998367471815e-7
          -2.7505260668791044e-7 -2.750392875578888e-7 -2.7500005987121194e-7 -4.1289838822125536e-7 -4.1287949779020345e-7 -4.128232375166281e-7
          -5.510619609606717e-7 -5.510382001259741e-7 -5.509672991303598e-7 -6.895544545141224e-7 -6.895265771044705e-7 -6.894435701840387e-7
          -8.283238524758065e-7 -8.282922200844672e-7 -8.281997459767273e-7 -9.672508906599306e-7 -9.672174933264548e-7 -9.671178276138632e-7
          -0.0000011061662273347553 -0.000001106129574090372 -0.0000011060236498109335 -0.0000012448550876184105 -0.000001244818939080684 -0.000001244710160732247
          -0.0000013831074923539994 -0.0000013830712395694682 -0.000001382956571109733 -0.000001520741409749057 -0.0000015207008469883716 -0.000001520578952424817
          -0.0000016576543493632333 -0.0000016576132498468192 -0.0000016574871059088983 -0.0000017939378629540172 -0.0000017938983162033192 -0.0000017937699689667661
          -0.000001929966445429323 -0.000001929936449660235 -0.0000019298382042889503 -0.0000020662188443045075 -0.0000020662060373060398 -0.0000020661818764089023
          -0.0000022031749401077943 -0.0000022031724999093765 -0.0000022032353412314133 -0.0000023413350779304754 -0.0000023413169936648476 -0.0000023414433351109024
          -0.0000024808057934059454 -0.000002480683232189791 -0.000002480760044884697 -0.0000026209337073527246 -0.0000026204456385870905 -0.0000026200098170804968
          0 -1.3752955515813167e-7 0 -1.3752260400518064e-7 0 -1.3750206641958662e-7
          -2.7519960193765664e-7 -2.7518615191849736e-7 -2.75146436013407e-7 -4.1312233126156983e-7 -4.1310322547766534e-7 -4.1304637973221986e-7
          -5.513641363047595e-7 -5.513401421413984e-7 -5.512686185248772e-7 -6.899358248752656e-7 -6.899075391213461e-7 -6.898239495562291e-7
          -8.287852998102258e-7 -8.287539487130984e-7 -8.286609417528846e-7 -9.67798484221112e-7 -9.677637874913593e-7 -9.676638481739746e-7
          -0.0000011067978856064366 -0.0000011067630334886245 -0.0000011066563654194754 -0.000001245569976069092 -0.0000012455414322592426 -0.00000124543343817085
          -0.0000013839224364562527 -0.000001383876176557345 -0.0000013837612044781243 -0.0000015216015836775701 -0.0000015215627946071089 -0.00000152143972338405
          -0.0000016585205566666673 -0.0000016584800730544266 -0.000001658354069755848 -0.0000017946853494396288 -0.0000017946471519355064 -0.0000017945173179423879
          -0.0000019304399605431094 -0.000001930407990820057 -0.0000019303060557433163 -0.000002066270462727081 -0.0000020662405177132514 -0.000002066212277917053
          -0.0000022027033014506504 -0.0000022026501799282874 -0.000002202668026227303 -0.000002340486436133713 -0.000002340325730939073 -0.0000023403226191271564
          -0.0000024802492080524455 -0.000002479764299039709 -0.0000024793675992217014 -0.0000026221830520329974 -0.0000026210384482313917 -0.000002619204669326094
          0 -1.3762351903943795e-7 0 -1.376165004344268e-7 0 -1.3759559778366665e-7
          -2.75390051728616e-7 -2.753764100997649e-7 -2.7533608569909257e-7 -4.134119620785696e-7 -4.133925714226398e-7 -4.133349542663775e-7
          -5.51754394326997e-7 -5.517300592082527e-7 -5.516576986718866e-7 -6.904278810886048e-7 -6.903992624035698e-7 -6.903148150703828e-7
          -8.293815522049352e-7 -8.293499476725175e-7 -8.292561923743961e-7 -9.68502776724661e-7 -9.684680795763084e-7 -9.683676660411064e-7
          -0.0000011076157656257254 -0.000001107580363203584 -0.0000011074732407801645 -0.0000012464994401026502 -0.0000012464722008098605 -0.0000012463642823694413
          -0.0000013849565274341523 -0.0000013849084225049127 -0.0000013847933789050415 -0.0000015227119401887926 -0.0000015226740296953077 -0.0000015225496027014894
          -0.000001659652702522066 -0.0000016596142318469466 -0.0000016594911918535963 -0.0000017956809171528242 -0.0000017956467149773488 -0.0000017955207220034248
          -0.000001931094628356838 -0.0000019310554266390143 -0.000001930949435718114 -0.000002066396655049829 -0.0000020663260965961073 -0.0000020662554854920425
          -0.0000022021941559077702 -0.0000022020121316249777 -0.000002201895604018424 -0.0000023395047294436038 -0.0000023390129982758883 -0.000002338529365222938
          -0.0000024797301797649936 -0.0000024785239027182274 -0.000002476554426896072 -0.0000026243806887655603 -0.0000026217471483302494 -0.0000026168349933843915
          0 -1.3773925049261284e-7 0 -1.377321903968964e-7 0 -1.3771092610224175e-7
          -2.756247047236882e-7 -2.756107961645142e-7 -2.7556972857621083e-7 -4.137684354720668e-7 -4.13748685999796e-7 -4.136900783723132e-7
          -5.52234028783937e-7 -5.522092536365595e-7 -5.521358310716312e-7 -6.910317960116974e-7 -6.910029037879766e-7 -6.909172938738545e-7
          -8.301134709118717e-7 -8.300811348371121e-7 -8.29986411260323e-7 -9.693644922436805e-7 -9.693307678460371e-7 -9.69229603676053e-7
          -0.0000011086186725512906 -0.0000011085815206854495 -0.0000011084743500959514 -0.00000124764876973743 -0.0000012476120177921344 -0.0000012475033664125405
          -0.0000013862052934370328 -0.0000013861691523468488 -0.0000013860542987699013 -0.0000015240732553773759 -0.0000015240349231267505 -0.000001523909769601449
          -0.0000016610621206505061 -0.0000016610282985933383 -0.0000016609132898764363 -0.0000017969589980791572 -0.0000017969304816346837 -0.000001796821528161574
          -0.0000019319718493028902 -0.000001931917212514941 -0.000001931798545851868 -0.0000020666647817885945 -0.0000020664982676016117 -0.000002066295664455071
          -0.000002201736965386238 -0.000002201296466561026 -0.000002200829312495184 -0.000002338604443084205 -0.000002337484996423476 -0.0000023355485387681153
          -0.00000247956978320474 -0.0000024770707004202156 -0.0000024722348466573537 -0.000002627388921675798 -0.0000026234787437589466 -0.000002614604244082507
          0 -1.3787702402820442e-7 0 -1.3786999699597148e-7 0 -1.3784854912601466e-7
          -2.7590453236816086e-7 -2.758902718257474e-7 -2.758482509138716e-7 -4.141932397248226e-7 -4.14173040474841e-7 -4.1411316563828696e-7
          -5.528046052032759e-7 -5.527793762943415e-7 -5.527046154717166e-7 -6.917492572273348e-7 -6.917198616884579e-7 -6.916327918479388e-7
          -8.309812370549077e-7 -8.309486514081946e-7 -8.308525502273049e-7 -9.703874703307462e-7 -9.7035313131156e-7 -9.702511973775316e-7
          -0.0000011098012610183342 -0.0000011097643071033026 -0.0000011096567376136254 -0.0000012489973659497394 -0.0000012489601521324242 -0.0000012488500106675708
          -0.000001387699459674466 -0.000001387663298524802 -0.0000013875497328157446 -0.000001525677267227595 -0.0000015256435029151504 -0.0000015255200075703574
          -0.0000016627579574036727 -0.000001662731231343609 -0.0000016626322548048324 -0.0000017985723064856946 -0.0000017985468878163193 -0.000001798478567584834
          -0.000001933144974538494 -0.0000019330528940222416 -0.000001932885593719275 -0.0000020671268263510416 -0.000002066784556668232 -0.0000020663009461201477
          -0.0000022015169918077276 -0.0000022006169286995625 -0.0000021991007761840676 -0.0000023378882257325654 -0.000002335805899458242 -0.000002331452174323735
          -0.0000024800217156535288 -0.0000024767125144071478 -0.0000024683548202022807 -0.0000026350224553638498 -0.0000026304381462054207 -0.0000026164354295575723
          0 -1.3803721265280478e-7 0 -1.3803014821465451e-7 0 -1.3800920492086333e-7
          -2.7623082257439347e-7 -2.762161546288253e-7 -2.761726178154895e-7 -4.146881525398892e-7 -4.146674143294199e-7 -4.1460602008740596e-7
          -5.534682819818788e-7 -5.53442502302184e-7 -5.53366090900707e-7 -6.925816471660053e-7 -6.925517567216957e-7 -6.924628738485318e-7
          -8.31986905634579e-7 -8.319539586982243e-7 -8.318560588067516e-7 -9.71571662062482e-7 -9.715365200790469e-7 -9.714336379729618e-7
          -0.0000011111647595914056 -0.0000011111276610524804 -0.0000011110195295252102 -0.0000012505516535852733 -0.000001250515369101597 -0.0000012504024384205267
          -0.0000013894325796199783 -0.0000013893972348730582 -0.0000013892862444106732 -0.0000015275249629916377 -0.0000015274950075447849 -0.0000015273810890364706
          -0.0000016647313576547514 -0.0000016647151513770312 -0.0000016646477188998107 -0.0000018006084982500588 -0.0000018005788723374274 -0.0000018005607055151094
          -0.0000019347207369380175 -0.0000019345529050042502 -0.0000019342771280032783 -0.000002067864742323262 -0.000002067222351607982 -0.0000020660831713597125
          -0.0000022014943244502588 -0.000002199885554976222 -0.000002196385835367337 -0.0000023379016308674857 -0.000002335144832346478 -0.0000023279531447921976
          -0.00000248540671455076 -0.000002481332735868886 -0.000002468619658431453 -0.000002655056673891615 -0.000002648932808458036 -0.0000026284751098359187
          0 -1.3821864098022977e-7 0 -1.3821469916259416e-7 0 -1.3819131730590675e-7
          -2.766061656997265e-7 -2.7658965804137454e-7 -2.765447573927614e-7 -4.152547293603337e-7 -4.152340193058752e-7 -4.151707708585759e-7
          -5.542276234406229e-7 -5.542014224196764e-7 -5.541228857073862e-7 -6.935309167011421e-7 -6.935003450113494e-7 -6.934095743266831e-7
          -8.331316865521731e-7 -8.330982416500515e-7 -8.329984682409134e-7 -9.729193187073526e-7 -9.728840001346266e-7 -9.72778351162733e-7
          -0.000001112708150347285 -0.0000011126723918869867 -0.000001112562307621818 -0.0000012523066868263386 -0.000001252269067766933 -0.000001252160485833057
          -0.0000013914168288740984 -0.0000013913795148943833 -0.0000013912734212720813 -0.0000015296190960255696 -0.000001529602205330199 -0.0000015294862925732926
          -0.0000016669399425536412 -0.000001666945626510107 -0.0000016669237915308547 -0.0000018031836684319588 -0.000001803088539200641 -0.0000018031585914347045
          -0.0000019370820415403655 -0.0000019366732387687838 -0.000001936116355591922 -0.000002068490011490341 -0.0000020675320602814694 -0.0000020650902919378713
          -0.000002201719833978711 -0.0000021998368645635446 -0.000002193996776856076 -0.0000023427486854768333 -0.000002339603516400558 -0.000002328645914544308
          -0.0000025019949580712127 -0.000002496965447464676 -0.000002478493931994755 -0.000002694803091871966 -0.0000026872040754817736 -0.000002658744942342329
          -0.0000029473348105179767 -0.0000029364699208618564 -0.0000028965454477242622 -0.000003298569076888621 -0.0000032840565865483034 -0.0000032337501913199782
          -1.392436405152422e-7 0 -1.3921657749681552e-7 0 -1.391794475246702e-7 0
          -2.7864195655506277e-7 -2.7862828732829095e-7 -2.785749639400275e-7 -4.183307130263827e-7 -4.1830667292331207e-7 -4.182377018650151e-7
          -5.582972314659917e-7 -5.582679905108022e-7 -5.581806277037232e-7 -6.985880273735803e-7 -6.985541420950897e-7 -6.984541301404216e-7
          -8.391741677163195e-7 -8.391370181707597e-7 -8.390261340258672e-7 -0.0000021114945017107084 -0.0000021085903390511614 -0.000002099952531972426
          -0.00000228690423782756 -0.0000022823788670511765 -0.0000022684568468556823 -0.0000025012072600533258 -0.0000024946232017902343 -0.000002474308653461897
          -0.000002775294005633857 -0.000002766275327575562 -0.000002738564918488926 -0.0000031375401429063182 -0.000003125976864403171 -0.0000030907574669802257
          -0.000003998759685605101 -0.000003988196101589473 -0.000003955695261661351 -0.000003623163854364924 -0.000003609483797422742 -0.000003568283375374391
          -0.0000047569366378762725 -0.000004746129601827043 -0.000004713162025369487 -0.0000042705880657350014 -0.000004255834682465389 -0.000004211794526821594
          -0.00000569640519989291 -0.00000568616413264719 -0.000005655096155291921 -0.0000051172442293889306 -0.000005102913204474863 -0.000005060185268841235
          -0.000006834576041038724 -0.00000682583662282377 -0.000006799436743355784 -0.0000027544156639308566 -0.000002753706416428731 -0.000002754147002380457
          -0.000002753840324385397 -0.0000027535207236491155 -0.0000027533110895508758 -0.0000027565838779630327 -0.0000027559214949873063 -0.0000027550403974196957
          -0.0000027603577044312145 -0.0000027590693575694417 -0.000002757174711638558 -0.0000027660485451243234 -0.0000027632020278789177 -0.0000027578881656974677
          -0.0000027733368857653447 -0.00000276888303707199 -0.0000027591980381808293 -0.0000027861026514698207 -0.0000027811163807522445 -0.0000027659550202615195
          -0.0000028135448996841317 -0.000002807322614433554 -0.0000027852172351707373 -0.0000028644955274458886 -0.000002855807907464287 -0.0000028254937477784544
          -0.000003146920084469783 -0.0000031351170736219 -0.000003093757240624001 -0.0000037961596726495015 -0.0000035500279085818404 -0.0000037785707561260613
          -0.000003535011446977467 -0.0000037218853252554 -0.000003484047411088395 -1.406769010039381e-7 0 -1.4072394284223753e-7
          0 -1.4067376674128473e-7 0 -2.8176036857733794e-7 -2.817317534480479e-7 -2.816777630907343e-7
          -4.2286649350650104e-7 -4.228413428524647e-7 -4.2276044992240257e-7 -5.641898030993241e-7 -5.641561777900716e-7 -5.640549353315238e-7
          -7.058219669201678e-7 -7.057825038007767e-7 -7.056632912727428e-7 -8.477442611625828e-7 -8.477004927153857e-7 -8.475808381705715e-7
          -9.79970933434491e-7 -9.79932557952072e-7 -9.798191121105734e-7 -9.897470077715195e-7 -9.897200374433563e-7 -9.89595481932616e-7
          -0.000001120782912221926 -0.0000011207463081552535 -0.000001120638942306358 -0.0000012612893128948027 -0.0000012612693213997656 -0.0000012611639777909305
          -0.0000014014491167744146 -0.0000014014616845212702 -0.0000014014626195419786 -0.0000015409314008088334 -0.0000015408584023060377 -0.0000015409484651467695
          -0.0000016790139426388055 -0.0000016786546947081398 -0.0000016780577901879673 -0.0000018167989445174252 -0.0000018159545674255725 -0.0000018139454409316083
          -0.0000019589609316594614 -0.000001957229759227465 -0.0000019525943999446974 -0.0000022807961721390374 -0.0000020533280652353476 -0.0000022755518573773214
          -0.0000020495116710580617 -0.0000022591182113853087 -0.000002037571342010144 -0.00000256582548824256 -0.0000025590149161264822 -0.000002537683129114896
          -0.0000029299594054371104 -0.0000029216062113186494 -0.0000028954804232989957 -0.0000033985653046531775 -0.0000033888952941484996 -0.000003358839237653011
          -0.000005232987167039584 -0.000004385876226802554 -0.000005224162601566473 -0.000004376714990103234 -0.000005197468297598855 -0.000004348745062537623
          -0.0000062409206450272584 -0.000006233037720764898 -0.000006209439593197014 -0.000007414590676068732 -0.000007408353781992315 -0.000007389765681649864
          -0.000008749265263460905 -0.000008745441433016348 -0.000008734083673089477 -0.0000061952467014714775 -0.00000449008594279099 -0.000006183044760810359
          -0.000004470841283761159 -0.000006146343922728314 -0.0000044136085381964115 -0.00000817759167993221 -0.000008171481822393913 -0.000008153032594207618
          -0.00001022542836879494 -0.00001022480042569654 -0.000010223040743209068
        </DataArray>
        <DataArray type="Float64" Name="disp_z" format="ascii" RangeMin="-0.0000011292485310728132" RangeMax="0">
          0 0 0 0 -5.838837508651675e-8 -5.838685147343091e-8
          -5.84053827917331e-8 -5.8406786731369744e-8 -1.1677658724851871e-7 -1.1677383248209432e-7 -1.1681087164439094e-7 -1.1681347837418713e-7
          0 0 -5.845978195999819e-8 -5.846093569549155e-8 -1.1691967986300214e-7 -1.169220185680546e-7
          0 0 -5.8547023925851956e-8 -5.8547900174121126e-8 -1.170942053978384e-7 -1.1709609589601597e-7
          0 0 -5.8663243381275035e-8 -5.86639935821675e-8 -1.1732665879512744e-7 -1.1732819666276781e-7
          0 0 -5.880419134897124e-8 -5.8804998461818234e-8 -1.1760852032249e-7 -1.1760992148521604e-7
          0 0 -5.8965426559846204e-8 -5.896623505255813e-8 -1.1793089612175167e-7 -1.1793221473964559e-7
          0 0 -5.9142411596191124e-8 -5.914289256348457e-8 -1.182847042561912e-7 -1.1828574251667985e-7
          0 0 -5.933082755774972e-8 -5.93304382905809e-8 -1.1866142950732414e-7 -1.1866155733436163e-7
          0 0 -5.9524117206989393e-8 -5.952395066608548e-8 -1.1905070649307343e-7 -1.190506016324496e-7
          0 0 -5.973184592711817e-8 -5.973208756206365e-8 -1.1946447436136606e-7 -1.194649112203353e-7
          0 0 -5.994951215427316e-8 -5.995035851612443e-8 -1.198989265874198e-7 -1.1990032846582726e-7
          0 0 -6.017444224979467e-8 -6.017454628840043e-8 -1.2034892577851704e-7 -1.2034948245429195e-7
          0 0 -6.040238256794142e-8 -6.040046479595341e-8 -1.2080303450374396e-7 -1.208002462851799e-7
          0 0 -6.061230854395932e-8 -6.060800275755897e-8 -1.212209105652102e-7 -1.212138386522604e-7
          0 0 -6.073592267586746e-8 -6.073335207083194e-8 -1.2146524923026793e-7 -1.2145784478104404e-7
          0 0 -6.072143980583644e-8 -6.072567805648051e-8 -1.2143762347294414e-7 -1.2144272219875004e-7
          0 0 -6.05178616865753e-8 -6.055166915663626e-8 -1.2107261076119318e-7 -1.2109432641459473e-7
          0 0 -6.013196363094842e-8 -6.018886601829665e-8 -1.2034942121583425e-7 -1.204668422769133e-7
          0 0 -5.960996335206869e-8 -5.98501751209511e-8 -1.1966441516005723e-7 -1.197661170946584e-7
          0 0 -5.838284941486229e-8 -5.840146635570969e-8 -1.1676576758251171e-7 -1.1680303959019427e-7
          0 -5.845627652309339e-8 -1.1691261525911314e-7 0 -5.854402869530678e-8 -1.1708809911207986e-7
          0 -5.866066761773933e-8 -1.1732139986817126e-7 0 -5.880189804490033e-8 -1.1760394952452146e-7
          0 -5.8963499687223155e-8 -1.1792713027575464e-7 0 -5.914083253342132e-8 -1.1828187198095277e-7
          0 -5.9330537077804335e-8 -1.1866041037228961e-7 0 -5.9523492344026734e-8 -1.1905024920116588e-7
          0 -5.97308907365708e-8 -1.1946251655631237e-7 0 -5.994807299456315e-8 -1.1989640622626944e-7
          0 -6.01744549488022e-8 -1.2034905141467982e-7 0 -6.04072655643718e-8 -1.208103517259903e-7
          0 -6.06248235366618e-8 -1.2124244995395927e-7 0 -6.074374641485646e-8 -1.2148382499424577e-7
          0 -6.069581680860535e-8 -1.2142075485719485e-7 0 -6.041586886492637e-8 -1.20964827291064e-7
          0 -5.986479356751458e-8 -1.200638676950152e-7 0 -5.9135059070641226e-8 -1.1908661086561232e-7
          0 0 -5.83761553354344e-8 -5.8395048256640835e-8 -1.1675249678415732e-7 -1.167902283648001e-7
          0 -5.8450387683669896e-8 -1.169008206914624e-7 0 -5.853882699884694e-8 -1.1707770302319171e-7
          0 -5.8656271155210724e-8 -1.1731263097311951e-7 0 -5.879830467293525e-8 -1.175968756279668e-7
          0 -5.8960733021884736e-8 -1.179215632575082e-7 0 -5.9138191483726746e-8 -1.1827731739007815e-7
          0 -5.932911915157652e-8 -1.1865616201510959e-7 0 -5.952383920442546e-8 -1.1905402472083386e-7
          0 -5.972955914524645e-8 -1.1945959073671737e-7 0 -5.994624665727775e-8 -1.1989274327776105e-7
          0 -6.017472594232747e-8 -1.2034888984598142e-7 0 -6.041472197576991e-8 -1.2082059499183262e-7
          0 -6.064500782698681e-8 -1.2127681934809265e-7 0 -6.074830988344385e-8 -1.21505514171583e-7
          0 -6.062642859423557e-8 -1.2136646274260936e-7 0 -6.01921947141325e-8 -1.2074332937341708e-7
          0 -5.9379158095325296e-8 -1.1958581994037426e-7 0 -5.835548482813171e-8 -1.182217189010085e-7
          0 0 -5.836667399494777e-8 -5.8385940521645894e-8 -1.167337368443089e-7 -1.1677213030734096e-7
          0 -5.844198353473803e-8 -1.1688411301683392e-7 0 -5.853136905469279e-8 -1.1706291066766422e-7
          0 -5.8649953727158774e-8 -1.173001697797101e-7 0 -5.879332335202001e-8 -1.1758694353787929e-7
          0 -5.895664139797276e-8 -1.1791390635889561e-7 0 -5.913576397573978e-8 -1.1827127378015615e-7
          0 -5.932280568769836e-8 -1.1864997059093725e-7 0 -5.9540724603573425e-8 -1.1905887054633188e-7
          0 -5.972754494706872e-8 -1.194550032781763e-7 0 -5.994481026711775e-8 -1.1988876005293114e-7
          0 -6.017679671567676e-8 -1.2035045185056625e-7 0 -6.042403928998412e-8 -1.2083188164575118e-7
          0 -6.066864151534164e-8 -1.213174769278664e-7 0 -6.073416408699013e-8 -1.2151525681570203e-7
          0 -6.048025940644258e-8 -1.2124368325773888e-7 0 -5.980349259047647e-8 -1.2042424846007115e-7
          0 -5.877949296052257e-8 -1.1903208894086447e-7 0 -5.757034208145103e-8 -1.1781389328600332e-7
          0 0 -5.835432634983812e-8 -5.837421733347075e-8 -1.1670943257188927e-7 -1.1674882175353214e-7
          0 -5.843117995925201e-8 -1.1686262185407557e-7 0 -5.8521801540496335e-8 -1.1704393908641798e-7
          0 -5.864189839966954e-8 -1.1728423211724829e-7 0 -5.878692626198965e-8 -1.1757428811964955e-7
          0 -5.8951729074468126e-8 -1.179042801145095e-7 0 -5.913191964809774e-8 -1.1826367469334537e-7
          0 -5.931893307235045e-8 -1.1864343394279055e-7 0 -5.9539115985802125e-8 -1.190529473389396e-7
          0 -5.972325226864583e-8 -1.1944730810975456e-7 0 -5.994490192954949e-8 -1.1988578273166886e-7
          0 -6.018307712881614e-8 -1.2035587401842685e-7 0 -6.04306490975984e-8 -1.2083648593733041e-7
          0 -6.067971512690978e-8 -1.2134506229969407e-7 0 -6.067952557428169e-8 -1.2148731751937905e-7
          0 -6.023134864868743e-8 -1.2106982356039324e-7 0 -5.938424521901612e-8 -1.2018185665709538e-7
          0 -5.83998280817127e-8 -1.1930216581228764e-7 0 -5.758878892141628e-8 -1.2172947733410998e-7
          0 0 -5.8339195511851174e-8 -5.836015003630362e-8 -1.1667972375925893e-7 -1.1672061473294941e-7
          0 -5.84181959221465e-8 -1.1683660325075862e-7 0 -5.8510408548470374e-8 -1.1702114158451955e-7
          0 -5.863243052126702e-8 -1.172652268018203e-7 0 -5.8779451820767105e-8 -1.1755936525835793e-7
          0 -5.894650193106877e-8 -1.1789325586476751e-7 0 -5.9126753865561947e-8 -1.182550808818234e-7
          0 -5.931931411002071e-8 -1.1863729764975986e-7 0 -5.9513920018553675e-8 -1.1903643795488161e-7
          0 -5.971732935403491e-8 -1.1943751401894238e-7 0 -5.994891743405815e-8 -1.1988610041761298e-7
          0 -6.01979304226968e-8 -1.2036891331307578e-7 0 -6.042066766617787e-8 -1.208142792494736e-7
          0 -6.063385870420656e-8 -1.213093591642328e-7 0 -6.055741011647629e-8 -1.213935766423657e-7
          0 -5.997307364792711e-8 -1.210292286556252e-7 0 -5.9490685894526404e-8 -1.2071666005384405e-7
          0 -5.9338598137746665e-8 -1.241191130190961e-7 0 -6.323514100501009e-8 -1.3813078957290856e-7
          0 0 -5.832184691558535e-8 -5.834445116395627e-8 -1.1664544903568667e-7 -1.1668831146270155e-7
          0 -5.840349214751312e-8 -1.1680662537464022e-7 0 -5.849785719423837e-8 -1.1699532806440093e-7
          0 -5.8622253931584714e-8 -1.1724409704075315e-7 0 -5.877190863749683e-8 -1.1754327832684361e-7
          0 -5.8941533904590814e-8 -1.1788222076487713e-7 0 -5.912349673713931e-8 -1.1824718642448922e-7
          0 -5.931600532156461e-8 -1.1863169832085776e-7 0 -5.9510114881935984e-8 -1.1902487451572803e-7
          0 -5.971418168223505e-8 -1.194305512049961e-7 0 -5.995966287452193e-8 -1.198920691956501e-7
          0 -6.022673521830434e-8 -1.2039311568723042e-7 0 -6.035988939296831e-8 -1.2072697000697557e-7
          0 -6.043813692324548e-8 -1.2107975254941503e-7 0 -6.032738419815741e-8 -1.2128000764889043e-7
          0 -6.022654495732502e-8 -1.215740308505168e-7 0 -6.136576928171232e-8 -1.2478612944800817e-7
          0 -6.698043328921763e-8 -1.3997390789316455e-7 0 -8.340220607287255e-8 -1.7465680637052227e-7
          0 0 -5.830484130488059e-8 -5.8328578860418765e-8 -1.1660838871105058e-7 -1.1665318878429863e-7
          0 -5.8388251007478014e-8 -1.1677326005623879e-7 0 -5.848580546498748e-8 -1.1696764198525088e-7
          0 -5.8613263452965015e-8 -1.1722210574442929e-7 0 -5.876633155298401e-8 -1.1752749342899215e-7
          0 -5.893989401985732e-8 -1.1787307681122852e-7 0 -5.912382276936162e-8 -1.1824238648163932e-7
          0 -5.931651678601692e-8 -1.1862745213026105e-7 0 -5.9517110997481727e-8 -1.1902965959280626e-7
          0 -5.972050965998233e-8 -1.1943762500656477e-7 0 -5.99783296072476e-8 -1.1989796707339354e-7
          0 -6.027465753700167e-8 -1.2040776217694877e-7 0 -6.019506403841906e-8 -1.2050729095802796e-7
          0 -5.982471328070038e-8 -1.205050480932716e-7 0 -6.013888973204242e-8 -1.2120263381642623e-7
          0 -6.209957776825057e-8 -1.241647252019252e-7 0 -6.879222002019442e-8 -1.3816674571958868e-7
          0 -8.686560722966647e-8 -1.7266771405257064e-7 0 -1.2076920506262474e-7 -2.3600147890676842e-7
          0 0 -5.828763159622617e-8 -5.831213258636914e-8 -1.1658573154305837e-7 -1.1661918527990557e-7
          0 -5.837021805163804e-8 -1.167437993831693e-7 0 -5.847247754401173e-8 -1.1694672562471646e-7
          0 -5.8603266054631816e-8 -1.1720920684827923e-7 0 -5.8760178463630943e-8 -1.1752328062435259e-7
          0 -5.893896259119672e-8 -1.1787924984886343e-7 0 -5.912501365710226e-8 -1.182563426652963e-7
          0 -5.931121939411348e-8 -1.1864861350746789e-7 0 -5.95391323430936e-8 -1.1906183466127534e-7
          0 -5.976960746381208e-8 -1.1945625800245705e-7 0 -5.996238514727288e-8 -1.1992346100111434e-7
          0 -6.017875697843743e-8 -1.205590103578024e-7 0 -5.987394276192799e-8 -1.2000657262644146e-7
          0 -5.9068573606830144e-8 -1.1842042792202015e-7 0 -6.005558352431551e-8 -1.2156477683564107e-7
          0 -6.650720501050193e-8 -1.360807301493365e-7 0 -8.234795888217076e-8 -1.6962745895906e-7
          0 -1.1305889499223787e-7 -2.3165719101410694e-7 0 -1.639768248165498e-7 -3.333559121422775e-7
          0 -2.4023150586588523e-7 -4.836529604233091e-7 0 -3.407310542169301e-7 -6.795916869662941e-7
          0 0 -5.8167005295441094e-8 -5.81920393893245e-8 -1.1634828535406417e-7 -1.1630802014822303e-7
          0 -5.82625670964762e-8 -1.1652126877536536e-7 0 -5.8369193215062714e-8 -1.1673856328913721e-7
          0 -5.851621537017099e-8 -1.1702976698531898e-7 0 -5.8687855014018765e-8 -1.1737490697121632e-7
          0 -5.887158318525687e-8 -1.1775238066026717e-7 0 -7.564991126355856e-8 -1.5367773319128184e-7
          0 -9.638747783214224e-8 -1.9511853722795023e-7 0 -1.2863873564686382e-7 -2.5868974882315925e-7
          0 -1.7418368620238904e-7 -3.482630294889739e-7 0 -2.3440827502537865e-7 -4.660720763138375e-7
          0 -3.151420543870969e-7 -6.315998948485569e-7 0 -3.0772113945589257e-7 -6.091783725614553e-7
          0 -3.774553191501756e-7 -7.558684681492314e-7 0 -3.8923117334711523e-7 -7.68665281731157e-7
          0 -4.3798548545688105e-7 -8.766909726379205e-7 0 -4.719146697176019e-7 -9.314179527772832e-7
          0 -4.922459171521726e-7 -9.848365539065853e-7 0 0 -5.9455090633825815e-8
          -5.9465754756436294e-8 -1.1937074162715265e-7 -1.2004357056680003e-7 0 -5.8484346664768226e-8 -1.1854125046295775e-7
          0 -5.747986620188157e-8 -1.177463169631419e-7 0 -5.714861311152818e-8 -1.1983813222454252e-7
          0 -6.047703736573888e-8 -1.3469757375178228e-7 0 -7.771948345176175e-8 -1.7273357832803232e-7
          0 -1.1629372728059541e-7 -2.405218081324783e-7 0 -1.7593760994391126e-7 -3.400112867244398e-7
          0 -2.5660111443357756e-7 -4.932025548025732e-7 0 0 -4.5613977071589654e-7
          -3.606300839865943e-7 -9.036294121317654e-7 -6.923078286453632e-7 0 0 -5.8024339806900304e-8
          -5.758036809956827e-8 -1.1603742522342449e-7 -1.1557479131142325e-7 0 -5.810700405982241e-8 -1.1621848390961445e-7
          0 -5.823840922021749e-8 -1.1647448113169744e-7 0 -5.8395522215807275e-8 -1.1680265115126731e-7
          0 -5.860332948903664e-8 -1.1721387210317452e-7 0 -5.885299557633573e-8 -1.1766343302076425e-7
          0 -5.909295364877923e-8 -1.1817877160255528e-7 0 -5.908252946168136e-8 -1.1813325898214725e-7
          0 -5.932145795359294e-8 -1.185822698375806e-7 0 -5.951785851620406e-8 -1.1902239647167028e-7
          0 -5.970846537712418e-8 -1.195024961101879e-7 0 -5.937677987400933e-8 -1.1895894011561074e-7
          0 -5.87554220186373e-8 -1.1793173635159298e-7 0 -5.998371554034013e-8 -1.2106034612859872e-7
          0 -6.467568474196746e-8 -1.3098788236578398e-7 0 0 -1.2002215811628246e-7
          -9.321296061282692e-8 -2.4264361966132617e-7 -1.8900022547144671e-7 0 -1.5583599466480786e-7 -3.142009947306234e-7
          0 -2.0122122569471032e-7 -4.047569155391966e-7 0 -2.5518785147062086e-7 -5.122223821010012e-7
          0 0 -3.8805839104432315e-7 -3.355512603075264e-7 -7.731690802844745e-7 -6.692003286875193e-7
          0 -4.359816389542068e-7 -8.682588436142005e-7 0 -4.7593210430217065e-7 -9.477022827069125e-7
          0 -5.042309098729117e-7 -0.000001004135731959844 0 0 -5.476509274256876e-7
          -5.720106125112229e-7 -0.0000010815309049882922 -0.0000011292485310728132 0 -5.349771348914218e-7 -0.0000010696117387668673
          0 -5.165210408747437e-7 -0.000001028649372724846
        </DataArray>
      </PointData>
      <CellData>
        <DataArray type="Int32" Name="libmesh_elem_id" format="ascii" RangeMin="0" RangeMax="1173">
          0 1 2 3 4 5
          6 7 8 9 10 11
          12 13 14 15 16 17
          18 19 20 21 22 23
          24 25 26 27 28 29
          30 31 32 33 34 35
          36 37 38 39 58 59
          60 61 62 63 64 65
          66 67 68 69 70 71
          72 73 74 75 76 77
          78 79 80 81 82 83
          84 85 86 87 88 89
          90 91 92 93 94 95
          96 97 116 117 118 119
          120 121 122 123 124 125
          126 127 128 129 130 131
          132 133 134 135 136 137
          138 139 140 141 142 143
          144 145 146 147 148 149
          150 151 152 153 154 155
          174 175 176 177 178 179
          180 181 182 183 184 185
          186 187 188 189 190 191
          192 193 194 195 196 197
          198 199 200 201 202 203
          204 205 206 207 208 209
          210 211 212 213 232 233
          234 235 236 237 238 239
          240 241 242 243 244 245
          246 247 248 249 250 251
          252 253 254 255 256 257
          258 259 260 261 262 263
          264 265 266 267 268 269
          270 271 290 291 292 293
          294 295 296 297 298 299
          300 301 302 303 304 305
          306 307 308 309 310 311
          312 313 314 315 316 317
          318 319 320 321 322 323
          324 325 326 327 328 329
          348 349 350 351 352 353
          354 355 356 357 358 359
          360 361 362 363 364 365
          366 367 368 369 370 371
          372 373 374 375 376 377
          378 379 380 381 382 383
          384 385 386 387 406 407
          408 409 410 411 412 413
          414 415 416 417 418 419
          420 421 422 423 424 425
          426 427 428 429 430 431
          432 433 434 435 436 437
          438 439 440 441 442 443
          444 445 464 465 466 467
          468 469 470 471 472 473
          474 475 476 477 478 479
          480 481 482 483 484 485
          486 487 488 489 490 491
          492 493 494 495 496 497
          498 499 500 501 502 503
          504 505 506 507 772 773
          774 775 790 791 792 793
          808 809 810 811 826 827
          828 829 844 845 846 847
          862 863 864 865 880 881
          882 883 898 899 916 917
          934 935 952 953 970 971
          988 989 1006 1007 1024 1025
          1026 1027 1042 1043 1044 1045
          1060 1061 1062 1063 1078 1079
          1080 1081 1096 1097 1098 1099
          1100 1101 1114 1115 1116 1117
          1118 1119 1132 1133 1134 1135
          1136 1137 1150 1151 1152 1153
          1154 1155 1168 1169 1170 1171
          1172 1173
        </DataArray>
        <DataArray type="Int32" Name="subdomain_id" format="ascii" RangeMin="103" RangeMax="105">
          103 103 103 103 103 103
          103 103 103 103 103 103
          103 103 103 103 103 103
          103 103 103 103 103 103
          103 103 103 103 103 103
          103 103 103 103 103 103
          103 103 103 103 103 103
          103 103 103 103 103 103
          103 103 103 103 103 103
          103 103 103 103 103 103
          103 103 103 103 103 103
          103 103 103 103 103 103
          103 103 103 103 103 103
          103 103 103 103 103 103
          103 103 103 103 103 103
          103 103 103 103 103 103
          103 103 103 103 103 103
          103 103 103 103 103 103
          103 103 103 103 103 103
          103 103 103 103 103 103
          103 103 103 103 103 103
          103 103 103 103 103 103
          103 103 103 103 103 103
          103 103 103 103 103 103
          103 103 103 103 103 103
          103 103 103 103 103 103
          103 103 103 103 103 103
          103 103 103 103 103 103
          103 103 103 103 103 103
          103 103 103 103 103 103
          103 103 103 103 103 103
          103 103 103 103 103 103
          103 103 103 103 103 103
          103 103 103 103 103 103
          103 103 103 103 103 103
          103 103 103 103 103 103
          103 103 103 103 103 103
          103 103 103 103 103 103
          103 103 103 103 103 103
          103 103 103 103 103 103
          103 103 103 103 103 103
          103 103 103 103 103 103
          103 103 103 103 103 103
          103 103 103 103 103 103
          103 103 103 103 103 103
          103 103 103 103 103 103
          103 103 103 103 103 103
          103 103 103 103 103 103
          103 103 103 103 103 103
          103 103 103 103 103 103
          103 103 103 103 103 103
          103 103 103 103 103 103
          103 103 103 103 103 103
          103 103 103 103 103 103
          103 103 103 103 103 103
          103 103 103 103 103 103
          103 103 103 103 103 103
          103 103 103 103 103 103
          103 103 103 103 103 103
          103 103 103 103 103 103
          103 103 103 103 105 105
          105 105 105 105 105 105
          105 105 105 105 105 105
          105 105 105 105 105 105
          105 105 105 105 105 105
          105 105 105 105 105 105
          105 105 105 105 105 105
          105 105 105 105 105 105
          105 105 105 105 105 105
          105 105 105 105 105 105
          105 105 105 105 105 105
          105 105 105 105 105 105
          105 105 105 105 105 105
          105 105 105 105 105 105
          105 105 105 105 105 105
          105 105
        </DataArray>
        <DataArray type="Int32" Name="processor_id" format="ascii" RangeMin="7" RangeMax="7">
          7 7 7 7 7 7
          7 7 7 7 7 7
          7 7 7 7 7 7
          7 7 7 7 7 7
          7 7 7 7 7 7
          7 7 7 7 7 7
          7 7 7 7 7 7
          7 7 7 7 7 7
          7 7 7 7 7 7
          7 7 7 7 7 7
          7 7 7 7 7 7
          7 7 7 7 7 7
          7 7 7 7 7 7
          7 7 7 7 7 7
          7 7 7 7 7 7
          7 7 7 7 7 7
          7 7 7 7 7 7
          7 7 7 7 7 7
          7 7 7 7 7 7
          7 7 7 7 7 7
          7 7 7 7 7 7
          7 7 7 7 7 7
          7 7 7 7 7 7
          7 7 7 7 7 7
          7 7 7 7 7 7
          7 7 7 7 7 7
          7 7 7 7 7 7
          7 7 7 7 7 7
          7 7 7 7 7 7
          7 7 7 7 7 7
          7 7 7 7 7 7
          7 7 7 7 7 7
          7 7 7 7 7 7
          7 7 7 7 7 7
          7 7 7 7 7 7
          7 7 7 7 7 7
          7 7 7 7 7 7
          7 7 7 7 7 7
          7 7 7 7 7 7
          7 7 7 7 7 7
          7 7 7 7 7 7
          7 7 7 7 7 7
          7 7 7 7 7 7
          7 7 7 7 7 7
          7 7 7 7 7 7
          7 7 7 7 7 7
          7 7 7 7 7 7
          7 7 7 7 7 7
          7 7 7 7 7 7
          7 7 7 7 7 7
          7 7 7 7 7 7
          7 7 7 7 7 7
          7 7 7 7 7 7
          7 7 7 7 7 7
          7 7 7 7 7 7
          7 7 7 7 7 7
          7 7 7 7 7 7
          7 7 7 7 7 7
          7 7 7 7 7 7
          7 7 7 7 7 7
          7 7 7 7 7 7
          7 7 7 7 7 7
          7 7 7 7 7 7
          7 7 7 7 7 7
          7 7 7 7 7 7
          7 7 7 7 7 7
          7 7 7 7 7 7
          7 7 7 7 7 7
          7 7 7 7 7 7
          7 7 7 7 7 7
          7 7 7 7 7 7
          7 7 7 7 7 7
          7 7 7 7 7 7
          7 7 7 7 7 7
          7 7 7 7 7 7
          7 7
        </DataArray>
      </CellData>
      <Points>
        <DataArray type="Float64" Name="Points" NumberOfComponents="3" format="ascii" RangeMin="0" RangeMax="0.009803689505302022">
          0 0 0 0.00011111111111093 0 0
          0.00011111111111095 0.00041379310344969 0 0 0.00041379310344996 0
          0 0 0.00015 0.00011111111111093 0 0.00015
          0.00011111111111095 0.00041379310344969 0.00015 0 0.00041379310344996 0.00015
          0 0 0.0003 0.00011111111111093 0 0.0003
          0.00011111111111095 0.00041379310344969 0.0003 0 0.00041379310344996 0.0003
          0.00011111111111096 0.00082758620689912 0 0 0.00082758620689964 0
          0.00011111111111096 0.00082758620689912 0.00015 0 0.00082758620689964 0.00015
          0.00011111111111096 0.00082758620689912 0.0003 0 0.00082758620689964 0.0003
          0.00011111111111098 0.0012413793103467 0 0 0.0012413793103472 0
          0.00011111111111098 0.0012413793103467 0.00015 0 0.0012413793103472 0.00015
          0.00011111111111098 0.0012413793103467 0.0003 0 0.0012413793103472 0.0003
          0.00011111111111099 0.0016551724137963 0 0 0.0016551724137971 0
          0.00011111111111099 0.0016551724137963 0.00015 0 0.0016551724137971 0.00015
          0.00011111111111099 0.0016551724137963 0.0003 0 0.0016551724137971 0.0003
          0.00011111111111101 0.002068965517246 0 0 0.0020689655172471 0
          0.00011111111111101 0.002068965517246 0.00015 0 0.0020689655172471 0.00015
          0.00011111111111101 0.002068965517246 0.0003 0 0.0020689655172471 0.0003
          0.00011111111111102 0.0024827586206956 0 0 0.002482758620697 0
          0.00011111111111102 0.0024827586206956 0.00015 0 0.002482758620697 0.00015
          0.00011111111111102 0.0024827586206956 0.0003 0 0.002482758620697 0.0003
          0.00011111111111104 0.0028965517241444 0 0 0.002896551724146 0
          0.00011111111111104 0.0028965517241444 0.00015 0 0.002896551724146 0.00015
          0.00011111111111104 0.0028965517241444 0.0003 0 0.002896551724146 0.0003
          0.00011111111111105 0.0033103448275919 0 0 0.0033103448275936 0
          0.00011111111111105 0.0033103448275919 0.00015 0 0.0033103448275936 0.00015
          0.00011111111111105 0.0033103448275919 0.0003 0 0.0033103448275936 0.0003
          0.00011111111111107 0.0037241379310415 0 0 0.0037241379310435 0
          0.00011111111111107 0.0037241379310415 0.00015 0 0.0037241379310435 0.00015
          0.00011111111111107 0.0037241379310415 0.0003 0 0.0037241379310435 0.0003
          0.00011111111111108 0.0041379310344912 0 0 0.0041379310344935 0
          0.00011111111111108 0.0041379310344912 0.00015 0 0.0041379310344935 0.00015
          0.00011111111111108 0.0041379310344912 0.0003 0 0.0041379310344935 0.0003
          0.0001111111111111 0.0045517241379399 0 0 0.0045517241379424 0
          0.0001111111111111 0.0045517241379399 0.00015 0 0.0045517241379424 0.00015
          0.0001111111111111 0.0045517241379399 0.0003 0 0.0045517241379424 0.0003
          0.00011111111111111 0.004965517241389 0 0 0.0049655172413917 0
          0.00011111111111111 0.004965517241389 0.00015 0 0.0049655172413917 0.00015
          0.00011111111111111 0.004965517241389 0.0003 0 0.0049655172413917 0.0003
          0.00011111111111113 0.0053793103448383 0 0 0.0053793103448414 0
          0.00011111111111113 0.0053793103448383 0.00015 0 0.0053793103448414 0.00015
          0.00011111111111113 0.0053793103448383 0.0003 0 0.0053793103448414 0.0003
          0.00011111111111114 0.005793103448287 0 0 0.0057931034482903 0
          0.00011111111111114 0.005793103448287 0.00015 0 0.0057931034482903 0.00015
          0.00011111111111114 0.005793103448287 0.0003 0 0.0057931034482903 0.0003
          0.00011111111111116 0.0062068965517355 0 0 0.0062068965517387 0
          0.00011111111111116 0.0062068965517355 0.00015 0 0.0062068965517387 0.00015
          0.00011111111111116 0.0062068965517355 0.0003 0 0.0062068965517387 0.0003
          0.00011111111111117 0.006620689655183 0 0 0.006620689655186 0
          0.00011111111111117 0.006620689655183 0.00015 0 0.006620689655186 0.00015
          0.00011111111111117 0.006620689655183 0.0003 0 0.006620689655186 0.0003
          0.00011111111111119 0.0070344827586302 0 0 0.007034482758633 0
          0.00011111111111119 0.0070344827586302 0.00015 0 0.007034482758633 0.00015
          0.00011111111111119 0.0070344827586302 0.0003 0 0.007034482758633 0.0003
          0.0001111111111112 0.0074482758620775 0 0 0.00744827586208 0
          0.0001111111111112 0.0074482758620775 0.00015 0 0.00744827586208 0.00015
          0.0001111111111112 0.0074482758620775 0.0003 0 0.00744827586208 0.0003
          0.00011111111111122 0.0078620689655252 0 0 0.0078620689655276 0
          0.00011111111111122 0.0078620689655252 0.00015 0 0.0078620689655276 0.00015
          0.00011111111111122 0.0078620689655252 0.0003 0 0.0078620689655276 0.0003
          0.00022222222222175 0 0 0.00022222222222178 0.00041379310344941 0
          0.00022222222222175 0 0.00015 0.00022222222222178 0.00041379310344941 0.00015
          0.00022222222222175 0 0.0003 0.00022222222222178 0.00041379310344941 0.0003
          0.00022222222222182 0.0008275862068986 0 0.00022222222222182 0.0008275862068986 0.00015
          0.00022222222222182 0.0008275862068986 0.0003 0.00022222222222185 0.0012413793103461 0
          0.00022222222222185 0.0012413793103461 0.00015 0.00022222222222185 0.0012413793103461 0.0003
          0.00022222222222188 0.0016551724137956 0 0.00022222222222188 0.0016551724137956 0.00015
          0.00022222222222188 0.0016551724137956 0.0003 0.00022222222222192 0.0020689655172449 0
          0.00022222222222192 0.0020689655172449 0.00015 0.00022222222222192 0.0020689655172449 0.0003
          0.00022222222222195 0.0024827586206942 0 0.00022222222222195 0.0024827586206942 0.00015
          0.00022222222222195 0.0024827586206942 0.0003 0.00022222222222199 0.0028965517241428 0
          0.00022222222222199 0.0028965517241428 0.00015 0.00022222222222199 0.0028965517241428 0.0003
          0.00022222222222202 0.0033103448275902 0 0.00022222222222202 0.0033103448275902 0.00015
          0.00022222222222202 0.0033103448275902 0.0003 0.00022222222222205 0.0037241379310395 0
          0.00022222222222205 0.0037241379310395 0.00015 0.00022222222222205 0.0037241379310395 0.0003
          0.00022222222222209 0.0041379310344889 0 0.00022222222222209 0.0041379310344889 0.00015
          0.00022222222222209 0.0041379310344889 0.0003 0.00022222222222212 0.0045517241379374 0
          0.00022222222222212 0.0045517241379374 0.00015 0.00022222222222212 0.0045517241379374 0.0003
          0.00022222222222216 0.0049655172413862 0 0.00022222222222216 0.0049655172413862 0.00015
          0.00022222222222216 0.0049655172413862 0.0003 0.00022222222222219 0.0053793103448353 0
          0.00022222222222219 0.0053793103448353 0.00015 0.00022222222222219 0.0053793103448353 0.0003
          0.00022222222222222 0.0057931034482838 0 0.00022222222222222 0.0057931034482838 0.00015
          0.00022222222222222 0.0057931034482838 0.0003 0.00022222222222226 0.0062068965517323 0
          0.00022222222222226 0.0062068965517323 0.00015 0.00022222222222226 0.0062068965517323 0.0003
          0.00022222222222229 0.0066206896551799 0 0.00022222222222229 0.0066206896551799 0.00015
          0.00022222222222229 0.0066206896551799 0.0003 0.00022222222222232 0.0070344827586275 0
          0.00022222222222232 0.0070344827586275 0.00015 0.00022222222222232 0.0070344827586275 0.0003
          0.00022222222222236 0.007448275862075 0 0.00022222222222236 0.007448275862075 0.00015
          0.00022222222222236 0.007448275862075 0.0003 0.00022222222222239 0.0078620689655229 0
          0.00022222222222239 0.0078620689655229 0.00015 0.00022222222222239 0.0078620689655229 0.0003
          0.00033333333333257 0 0 0.00033333333333262 0.00041379310344914 0
          0.00033333333333257 0 0.00015 0.00033333333333262 0.00041379310344914 0.00015
          0.00033333333333257 0 0.0003 0.00033333333333262 0.00041379310344914 0.0003
          0.00033333333333268 0.00082758620689808 0 0.00033333333333268 0.00082758620689808 0.00015
          0.00033333333333268 0.00082758620689808 0.0003 0.00033333333333273 0.0012413793103456 0
          0.00033333333333273 0.0012413793103456 0.00015 0.00033333333333273 0.0012413793103456 0.0003
          0.00033333333333278 0.0016551724137948 0 0.00033333333333278 0.0016551724137948 0.00015
          0.00033333333333278 0.0016551724137948 0.0003 0.00033333333333283 0.0020689655172438 0
          0.00033333333333283 0.0020689655172438 0.00015 0.00033333333333283 0.0020689655172438 0.0003
          0.00033333333333289 0.0024827586206928 0 0.00033333333333289 0.0024827586206928 0.00015
          0.00033333333333289 0.0024827586206928 0.0003 0.00033333333333294 0.0028965517241412 0
          0.00033333333333294 0.0028965517241412 0.00015 0.00033333333333294 0.0028965517241412 0.0003
          0.00033333333333299 0.0033103448275885 0 0.00033333333333299 0.0033103448275885 0.00015
          0.00033333333333299 0.0033103448275885 0.0003 0.00033333333333305 0.0037241379310375 0
          0.00033333333333305 0.0037241379310375 0.00015 0.00033333333333305 0.0037241379310375 0.0003
          0.0003333333333331 0.0041379310344865 0 0.0003333333333331 0.0041379310344865 0.00015
          0.0003333333333331 0.0041379310344865 0.0003 0.00033333333333315 0.0045517241379349 0
          0.00033333333333315 0.0045517241379349 0.00015 0.00033333333333315 0.0045517241379349 0.0003
          0.0003333333333332 0.0049655172413834 0 0.0003333333333332 0.0049655172413834 0.00015
          0.0003333333333332 0.0049655172413834 0.0003 0.00033333333333326 0.0053793103448322 0
          0.00033333333333326 0.0053793103448322 0.00015 0.00033333333333326 0.0053793103448322 0.0003
          0.00033333333333331 0.0057931034482806 0 0.00033333333333331 0.0057931034482806 0.00015
          0.00033333333333331 0.0057931034482806 0.0003 0.00033333333333336 0.006206896551729 0
          0.00033333333333336 0.006206896551729 0.00015 0.00033333333333336 0.006206896551729 0.0003
          0.00033333333333342 0.0066206896551769 0 0.00033333333333342 0.0066206896551769 0.00015
          0.00033333333333342 0.0066206896551769 0.0003 0.00033333333333347 0.0070344827586248 0
          0.00033333333333347 0.0070344827586248 0.00015 0.00033333333333347 0.0070344827586248 0.0003
          0.00033333333333352 0.0074482758620725 0 0.00033333333333352 0.0074482758620725 0.00015
          0.00033333333333352 0.0074482758620725 0.0003 0.00033333333333357 0.0078620689655205 0
          0.00033333333333357 0.0078620689655205 0.00015 0.00033333333333357 0.0078620689655205 0.0003
          0.00044444444444337 0 0 0.00044444444444345 0.00041379310344886 0
          0.00044444444444337 0 0.00015 0.00044444444444345 0.00041379310344886 0.00015
          0.00044444444444337 0 0.0003 0.00044444444444345 0.00041379310344886 0.0003
          0.00044444444444352 0.00082758620689756 0 0.00044444444444352 0.00082758620689756 0.00015
          0.00044444444444352 0.00082758620689756 0.0003 0.00044444444444359 0.0012413793103451 0
          0.00044444444444359 0.0012413793103451 0.00015 0.00044444444444359 0.0012413793103451 0.0003
          0.00044444444444367 0.001655172413794 0 0.00044444444444367 0.001655172413794 0.00015
          0.00044444444444367 0.001655172413794 0.0003 0.00044444444444374 0.0020689655172427 0
          0.00044444444444374 0.0020689655172427 0.00015 0.00044444444444374 0.0020689655172427 0.0003
          0.00044444444444382 0.0024827586206914 0 0.00044444444444382 0.0024827586206914 0.00015
          0.00044444444444382 0.0024827586206914 0.0003 0.00044444444444389 0.0028965517241395 0
          0.00044444444444389 0.0028965517241395 0.00015 0.00044444444444389 0.0028965517241395 0.0003
          0.00044444444444397 0.0033103448275869 0 0.00044444444444397 0.0033103448275869 0.00015
          0.00044444444444397 0.0033103448275869 0.0003 0.00044444444444404 0.0037241379310355 0
          0.00044444444444404 0.0037241379310355 0.00015 0.00044444444444404 0.0037241379310355 0.0003
          0.00044444444444412 0.0041379310344842 0 0.00044444444444412 0.0041379310344842 0.00015
          0.00044444444444412 0.0041379310344842 0.0003 0.00044444444444419 0.0045517241379324 0
          0.00044444444444419 0.0045517241379324 0.00015 0.00044444444444419 0.0045517241379324 0.0003
          0.00044444444444426 0.0049655172413807 0 0.00044444444444426 0.0049655172413807 0.00015
          0.00044444444444426 0.0049655172413807 0.0003 0.00044444444444434 0.0053793103448292 0
          0.00044444444444434 0.0053793103448292 0.00015 0.00044444444444434 0.0053793103448292 0.0003
          0.00044444444444441 0.0057931034482774 0 0.00044444444444441 0.0057931034482774 0.00015
          0.00044444444444441 0.0057931034482774 0.0003 0.00044444444444449 0.0062068965517258 0
          0.00044444444444449 0.0062068965517258 0.00015 0.00044444444444449 0.0062068965517258 0.0003
          0.00044444444444456 0.0066206896551738 0 0.00044444444444456 0.0066206896551738 0.00015
          0.00044444444444456 0.0066206896551738 0.0003 0.00044444444444464 0.007034482758622 0
          0.00044444444444464 0.007034482758622 0.00015 0.00044444444444464 0.007034482758622 0.0003
          0.00044444444444471 0.00744827586207 0 0.00044444444444471 0.00744827586207 0.00015
          0.00044444444444471 0.00744827586207 0.0003 0.00044444444444479 0.0078620689655182 0
          0.00044444444444479 0.0078620689655182 0.00015 0.00044444444444479 0.0078620689655182 0.0003
          0.00055555555555442 0 0 0.0005555555555545 0.00041379310344859 0
          0.00055555555555442 0 0.00015 0.0005555555555545 0.00041379310344859 0.00015
          0.00055555555555442 0 0.0003 0.0005555555555545 0.00041379310344859 0.0003
          0.00055555555555458 0.00082758620689704 0 0.00055555555555458 0.00082758620689704 0.00015
          0.00055555555555458 0.00082758620689704 0.0003 0.00055555555555465 0.0012413793103446 0
          0.00055555555555465 0.0012413793103446 0.00015 0.00055555555555465 0.0012413793103446 0.0003
          0.00055555555555473 0.0016551724137932 0 0.00055555555555473 0.0016551724137932 0.00015
          0.00055555555555473 0.0016551724137932 0.0003 0.00055555555555481 0.0020689655172416 0
          0.00055555555555481 0.0020689655172416 0.00015 0.00055555555555481 0.0020689655172416 0.0003
          0.00055555555555489 0.0024827586206899 0 0.00055555555555489 0.0024827586206899 0.00015
          0.00055555555555489 0.0024827586206899 0.0003 0.00055555555555497 0.0028965517241379 0
          0.00055555555555497 0.0028965517241379 0.00015 0.00055555555555497 0.0028965517241379 0.0003
          0.00055555555555504 0.0033103448275852 0 0.00055555555555504 0.0033103448275852 0.00015
          0.00055555555555504 0.0033103448275852 0.0003 0.00055555555555512 0.0037241379310336 0
          0.00055555555555512 0.0037241379310336 0.00015 0.00055555555555512 0.0037241379310336 0.0003
          0.0005555555555552 0.0041379310344819 0 0.0005555555555552 0.0041379310344819 0.00015
          0.0005555555555552 0.0041379310344819 0.0003 0.00055555555555528 0.0045517241379299 0
          0.00055555555555528 0.0045517241379299 0.00015 0.00055555555555528 0.0045517241379299 0.0003
          0.00055555555555535 0.0049655172413779 0 0.00055555555555535 0.0049655172413779 0.00015
          0.00055555555555535 0.0049655172413779 0.0003 0.00055555555555543 0.0053793103448261 0
          0.00055555555555543 0.0053793103448261 0.00015 0.00055555555555543 0.0053793103448261 0.0003
          0.00055555555555551 0.0057931034482741 0 0.00055555555555551 0.0057931034482741 0.00015
          0.00055555555555551 0.0057931034482741 0.0003 0.00055555555555559 0.0062068965517226 0
          0.00055555555555559 0.0062068965517226 0.00015 0.00055555555555559 0.0062068965517226 0.0003
          0.00055555555555566 0.0066206896551708 0 0.00055555555555566 0.0066206896551708 0.00015
          0.00055555555555566 0.0066206896551708 0.0003 0.00055555555555574 0.0070344827586193 0
          0.00055555555555574 0.0070344827586193 0.00015 0.00055555555555574 0.0070344827586193 0.0003
          0.00055555555555582 0.0074482758620675 0 0.00055555555555582 0.0074482758620675 0.00015
          0.00055555555555582 0.0074482758620675 0.0003 0.0005555555555559 0.0078620689655158 0
          0.0005555555555559 0.0078620689655158 0.00015 0.0005555555555559 0.0078620689655158 0.0003
          0.00066666666666586 0 0 0.0006666666666659 0.00041379310344831 0
          0.00066666666666586 0 0.00015 0.0006666666666659 0.00041379310344831 0.00015
          0.00066666666666586 0 0.0003 0.0006666666666659 0.00041379310344831 0.0003
          0.00066666666666595 0.00082758620689653 0 0.00066666666666595 0.00082758620689653 0.00015
          0.00066666666666595 0.00082758620689653 0.0003 0.00066666666666599 0.0012413793103441 0
          0.00066666666666599 0.0012413793103441 0.00015 0.00066666666666599 0.0012413793103441 0.0003
          0.00066666666666604 0.0016551724137924 0 0.00066666666666604 0.0016551724137924 0.00015
          0.00066666666666604 0.0016551724137924 0.0003 0.00066666666666608 0.0020689655172404 0
          0.00066666666666608 0.0020689655172404 0.00015 0.00066666666666608 0.0020689655172404 0.0003
          0.00066666666666613 0.0024827586206885 0 0.00066666666666613 0.0024827586206885 0.00015
          0.00066666666666613 0.0024827586206885 0.0003 0.00066666666666617 0.0028965517241363 0
          0.00066666666666617 0.0028965517241363 0.00015 0.00066666666666617 0.0028965517241363 0.0003
          0.00066666666666622 0.0033103448275835 0 0.00066666666666622 0.0033103448275835 0.00015
          0.00066666666666622 0.0033103448275835 0.0003 0.00066666666666626 0.0037241379310316 0
          0.00066666666666626 0.0037241379310316 0.00015 0.00066666666666626 0.0037241379310316 0.0003
          0.0006666666666663 0.0041379310344796 0 0.0006666666666663 0.0041379310344796 0.00015
          0.0006666666666663 0.0041379310344796 0.0003 0.00066666666666635 0.0045517241379274 0
          0.00066666666666635 0.0045517241379274 0.00015 0.00066666666666635 0.0045517241379274 0.0003
          0.00066666666666639 0.0049655172413752 0 0.00066666666666639 0.0049655172413752 0.00015
          0.00066666666666639 0.0049655172413752 0.0003 0.00066666666666644 0.0053793103448231 0
          0.00066666666666644 0.0053793103448231 0.00015 0.00066666666666644 0.0053793103448231 0.0003
          0.00066666666666648 0.0057931034482709 0 0.00066666666666648 0.0057931034482709 0.00015
          0.00066666666666648 0.0057931034482709 0.0003 0.00066666666666653 0.0062068965517194 0
          0.00066666666666653 0.0062068965517194 0.00015 0.00066666666666653 0.0062068965517194 0.0003
          0.00066666666666657 0.0066206896551677 0 0.00066666666666657 0.0066206896551677 0.00015
          0.00066666666666657 0.0066206896551677 0.0003 0.00066666666666661 0.0070344827586165 0
          0.00066666666666661 0.0070344827586165 0.00015 0.00066666666666661 0.0070344827586165 0.0003
          0.00066666666666666 0.0074482758620651 0 0.00066666666666666 0.0074482758620651 0.00015
          0.00066666666666666 0.0074482758620651 0.0003 0.0006666666666667 0.0078620689655135 0
          0.0006666666666667 0.0078620689655135 0.00015 0.0006666666666667 0.0078620689655135 0.0003
          0.00077777777777724 0 0 0.00077777777777728 0.00041379310344804 0
          0.00077777777777724 0 0.00015 0.00077777777777728 0.00041379310344804 0.00015
          0.00077777777777724 0 0.0003 0.00077777777777728 0.00041379310344804 0.0003
          0.00077777777777731 0.00082758620689601 0 0.00077777777777731 0.00082758620689601 0.00015
          0.00077777777777731 0.00082758620689601 0.0003 0.00077777777777734 0.0012413793103436 0
          0.00077777777777734 0.0012413793103436 0.00015 0.00077777777777734 0.0012413793103436 0.0003
          0.00077777777777737 0.0016551724137916 0 0.00077777777777737 0.0016551724137916 0.00015
          0.00077777777777737 0.0016551724137916 0.0003 0.0007777777777774 0.0020689655172393 0
          0.0007777777777774 0.0020689655172393 0.00015 0.0007777777777774 0.0020689655172393 0.0003
          0.00077777777777743 0.0024827586206871 0 0.00077777777777743 0.0024827586206871 0.00015
          0.00077777777777743 0.0024827586206871 0.0003 0.00077777777777747 0.0028965517241347 0
          0.00077777777777747 0.0028965517241347 0.00015 0.00077777777777747 0.0028965517241347 0.0003
          0.0007777777777775 0.0033103448275818 0 0.0007777777777775 0.0033103448275818 0.00015
          0.0007777777777775 0.0033103448275818 0.0003 0.00077777777777753 0.0037241379310296 0
          0.00077777777777753 0.0037241379310296 0.00015 0.00077777777777753 0.0037241379310296 0.0003
          0.00077777777777756 0.0041379310344773 0 0.00077777777777756 0.0041379310344773 0.00015
          0.00077777777777756 0.0041379310344773 0.0003 0.00077777777777759 0.0045517241379249 0
          0.00077777777777759 0.0045517241379249 0.00015 0.00077777777777759 0.0045517241379249 0.0003
          0.00077777777777762 0.0049655172413724 0 0.00077777777777762 0.0049655172413724 0.00015
          0.00077777777777762 0.0049655172413724 0.0003 0.00077777777777765 0.00537931034482 0
          0.00077777777777765 0.00537931034482 0.00015 0.00077777777777765 0.00537931034482 0.0003
          0.00077777777777769 0.0057931034482677 0 0.00077777777777769 0.0057931034482677 0.00015
          0.00077777777777769 0.0057931034482677 0.0003 0.00077777777777772 0.0062068965517161 0
          0.00077777777777772 0.0062068965517161 0.00015 0.00077777777777772 0.0062068965517161 0.0003
          0.00077777777777775 0.0066206896551647 0 0.00077777777777775 0.0066206896551647 0.00015
          0.00077777777777775 0.0066206896551647 0.0003 0.00077777777777778 0.0070344827586137 0
          0.00077777777777778 0.0070344827586137 0.00015 0.00077777777777778 0.0070344827586137 0.0003
          0.00077777777777781 0.0074482758620625 0 0.00077777777777781 0.0074482758620625 0.00015
          0.00077777777777781 0.0074482758620625 0.0003 0.00077777777777784 0.0078620689655112 0
          0.00077777777777784 0.0078620689655112 0.00015 0.00077777777777784 0.0078620689655112 0.0003
          0.00088888888888862 0 0 0.00088888888888863 0.00041379310344776 0
          0.00088888888888862 0 0.00015 0.00088888888888863 0.00041379310344776 0.00015
          0.00088888888888862 0 0.0003 0.00088888888888863 0.00041379310344776 0.0003
          0.00088888888888864 0.00082758620689549 0 0.00088888888888864 0.00082758620689549 0.00015
          0.00088888888888864 0.00082758620689549 0.0003 0.00088888888888865 0.0012413793103431 0
          0.00088888888888865 0.0012413793103431 0.00015 0.00088888888888865 0.0012413793103431 0.0003
          0.00088888888888866 0.0016551724137908 0 0.00088888888888866 0.0016551724137908 0.00015
          0.00088888888888866 0.0016551724137908 0.0003 0.00088888888888867 0.0020689655172382 0
          0.00088888888888867 0.0020689655172382 0.00015 0.00088888888888867 0.0020689655172382 0.0003
          0.00088888888888868 0.0024827586206857 0 0.00088888888888868 0.0024827586206857 0.00015
          0.00088888888888868 0.0024827586206857 0.0003 0.00088888888888868 0.002896551724133 0
          0.00088888888888868 0.002896551724133 0.00015 0.00088888888888868 0.002896551724133 0.0003
          0.00088888888888869 0.0033103448275802 0 0.00088888888888869 0.0033103448275802 0.00015
          0.00088888888888869 0.0033103448275802 0.0003 0.0008888888888887 0.0037241379310276 0
          0.0008888888888887 0.0037241379310276 0.00015 0.0008888888888887 0.0037241379310276 0.0003
          0.00088888888888871 0.004137931034475 0 0.00088888888888871 0.004137931034475 0.00015
          0.00088888888888871 0.004137931034475 0.0003 0.00088888888888872 0.0045517241379224 0
          0.00088888888888872 0.0045517241379224 0.00015 0.00088888888888872 0.0045517241379224 0.0003
          0.00088888888888873 0.0049655172413697 0 0.00088888888888873 0.0049655172413697 0.00015
          0.00088888888888873 0.0049655172413697 0.0003 0.00088888888888874 0.005379310344817 0
          0.00088888888888874 0.005379310344817 0.00015 0.00088888888888874 0.005379310344817 0.0003
          0.00088888888888875 0.0057931034482644 0 0.00088888888888875 0.0057931034482644 0.00015
          0.00088888888888875 0.0057931034482644 0.0003 0.00088888888888876 0.0062068965517129 0
          0.00088888888888876 0.0062068965517129 0.00015 0.00088888888888876 0.0062068965517129 0.0003
          0.00088888888888877 0.0066206896551616 0 0.00088888888888877 0.0066206896551616 0.00015
          0.00088888888888877 0.0066206896551616 0.0003 0.00088888888888877 0.007034482758611 0
          0.00088888888888877 0.007034482758611 0.00015 0.00088888888888877 0.007034482758611 0.0003
          0.00088888888888878 0.00744827586206 0 0.00088888888888878 0.00744827586206 0.00015
          0.00088888888888878 0.00744827586206 0.0003 0.00088888888888879 0.0078620689655088 0
          0.00088888888888879 0.0078620689655088 0.00015 0.00088888888888879 0.0078620689655088 0.0003
          0.001 0 0 0.001 0.00041379310344749 0
          0.001 0 0.00015 0.001 0.00041379310344749 0.00015
          0.001 0 0.0003 0.001 0.00041379310344749 0.0003
          0.001 0.00082758620689497 0 0.001 0.00082758620689497 0.00015
          0.001 0.00082758620689497 0.0003 0.001 0.0012413793103426 0
          0.001 0.0012413793103426 0.00015 0.001 0.0012413793103426 0.0003
          0.001 0.0016551724137901 0 0.001 0.0016551724137901 0.00015
          0.001 0.0016551724137901 0.0003 0.001 0.0020689655172371 0
          0.001 0.0020689655172371 0.00015 0.001 0.0020689655172371 0.0003
          0.001 0.0024827586206843 0 0.001 0.0024827586206843 0.00015
          0.001 0.0024827586206843 0.0003 0.001 0.0028965517241314 0
          0.001 0.0028965517241314 0.00015 0.001 0.0028965517241314 0.0003
          0.001 0.0033103448275785 0 0.001 0.0033103448275785 0.00015
          0.001 0.0033103448275785 0.0003 0.001 0.0037241379310256 0
          0.001 0.0037241379310256 0.00015 0.001 0.0037241379310256 0.0003
          0.001 0.0041379310344727 0 0.001 0.0041379310344727 0.00015
          0.001 0.0041379310344727 0.0003 0.001 0.0045517241379199 0
          0.001 0.0045517241379199 0.00015 0.001 0.0045517241379199 0.0003
          0.001 0.0049655172413669 0 0.001 0.0049655172413669 0.00015
          0.001 0.0049655172413669 0.0003 0.001 0.0053793103448139 0
          0.001 0.0053793103448139 0.00015 0.001 0.0053793103448139 0.0003
          0.001 0.0057931034482612 0 0.001 0.0057931034482612 0.00015
          0.001 0.0057931034482612 0.0003 0.001 0.0062068965517097 0
          0.001 0.0062068965517097 0.00015 0.001 0.0062068965517097 0.0003
          0.001 0.0066206896551586 0 0.001 0.0066206896551586 0.00015
          0.001 0.0066206896551586 0.0003 0.001 0.0070344827586082 0
          0.001 0.0070344827586082 0.00015 0.001 0.0070344827586082 0.0003
          0.001 0.0074482758620575 0 0.001 0.0074482758620575 0.00015
          0.001 0.0074482758620575 0.0003 0.001 0.0078620689655065 0
          0.001 0.0078620689655065 0.00015 0.001 0.0078620689655065 0.0003
          0.001 0.0082758620689564 0 0.001 0.0082758620689564 0.00015
          0.001 0.0082758620689564 0.0003 0.001 0.0086896551724064 0
          0.001 0.0086896551724064 0.00015 0.001 0.0086896551724064 0.0003
          0.0014444444444438 0.00041379310344749 0 0.0014444444444438 0 0
          0.0014444444444438 0.00041379310344749 0.00015 0.0014444444444438 0 0.00015
          0.0014444444444438 0.00041379310344749 0.0003 0.0014444444444438 0 0.0003
          0.0014444444444439 0.00082758620689497 0 0.0014444444444439 0.00082758620689497 0.00015
          0.0014444444444439 0.00082758620689497 0.0003 0.001444444444444 0.0012413793103426 0
          0.001444444444444 0.0012413793103426 0.00015 0.001444444444444 0.0012413793103426 0.0003
          0.001444444444444 0.0016551724137901 0 0.001444444444444 0.0016551724137901 0.00015
          0.001444444444444 0.0016551724137901 0.0003 0.0014444444444441 0.0020689655172371 0
          0.0014444444444441 0.0020689655172371 0.00015 0.0014444444444441 0.0020689655172371 0.0003
          0.0014444444444441 0.0024827586206843 0 0.0014444444444441 0.0024827586206843 0.00015
          0.0014444444444441 0.0024827586206843 0.0003 0.0014444444444446 0.0062068965517097 0
          0.0014444444444446 0.0062068965517097 0.00015 0.0014444444444446 0.0062068965517097 0.0003
          0.0014444444444447 0.0066206896551586 0 0.0014444444444447 0.0066206896551586 0.00015
          0.0014444444444447 0.0066206896551586 0.0003 0.0014444444444448 0.0070344827586082 0
          0.0014444444444448 0.0070344827586082 0.00015 0.0014444444444448 0.0070344827586082 0.0003
          0.0014444444444448 0.0074482758620576 0 0.0014444444444448 0.0074482758620576 0.00015
          0.0014444444444448 0.0074482758620576 0.0003 0.0014444444444449 0.0078620689655065 0
          0.0014444444444449 0.0078620689655065 0.00015 0.0014444444444449 0.0078620689655065 0.0003
          0.0018888888888896 0.0078620689655065 0 0.0018888888888896 0.0078620689655065 0.00015
          0.0018888888888896 0.0078620689655065 0.0003 0.0014444444444449 0.0082758620689564 0
          0.0014444444444449 0.0082758620689564 0.00015 0.0014444444444449 0.0082758620689564 0.0003
          0.0018888888888898 0.0082758620689564 0 0.0018888888888898 0.0082758620689564 0.00015
          0.0018888888888898 0.0082758620689564 0.0003 0.001444444444445 0.0086896551724064 0
          0.001444444444445 0.0086896551724064 0.00015 0.001444444444445 0.0086896551724064 0.0003
          0.0018888888888899 0.0086896551724064 0 0.0018888888888899 0.0086896551724064 0.00015
          0.0018888888888899 0.0086896551724064 0.0003 0.0014444444444451 0.0091034482758539 0
          0.0014444444444451 0.0091034482758539 0.00015 0.0014444444444451 0.0091034482758539 0.0003
          0.00188888888889 0.0091034482758539 0 0.00188888888889 0.0091034482758539 0.00015
          0.00188888888889 0.0091034482758539 0.0003 0.00011111111111123 0.0082758620689751 0
          0 0.0082758620689774 0 0.00011111111111123 0.0082758620689751 0.00015
          0 0.0082758620689774 0.00015 0.00011111111111123 0.0082758620689751 0.0003
          0 0.0082758620689774 0.0003 0.00022222222222243 0.0082758620689727 0
          0.00022222222222243 0.0082758620689727 0.00015 0.00022222222222243 0.0082758620689727 0.0003
          0.00033333333333363 0.0082758620689704 0 0.00033333333333363 0.0082758620689704 0.00015
          0.00033333333333363 0.0082758620689704 0.0003 0.00044444444444486 0.0082758620689681 0
          0.00044444444444486 0.0082758620689681 0.00015 0.00044444444444486 0.0082758620689681 0.0003
          0.00055555555555597 0.0082758620689657 0 0.00055555555555597 0.0082758620689657 0.00015
          0.00055555555555597 0.0082758620689657 0.0003 0.00066666666666675 0.0082758620689634 0
          0.00066666666666675 0.0082758620689634 0.00015 0.00066666666666675 0.0082758620689634 0.0003
          0.00077777777777787 0.0082758620689611 0 0.00077777777777787 0.0082758620689611 0.00015
          0.00077777777777787 0.0082758620689611 0.0003 0.0008888888888888 0.0082758620689588 0
          0.0008888888888888 0.0082758620689588 0.00015 0.0008888888888888 0.0082758620689588 0.0003
          0.00088888888888881 0.0086896551724084 0 0.00088888888888881 0.0086896551724084 0.00015
          0.00088888888888881 0.0086896551724084 0.0003 0.001 0.0091034482758539 0
          0.00088888888888882 0.0091034482758559 0 0.001 0.0091034482758539 0.00015
          0.00088888888888882 0.0091034482758559 0.00015 0.001 0.0091034482758539 0.0003
          0.00088888888888882 0.0091034482758559 0.0003 0.0018888888888873 0.00041379310344749 0
          0.0018888888888872 0 0 0.0018888888888873 0.00041379310344749 0.00015
          0.0018888888888872 0 0.00015 0.0018888888888873 0.00041379310344749 0.0003
          0.0018888888888872 0 0.0003 0.0018888888888875 0.00082758620689497 0
          0.0018888888888875 0.00082758620689497 0.00015 0.0018888888888875 0.00082758620689497 0.0003
          0.0018888888888876 0.0012413793103426 0 0.0018888888888876 0.0012413793103426 0.00015
          0.0018888888888876 0.0012413793103426 0.0003 0.0018888888888877 0.0016551724137901 0
          0.0018888888888877 0.0016551724137901 0.00015 0.0018888888888877 0.0016551724137901 0.0003
          0.0018888888888879 0.0020689655172371 0 0.0018888888888879 0.0020689655172371 0.00015
          0.0018888888888879 0.0020689655172371 0.0003 0.001888888888888 0.0024827586206843 0
          0.001888888888888 0.0024827586206843 0.00015 0.001888888888888 0.0024827586206843 0.0003
          0.0014444444444442 0.0028965517241314 0 0.0014444444444442 0.0028965517241314 0.00015
          0.0014444444444442 0.0028965517241314 0.0003 0.0018888888888881 0.0028965517241314 0
          0.0018888888888881 0.0028965517241314 0.00015 0.0018888888888881 0.0028965517241314 0.0003
          0.0014444444444442 0.0033103448275785 0 0.0014444444444442 0.0033103448275785 0.00015
          0.0014444444444442 0.0033103448275785 0.0003 0.0014444444444443 0.0037241379310256 0
          0.0014444444444443 0.0037241379310256 0.00015 0.0014444444444443 0.0037241379310256 0.0003
          0.0014444444444444 0.0041379310344727 0 0.0014444444444444 0.0041379310344727 0.00015
          0.0014444444444444 0.0041379310344727 0.0003 0.0014444444444444 0.0045517241379199 0
          0.0014444444444444 0.0045517241379199 0.00015 0.0014444444444444 0.0045517241379199 0.0003
          0.0014444444444445 0.0049655172413669 0 0.0014444444444445 0.0049655172413669 0.00015
          0.0014444444444445 0.0049655172413669 0.0003 0.0014444444444445 0.0053793103448139 0
          0.0014444444444445 0.0053793103448139 0.00015 0.0014444444444445 0.0053793103448139 0.0003
          0.0014444444444446 0.0057931034482612 0 0.0014444444444446 0.0057931034482612 0.00015
          0.0014444444444446 0.0057931034482612 0.0003 0.0018888888888891 0.0062068965517097 0
          0.001888888888889 0.0057931034482612 0 0.0018888888888891 0.0062068965517097 0.00015
          0.001888888888889 0.0057931034482612 0.00015 0.0018888888888891 0.0062068965517097 0.0003
          0.001888888888889 0.0057931034482612 0.0003 0.0018888888888893 0.0066206896551586 0
          0.0018888888888893 0.0066206896551586 0.00015 0.0018888888888893 0.0066206896551586 0.0003
          0.0018888888888894 0.0070344827586082 0 0.0018888888888894 0.0070344827586082 0.00015
          0.0018888888888894 0.0070344827586082 0.0003 0.0018888888888895 0.0074482758620575 0
          0.0018888888888895 0.0074482758620575 0.00015 0.0018888888888895 0.0074482758620575 0.0003
          0.0023333333333346 0.0078620689655065 0 0.0023333333333344 0.0074482758620575 0
          0.0023333333333346 0.0078620689655065 0.00015 0.0023333333333344 0.0074482758620575 0.00015
          0.0023333333333346 0.0078620689655065 0.0003 0.0023333333333344 0.0074482758620575 0.0003
          0.0023333333333348 0.0082758620689564 0 0.0023333333333348 0.0082758620689564 0.00015
          0.0023333333333348 0.0082758620689564 0.0003 0.002333333333335 0.0086896551724064 0
          0.002333333333335 0.0086896551724064 0.00015 0.002333333333335 0.0086896551724064 0.0003
          0.0023333333333351 0.0091034482758539 0 0.0023333333333351 0.0091034482758539 0.00015
          0.0023333333333351 0.0091034482758539 0.0003 0.0014444444444451 0.0095172413793029 0
          0.001 0.0095172413793029 0 0.0014444444444451 0.0095172413793029 0.00015
          0.001 0.0095172413793029 0.00015 0.0014444444444451 0.0095172413793029 0.0003
          0.001 0.0095172413793029 0.0003 0.0018888888888902 0.0095172413793029 0
          0.0018888888888902 0.0095172413793029 0.00015 0.0018888888888902 0.0095172413793029 0.0003
          0.0023333333333353 0.0095172413793029 0 0.0023333333333353 0.0095172413793029 0.00015
          0.0023333333333353 0.0095172413793029 0.0003
          <InformationKey name="L2_NORM_RANGE" location="vtkDataArray" length="2">
            <Value index="0">
              0
            </Value>
            <Value index="1">
              0.0098036895053
            </Value>
          </InformationKey>
        </DataArray>
      </Points>
      <Cells>
        <DataArray type="Int64" Name="connectivity" format="ascii" RangeMin="0" RangeMax="788">
          0 1 2 3 4 5
          6 7 4 5 6 7
          8 9 10 11 3 2
          12 13 7 6 14 15
          7 6 14 15 11 10
          16 17 13 12 18 19
          15 14 20 21 15 14
          20 21 17 16 22 23
          19 18 24 25 21 20
          26 27 21 20 26 27
          23 22 28 29 25 24
          30 31 27 26 32 33
          27 26 32 33 29 28
          34 35 31 30 36 37
          33 32 38 39 33 32
          38 39 35 34 40 41
          37 36 42 43 39 38
          44 45 39 38 44 45
          41 40 46 47 43 42
          48 49 45 44 50 51
          45 44 50 51 47 46
          52 53 49 48 54 55
          51 50 56 57 51 50
          56 57 53 52 58 59
          55 54 60 61 57 56
          62 63 57 56 62 63
          59 58 64 65 61 60
          66 67 63 62 68 69
          63 62 68 69 65 64
          70 71 67 66 72 73
          69 68 74 75 69 68
          74 75 71 70 76 77
          73 72 78 79 75 74
          80 81 75 74 80 81
          77 76 82 83 79 78
          84 85 81 80 86 87
          81 80 86 87 83 82
          88 89 85 84 90 91
          87 86 92 93 87 86
          92 93 89 88 94 95
          91 90 96 97 93 92
          98 99 93 92 98 99
          95 94 100 101 97 96
          102 103 99 98 104 105
          99 98 104 105 101 100
          106 107 103 102 108 109
          105 104 110 111 105 104
          110 111 107 106 112 113
          109 108 114 115 111 110
          116 117 111 110 116 117
          113 112 118 119 115 114
          663 664 117 116 665 666
          117 116 665 666 119 118
          667 668 1 120 121 2
          5 122 123 6 5 122
          123 6 9 124 125 10
          2 121 126 12 6 123
          127 14 6 123 127 14
          10 125 128 16 12 126
          129 18 14 127 130 20
          14 127 130 20 16 128
          131 22 18 129 132 24
          20 130 133 26 20 130
          133 26 22 131 134 28
          24 132 135 30 26 133
          136 32 26 133 136 32
          28 134 137 34 30 135
          138 36 32 136 139 38
          32 136 139 38 34 137
          140 40 36 138 141 42
          38 139 142 44 38 139
          142 44 40 140 143 46
          42 141 144 48 44 142
          145 50 44 142 145 50
          46 143 146 52 48 144
          147 54 50 145 148 56
          50 145 148 56 52 146
          149 58 54 147 150 60
          56 148 151 62 56 148
          151 62 58 149 152 64
          60 150 153 66 62 151
          154 68 62 151 154 68
          64 152 155 70 66 153
          156 72 68 154 157 74
          68 154 157 74 70 155
          158 76 72 156 159 78
          74 157 160 80 74 157
          160 80 76 158 161 82
          78 159 162 84 80 160
          163 86 80 160 163 86
          82 161 164 88 84 162
          165 90 86 163 166 92
          86 163 166 92 88 164
          167 94 90 165 168 96
          92 166 169 98 92 166
          169 98 94 167 170 100
          96 168 171 102 98 169
          172 104 98 169 172 104
          100 170 173 106 102 171
          174 108 104 172 175 110
          104 172 175 110 106 173
          176 112 108 174 177 114
          110 175 178 116 110 175
          178 116 112 176 179 118
          114 177 669 663 116 178
          670 665 116 178 670 665
          118 179 671 667 120 180
          181 121 122 182 183 123
          122 182 183 123 124 184
          185 125 121 181 186 126
          123 183 187 127 123 183
          187 127 125 185 188 128
          126 186 189 129 127 187
          190 130 127 187 190 130
          128 188 191 131 129 189
          192 132 130 190 193 133
          130 190 193 133 131 191
          194 134 132 192 195 135
          133 193 196 136 133 193
          196 136 134 194 197 137
          135 195 198 138 136 196
          199 139 136 196 199 139
          137 197 200 140 138 198
          201 141 139 199 202 142
          139 199 202 142 140 200
          203 143 141 201 204 144
          142 202 205 145 142 202
          205 145 143 203 206 146
          144 204 207 147 145 205
          208 148 145 205 208 148
          146 206 209 149 147 207
          210 150 148 208 211 151
          148 208 211 151 149 209
          212 152 150 210 213 153
          151 211 214 154 151 211
          214 154 152 212 215 155
          153 213 216 156 154 214
          217 157 154 214 217 157
          155 215 218 158 156 216
          219 159 157 217 220 160
          157 217 220 160 158 218
          221 161 159 219 222 162
          160 220 223 163 160 220
          223 163 161 221 224 164
          162 222 225 165 163 223
          226 166 163 223 226 166
          164 224 227 167 165 225
          228 168 166 226 229 169
          166 226 229 169 167 227
          230 170 168 228 231 171
          169 229 232 172 169 229
          232 172 170 230 233 173
          171 231 234 174 172 232
          235 175 172 232 235 175
          173 233 236 176 174 234
          237 177 175 235 238 178
          175 235 238 178 176 236
          239 179 177 237 672 669
          178 238 673 670 178 238
          673 670 179 239 674 671
          180 240 241 181 182 242
          243 183 182 242 243 183
          184 244 245 185 181 241
          246 186 183 243 247 187
          183 243 247 187 185 245
          248 188 186 246 249 189
          187 247 250 190 187 247
          250 190 188 248 251 191
          189 249 252 192 190 250
          253 193 190 250 253 193
          191 251 254 194 192 252
          255 195 193 253 256 196
          193 253 256 196 194 254
          257 197 195 255 258 198
          196 256 259 199 196 256
          259 199 197 257 260 200
          198 258 261 201 199 259
          262 202 199 259 262 202
          200 260 263 203 201 261
          264 204 202 262 265 205
          202 262 265 205 203 263
          266 206 204 264 267 207
          205 265 268 208 205 265
          268 208 206 266 269 209
          207 267 270 210 208 268
          271 211 208 268 271 211
          209 269 272 212 210 270
          273 213 211 271 274 214
          211 271 274 214 212 272
          275 215 213 273 276 216
          214 274 277 217 214 274
          277 217 215 275 278 218
          216 276 279 219 217 277
          280 220 217 277 280 220
          218 278 281 221 219 279
          282 222 220 280 283 223
          220 280 283 223 221 281
          284 224 222 282 285 225
          223 283 286 226 223 283
          286 226 224 284 287 227
          225 285 288 228 226 286
          289 229 226 286 289 229
          227 287 290 230 228 288
          291 231 229 289 292 232
          229 289 292 232 230 290
          293 233 231 291 294 234
          232 292 295 235 232 292
          295 235 233 293 296 236
          234 294 297 237 235 295
          298 238 235 295 298 238
          236 296 299 239 237 297
          675 672 238 298 676 673
          238 298 676 673 239 299
          677 674 240 300 301 241
          242 302 303 243 242 302
          303 243 244 304 305 245
          241 301 306 246 243 303
          307 247 243 303 307 247
          245 305 308 248 246 306
          309 249 247 307 310 250
          247 307 310 250 248 308
          311 251 249 309 312 252
          250 310 313 253 250 310
          313 253 251 311 314 254
          252 312 315 255 253 313
          316 256 253 313 316 256
          254 314 317 257 255 315
          318 258 256 316 319 259
          256 316 319 259 257 317
          320 260 258 318 321 261
          259 319 322 262 259 319
          322 262 260 320 323 263
          261 321 324 264 262 322
          325 265 262 322 325 265
          263 323 326 266 264 324
          327 267 265 325 328 268
          265 325 328 268 266 326
          329 269 267 327 330 270
          268 328 331 271 268 328
          331 271 269 329 332 272
          270 330 333 273 271 331
          334 274 271 331 334 274
          272 332 335 275 273 333
          336 276 274 334 337 277
          274 334 337 277 275 335
          338 278 276 336 339 279
          277 337 340 280 277 337
          340 280 278 338 341 281
          279 339 342 282 280 340
          343 283 280 340 343 283
          281 341 344 284 282 342
          345 285 283 343 346 286
          283 343 346 286 284 344
          347 287 285 345 348 288
          286 346 349 289 286 346
          349 289 287 347 350 290
          288 348 351 291 289 349
          352 292 289 349 352 292
          290 350 353 293 291 351
          354 294 292 352 355 295
          292 352 355 295 293 353
          356 296 294 354 357 297
          295 355 358 298 295 355
          358 298 296 356 359 299
          297 357 678 675 298 358
          679 676 298 358 679 676
          299 359 680 677 300 360
          361 301 302 362 363 303
          302 362 363 303 304 364
          365 305 301 361 366 306
          303 363 367 307 303 363
          367 307 305 365 368 308
          306 366 369 309 307 367
          370 310 307 367 370 310
          308 368 371 311 309 369
          372 312 310 370 373 313
          310 370 373 313 311 371
          374 314 312 372 375 315
          313 373 376 316 313 373
          376 316 314 374 377 317
          315 375 378 318 316 376
          379 319 316 376 379 319
          317 377 380 320 318 378
          381 321 319 379 382 322
          319 379 382 322 320 380
          383 323 321 381 384 324
          322 382 385 325 322 382
          385 325 323 383 386 326
          324 384 387 327 325 385
          388 328 325 385 388 328
          326 386 389 329 327 387
          390 330 328 388 391 331
          328 388 391 331 329 389
          392 332 330 390 393 333
          331 391 394 334 331 391
          394 334 332 392 395 335
          333 393 396 336 334 394
          397 337 334 394 397 337
          335 395 398 338 336 396
          399 339 337 397 400 340
          337 397 400 340 338 398
          401 341 339 399 402 342
          340 400 403 343 340 400
          403 343 341 401 404 344
          342 402 405 345 343 403
          406 346 343 403 406 346
          344 404 407 347 345 405
          408 348 346 406 409 349
          346 406 409 349 347 407
          410 350 348 408 411 351
          349 409 412 352 349 409
          412 352 350 410 413 353
          351 411 414 354 352 412
          415 355 352 412 415 355
          353 413 416 356 354 414
          417 357 355 415 418 358
          355 415 418 358 356 416
          419 359 357 417 681 678
          358 418 682 679 358 418
          682 679 359 419 683 680
          360 420 421 361 362 422
          423 363 362 422 423 363
          364 424 425 365 361 421
          426 366 363 423 427 367
          363 423 427 367 365 425
          428 368 366 426 429 369
          367 427 430 370 367 427
          430 370 368 428 431 371
          369 429 432 372 370 430
          433 373 370 430 433 373
          371 431 434 374 372 432
          435 375 373 433 436 376
          373 433 436 376 374 434
          437 377 375 435 438 378
          376 436 439 379 376 436
          439 379 377 437 440 380
          378 438 441 381 379 439
          442 382 379 439 442 382
          380 440 443 383 381 441
          444 384 382 442 445 385
          382 442 445 385 383 443
          446 386 384 444 447 387
          385 445 448 388 385 445
          448 388 386 446 449 389
          387 447 450 390 388 448
          451 391 388 448 451 391
          389 449 452 392 390 450
          453 393 391 451 454 394
          391 451 454 394 392 452
          455 395 393 453 456 396
          394 454 457 397 394 454
          457 397 395 455 458 398
          396 456 459 399 397 457
          460 400 397 457 460 400
          398 458 461 401 399 459
          462 402 400 460 463 403
          400 460 463 403 401 461
          464 404 402 462 465 405
          403 463 466 406 403 463
          466 406 404 464 467 407
          405 465 468 408 406 466
          469 409 406 466 469 409
          407 467 470 410 408 468
          471 411 409 469 472 412
          409 469 472 412 410 470
          473 413 411 471 474 414
          412 472 475 415 412 472
          475 415 413 473 476 416
          414 474 477 417 415 475
          478 418 415 475 478 418
          416 476 479 419 417 477
          684 681 418 478 685 682
          418 478 685 682 419 479
          686 683 420 480 481 421
          422 482 483 423 422 482
          483 423 424 484 485 425
          421 481 486 426 423 483
          487 427 423 483 487 427
          425 485 488 428 426 486
          489 429 427 487 490 430
          427 487 490 430 428 488
          491 431 429 489 492 432
          430 490 493 433 430 490
          493 433 431 491 494 434
          432 492 495 435 433 493
          496 436 433 493 496 436
          434 494 497 437 435 495
          498 438 436 496 499 439
          436 496 499 439 437 497
          500 440 438 498 501 441
          439 499 502 442 439 499
          502 442 440 500 503 443
          441 501 504 444 442 502
          505 445 442 502 505 445
          443 503 506 446 444 504
          507 447 445 505 508 448
          445 505 508 448 446 506
          509 449 447 507 510 450
          448 508 511 451 448 508
          511 451 449 509 512 452
          450 510 513 453 451 511
          514 454 451 511 514 454
          452 512 515 455 453 513
          516 456 454 514 517 457
          454 514 517 457 455 515
          518 458 456 516 519 459
          457 517 520 460 457 517
          520 460 458 518 521 461
          459 519 522 462 460 520
          523 463 460 520 523 463
          461 521 524 464 462 522
          525 465 463 523 526 466
          463 523 526 466 464 524
          527 467 465 525 528 468
          466 526 529 469 466 526
          529 469 467 527 530 470
          468 528 531 471 469 529
          532 472 469 529 532 472
          470 530 533 473 471 531
          534 474 472 532 535 475
          472 532 535 475 473 533
          536 476 474 534 537 477
          475 535 538 478 475 535
          538 478 476 536 539 479
          477 537 687 684 478 538
          688 685 478 538 688 685
          479 539 689 686 480 540
          541 481 482 542 543 483
          482 542 543 483 484 544
          545 485 481 541 546 486
          483 543 547 487 483 543
          547 487 485 545 548 488
          486 546 549 489 487 547
          550 490 487 547 550 490
          488 548 551 491 489 549
          552 492 490 550 553 493
          490 550 553 493 491 551
          554 494 492 552 555 495
          493 553 556 496 493 553
          556 496 494 554 557 497
          495 555 558 498 496 556
          559 499 496 556 559 499
          497 557 560 500 498 558
          561 501 499 559 562 502
          499 559 562 502 500 560
          563 503 501 561 564 504
          502 562 565 505 502 562
          565 505 503 563 566 506
          504 564 567 507 505 565
          568 508 505 565 568 508
          506 566 569 509 507 567
          570 510 508 568 571 511
          508 568 571 511 509 569
          572 512 510 570 573 513
          511 571 574 514 511 571
          574 514 512 572 575 515
          513 573 576 516 514 574
          577 517 514 574 577 517
          515 575 578 518 516 576
          579 519 517 577 580 520
          517 577 580 520 518 578
          581 521 519 579 582 522
          520 580 583 523 520 580
          583 523 521 581 584 524
          522 582 585 525 523 583
          586 526 523 583 586 526
          524 584 587 527 525 585
          588 528 526 586 589 529
          526 586 589 529 527 587
          590 530 528 588 591 531
          529 589 592 532 529 589
          592 532 530 590 593 533
          531 591 594 534 532 592
          595 535 532 592 595 535
          533 593 596 536 534 594
          597 537 535 595 598 538
          535 595 598 538 536 596
          599 539 537 597 600 687
          538 598 601 688 538 598
          601 688 539 599 602 689
          687 600 603 690 688 601
          604 691 688 601 604 691
          689 602 605 692 690 603
          693 694 691 604 695 696
          691 604 695 696 692 605
          697 698 606 541 540 607
          608 543 542 609 608 543
          542 609 610 545 544 611
          699 606 607 700 701 608
          609 702 701 608 609 702
          703 610 611 704 612 546
          541 606 613 547 543 608
          613 547 543 608 614 548
          545 610 705 612 606 699
          706 613 608 701 706 613
          608 701 707 614 610 703
          615 549 546 612 616 550
          547 613 616 550 547 613
          617 551 548 614 708 615
          612 705 709 616 613 706
          709 616 613 706 710 617
          614 707 618 552 549 615
          619 553 550 616 619 553
          550 616 620 554 551 617
          711 618 615 708 712 619
          616 709 712 619 616 709
          713 620 617 710 621 555
          552 618 622 556 553 619
          622 556 553 619 623 557
          554 620 714 621 618 711
          715 622 619 712 715 622
          619 712 716 623 620 713
          624 558 555 621 625 559
          556 622 625 559 556 622
          626 560 557 623 717 624
          621 714 718 625 622 715
          718 625 622 715 719 626
          623 716 720 561 558 624
          721 562 559 625 721 562
          559 625 722 563 560 626
          723 720 624 717 724 721
          625 718 724 721 625 718
          725 722 626 719 726 564
          561 720 727 565 562 721
          727 565 562 721 728 566
          563 722 729 567 564 726
          730 568 565 727 730 568
          565 727 731 569 566 728
          732 570 567 729 733 571
          568 730 733 571 568 730
          734 572 569 731 735 573
          570 732 736 574 571 733
          736 574 571 733 737 575
          572 734 738 576 573 735
          739 577 574 736 739 577
          574 736 740 578 575 737
          741 579 576 738 742 580
          577 739 742 580 577 739
          743 581 578 740 744 582
          579 741 745 583 580 742
          745 583 580 742 746 584
          581 743 627 585 582 744
          628 586 583 745 628 586
          583 745 629 587 584 746
          747 627 744 748 749 628
          745 750 749 628 745 750
          751 629 746 752 630 588
          585 627 631 589 586 628
          631 589 586 628 632 590
          587 629 753 630 627 747
          754 631 628 749 754 631
          628 749 755 632 629 751
          633 591 588 630 634 592
          589 631 634 592 589 631
          635 593 590 632 756 633
          630 753 757 634 631 754
          757 634 631 754 758 635
          632 755 636 594 591 633
          637 595 592 634 637 595
          592 634 638 596 593 635
          759 636 633 756 760 637
          634 757 760 637 634 757
          761 638 635 758 639 597
          594 636 640 598 595 637
          640 598 595 637 641 599
          596 638 642 639 636 759
          643 640 637 760 643 640
          637 760 644 641 638 761
          762 642 759 763 764 643
          760 765 764 643 760 765
          766 644 761 767 645 600
          597 639 646 601 598 640
          646 601 598 640 647 602
          599 641 648 645 639 642
          649 646 640 643 649 646
          640 643 650 647 641 644
          768 648 642 762 769 649
          643 764 769 649 643 764
          770 650 644 766 651 603
          600 645 652 604 601 646
          652 604 601 646 653 605
          602 647 654 651 645 648
          655 652 646 649 655 652
          646 649 656 653 647 650
          771 654 648 768 772 655
          649 769 772 655 649 769
          773 656 650 770 657 693
          603 651 658 695 604 652
          658 695 604 652 659 697
          605 653 660 657 651 654
          661 658 652 655 661 658
          652 655 662 659 653 656
          774 660 654 771 775 661
          655 772 775 661 655 772
          776 662 656 773 777 778
          693 657 779 780 695 658
          779 780 695 658 781 782
          697 659 783 777 657 660
          784 779 658 661 784 779
          658 661 785 781 659 662
          786 783 660 774 787 784
          661 775 787 784 661 775
          788 785 662 776
        </DataArray>
        <DataArray type="Int64" Name="offsets" format="ascii" RangeMin="8" RangeMax="3616">
          8 16 24 32 40 48
          56 64 72 80 88 96
          104 112 120 128 136 144
          152 160 168 176 184 192
          200 208 216 224 232 240
          248 256 264 272 280 288
          296 304 312 320 328 336
          344 352 360 368 376 384
          392 400 408 416 424 432
          440 448 456 464 472 480
          488 496 504 512 520 528
          536 544 552 560 568 576
          584 592 600 608 616 624
          632 640 648 656 664 672
          680 688 696 704 712 720
          728 736 744 752 760 768
          776 784 792 800 808 816
          824 832 840 848 856 864
          872 880 888 896 904 912
          920 928 936 944 952 960
          968 976 984 992 1000 1008
          1016 1024 1032 1040 1048 1056
          1064 1072 1080 1088 1096 1104
          1112 1120 1128 1136 1144 1152
          1160 1168 1176 1184 1192 1200
          1208 1216 1224 1232 1240 1248
          1256 1264 1272 1280 1288 1296
          1304 1312 1320 1328 1336 1344
          1352 1360 1368 1376 1384 1392
          1400 1408 1416 1424 1432 1440
          1448 1456 1464 1472 1480 1488
          1496 1504 1512 1520 1528 1536
          1544 1552 1560 1568 1576 1584
          1592 1600 1608 1616 1624 1632
          1640 1648 1656 1664 1672 1680
          1688 1696 1704 1712 1720 1728
          1736 1744 1752 1760 1768 1776
          1784 1792 1800 1808 1816 1824
          1832 1840 1848 1856 1864 1872
          1880 1888 1896 1904 1912 1920
          1928 1936 1944 1952 1960 1968
          1976 1984 1992 2000 2008 2016
          2024 2032 2040 2048 2056 2064
          2072 2080 2088 2096 2104 2112
          2120 2128 2136 2144 2152 2160
          2168 2176 2184 2192 2200 2208
          2216 2224 2232 2240 2248 2256
          2264 2272 2280 2288 2296 2304
          2312 2320 2328 2336 2344 2352
          2360 2368 2376 2384 2392 2400
          2408 2416 2424 2432 2440 2448
          2456 2464 2472 2480 2488 2496
          2504 2512 2520 2528 2536 2544
          2552 2560 2568 2576 2584 2592
          2600 2608 2616 2624 2632 2640
          2648 2656 2664 2672 2680 2688
          2696 2704 2712 2720 2728 2736
          2744 2752 2760 2768 2776 2784
          2792 2800 2808 2816 2824 2832
          2840 2848 2856 2864 2872 2880
          2888 2896 2904 2912 2920 2928
          2936 2944 2952 2960 2968 2976
          2984 2992 3000 3008 3016 3024
          3032 3040 3048 3056 3064 3072
          3080 3088 3096 3104 3112 3120
          3128 3136 3144 3152 3160 3168
          3176 3184 3192 3200 3208 3216
          3224 3232 3240 3248 3256 3264
          3272 3280 3288 3296 3304 3312
          3320 3328 3336 3344 3352 3360
          3368 3376 3384 3392 3400 3408
          3416 3424 3432 3440 3448 3456
          3464 3472 3480 3488 3496 3504
          3512 3520 3528 3536 3544 3552
          3560 3568 3576 3584 3592 3600
          3608 3616
        </DataArray>
        <DataArray type="UInt8" Name="types" format="ascii" RangeMin="12" RangeMax="12">
          12 12 12 12 12 12
          12 12 12 12 12 12
          12 12 12 12 12 12
          12 12 12 12 12 12
          12 12 12 12 12 12
          12 12 12 12 12 12
          12 12 12 12 12 12
          12 12 12 12 12 12
          12 12 12 12 12 12
          12 12 12 12 12 12
          12 12 12 12 12 12
          12 12 12 12 12 12
          12 12 12 12 12 12
          12 12 12 12 12 12
          12 12 12 12 12 12
          12 12 12 12 12 12
          12 12 12 12 12 12
          12 12 12 12 12 12
          12 12 12 12 12 12
          12 12 12 12 12 12
          12 12 12 12 12 12
          12 12 12 12 12 12
          12 12 12 12 12 12
          12 12 12 12 12 12
          12 12 12 12 12 12
          12 12 12 12 12 12
          12 12 12 12 12 12
          12 12 12 12 12 12
          12 12 12 12 12 12
          12 12 12 12 12 12
          12 12 12 12 12 12
          12 12 12 12 12 12
          12 12 12 12 12 12
          12 12 12 12 12 12
          12 12 12 12 12 12
          12 12 12 12 12 12
          12 12 12 12 12 12
          12 12 12 12 12 12
          12 12 12 12 12 12
          12 12 12 12 12 12
          12 12 12 12 12 12
          12 12 12 12 12 12
          12 12 12 12 12 12
          12 12 12 12 12 12
          12 12 12 12 12 12
          12 12 12 12 12 12
          12 12 12 12 12 12
          12 12 12 12 12 12
          12 12 12 12 12 12
          12 12 12 12 12 12
          12 12 12 12 12 12
          12 12 12 12 12 12
          12 12 12 12 12 12
          12 12 12 12 12 12
          12 12 12 12 12 12
          12 12 12 12 12 12
          12 12 12 12 12 12
          12 12 12 12 12 12
          12 12 12 12 12 12
          12 12 12 12 12 12
          12 12 12 12 12 12
          12 12 12 12 12 12
          12 12 12 12 12 12
          12 12 12 12 12 12
          12 12 12 12 12 12
          12 12 12 12 12 12
          12 12 12 12 12 12
          12 12 12 12 12 12
          12 12 12 12 12 12
          12 12 12 12 12 12
          12 12 12 12 12 12
          12 12 12 12 12 12
          12 12 12 12 12 12
          12 12 12 12 12 12
          12 12 12 12 12 12
          12 12
        </DataArray>
      </Cells>
    </Piece>
  </UnstructuredGrid>
</VTKFile>
