<?xml version="1.0"?>
<VTKFile type="UnstructuredGrid" version="0.1" byte_order="LittleEndian" header_type="UInt32" compressor="vtkZLibDataCompressor">
  <UnstructuredGrid>
    <Piece NumberOfPoints="774" NumberOfCells="452">
      <PointData>
        <DataArray type="Int32" Name="libmesh_node_id" format="ascii" RangeMin="2286" RangeMax="4991">
          2286 2287 2288 2289 2290 2291
          2292 2293 2294 2295 2296 2297
          2340 2341 2342 2343 2344 2345
          2346 2347 2348 2349 2350 2351
          2400 2401 2403 2404 2406 2407
          2412 2413 2414 2415 2416 2417
          2418 2419 2420 2421 2422 2423
          2487 2488 2489 2490 2491 2492
          2523 2524 2525 2526 2527 2528
          2529 2530 2531 2532 2533 2534
          2550 2551 2552 2553 2554 2555
          2556 2557 2558 2559 2560 2561
          2580 2581 2582 2583 2584 2585
          2685 2686 2687 2688 2689 2690
          2691 2692 2693 2694 2695 2696
          2698 2699 2700 2702 2703 2704
          2706 2707 2708 2796 2797 2798
          2799 2800 2801 2802 2803 2804
          2805 2806 2807 2838 2839 2840
          2841 2842 2843 2844 2845 2846
          2847 2848 2849 2881 2883 2885
          2949 2950 2951 2952 2953 2954
          2955 2956 2957 3054 3055 3056
          3057 3058 3059 3093 3094 3095
          3096 3097 3098 3099 3100 3101
          3102 3103 3104 3117 3118 3119
          3120 3121 3122 3123 3124 3125
          3126 3127 3128 3195 3196 3197
          3198 3199 3200 3201 3202 3203
          3210 3211 3212 3213 3214 3215
          3216 3217 3218 3219 3220 3221
          3222 3223 3224 3225 3226 3227
          3252 3253 3254 3255 3256 3257
          3300 3301 3302 3303 3304 3305
          3306 3307 3308 3309 3310 3311
          3318 3319 3320 3321 3322 3323
          3324 3325 3326 3327 3328 3329
          3330 3331 3332 3333 3334 3335
          3366 3367 3368 3378 3379 3380
          3381 3382 3383 3384 3385 3386
          3387 3388 3389 3390 3391 3392
          3453 3454 3455 3456 3457 3458
          3459 3460 3461 3483 3484 3485
          3492 3493 3494 3525 3526 3528
          3529 3531 3532 3543 3544 3545
          3564 3565 3566 3567 3568 3569
          3570 3571 3572 3588 3589 3590
          3591 3592 3593 3609 3610 3611
          3612 3613 3614 3615 3616 3617
          3618 3619 3620 3630 3631 3632
          3633 3634 3635 3636 3637 3638
          3639 3640 3641 3654 3655 3656
          3657 3658 3659 3660 3661 3662
          3684 3685 3686 3687 3689 3691
          3693 3694 3695 3696 3697 3698
          3708 3709 3710 3711 3712 3713
          3735 3736 3737 3738 3739 3740
          3741 3742 3743 3744 3745 3746
          3747 3748 3749 3762 3763 3764
          3771 3772 3773 3774 3775 3776
          3777 3778 3779 3786 3787 3788
          3795 3796 3797 3798 3799 3800
          3801 3802 3803 3804 3805 3806
          3807 3808 3809 3816 3817 3818
          3834 3835 3836 3837 3838 3839
          3846 3847 3848 3849 3850 3851
          3861 3862 3863 3882 3884 3885
          3887 3888 3890 3900 3901 3902
          3903 3904 3905 3906 3907 3908
          3924 3925 3926 3927 3928 3929
          3930 3931 3932 3939 3940 3941
          3942 3943 3944 3954 3955 3956
          3958 3959 3960 3962 3963 3964
          3969 3970 3971 3972 3973 3974
          3993 3994 3995 4032 4033 4034
          4035 4036 4037 4053 4054 4055
          4056 4057 4058 4059 4060 4061
          4062 4063 4064 4089 4090 4091
          4104 4105 4106 4107 4108 4109
          4116 4117 4118 4128 4129 4130
          4167 4168 4169 4170 4171 4172
          4185 4186 4187 4208 4209 4212
          4213 4216 4217 4233 4234 4235
          4236 4237 4238 4254 4255 4256
          4257 4258 4259 4269 4270 4271
          4272 4273 4274 4284 4285 4286
          4287 4288 4289 4290 4291 4292
          4293 4294 4295 4302 4303 4304
          4314 4315 4316 4317 4318 4319
          4320 4321 4322 4323 4324 4325
          4326 4327 4328 4338 4339 4340
          4344 4345 4346 4350 4351 4352
          4353 4354 4355 4365 4366 4367
          4368 4369 4370 4371 4372 4373
          4374 4375 4376 4377 4378 4379
          4380 4381 4382 4383 4384 4385
          4386 4387 4388 4389 4390 4391
          4398 4399 4400 4416 4417 4418
          4422 4423 4424 4425 4426 4427
          4428 4429 4430 4434 4435 4436
          4437 4438 4439 4440 4441 4442
          4443 4444 4445 4458 4459 4460
          4482 4483 4484 4485 4486 4487
          4488 4489 4490 4491 4492 4493
          4494 4495 4496 4497 4498 4499
          4500 4501 4502 4506 4507 4508
          4509 4510 4511 4518 4519 4520
          4521 4522 4523 4545 4546 4547
          4566 4567 4568 4569 4570 4571
          4572 4573 4574 4599 4600 4601
          4602 4603 4604 4605 4606 4607
          4611 4612 4613 4647 4648 4649
          4650 4651 4652 4653 4654 4655
          4656 4657 4658 4677 4678 4679
          4689 4690 4691 4692 4693 4694
          4695 4696 4697 4716 4717 4718
          4743 4744 4745 4746 4747 4748
          4749 4750 4751 4779 4780 4781
          4788 4789 4790 4800 4801 4802
          4803 4804 4805 4806 4807 4808
          4809 4810 4811 4830 4831 4832
          4872 4873 4874 4902 4903 4904
          4923 4924 4925 4968 4969 4970
          4986 4987 4988 4989 4990 4991
          2880 2882 2884 3883 3873 3886
          3876 3889 3879 3957 3961 3965
          3875 3878 3881 4119 4120 4121
          4206 4207 4210 4211 4214 4215
          4347 4348 4349 4251 4252 4253
        </DataArray>
        <DataArray type="Float64" Name="resid_x" format="ascii" RangeMin="-0.000003693110242175557" RangeMax="0.00005447683586634611">
          4.108880991005037e-8 -8.893622818195723e-7 -0.0000011400269116501605 -0.0000023530102229996075 0.00000502309220162811 0.0000029090169652024045
          0.0000096443338000185 0.000006750797792665075 0.000021823771901685607 0.000023652423090103625 0.00002424733111372479 0.000021340807053293886
          0.0000069603705500354 -0.0000015488731626156493 -0.0000011892892815557055 -0.0000032946355366103575 0.00001995751166228299 0.000002253344027813853
          0.000004745243538856192 0.0000028249225549892287 0.000042020704540401965 0.00002363046585140971 0.0000218722248289116 0.000027913825434211503
          0.000028895723664268402 0.000007191176374266028 0.000040843934518530745 0.000010803446088725188 0.000028210529818273322 0.000011967128411338734
          0.0000050525996351247215 -2.5329787345373944e-7 -0.0000016815997226915513 0.00000351863589120871 0.000014512711985270599 0.00000389723464788716
          0.00001005537740983442 0.000024589332726310253 0.00002652706243322367 0.0000232324666052941 0.00002600312195744081 0.000030040889922866576
          0.000013592581239174617 0.000008839611271516112 0.000007401611265556163 0.000005612450507119782 0.00002012270521581372 0.000021843502205687315
          2.150426836600161e-8 -0.0000019587281798183476 0.000011197571808230222 0.000014915826106243202 -6.820097753212906e-8 -0.000002077886561896447
          0.00002579213642572853 0.00003727966564159857 0.000007135433506277877 0.000002928122303097469 0.000018904984055101437 0.000024233885289826063
          -2.717982894306914e-9 -7.888476749595696e-7 -0.000001776523827157206 -0.000001924949342479998 0.0000036303165110718183 0.00000296177575365153
          0.0000016454977891378064 0.000010714315616500159 0.000017643193535143986 0.000011639784895489669 0.000013475427995124356 0.0000217153272236148
          0.000003612465797941944 0.0000034032911117032327 0.0000049614682408050115 0.000007617458764319629 0.000014933437481712275 0.00001982061912619848
          -1.9365336223486906e-8 -5.818328124851391e-7 -5.17069116079405e-7 7.921498595964138e-7 0.000002556606321757471 0.0000012738002133083626
          0.0000053637994059663185 0.000006271782631572798 0.000010836336967079419 0.000010007726295446773 0.00001282093637866577 0.000014789633018152948
          0.000019281018714512044 0.000023295837411452247 0.0000091779770190481 0.00003717383623236259 0.00001559294920960852 0.0000055411852025732955
          0.000026456754902426383 0.00002220831234878151 0.000012225328605341979 6.907659222399332e-9 -9.70472988248705e-7 -0.0000012982571335751203
          -0.0000017984522805436498 0.00000470887198611436 0.000006373114316504669 0.000004285235259082754 0.00000916944056306157 0.000017788075446723006
          0.00002183637825814433 0.000017989439659915618 0.00001986320358104976 2.5481632359714013e-9 -4.942332163526686e-7 -0.000001330010965694406
          -7.807455265629315e-7 0.000003667170541121756 0.000006909211599070986 0.000002594453186177681 0.0000072844789794634934 0.00001131594515335621
          0.00001596163164097053 0.000014461154306255608 0.000013822521844730762 0.000018943558973250063 0.0000317490179595481 0.000032813705782785973
          0.000005084867472415766 0.00000319242311508372 0.000007513552310822735 0.000004994469526620193 0.000005427644172772972 0.000010575601385176547
          0.000008518243580057927 0.000010178842511976427 0.00001457074917360357 0.00000532516190676624 0.000008814531615608523 0.000004046010656622023
          0.000013725374427564496 0.000011108018869609992 0.00001941730558674415 0.000017353058335056737 0.000013235333796268733 -2.3639614055159797e-7
          -9.258890441010692e-7 0.000013819920961721799 0.000008481166058671441 0.0000014418747960043277 -5.876408236682451e-7 0.000026022319111640435
          0.00002215936383076489 0.000014159259864920948 0.00001530326911280966 0.000006837688294236699 0.000006811731791067643 0.000013437163618235104
          0.000012837613323046781 0.000004929865716429838 0.000004908479129484 0.00002605339939121265 0.000027073703866786758 0.00000675577578368447
          0.000006971916270637202 0.000014342219326390904 0.0000148816862102219 0.0000012577039666394896 0.0000029637496530288132 0.000007453705594073767
          0.00000496406401095939 0.000010048059817857613 0.0000055847105803197294 0.000017352285905491982 0.00002744963184542204 0.00001399180639649611
          0.000006124246980432346 0.0000034074346276780076 0.000009877312607819988 6.332849297185916e-7 0.000007667243979048166 0.0000030943884716805314
          5.402912428564832e-8 0.0000063302202510939765 0.00001092727981000241 -0.0000024516517643791147 8.266423989766736e-7 0.000008393845119969434
          0.000012008628330728577 -0.000001638811553017483 0.000022228630671028426 0.00002207130796594292 0.000021857400346880773 0.000015001455584418011
          0.000011282812200197334 0.000017344677171515777 0.000005940086389655264 0.00002790416412412622 0.000019925901869388696 0.000032065950945070476
          0.000008997484096884278 0.0000064416873630790406 0.000019539659650291696 0.00002288265918792831 0.000018480586029490098 0.0000175072174348756
          0.000012311708654233477 0.000013504958772392328 0.0000066823471103760745 0.0000069011355365855565 0.000020946708751079512 0.000021901882936048445
          0.000003365801608090635 0.0000070722643432663546 0.0000016348409087596494 -9.46434347837144e-7 0.000007317362432923691 0.000013620191119168013
          0.000007067086645218268 0.00000473991548544106 0.000017094575010034863 0.000015423570381645213 0.000012959782769605965 0.00001733965350077249
          0.000007370393713596046 0.000002454488796432841 0.000005349205776730703 0.000002507580624255823 0.000012064587917817726 0.000010033366820594303
          0.0000061954808741049305 0.000019496754977144093 0.000016264605102955798 0.00000628569897226372 0.00000740858467651595 0.000005496227603207782
          0.000007599297662919113 0.000013736365471028744 0.000019615112379800514 0.0000033364675098290775 0.000001138358619812152 0.0000061666871256083056
          0.00000240457591849097 -4.359462970615624e-7 0.00001638840528794816 0.000009484408574178538 0.0000072376187916223245 0.000015732358784159572
          -1.726229692522452e-8 -9.63278305121662e-7 0.000010071321987714654 -2.785359043411262e-8 -0.0000013867662328470587 0.000026539106835699044
          0.000004641432928442768 0.0000044559852869774375 0.000018450478149967253 0.0000131148961459715 0.000008507992503403727 0.000010806582028122236
          0.000004301023543873406 0.000002839398605347654 0.0000048851840487307285 0.00001878968881241505 0.000029539312785820115 0.000042305967642430886
          0.000048919234201694195 0.00003208381291930351 0.00003143322948484517 0.0000013704732192421076 -0.000003693110242175557 0.000004706602845794272
          0.0000010081669434280904 0.000007022596586470087 0.000010636735321423174 0.000001795523549785738 0.0000072800628363456354 0.000005170249110120206
          0.00001534977104900026 0.000018912188835096266 0.000020845900655208638 0.000008051608021530932 0.0000043994224692700534 0.000008989913856338738
          0.0000047196689548223425 0.00001866624018209695 0.00001745074498071819 0.0000117898531490912 9.782943187763848e-7 -3.24403040652399e-7
          4.841583998160814e-7 0.000025542185174032284 0.000006576474521957643 0.0000034774647158508643 0.000011618951138880895 0.00002867463157052441
          0.000011471245448479994 0.000016633077153604958 0.000023974400766957338 2.822606270935779e-8 0.000004054955454524389 0.000005280838802357302
          9.602673888275959e-7 0.0000027831744827677696 0.000011665771735058783 0.000008488040961984744 0.000005704495310454583 0.00001857439364782998
          0.00002405579342978914 0.000025066936662820893 0.00002554929424114505 0.000014774449873744544 7.187111528139667e-8 -0.0000018032173643156568
          0.00003236668058104186 0.0000016493184771815272 0.000002330553795726331 0.000026965934316836027 0.00001751787230375168 0.000011852962005232115
          0.000012971721443544304 0.00000866750433714536 0.000012440881666631043 0.00001815602518995263 0.00003092566937290542 0.00001635727935389575
          0.00002939888794983858 0.000024367188203200385 0.000042874799496051 0.00003313076998145981 0.000022976112801331716 0.00002630881911847016
          0.00001989518995793027 0.0000209253045644342 0.000012380604421768915 0.00001036029652445869 0.000021929666133013725 0.00002182479493795242
          0.00002388987031565204 0.000010263095647000675 0.000012615648083968978 0.000020065794782253565 0.000005716164002834978 0.000011429515688554659
          0.000017556815369523804 0.000013017362702844038 0.0000033392352431285688 0.000004580647763874346 0.00001481816102133493 0.000027553722294237915
          0.0000074426528234305955 0.000014243687448622921 0.000025153278737533036 0.000022055377122631725 0.000009928672623393808 0.00001937007757812914
          0.000021738168554052972 0.000013942847336245734 0.00002805970843633432 0.000009851895284268553 0.000010472213387124896 0.00000402343807104355
          0.0000065843136884402576 0.000019444848199323683 0.00002023957481467331 0.000014230838524698086 0.000008793571346643603 0.000018648516328267917
          0.000017613903693147748 0.000015200801703363354 0.000010854719370900767 0.000006994467329546339 0.000017347966563274753 0.00001792836074432369
          0.000010163724664891127 0.000005606642237365733 0.000007916164120658209 0.000012863174660430327 0.000009179524103841707 0.000011927126068681654
          0.00000743141784964596 0.000021397170362411067 0.000021529805336983898 0.000022206374031302767 0.0000115336947804634 0.000022585572490796402
          0.000019148850559758124 0.000010530764541605286 0.000023237155501121265 0.000016988984011201413 0.0000068651597693314415 0.00001976304114514882
          0.0000030089237960106985 0.000006047994904501142 0.0000011290558002974294 0.000006283303458587408 0.000009419707535984756 0.000013894172996242737
          0.000022949579181814894 0.000006278154705600947 0.000019229027796024978 0.000022162978603912364 0.00003073528441932538 0.00004452669280163857
          0.00004431642876823183 0.00003068042297804663 0.00003928699871824648 0.000011582091424544583 0.000010206182365135597 0.000010891681343938586
          0.000008040136857845326 0.000010387093460573205 0.000011625559221517534 0.000011317595639326328 0.00001459712485485376 0.000011452320030969076
          0.00001995399507287443 0.000005458627592602738 0.000018586149301835775 0.000013400699856946918 3.688752581165744e-7 0.000010838364346232865
          0.000028803257343112953 0.000022575042923467237 0.000022803687990569088 0.00001275318343940679 0.000014558560783028973 0.000013753312177677834
          0.000013856508840115467 0.000013550091920333518 0.000012232455893324001 0.000024768124157192872 0.000012825141447181387 0.00003933106014719634
          0.000053872602173488104 0.000019550089872200083 0.000048982729799584845 0.00003305452881363635 0.000021846957529159106 0.0000359157528124765
          0.00003030858394736935 0.000030454189233863893 0.00002226508039904207 0.000012824149649426353 0.00001746243157851879 0.000020125293194506177
          0.00001807178695933942 0.000021008931275656728 0.000016562857123481045 0.0000060806685429071194 0.000009953035330134696 0.0000011921457280239522
          0.000007430030255939357 0.00001090879090348551 0.000016186278581131752 0.00001011330815670064 0.000005079249313366674 0.000005016698930715435
          0.000003109897897868308 0.000010663862481830044 0.000007701533778381453 0.00001491575592882377 0.000002834065679191422 0.00001468994305908744
          0.0000021165418635504807 0.000019059440980406794 0.000013938436619231886 0.00002248652019465336 0.000014532182726623155 0.000017220083375679707
          0.000013715818473203356 0.00003656108593774743 0.000007591649198501749 0.000019388220222182895 0.000010781049804009513 0.000027194218707227158
          0.00001185439841733249 0.000003692030897561871 0.000010515541461031397 0.000018305536617191365 3.063413578363594e-7 0.000016836362678240846
          0.000007485915805127696 0.0000023658657457570342 0.000011362475334841804 0.000017437796469232936 6.473304632326204e-7 0.000018033254324922865
          0.00001799290798934483 0.0000024480403530702244 0.000018246889255585375 0.00003175403023847334 0.00001687564849972567 0.00004131105459970197
          0.000020281847778580442 0.00002844307151472769 0.000014312806579708237 0.000021687409942211522 0.000023704614827479986 0.00000699748138127676
          0.000011798611857072316 0.000016474594617052474 0.00002126517746359191 0.000015360213014625757 0.000007023210340073582 0.00001810531473944721
          0.000013481481075272583 0.000001798003279041005 0.000017503999400370063 0.000031553267844763866 0.00000884188175565015 0.00002011038136640053
          0.000021369644833679757 0.000012363856041530674 0.000014527384681328748 0.000009844102950573586 0.000008852521715341233 0.000013111646415930878
          0.000012312896585431332 0.000015384946606911143 0.000020456152685199847 0.000012444573972647532 0.000011640824806091743 0.000005367258669175534
          0.0000028611955534829647 0.000016975190161638842 0.000014719074363678253 0.000016887954329969368 0.00000890688292631836 0.000019217599650844797
          0.000011782599736553934 0.000020159422548127193 0.00000535076865837425 0.000022165776871918563 0.000017969968108655365 0.000017461987222966435
          0.000015605892579095837 0.000022414740675325007 0.000001954023971850738 0.0000055985863711693895 0.000047271884733302016 7.10018253080591e-8
          0.00001394597821013921 0.00003409122378017493 0.000011845076384409126 0.000009259036026665335 0.000011398108501592397 0.00001625742171440514
          0.000017253667479288914 0.000007472550545339907 0.000018815019241169573 0.000013873312995960063 0.000012780579046967055 0.000001752498144491632
          0.0000012539559224311603 0.000021183690583681525 0.000014656526080125687 0.000025187477433408212 0.000012304864112966385 0.000008226603706695812
          5.188186892324254e-7 0.00001925260705393228 0.000013517620351732873 0.000011598960498876432 -8.184929231602744e-8 0.000011812840489511256
          0.000023913509241912934 0.00002040486150856058 0.000009322610795781117 0.000009466298735272272 0.00001573768686125021 0.000012102215833031948
          0.00000979434840653326 0.000003193137457502271 1.4699337747003938e-7 -0.0000012642195288403713 0.000019116113177286564 0.000004442953770611435
          0.000006661571335830896 0.000001876047160731531 0.0000209059953399926 0.00001158057174616145 0.000014576813702871227 0.000011524677828722574
          0.000018693676257286462 0.000006099409060822403 0.00001850140387182897 0.000015752465620355594 0.000009207563410773556 0.000018139537566019825
          0.00001785567953860312 0.00001854732779205115 0.00001599961280962514 0.000014323218654910264 0.000012784708437574288 0.0000100104394636924
          0.0000242149453603957 0.000004238962177712663 0.000013927595516882718 0.000026152549220448407 0.000004814519687812435 0.00005322952060593522
          1.7778634009424366e-7 0.000038702677939816965 0.000011354742013192087 0.0000048140425191744995 0.000015266750690967612 4.399831372570162e-7
          0.000029467481039269217 0.000005410392101556916 0.00001926615679259669 0.000025955170161018337 0.000049324927297034193 0.00003470526128424023
          0.000014486925748902202 0.00001376891743019859 0.000001715866753460027 0.00000707221309090289 0.000007546264080726672 0.000007644483498381316
          8.709031298348435e-7 0.000013605341888656142 0.00001865951194368609 0.000007731741634375844 -6.946226360771135e-8 0.00001609702354432585
          0.000011092700449744086 0.000006273972202430755 0.000009707172663020458 0.00002114905304584358 0.000018838054310021946 0.000013254622999503418
          0.00002002167729664439 0.000016427476246305694 0.00001528601267675178 0.00002389640531630377 0.000006402878133360268 0.00000925744016511132
          0.000004278301793614325 0.000019478726897559362 0.000006220878639329186 0.000011304581685411819 0.000014496555110321552 0.000008895702441891196
          0.000005716360913066154 0.00001530246366421295 0.000011395131694458271 0.000010304457822130075 0.000003886600942637486 0.000010463073330302386
          0.000014275595859147838 -1.3458542497124526e-7 0.000014135884410737543 0.000015652691475853686 0.000013079240605673448 0.00001343292994737677
          0.0000222786355325022 0.00001619690255794115 0.000019082951273452498 0.000023743773747586516 0.00003976922053650078 0.00002399769583327771
          0.000016772883118520987 0.000019195625512002934 0.000010227330221712627 0.000008393369970161046 0.000011334809205454377 0.00001174263708658696
          0.000017602663530125184 0.0000030880480030859303 0.000014379257571306425 0.000014952757812158879 0.000009831732840859253 0.000009843860523717218
          0.000018538777455251454 -0.000001464314513338616 0.000015127762810596135 0.00002501480593675165 0.00000902340575681393 0.000016412399412746304
          0.000013855718158928276 0.00001792018612856161 0.000015262804238025396 0.000024316128503856782 0.000004995512527875001 0.000010233722636934783
          0.000007318305129455638 0.000019315289909616062 0.000003850982742248377 0.000003755275543859682 0.000008876611667152368 8.550999077705512e-7
          0.000004851520666648845 0.00001276767547409019 0.0000034299133694348782 0.000014703537703386615 -3.013320172273737e-7 0.000009701064954903416
          0.000012194161412848459 0.000013778318840862447 -7.452889296821752e-7 0.000009432310988155557 0.000008693078562327372 0.00001144577359390997
          0.0000212629958453725 0.00000540287037864573 0.000014655499563809293 0.000021244415139287653 0.000015203593212165245 0.00001772699582958115
          0.000006038447508682765 0.000004228604828848681 0.0000060372982287892896 0.00001842572587440472 0.0000031316464496056184 0.000010558387483872167
          0.0000180742130065914 0.00002031714422157105 0.000006065252576736846 0.000012673767998516716 0.000012251477288005574 0.0000170229685976242
          0.000023353697861883127 0.000007059217141724972 0.000013244771370379826 0.000022293270599771375 0.00002764350479189659 0.000016161667757197407
          0.00003525441483653857 0.00004890382509020741 0.000026820323645870836 0.000039490344864612226 0.00005391371315610627 0.0000331695308437574
          0.000027887594398867677 0.000013926690264343122 0.000014016001773864417 0.000029973799239468857 0.000041794863552713224 0.000024252882773745377
          0.00002695257154972097 0.00003252822986488102 0.000005910897311167673 0.000009435674606761424 0.00001013676016636822 0.000018198184057460765
          0.000026719645847439466 0.00005447683586634611 0.000029557023927484494 0.000029396885208976542 0.00002760564880444072 0.000045023373502317554
          0.00004425168359434295 0.000028006714632100582 0.00002937096614852308 0.000029791098351439338 0.000044203353996241646 0.000022806199911351577
          0.000024840996336594756 0.00002419761277216992 0.000023884250922145966 0.000020793786321582353 0.00002446849101822579 0.00001950417589502429
          0.000012231913470439615 0.000031098074762425654 0.000025218370322876993 0.000053682819668665616 0.000018621763766213384 0.000043627707759563705
          0.000029662388689066788 0.000030023014295554873 0.00001926242161376379 0.000038013817711179954 0.00005336702299008067 0.00003459921683202083
        </DataArray>
        <DataArray type="Float64" Name="resid_y" format="ascii" RangeMin="-0.005703253534930607" RangeMax="0.00206179734464445">
          -2.8152104179085535e-8 1.6777191612794146e-7 -1.630550291768448e-7 0.0000016434687956194682 -0.00000226244126784415 8.482968348513115e-8
          -0.000004934354997714741 -6.509242684092469e-7 -0.000007251633561712861 -0.000007364732915415145 -0.000009279687837413089 -0.000007330042520738069
          -0.000004504208731607312 -6.523677679648107e-7 -1.0892770689672863e-8 7.368484450189818e-7 -0.000010022385344562405 -0.0000014389187813841804
          6.379771707925794e-7 -0.000004312269553691673 -0.000011789472061519111 -0.0000034062209671357167 -0.000004504204973273173 -0.000009240686344154456
          -0.000018318411987806307 -0.000010444371347594246 -0.000022563225010161295 -0.000021164739989508637 -0.000013957169915243973 -0.000012053035067008042
          0.0000038250302815914686 3.4019442788225506e-7 -4.312145741959322e-7 0.000007010097728358828 0.000007022236575615734 -0.0000014371917252659462
          -0.0000032012594352913773 0.0000163447257597205 0.0000021175966522584636 -0.0000031565225190676002 -0.000002890415940293785 0.000006770752189449959
          0.0000027320230867738395 0.000004165151728637668 -9.776507745103851e-7 -0.0000031649465761865187 -0.000004922446923047593 -0.000006557149414738311
          -9.082728372362958e-8 3.415941078914117e-7 -0.00000559060460319301 -0.000004237126065571861 -8.141033855161e-7 -6.752190741306924e-7
          -0.000015502853484183204 -0.000008655291345542951 -0.0000025234261214228046 -0.0000023707327059534385 -0.000009601145305669113 -0.0000047523579116834835
          -2.7549229965752146e-8 8.483876089173097e-7 6.179462764538532e-7 4.808955086682727e-8 1.3450391967188228e-7 9.274795915653134e-7
          -0.0000017781974206477775 -0.000003998893947778173 -0.0000030987379340362406 -0.000002469745600639883 -0.000004932098888112894 -0.000005809658354011347
          -0.0000012041653056644314 -0.000005731577902680276 -0.0000027573160840815847 -0.000006484923126435713 -0.0000057801175339152605 -0.000006606069144255247
          -1.4242642307833904e-8 1.3636878791245316e-7 -6.845125692773958e-8 0.000002159625589254774 -5.428923351763677e-7 -3.128506698161159e-7
          -0.000002812060539812854 0.0000025198278311707134 -0.000001574826612720881 -0.000001609285805977942 -0.000003027764476667066 -0.0000012248881771618906
          0.0000033772854360469146 -0.000008969372339634983 -0.000004352158618475561 0.0000039407302816468065 -0.0000028347953343714483 0.000003165384546888108
          -0.0000071560820556031135 -0.00000517772645909631 6.569809076193735e-7 -4.858105018962222e-9 2.102883800367012e-7 4.261835531442948e-7
          -4.093997636917023e-7 2.662151879581241e-7 3.262829395059546e-7 0.0000011219675002296491 -3.2230303148117565e-7 -0.0000011135779723211135
          -0.0000010548608695131606 -0.000001991086101334465 -0.0000011815948662161286 -3.3974572630256564e-8 4.215475673405517e-7 6.748716870939126e-7
          -4.4270960322580905e-8 -0.0000013692568191813522 -0.0000014811589224657988 -0.0000014072737714931416 -0.0000032631134114123 -0.000004122283207577031
          -0.000005734947615322118 -0.000006219775854097672 -0.000005099218132562739 -0.0000032858935945456963 -0.000002166822970064552 -0.0000015484788377133829
          -0.000003826892660665181 -0.0000011422063668023192 -0.0000013698726438642669 -0.0000033093813432865434 -0.0000020320872762395227 -0.000005973561714725127
          -0.000004015833183707148 -0.000005097640320809852 -0.000009094329066474663 -0.000003815271918341579 -0.00001154689656196234 -0.0000016998260799449259
          -0.000010198919109583363 -0.000002638206614823135 -0.000005849511304142842 -0.0000011580712697880496 -0.000004054112726299729 -8.380548016670777e-7
          1.1610476551948516e-7 -0.0000028995238690167975 -0.000001908239866626625 -7.353651478467184e-7 0.0000016764290516279277 -0.0000024390556504057465
          -4.962438570828591e-7 2.5832410359741785e-7 -6.935593344305126e-7 2.911031331774821e-8 -0.000002427942504539416 -0.000004285129219390644
          -0.000004555164936808189 5.151640220979643e-7 -0.0000016038130002540103 -0.000008046494619197214 -0.000007004090416721544 6.238476816042152e-7
          -8.1785190293596e-7 -0.0000033009539743533147 -0.000002652411682872594 8.030761938875291e-7 -0.000002317853297414225 0.0000011094244410778846
          -0.000001365558892430516 -1.606637700152149e-7 -0.000005356976400859451 -0.000003130066485824393 -0.0000034821050938851645 -0.000004218125693450717
          -0.0020896659018536153 -0.001185137307300633 -0.004183718620396908 -0.0023744029321399037 -0.0021009104988512725 -0.0012309934350455455
          -8.163662332141657e-8 0.000002356333100878927 -5.412412813330823e-7 3.68692452042043e-7 -4.7139866097265816e-7 0.0000015780411075218097
          -0.0000038141934408874277 -0.000002230370912653548 -0.000009197497024156275 -0.000007657477609732252 -0.000009406957324257408 -0.000006335705293428369
          0.00000148639816004235 -0.000007843161914609757 0.000004663011544826963 -0.00001106958257042571 4.223723208099557e-7 -0.000005385974613604505
          -0.0000035875107559047922 -0.0000015064983717089954 -0.0000053716106528643205 -0.000003898544912468455 -0.0000043933111799514864 -0.00000837557333266143
          -0.0000062832659907259125 -0.0000039485611391688056 -0.0000036460362219576693 -9.998010147560521e-8 -0.000004029987223706658 -0.0000047916951571832025
          -0.0000011822906853329717 -0.0000021909108638895267 7.749475452417491e-7 5.829650202675285e-9 4.256478501195489e-7 -0.000006617400713361792
          -0.0000026430828682275607 -0.000004033525477019177 -0.0000013965535041579515 -0.000005868411632968182 -0.000005515017001838946 -0.000006032295731670271
          -5.849338396818858e-7 -6.19526192640555e-8 -0.0000034807698737989758 -0.00000524232169426945 -0.000008213848306949396 -0.000008425520879633969
          -0.0000010292705896004697 -0.000004432835275179278 -0.000004138165012176984 -0.000006239808698397208 -0.000006419355035130114 -0.0000036243608197668916
          -0.0000037150251348783917 -0.000005994601142077357 -0.000007325033792049103 -0.0000014182098601115602 -0.0000028554107409520593 -0.000001056631843101858
          -0.0000013971916315509055 -0.00000351890430774364 -0.000002121344225441881 -0.000003416719530210586 -0.0000058645832282878865 -0.000005460941275097896
          -2.6570360078586805e-8 7.959174114192339e-8 1.808626659549617e-7 -3.3196648765895483e-7 1.3098849365947166e-7 -7.298558669013161e-7
          -8.12238121964575e-7 -0.0000021498120206418173 -0.000001603346453011873 -0.000006634356315731414 -0.000003055439088480924 -0.000006690295701103095
          -0.0004682459559153228 -0.0009396996247024385 -0.0004935968078512202 0.000002315476660983383 -0.00000794702954697371 0.0000037285658049928533
          -0.000005021119161145379 -0.000001930993298137132 -0.000004640292317240925 -0.0000019779849863460654 -1.437697601572828e-7 -0.0000025902443664515943
          2.243470364050957e-7 -0.0000062550089279067404 -0.0000058921440619296665 -1.1642589624566262e-7 6.428821966340207e-7 -0.00001079313183925657
          -0.000004628982493043096 -0.00000499041136527178 -0.00001176464334009305 4.244915766853444e-8 -0.000002494243565283197 0.0000014330198492412943
          1.0207219364199473e-7 -0.000002918011151090659 -0.0000022049491868803613 -0.000009570381586011464 -0.000004835987610313751 3.1868252902122205e-7
          5.229007531354704e-8 -0.000021696281531915704 -0.000011386930906687187 3.958012359706227e-7 -0.000002689305128473216 -0.000018820407697728997
          -0.000009582381598004664 -0.000007004895904124612 -0.000006917964296122392 -9.419731287520217e-9 -0.000004322773973439555 -0.000007763629931158492
          -8.904219520856037e-7 -3.607047538427711e-7 -0.000002680070334020639 -0.0000048342156954788405 -0.000004388681425790061 -0.000006253624167433785
          -0.000005631251151830968 -0.000008121078410182683 -0.000010475848388609064 0.0000034248856590557777 1.577036436333553e-7 -8.274595238132176e-7
          0.000006657917485529581 -0.0000015038574006495317 -0.0000065328838077002675 0.000001965408658588779 -0.000006222757247602035 -0.000007197849183798819
          -0.000006207919132864806 -0.0000029672241205066455 -0.000004684064230394574 -0.00000776056582280798 -0.000007785329769136214 -0.00000610113277889476
          -0.000017659968833824962 -0.000016624352282294287 -0.0000265922805107021 -0.00002905074447785011 -0.000015533120365588023 -0.000020691284272683283
          -0.000014641461773150124 -0.000012948919471266092 -0.000008278377056384234 -0.0000067469411906056695 -0.000008463948734435906 -0.000008842064625964527
          -0.000013647412593560324 -0.0000066120453715888886 -0.000006084456768392808 -0.000003779521397016686 0.000001468599244793022 -0.0000024147409866514397
          -0.0000032970719841976612 -0.000001128488993491078 -1.0916065456623766e-7 -0.000001589245282017978 -0.000006652000045847661 -0.000007348177230762087
          -0.0000039541679938428186 -0.00000718551739386673 -0.000011640484136795368 -0.000002538473509457618 -0.000002858914070193782 -0.000007403907576487498
          -0.000006247009690002513 -0.0000022576999709881564 -0.000007515544315237453 0.0000012192004147583597 -0.0000012031422974281489 -0.0000014307166226205838
          -0.00000656053321900006 -0.000005284740554251316 -0.000008958368628589125 -0.000007754811557418714 -0.00000530643869355008 -0.000009893541388546591
          0.000002259252662471789 0.000003978529476292639 -0.000002781900069271162 -0.0000043897414851788545 -0.000007992859586208705 -0.000008363728169035866
          -0.000004691475244004008 -0.000002432565770995828 -0.000004037475647740191 -0.0000064010801637791066 -0.000007496737802154506 -0.0000031029246833392827
          -0.000003742339354251452 -0.000004252180280712829 -0.0000043882039064662825 -0.0000049065239260260955 3.279702139094825e-7 -0.000005226111794994371
          -0.000005856600644822338 -0.0000026516037176346936 -0.000006860175169285353 -0.0000027089328507312604 8.407416121234898e-8 -0.000002888789626579553
          -0.0000029109887211032108 -0.000006522418133739997 -5.35695002592553e-8 -0.000002145240364750077 -0.000005872470876306778 -0.000007823742080729449
          -0.0000024432274714979944 -0.0000019805289005060244 -0.000005045366340420418 -0.000001480952391291529 -0.000014194555772684527 -0.0000032467628797597865
          -0.000014477102338081088 -0.0000014099174374974585 -0.000007460538608122444 -0.0000035230285365578417 -0.000010124842868479845 -0.000005146881387928877
          -0.000002625662453110294 -0.000006301495140859255 -0.00000165262189756165 -0.0000019483956615897434 -0.000002988897807764811 -3.307581051969371e-7
          0.000005408400088512707 0.000003780413783969878 -6.52726903568479e-7 0.0000028547311609773 -1.1208197425041449e-7 -0.0000016327359027786635
          -0.0000029831878405720035 -0.0000034630877223294993 -0.0000031902236532649635 -0.000014824259587572445 -0.000011295921984358359 -0.00001705316859993821
          -0.000011485723420327429 -0.000012543818209549001 -0.000008686359875039427 -0.0000069217722068895884 -0.0000036525927314266966 -0.000003978662304926148
          -0.000014602350387022192 -0.000010825408623929729 -0.000008926437119901069 -0.000009561573488941176 -0.000009358293457589067 -0.000014333437927149459
          -0.000006405565565517071 -0.000005713103631195386 -0.000013671552514961014 -0.0000012789527987077266 -0.000006939964321473879 -0.0000038359027453599035
          -0.000014461091412468208 -0.000020082103389517693 -0.000009814618339424284 0.000618826228786399 0.0008996245732603889 0.0012388581310156601
          0.001799774196676442 0.0006032392860073918 0.000884998870964497 0.001030418548850424 0.0010232104928232077 0.00206179734464445
          0.0020479115412169015 0.0010236862724205193 0.0010268365811767293 0.0000016051002383833581 -0.000001060533212209622 0.0000011219957335945139
          5.106205390484298e-7 -0.000003919512895206464 -0.0000020005595037994595 -0.000006672921979468133 -0.000004422283481264415 -0.000004683611735809587
          0.00019134755442557508 0.0000030652592199646245 0.00038142007729766565 -0.0000016323204163505708 0.00017491361328708386 -0.000002995036860467689
          -0.00036693671706828 -0.0007382619691847635 -0.0003962882055758245 -0.000005793280466788713 -0.000002030765213913155 -0.000005586260336305163
          -0.0010373837728739877 -0.002084562052794874 -0.0010864863074732676 -0.000004533251667165113 8.254242550684472e-7 -0.0000039418345657779574
          -0.0000068317035179907195 0.0000010061405408122882 -0.0000029378141702318325 0.0000066395179255723455 -0.0018907221119759386 0.000009433458151495572
          -0.00379630462236933 0.0000027121116846189476 -0.00197108025233608 -0.000009585097798908617 -0.000014477576877884157 -0.0000014159472700278793
          -5.158385620203636e-7 -0.0000015788150842502204 -0.0000012008540876420025 -0.000004945279730080802 -0.00000207247693345897 -0.0000055560492801861455
          -0.000007577611706846132 -0.000002878105267365566 -0.000008489073516752127 -0.00001341709563765182 -0.0000019810550709767165 -0.000003942929121641004
          -0.000009423739181422066 -0.000003807402224712832 -0.000004123008530386115 -0.000005281058948607056 -0.0000033549828346388783 -0.000005922361896219374
          -0.000016460832402355637 -0.00002308202259605069 -0.000016962793140149618 -0.000003569439168884668 -0.0000044479724614852325 0.000001251743073409843
          4.072573723143359e-7 -8.452366379578958e-7 -0.0000027905102307719315 -0.0000010642214352137816 0.000003907495035920772 -7.681130289500268e-7
          -8.31522637170486e-7 -0.0000012821791364329201 0.000002553267732147298 -0.0000033978329266843655 -8.721125022264622e-7 -0.000003928090105579946
          -0.000003023849601732718 -0.0000010839934518995509 8.46375687734921e-7 -2.6479784626977365e-7 -0.00000897938511506928 -0.0000022491012082433495
          -0.00000831218538823288 -0.000010655629859370429 -0.000007280092341772817 -0.000007879638531425783 -0.000008852641043282858 -0.0000049330589494615655
          -0.000004934553074945126 -0.0000025060053437165236 -0.0000024330350393079032 -0.000004943000846921366 -0.0000044431631308727675 0.000004598692395333531
          1.832735003915592e-7 9.785441878974385e-8 -0.000003843519215585359 -0.000006939144415105948 -0.0000049143013024788035 -0.0000014717115198288681
          6.29853370342744e-7 7.634714054689876e-7 6.033285277943319e-7 -0.0000023384896337818196 0.0000012752662788392734 -0.0000013495354934049252
          -0.0000018125183177867372 -0.0000015008849300197067 0.000004138717399340068 -7.977758184707855e-7 0.0000010445194711259308 -0.0000013393834705855215
          -0.0000031384769458731726 -7.194947255139642e-7 -1.6251207718160493e-7 2.459678355689124e-7 -0.00000949892167465341 -0.000004077036069221728
          -0.000003891402552376423 -0.000005124238857954697 -0.000010905907346607426 -0.000007044394128682269 -0.000008698423998759405 -0.000009411646969989269
          -0.000007310744374793314 -2.8450728827423936e-7 -0.000006239382030525655 -0.000009726383023633475 -0.000007158081501690327 -0.000009301599346099414
          -0.000003556963524973042 -0.000004803409357054603 -0.000001781485675573911 -0.0000037454168500699095 -0.0000029648240154958865 -0.000003798534605838717
          -4.0886621988697053e-7 0.0000024023005004659634 -0.0000028026136791340847 0.0000010082915200973833 -0.000003084735969896557 0.000001929800073281404
          -7.28489211086758e-7 -0.0000019573400151448594 -0.0000023176840703979275 -0.0000027468071419227197 -0.0000012893911186987557 -0.0000010355093196379574
          -0.0000011193508114848427 -3.996801204650944e-7 -0.0000010917039850322089 -0.000003534725631508355 -0.000012395375557059524 -0.000006709826860192437
          -0.000004047377141102389 -0.000001418325189487743 -9.065223502620649e-7 -0.0000028101716964584376 -0.0000013393756970623769 -0.000001634513771527036
          1.9910443291000848e-7 -9.002055277355385e-7 -0.000006201043205572316 -0.000003276235338737837 -0.0000010889202168638638 -0.000001969412331603446
          -0.000005314421840801192 -0.000010106909177906315 -0.0000057864924291610616 -0.000006480822244550129 -0.000008973980770199657 -0.000011369882621703811
          -0.0000030025935752614214 -7.609014127923225e-7 -0.00000309542667470289 -0.000006075870659629813 -8.112736829055242e-7 -0.0000030364412101115124
          -0.0000013529123479791034 -0.000010007002610225649 -0.0000031413791744076 0.0000017487797827173308 -4.821097030760502e-7 0.0000015883046982891275
          -4.375763149091485e-7 -0.000002764647737782725 -0.0000030331096167080136 -0.0000016358388240821282 -0.000001634373688269217 -0.000002040801478577815
          -0.000004216476739529393 2.0219853211385364e-7 -0.0000033637328580283198 -0.0000036428583806754483 -0.0000023887120881479194 -0.000003302825951758976
          -0.000012186194332164044 -0.000013752754940889655 -0.000011224587540616636 -0.000023612243297156405 -0.000034348321314185346 -0.00001697973612183913
          -0.000004839103726423689 -0.00000530136665276591 -0.0000043876844180342205 -0.0000035806622279672766 -0.0000026335915967968463 -0.000004489005557214672
          -0.000010734770371681468 -0.000001826336871879261 -0.000006977172497253485 -0.000007366525529411624 -0.0000034251696729896766 -0.000004502813222278558
          -0.0000039192887762750424 -0.0000035829492781305153 -0.00000687900166192407 -0.000003030553993681011 0.000002056215274020515 -3.3737902831442465e-7
          -0.000012442771236139284 -0.000015730266355660875 -0.000012110722459293417 -0.0000027292249833428626 -9.079367694223646e-7 -0.000001953915057867979
          0.0008629284307238661 -6.785135097929517e-7 0.0005553454033413645 0.0017280288459416084 0.0000014594730599735593 0.001113671556524298
          0.0008696983691375863 -2.771872763186094e-7 0.0005566557721816598 -0.000007660107694954996 -6.397565659494071e-7 -0.0000041707056670638
          -0.000005455003720974613 -0.000003546976907495541 9.64525474244412e-7 6.981075610134127e-7 -2.0631117679786176e-7 8.05697143585471e-8
          -0.00000453569406944597 0.00000317240605458239 -0.0000037882362787840934 -0.000012020875199610467 -0.000013138186514676759 -0.00000825836892319416
          0.0001083677342052773 0.00021714938780352554 0.00010059725604577574 -0.000008971977636311728 0.000002741265546813386 -0.000004027284528403206
          -0.00000755856252416501 -0.0000040136404917973795 -0.0000014448449542829415 -0.000002999582004553766 -0.0000072185490116984325 -0.00000786442412010254
          -0.000012220234245160881 -0.000011075857236035559 -0.000008458141812714166 -0.000011748678717463969 -0.000018660401385834496 -0.000012781988472248401
          0.000006929792854236286 0.0000098943345300961 0.000004228389501139459 -0.0000022898069573420304 0.000006599330288551211 0.000001678528138479747
          -8.043320762497188e-7 -0.0000014819001513704426 -0.0000015526580813511734 -0.000005486546522899061 -0.000006496320921293378 -0.000002666123601949332
          -0.000004665076484682896 -0.000004639946591730639 0.000002417007479549424 0.0000035267837476308204 2.861348672757169e-8 -2.7056245027463725e-7
          -0.0000018761131126917869 0.000002636704105232106 0.000004262045094223922 -0.000005162994359690903 -0.000008431500507686662 -0.000009979097686152807
          -0.000015420862133616597 -0.0000029669697303358247 -0.000007552991488923161 -0.00000563712086407717 -0.0000025288026342350223 -0.000005318623636736686
          -0.000010604438521793092 -0.000009351376935046868 -0.000006291026563579093 -0.00001548808422271173 -0.000024008085476511453 -0.000009871887084480255
          -0.0028492529439827 0.000014504801500085738 -0.005703253534930607 0.0000211086805578806 -0.002935742648644207 0.00000578872085034432
          -0.000006809875241161809 -0.000011660099283798935 -0.000005083830884134734 0.00001886176619095726 0.000031527951334398355 0.00001559744741805487
        </DataArray>
        <DataArray type="Float64" Name="resid_z" format="ascii" RangeMin="0" RangeMax="0">
          0 0 0 0 0 0
          0 0 0 0 0 0
          0 0 0 0 0 0
          0 0 0 0 0 0
          0 0 0 0 0 0
          0 0 0 0 0 0
          0 0 0 0 0 0
          0 0 0 0 0 0
          0 0 0 0 0 0
          0 0 0 0 0 0
          0 0 0 0 0 0
          0 0 0 0 0 0
          0 0 0 0 0 0
          0 0 0 0 0 0
          0 0 0 0 0 0
          0 0 0 0 0 0
          0 0 0 0 0 0
          0 0 0 0 0 0
          0 0 0 0 0 0
          0 0 0 0 0 0
          0 0 0 0 0 0
          0 0 0 0 0 0
          0 0 0 0 0 0
          0 0 0 0 0 0
          0 0 0 0 0 0
          0 0 0 0 0 0
          0 0 0 0 0 0
          0 0 0 0 0 0
          0 0 0 0 0 0
          0 0 0 0 0 0
          0 0 0 0 0 0
          0 0 0 0 0 0
          0 0 0 0 0 0
          0 0 0 0 0 0
          0 0 0 0 0 0
          0 0 0 0 0 0
          0 0 0 0 0 0
          0 0 0 0 0 0
          0 0 0 0 0 0
          0 0 0 0 0 0
          0 0 0 0 0 0
          0 0 0 0 0 0
          0 0 0 0 0 0
          0 0 0 0 0 0
          0 0 0 0 0 0
          0 0 0 0 0 0
          0 0 0 0 0 0
          0 0 0 0 0 0
          0 0 0 0 0 0
          0 0 0 0 0 0
          0 0 0 0 0 0
          0 0 0 0 0 0
          0 0 0 0 0 0
          0 0 0 0 0 0
          0 0 0 0 0 0
          0 0 0 0 0 0
          0 0 0 0 0 0
          0 0 0 0 0 0
          0 0 0 0 0 0
          0 0 0 0 0 0
          0 0 0 0 0 0
          0 0 0 0 0 0
          0 0 0 0 0 0
          0 0 0 0 0 0
          0 0 0 0 0 0
          0 0 0 0 0 0
          0 0 0 0 0 0
          0 0 0 0 0 0
          0 0 0 0 0 0
          0 0 0 0 0 0
          0 0 0 0 0 0
          0 0 0 0 0 0
          0 0 0 0 0 0
          0 0 0 0 0 0
          0 0 0 0 0 0
          0 0 0 0 0 0
          0 0 0 0 0 0
          0 0 0 0 0 0
          0 0 0 0 0 0
          0 0 0 0 0 0
          0 0 0 0 0 0
          0 0 0 0 0 0
          0 0 0 0 0 0
          0 0 0 0 0 0
          0 0 0 0 0 0
          0 0 0 0 0 0
          0 0 0 0 0 0
          0 0 0 0 0 0
          0 0 0 0 0 0
          0 0 0 0 0 0
          0 0 0 0 0 0
          0 0 0 0 0 0
          0 0 0 0 0 0
          0 0 0 0 0 0
          0 0 0 0 0 0
          0 0 0 0 0 0
          0 0 0 0 0 0
          0 0 0 0 0 0
          0 0 0 0 0 0
          0 0 0 0 0 0
          0 0 0 0 0 0
          0 0 0 0 0 0
          0 0 0 0 0 0
          0 0 0 0 0 0
          0 0 0 0 0 0
          0 0 0 0 0 0
          0 0 0 0 0 0
          0 0 0 0 0 0
          0 0 0 0 0 0
          0 0 0 0 0 0
          0 0 0 0 0 0
          0 0 0 0 0 0
          0 0 0 0 0 0
          0 0 0 0 0 0
          0 0 0 0 0 0
          0 0 0 0 0 0
          0 0 0 0 0 0
          0 0 0 0 0 0
          0 0 0 0 0 0
          0 0 0 0 0 0
          0 0 0 0 0 0
          0 0 0 0 0 0
          0 0 0 0 0 0
          0 0 0 0 0 0
          0 0 0 0 0 0
          0 0 0 0 0 0
          0 0 0 0 0 0
          0 0 0 0 0 0
          0 0 0 0 0 0
        </DataArray>
        <DataArray type="Float64" Name="stress_zz" format="ascii" RangeMin="-1919.9419680207059" RangeMax="1733.098927402795">
          -293.5213465974728 -210.46784940982906 -397.01530222840546 -272.73583868737234 -301.23353705822666 -205.26194532280243
          -378.87630291604074 -261.31561833220155 -308.94572751898056 -200.0560412357759 -360.7373036036761 -249.8953979770308
          202.72301378626824 -49.43138376603264 -552.9812872089644 13.288465253265606 201.1655608257855 -53.698417025886926
          -557.5234503702168 0.9835134873581266 199.60810786530274 -57.965450285741156 -562.0656135314689 -11.321438278549351
          379.20815729973754 170.3058798264379 410.51125653036274 171.230318164234 441.81435576098784 172.15475650203015
          -58.70024490121951 0.0317323248231105 -168.4124658731238 -831.1863303907902 -55.286135263527754 0.830757616106105
          -214.17035859248367 -884.3744971870689 -51.87202562583599 1.6297829073890853 -259.9282513118435 -937.5626639833475
          -295.93125723587565 -6.458262518326257 -281.13740373824504 -10.962557426079414 -266.3435502406144 -15.466852333832577
          -681.3505525719895 -438.9420661476901 -65.79910605351132 7.98853098433284 -687.5087757210279 -490.704641318016
          -75.20512183800047 4.7443430520174275 -693.6669988700662 -542.4672164883418 -84.61113762248957 1.5001551197020717
          119.26185627695197 227.53392860325724 328.83024571075657 113.81802440293865 119.73315020111212 226.23223527088203
          334.0318133900707 128.91168484096644 120.20444412527225 224.9305419385068 339.2333810693848 144.0053452789942
          -156.6247029714595 -189.71330034717568 -151.66448213062182 -202.96649568803306 -146.70426128978417 -216.2196910288905
          -21.47766112092716 273.10473467223153 300.0350483054663 226.72405000201843 -24.702114537981885 275.0954308791937
          289.0436566932151 221.62159723751526 -27.92656795503661 277.0861270861559 278.05226508096393 216.5191444730121
          -240.20486710799878 -186.15945392384094 -373.9395910456843 -241.53601113938743 -175.55122330273235 -397.0567908830494
          -242.8671551707761 -164.94299268162376 -420.1739907204146 118.37447293314902 116.47770738119038 -27.00304812249291
          -13.080696382823064 130.41962757177927 107.7544166034413 -35.90503295180132 2.929880543160351 142.46478221040957
          99.03112582569221 -44.807017781109735 18.94045746914378 -263.04783409049014 217.8142200252271 214.18325028187687
          -115.23666712395787 -265.40640244253336 208.57715596482674 216.38814526758216 -113.23677656681417 -267.7649707945766
          199.34009190442646 218.59304025328746 -111.23688600967049 287.3751948990305 298.71724508371017 310.05929526839
          -750.6159208125501 -251.94324575987122 144.96351045521243 -812.6058574468144 -277.98986867258236 171.29730753217
          -874.5957940810789 -304.0364915852935 197.6311046091276 -62.155858420765455 176.49197100137445 -50.57180861817086
          173.7195683414356 -38.98775881557627 170.94716568149678 108.13832889469371 299.9559131647617 190.64098237261194
          115.24936400761423 97.9731306120016 296.6102020440068 196.75837760823143 114.40446580390164 87.80793232930944
          293.26449092325197 202.87577284385088 113.5595676001891 42.15545672243573 -394.7005139187012 -221.84879889805612
          -73.71084823791497 30.127789912016837 -403.0531148112682 -215.67454985235977 -92.29182760845802 18.100123101597944
          -411.40571570383526 -209.5003008066636 -110.87280697900107 202.63725179353293 226.81071522347494 8.164321220030672
          212.28042346349014 203.392470880666 16.582150425947788 221.9235951334473 179.97422653785708 24.999979631864914
          345.15423089422046 621.8046426605681 352.28437394135904 635.9553043323375 359.4145169884977 650.1059660041069
          36.186134507484475 265.52096797910326 428.88281252312123 67.69828566039601 32.37185776805946 260.21992208666614
          431.39801556518523 68.82385936142555 28.55758102863448 254.91887619422906 433.9132186072493 69.94943306245509
          307.1564212685395 341.2227352869969 306.44553054838843 318.3796654448285 305.7346398282374 295.5365956026601
          253.95379191924988 -158.26260000630566 272.6691435909663 -132.2327657079754 291.3844952626829 -106.20293140964513
          -401.29413710612243 -400.1586501573082 -414.4593368305216 -417.4599098918591 -427.62453655492095 -434.76116962641015
          10.203195799100474 -42.26653538921703 42.160518473065 153.08938652045026 4.276284790018379 -33.702910001911384
          56.53424309832094 145.68895735232752 -1.6506262190637155 -25.139284614605746 70.90796772357687 138.2885281842048
          -63.61833767909861 433.01712242761573 -73.90783617770253 452.0759395630264 -84.19733467630647 471.13475669843706
          180.39813208515702 194.47919452418915 208.56025696322126 229.01944236182413 156.03033548978289 251.42390735228096
          150.84986379938317 273.82837234273785 145.66939210898346 -351.3776708861784 -1022.8380754289491 -650.6165180020139
          -350.77130926083606 -1071.4965235602165 -628.645240221731 -350.1649476354937 -1120.1549716914838 -606.6739624414482
          71.09618109548336 198.26505518009475 30.989841885666333 65.81374865028926 198.26226172529604 41.70296893023509
          60.53131620509513 198.25946827049742 52.41609597480385 321.7628870571558 328.4734398901581 335.1839927231604
          512.9194865238859 535.0000907619426 557.0806949999993 115.21357212757586 121.41743359284483 116.10704727436489
          95.22216646689394 117.00052242115396 69.02689934094306 42.82779786490151 41.60486025147938 40.38192263805723
          136.29489574620752 283.25931475638663 66.13967207392525 139.7170417542236 288.0774931769089 57.707906930845844
          143.13918776223971 292.89567159743103 49.27614178776645 184.79908911364237 -40.10961929751582 181.13589554234363
          -47.069791791605404 177.47270197104493 -54.02996428569499 279.0365708003193 1534.9832662575136 915.4941928831406
          361.2555142394644 302.3760039311626 1634.0410968301542 960.4925812325887 347.944582648914 325.7154370620057
          1733.098927402795 1005.4909695820368 334.6336510583635 -531.6186367506691 -394.5835800816339 -460.3624483151112
          -309.6733548597958 -529.7616553853227 -393.8281227765427 -456.98192110390596 -312.60356411680226 -527.9046740199764
          -393.0726654714515 -453.6013938927007 -315.5337733738087 -282.9137833434529 -1.0544579107419167 507.2131807146318
          -297.2214113201914 0.45755742177582304 527.0688420727004 -311.5290392969299 1.9695727542935857 546.924503430769
          -323.6572834279749 -349.67104278709246 -375.6848021462101 248.1038243474188 248.51772428002897 248.93162421263918
          347.0158424061062 46.43877754593795 400.91832368792393 58.5751567154115 454.82080496974163 70.71153588488524
          -82.37420668073396 -532.4182806646963 -82.8799664737856 -546.8635118416074 -83.38572626683722 -561.3087430185187
          135.72662353561844 139.85255485226597 143.97848616891346 -242.79459633131665 -422.0479120571167 -420.3059718568202
          -455.06126935717793 -247.52875687951754 -427.46780532468983 -417.0513879069991 -463.61349829941287 -252.26291742771846
          -432.88769859226295 -413.79680395717804 -472.1657272416479 24.162909204610173 33.0455985935765 41.928287982542855
          -270.7105103466449 -285.57905027221125 -300.44759019777763 393.4197902724752 247.20589807399924 399.60166941717523
          250.4578778954531 405.7835485618753 253.70985771690698 230.33901008784147 230.09803777309958 229.85706545835774
          198.1000057254281 345.1508314223497 213.06475335802077 347.1586007032186 228.02950099061334 349.16636998408745
          885.4420538208947 890.0926054701185 894.7431571193425 3.2352629481643866 39.3192974534564 -4.512251260761994
          30.13251020123819 -12.259765469688373 20.945722949019974 -136.73485382653178 -154.13854321381237 -171.5422326010929
          -377.8144808563825 -378.52296649087634 -379.23145212537014 91.04035903405067 88.311707598325 85.58305616259932
          736.6715054713837 1142.9228347234866 733.1557659781497 1186.8980014538297 729.6400264849158 1230.8731681841728
          7.59824999256989 3.6922198737545244 -0.21381024506084145 -61.39402213574306 644.9296762798049 -75.50736197195195
          661.5645501798053 -89.62070180816082 678.1994240798058 -45.305281219824536 -23.787891803959184 -90.87129278107786
          -38.57230565033355 -29.175474462348802 -111.05130690026675 -31.839330080842565 -34.56305712073841 -131.23132101945566
          91.7879118453581 94.05587261928076 111.89097458644551 90.48228720994936 84.17445472733012 130.64762234129512
          89.17666257454061 74.2930368353795 149.40427009614476 709.7430674445469 100.84854294810228 746.4103028751989
          126.25948434028072 783.077538305851 151.67042573245917 -352.92348931317144 -220.96253566679755 -736.568599068883
          -364.5061815662122 -238.99359093454098 -764.2277529711096 -376.08887381925297 -257.0246462022843 -791.8869068733361
          154.6288518258733 561.4369630465046 133.90192908248284 552.7377316028366 113.17500633909236 544.0385001591684
          -371.7866812556302 -376.05859747787474 -380.3305137001193 155.31731139165953 275.65100392225384 153.68827154898713
          285.7910012854199 152.05923170631473 295.9309986485859 296.5968959628366 152.95068371198533 295.47144373319816
          153.39016911463273 294.3459915035598 153.82965451728012 278.9915987600995 95.7037615939797 282.63875884752605
          88.50150878443299 286.28591893495263 81.29925597488628 307.66479264505904 300.62232868506953 293.5798647250801
          215.30092912308262 104.37844333978514 222.62910182782406 95.79426394680074 229.95727453256552 87.21008455381634
          330.2092739150942 359.8716577346026 389.53404155411107 28.011727445905393 22.26396679788927 16.516206149873184
          478.5679625397987 501.9000343532919 525.2321061667851 122.89425074503518 119.30772243977165 115.72119413450807
          30.878689774783382 30.62059180956545 30.36249384434757 -269.58839249919504 1085.1468690559373 -323.72842173818003
          1128.2254985201332 -377.8684509771649 1171.3041279843292 -276.01450614448817 -260.00174713115445 -264.58112904880363
          -251.285357639631 -253.14775195311907 -242.56896814810756 -62.84723572427681 -61.92697751796803 -61.006719311659246
          -551.9071234283342 -546.8731927050196 -541.839261981705 -124.02849675746933 -120.90481295747591 -117.78112915748251
          80.08868849111394 107.51108425728381 134.93348002345368 -242.1136882662214 -271.07426099251035 -300.03483371879923
          480.61230615505895 479.30408724873615 477.99586834241353 -339.66087644184677 -409.6738159288441 -337.18393836779904
          -416.09224964782067 -334.7070002937512 -422.5106833667974 -114.356940946947 -117.8864869293972 -121.41603291184737
          57.302764106728645 235.61340929911026 54.469730765389535 245.19267556684227 51.63669742405042 254.77194183457428
          -309.8058379367763 -126.26622875438912 -331.06350454312604 -308.83739058810886 -133.41916379121955 -323.42099708239465
          -307.86894323944136 -140.57209882804995 -315.77848962166325 -303.1002024243133 -310.1686154962987 -317.2370285682841
          31.091993373409316 22.040286800521653 12.988580227633987 656.3389193379429 492.51241436593034 670.1795930581217
          490.8345384283432 684.0202667783005 489.15666249075616 82.74159257575884 -5.191261382813513 97.64713774200374
          -3.9824315289070356 112.55268290824863 -2.7736016750005534 -116.04823082772566 -113.94695598461871 -111.84568114151175
          150.55982281556746 58.9203348509586 153.0580959115647 64.94120741923132 155.55636900756195 70.96207998750404
          497.09231156695023 756.3894833880014 -33.205023459374004 -619.0282697704575 533.6530754057745 760.162063426579
          -42.461270015415515 -637.9408578488822 570.2138392445988 763.9346434651567 -51.717516571457 -656.8534459273069
          -502.2636321838296 -495.16015076760107 -488.05666935137253 -210.1917959388001 -208.89079795263146 -207.58979996646283
          -601.284797395858 -723.1337580085759 -619.0974746990333 -755.1397229939033 -636.9101520022087 -787.1456879792308
          -291.34826824132006 -293.1342937168791 -294.920319192438 221.7713973957617 564.0566285927069 217.92254196888462
          576.8664588803459 214.07368654200752 589.6762891679848 -103.20466013165694 -22.000460583652767 -92.64927279701969
          -8.266724328700704 -82.09388546238247 5.467011926251367 56.321770166189665 52.03157995719149 47.74138974819333
          -168.51163821079615 -20.146357208804943 -169.5737740304064 -19.93103936820916 -170.6359098500167 -19.715721527613372
          86.20132873215192 -88.73971645032003 -348.41732605329776 165.7040469929235 89.19758744141922 -89.33141942577328
          -339.17294902121984 182.43020532423566 92.19384615068653 -89.92312240122651 -329.928571989142 199.15636365554786
          36.49755853656312 40.5097254314379 44.52189232631268 -51.357340419640515 -271.02335242401466 -62.623373917908204
          -337.45191909726714 -73.88940741617589 -403.88048577051967 129.43073240190205 183.68134814737923 136.29294635901852
          181.37115418960943 143.15516031613495 179.06096023183963 252.94978238433185 249.49736947393419 246.04495656353652
          289.7403544553416 280.3356049826419 270.93085550994215 114.90970097269327 107.06467562334227 99.21965027399125
          386.60367215913266 391.69802723370924 396.7923823082858 -147.51615415305156 -143.44285140057232 -139.36954864809314
          16.207242339877897 49.68314183227036 15.12230272329584 59.50895675506817 14.037363106713782 69.33477167786599
          120.67214305970924 117.75893571989091 114.84572838007259 71.0915442237111 40.73219260904549 10.372840994379962
          327.1306706220053 329.86237183279115 332.5940730435771 50.980397560550905 42.06244027840786 33.14448299626482
          309.0036908124066 321.74131044051876 334.4789300686309 -201.05126854017843 -193.176008655087 -185.30074876999564
          161.50566821655178 146.19841737496785 237.1901962824372 164.67168903610198 160.1445908638313 234.16353665087877
          167.83770985565212 174.09076435269475 231.13687701932037 -113.7860299469355 -140.5449290816078 -167.30382821628012
          615.8247697294518 591.4975421821354 626.2354723772809 616.3407308728997 636.6461750251102 641.1839195636641
          -15.803146779731506 -6.85706126336089 2.0890242530097254 -56.07947663292558 -47.45501449662866 -38.83055236033174
          368.44424749695537 364.7803280179267 361.116408538898 403.79588484335636 397.5257197398149 391.2555546362733
          -296.34029975745773 -501.3142014108362 -311.71967286213453 -496.1139855892558 -327.09904596681133 -490.9137697676753
          -16.988428994935944 -10.852950198717856 -4.717471402499765 425.6938198104989 440.2384761399743 454.7831324694498
          -1697.3076736428523 -1808.6248208317793 -1919.9419680207059 302.1499353035967 286.06308212505786 269.97622894651903
          -43.80883429540358 -65.24073911315159 -86.67264393089958 -573.5701995472386 -619.7864654528329 -666.0027313584272
          618.6250415755455 565.3059892374777 650.4200486569496 586.7150330725077 682.2150557383536 608.1240769075379
          -287.6498198830899 -274.59766376276866 -261.54550764244743 -738.5637120120782 -264.2497529226363 -764.553995304652
          -262.7514384963978 -790.5442785972257 -261.2531240701595 -731.081649755993 -737.6546818097187 -744.2277138634444
          -28.382579210779397 -11.638555844458892 5.105467521861556 -182.53606978339658 -159.18012638800593 -135.82418299261525
          739.1412530364548 4.152732548690688 782.9110247675658 -5.2977630652726475 826.6807964986766 -14.748258679236006
          -507.2434243568958 -506.56150998525453 -505.87959561361305 -742.7471606652903 -749.4677846182295 -756.1884085711688
        </DataArray>
        <DataArray type="Float64" Name="peeq" format="ascii" RangeMin="0" RangeMax="0">
          0 0 0 0 0 0
          0 0 0 0 0 0
          0 0 0 0 0 0
          0 0 0 0 0 0
          0 0 0 0 0 0
          0 0 0 0 0 0
          0 0 0 0 0 0
          0 0 0 0 0 0
          0 0 0 0 0 0
          0 0 0 0 0 0
          0 0 0 0 0 0
          0 0 0 0 0 0
          0 0 0 0 0 0
          0 0 0 0 0 0
          0 0 0 0 0 0
          0 0 0 0 0 0
          0 0 0 0 0 0
          0 0 0 0 0 0
          0 0 0 0 0 0
          0 0 0 0 0 0
          0 0 0 0 0 0
          0 0 0 0 0 0
          0 0 0 0 0 0
          0 0 0 0 0 0
          0 0 0 0 0 0
          0 0 0 0 0 0
          0 0 0 0 0 0
          0 0 0 0 0 0
          0 0 0 0 0 0
          0 0 0 0 0 0
          0 0 0 0 0 0
          0 0 0 0 0 0
          0 0 0 0 0 0
          0 0 0 0 0 0
          0 0 0 0 0 0
          0 0 0 0 0 0
          0 0 0 0 0 0
          0 0 0 0 0 0
          0 0 0 0 0 0
          0 0 0 0 0 0
          0 0 0 0 0 0
          0 0 0 0 0 0
          0 0 0 0 0 0
          0 0 0 0 0 0
          0 0 0 0 0 0
          0 0 0 0 0 0
          0 0 0 0 0 0
          0 0 0 0 0 0
          0 0 0 0 0 0
          0 0 0 0 0 0
          0 0 0 0 0 0
          0 0 0 0 0 0
          0 0 0 0 0 0
          0 0 0 0 0 0
          0 0 0 0 0 0
          0 0 0 0 0 0
          0 0 0 0 0 0
          0 0 0 0 0 0
          0 0 0 0 0 0
          0 0 0 0 0 0
          0 0 0 0 0 0
          0 0 0 0 0 0
          0 0 0 0 0 0
          0 0 0 0 0 0
          0 0 0 0 0 0
          0 0 0 0 0 0
          0 0 0 0 0 0
          0 0 0 0 0 0
          0 0 0 0 0 0
          0 0 0 0 0 0
          0 0 0 0 0 0
          0 0 0 0 0 0
          0 0 0 0 0 0
          0 0 0 0 0 0
          0 0 0 0 0 0
          0 0 0 0 0 0
          0 0 0 0 0 0
          0 0 0 0 0 0
          0 0 0 0 0 0
          0 0 0 0 0 0
          0 0 0 0 0 0
          0 0 0 0 0 0
          0 0 0 0 0 0
          0 0 0 0 0 0
          0 0 0 0 0 0
          0 0 0 0 0 0
          0 0 0 0 0 0
          0 0 0 0 0 0
          0 0 0 0 0 0
          0 0 0 0 0 0
          0 0 0 0 0 0
          0 0 0 0 0 0
          0 0 0 0 0 0
          0 0 0 0 0 0
          0 0 0 0 0 0
          0 0 0 0 0 0
          0 0 0 0 0 0
          0 0 0 0 0 0
          0 0 0 0 0 0
          0 0 0 0 0 0
          0 0 0 0 0 0
          0 0 0 0 0 0
          0 0 0 0 0 0
          0 0 0 0 0 0
          0 0 0 0 0 0
          0 0 0 0 0 0
          0 0 0 0 0 0
          0 0 0 0 0 0
          0 0 0 0 0 0
          0 0 0 0 0 0
          0 0 0 0 0 0
          0 0 0 0 0 0
          0 0 0 0 0 0
          0 0 0 0 0 0
          0 0 0 0 0 0
          0 0 0 0 0 0
          0 0 0 0 0 0
          0 0 0 0 0 0
          0 0 0 0 0 0
          0 0 0 0 0 0
          0 0 0 0 0 0
          0 0 0 0 0 0
          0 0 0 0 0 0
          0 0 0 0 0 0
          0 0 0 0 0 0
          0 0 0 0 0 0
          0 0 0 0 0 0
          0 0 0 0 0 0
          0 0 0 0 0 0
        </DataArray>
        <DataArray type="Float64" Name="pe11" format="ascii" RangeMin="0" RangeMax="0">
          0 0 0 0 0 0
          0 0 0 0 0 0
          0 0 0 0 0 0
          0 0 0 0 0 0
          0 0 0 0 0 0
          0 0 0 0 0 0
          0 0 0 0 0 0
          0 0 0 0 0 0
          0 0 0 0 0 0
          0 0 0 0 0 0
          0 0 0 0 0 0
          0 0 0 0 0 0
          0 0 0 0 0 0
          0 0 0 0 0 0
          0 0 0 0 0 0
          0 0 0 0 0 0
          0 0 0 0 0 0
          0 0 0 0 0 0
          0 0 0 0 0 0
          0 0 0 0 0 0
          0 0 0 0 0 0
          0 0 0 0 0 0
          0 0 0 0 0 0
          0 0 0 0 0 0
          0 0 0 0 0 0
          0 0 0 0 0 0
          0 0 0 0 0 0
          0 0 0 0 0 0
          0 0 0 0 0 0
          0 0 0 0 0 0
          0 0 0 0 0 0
          0 0 0 0 0 0
          0 0 0 0 0 0
          0 0 0 0 0 0
          0 0 0 0 0 0
          0 0 0 0 0 0
          0 0 0 0 0 0
          0 0 0 0 0 0
          0 0 0 0 0 0
          0 0 0 0 0 0
          0 0 0 0 0 0
          0 0 0 0 0 0
          0 0 0 0 0 0
          0 0 0 0 0 0
          0 0 0 0 0 0
          0 0 0 0 0 0
          0 0 0 0 0 0
          0 0 0 0 0 0
          0 0 0 0 0 0
          0 0 0 0 0 0
          0 0 0 0 0 0
          0 0 0 0 0 0
          0 0 0 0 0 0
          0 0 0 0 0 0
          0 0 0 0 0 0
          0 0 0 0 0 0
          0 0 0 0 0 0
          0 0 0 0 0 0
          0 0 0 0 0 0
          0 0 0 0 0 0
          0 0 0 0 0 0
          0 0 0 0 0 0
          0 0 0 0 0 0
          0 0 0 0 0 0
          0 0 0 0 0 0
          0 0 0 0 0 0
          0 0 0 0 0 0
          0 0 0 0 0 0
          0 0 0 0 0 0
          0 0 0 0 0 0
          0 0 0 0 0 0
          0 0 0 0 0 0
          0 0 0 0 0 0
          0 0 0 0 0 0
          0 0 0 0 0 0
          0 0 0 0 0 0
          0 0 0 0 0 0
          0 0 0 0 0 0
          0 0 0 0 0 0
          0 0 0 0 0 0
          0 0 0 0 0 0
          0 0 0 0 0 0
          0 0 0 0 0 0
          0 0 0 0 0 0
          0 0 0 0 0 0
          0 0 0 0 0 0
          0 0 0 0 0 0
          0 0 0 0 0 0
          0 0 0 0 0 0
          0 0 0 0 0 0
          0 0 0 0 0 0
          0 0 0 0 0 0
          0 0 0 0 0 0
          0 0 0 0 0 0
          0 0 0 0 0 0
          0 0 0 0 0 0
          0 0 0 0 0 0
          0 0 0 0 0 0
          0 0 0 0 0 0
          0 0 0 0 0 0
          0 0 0 0 0 0
          0 0 0 0 0 0
          0 0 0 0 0 0
          0 0 0 0 0 0
          0 0 0 0 0 0
          0 0 0 0 0 0
          0 0 0 0 0 0
          0 0 0 0 0 0
          0 0 0 0 0 0
          0 0 0 0 0 0
          0 0 0 0 0 0
          0 0 0 0 0 0
          0 0 0 0 0 0
          0 0 0 0 0 0
          0 0 0 0 0 0
          0 0 0 0 0 0
          0 0 0 0 0 0
          0 0 0 0 0 0
          0 0 0 0 0 0
          0 0 0 0 0 0
          0 0 0 0 0 0
          0 0 0 0 0 0
          0 0 0 0 0 0
          0 0 0 0 0 0
          0 0 0 0 0 0
          0 0 0 0 0 0
          0 0 0 0 0 0
          0 0 0 0 0 0
          0 0 0 0 0 0
        </DataArray>
        <DataArray type="Float64" Name="pe22" format="ascii" RangeMin="0" RangeMax="0">
          0 0 0 0 0 0
          0 0 0 0 0 0
          0 0 0 0 0 0
          0 0 0 0 0 0
          0 0 0 0 0 0
          0 0 0 0 0 0
          0 0 0 0 0 0
          0 0 0 0 0 0
          0 0 0 0 0 0
          0 0 0 0 0 0
          0 0 0 0 0 0
          0 0 0 0 0 0
          0 0 0 0 0 0
          0 0 0 0 0 0
          0 0 0 0 0 0
          0 0 0 0 0 0
          0 0 0 0 0 0
          0 0 0 0 0 0
          0 0 0 0 0 0
          0 0 0 0 0 0
          0 0 0 0 0 0
          0 0 0 0 0 0
          0 0 0 0 0 0
          0 0 0 0 0 0
          0 0 0 0 0 0
          0 0 0 0 0 0
          0 0 0 0 0 0
          0 0 0 0 0 0
          0 0 0 0 0 0
          0 0 0 0 0 0
          0 0 0 0 0 0
          0 0 0 0 0 0
          0 0 0 0 0 0
          0 0 0 0 0 0
          0 0 0 0 0 0
          0 0 0 0 0 0
          0 0 0 0 0 0
          0 0 0 0 0 0
          0 0 0 0 0 0
          0 0 0 0 0 0
          0 0 0 0 0 0
          0 0 0 0 0 0
          0 0 0 0 0 0
          0 0 0 0 0 0
          0 0 0 0 0 0
          0 0 0 0 0 0
          0 0 0 0 0 0
          0 0 0 0 0 0
          0 0 0 0 0 0
          0 0 0 0 0 0
          0 0 0 0 0 0
          0 0 0 0 0 0
          0 0 0 0 0 0
          0 0 0 0 0 0
          0 0 0 0 0 0
          0 0 0 0 0 0
          0 0 0 0 0 0
          0 0 0 0 0 0
          0 0 0 0 0 0
          0 0 0 0 0 0
          0 0 0 0 0 0
          0 0 0 0 0 0
          0 0 0 0 0 0
          0 0 0 0 0 0
          0 0 0 0 0 0
          0 0 0 0 0 0
          0 0 0 0 0 0
          0 0 0 0 0 0
          0 0 0 0 0 0
          0 0 0 0 0 0
          0 0 0 0 0 0
          0 0 0 0 0 0
          0 0 0 0 0 0
          0 0 0 0 0 0
          0 0 0 0 0 0
          0 0 0 0 0 0
          0 0 0 0 0 0
          0 0 0 0 0 0
          0 0 0 0 0 0
          0 0 0 0 0 0
          0 0 0 0 0 0
          0 0 0 0 0 0
          0 0 0 0 0 0
          0 0 0 0 0 0
          0 0 0 0 0 0
          0 0 0 0 0 0
          0 0 0 0 0 0
          0 0 0 0 0 0
          0 0 0 0 0 0
          0 0 0 0 0 0
          0 0 0 0 0 0
          0 0 0 0 0 0
          0 0 0 0 0 0
          0 0 0 0 0 0
          0 0 0 0 0 0
          0 0 0 0 0 0
          0 0 0 0 0 0
          0 0 0 0 0 0
          0 0 0 0 0 0
          0 0 0 0 0 0
          0 0 0 0 0 0
          0 0 0 0 0 0
          0 0 0 0 0 0
          0 0 0 0 0 0
          0 0 0 0 0 0
          0 0 0 0 0 0
          0 0 0 0 0 0
          0 0 0 0 0 0
          0 0 0 0 0 0
          0 0 0 0 0 0
          0 0 0 0 0 0
          0 0 0 0 0 0
          0 0 0 0 0 0
          0 0 0 0 0 0
          0 0 0 0 0 0
          0 0 0 0 0 0
          0 0 0 0 0 0
          0 0 0 0 0 0
          0 0 0 0 0 0
          0 0 0 0 0 0
          0 0 0 0 0 0
          0 0 0 0 0 0
          0 0 0 0 0 0
          0 0 0 0 0 0
          0 0 0 0 0 0
          0 0 0 0 0 0
          0 0 0 0 0 0
          0 0 0 0 0 0
          0 0 0 0 0 0
        </DataArray>
        <DataArray type="Float64" Name="pe33" format="ascii" RangeMin="0" RangeMax="0">
          0 0 0 0 0 0
          0 0 0 0 0 0
          0 0 0 0 0 0
          0 0 0 0 0 0
          0 0 0 0 0 0
          0 0 0 0 0 0
          0 0 0 0 0 0
          0 0 0 0 0 0
          0 0 0 0 0 0
          0 0 0 0 0 0
          0 0 0 0 0 0
          0 0 0 0 0 0
          0 0 0 0 0 0
          0 0 0 0 0 0
          0 0 0 0 0 0
          0 0 0 0 0 0
          0 0 0 0 0 0
          0 0 0 0 0 0
          0 0 0 0 0 0
          0 0 0 0 0 0
          0 0 0 0 0 0
          0 0 0 0 0 0
          0 0 0 0 0 0
          0 0 0 0 0 0
          0 0 0 0 0 0
          0 0 0 0 0 0
          0 0 0 0 0 0
          0 0 0 0 0 0
          0 0 0 0 0 0
          0 0 0 0 0 0
          0 0 0 0 0 0
          0 0 0 0 0 0
          0 0 0 0 0 0
          0 0 0 0 0 0
          0 0 0 0 0 0
          0 0 0 0 0 0
          0 0 0 0 0 0
          0 0 0 0 0 0
          0 0 0 0 0 0
          0 0 0 0 0 0
          0 0 0 0 0 0
          0 0 0 0 0 0
          0 0 0 0 0 0
          0 0 0 0 0 0
          0 0 0 0 0 0
          0 0 0 0 0 0
          0 0 0 0 0 0
          0 0 0 0 0 0
          0 0 0 0 0 0
          0 0 0 0 0 0
          0 0 0 0 0 0
          0 0 0 0 0 0
          0 0 0 0 0 0
          0 0 0 0 0 0
          0 0 0 0 0 0
          0 0 0 0 0 0
          0 0 0 0 0 0
          0 0 0 0 0 0
          0 0 0 0 0 0
          0 0 0 0 0 0
          0 0 0 0 0 0
          0 0 0 0 0 0
          0 0 0 0 0 0
          0 0 0 0 0 0
          0 0 0 0 0 0
          0 0 0 0 0 0
          0 0 0 0 0 0
          0 0 0 0 0 0
          0 0 0 0 0 0
          0 0 0 0 0 0
          0 0 0 0 0 0
          0 0 0 0 0 0
          0 0 0 0 0 0
          0 0 0 0 0 0
          0 0 0 0 0 0
          0 0 0 0 0 0
          0 0 0 0 0 0
          0 0 0 0 0 0
          0 0 0 0 0 0
          0 0 0 0 0 0
          0 0 0 0 0 0
          0 0 0 0 0 0
          0 0 0 0 0 0
          0 0 0 0 0 0
          0 0 0 0 0 0
          0 0 0 0 0 0
          0 0 0 0 0 0
          0 0 0 0 0 0
          0 0 0 0 0 0
          0 0 0 0 0 0
          0 0 0 0 0 0
          0 0 0 0 0 0
          0 0 0 0 0 0
          0 0 0 0 0 0
          0 0 0 0 0 0
          0 0 0 0 0 0
          0 0 0 0 0 0
          0 0 0 0 0 0
          0 0 0 0 0 0
          0 0 0 0 0 0
          0 0 0 0 0 0
          0 0 0 0 0 0
          0 0 0 0 0 0
          0 0 0 0 0 0
          0 0 0 0 0 0
          0 0 0 0 0 0
          0 0 0 0 0 0
          0 0 0 0 0 0
          0 0 0 0 0 0
          0 0 0 0 0 0
          0 0 0 0 0 0
          0 0 0 0 0 0
          0 0 0 0 0 0
          0 0 0 0 0 0
          0 0 0 0 0 0
          0 0 0 0 0 0
          0 0 0 0 0 0
          0 0 0 0 0 0
          0 0 0 0 0 0
          0 0 0 0 0 0
          0 0 0 0 0 0
          0 0 0 0 0 0
          0 0 0 0 0 0
          0 0 0 0 0 0
          0 0 0 0 0 0
          0 0 0 0 0 0
          0 0 0 0 0 0
          0 0 0 0 0 0
          0 0 0 0 0 0
        </DataArray>
        <DataArray type="Float64" Name="disp_x" format="ascii" RangeMin="0.0000010789094512844417" RangeMax="0.0000025972823059783398">
          0.0000020897245877578607 0.000002106027188235288 0.000002010906678330237 0.000002001351360751909 0.0000020897248747065236 0.0000021060274840393273
          0.000002010906937592632 0.000002001351600289316 0.0000020897257166579563 0.0000021060283623026783 0.0000020109074437309345 0.0000020013521407715615
          0.000002341091111966719 0.000002246883868185518 0.0000021767980659224313 0.0000022264191096782144 0.0000023410915694130333 0.0000022468841675107726
          0.0000021767983397032144 0.0000022264194111661076 0.0000023410927533750177 0.000002246884815324145 0.0000021767991406265985 0.000002226420039750764
          0.0000019740183041671005 0.0000020700838954763226 0.0000019740185764109263 0.0000020700844461401403 0.000001974019635969669 0.000002070086140233946
          0.000002165405659652749 0.0000021689173151300817 0.0000022640501983000936 0.000002255856314485021 0.0000021654059445636484 0.0000021689176644294167
          0.0000022640505969834963 0.0000022558567224966643 0.000002165406776470865 0.0000021689184596006173 0.000002264051633669772 0.000002255857997930342
          0.0000020969178291559044 0.0000021413980460412885 0.0000020969179774056908 0.0000021413981565137336 0.0000020969185733192693 0.0000021413988264443384
          0.0000012530692698788832 0.0000012747255834331119 0.0000012223573752108456 0.0000011851646696179742 0.0000012530686139899847 0.0000012747248705877575
          0.000001222356597552567 0.0000011851640043569187 0.0000012530666410526083 0.000001274722799803475 0.0000012223542624442792 0.0000011851618091885857
          0.0000015172114280503726 0.0000016037135345052574 0.0000015928152195496417 0.0000015103327333769655 0.0000015172112365762835 0.0000016037134029552794
          0.0000015928150976108307 0.000001510332585289393 0.000001517210617320609 0.0000016037128903618147 0.0000015928145707415978 0.0000015103318709002533
          0.0000019930686166072516 0.000002066818928234658 0.000001993068755679707 0.000002066819172769138 0.000001993069231036829 0.0000020668198440218186
          0.000001314802161616554 0.000001298406529040047 0.0000013912522779838852 0.0000014027050790720008 0.0000013148018451344357 0.000001298406202130531
          0.0000013912520510758138 0.0000014027048209891291 0.0000013148007845479179 0.0000012984051722155998 0.0000013912512096825936 0.0000014027039449731833
          0.0000023204046052355505 0.0000023101590723436426 0.000002400908618596142 0.000002320405121713062 0.0000023101594271165088 0.0000024009090807127995
          0.000002320406517206001 0.000002310160866948623 0.000002400910783946216 0.0000016636330757851962 0.0000017549159617402893 0.000001729236439000013
          0.0000016487025835268093 0.00000166363299508692 0.0000017549159932113589 0.0000017292364101903286 0.0000016487025551048039 0.0000016636327144578545
          0.0000017549158701899534 0.0000017292362550311448 0.0000016487021920050546 0.0000014338572111655338 0.0000015144457941855124 0.0000015089565136678914
          0.000001428625344998873 0.0000014338568425835636 0.0000015144455421479816 0.0000015089562043706148 0.000001428625070739855 0.000001433855729117424
          0.0000015144446050594841 0.0000015089552889886913 0.000001428623851574893 0.0000021685320605452867 0.0000021685322557423785 0.0000021685328724002056
          0.0000013176423013121754 0.0000013751024806948343 0.0000013548214362915074 0.0000013176416854444418 0.0000013751019850030784 0.000001354820855298541
          0.0000013176401346818816 0.0000013751003877483447 0.0000013548191989027083 0.0000014292360544763793 0.000001512239654841643 0.0000014292357378640498
          0.0000015122393623402378 0.0000014292347820505026 0.000001512238564948708 0.000002071902022830369 0.000002073666759229999 0.0000019886212549051285
          0.000001977516036175259 0.000002071902135792699 0.000002073666830806442 0.000001988621419416061 0.0000019775161372478805 0.0000020719025599154204
          0.000002073667251311737 0.000001988621679833826 0.000001977516432498882 0.000001207289235605033 0.0000012317071300711112 0.0000011597223841404668
          0.0000011168522577962065 0.000001207288803340203 0.0000012317067081004714 0.000001159721969519427 0.000001116851893018715 0.0000012072875575081026
          0.0000012317055205415727 0.0000011597207206530117 0.0000011168507112934902 0.000002080713586112499 0.0000021625801008065262 0.000002065381334696041
          0.0000020807137769622233 0.0000021625803680396714 0.0000020653814521588824 0.000002080714277899463 0.0000021625810074716784 0.000002065381833900689
          0.0000010789111438755 0.0000011795448978896379 0.0000010789107187154782 0.0000011795444814522775 0.0000010789094512844417 0.0000011795432444231421
          0.0000017234909738174222 0.000001601531169878042 0.0000016037515658336102 0.000001698200174621162 0.0000017234908901447722 0.000001601530950329823
          0.0000016037513549579425 0.0000016982001201208965 0.000001723490550625631 0.0000016015303051755238 0.0000016037507620437468 0.0000016981999541093515
          0.0000020797354047374136 0.00000216897528785497 0.0000020797354900823222 0.0000021689755087375633 0.00000207973592125518 0.0000021689762587293953
          0.0000012063451996102146 0.0000012017026100386186 0.0000012063446663517385 0.0000012017020306921767 0.0000012063430050558583 0.0000012017002194971316
          0.0000017879503873275116 0.0000018273455724840893 0.0000017879502880303663 0.0000018273455007010436 0.0000017879502471416503 0.0000018273454272328428
          0.000002032536466102213 0.000001986377950488769 0.000001934784162914841 0.0000019761358479460788 0.0000020325366363043046 0.0000019863780724944316
          0.0000019347843122598108 0.000001976136043133094 0.0000020325372026055045 0.0000019863785584299286 0.0000019347845402316486 0.0000019761364369555307
          0.0000014545925777986069 0.0000014331635347793175 0.0000014545921361048016 0.0000014331630963463745 0.0000014545908642839931 0.0000014331619385923296
          0.0000011987720803166622 0.0000011987716294257033 0.0000011987702417320546 0.0000014959147159051054 0.000001587011030271379 0.0000014959143894292015
          0.0000015870107695571793 0.0000014959134688260169 0.0000015870101199942771 0.0000013200828283111171 0.000001314344630821716 0.000001234870021013725
          0.000001320082383694956 0.0000013143440954474043 0.0000012348694482945914 0.0000013200810208499343 0.0000013143425172563319 0.000001234867907524645
          0.0000012615175372298463 0.000001272827177091935 0.0000011887274136998667 0.0000012615171329904354 0.0000012728267647494562 0.0000011887269903252177
          0.0000012615159138428562 0.0000012728254135421588 0.000001188725654774325 0.0000013375749507102836 0.0000013375742219209811 0.0000013375718367937264
          0.0000012802109550878094 0.0000012802105812847274 0.0000012802097511134539 0.0000025253506376135385 0.00000254537709819777 0.00000252535123955428
          0.000002545377647115489 0.000002525353087606542 0.0000025453793126015 0.0000012865638109896935 0.0000012865633386734535 0.0000012865621902823207
          0.0000016600557920630819 0.0000015668554482460444 0.0000016822514746622128 0.0000016600556599439826 0.0000015668551717021258 0.0000016822512336118413
          0.0000016600551983218813 0.0000015668542813791383 0.0000016822507058264217 0.0000016819566026386926 0.0000017646945358604097 0.0000016819564823572752
          0.0000017646944920621023 0.0000016819561431327684 0.0000017646943154400298 0.0000019400807795909458 0.0000018672969852578174 0.0000018586533544738869
          0.0000019480673704841814 0.0000019400811649771623 0.0000018672971809198922 0.0000018586535638900646 0.0000019480678465816576 0.000001940082339603085
          0.0000018672981036201023 0.000001858654067768377 0.000001948069129966351 0.0000021250565568801864 0.0000020318185922425795 0.0000020205479037423958
          0.0000021155664019348018 0.000002125056949256065 0.000002031818984193435 0.000002020548111112119 0.0000021155667460867023 0.000002125058030351211
          0.0000020318199236193117 0.000002020548753995164 0.000002115567756582432 0.000002494789939814603 0.000002402409584378132 0.000002459332561886395
          0.0000024947905223352658 0.0000024024100911229773 0.0000024593331229208442 0.0000024947920757919326 0.000002402411422850887 0.000002459334747775362
          0.0000013939523211994107 0.0000013939517682071227 0.000001393950096251441 0.0000011607463363476601 0.0000011607455806587944 0.0000011607432986388213
          0.000001813975968592542 0.0000017583294244880527 0.0000018139759949921107 0.0000017583293982283943 0.0000018139759103429033 0.0000017583291375006186
          0.000001937277083349597 0.000002042362593616105 0.000001937277195540471 0.000002042362844533413 0.000001937277945932153 0.0000020423639622469635
          0.0000014765974355087376 0.0000014765968156655601 0.0000014765954278956768 0.000002219665717023664 0.000002293661328243245 0.000002299420812974461
          0.0000022093472320612837 0.0000022196660191682087 0.0000022936616999214425 0.0000022994211749060503 0.000002209347583931369 0.0000022196670691163416
          0.000002293662817153634 0.0000022994224180067498 0.000002209348829008128 0.000002353190066384934 0.000002353190330689873 0.000002353191431543492
          0.0000021807267350050613 0.0000021807269527489513 0.0000021807277807684517 0.0000018213800443679434 0.0000017742440055105832 0.00000182137997804449
          0.0000017742438975284052 0.0000018213798449286429 0.0000017742435619714386 0.0000015464141440422504 0.0000015464137780026533 0.0000015464128310803938
          0.0000018613474445753256 0.0000019029542639094678 0.0000018613473529710992 0.0000019029542083413125 0.0000018613473538967684 0.0000019029544162951855
          0.0000014901606356076703 0.0000014901601523661222 0.0000014901590646723613 0.000002102707456814477 0.0000020411011926028286 0.0000021027076708118454
          0.000002041101332885076 0.0000021027082681437645 0.0000020411018345115333 0.000002147581290894114 0.0000021475813991195028 0.000002147582165987726
          0.000002216919909961452 0.0000022169202312018256 0.0000022169214419034704 0.0000019669200873318094 0.0000019669201222283687 0.0000019669204534054113
          0.0000015003287742517249 0.000001421000016169684 0.0000015003284467280298 0.000001420999490740382 0.0000015003276261849726 0.000001420998153978643
          0.000001890614990656449 0.0000018906148744983062 0.0000018906149421044734 0.0000023553318498826654 0.0000023562033175749406 0.0000023553322831827487
          0.000002356203649409323 0.0000023553334845186472 0.0000023562048938664824 0.0000015700897228764508 0.0000016270317017711244 0.000001573694433096683
          0.0000015700894979821234 0.0000016270314812011536 0.000001573694149930552 0.0000015700889585551793 0.0000016270309273878228 0.000001573693664545675
          0.000001856678708607184 0.000001973570747357269 0.0000018885590997880252 0.0000018566786674261793 0.000001973570850256123 0.000001888559047103016
          0.0000018566786418281364 0.0000019735711453814108 0.000001888559082763523 0.0000014112879568547772 0.0000013171147995389635 0.0000014112873474655074
          0.0000013171139607288889 0.0000014112855688304151 0.0000013171116689536187 0.000002566745922790931 0.000002474623759654335 0.000002470647532556281
          0.0000025667465105884857 0.0000024746243039979845 0.0000024706478674912768 0.00000256674808774362 0.0000024746260237965752 0.0000024706492871431188
          0.000002261667052854242 0.0000022538590911817496 0.0000022616671978069948 0.0000022538591287050623 0.000002261668052757287 0.000002253859647375234
          0.0000021663801686700723 0.0000021663806360069056 0.000002166382187277818 0.0000019851960085798076 0.0000018844993773504106 0.000001985196025108157
          0.0000018844993609356679 0.000001985196325221011 0.0000018844995087638959 0.000001783788927071718 0.000001683065610796798 0.0000017837886944539123
          0.0000016830654245924601 0.0000017837883955928743 0.0000016830650048826944 0.00000166915463777485 0.0000017446943787206494 0.0000016691544359803064
          0.0000017446943178692892 0.0000016691540864581255 0.000001744694114121116 0.0000015973345854978467 0.0000015973342094716341 0.000001597333599295551
          0.0000020858659810213596 0.0000020738638737892105 0.0000020858660655305715 0.000002073863751402043 0.000002085866401873258 0.000002073864111267805
          0.000002186504679642561 0.0000021865046708038164 0.000002186505239455507 0.0000023062512994059235 0.0000023062515645130033 0.0000023062527508236775
          0.0000022871060945678415 0.0000022871061788735864 0.0000022871067430980747 0.000002264413705878999 0.0000022644139183891983 0.0000022644147947321176
          0.000002225466677157732 0.0000022254668667900365 0.000002225467620044544 0.0000023519857918361942 0.0000023876655359992817 0.000002351985981302875
          0.0000023876657130768573 0.0000023519866860038814 0.0000023876663447078747 0.000002037106859045352 0.000002112136528554173 0.000002037106876903884
          0.0000021121366142464804 0.0000020371072449314567 0.000002112137213931355 0.0000017512538341232392 0.000001751253679181788 0.000001751253452600318
          0.0000021365603807166397 0.000002136560680804769 0.0000021365617881172458 0.000002174346812339551 0.0000021743467884009574 0.0000021743474955346532
          0.0000014115455299206855 0.000001411544909944099 0.0000014115435189613784 0.0000015738217549528926 0.0000015738214988795723 0.0000015738207670066925
          0.0000015241311889097972 0.0000015241308211545768 0.000001524129761766562 0.0000018693373024756455 0.000001907742455262187 0.0000018693372477001961
          0.0000019077424238277505 0.0000018693372051039917 0.000001907742414457232 0.0000018443278368648209 0.0000018443277273552138 0.00000184432769205156
          0.000001710940215823933 0.000001658683363392064 0.0000017109400552933238 0.0000016586830795737863 0.0000017109397558992232 0.000001658682700555078
          0.0000022287453847221153 0.00000233260546146134 0.0000022422107927930436 0.00000222874570212338 0.0000023326059829023296 0.0000022422112790449256
          0.0000022287469887195576 0.0000023326074765582565 0.0000022422127391835207 0.0000022578434505365434 0.0000022578439433926727 0.000002257845508639538
          0.0000018239589822540558 0.0000018239588863975902 0.0000018239588039726333 0.000002301391976270442 0.000002337342759931585 0.000002301392199132621
          0.000002337343068761205 0.0000023013930119037285 0.0000023373442692626497 0.0000019051042795497076 0.0000019216704555880626 0.000001905104089905342
          0.0000019216704454740255 0.0000019051041452322622 0.0000019216705286661935 0.000001941924843130618 0.00000194192476815212 0.000001941924905817809
          0.0000019987739374012603 0.0000020096806591595787 0.000001998773793464012 0.0000020096805863972543 0.0000019987739761251706 0.000002009680753863432
          0.0000016178332357503327 0.0000016419111055379126 0.0000017219771348920185 0.0000017006241951600167 0.0000016178330806742545 0.000001641910952177565
          0.0000017219771496670967 0.0000017006241456291035 0.0000016178325444130375 0.0000016419105171739308 0.0000017219768928028945 0.0000017006243212480884
          0.000001924388752738513 0.0000019243888408820945 0.000001924389376738692 0.0000016517342079067374 0.0000016517339465409486 0.000001651733282892464
          0.0000013604728962980983 0.0000013720367750172982 0.000001360472441295918 0.0000013720361659827712 0.0000013604712937005565 0.0000013720348823008194
          0.0000019659699370256054 0.0000019659698556795224 0.0000019659700381737365 0.0000025653912832407834 0.000002481739901356619 0.0000025653919023104834
          0.00000248174037544106 0.000002565393472838901 0.0000024817419779038375 0.0000012489085525429031 0.000001177234660241873 0.00000124890811284636
          0.0000011772342189010478 0.0000012489069531428696 0.0000011772329041753679 0.0000023460824614373363 0.0000023460830142714786 0.000002346084569482768
          0.000001974767076691406 0.0000020171061158655368 0.0000019747669884497294 0.000002017105987160262 0.0000019747671122851247 0.0000020171062125041165
          0.0000018281171932253302 0.0000019148838502856607 0.000001917579976397696 0.0000018245121559370412 0.0000018281172531341733 0.0000019148839415143033
          0.0000019175799842166743 0.0000018245122062355403 0.0000018281173179656012 0.000001914884232193863 0.0000019175803904270527 0.000001824512410393499
          0.000001349013548483965 0.0000013490130469177365 0.0000013490118423606316 0.000001814500361173068 0.0000017581885258930069 0.0000018145002804419825
          0.0000017581885069909692 0.0000018145003405492762 0.0000017581882435990382 0.000001413455861014932 0.0000014894916525072742 0.0000014134555330294184
          0.000001489491301748173 0.000001413454636690211 0.0000014894906062436396 0.0000014831358996493394 0.0000014831356182517745 0.000001483134883394901
          0.0000023758931716530415 0.000002375893473469282 0.00000237589460650395 0.0000013382747088672583 0.0000013382743058074615 0.0000013382731972544974
          0.0000017350553179709123 0.0000017350550994988151 0.0000017350546370012502 0.0000015970554103245466 0.000001597055160503413 0.0000015970543374257666
          0.0000013281596225813326 0.0000014218159254854515 0.0000013281591435300797 0.0000014218154535723966 0.0000013281580418756898 0.0000014218144784821628
          0.000001844982387478485 0.0000018449823934975555 0.0000018449826771360283 0.000001583869857121297 0.0000015838693983297577 0.0000015838686643819782
          0.0000024422333261556695 0.000002442233682123725 0.000002442235078122794 0.0000018056167843564832 0.0000018056165802468238 0.0000018056163352354182
          0.0000016811495040967569 0.0000016811494033230739 0.0000016811491686494176 0.000002026623751724699 0.000002026623610211376 0.0000020266238129037687
          0.000001582338510859602 0.0000015743646934115696 0.0000014816151365738485 0.0000015823382835951304 0.0000015743643633806167 0.0000014816148700126927
          0.0000015823377156306243 0.0000015743637621855114 0.0000014816141762710485 0.0000016502124891902906 0.0000016502121099631483 0.000001650211429744546
          0.000002475451702323819 0.000002419715055172121 0.000002475452083309336 0.0000024197154212901632 0.00000247545365262546 0.00000241971651322154
          0.0000017413418693170515 0.0000017413415796287774 0.0000017413412049535149 0.0000019190331053729536 0.0000019190330135715003 0.0000019190332291349255
          0.0000013809035910776428 0.000001380903236598939 0.0000013809024215601941 0.000001760779836872125 0.0000017607796514966272 0.0000017607797595038716
          0.0000020531896871981444 0.0000021498700760702015 0.0000020531900230044922 0.000002149870429654795 0.0000020531913216510954 0.0000021498716281148843
          0.000001838599819279728 0.000001838599612875714 0.000001838599510270212 0.000001655761858935992 0.0000016557617239386546 0.0000016557615330814399
          0.0000023270825999507053 0.0000023270826985747168 0.0000023270834223888287 0.0000025584012092151192 0.0000025584016275007617 0.000002558403196893318
          0.00000179274922333505 0.000001792748848881523 0.0000017927486532539337 0.0000024691582965406733 0.000002469158671718389 0.0000024691600998330567
          0.000002406258868742187 0.0000023828696158214476 0.000002406259076852623 0.000002382869852707079 0.000002406260340235663 0.0000023828711897346813
          0.0000022809130102503686 0.0000022809133340669727 0.0000022809140939874 0.0000024410967234892592 0.0000024848151326311198 0.0000024410970939832983
          0.000002484815592866989 0.0000024410983665305175 0.0000024848168395657622 0.000002572549780174018 0.000002572550168427205 0.000002572551146076723
          0.0000025972806294519277 0.000002597281019496037 0.0000025972823059783398 0.0000023715143289459274 0.000002371514543328368 0.000002371515464972134
          0.0000024881675742075325 0.0000024589080917547306 0.0000024881680793269277 0.000002458908438293597 0.0000024881697158180023 0.0000024589094695295157
          0.0000024279429213216275 0.000002427943017732802 0.0000024279441358763303 0.000002369679483231304 0.000002369679603824151 0.00000236968011850067
        </DataArray>
        <DataArray type="Float64" Name="disp_y" format="ascii" RangeMin="-5.020455850995723e-7" RangeMax="0">
          -3.2092663691124294e-7 -3.49412756037748e-7 -3.5110203945848506e-7 -3.247079786737738e-7 -3.2092745469655456e-7 -3.4941361269287436e-7
          -3.5110296213638407e-7 -3.2470880951774436e-7 -3.2092991992949105e-7 -3.494162164970322e-7 -3.5110560209166904e-7 -3.247112881583518e-7
          -2.003749599641315e-7 -2.2487286116322968e-7 -2.0382695702214678e-7 -1.791556015490038e-7 -2.0037539765975225e-7 -2.2487345373184214e-7
          -2.0382742097700148e-7 -1.7915596446552552e-7 -2.003766573307711e-7 -2.2487525666008122e-7 -2.0382886298686024e-7 -1.7915686449252288e-7
          -5.020407130359211e-7 -4.981591016142828e-7 -5.02041886032839e-7 -4.981603552068807e-7 -5.020455850995723e-7 -4.98164074393907e-7
          -5.339011742506084e-8 -2.6154617364336557e-8 -2.5797894481378098e-8 -5.1230398285156604e-8 -5.339026819432975e-8 -2.6154641343951333e-8
          -2.5797874055964158e-8 -5.123050966541358e-8 -5.3390779621252454e-8 -2.6154642551618236e-8 -2.5797468806389275e-8 -5.123114259806355e-8
          -1.8862609434298403e-7 -1.6613742322162516e-7 -1.8862655568063575e-7 -1.6613781721890786e-7 -1.8862777024861322e-7 -1.6613888389781464e-7
          -2.679032413359335e-7 -2.960066348676411e-7 -3.1337245270459394e-7 -2.823264311313677e-7 -2.679038453356057e-7 -2.960073918347885e-7
          -3.1337317870277074e-7 -2.823270410196188e-7 -2.679055551088625e-7 -2.9600944765290016e-7 -3.133754584387498e-7 -2.8232887012825206e-7
          -8.364913513192362e-8 -9.648727255120189e-8 -1.208962730744341e-7 -1.1553841935974306e-7 -8.364929590821883e-8 -9.648751077255586e-8
          -1.2089654927775442e-7 -1.1553870631736812e-7 -8.364982898961864e-8 -9.648826555923043e-8 -1.2089729913887465e-7 -1.155394426507751e-7
          -3.0089941237793523e-7 -2.9556389655458935e-7 -3.0090017544411907e-7 -2.9556456951637197e-7 -3.0090241643823015e-7 -2.95566636827265e-7
          -5.420359269015842e-8 -2.6688177118376663e-8 -2.6667216795007475e-8 -5.376375473859607e-8 -5.4203683158927814e-8 -2.668816040792694e-8
          -2.666727863070054e-8 -5.3763845683789725e-8 -5.420397475536529e-8 -2.6688096510463815e-8 -2.666737105279929e-8 -5.376415144864151e-8
          -4.3187277867457956e-7 -4.0353768836306125e-7 -4.0092747236305253e-7 -4.3187379835932115e-7 -4.035385764129711e-7 -4.0092830555398673e-7
          -4.3187676283391175e-7 -4.0354138678217375e-7 -4.0093099440104076e-7 -2.6144047557112764e-8 -2.7386545184680863e-8 -5.339997603245961e-8
          -5.161743208524885e-8 -2.614409175985427e-8 -2.7386591863008516e-8 -5.3400104197886645e-8 -5.161754163419402e-8 -2.6144269596423545e-8
          -2.7386661696318132e-8 -5.340049752690984e-8 -5.161779595910113e-8 -1.6538511938349152e-7 -1.7005647941430921e-7 -1.9629633385041027e-7
          -1.8952513950230637e-7 -1.6538544896689423e-7 -1.7005686018337593e-7 -1.962967794145477e-7 -1.89525586766179e-7 -1.6538639724743895e-7
          -1.70057951235019e-7 -1.9629810648481232e-7 -1.8952692008983886e-7 -8.250564982896606e-8 -8.250585614412122e-8 -8.250643583965283e-8
          -2.5369975627143427e-7 -2.6036308020475956e-7 -2.8215321872772957e-7 -2.5370025787846743e-7 -2.6036371751770026e-7 -2.8215400540928335e-7
          -2.5370233687329166e-7 -2.6036592437196587e-7 -2.8215619221809985e-7 -1.3918967535979895e-7 -1.434856513561649e-7 -1.3918991930788304e-7
          -1.434858863721355e-7 -1.3919068654416239e-7 -1.4348675269872367e-7 -5.4335033626052034e-8 -8.156326224758243e-8 -8.453802843652768e-8
          -5.668038616612847e-8 -5.4335176640458936e-8 -8.156341771321334e-8 -8.453824229288007e-8 -5.6680497269235826e-8 -5.433560687057706e-8
          -8.156397997202091e-8 -8.453877162606927e-8 -5.668099958589181e-8 -2.919442748404635e-8 -5.727513375713687e-8 -6.375325956218628e-8
          -3.823905322480753e-8 -2.9194402432436997e-8 -5.727519470108249e-8 -6.375334395711477e-8 -3.823902651688802e-8 -2.9194054837083712e-8
          -5.727555313711773e-8 -6.3753724191638e-8 -3.823906985982535e-8 -1.3489667585869697e-7 -1.4064237587999289e-7 -1.5657704614952447e-7
          -1.3489699751244097e-7 -1.4064265848062026e-7 -1.5657743823108333e-7 -1.3489789210563917e-7 -1.4064361595408548e-7 -1.565784268526498e-7
          0 0 0 0 0 0
          -2.0941410857128136e-7 -2.0337740581328313e-7 -1.7458519371989773e-7 -1.7344557843741687e-7 -2.0941462693089505e-7 -2.033778813011485e-7
          -1.745855986425574e-7 -1.734460091066783e-7 -2.0941618826358932e-7 -2.033791482507611e-7 -1.7458683431604131e-7 -1.734472575484995e-7
          -1.0904557749883443e-7 -1.1244527499167969e-7 -1.0904581617631086e-7 -1.1244550835146818e-7 -1.0904657634659244e-7 -1.1244620281448165e-7
          -1.749243992474573e-7 -2.1249041732160247e-7 -1.7492465418571986e-7 -2.1249075666239714e-7 -1.749254602176653e-7 -2.1249176000611055e-7
          -1.6603136551137405e-7 -1.9167968859085007e-7 -1.6603169017848546e-7 -1.9168015103953606e-7 -1.6603270045108841e-7 -1.9168164175783533e-7
          -2.757951143945468e-7 -2.8543273142570287e-7 -2.785381860532356e-7 -2.6067934758649344e-7 -2.7579574326806415e-7 -2.8543344129834694e-7
          -2.785388956244701e-7 -2.6068001290815936e-7 -2.7579768875347927e-7 -2.854355198243636e-7 -2.785409506198886e-7 -2.606819668358629e-7
          -2.7118709305500444e-7 -2.927030170534475e-7 -2.7118783314832337e-7 -2.9270388399519444e-7 -2.711899166972687e-7 -2.92706528653683e-7
          -1.4370876656478966e-7 -1.4370900373227572e-7 -1.4370972724921562e-7 -2.22045818631133e-7 -2.312209042116281e-7 -2.2204629153014109e-7
          -2.3122141929646454e-7 -2.2204780066096312e-7 -2.3122312851294411e-7 -2.0166336552039174e-7 -2.349367870127977e-7 -2.428554019924855e-7
          -2.016637161728025e-7 -2.3493729367688786e-7 -2.4285586391106643e-7 -2.0166475939832648e-7 -2.349385027862573e-7 -2.4285738735689033e-7
          -1.094167110351288e-7 -1.3773356118745017e-7 -1.1482946813279153e-7 -1.0941687709774475e-7 -1.377337909615632e-7 -1.1482962395932275e-7
          -1.0941731650425637e-7 -1.3773449246542805e-7 -1.148300414744734e-7 -3.046668647851215e-7 -3.046676046808439e-7 -3.0467011150663515e-7
          0 0 0 -3.5635256760381943e-7 -3.2959142578918643e-7 -3.5635332170678125e-7
          -3.295920897118857e-7 -3.5635565170460695e-7 -3.295942167161776e-7 -1.6810955290735803e-7 -1.681098247986747e-7 -1.6811072796630806e-7
          -2.695686246589867e-7 -2.5863547937433854e-7 -2.420500568092436e-7 -2.695693173872177e-7 -2.5863609524842985e-7 -2.420506768647287e-7
          -2.695713374693225e-7 -2.586380634532415e-7 -2.4205257789932993e-7 -1.4578558866487946e-7 -1.390398058557016e-7 -1.457859149296827e-7
          -1.39040080542401e-7 -1.457869232047693e-7 -1.3904093549737977e-7 -4.673131465501758e-7 -4.53111573751359e-7 -4.3342855577388115e-7
          -4.3428249188975483e-7 -4.673143741441961e-7 -4.5311275179256723e-7 -4.3342977539186197e-7 -4.3428372783722395e-7 -4.673180670953819e-7
          -4.531163363946344e-7 -4.33433706402209e-7 -4.342872506571714e-7 -4.0838956325332037e-7 -4.078538237426849e-7 -3.795198965214692e-7
          -3.79723562649645e-7 -4.083905487624086e-7 -4.078548523585287e-7 -3.7952079705535644e-7 -3.797244989909511e-7 -4.083935160183837e-7
          -4.0785788957766913e-7 -3.795236605387326e-7 -3.797271923218812e-7 -3.8119603877342295e-7 -3.69153961741424e-7 -3.499345939412709e-7
          -3.811968169306188e-7 -3.691547537245036e-7 -3.4993538182032276e-7 -3.811989811758802e-7 -3.6915694722521536e-7 -3.4993766296760524e-7
          -2.3774574914977264e-7 -2.3774624732768853e-7 -2.3774767723701463e-7 -2.5711027606072416e-7 -2.5711073277469105e-7 -2.5711199553540274e-7
          -4.6356056912820966e-7 -4.3782596377142664e-7 -4.6356171034542857e-7 -4.378271915998125e-7 -4.635651007302433e-7 -4.3783062081209265e-7
          -4.0616935805885237e-7 -4.365548406300092e-7 -4.0617038486602407e-7 -4.3655584371859067e-7 -4.061738036769183e-7 -4.36558967062803e-7
          -2.473414458448935e-7 -2.4734193457336324e-7 -2.4734355845943796e-7 -3.4275369021995785e-7 -3.543604808467432e-7 -3.757388998170753e-7
          -3.7833748206641486e-7 -3.4275447935228785e-7 -3.543613073898662e-7 -3.757397370177359e-7 -3.7833838640518923e-7 -3.42756896391975e-7
          -3.543635844012992e-7 -3.757424054670429e-7 -3.7834107235485186e-7 -3.4159173633919585e-7 -3.415924732905789e-7 -3.415947638504193e-7
          -3.092821563547833e-7 -3.0928284649251845e-7 -3.0928502317155433e-7 -2.3199251501835835e-7 -2.5497693918559194e-7 -2.3199311192791698e-7
          -2.5497758487823504e-7 -2.3199490022666423e-7 -2.549793932147426e-7 -2.896892839072411e-7 -2.8968998966238983e-7 -2.8969223201975735e-7
          -2.6790806176729917e-7 -2.4720214673208655e-7 -2.679087428270775e-7 -2.472028202126011e-7 -2.6791074450923813e-7 -2.4720462937802255e-7
          -3.0118370187641766e-7 -3.0118447472574183e-7 -3.011869360830722e-7 -2.6055653794371544e-7 -2.429093849088778e-7 -2.605571288281211e-7
          -2.429099419810927e-7 -2.605589678172578e-7 -2.4291172461537113e-7 -2.8258082577363114e-7 -2.825814390013916e-7 -2.8258331938828467e-7
          -4.069087972951727e-7 -4.0690971890596465e-7 -4.069125937298529e-7 -2.2798064778791335e-7 -2.2798120706492988e-7 -2.2798291157430944e-7
          -3.1942820320245076e-7 -3.1468467691838767e-7 -3.1942908179055893e-7 -3.146854978488821e-7 -3.1943183067158385e-7 -3.1468822256819884e-7
          -2.1218058700917315e-7 -2.1218114584316239e-7 -2.1218295373649748e-7 -1.265914508466203e-7 -1.5909882193872916e-7 -1.265917554302496e-7
          -1.5909914647208192e-7 -1.2659284651870701e-7 -1.5910022120590852e-7 -5.116048588455101e-8 -7.499428470570072e-8 -6.918321343021375e-8
          -5.116055664281029e-8 -7.499437247474353e-8 -6.918329459122276e-8 -5.116073219017477e-8 -7.499488610632838e-8 -6.9183689776458e-8
          -3.461936532282815e-8 -2.8221564263052973e-8 -6.424759157948958e-8 -3.461945164042941e-8 -2.8221655004864605e-8 -6.424776132104674e-8
          -3.461963643870829e-8 -2.8221806812297046e-8 -6.424824790244244e-8 -3.3946452241564816e-7 -3.281987812866395e-7 -3.3946534701744143e-7
          -3.28199507903818e-7 -3.394676934656756e-7 -3.282019357263139e-7 -2.4372745446957045e-7 -2.3829459763419927e-7 -2.0504981065055172e-7
          -2.437280073456402e-7 -2.3829520964627658e-7 -2.0505025151246302e-7 -2.4372962444679107e-7 -2.382971691476453e-7 -2.050515052212949e-7
          -1.1873194939883395e-7 -1.4975323855990447e-7 -1.1873224438930491e-7 -1.4975353491984142e-7 -1.1873305469678696e-7 -1.4975461945754533e-7
          -4.965613928841957e-7 -4.965624755741388e-7 -4.965657946419231e-7 0 0 0
          0 0 0 0 0 0
          0 0 0 -1.2069655671721323e-7 -1.1247955889782676e-7 -1.2069684229995186e-7
          -1.1247979255690747e-7 -1.2069761044383126e-7 -1.1248053999437656e-7 -1.473295912969061e-7 -1.4732988444730392e-7 -1.4733091299224206e-7
          0 -2.6714516346610335e-8 0 -2.6714586848871953e-8 0 -2.671466743730712e-8
          0 0 0 -3.180669273530999e-7 -3.180676222785798e-7 -3.1806982433637985e-7
          0 0 0 -2.9234537769543804e-7 -2.9234599297145633e-7 -2.9234789429876464e-7
          -2.6617759225418005e-7 -2.6617815119192997e-7 -2.6617991140844835e-7 -2.7313709578492982e-8 0 -2.7313612269072345e-8
          0 -2.7312737470798465e-8 0 -2.0883782116793134e-7 -2.2428392006481708e-7 -2.088382491247525e-7
          -2.2428438090455257e-7 -2.0883972158506146e-7 -2.2428607664644203e-7 -2.80425024638526e-7 -2.8042569933092777e-7 -2.8042783859275077e-7
          -4.367206483872681e-7 -4.367216497561751e-7 -4.3672477475090573e-7 -2.435101614200431e-7 -2.435106554393921e-7 -2.4351241842662564e-7
          -2.1332491571919492e-7 -2.1332528172518456e-7 -2.1332663145403655e-7 -3.1965886870020716e-7 -3.196597720369756e-7 -3.196623293727228e-7
          -3.4903739413737453e-7 -3.490383551524619e-7 -3.4904132599287693e-7 -1.5262400216259466e-7 -1.7541184946644124e-7 -1.526242957271116e-7
          -1.7541221930191455e-7 -1.526252434264568e-7 -1.7541336563831496e-7 -1.2706775787774906e-7 -1.2706801195167987e-7 -1.2706885675453384e-7
          -8.410309274267221e-8 -1.0209233232857005e-7 -8.4103279307684e-8 -1.0209256645063366e-7 -8.410385320238021e-8 -1.0209328825010745e-7
          -4.3487342507146286e-7 -4.603893970271943e-7 -4.638897365972909e-7 -4.3487441099798596e-7 -4.603904488525394e-7 -4.638908041053371e-7
          -4.348774379399258e-7 -4.6039353053973035e-7 -4.6389396814242e-7 -4.940612496323076e-7 -4.940622925154304e-7 -4.940654285190116e-7
          -1.0086865206307538e-7 -1.0086885921538413e-7 -1.0086952954739557e-7 -2.504269713793955e-7 -2.7688315276462625e-7 -2.504274798331873e-7
          -2.7688369733116113e-7 -2.504291444843729e-7 -2.7688532744751056e-7 -9.037451173586703e-8 -1.16230304874395e-7 -9.03746368991712e-8
          -1.1623051480425013e-7 -9.037512204122307e-8 -1.1623124337845489e-7 -1.4052504632541913e-7 -1.4052532398358464e-7 -1.4052623915874754e-7
          -1.1000876838595421e-7 -1.3408844857996345e-7 -1.1000895867785569e-7 -1.3408873281425588e-7 -1.1000967994918674e-7 -1.3408960398559845e-7
          -3.676206841944625e-7 -3.4602358373508854e-7 -3.5691289090531235e-7 -3.785821692925655e-7 -3.6762175868534455e-7 -3.4602461616118813e-7
          -3.5691389611864066e-7 -3.7858330827256755e-7 -3.6762475260967085e-7 -3.460278814989274e-7 -3.569167232982439e-7 -3.7858660676952517e-7
          -3.774905220620551e-7 -3.7749149743867726e-7 -3.7749451373227066e-7 -2.9733566558730547e-7 -2.973364004902636e-7 -2.9733857000854576e-7
          -1.6382373880009494e-7 -1.8356537733306837e-7 -1.6382401283036642e-7 -1.835656630875325e-7 -1.6382473756865377e-7 -1.8356679839018337e-7
          -1.9325864846843195e-7 -1.9325911453107104e-7 -1.9326051642889737e-7 -2.7269880218637064e-7 -2.6772441405332193e-7 -2.7269942986188736e-7
          -2.6772500562419416e-7 -2.7270131635479993e-7 -2.677268304869308e-7 -8.28879437195447e-8 -8.82980159648713e-8 -8.288806110274615e-8
          -8.829812451312007e-8 -8.288845827212784e-8 -8.829844193115526e-8 -4.899270478156543e-7 -4.89928168883778e-7 -4.899314741785822e-7
          -1.6044845187914868e-7 -1.507342257388237e-7 -1.6044876023034173e-7 -1.5073454966647875e-7 -1.6044979624411287e-7 -1.5073550412074003e-7
          -3.1596854216292763e-7 -3.230070594875719e-7 -3.4942336361885777e-7 -3.4268899609153707e-7 -3.159694041560167e-7 -3.230078747801595e-7
          -3.4942420996819337e-7 -3.4268995694474625e-7 -3.159719632970608e-7 -3.2301033308982003e-7 -3.494268341282866e-7 -3.4269275891808816e-7
          -1.3658830051088084e-7 -1.3658849778547907e-7 -1.3658918259840117e-7 -3.741502665102682e-7 -3.866926564459278e-7 -3.741512527931776e-7
          -3.8669378296381824e-7 -3.741542746892895e-7 -3.8669705618418774e-7 -8.238805589104145e-8 -5.305082011689521e-8 -8.238822296949049e-8
          -5.305092295584155e-8 -8.238866243908986e-8 -5.3051249693225925e-8 -2.639677653999735e-8 -2.6396822429523093e-8 -2.6396988656049746e-8
          -3.0049019748162266e-7 -3.0049080984316765e-7 -3.00492732501333e-7 -1.0838385951664754e-7 -1.0838402978708672e-7 -1.0838461591027846e-7
          -3.3261739945243165e-7 -3.326182734356302e-7 -3.326209509454497e-7 -3.916018775248534e-7 -3.916029890955261e-7 -3.9160629907475634e-7
          -8.141121591966385e-8 -1.112478551475822e-7 -8.141133836741642e-8 -1.1124802558593126e-7 -8.141172711096878e-8 -1.1124866638905492e-7
          -4.06219287358472e-7 -4.062204140440709e-7 -4.0622390333491383e-7 -3.378223020845009e-7 -3.3782314079862464e-7 -3.37826261553196e-7
          -3.2414317664473445e-7 -3.241438993961993e-7 -3.241461398775842e-7 -7.461789319535578e-8 -7.461801925373564e-8 -7.461850669356311e-8
          -4.0108252154012896e-7 -4.010836913105558e-7 -4.010875535517777e-7 -1.752201545407279e-7 -1.7522049007738263e-7 -1.7522164141944426e-7
          0 -2.604431945555694e-8 0 0 -2.604434560566964e-8 0
          0 -2.6044518917307355e-8 0 -3.2347393676496515e-7 -3.2347476772907043e-7 -3.2347755981554685e-7
          -2.9401073160682666e-7 -2.880999800036779e-7 -2.940113175803171e-7 -2.8810052746029485e-7 -2.940131747578339e-7 -2.881022838233121e-7
          -3.065561900404262e-7 -3.065569441103402e-7 -3.0655945927668205e-7 -2.9874635762842615e-7 -2.987470439593202e-7 -2.98749219690937e-7
          0 0 0 -4.061561739396187e-7 -4.0615720044411005e-7 -4.061608178849438e-7
          -4.6716732017457787e-7 -4.661373470531969e-7 -4.6716845897239984e-7 -4.6613845269187405e-7 -4.6717214288145706e-7 -4.6614177387177435e-7
          -2.908857078719035e-7 -2.9088639100412687e-7 -2.908885686674273e-7 -4.260218155045383e-7 -4.2602304381630235e-7 -4.260265508835231e-7
          -4.710738297141408e-8 -4.7107475083191336e-8 -4.7107926103680615e-8 -3.0126797087795795e-7 -3.012685615467031e-7 -3.012703852231213e-7
          -5.5363492332538394e-8 -5.536359259444002e-8 -5.5363974110376635e-8 -3.996050380752629e-7 -3.9960585002626734e-7 -3.9960842371977256e-7
          -2.6859709588542186e-7 -2.401433282158819e-7 -2.6859762207078693e-7 -2.4014384654661154e-7 -2.6859926803523424e-7 -2.4014559213555586e-7
          -8.293755284370842e-8 -8.293776237168738e-8 -8.29384117748138e-8 -1.2828246817337768e-7 -1.6432807685779233e-7 -1.2828273412192068e-7
          -1.6432842233709517e-7 -1.2828374997911882e-7 -1.6432936439174142e-7 -2.1428502331239932e-7 -2.1428540746631145e-7 -2.1428667545372744e-7
          -1.86171164113675e-7 -1.8617143502598077e-7 -1.8617228458083586e-7 -1.0000366041173281e-7 -1.0000379707331748e-7 -1.0000404800669377e-7
          0 -3.586044276079621e-8 0 -3.586049576250165e-8 0 -3.5860528497028916e-8
          -1.0871506034441296e-7 -1.0871526552787968e-7 -1.0871540158414091e-7 -6.109720579066366e-8 -6.10974629402827e-8 -6.109856028022124e-8
        </DataArray>
        <DataArray type="Float64" Name="disp_z" format="ascii" RangeMin="-1.7684172480147078e-8" RangeMax="0">
          0 0 0 0 -8.803168296958255e-9 -8.797867023561404e-9
          -8.79650999825079e-9 -8.801444544119948e-9 -1.760632635211999e-8 -1.7595702309917992e-8 -1.7593002397831693e-8 -1.7602887082866185e-8
          0 0 0 0 -8.823601436625816e-9 -8.819373643134016e-9
          -8.82101998712822e-9 -8.823775980251905e-9 -1.764718970182408e-8 -1.763881389512942e-8 -1.76419975952382e-8 -1.76476343388343e-8
          0 0 -8.758026638147093e-9 -8.762459613894371e-9 -1.751593251614015e-8 -1.752496646650155e-8
          0 0 0 0 -8.829961696030424e-9 -8.830746870450855e-9
          -8.832487482582126e-9 -8.832265415284745e-9 -1.7659877111812847e-8 -1.7661592523369904e-8 -1.7664996275094687e-8 -1.7664520197012325e-8
          0 0 -8.82114739200957e-9 -8.823528918513714e-9 -1.764227416369157e-8 -1.7647022471952868e-8
          0 0 0 0 -8.82365403584791e-9 -8.819974045276365e-9
          -8.818551490019702e-9 -8.82558127937233e-9 -1.7646972641200226e-8 -1.7640537127410312e-8 -1.7636920322802005e-8 -1.7651217651788587e-8
          0 0 0 0 -8.830664391230789e-9 -8.828694217272832e-9
          -8.827611223960774e-9 -8.829301226031391e-9 -1.7661297755754202e-8 -1.7657342695188332e-8 -1.7655226962201123e-8 -1.765859588671801e-8
          0 0 -8.80550321570804e-9 -8.807092970127048e-9 -1.7611019217514366e-8 -1.7614172275616322e-8
          0 0 0 0 -8.8356777047284e-9 -8.836487470389658e-9
          -8.834339211989714e-9 -8.833618016858004e-9 -1.767129943017554e-8 -1.767304200861209e-8 -1.7668720002366154e-8 -1.766723678864462e-8
          0 0 0 -8.78621086069979e-9 -8.791959653331061e-9 -8.795605202449009e-9
          -1.757245800371008e-8 -1.7583924931339105e-8 -1.759112281515146e-8 0 0 0
          0 -8.8300613185458e-9 -8.829461850593079e-9 -8.829067741581313e-9 -8.829799250683865e-9 -1.7660143383739694e-8
          -1.7658979142071588e-8 -1.765804553285094e-8 -1.7659556789598467e-8 0 0 0
          0 -8.827971387353107e-9 -8.825619369246896e-9 -8.823488736645374e-9 -8.826150600133943e-9 -1.7655903783171234e-8
          -1.7651271929970047e-8 -1.7647033247150254e-8 -1.7652225571653987e-8 0 -8.828806333473353e-9 -1.7657620705761665e-8
          0 0 0 -8.824097405806675e-9 -8.820223206370348e-9 -8.81698740554913e-9
          -1.7648822616505414e-8 -1.764028843679244e-8 -1.763380733739837e-8 0 0 -8.829670465691196e-9
          -8.827613935864395e-9 -1.765935480946618e-8 -1.765523413899344e-8 0 0 0
          0 -8.82907966897204e-9 -8.828069280680757e-9 -8.827413106818562e-9 -8.828394736274646e-9 -1.7658151779000733e-8
          -1.7656178333516185e-8 -1.7654865353850828e-8 -1.7656767106459057e-8 0 0 0
          0 -8.838977400189363e-9 -8.837960270194135e-9 -8.839652250010748e-9 -8.841699933058155e-9 -1.7678006979267353e-8
          -1.7675854692860707e-8 -1.7679270486813154e-8 -1.7683490613684156e-8 0 0 0
          -8.825114237358315e-9 -8.825673879418344e-9 -8.82351410558262e-9 -1.7650234041812796e-8 -1.7651361563634007e-8 -1.764707576578568e-8
          0 0 -8.842015702050232e-9 -8.838395847475396e-9 -1.7684172480147078e-8 -1.7676601286512956e-8
          0 0 0 0 -8.818800340292431e-9 -8.820882103121992e-9
          -8.82332333817808e-9 -8.822521834853269e-9 -1.7637587282981405e-8 -1.7641723692865408e-8 -1.7646670513216177e-8 -1.7645013177840134e-8
          0 0 -8.826704279859163e-9 -8.827508194562947e-9 -1.7653439158670904e-8 -1.7655008748053386e-8
          0 0 -8.833731698617538e-9 -8.831631634510793e-9 -1.766740525839647e-8 -1.7663253730400695e-8
          0 0 -8.822874851808284e-9 -8.820521151003018e-9 -1.764575310071476e-8 -1.764109923605872e-8
          0 0 0 0 -8.809632595381622e-9 -8.807894921721038e-9
          -8.808649310189942e-9 -8.811426305367524e-9 -1.761927825076961e-8 -1.7615751583814366e-8 -1.7617329506255185e-8 -1.762286270793581e-8
          0 0 -8.816300838581888e-9 -8.812933833807073e-9 -1.763276894261344e-8 -1.7625888220433286e-8
          0 -8.836067311412487e-9 -1.767213323401075e-8 0 0 -8.821002886181678e-9
          -8.818258397766144e-9 -1.7642079998239428e-8 -1.7636529532457785e-8 0 0 0
          -8.82842795507093e-9 -8.826092890497826e-9 -8.827740681859767e-9 -1.7656845224104907e-8 -1.765210030514437e-8 -1.765551090577581e-8
          0 0 0 -8.835532434980001e-9 -8.834130266071875e-9 -8.837491683084833e-9
          -1.767104704378747e-8 -1.7668290501396967e-8 -1.767494400209117e-8 0 -8.81456738775148e-9 -1.762924510139304e-8
          0 -8.83635355961282e-9 -1.7672738995761227e-8 0 0 -8.80730036563601e-9
          -8.81292344338409e-9 -1.761467942434763e-8 -1.7625929599899778e-8 0 -8.831707874450706e-9 -1.7663399594216213e-8
          0 0 0 -8.81132488196995e-9 -8.814555536089907e-9 -8.815409191478762e-9
          -1.762260445059938e-8 -1.7629063344019912e-8 -1.7630904409596367e-8 0 0 -8.825054710035248e-9
          -8.824806904895388e-9 -1.7650137808795908e-8 -1.7649615842578727e-8 0 0 0
          0 -8.767553555814536e-9 -8.769344660281094e-9 -8.775083368444366e-9 -8.77659499630794e-9 -1.7535149135330066e-8
          -1.753868271588045e-8 -1.7550348834151638e-8 -1.7553195229507846e-8 0 0 0
          0 -8.786461851278432e-9 -8.784665210700643e-9 -8.790876299079165e-9 -8.79228116188236e-9 -1.7572931384914558e-8
          -1.756928075498835e-8 -1.7581696151841698e-8 -1.758465272316037e-8 0 0 0
          -8.802132064321391e-9 -8.801227142118526e-9 -8.805723284645939e-9 -1.7604291772456593e-8 -1.7602491535514967e-8 -1.7611343601127403e-8
          0 -8.822502963336732e-9 -1.764496790071813e-8 0 -8.829566139447723e-9 -1.7659059167016198e-8
          0 0 -8.766189993582554e-9 -8.774214643366563e-9 -1.753202157789958e-8 -1.754834171343944e-8
          0 0 -8.78370199186893e-9 -8.778398024353604e-9 -1.7567452793874363e-8 -1.755676617781876e-8
          0 -8.818523977679466e-9 -1.7637015906043317e-8 0 0 0
          0 -8.801484602612994e-9 -8.801352031824449e-9 -8.797528382967429e-9 -8.794570251970528e-9 -1.7602954452295385e-8
          -1.760277516143358e-8 -1.7594996029256695e-8 -1.7589134734247025e-8 0 -8.804605792672732e-9 -1.7609169827134654e-8
          0 -8.806852028146916e-9 -1.7613764153606387e-8 0 0 -8.81484653022409e-9
          -8.812469395393175e-9 -1.7629623437440857e-8 -1.7624961432352084e-8 0 -8.810523240500274e-9 -1.7621066635359474e-8
          0 0 -8.810224942761843e-9 -8.813040491915799e-9 -1.7620444166367337e-8 -1.7626129779041235e-8
          0 -8.809637049147465e-9 -1.7619002642030445e-8 0 0 -8.812577602679475e-9
          -8.814381209003753e-9 -1.762520017885995e-8 -1.762875095652803e-8 0 -8.810078754200731e-9 -1.762014369885988e-8
          0 -8.788754598536992e-9 -1.757748463929233e-8 0 -8.815837210026657e-9 -1.7631710170407176e-8
          0 0 -8.806292714970027e-9 -8.808725200118507e-9 -1.7612822874498176e-8 -1.7617490527113403e-8
          0 -8.81756563020578e-9 -1.763514375027985e-8 0 0 -8.830302846806431e-9
          -8.826728385114833e-9 -1.7660643294888122e-8 -1.765338295155462e-8 0 0 0
          -8.830853404039273e-9 -8.829554445802286e-9 -8.830654748785222e-9 -1.766167591074504e-8 -1.7659113132664285e-8 -1.7661442652080784e-8
          0 0 0 -8.828897927240813e-9 -8.829296790269907e-9 -8.827853096765276e-9
          -1.7657828225529464e-8 -1.7658645743433e-8 -1.765562621303248e-8 0 0 -8.804342067483842e-9
          -8.810589753863484e-9 -1.7608709957607873e-8 -1.762102517536342e-8 0 0 0
          -8.825684575757167e-9 -8.823122940852566e-9 -8.827749148595869e-9 -1.7651422816469586e-8 -1.7646171868972377e-8 -1.7655645558922415e-8
          0 0 -8.82884368534298e-9 -8.825770519716577e-9 -1.7657841769105156e-8 -1.765154019341793e-8
          0 -8.766260068095911e-9 -1.753243026187657e-8 0 0 -8.829064054480497e-9
          -8.82869907820463e-9 -1.765807819750088e-8 -1.7657324385614977e-8 0 0 -8.829102577929286e-9
          -8.830078177912476e-9 -1.7658183623925995e-8 -1.7660148161637783e-8 0 0 -8.826708195833863e-9
          -8.826532898890146e-9 -1.7653429195166665e-8 -1.7653055155191547e-8 0 -8.825884105326006e-9 -1.765178082056917e-8
          0 0 -8.82955271815528e-9 -8.829720138366497e-9 -1.765906353060589e-8 -1.7659483102623793e-8
          0 -8.83044948676354e-9 -1.7660789668251613e-8 0 -8.807504450910086e-9 -1.7614933251520833e-8
          0 -8.831625700602122e-9 -1.7663238730797257e-8 0 -8.810530487767098e-9 -1.7621020730747314e-8
          0 -8.813506882230505e-9 -1.762702140798372e-8 0 0 -8.834201989618011e-9
          -8.832460110152466e-9 -1.76685173641614e-8 -1.7664895785252895e-8 0 0 -8.818636662878051e-9
          -8.817475743702276e-9 -1.76372558683325e-8 -1.763492466222641e-8 0 -8.8089463110894e-9 -1.76178632691531e-8
          0 -8.780232182062307e-9 -1.7560429620602486e-8 0 -8.815722621161138e-9 -1.7631390792004148e-8
          0 -8.824064022393032e-9 -1.76480441801335e-8 0 -8.804661093559446e-9 -1.7609153661512716e-8
          0 -8.798957238072066e-9 -1.759775447188771e-8 0 0 -8.823456869556669e-9
          -8.821631822789936e-9 -1.7646862176154343e-8 -1.7643204222212936e-8 0 -8.825226313180343e-9 -1.76504816279662e-8
          0 0 -8.8281905658781e-9 -8.827743610391987e-9 -1.7656401988457388e-8 -1.765544537589007e-8
          0 0 0 -8.782910287198518e-9 -8.780223552471969e-9 -8.776586763531526e-9
          -1.7565822229252246e-8 -1.7560427858871427e-8 -1.7553211001856315e-8 0 -8.769891845342873e-9 -1.7539766815006015e-8
          0 -8.82677488317682e-9 -1.7653566338869604e-8 0 0 -8.816555609782333e-9
          -8.814229841785003e-9 -1.7633154870623052e-8 -1.7628466004037194e-8 0 0 -8.82706261099963e-9
          -8.825804451817399e-9 -1.765411769354742e-8 -1.765157141569118e-8 0 -8.824300098710879e-9 -1.7648613986176754e-8
          0 0 -8.826289355746013e-9 -8.824843296785567e-9 -1.765255380286276e-8 -1.7649684332510123e-8
          0 0 0 0 -8.792563013405106e-9 -8.79761473535311e-9
          -8.794798273778721e-9 -8.789999615821784e-9 -1.7585019533236788e-8 -1.7595181667265832e-8 -1.7589727228527113e-8 -1.7579878597263204e-8
          0 -8.790646022904033e-9 -1.7581372379825667e-8 0 -8.807497745594315e-9 -1.761505037160517e-8
          0 0 -8.83014280886169e-9 -8.828750948120106e-9 -1.7660251212183085e-8 -1.7657737345519073e-8
          0 -8.819951630134413e-9 -1.763986521332579e-8 0 0 -8.821663787659354e-9
          -8.819424045277189e-9 -1.7643405119711925e-8 -1.7638974967475535e-8 0 0 -8.836691435924541e-9
          -8.838515660110565e-9 -1.767341422610634e-8 -1.76770059079157e-8 0 -8.77364681972948e-9 -1.7547324779703118e-8
          0 0 -8.822921863571759e-9 -8.823733009854824e-9 -1.7645830233361806e-8 -1.7647490366177184e-8
          0 0 0 0 -8.802421946697809e-9 -8.801301326306253e-9
          -8.796299735468315e-9 -8.796887254139154e-9 -1.7604900727634113e-8 -1.7602614411508145e-8 -1.7592549045597632e-8 -1.7593758478810173e-8
          0 -8.831752820588191e-9 -1.7663507172151354e-8 0 0 -8.790287838108656e-9
          -8.788117208358235e-9 -1.758050372779781e-8 -1.7576448677143627e-8 0 0 -8.832650317999094e-9
          -8.831915634151959e-9 -1.7665332620358592e-8 -1.7663805060380326e-8 0 -8.832615184086784e-9 -1.7665251668953763e-8
          0 -8.812304368868015e-9 -1.7624749224696175e-8 0 -8.833454359739199e-9 -1.7666912995049103e-8
          0 -8.79934611365671e-9 -1.7598639748909274e-8 0 -8.788089039778129e-9 -1.7576336334143542e-8
          0 0 -8.834683748485964e-9 -8.831343732342234e-9 -1.7669399273202208e-8 -1.7662669250207158e-8
          0 -8.782499951032636e-9 -1.75648661673812e-8 0 -8.800878333018495e-9 -1.7602121029188934e-8
          0 -8.809936633828566e-9 -1.761990607094395e-8 0 -8.82799182662932e-9 -1.7656037684389937e-8
          0 -8.783979769889214e-9 -1.7567941829340953e-8 0 -8.821873796602664e-9 -1.7643773524998514e-8
          0 0 0 -8.831282263850036e-9 -8.831097708364635e-9 -8.832692304515921e-9
          -1.7662542008306267e-8 -1.7662195577140853e-8 -1.7665382591229152e-8 0 -8.802722431521149e-9 -1.7605444546691975e-8
          0 0 -8.815335916484725e-9 -8.814537014318235e-9 -1.7630566220994315e-8 -1.762885759192954e-8
          0 -8.80448435117228e-9 -1.7608959534090883e-8 0 -8.805446048638706e-9 -1.7610888217613073e-8
          0 -8.834464654114694e-9 -1.7668855771878445e-8 0 -8.78270984472458e-9 -1.7565586168956944e-8
          0 0 -8.771062550693204e-9 -8.773518609912661e-9 -1.7542177964681588e-8 -1.754699730343831e-8
          0 -8.8067209343079e-9 -1.761338917595004e-8 0 -8.776923684234044e-9 -1.755349648904159e-8
          0 -8.834422921435493e-9 -1.766884014393544e-8 0 -8.817392549937069e-9 -1.7634848675963864e-8
          0 -8.82877040559845e-9 -1.7657578509236618e-8 0 -8.798465767603054e-9 -1.7597203850165256e-8
          0 0 -8.816949223563706e-9 -8.81954287054894e-9 -1.7633944909897496e-8 -1.7639000968861785e-8
          0 -8.830500623872625e-9 -1.7660921242565917e-8 0 0 -8.83280638334858e-9
          -8.830362458114785e-9 -1.766570210273672e-8 -1.7660635131508027e-8 0 -8.829026240442165e-9 -1.7657950501984043e-8
          0 -8.831845446806747e-9 -1.7663727121005444e-8 0 -8.83163320790337e-9 -1.766316561207853e-8
          0 0 -8.835113677115538e-9 -8.836190462040096e-9 -1.767006838279434e-8 -1.76724422908995e-8
          0 -8.832802744570174e-9 -1.766552330482242e-8 0 -8.833652359174282e-9 -1.7667214673183757e-8
        </DataArray>
      </PointData>
      <CellData>
        <DataArray type="Int32" Name="libmesh_elem_id" format="ascii" RangeMin="1392" RangeMax="3231">
          1392 1393 1402 1403 1418 1419
          1434 1435 1442 1443 1448 1449
          1454 1455 1478 1479 1500 1501
          1512 1513 1522 1523 1546 1547
          1572 1573 1582 1583 1590 1591
          1608 1609 1614 1615 1616 1617
          1630 1631 1638 1639 1650 1651
          1654 1655 1656 1657 1678 1679
          1682 1683 1684 1685 1704 1705
          1714 1715 1718 1719 1746 1747
          1760 1761 1762 1763 1772 1773
          1790 1791 1794 1795 1802 1803
          1816 1817 1824 1825 1832 1833
          1838 1839 1840 1841 1846 1847
          1848 1849 1852 1853 1856 1857
          1858 1859 1862 1863 1864 1865
          1874 1875 1876 1877 1878 1879
          1882 1883 1888 1889 1904 1905
          1906 1907 1910 1911 1916 1917
          1924 1925 1926 1927 1930 1931
          1936 1937 1946 1947 1950 1951
          1956 1957 1960 1961 1982 1983
          1996 1997 1998 1999 2026 2027
          2028 2029 2038 2039 2046 2047
          2048 2049 2052 2053 2054 2055
          2058 2059 2060 2061 2084 2085
          2088 2089 2096 2097 2102 2103
          2106 2107 2110 2111 2126 2127
          2136 2137 2138 2139 2144 2145
          2148 2149 2154 2155 2158 2159
          2162 2163 2164 2165 2170 2171
          2176 2177 2178 2179 2196 2197
          2200 2201 2202 2203 2204 2205
          2212 2213 2220 2221 2222 2223
          2224 2225 2226 2227 2228 2229
          2232 2233 2236 2237 2246 2247
          2250 2251 2252 2253 2254 2255
          2260 2261 2264 2265 2266 2267
          2274 2275 2282 2283 2308 2309
          2310 2311 2312 2313 2318 2319
          2324 2325 2328 2329 2346 2347
          2350 2351 2364 2365 2368 2369
          2370 2371 2402 2403 2416 2417
          2420 2421 2444 2445 2458 2459
          2462 2463 2466 2467 2468 2469
          2470 2471 2478 2479 2484 2485
          2488 2489 2490 2491 2502 2503
          2504 2505 2510 2511 2512 2513
          2524 2525 2550 2551 2566 2567
          2570 2571 2580 2581 2582 2583
          2602 2603 2608 2609 2616 2617
          2628 2629 2634 2635 2636 2637
          2640 2641 2642 2643 2644 2645
          2650 2651 2666 2667 2668 2669
          2684 2685 2690 2691 2696 2697
          2700 2701 2710 2711 2714 2715
          2716 2717 2726 2727 2750 2751
          2760 2761 2766 2767 2772 2773
          2782 2783 2798 2799 2802 2803
          2810 2811 2826 2827 2830 2831
          2838 2839 2860 2861 2868 2869
          2874 2875 2884 2885 2922 2923
          2928 2929 2934 2935 2938 2939
          2946 2947 2948 2949 2960 2961
          2962 2963 2964 2965 2974 2975
          2978 2979 2994 2995 2998 2999
          3004 3005 3008 3009 3020 3021
          3028 3029 3034 3035 3038 3039
          3040 3041 3042 3043 3050 3051
          3052 3053 3054 3055 3060 3061
          3066 3067 3072 3073 3076 3077
          3082 3083 3086 3087 3096 3097
          3100 3101 3102 3103 3112 3113
          3116 3117 3148 3149 3154 3155
          3158 3159 3166 3167 3182 3183
          3230 3231
        </DataArray>
        <DataArray type="Int32" Name="subdomain_id" format="ascii" RangeMin="107" RangeMax="107">
          107 107 107 107 107 107
          107 107 107 107 107 107
          107 107 107 107 107 107
          107 107 107 107 107 107
          107 107 107 107 107 107
          107 107 107 107 107 107
          107 107 107 107 107 107
          107 107 107 107 107 107
          107 107 107 107 107 107
          107 107 107 107 107 107
          107 107 107 107 107 107
          107 107 107 107 107 107
          107 107 107 107 107 107
          107 107 107 107 107 107
          107 107 107 107 107 107
          107 107 107 107 107 107
          107 107 107 107 107 107
          107 107 107 107 107 107
          107 107 107 107 107 107
          107 107 107 107 107 107
          107 107 107 107 107 107
          107 107 107 107 107 107
          107 107 107 107 107 107
          107 107 107 107 107 107
          107 107 107 107 107 107
          107 107 107 107 107 107
          107 107 107 107 107 107
          107 107 107 107 107 107
          107 107 107 107 107 107
          107 107 107 107 107 107
          107 107 107 107 107 107
          107 107 107 107 107 107
          107 107 107 107 107 107
          107 107 107 107 107 107
          107 107 107 107 107 107
          107 107 107 107 107 107
          107 107 107 107 107 107
          107 107 107 107 107 107
          107 107 107 107 107 107
          107 107 107 107 107 107
          107 107 107 107 107 107
          107 107 107 107 107 107
          107 107 107 107 107 107
          107 107 107 107 107 107
          107 107 107 107 107 107
          107 107 107 107 107 107
          107 107 107 107 107 107
          107 107 107 107 107 107
          107 107 107 107 107 107
          107 107 107 107 107 107
          107 107 107 107 107 107
          107 107 107 107 107 107
          107 107 107 107 107 107
          107 107 107 107 107 107
          107 107 107 107 107 107
          107 107 107 107 107 107
          107 107 107 107 107 107
          107 107 107 107 107 107
          107 107 107 107 107 107
          107 107 107 107 107 107
          107 107 107 107 107 107
          107 107 107 107 107 107
          107 107 107 107 107 107
          107 107 107 107 107 107
          107 107 107 107 107 107
          107 107 107 107 107 107
          107 107 107 107 107 107
          107 107 107 107 107 107
          107 107 107 107 107 107
          107 107 107 107 107 107
          107 107 107 107 107 107
          107 107 107 107 107 107
          107 107 107 107 107 107
          107 107 107 107 107 107
          107 107 107 107 107 107
          107 107
        </DataArray>
        <DataArray type="Int32" Name="processor_id" format="ascii" RangeMin="2" RangeMax="2">
          2 2 2 2 2 2
          2 2 2 2 2 2
          2 2 2 2 2 2
          2 2 2 2 2 2
          2 2 2 2 2 2
          2 2 2 2 2 2
          2 2 2 2 2 2
          2 2 2 2 2 2
          2 2 2 2 2 2
          2 2 2 2 2 2
          2 2 2 2 2 2
          2 2 2 2 2 2
          2 2 2 2 2 2
          2 2 2 2 2 2
          2 2 2 2 2 2
          2 2 2 2 2 2
          2 2 2 2 2 2
          2 2 2 2 2 2
          2 2 2 2 2 2
          2 2 2 2 2 2
          2 2 2 2 2 2
          2 2 2 2 2 2
          2 2 2 2 2 2
          2 2 2 2 2 2
          2 2 2 2 2 2
          2 2 2 2 2 2
          2 2 2 2 2 2
          2 2 2 2 2 2
          2 2 2 2 2 2
          2 2 2 2 2 2
          2 2 2 2 2 2
          2 2 2 2 2 2
          2 2 2 2 2 2
          2 2 2 2 2 2
          2 2 2 2 2 2
          2 2 2 2 2 2
          2 2 2 2 2 2
          2 2 2 2 2 2
          2 2 2 2 2 2
          2 2 2 2 2 2
          2 2 2 2 2 2
          2 2 2 2 2 2
          2 2 2 2 2 2
          2 2 2 2 2 2
          2 2 2 2 2 2
          2 2 2 2 2 2
          2 2 2 2 2 2
          2 2 2 2 2 2
          2 2 2 2 2 2
          2 2 2 2 2 2
          2 2 2 2 2 2
          2 2 2 2 2 2
          2 2 2 2 2 2
          2 2 2 2 2 2
          2 2 2 2 2 2
          2 2 2 2 2 2
          2 2 2 2 2 2
          2 2 2 2 2 2
          2 2 2 2 2 2
          2 2 2 2 2 2
          2 2 2 2 2 2
          2 2 2 2 2 2
          2 2 2 2 2 2
          2 2 2 2 2 2
          2 2 2 2 2 2
          2 2 2 2 2 2
          2 2 2 2 2 2
          2 2 2 2 2 2
          2 2 2 2 2 2
          2 2 2 2 2 2
          2 2 2 2 2 2
          2 2 2 2 2 2
          2 2 2 2 2 2
          2 2 2 2 2 2
          2 2 2 2 2 2
          2 2
        </DataArray>
      </CellData>
      <Points>
        <DataArray type="Float64" Name="Points" NumberOfComponents="3" format="ascii" RangeMin="0.0055128205128194" RangeMax="0.014586579917196396">
          0.010655961336451 0.0054415469453289 0 0.010738296327413 0.0059250363170334 0
          0.010252884061106 0.0059462536680524 0 0.010205117478458 0.0054994523140404 0
          0.010655961336451 0.0054415469453289 0.00015 0.010738296327413 0.0059250363170334 0.00015
          0.010252884061106 0.0059462536680524 0.00015 0.010205117478458 0.0054994523140404 0.00015
          0.010655961336451 0.0054415469453289 0.0003 0.010738296327413 0.0059250363170334 0.0003
          0.010252884061106 0.0059462536680524 0.0003 0.010205117478458 0.0054994523140404 0.0003
          0.011940440807394 0.0034141066074527 0 0.011459595517011 0.003824326979063 0
          0.011102612382238 0.0034627190197861 0 0.011355953963772 0.0030463545109029 0
          0.011940440807394 0.0034141066074527 0.00015 0.011459595517011 0.003824326979063 0.00015
          0.011102612382238 0.0034627190197861 0.00015 0.011355953963772 0.0030463545109029 0.00015
          0.011940440807394 0.0034141066074527 0.0003 0.011459595517011 0.003824326979063 0.0003
          0.011102612382238 0.0034627190197861 0.0003 0.011355953963772 0.0030463545109029 0.0003
          0.010057653370411 0.0084974472595183 0 0.01054988842507 0.0084422245958245 0
          0.010057653370411 0.0084974472595183 0.00015 0.01054988842507 0.0084422245958245 0.00015
          0.010057653370411 0.0084974472595183 0.0003 0.01054988842507 0.0084422245958245 0.0003
          0.011046194733105 0.00090743319272295 0 0.011064186406242 0.00044456569898216 0
          0.011549090679959 0.00043919238601916 0 0.011507246232172 0.00087204304167501 0
          0.011046194733105 0.00090743319272295 0.00015 0.011064186406242 0.00044456569898216 0.00015
          0.011549090679959 0.00043919238601916 0.00015 0.011507246232172 0.00087204304167501 0.00015
          0.011046194733105 0.00090743319272295 0.0003 0.011064186406242 0.00044456569898216 0.0003
          0.011549090679959 0.00043919238601916 0.0003 0.011507246232172 0.00087204304167501 0.0003
          0.010695724673322 0.003201084864495 0 0.010922769205465 0.002821493997395 0
          0.010695724673322 0.003201084864495 0.00015 0.010922769205465 0.002821493997395 0.00015
          0.010695724673322 0.003201084864495 0.0003 0.010922769205465 0.002821493997395 0.0003
          0.0063972422249218 0.0045440807567198 0 0.0065062213292024 0.0050164807168814 0
          0.0062389906493372 0.0053128670028646 0 0.0060512178389602 0.0047929387822649 0
          0.0063972422249218 0.0045440807567198 0.00015 0.0065062213292024 0.0050164807168814 0.00015
          0.0062389906493372 0.0053128670028646 0.00015 0.0060512178389602 0.0047929387822649 0.00015
          0.0063972422249218 0.0045440807567198 0.0003 0.0065062213292024 0.0050164807168814 0.0003
          0.0062389906493372 0.0053128670028646 0.0003 0.0060512178389602 0.0047929387822649 0.0003
          0.0077450758336629 0.0014176167893871 0 0.0081853433575 0.0016343392489207 0
          0.0081296210030831 0.0020475545417094 0 0.0077097822266787 0.0019577759081516 0
          0.0077450758336629 0.0014176167893871 0.00015 0.0081853433575 0.0016343392489207 0.00015
          0.0081296210030831 0.0020475545417094 0.00015 0.0077097822266787 0.0019577759081516 0.00015
          0.0077450758336629 0.0014176167893871 0.0003 0.0081853433575 0.0016343392489207 0.0003
          0.0081296210030831 0.0020475545417094 0.0003 0.0077097822266787 0.0019577759081516 0.0003
          0.010163700921554 0.0050965322104848 0 0.010539876174215 0.0050107335132671 0
          0.010163700921554 0.0050965322104848 0.00015 0.010539876174215 0.0050107335132671 0.00015
          0.010163700921554 0.0050965322104848 0.0003 0.010539876174215 0.0050107335132671 0.0003
          0.0067145785472978 0.00092067788586619 0 0.0066311284750677 0.00045344715700039 0
          0.0071039644964018 0.00045254776362746 0 0.0071622170579096 0.00091220258976311 0
          0.0067145785472978 0.00092067788586619 0.00015 0.0066311284750677 0.00045344715700039 0.00015
          0.0071039644964018 0.00045254776362746 0.00015 0.0071622170579096 0.00091220258976311 0.00015
          0.0067145785472978 0.00092067788586619 0.0003 0.0066311284750677 0.00045344715700039 0.0003
          0.0071039644964018 0.00045254776362746 0.0003 0.0071622170579096 0.00091220258976311 0.0003
          0.011832021157187 0.0073476785459853 0 0.011779780861271 0.0068646395959748 0
          0.012243708910156 0.0068324173193727 0 0.011832021157187 0.0073476785459853 0.00015
          0.011779780861271 0.0068646395959748 0.00015 0.012243708910156 0.0068324173193727 0.00015
          0.011832021157187 0.0073476785459853 0.0003 0.011779780861271 0.0068646395959748 0.0003
          0.012243708910156 0.0068324173193727 0.0003 0.0084907788898463 0.00044286110481525 0
          0.0089555217282148 0.00046389179151574 0 0.0088246864415892 0.00090448805343066 0
          0.0084146790711037 0.00087434414493667 0 0.0084907788898463 0.00044286110481525 0.00015
          0.0089555217282148 0.00046389179151574 0.00015 0.0088246864415892 0.00090448805343066 0.00015
          0.0084146790711037 0.00087434414493667 0.00015 0.0084907788898463 0.00044286110481525 0.0003
          0.0089555217282148 0.00046389179151574 0.0003 0.0088246864415892 0.00090448805343066 0.0003
          0.0084146790711037 0.00087434414493667 0.0003 0.0073198391209489 0.002802975731369 0
          0.007729981097025 0.0028801564362105 0 0.0077015154526268 0.0033237594367458 0
          0.0072927827923603 0.0032114269239825 0 0.0073198391209489 0.002802975731369 0.00015
          0.007729981097025 0.0028801564362105 0.00015 0.0077015154526268 0.0033237594367458 0.00015
          0.0072927827923603 0.0032114269239825 0.00015 0.0073198391209489 0.002802975731369 0.0003
          0.007729981097025 0.0028801564362105 0.0003 0.0077015154526268 0.0033237594367458 0.0003
          0.0072927827923603 0.0032114269239825 0.0003 0.011061956134478 0.0014022262787872 0
          0.011061956134478 0.0014022262787872 0.00015 0.011061956134478 0.0014022262787872 0.0003
          0.0067262777673885 0.0043003855308917 0 0.0070184374453973 0.0044097475846897 0
          0.0069143452336461 0.0047780273607631 0 0.0067262777673885 0.0043003855308917 0.00015
          0.0070184374453973 0.0044097475846897 0.00015 0.0069143452336461 0.0047780273607631 0.00015
          0.0067262777673885 0.0043003855308917 0.0003 0.0070184374453973 0.0044097475846897 0.0003
          0.0069143452336461 0.0047780273607631 0.0003 0.0072966772765568 0.0023596996909359 0
          0.0077191611848381 0.0024307703640478 0 0.0072966772765568 0.0023596996909359 0.00015
          0.0077191611848381 0.0024307703640478 0.00015 0.0072966772765568 0.0023596996909359 0.0003
          0.0077191611848381 0.0024307703640478 0.0003 0.010569749843509 0.00092230265866691 0
          0.010578573679683 0.0013844170604281 0 0.010145320905195 0.0014335884987508 0
          0.01008894187929 0.00096115561381429 0 0.010569749843509 0.00092230265866691 0.00015
          0.010578573679683 0.0013844170604281 0.00015 0.010145320905195 0.0014335884987508 0.00015
          0.01008894187929 0.00096115561381429 0.00015 0.010569749843509 0.00092230265866691 0.0003
          0.010578573679683 0.0013844170604281 0.0003 0.010145320905195 0.0014335884987508 0.0003
          0.01008894187929 0.00096115561381429 0.0003 0.0061669869081239 0.00049673093518566 0
          0.0062913293509889 0.00097410606592609 0 0.0059245902968253 0.0010856763727913 0
          0.0057061681768373 0.00065177476244477 0 0.0061669869081239 0.00049673093518566 0.00015
          0.0062913293509889 0.00097410606592609 0.00015 0.0059245902968253 0.0010856763727913 0.00015
          0.0057061681768373 0.00065177476244477 0.00015 0.0061669869081239 0.00049673093518566 0.0003
          0.0062913293509889 0.00097410606592609 0.0003 0.0059245902968253 0.0010856763727913 0.0003
          0.0057061681768373 0.00065177476244477 0.0003 0.010613957240618 0.0022894151744625 0
          0.011031068838334 0.0023895404946521 0 0.01053554486979 0.0026566023779455 0
          0.010613957240618 0.0022894151744625 0.00015 0.011031068838334 0.0023895404946521 0.00015
          0.01053554486979 0.0026566023779455 0.00015 0.010613957240618 0.0022894151744625 0.0003
          0.011031068838334 0.0023895404946521 0.0003 0.01053554486979 0.0026566023779455 0.0003
          0.0055128205128194 0 0 0.0060256410256386 0 0
          0.0055128205128194 0 0.00015 0.0060256410256386 0 0.00015
          0.0055128205128194 0 0.0003 0.0060256410256386 0 0.0003
          0.0087932726011055 0.003543484648519 0 0.0081725565838686 0.0034418576035907 0
          0.0081844882448281 0.0029554535172717 0 0.0086653225286358 0.0029358056411338 0
          0.0087932726011055 0.003543484648519 0.00015 0.0081725565838686 0.0034418576035907 0.00015
          0.0081844882448281 0.0029554535172717 0.00015 0.0086653225286358 0.0029358056411338 0.00015
          0.0087932726011055 0.003543484648519 0.0003 0.0081725565838686 0.0034418576035907 0.0003
          0.0081844882448281 0.0029554535172717 0.0003 0.0086653225286358 0.0029358056411338 0.0003
          0.010609256891376 0.0018508518753275 0 0.011063963632424 0.0019108783312894 0
          0.010609256891376 0.0018508518753275 0.00015 0.011063963632424 0.0019108783312894 0.00015
          0.010609256891376 0.0018508518753275 0.0003 0.011063963632424 0.0019108783312894 0.0003
          0.0061614658010566 0.0029736343202522 0 0.0061372854142827 0.0036106222238676 0
          0.0061614658010566 0.0029736343202522 0.00015 0.0061372854142827 0.0036106222238676 0.00015
          0.0061614658010566 0.0029736343202522 0.0003 0.0061372854142827 0.0036106222238676 0.0003
          0.0091223832784702 0.0028108558594978 0 0.0093224708097351 0.0032450014434347 0
          0.0091223832784702 0.0028108558594978 0.00015 0.0093224708097351 0.0032450014434347 0.00015
          0.0091223832784702 0.0028108558594978 0.0003 0.0093224708097351 0.0032450014434347 0.0003
          0.010365654248251 0.0046741943492533 0 0.010130092133721 0.0048347586786618 0
          0.0098673679311407 0.0047157860708196 0 0.010078628200493 0.0044157313734999 0
          0.010365654248251 0.0046741943492533 0.00015 0.010130092133721 0.0048347586786618 0.00015
          0.0098673679311407 0.0047157860708196 0.00015 0.010078628200493 0.0044157313734999 0.00015
          0.010365654248251 0.0046741943492533 0.0003 0.010130092133721 0.0048347586786618 0.0003
          0.0098673679311407 0.0047157860708196 0.0003 0.010078628200493 0.0044157313734999 0.0003
          0.0074225055052033 0.0045889494028562 0 0.0073125071067115 0.0049521547682488 0
          0.0074225055052033 0.0045889494028562 0.00015 0.0073125071067115 0.0049521547682488 0.00015
          0.0074225055052033 0.0045889494028562 0.0003 0.0073125071067115 0.0049521547682488 0.0003
          0.0061231952422177 0.002444135475079 0 0.0061231952422177 0.002444135475079 0.00015
          0.0061231952422177 0.002444135475079 0.0003 0.007634491258567 0.0037589111207536 0
          0.0080978935956725 0.0039120786728548 0 0.007634491258567 0.0037589111207536 0.00015
          0.0080978935956725 0.0039120786728548 0.00015 0.007634491258567 0.0037589111207536 0.0003
          0.0080978935956725 0.0039120786728548 0.0003 0.0067400809843091 0.0034207975388345 0
          0.0067100713183769 0.0039836679330495 0 0.0063054236008776 0.0041223407032968 0
          0.0067400809843091 0.0034207975388345 0.00015 0.0067100713183769 0.0039836679330495 0.00015
          0.0063054236008776 0.0041223407032968 0.00015 0.0067400809843091 0.0034207975388345 0.0003
          0.0067100713183769 0.0039836679330495 0.0003 0.0063054236008776 0.0041223407032968 0.0003
          0.0064429727892239 0.0018594619814901 0 0.0065003657821779 0.0023397297588745 0
          0.0060722038988066 0.0019538017587265 0 0.0064429727892239 0.0018594619814901 0.00015
          0.0065003657821779 0.0023397297588745 0.00015 0.0060722038988066 0.0019538017587265 0.00015
          0.0064429727892239 0.0018594619814901 0.0003 0.0065003657821779 0.0023397297588745 0.0003
          0.0060722038988066 0.0019538017587265 0.0003 0.0068255396015086 0.0051581133306003 0
          0.0068255396015086 0.0051581133306003 0.00015 0.0068255396015086 0.0051581133306003 0.0003
          0.0065384615384579 0 0 0.0065384615384579 0 0.00015
          0.0065384615384579 0 0.0003 0.012879713087233 0.0060908484912964 0
          0.012982043505355 0.0056371881930815 0 0.012879713087233 0.0060908484912964 0.00015
          0.012982043505355 0.0056371881930815 0.00015 0.012879713087233 0.0060908484912964 0.0003
          0.012982043505355 0.0056371881930815 0.0003 0.0065699942646101 0.0028542668018424 0
          0.0065699942646101 0.0028542668018424 0.00015 0.0065699942646101 0.0028542668018424 0.0003
          0.0084683943974961 0.0045583446766593 0 0.0079943718437571 0.0043747262241866 0
          0.0085823759797054 0.0040943119694046 0 0.0084683943974961 0.0045583446766593 0.00015
          0.0079943718437571 0.0043747262241866 0.00015 0.0085823759797054 0.0040943119694046 0.00015
          0.0084683943974961 0.0045583446766593 0.0003 0.0079943718437571 0.0043747262241866 0.0003
          0.0085823759797054 0.0040943119694046 0.0003 0.0085830886495109 0.0024681574500846 0
          0.0090044137010858 0.0023542069269131 0 0.0085830886495109 0.0024681574500846 0.00015
          0.0090044137010858 0.0023542069269131 0.00015 0.0085830886495109 0.0024681574500846 0.0003
          0.0090044137010858 0.0023542069269131 0.0003 0.0098857235699117 0.0079055319030787 0
          0.0095144479526816 0.0076594245921199 0 0.0094715724969347 0.0073263583858313 0
          0.0099283521138692 0.0073475677072736 0 0.0098857235699117 0.0079055319030787 0.00015
          0.0095144479526816 0.0076594245921199 0.00015 0.0094715724969347 0.0073263583858313 0.00015
          0.0099283521138692 0.0073475677072736 0.00015 0.0098857235699117 0.0079055319030787 0.0003
          0.0095144479526816 0.0076594245921199 0.0003 0.0094715724969347 0.0073263583858313 0.0003
          0.0099283521138692 0.0073475677072736 0.0003 0.010833716827414 0.0069257207373803 0
          0.010357413059119 0.0069077241183533 0 0.010300982556592 0.0064274708783385 0
          0.010786080808085 0.0064391381968206 0 0.010833716827414 0.0069257207373803 0.00015
          0.010357413059119 0.0069077241183533 0.00015 0.010300982556592 0.0064274708783385 0.00015
          0.010786080808085 0.0064391381968206 0.00015 0.010833716827414 0.0069257207373803 0.0003
          0.010357413059119 0.0069077241183533 0.0003 0.010300982556592 0.0064274708783385 0.0003
          0.010786080808085 0.0064391381968206 0.0003 0.012723582323863 0.006509831652106 0
          0.012251440655851 0.0062918667587536 0 0.012542392069256 0.0059723735377719 0
          0.012723582323863 0.006509831652106 0.00015 0.012251440655851 0.0062918667587536 0.00015
          0.012542392069256 0.0059723735377719 0.00015 0.012723582323863 0.006509831652106 0.0003
          0.012251440655851 0.0062918667587536 0.0003 0.012542392069256 0.0059723735377719 0.0003
          0.0071151184692216 0.0040272738406853 0 0.0071151184692216 0.0040272738406853 0.00015
          0.0071151184692216 0.0040272738406853 0.0003 0.005927800859391 0.0043689372395662 0
          0.005927800859391 0.0043689372395662 0.00015 0.005927800859391 0.0043689372395662 0.0003
          0.0092411258002763 0.0078319639415625 0 0.0089588909882048 0.0073942383853577 0
          0.0092411258002763 0.0078319639415625 0.00015 0.0089588909882048 0.0073942383853577 0.00015
          0.0092411258002763 0.0078319639415625 0.0003 0.0089588909882048 0.0073942383853577 0.0003
          0.009874674666521 0.0068715373563056 0 0.010410157305432 0.007394545582291 0
          0.009874674666521 0.0068715373563056 0.00015 0.010410157305432 0.007394545582291 0.00015
          0.009874674666521 0.0068715373563056 0.0003 0.010410157305432 0.007394545582291 0.0003
          0.0075354000991736 0.004186248288406 0 0.0075354000991736 0.004186248288406 0.00015
          0.0075354000991736 0.004186248288406 0.0003 0.01131847387487 0.0058224977902188 0
          0.011696082283392 0.0060272916092408 0 0.011725204011411 0.0063910302275778 0
          0.011265055974573 0.0064250601080915 0 0.01131847387487 0.0058224977902188 0.00015
          0.011696082283392 0.0060272916092408 0.00015 0.011725204011411 0.0063910302275778 0.00015
          0.011265055974573 0.0064250601080915 0.00015 0.01131847387487 0.0058224977902188 0.0003
          0.011696082283392 0.0060272916092408 0.0003 0.011725204011411 0.0063910302275778 0.0003
          0.011265055974573 0.0064250601080915 0.0003 0.012000241143886 0.0058170880130831 0
          0.012000241143886 0.0058170880130831 0.00015 0.012000241143886 0.0058170880130831 0.0003
          0.011120492592586 0.0052514705902296 0 0.011120492592586 0.0052514705902296 0.00015
          0.011120492592586 0.0052514705902296 0.0003 0.0092910901193945 0.0039260363263486 0
          0.0090503465409481 0.0043132092761106 0 0.0092910901193945 0.0039260363263486 0.00015
          0.0090503465409481 0.0043132092761106 0.00015 0.0092910901193945 0.0039260363263486 0.0003
          0.0090503465409481 0.0043132092761106 0.0003 0.007889027184575 0.0048982243533992 0
          0.007889027184575 0.0048982243533992 0.00015 0.007889027184575 0.0048982243533992 0.0003
          0.0094935553236164 0.004533528646427 0 0.0097061514105808 0.0041851036755216 0
          0.0094935553236164 0.004533528646427 0.00015 0.0097061514105808 0.0041851036755216 0.00015
          0.0094935553236164 0.004533528646427 0.0003 0.0097061514105808 0.0041851036755216 0.0003
          0.007602124101561 0.0050930903063015 0 0.007602124101561 0.0050930903063015 0.00015
          0.007602124101561 0.0050930903063015 0.0003 0.010723762445737 0.0044202706845482 0
          0.010410164583979 0.0041181159817359 0 0.010723762445737 0.0044202706845482 0.00015
          0.010410164583979 0.0041181159817359 0.00015 0.010723762445737 0.0044202706845482 0.0003
          0.010410164583979 0.0041181159817359 0.0003 0.01095205032792 0.0047963590452232 0
          0.01095205032792 0.0047963590452232 0.00015 0.01095205032792 0.0047963590452232 0.0003
          0.011303178752756 0.0069106117689346 0 0.011303178752756 0.0069106117689346 0.00015
          0.011303178752756 0.0069106117689346 0.0003 0.01003253261535 0.0038623502872685 0
          0.01003253261535 0.0038623502872685 0.00015 0.01003253261535 0.0038623502872685 0.0003
          0.0076528923620256 0.0053996878686031 0 0.0072494384034052 0.005322441352826 0
          0.0076528923620256 0.0053996878686031 0.00015 0.0072494384034052 0.005322441352826 0.00015
          0.0076528923620256 0.0053996878686031 0.0003 0.0072494384034052 0.005322441352826 0.0003
          0.0096442187720765 0.0035928190702974 0 0.0096442187720765 0.0035928190702974 0.00015
          0.0096442187720765 0.0035928190702974 0.0003 0.012013949131265 0.002158444108951 0
          0.012018063243501 0.0027123142038817 0 0.012013949131265 0.002158444108951 0.00015
          0.012018063243501 0.0027123142038817 0.00015 0.012013949131265 0.002158444108951 0.0003
          0.012018063243501 0.0027123142038817 0.0003 0.0080144547016537 0.00086684480617367 0
          0.008304219624614 0.0012703006012415 0 0.0080327132462595 0.0011721512048422 0
          0.0080144547016537 0.00086684480617367 0.00015 0.008304219624614 0.0012703006012415 0.00015
          0.0080327132462595 0.0011721512048422 0.00015 0.0080144547016537 0.00086684480617367 0.0003
          0.008304219624614 0.0012703006012415 0.0003 0.0080327132462595 0.0011721512048422 0.0003
          0.0094736490244467 0.0005865877812969 0 0.010068957850501 0.00047856930843549 0
          0.0096358530086744 0.0010887425154837 0 0.0094736490244467 0.0005865877812969 0.00015
          0.010068957850501 0.00047856930843549 0.00015 0.0096358530086744 0.0010887425154837 0.00015
          0.0094736490244467 0.0005865877812969 0.0003 0.010068957850501 0.00047856930843549 0.0003
          0.0096358530086744 0.0010887425154837 0.0003 0.0071984303565192 0.0057392272964834 0
          0.0067200519522164 0.0055550541115669 0 0.0071984303565192 0.0057392272964834 0.00015
          0.0067200519522164 0.0055550541115669 0.00015 0.0071984303565192 0.0057392272964834 0.0003
          0.0067200519522164 0.0055550541115669 0.0003 0.013091675611077 0.0041736873632184 0
          0.012621380555602 0.004071395146678 0 0.012601464682814 0.0035037767307713 0
          0.013091675611077 0.0041736873632184 0.00015 0.012621380555602 0.004071395146678 0.00015
          0.012601464682814 0.0035037767307713 0.00015 0.013091675611077 0.0041736873632184 0.0003
          0.012621380555602 0.004071395146678 0.0003 0.012601464682814 0.0035037767307713 0.0003
          0.01153639784925 0.0020208067996516 0 0.011496246026306 0.0025480504488598 0
          0.01153639784925 0.0020208067996516 0.00015 0.011496246026306 0.0025480504488598 0.00015
          0.01153639784925 0.0020208067996516 0.0003 0.011496246026306 0.0025480504488598 0.0003
          0.011043213382792 0.0084269911709333 0 0.011043213382792 0.0084269911709333 0.00015
          0.011043213382792 0.0084269911709333 0.0003 0.010128205128191 0 0
          0.0096153846153732 0 0 0.010128205128191 0 0.00015
          0.0096153846153732 0 0.00015 0.010128205128191 0 0.0003
          0.0096153846153732 0 0.0003 0.0091025641025551 0 0
          0.0085897435897353 0 0 0.0091025641025551 0 0.00015
          0.0085897435897353 0 0.00015 0.0091025641025551 0 0.0003
          0.0085897435897353 0 0.0003 0.0085182476127008 0.0020437661198126 0
          0.0089029205554566 0.0019047336662455 0 0.0085182476127008 0.0020437661198126 0.00015
          0.0089029205554566 0.0019047336662455 0.00015 0.0085182476127008 0.0020437661198126 0.0003
          0.0089029205554566 0.0019047336662455 0.0003 0.0081522818828449 0.0024947087352937 0
          0.0081522818828449 0.0024947087352937 0.00015 0.0081522818828449 0.0024947087352937 0.0003
          0.010641025641009 0 0 0.010579843756946 0.00045349299099366 0
          0.010641025641009 0 0.00015 0.010579843756946 0.00045349299099366 0.00015
          0.010641025641009 0 0.0003 0.010579843756946 0.00045349299099366 0.0003
          0.011153846153828 0 0 0.011153846153828 0 0.00015
          0.011153846153828 0 0.0003 0.011760912133753 0.0054122119446059 0
          0.011760912133753 0.0054122119446059 0.00015 0.011760912133753 0.0054122119446059 0.0003
          0.011666666666648 0 0 0.011666666666648 0 0.00015
          0.011666666666648 0 0.0003 0.011547825504055 0.0049713459697514 0
          0.011547825504055 0.0049713459697514 0.00015 0.011547825504055 0.0049713459697514 0.0003
          0.011349632014182 0.0045239710214715 0 0.011349632014182 0.0045239710214715 0.00015
          0.011349632014182 0.0045239710214715 0.0003 0.011997463288521 0.00046572766410539 0
          0.012179487179468 0 0 0.011997463288521 0.00046572766410539 0.00015
          0.012179487179468 0 0.00015 0.011997463288521 0.00046572766410539 0.0003
          0.012179487179468 0 0.0003 0.01039056673058 0.0035410773695937 0
          0.010772622187787 0.0038062315725381 0 0.01039056673058 0.0035410773695937 0.00015
          0.010772622187787 0.0038062315725381 0.00015 0.01039056673058 0.0035410773695937 0.0003
          0.010772622187787 0.0038062315725381 0.0003 0.0089323359070786 0.0047421281357296 0
          0.0089323359070786 0.0047421281357296 0.00015 0.0089323359070786 0.0047421281357296 0.0003
          0.010891746765568 0.007407252260552 0 0.010891746765568 0.007407252260552 0.00015
          0.010891746765568 0.007407252260552 0.0003 0.011089383238376 0.0041358143249023 0
          0.011089383238376 0.0041358143249023 0.00015 0.011089383238376 0.0041358143249023 0.0003
          0.007205317033861 0.0036141963404016 0 0.007205317033861 0.0036141963404016 0.00015
          0.007205317033861 0.0036141963404016 0.0003 0.0080269839945158 0.0054023282425744 0
          0.0080269839945158 0.0054023282425744 0.00015 0.0080269839945158 0.0054023282425744 0.0003
          0.0077721363879251 0.0058968168784219 0 0.0077721363879251 0.0058968168784219 0.00015
          0.0077721363879251 0.0058968168784219 0.0003 0.0095370253310475 0.0025850582106885 0
          0.009732219723835 0.0029713438236062 0 0.0095370253310475 0.0025850582106885 0.00015
          0.009732219723835 0.0029713438236062 0.00015 0.0095370253310475 0.0025850582106885 0.0003
          0.009732219723835 0.0029713438236062 0.0003 0.0094100372761059 0.0021522308351028 0
          0.0094100372761059 0.0021522308351028 0.00015 0.0094100372761059 0.0021522308351028 0.0003
          0.0087313387484914 0.001424359608332 0 0.0084651319029022 0.0017289788972556 0
          0.0087313387484914 0.001424359608332 0.00015 0.0084651319029022 0.0017289788972556 0.00015
          0.0087313387484914 0.001424359608332 0.0003 0.0084651319029022 0.0017289788972556 0.0003
          0.011363196701121 0.0073867521895413 0 0.011894488312007 0.0078344841271679 0
          0.011431801070778 0.0078815011129823 0 0.011363196701121 0.0073867521895413 0.00015
          0.011894488312007 0.0078344841271679 0.00015 0.011431801070778 0.0078815011129823 0.00015
          0.011363196701121 0.0073867521895413 0.0003 0.011894488312007 0.0078344841271679 0.0003
          0.011431801070778 0.0078815011129823 0.0003 0.011511795106494 0.0083968566041475 0
          0.011511795106494 0.0083968566041475 0.00015 0.011511795106494 0.0083968566041475 0.0003
          0.0093066157528448 0.0017085494075796 0 0.0093066157528448 0.0017085494075796 0.00015
          0.0093066157528448 0.0017085494075796 0.0003 0.011737204813157 0.0042624504192267 0
          0.011920232844873 0.0047153506313134 0 0.011737204813157 0.0042624504192267 0.00015
          0.011920232844873 0.0047153506313134 0.00015 0.011737204813157 0.0042624504192267 0.0003
          0.011920232844873 0.0047153506313134 0.0003 0.0097199155871303 0.0015315099671301 0
          0.0098040259351994 0.0019696894002764 0 0.0097199155871303 0.0015315099671301 0.00015
          0.0098040259351994 0.0019696894002764 0.00015 0.0097199155871303 0.0015315099671301 0.0003
          0.0098040259351994 0.0019696894002764 0.0003 0.0099068743951204 0.0023814903757239 0
          0.0099068743951204 0.0023814903757239 0.00015 0.0099068743951204 0.0023814903757239 0.0003
          0.010196799496301 0.0018655242590307 0 0.010252080701677 0.0022738797315184 0
          0.010196799496301 0.0018655242590307 0.00015 0.010252080701677 0.0022738797315184 0.00015
          0.010196799496301 0.0018655242590307 0.0003 0.010252080701677 0.0022738797315184 0.0003
          0.0082479601882269 0.0062087007836213 0 0.0083721174281176 0.0058457654542534 0
          0.0087793359412623 0.006030240425184 0 0.0086690881028679 0.0063945203238097 0
          0.0082479601882269 0.0062087007836213 0.00015 0.0083721174281176 0.0058457654542534 0.00015
          0.0087793359412623 0.006030240425184 0.00015 0.0086690881028679 0.0063945203238097 0.00015
          0.0082479601882269 0.0062087007836213 0.0003 0.0083721174281176 0.0058457654542534 0.0003
          0.0087793359412623 0.006030240425184 0.0003 0.0086690881028679 0.0063945203238097 0.0003
          0.0098103305116681 0.0063862496116293 0 0.0098103305116681 0.0063862496116293 0.00015
          0.0098103305116681 0.0063862496116293 0.0003 0.0084248193747317 0.0050261658136402 0
          0.0084248193747317 0.0050261658136402 0.00015 0.0084248193747317 0.0050261658136402 0.0003
          0.0069463016830039 0.0027787422025108 0 0.0070048409545821 0.0031125297586922 0
          0.0069463016830039 0.0027787422025108 0.00015 0.0070048409545821 0.0031125297586922 0.00015
          0.0069463016830039 0.0027787422025108 0.0003 0.0070048409545821 0.0031125297586922 0.0003
          0.010028456835002 0.0032748409090605 0 0.010028456835002 0.0032748409090605 0.00015
          0.010028456835002 0.0032748409090605 0.0003 0.013084530633285 0.0046685927017207 0
          0.012657407202949 0.0045740785705039 0 0.013084530633285 0.0046685927017207 0.00015
          0.012657407202949 0.0045740785705039 0.00015 0.013084530633285 0.0046685927017207 0.0003
          0.012657407202949 0.0045740785705039 0.0003 0.0063788755008874 0.0014091508241809 0
          0.0060137569775388 0.0015029488511318 0 0.0063788755008874 0.0014091508241809 0.00015
          0.0060137569775388 0.0015029488511318 0.00015 0.0063788755008874 0.0014091508241809 0.0003
          0.0060137569775388 0.0015029488511318 0.0003 0.01196380743939 0.0083394019710021 0
          0.01196380743939 0.0083394019710021 0.00015 0.01196380743939 0.0083394019710021 0.0003
          0.010073855840534 0.0027196155419985 0 0.010289681297386 0.0025561678844121 0
          0.010073855840534 0.0027196155419985 0.00015 0.010289681297386 0.0025561678844121 0.00015
          0.010073855840534 0.0027196155419985 0.0003 0.010289681297386 0.0025561678844121 0.0003
          0.0093223919318803 0.0053434698815888 0 0.009764317340127 0.0054658727348424 0
          0.0097769212248058 0.0059119658621614 0 0.0093027527337708 0.0057939169389015 0
          0.0093223919318803 0.0053434698815888 0.00015 0.009764317340127 0.0054658727348424 0.00015
          0.0097769212248058 0.0059119658621614 0.00015 0.0093027527337708 0.0057939169389015 0.00015
          0.0093223919318803 0.0053434698815888 0.0003 0.009764317340127 0.0054658727348424 0.0003
          0.0097769212248058 0.0059119658621614 0.0003 0.0093027527337708 0.0057939169389015 0.0003
          0.0068882925124701 0.0023177669638962 0 0.0068882925124701 0.0023177669638962 0.00015
          0.0068882925124701 0.0023177669638962 0.0003 0.0092499592325966 0.0063238181416562 0
          0.0089620052424248 0.0065330227489775 0 0.0092499592325966 0.0063238181416562 0.00015
          0.0089620052424248 0.0065330227489775 0.00015 0.0092499592325966 0.0063238181416562 0.0003
          0.0089620052424248 0.0065330227489775 0.0003 0.0072168253422346 0.001397514094839 0
          0.0076041066380058 0.00089936619415626 0 0.0072168253422346 0.001397514094839 0.00015
          0.0076041066380058 0.00089936619415626 0.00015 0.0072168253422346 0.001397514094839 0.0003
          0.0076041066380058 0.00089936619415626 0.0003 0.0075718226613923 0.00044755222139025 0
          0.0075718226613923 0.00044755222139025 0.00015 0.0075718226613923 0.00044755222139025 0.0003
          0.012116660000204 0.0051206445675074 0 0.012116660000204 0.0051206445675074 0.00015
          0.012116660000204 0.0051206445675074 0.0003 0.0068338524094732 0.0018398489073113 0
          0.0068338524094732 0.0018398489073113 0.00015 0.0068338524094732 0.0018398489073113 0.0003
          0.0088473960481577 0.0056214227923259 0 0.0088473960481577 0.0056214227923259 0.00015
          0.0088473960481577 0.0056214227923259 0.0003 0.0081402125110085 0.0066115625704341 0
          0.0081402125110085 0.0066115625704341 0.00015 0.0081402125110085 0.0066115625704341 0.0003
          0.0067824993802385 0.0013824026215467 0 0.0072591856110724 0.0018865642034293 0
          0.0067824993802385 0.0013824026215467 0.00015 0.0072591856110724 0.0018865642034293 0.00015
          0.0067824993802385 0.0013824026215467 0.0003 0.0072591856110724 0.0018865642034293 0.0003
          0.0094035295411974 0.0068662830960629 0 0.0094035295411974 0.0068662830960629 0.00015
          0.0094035295411974 0.0068662830960629 0.0003 0.0080770297303238 0.0057078658228848 0
          0.0080770297303238 0.0057078658228848 0.00015 0.0080770297303238 0.0057078658228848 0.0003
          0.012455160230445 0.0055307966461266 0 0.012455160230445 0.0055307966461266 0.00015
          0.012455160230445 0.0055307966461266 0.0003 0.0092134396095011 0.0012639463069257 0
          0.0092134396095011 0.0012639463069257 0.00015 0.0092134396095011 0.0012639463069257 0.0003
          0.0085681017610313 0.0067725899286886 0 0.0085681017610313 0.0067725899286886 0.00015
          0.0085681017610313 0.0067725899286886 0.0003 0.010337781301114 0.0029713007827362 0
          0.010337781301114 0.0029713007827362 0.00015 0.010337781301114 0.0029713007827362 0.0003
          0.0080769230769162 0 0 0.0080362994401078 0.00044130282391618 0
          0.0075641025640979 0 0 0.0080769230769162 0 0.00015
          0.0080362994401078 0.00044130282391618 0.00015 0.0075641025640979 0 0.00015
          0.0080769230769162 0 0.0003 0.0080362994401078 0.00044130282391618 0.0003
          0.0075641025640979 0 0.0003 0.0084157309119158 0.0054663429893237 0
          0.0084157309119158 0.0054663429893237 0.00015 0.0084157309119158 0.0054663429893237 0.0003
          0.012625060394875 0.0050215313919928 0 0.012340535819996 0.0049145470001145 0
          0.012625060394875 0.0050215313919928 0.00015 0.012340535819996 0.0049145470001145 0.00015
          0.012625060394875 0.0050215313919928 0.0003 0.012340535819996 0.0049145470001145 0.0003
          0.0088807280393962 0.0051824777758032 0 0.0088807280393962 0.0051824777758032 0.00015
          0.0088807280393962 0.0051824777758032 0.0003 0.00978640191627 0.0050564284414982 0
          0.00978640191627 0.0050564284414982 0.00015 0.00978640191627 0.0050564284414982 0.0003
          0.007051282051278 0 0 0.007051282051278 0 0.00015
          0.007051282051278 0 0.0003 0.0089738769927721 0.0068608682916542 0
          0.0089738769927721 0.0068608682916542 0.00015 0.0089738769927721 0.0068608682916542 0.0003
          0.010464396561549 0.007914442793445 0 0.010959162019398 0.0079079830093058 0
          0.010464396561549 0.007914442793445 0.00015 0.010959162019398 0.0079079830093058 0.00015
          0.010464396561549 0.007914442793445 0.0003 0.010959162019398 0.0079079830093058 0.0003
          0.0093768424757788 0.0049206652486621 0 0.0093768424757788 0.0049206652486621 0.00015
          0.0093768424757788 0.0049206652486621 0.0003 0.0084364690699339 0.0071912877673881 0
          0.0084364690699339 0.0071912877673881 0.00015 0.0084364690699339 0.0071912877673881 0.0003
          0.011870414872976 0.00080294526771027 0 0.011870414872976 0.00080294526771027 0.00015
          0.011870414872976 0.00080294526771027 0.0003 0.013048655853798 0.0051555709380823 0
          0.013048655853798 0.0051555709380823 0.00015 0.013048655853798 0.0051555709380823 0.0003
          0.0091480378790118 0.00093783666102615 0 0.0091480378790118 0.00093783666102615 0.00015
          0.0091480378790118 0.00093783666102615 0.0003 0.012592651705639 0.0068198098450163 0
          0.012592651705639 0.0068198098450163 0.00015 0.012592651705639 0.0068198098450163 0.0003
          0.012272070002081 0.0045810549534562 0 0.012153081904124 0.0040944528080542 0
          0.012272070002081 0.0045810549534562 0.00015 0.012153081904124 0.0040944528080542 0.00015
          0.012272070002081 0.0045810549534562 0.0003 0.012153081904124 0.0040944528080542 0.0003
          0.011634800364854 0.0014122839921498 0 0.011634800364854 0.0014122839921498 0.00015
          0.011634800364854 0.0014122839921498 0.0003 0.012451479243686 0.0021914486022899 0
          0.012674188674928 0.0028095410694266 0 0.012451479243686 0.0021914486022899 0.00015
          0.012674188674928 0.0028095410694266 0.00015 0.012451479243686 0.0021914486022899 0.0003
          0.012674188674928 0.0028095410694266 0.0003 0.013121586466294 0.0036708577033715 0
          0.013121586466294 0.0036708577033715 0.00015 0.013121586466294 0.0036708577033715 0.0003
          0.013248150362312 0.0031919567697963 0 0.013248150362312 0.0031919567697963 0.00015
          0.013248150362312 0.0031919567697963 0.0003 0.012096711335481 0.0017058387426491 0
          0.012096711335481 0.0017058387426491 0.00015 0.012096711335481 0.0017058387426491 0.0003
          0.012692307692288 0 0 0.012542896420733 0.00061304595643839 0
          0.012692307692288 0 0.00015 0.012542896420733 0.00061304595643839 0.00015
          0.012692307692288 0 0.0003 0.012542896420733 0.00061304595643839 0.0003
          0.012384518900215 0.0018567382086698 0 0.012384518900215 0.0018567382086698 0.00015
          0.012384518900215 0.0018567382086698 0.0003 0.012087580163866 0.0010424427844857 0
          0.012087580163866 0.0010424427844857 0.00015 0.012087580163866 0.0010424427844857 0.0003
          <InformationKey name="L2_NORM_RANGE" location="vtkDataArray" length="2">
            <Value index="0">
              0.0055128205128
            </Value>
            <Value index="1">
              0.014586579917
            </Value>
          </InformationKey>
        </DataArray>
      </Points>
      <Cells>
        <DataArray type="Int64" Name="connectivity" format="ascii" RangeMin="0" RangeMax="773">
          0 1 2 3 4 5
          6 7 4 5 6 7
          8 9 10 11 12 13
          14 15 16 17 18 19
          16 17 18 19 20 21
          22 23 30 31 32 33
          34 35 36 37 34 35
          36 37 38 39 40 41
          15 14 42 43 19 18
          44 45 19 18 44 45
          23 22 46 47 48 49
          50 51 52 53 54 55
          52 53 54 55 56 57
          58 59 60 61 62 63
          64 65 66 67 64 65
          66 67 68 69 70 71
          3 72 73 0 7 74
          75 4 7 74 75 4
          11 76 77 8 78 79
          80 81 82 83 84 85
          82 83 84 85 86 87
          88 89 99 100 101 102
          103 104 105 106 103 104
          105 106 107 108 109 110
          111 112 113 114 115 116
          117 118 115 116 117 118
          119 120 121 122 744 123
          30 33 745 124 34 37
          745 124 34 37 746 125
          38 41 48 126 127 128
          52 129 130 131 52 129
          130 131 56 132 133 134
          135 136 112 111 137 138
          116 115 137 138 116 115
          139 140 120 119 141 142
          143 144 145 146 147 148
          145 146 147 148 149 150
          151 152 153 154 155 156
          157 158 159 160 157 158
          159 160 161 162 163 164
          165 166 43 167 168 169
          45 170 168 169 45 170
          171 172 47 173 174 175
          153 156 176 177 157 160
          176 177 157 160 178 179
          161 164 180 181 182 183
          184 185 186 187 184 185
          186 187 188 189 190 191
          166 165 192 193 169 168
          194 195 169 168 194 195
          172 171 196 197 112 182
          181 113 116 186 185 117
          116 186 185 117 120 190
          189 121 204 205 180 183
          206 207 184 187 206 207
          184 187 208 209 188 191
          210 211 212 213 214 215
          216 217 214 215 216 217
          218 219 220 221 222 223
          128 127 224 225 131 130
          224 225 131 130 226 227
          134 133 154 153 79 78
          158 157 83 82 158 157
          83 82 162 161 87 86
          231 113 181 232 233 117
          185 234 233 117 185 234
          235 121 189 236 237 238
          239 199 240 241 242 201
          240 241 242 201 243 244
          245 203 246 247 228 248
          249 250 229 251 249 250
          229 251 252 253 230 254
          255 49 48 128 256 53
          52 131 256 53 52 131
          257 57 56 134 175 258
          79 153 177 259 83 157
          177 259 83 157 179 260
          87 161 267 237 199 198
          268 240 201 200 268 240
          201 200 269 243 203 202
          270 271 232 272 273 274
          234 275 273 274 234 275
          276 277 236 278 267 198
          228 247 268 200 229 250
          268 200 229 250 269 202
          230 253 183 279 280 204
          187 281 282 206 187 281
          282 206 191 283 284 208
          285 286 287 288 289 290
          291 292 289 290 291 292
          293 294 295 296 297 298
          299 300 301 302 303 304
          301 302 303 304 305 306
          307 308 261 309 310 311
          263 312 313 314 263 312
          313 314 265 315 316 317
          238 318 127 126 241 319
          130 129 241 319 130 129
          244 320 133 132 324 325
          287 286 326 327 291 290
          326 327 291 290 328 329
          295 294 330 298 331 288
          332 302 333 292 332 302
          333 292 334 306 335 296
          318 336 222 127 319 337
          224 130 319 337 224 130
          320 338 226 133 339 340
          341 342 343 344 345 346
          343 344 345 346 347 348
          349 350 300 1 339 342
          304 5 343 346 304 5
          343 346 308 9 347 350
          351 310 341 340 352 313
          345 344 352 313 345 344
          353 316 349 348 354 339
          1 0 355 343 5 4
          355 343 5 4 356 347
          9 8 357 358 272 180
          359 360 275 184 359 360
          275 184 361 362 278 188
          48 239 238 126 52 242
          241 129 52 242 241 129
          56 245 244 132 336 271
          363 222 337 274 364 224
          337 274 364 224 338 277
          365 226 51 321 239 48
          55 322 242 52 55 322
          242 52 59 323 245 56
          366 367 213 212 368 369
          217 216 368 369 217 216
          370 371 221 220 223 222
          363 372 225 224 364 373
          225 224 364 373 227 226
          365 374 375 210 213 376
          377 214 217 378 377 214
          217 378 379 218 221 380
          375 381 73 210 377 382
          75 214 377 382 75 214
          379 383 77 218 381 354
          0 73 382 355 4 75
          382 355 4 75 383 356
          8 77 297 300 342 384
          301 304 346 385 301 304
          346 385 305 308 350 386
          376 213 367 387 378 217
          369 388 378 217 369 388
          380 221 371 389 223 372
          390 391 225 373 392 393
          225 373 392 393 227 374
          394 395 396 357 180 205
          397 359 184 207 397 359
          184 207 398 361 188 209
          387 367 357 396 388 369
          359 397 388 369 359 397
          389 371 361 398 399 747
          748 400 401 749 750 402
          401 749 750 402 403 751
          752 404 405 102 406 407
          408 106 409 410 408 106
          409 410 411 110 412 413
          180 272 232 181 184 275
          234 185 184 275 234 185
          188 278 236 189 414 415
          144 416 417 418 148 419
          417 418 148 419 420 421
          152 422 423 424 255 391
          425 426 256 393 425 426
          256 393 427 428 257 395
          429 430 431 753 432 433
          434 754 432 433 434 754
          435 436 437 755 438 399
          400 439 440 401 402 441
          440 401 402 441 442 403
          404 443 447 415 414 448
          449 418 417 450 449 418
          417 450 451 421 420 452
          453 100 99 454 455 104
          103 456 455 104 103 456
          457 108 107 458 279 459
          460 280 281 461 462 282
          281 461 462 282 283 463
          464 284 279 465 62 459
          281 466 66 461 281 466
          66 461 283 467 70 463
          448 414 100 453 450 417
          104 455 450 417 104 455
          452 420 108 457 468 469
          415 447 470 471 418 449
          470 471 418 449 472 473
          421 451 753 431 748 756
          754 434 750 757 754 434
          750 757 755 437 752 758
          400 748 431 12 402 750
          434 16 402 750 434 16
          404 752 437 20 474 31
          469 468 475 35 471 470
          475 35 471 470 476 39
          473 472 399 438 744 759
          401 440 745 760 401 440
          745 760 403 442 746 761
          339 477 351 340 343 478
          352 344 343 478 352 344
          347 479 353 348 367 366
          358 357 369 368 360 359
          369 368 360 359 371 370
          362 361 480 32 31 474
          481 36 35 475 481 36
          35 475 482 40 39 476
          483 477 339 354 484 478
          343 355 484 478 343 355
          485 479 347 356 486 483
          354 381 487 484 355 382
          487 484 355 382 488 485
          356 383 183 182 465 279
          187 186 466 281 187 186
          466 281 191 190 467 283
          762 763 489 490 764 765
          491 492 764 765 491 492
          766 767 493 494 490 489
          32 480 492 491 36 481
          492 491 36 481 494 493
          40 482 387 495 496 376
          388 497 498 378 388 497
          498 378 389 499 500 380
          501 270 272 358 502 273
          275 360 502 273 275 360
          503 276 278 362 504 331
          298 297 505 333 302 301
          505 333 302 301 506 335
          306 305 507 486 381 375
          508 487 382 377 508 487
          382 377 509 488 383 379
          318 238 237 510 319 241
          240 511 319 241 240 511
          320 244 243 512 50 49
          255 424 54 53 256 426
          54 53 256 426 58 57
          257 428 363 513 390 372
          364 514 392 373 364 514
          392 373 365 515 394 374
          516 423 391 390 517 425
          393 392 517 425 393 392
          518 427 395 394 519 520
          205 204 521 522 207 206
          521 522 207 206 523 524
          209 208 525 519 204 280
          526 521 206 282 526 521
          206 282 527 523 208 284
          528 460 459 529 530 462
          461 531 530 462 461 531
          532 464 463 533 534 90
          535 536 537 93 538 539
          537 93 538 539 540 96
          541 542 546 525 280 460
          547 526 282 462 547 526
          282 462 548 527 284 464
          759 768 747 399 760 769
          749 401 760 769 749 401
          761 770 751 403 507 375
          376 496 508 377 378 498
          508 377 378 498 509 379
          380 500 483 486 549 550
          484 487 551 552 484 487
          551 552 485 488 553 554
          231 232 271 336 233 234
          274 337 233 234 274 337
          235 236 277 338 391 255
          128 223 393 256 131 225
          393 256 131 225 395 257
          134 227 525 546 555 556
          526 547 557 558 526 547
          557 558 527 548 559 560
          519 525 556 561 521 526
          558 562 521 526 558 562
          523 527 560 563 561 556
          564 565 562 558 566 567
          562 558 566 567 563 560
          568 569 570 571 572 573
          574 575 576 577 574 575
          576 577 578 579 580 581
          2 1 300 299 6 5
          304 303 6 5 304 303
          10 9 308 307 582 299
          298 330 583 303 302 332
          583 303 302 332 584 307
          306 334 585 363 271 270
          586 364 274 273 586 364
          274 273 587 365 277 276
          555 416 144 143 557 419
          148 147 557 419 148 147
          559 422 152 151 588 589
          237 267 590 591 240 268
          590 591 240 268 592 593
          243 269 396 594 495 387
          397 595 497 388 397 595
          497 388 398 596 499 389
          594 396 205 520 595 397
          207 522 595 397 207 522
          596 398 209 524 597 598
          430 429 599 600 433 432
          599 600 433 432 601 602
          436 435 603 246 248 604
          605 249 251 606 605 249
          251 606 607 252 254 608
          72 211 210 73 74 215
          214 75 74 215 214 75
          76 219 218 77 536 535
          609 543 539 538 610 544
          539 538 610 544 542 541
          611 545 612 561 565 613
          614 562 567 615 614 562
          567 615 616 563 569 617
          618 619 620 621 622 623
          624 625 622 623 624 625
          626 627 628 629 630 588
          267 247 631 590 268 250
          631 590 268 250 632 592
          269 253 633 634 573 572
          635 636 577 576 635 636
          577 576 637 638 581 580
          60 639 81 640 64 641
          85 642 64 641 85 642
          68 643 89 644 561 612
          520 519 562 614 522 521
          562 614 522 521 563 616
          524 523 510 231 336 318
          511 233 337 319 511 233
          337 319 512 235 338 320
          640 81 80 645 642 85
          84 646 642 85 84 646
          644 89 88 647 550 648
          477 483 552 649 478 484
          552 649 478 484 554 650
          479 485 630 247 246 651
          631 250 249 652 631 250
          249 652 632 253 252 653
          633 572 654 621 635 576
          655 625 635 576 655 625
          637 580 656 629 15 43
          166 439 19 45 169 441
          19 45 169 441 23 47
          172 443 660 639 661 651
          662 641 663 652 662 641
          663 652 664 643 665 653
          666 330 288 287 667 332
          292 291 667 332 292 291
          668 334 296 295 603 660
          651 246 605 662 652 249
          605 662 652 249 607 664
          653 252 571 570 516 669
          575 574 517 670 575 574
          517 670 579 578 518 671
          672 262 261 311 673 264
          263 314 673 264 263 314
          674 266 265 317 416 555
          546 675 419 557 547 676
          419 557 547 676 422 559
          548 677 570 573 678 657
          574 577 679 658 574 577
          679 658 578 581 680 659
          495 42 14 496 497 44
          18 498 497 44 18 498
          499 46 22 500 61 529
          459 62 65 531 461 66
          65 531 461 66 69 533
          463 70 13 507 496 14
          17 508 498 18 17 508
          498 18 21 509 500 22
          114 510 237 589 118 511
          240 591 118 511 240 591
          122 512 243 593 513 669
          516 390 514 670 517 392
          514 670 517 392 515 671
          518 394 594 681 42 495
          595 682 44 497 595 682
          44 497 596 683 46 499
          114 589 588 111 118 591
          590 115 118 591 590 115
          122 593 592 119 510 114
          113 231 511 118 117 233
          511 118 117 233 512 122
          121 235 681 594 520 612
          682 595 522 614 682 595
          522 614 683 596 524 616
          684 685 645 686 687 688
          646 689 687 688 646 689
          690 691 647 692 693 654
          572 571 694 655 576 575
          694 655 576 575 695 656
          580 579 675 546 460 528
          676 547 462 530 676 547
          462 530 677 548 464 532
          439 400 12 15 441 402
          16 19 441 402 16 19
          443 404 20 23 696 672
          648 697 698 673 649 699
          698 673 649 699 700 674
          650 701 702 618 621 654
          703 622 625 655 703 622
          625 655 704 626 629 656
          72 705 212 211 74 706
          216 215 74 706 216 215
          76 707 220 219 182 112
          136 465 186 116 138 466
          186 116 138 466 190 120
          140 467 708 686 645 80
          709 689 646 84 709 689
          646 84 710 692 647 88
          91 341 310 92 94 345
          313 95 94 345 313 95
          97 349 316 98 135 630
          651 661 137 631 652 663
          137 631 652 663 139 632
          653 665 666 287 325 711
          667 291 327 712 667 291
          327 712 668 295 329 713
          444 25 714 715 445 27
          716 717 445 27 716 717
          446 29 718 719 705 720
          366 212 706 721 368 216
          706 721 368 216 707 722
          370 220 331 504 715 714
          333 505 717 716 333 505
          717 716 335 506 719 718
          13 549 486 507 17 551
          487 508 17 551 487 508
          21 553 488 509 571 669
          513 693 575 670 514 694
          575 670 514 694 579 671
          515 695 102 405 685 99
          106 408 688 103 106 408
          688 103 110 411 691 107
          672 351 477 648 673 352
          478 649 673 352 478 649
          674 353 479 650 693 513
          363 585 694 514 364 586
          694 514 364 586 695 515
          365 587 285 714 25 24
          289 716 27 26 289 716
          27 26 293 718 29 28
          143 142 192 564 147 146
          194 566 147 146 194 566
          151 150 196 568 726 489
          763 771 727 491 765 772
          727 491 765 772 728 493
          767 773 534 536 715 504
          537 539 717 505 537 539
          717 505 540 542 719 506
          165 565 564 192 168 567
          566 194 168 567 566 194
          171 569 568 196 78 81
          639 660 82 85 641 662
          82 85 641 662 86 89
          643 664 136 135 661 63
          138 137 663 67 138 137
          663 67 140 139 665 71
          729 262 672 696 730 264
          673 698 730 264 673 698
          731 266 674 700 630 135
          111 588 631 137 115 590
          631 137 115 590 632 139
          119 592 702 585 270 501
          703 586 273 502 703 586
          273 502 704 587 276 503
          585 702 654 693 586 703
          655 694 586 703 655 694
          587 704 656 695 61 406
          528 529 65 409 530 531
          65 409 530 531 69 412
          532 533 414 732 101 100
          417 733 105 104 417 733
          105 104 420 734 109 108
          63 62 465 136 67 66
          466 138 67 66 466 138
          71 70 467 140 501 720
          618 702 502 721 622 703
          502 721 622 703 503 722
          626 704 720 501 358 366
          721 502 360 368 721 502
          360 368 722 503 362 370
          685 684 454 99 688 687
          456 103 688 687 456 103
          691 690 458 107 685 405
          640 645 688 408 642 646
          688 408 642 646 691 411
          644 647 30 141 469 31
          34 145 471 35 34 145
          471 35 38 149 473 39
          598 738 739 430 600 740
          741 433 600 740 741 433
          602 742 743 436 43 42
          681 167 45 44 682 170
          45 44 682 170 47 46
          683 173 678 711 325 723
          679 712 327 724 679 712
          327 724 680 713 329 725
          619 618 720 705 623 622
          721 706 623 622 721 706
          627 626 722 707 102 101
          528 406 106 105 530 409
          106 105 530 409 110 109
          532 412 549 13 12 739
          551 17 16 741 551 17
          16 741 553 21 20 743
          711 678 573 634 712 679
          577 636 712 679 577 636
          713 680 581 638 80 79
          258 708 84 83 259 709
          84 83 259 709 88 87
          260 710 738 598 696 697
          740 600 698 699 740 600
          698 699 742 602 700 701
          714 285 288 331 716 289
          292 333 716 289 292 333
          718 293 296 335 672 311
          310 351 673 314 313 352
          673 314 313 352 674 317
          316 353 430 739 12 431
          433 741 16 434 433 741
          16 434 436 743 20 437
          193 438 439 166 195 440
          441 169 195 440 441 169
          197 442 443 172 489 726
          33 32 491 727 37 36
          491 727 37 36 493 728
          41 40 444 715 536 543
          445 717 539 544 445 717
          539 544 446 719 542 545
          3 619 705 72 7 623
          706 74 7 623 706 74
          11 627 707 76 633 666
          711 634 635 667 712 636
          635 667 712 636 637 668
          713 638 384 534 504 297
          385 537 505 301 385 537
          505 301 386 540 506 305
          726 771 744 33 727 772
          745 37 727 772 745 37
          728 773 746 41 167 613
          565 165 170 615 567 168
          170 615 567 168 173 617
          569 171 675 732 414 416
          676 733 417 419 676 733
          417 419 677 734 420 422
          550 549 739 738 552 551
          741 740 552 551 741 740
          554 553 743 742 732 675
          528 101 733 676 530 105
          733 676 530 105 734 677
          532 109 63 661 639 60
          67 663 641 64 67 663
          641 64 71 665 643 68
          384 91 90 534 385 94
          93 537 385 94 93 537
          386 97 96 540 123 744
          438 193 124 745 440 195
          124 745 440 195 125 746
          442 197 406 61 60 407
          409 65 64 410 409 65
          64 410 412 69 68 413
          154 78 660 603 158 82
          662 605 158 82 662 605
          162 86 664 607 91 384
          342 341 94 385 346 345
          94 385 346 345 97 386
          350 349 405 407 60 640
          408 410 64 642 408 410
          64 642 411 413 68 644
          648 550 738 697 649 552
          740 699 649 552 740 699
          650 554 742 701 735 92
          310 309 736 95 313 312
          736 95 313 312 737 98
          316 315 633 582 330 666
          635 583 332 667 635 583
          332 667 637 584 334 668
          167 681 612 613 170 682
          614 615 170 682 614 615
          173 683 616 617 620 2
          299 582 624 6 303 583
          624 6 303 583 628 10
          307 584 582 633 621 620
          583 635 625 624 583 635
          625 624 584 637 629 628
          141 144 415 469 145 148
          418 471 145 148 418 471
          149 152 421 473 143 564
          556 555 147 566 558 557
          147 566 558 557 151 568
          560 559 2 620 619 3
          6 624 623 7 6 624
          623 7 10 628 627 11
          729 696 598 597 730 698
          600 599 730 698 600 599
          731 700 602 601 141 30
          123 142 145 34 124 146
          145 34 124 146 149 38
          125 150 154 603 604 155
          158 605 606 159 158 605
          606 159 162 607 608 163
          193 192 142 123 195 194
          146 124 195 194 146 124
          197 196 150 125
        </DataArray>
        <DataArray type="Int64" Name="offsets" format="ascii" RangeMin="8" RangeMax="3616">
          8 16 24 32 40 48
          56 64 72 80 88 96
          104 112 120 128 136 144
          152 160 168 176 184 192
          200 208 216 224 232 240
          248 256 264 272 280 288
          296 304 312 320 328 336
          344 352 360 368 376 384
          392 400 408 416 424 432
          440 448 456 464 472 480
          488 496 504 512 520 528
          536 544 552 560 568 576
          584 592 600 608 616 624
          632 640 648 656 664 672
          680 688 696 704 712 720
          728 736 744 752 760 768
          776 784 792 800 808 816
          824 832 840 848 856 864
          872 880 888 896 904 912
          920 928 936 944 952 960
          968 976 984 992 1000 1008
          1016 1024 1032 1040 1048 1056
          1064 1072 1080 1088 1096 1104
          1112 1120 1128 1136 1144 1152
          1160 1168 1176 1184 1192 1200
          1208 1216 1224 1232 1240 1248
          1256 1264 1272 1280 1288 1296
          1304 1312 1320 1328 1336 1344
          1352 1360 1368 1376 1384 1392
          1400 1408 1416 1424 1432 1440
          1448 1456 1464 1472 1480 1488
          1496 1504 1512 1520 1528 1536
          1544 1552 1560 1568 1576 1584
          1592 1600 1608 1616 1624 1632
          1640 1648 1656 1664 1672 1680
          1688 1696 1704 1712 1720 1728
          1736 1744 1752 1760 1768 1776
          1784 1792 1800 1808 1816 1824
          1832 1840 1848 1856 1864 1872
          1880 1888 1896 1904 1912 1920
          1928 1936 1944 1952 1960 1968
          1976 1984 1992 2000 2008 2016
          2024 2032 2040 2048 2056 2064
          2072 2080 2088 2096 2104 2112
          2120 2128 2136 2144 2152 2160
          2168 2176 2184 2192 2200 2208
          2216 2224 2232 2240 2248 2256
          2264 2272 2280 2288 2296 2304
          2312 2320 2328 2336 2344 2352
          2360 2368 2376 2384 2392 2400
          2408 2416 2424 2432 2440 2448
          2456 2464 2472 2480 2488 2496
          2504 2512 2520 2528 2536 2544
          2552 2560 2568 2576 2584 2592
          2600 2608 2616 2624 2632 2640
          2648 2656 2664 2672 2680 2688
          2696 2704 2712 2720 2728 2736
          2744 2752 2760 2768 2776 2784
          2792 2800 2808 2816 2824 2832
          2840 2848 2856 2864 2872 2880
          2888 2896 2904 2912 2920 2928
          2936 2944 2952 2960 2968 2976
          2984 2992 3000 3008 3016 3024
          3032 3040 3048 3056 3064 3072
          3080 3088 3096 3104 3112 3120
          3128 3136 3144 3152 3160 3168
          3176 3184 3192 3200 3208 3216
          3224 3232 3240 3248 3256 3264
          3272 3280 3288 3296 3304 3312
          3320 3328 3336 3344 3352 3360
          3368 3376 3384 3392 3400 3408
          3416 3424 3432 3440 3448 3456
          3464 3472 3480 3488 3496 3504
          3512 3520 3528 3536 3544 3552
          3560 3568 3576 3584 3592 3600
          3608 3616
        </DataArray>
        <DataArray type="UInt8" Name="types" format="ascii" RangeMin="12" RangeMax="12">
          12 12 12 12 12 12
          12 12 12 12 12 12
          12 12 12 12 12 12
          12 12 12 12 12 12
          12 12 12 12 12 12
          12 12 12 12 12 12
          12 12 12 12 12 12
          12 12 12 12 12 12
          12 12 12 12 12 12
          12 12 12 12 12 12
          12 12 12 12 12 12
          12 12 12 12 12 12
          12 12 12 12 12 12
          12 12 12 12 12 12
          12 12 12 12 12 12
          12 12 12 12 12 12
          12 12 12 12 12 12
          12 12 12 12 12 12
          12 12 12 12 12 12
          12 12 12 12 12 12
          12 12 12 12 12 12
          12 12 12 12 12 12
          12 12 12 12 12 12
          12 12 12 12 12 12
          12 12 12 12 12 12
          12 12 12 12 12 12
          12 12 12 12 12 12
          12 12 12 12 12 12
          12 12 12 12 12 12
          12 12 12 12 12 12
          12 12 12 12 12 12
          12 12 12 12 12 12
          12 12 12 12 12 12
          12 12 12 12 12 12
          12 12 12 12 12 12
          12 12 12 12 12 12
          12 12 12 12 12 12
          12 12 12 12 12 12
          12 12 12 12 12 12
          12 12 12 12 12 12
          12 12 12 12 12 12
          12 12 12 12 12 12
          12 12 12 12 12 12
          12 12 12 12 12 12
          12 12 12 12 12 12
          12 12 12 12 12 12
          12 12 12 12 12 12
          12 12 12 12 12 12
          12 12 12 12 12 12
          12 12 12 12 12 12
          12 12 12 12 12 12
          12 12 12 12 12 12
          12 12 12 12 12 12
          12 12 12 12 12 12
          12 12 12 12 12 12
          12 12 12 12 12 12
          12 12 12 12 12 12
          12 12 12 12 12 12
          12 12 12 12 12 12
          12 12 12 12 12 12
          12 12 12 12 12 12
          12 12 12 12 12 12
          12 12 12 12 12 12
          12 12 12 12 12 12
          12 12 12 12 12 12
          12 12 12 12 12 12
          12 12 12 12 12 12
          12 12 12 12 12 12
          12 12 12 12 12 12
          12 12 12 12 12 12
          12 12 12 12 12 12
          12 12 12 12 12 12
          12 12 12 12 12 12
          12 12 12 12 12 12
          12 12 12 12 12 12
          12 12
        </DataArray>
      </Cells>
    </Piece>
  </UnstructuredGrid>
</VTKFile>
