<?xml version="1.0"?>
<VTKFile type="UnstructuredGrid" version="0.1" byte_order="LittleEndian" header_type="UInt32" compressor="vtkZLibDataCompressor">
  <UnstructuredGrid>
    <Piece NumberOfPoints="783" NumberOfCells="456">
      <PointData>
        <DataArray type="Int32" Name="libmesh_node_id" format="ascii" RangeMin="1863" RangeMax="4982">
          1863 1864 1865 1887 1888 1889
          1890 1891 1892 1899 1900 1901
          1902 1903 1904 1905 1906 1907
          1908 1909 1910 1911 1912 1913
          1914 1915 1916 1917 1918 1919
          1926 1927 1928 1929 1930 1931
          1932 1933 1934 1935 1936 1937
          1938 1939 1940 1941 1942 1943
          1944 1945 1946 1950 1951 1952
          1953 1954 1955 1956 1957 1958
          1959 1960 1961 1962 1963 1964
          1965 1966 1967 1968 1969 1970
          1971 1972 1973 1977 1978 1979
          1980 1981 1982 1983 1984 1985
          1986 1987 1988 1989 1990 1991
          1992 1993 1994 1995 1996 1997
          1998 1999 2000 2004 2005 2006
          2007 2008 2009 2010 2011 2012
          2013 2014 2015 2016 2017 2018
          2019 2020 2021 2022 2023 2024
          2025 2026 2027 2031 2032 2033
          2034 2035 2036 2037 2038 2039
          2040 2041 2042 2043 2044 2045
          2046 2047 2048 2049 2050 2051
          2052 2053 2054 2058 2059 2060
          2061 2062 2063 2064 2065 2066
          2067 2068 2069 2070 2071 2072
          2073 2074 2075 2076 2077 2078
          2079 2080 2081 2082 2083 2084
          2085 2086 2087 2088 2089 2090
          2091 2092 2093 2094 2095 2096
          2097 2098 2099 2100 2101 2102
          2103 2104 2105 2106 2107 2108
          2109 2110 2111 2118 2119 2120
          2121 2122 2123 2136 2137 2138
          2139 2140 2141 2142 2143 2144
          2145 2146 2147 2154 2155 2156
          2157 2158 2159 2160 2161 2162
          2163 2165 2167 2169 2170 2171
          2172 2173 2174 2175 2176 2177
          2178 2179 2180 2181 2182 2183
          2209 2213 2217 2232 2233 2234
          2235 2236 2237 2238 2239 2240
          2241 2242 2243 2245 2247 2249
          2310 2311 2312 2313 2314 2315
          2364 2365 2366 2367 2368 2369
          2370 2371 2372 2373 2374 2375
          2574 2575 2576 2577 2578 2579
          2586 2587 2588 2589 2590 2591
          2634 2635 2636 2637 2638 2639
          2640 2641 2642 2673 2674 2675
          2676 2677 2678 2679 2680 2681
          2682 2683 2684 2727 2728 2729
          2730 2731 2732 2733 2734 2735
          2826 2827 2828 2829 2830 2831
          2832 2833 2834 2835 2836 2837
          2874 2875 2876 2877 2878 2879
          2901 2902 2903 2904 2905 2906
          2907 2908 2909 2910 2911 2912
          3003 3004 3005 3006 3007 3008
          3009 3010 3011 3012 3013 3014
          3015 3016 3017 3024 3025 3026
          3027 3028 3029 3030 3031 3032
          3033 3034 3035 3037 3038 3041
          3042 3045 3046 3048 3049 3050
          3051 3052 3053 3105 3106 3107
          3108 3109 3110 3168 3169 3170
          3171 3172 3173 3174 3175 3176
          3177 3178 3179 3228 3229 3230
          3231 3232 3233 3234 3235 3236
          3237 3238 3239 3246 3247 3248
          3249 3250 3251 3264 3265 3266
          3267 3268 3269 3375 3376 3377
          3393 3394 3395 3396 3397 3398
          3423 3424 3425 3426 3427 3428
          3429 3430 3431 3432 3433 3434
          3441 3442 3443 3444 3445 3446
          3465 3466 3467 3468 3469 3470
          3471 3472 3473 3474 3475 3476
          3477 3478 3479 3480 3481 3482
          3516 3517 3518 3546 3547 3548
          3549 3550 3551 3552 3553 3554
          3573 3574 3575 3576 3577 3578
          3600 3601 3602 3663 3664 3665
          3666 3667 3668 3705 3706 3707
          3723 3724 3725 3726 3727 3728
          3729 3730 3731 3732 3733 3734
          3789 3790 3791 3810 3811 3812
          3813 3814 3815 3819 3820 3821
          3840 3841 3842 3843 3844 3845
          3864 3865 3866 3891 3892 3893
          3894 3895 3896 3897 3898 3899
          3933 3934 3935 3936 3937 3938
          3945 3946 3947 3948 3949 3950
          3996 3997 3998 3999 4000 4001
          4002 4003 4004 4005 4006 4007
          4038 4039 4040 4071 4072 4073
          4074 4075 4076 4083 4084 4085
          4110 4111 4112 4113 4114 4115
          4131 4132 4133 4134 4135 4136
          4137 4138 4139 4140 4141 4142
          4143 4144 4145 4239 4240 4241
          4242 4243 4244 4245 4246 4247
          4248 4249 4250 4329 4330 4331
          4332 4333 4334 4356 4357 4358
          4359 4360 4361 4362 4363 4364
          4392 4393 4394 4419 4420 4421
          4446 4447 4448 4449 4450 4451
          4467 4468 4469 4479 4480 4481
          4503 4504 4505 4512 4513 4514
          4524 4525 4526 4542 4543 4544
          4548 4549 4550 4563 4564 4565
          4575 4576 4577 4596 4597 4598
          4632 4633 4634 4674 4675 4676
          4686 4687 4688 4755 4756 4757
          4758 4759 4760 4776 4777 4778
          4824 4825 4826 4827 4828 4829
          4839 4840 4841 4959 4960 4961
          4980 4981 4982 3036 3039 3040
          3043 3044 3047 3609 3693 3610
          3613 3695 3614 3617 3697 3618
          4021 4024 4027 4020 4023 4026
          4009 4008 4013 4012 4017 4016
          3671 4188 3675 4189 3679 4190
          2402 2409 2405 2410 2408 2411
          2389 4395 2393 4396 2397 4397
          2400 2403 2406 3939 4287 3941
          4288 3943 4289 3694 3696 3698
          4599 4380 4600 4384 4601 4388
          4830 4831 4832 4022 4025 4028
          4656 4657 4658
        </DataArray>
        <DataArray type="Float64" Name="resid_x" format="ascii" RangeMin="-0.00016979790387106064" RangeMax="0.00007194084941009038">
          0.0000017222308459352575 0.000003540391865008985 0.000007177414465431298 0.000008895019898869094 0.000024208652427581967 0.000017492232975202526
          3.855619601367266e-8 0.0000039311464039570865 0.000007604329989252534 0.000003362102363624331 0.000010342442849253786 0.00001797744688669667
          0.0000036635222857572813 0.000009186131509020257 0.000014450987675829197 0.000007283022988469057 0.000011632795753779845 0.00001589535464874281
          0.000007981443761240214 0.000014703556465711642 0.000015357588641684572 0.000013293831847116522 0.00001613592717264467 0.000013926178844325676
          0.000004956315863058336 0.000018196837529682597 0.00001789073791047535 0.0000014029558306205558 0.000005452365122948777 0.00000961719175052167
          0.00001001591053029216 0.00002152241215647166 0.00002051542772907311 0.000005997951367575638 0.000013026233129931342 0.000016924471697210564
          0.000006924585009393525 0.000014219358349221167 0.000016144663150585714 0.000007494069018232352 0.000012131125143755028 0.000014222609175051915
          0.000009580615585313978 0.000010499166329003273 0.000011988721954958592 0.000009162721182010003 0.00000961516750686009 0.00001223696399721419
          0.000007587203430858835 0.000005319485911314814 0.000010646201436870228 -0.000005644367586876697 -0.000009583941961821552 0.000016883096255693175
          0.00001301898420824621 0.000025216306729802795 0.000025113886468197677 0.000009486841613615127 0.00001997454700974899 0.00001827099680706823
          0.000007218708486744774 0.000017569759930724516 0.000015621120686981627 0.000008441230426203816 0.000014925661086850894 0.000013485073163455041
          0.00000929430382612395 0.000011686811553834886 0.000011275747181738183 0.000009042464785835591 0.000009806104900533796 0.000009534845652137136
          0.0000072606675174391455 0.0000044397079939084705 0.00000980097497493837 -0.00001465348352347462 -0.000032527860374997886 0.000008015979095610248
          0.00001559022865316173 0.0000335755083373801 0.000027626176654971246 0.000006327114325577199 0.000025203427783448973 0.000015909321931406595
          0.000005851648150478894 0.000021160513578699636 0.000012790411298091442 0.000005987352509784216 0.000014934059624049922 0.000009637897973036047
          0.000006333508122180476 0.000009851623786971686 0.000006665370283709393 0.000006141573519080623 0.0000073024792541787065 0.000005088545064868555
          0.0000028843716974868983 7.321634414303446e-7 0.0000025469521549581486 -0.000014872579811697761 -0.0000325713115456594 0.000007192645805620401
          0.000018997774692941505 0.0000463944898985158 0.000028647496259859295 3.661955141343043e-7 0.00002464290221504406 0.000008479220008572597
          0.0000012788284216025403 0.000019724370339035957 0.0000059265049996426455 9.078964202657858e-7 0.000010934880960711268 0.0000024979334503072437
          0.0000016633239150465329 0.000005463613275802359 -3.6830774430285373e-8 0.000002023610866652703 0.0000034262409507324065 -0.00000102022848746941
          -4.98195027232029e-7 -0.0000024253306669663743 -0.0000027655713166208074 -0.000010626124152590677 -0.000021129081997806054 0.000006283188155098429
          0.000017767654933331656 0.00004918293049671618 0.000021077256191270877 -0.000010240582070109028 0.000014600382391760647 -0.000007124185150031437
          -0.000007743982248120673 0.000010179429331236278 -0.000007970566351822583 -0.000007349856805394239 0.0000019250541736237636 -0.000009379638859607908
          -0.0000056090385200935344 -0.0000021819050504134907 -0.00000987524364504111 -0.000003863897924505366 -0.000003275779484557262 -0.000009228293197161008
          -0.000004571980087408889 -0.0000066077503606543075 -0.000009401448522350364 -0.00000944878948327954 -0.00002392250992322431 -0.000015997640921305845
          0.000001814526088494972 0.000021998094601238805 -0.000007589392180040733 -0.00002635638565923193 -0.000010467626065838176 -0.000037186189127513813
          -0.000018131017033296004 -0.000004445372391526092 -0.000024985219059914243 -0.000016502181809041616 -0.000010223329711678275 -0.00002259766048240408
          -0.000013773120123294902 -0.000011920207839910546 -0.00002015401009636264 -0.000010710304804817383 -0.000011719281862720976 -0.00001835859135179696
          -0.000009792519733764493 -0.0000129786593840997 -0.000017572705767410213 -0.000015529596590901917 -0.000012181962551371939 -0.0000071204683724790385
          -0.000011191693258583157 -0.000020591792138757725 -0.000022266591454656037 -0.00002260056533498478 -0.000029665715939986015 -0.00003143139064332168
          -0.000029653773691906693 -0.000030251824550298068 -0.000036784286362445684 -0.00002216924750664262 -0.00003798164443865465 -0.00004384299165027805
          -0.00001716306630883402 -0.00003471447271241601 -0.00008170578088250238 -0.0001006885061682894 -0.000033150141261151234 -0.000054252568240986676
          -0.00009932478317691007 -0.00011380310009134753 -0.00005952734711112129 -0.000033399958828006504 -0.0000348601766253509 -0.00003840983915259777
          -0.00004392062859426282 -0.00005015927392904018 -0.0000602008607950566 -0.0000412030999161761 -0.00003476422594994588 -0.000033459829965831744
          -0.000027275717760621987 -0.00004395622943298427 -0.00003848231036762684 -0.000022708479415101124 -0.000014678343776511338 -0.00003029892191475092
          -0.00001920207137733141 -0.00002881185798653263 -0.000020555643583294522 -0.000056922283230953497 -0.00007018281211967903 -0.00009066993255046896
          -0.00011991440055370006 -0.00006657230609175002 -0.00010625750444170912 -0.000014489128211891966 -0.000022843675081686554 -0.000019624438995169413
          -0.000028765267926333937 -0.00001630470648206206 -0.000032231967037901765 -0.00002012106901094768 -0.000028378058068323497 -0.000024876106521354302
          -0.00008570316756562057 -0.00016979790387106064 -0.00012498061822774353 -0.000057360417387020135 -0.00010591441997553908 -0.00007731006733791013
          -0.00004851340980582819 -0.000035484343147595965 -0.00007754033997731113 -0.00004689977328342643 -0.00005709011092247529 -0.00004191861083113757
          -0.000039104303948933605 -0.00003746533103154981 -0.00003347737975079035 -0.000010422441603985533 -0.000013664026430326714 -0.000014211580495970821
          0.000016921601623920424 0.000025137302687383567 0.00001531748334659966 -0.000006666265474519761 -0.0000013393813769191354 -0.000002153690919382001
          -0.000004772431320798631 -0.000005799065180500662 -7.309677765299227e-7 -0.000003119899391723635 -0.000007472171754230317 -0.0000031394768562620357
          0.000002439494242167939 0.000001159102496872677 -0.000002600711835665237 0.000027259101395671337 0.000046701451640984715 0.00002619262621195162
          -0.000008028045015207042 -0.000007193083127798872 -0.000013301678552402052 -0.00000494282147167624 -0.000008694538061071455 -0.000008246213961005111
          -5.142143901792906e-7 -0.0000022060144508895263 2.019195111113703e-7 -0.0000011513393640694147 0.000003381273684599506 0.0000022549487028733495
          0.000007111492546618692 0.0000050336496886238535 0.000011433245854952645 0.000005004604415104197 0.000007086738635919687 0.00001160337233674369
          7.334486964438724e-7 0.000002045509216674901 -0.0000010893758197738634 0.000006813327267263247 0.00000546216590624482 0.000009102608571565085
          4.887470002046257e-7 0.000002449169236307114 0.000003676822433629212 0.000005724034941145817 0.000016987923788125414 0.000015919639491990267
          -0.000002887165453602236 -0.000007893565177496953 -5.836181782292726e-7 -0.000005066896233030249 -0.0000068662699423960305 0.000001162136558541249
          0.0000020723086082696796 2.4419454014434905e-8 0.00000462721748251127 -0.0000027643124613785375 -0.0000038254186627284525 -0.000003799670361903651
          -0.000005581722780423348 1.214157570039731e-7 0.000005882748544294714 0.0000037716704193169193 0.0000015010015670391397 0.00001230089924719735
          0.000015072416176931114 0.00001900581915159627 0.000018883906898192748 0.000004882234188319234 5.589729381583197e-7 0.0000013848087805357068
          0.000005444370531126896 0.0000028859244802781348 0.000011678297829220696 0.000006522695088551078 0.000008282640846735134 0.000014581840463989693
          0.0000011803425814527202 0.000025171079486296932 0.0000015479318294375766 -0.000006122660694440896 0.000006429195843260516 0.00006472219078168528
          0.00001362864187792745 0.0000020470666188820985 0.000019238911644237078 0.00004259938630557514 0.0000230435959717723 0.000019829768905132994
          0.000006809455565637279 0.000002858344424261361 0.000007452265006868686 1.3870344162114634e-7 0.0000087833890165534 0.000006533161479360672
          -0.000003896512434931054 -8.416935548538618e-8 -0.0000017181151337197775 -0.000006389579787935418 -5.200685979644959e-7 -0.0000019460357925105143
          0.000012042805550116498 0.00000903266209029141 0.000020574850296384284 0.000017071504563759277 0.000030098211802886965 0.000029021330809175794
          0.000007218349502791099 0.00000855247984554719 -1.1562626678340848e-7 0.000004938511061425288 0.000008571288982128777 0.00000453503413511136
          0.000019264552457265438 0.000011973872121595619 0.000007425220883483519 0.000017290034678651978 0.000015339742638786902 0.000008031573266453762
          0.000004656820034698583 0.00002459515287567271 0.00002335984511536715 -0.000004210922297964714 -5.162894876065138e-7 -0.000001859084229671737
          -0.000008297746629803981 4.423171597878195e-7 0.000001130133159055191 0.000008903042760355362 0.0000032439010575480154 0.000025642959344374106
          0.000025970235744576797 0.000024404161886870668 0.000030555277509058953 0.000001665648130755315 -0.0000020280635137925884 0.000008289515599946284
          0.000005185124141604547 0.000013497287932429103 0.000011146954090102135 -6.047222433913646e-8 -7.92527656834352e-8 0.0000020014022765746375
          0.000006803220609530314 0.000015725002516342457 0.00001644500857655995 0.000009982771102201582 0.000006708450125625376 0.000006540311822622602
          0.000004833748704413665 0.000011968058828082384 0.000010723104883592072 -0.0000019938459634438743 -0.0000028136555179081313 -0.0000028524427069243075
          -0.000004482970638264305 0.000005595041583372762 0.00001321014218058636 0.0000054010129213466485 0.000008919959917585984 0.000022260002775276178
          0.000028326342322859688 0.000021754268873408478 0.000027192709195711373 0.000018141882970779122 0.000009353473436890525 0.000018977698284405875
          0.000006453319935761925 0.000009164702685637849 0.000006143268645786293 0.00001028704130456859 0.000017699342231392023 0.000026361687485376706
          0.00003019618582822403 0.000018039169470185357 0.000016835299454065478 0.000007272866648921905 6.14560553557908e-7 0.0000020910164248988394
          -0.000004769283634908916 0.0000104301924759298 0.000004757758159668057 9.865249426255218e-7 0.000002461423955768538 -0.0000029922799062997996
          0.0000018195203019821804 -0.0000026905024732570837 -0.0000025192445498589677 0.000014118071953950206 0.000003484332380621069 0.000017975433399541885
          0.00003543581589315892 0.0000192929094615657 0.000017578583948907323 0.0000035850672652770754 0.00002148247924571578 0.000015562239100486153
          0.00000478401124293093 -0.000005435217986349272 -0.000007434839313313901 -0.0000033405103145867088 0.0000013768915019252148 -0.000006012392094856267
          0.000002672764756850299 0.000004068147185343207 0.00002229955186283661 0.000013727310643307788 0.00001668879852845251 0.00002153072470534312
          0.0000036513020544859387 0.0000047981636888128065 0.000007053426670289298 0.000005014758828969512 0.00001818928815611187 0.00001283541137708788
          0.0000014924850986197669 0.000009087942039132102 0.000005308584046126441 0.0000015100236532283873 -0.0000026574595775041843 0.0000074416479558525594
          0.0000026092622542606136 0.000004094456243830535 0.000008034374932242017 0.000009581254367674319 0.000021810760685525565 0.000004526090901624258
          0.000012400805517120972 0.000009200463812586435 0.000004296588296703874 0.000018263627078907163 0.00001660780397294559 0.000007613774541059826
          0.000011322437840188826 0.0000039947255625061295 0.000012289712434943034 0.000008092948093452179 0.000006929505234953837 0.0000073436364353973715
          0.000004483977427360841 0.000007799644611061751 0.0000035394139774602706 0.0000036757914174678774 0.000005226972000338392 0.000007478148069672841
          0.000005487169372209166 0.00001131407236631965 -0.000003086456018541739 -0.000004420038601127274 0.000007833758361330823 0.000012415249946773343
          0.000014058960043250579 0.000005065626419442637 0.000021911925226270057 0.000014884534570658303 0.0000010121255585304745 0.00003044247734251826
          -5.896838318197872e-7 0.00001711412976668214 0.00000245362575113095 0.000004242694992218077 0.00001163131467407652 0.000009454761261018518
          0.000010481331631950752 0.000010989949122075515 0.000002953958388784983 -0.0000018209507659516788 0.000026207226748287127 0.000028673035680881753
          0.00000954696192678739 -0.0000011343548336206766 0.00001542395042530842 0.000015345086336271407 0.000006602236966024577 0.000002919621575836473
          0.000008391116866901527 0.000006411732504929546 0.000010542710590311088 0.0000037769825076416907 0.000017840349567865843 -0.000002439049698654827
          0.00001425020777467978 0.000013166134314346323 0.00002524094525258036 0.000015008991791631843 0.000004657402252750131 0.000011075403135940576
          0.0000010356518962417738 0.000004371466720165529 1.4763094613456929e-7 0.000006237321226315595 0.000008004146226703313 0.000014783874103335704
          0.000031968070783428004 0.00005896116593229195 0.0000332425521341051 0.000012383035864260705 0.0000300645595632254 0.00002268233556357302
          0.000016018031407938338 0.000024664177053157488 0.000042796941673639566 0.0000186720011048358 0.000024071098758682297 0.000025404501178716288
          0.000015629602724054337 0.000008486711405630842 0.000006515050920530285 0.0000018660361421618532 0.00001120886179561964 0.000008458886742834792
          0.000020249440206621117 0.00002329931987410383 0.000009228671486560813 0.000015994536080699007 0.000009997726668320439 0.000012654572031700617
          0.0000036256268405310266 0.000008247653415560663 1.758902379300764e-7 0.000007289406130261966 0.000015343141191337395 0.000013680469671761841
          0.000005473251184495709 0.000009839620761731283 4.327717200158787e-7 0.00001150313687814375 0.00000754151501936029 0.000010447088462317566
          0.000014549037162914225 0.00002088533131316961 0.00001446033424445936 0.00002268531759352932 0.000009813532020119808 0.000021913594061118147
          0.000016590305646158043 0.000022933886195009023 0.000013213322845206932 0.000020594115552885484 0.000014410359532757155 0.000011407840459831675
          0.000010011188849023966 -0.000006527987662874324 0.0000059720859595380205 0.0000016051950155748784 -4.182337249858392e-7 0.000008886780056283072
          0.00003765831414348497 0.00003936245914593073 0.00001811784269811767 0.000025221775953987446 0.000025108181477495606 0.000029436394747506256
          0.000020132670128236718 0.000012821443614585704 0.00001345444080450009 0.000008053095195581506 0.000012396745160403455 0.000013733674170346433
          0.000010106026411715874 0.000004246640738170271 0.000016934590543193906 0.00001980526094236268 0.000001939841025144773 0.000007215233818413935
          0.000019416048281928333 0.000022504858518068716 0.00002112349595195795 0.000011456566675033253 0.000026434127678331976 0.000008296016118070071
          0.00001365732952957055 0.000023905920262468072 0.000013403730864780528 0.000030287099809456208 0.000025494573853812597 0.00004031774082724482
          0.00003684396373837551 0.000022964912096412604 0.00002085287701114602 0.000015970998389569502 0.000004302630159713772 0.000011196783371136831
          0.000022230922799737485 0.00001538042789417382 0.00001669358203160165 0.000013977312848911794 0.00001689388537062797 0.000013694256017160455
          0.000026594090662190872 0.00000903465977297735 0.000014974813346779747 0.00001648965076128661 0.000026864085486799638 0.000018786982055818413
          0.000022097566491297016 0.000013843735488405784 0.00001768357278320032 0.000035565423330385926 0.00001491084231997064 0.00002141433596980491
          0.0000020947491861100787 0.000004584197613954899 0.000004843994114933636 0.000004088619646402947 0.000004143841447090679 0.000005907079184463981
          0.000015809955987489133 0.000015127636696199431 0.000011812121087473315 0.000009633313616141947 0.000008585099699365273 0.000010414519229007269
          0.000030119468577449737 0.000041978061901648545 0.000025656624837999686 0.00001530550490702609 0.000010793132409370187 0.000012118019928841761
          0.000018884861230805683 0.0000022227790461570862 0.00001548583227073408 0.000022792080566880202 0.000007662370930638929 0.000013624491250752158
          0.000016226148867648504 9.525824586908982e-7 0.00001317245148868551 0.000033171351233818314 0.0000016286586990155172 0.00001391597157862634
          0.00003369711451117752 0.000003898589230999505 0.000014915450047947587 0.000015030708254037961 0.000009458761470293453 0.000010402254598140814
          0.00001816665884879498 0.000003619130477083843 0.00000795137876763441 0.000011039174185878409 0.00001236811826776929 0.0000022350865891418437
          0.0000024449103270818284 0.000004970095630163485 0.000005451034766679186 0.000007930155351942858 0.0000013861701968487239 0.000003845621632692087
          -0.000008329291766528968 6.697925636345303e-7 -0.000007064332246065064 -0.0000026282243834607755 -0.000009550095210197895 -0.00000494737258982525
          0.00002833583024042241 0.000007254724532002044 0.00000769586938842437 0.00002581538197832245 0.000019056982830889524 0.000018951804545697115
          0.000025055030876686146 0.000005723157500803211 0.000010207143797291707 0.000012202432761121429 0.000006647932466741224 0.000010391717437663317
          0.0000050919124019443984 0.000008634583671174312 0.0000068727640294419245 0.000005766200273704669 0.0000457440499663786 -0.0000016881404751312168
          0.00001766734316266394 0.00007194084941009038 0.000008290316686143662 0.00003557832259204474 0.00004189434002865866 0.000017588991169270596
          0.000013169917857602798 0.00002225351762152883 0.00001137299562392613 0.00002295648231109837 0.00002863876996173076 0.00001902278949605929
          0.000010467916829348667 0.000014193775036197565 0.00002677920703320069 0.000034866386206644506 0.000021790376104391385 0.000022548170886427243
          -8.240701956374608e-7 0.000012650025107863172 0.000013208657334118357 0.000010021956440731117 0.00002590432450189084 0.000014963118084576621
          0.000026270221305857433 0.000023313729466512 0.000038140202313741156 0.00002861485762561955 0.000022670908600197492 0.000017684986636457012
          -9.709584340988897e-7 0.0000224756782132296 0.000009806137404311244 0.000027062425710155935 0.00001775465148945443 0.000020242492093647257
          0.000035833417508346344 0.00005429887632502073 0.000036465737009550026 -0.000004389216748723612 -0.000002384638072339129 -0.000005561823164690338
          -0.000007724224888150388 2.690239484515189e-7 0.000003714508456820198 0.000031074007996956254 0.00003414722708505735 0.00003490228693392439
          0.000017641343950991484 0.000007540636894454167 0.000035753554024964274 0.000012452153248077025 0.00002529570222931099 0.00001793146894391029
          0.000045104855951105804 0.00005691121996953541 0.00003326749044685329 0.00001535048895373592 0.000019158087609660868 0.000011851173096655288
          0.00001669803834269956 0.000021249225312658382 0.00002082808051762086
        </DataArray>
        <DataArray type="Float64" Name="resid_y" format="ascii" RangeMin="-0.00005224377956167085" RangeMax="0.00005996663570217997">
          9.393879646345249e-7 0.000002441737000645136 0.0000029427126396162906 -0.0000010885512617825333 1.237794828475025e-7 0.0000019557162486642105
          -0.000001130411421509936 -0.0000015915960030164766 6.382266619139182e-7 -0.000016664654598765385 -0.000032956436997633176 -0.000017331119660991823
          -0.000008099998988243817 -0.00001994108137495787 -0.000011503381099627064 -0.0000012938398097489534 -0.000003607847924011476 -0.000002369558305709285
          0.0000031054696068913423 0.000006578261076237157 0.000003490431479964695 0.0000043057599816570535 0.000009317517600984648 0.000004891632639690557
          0.0000014461879686410856 0.00000288184161996094 0.0000015655361377629046 -7.754050008737176e-7 -0.0000014005098015910586 -5.277594343129112e-7
          -0.000012547190506827233 -0.000025645766890874944 -0.000013363388519913033 -0.00000861452486339287 -0.00001734503909860824 -0.000010474813346698919
          -0.00000599431512507409 -0.00001191491812070275 -0.000006315526583429432 -0.00000299589378214421 -0.000007328677970749875 -0.00000298992709189122
          -0.0000017688324231140279 -0.000004447372415530143 -0.0000010221012875059887 -0.0000014299349456103547 -0.000003907559565472125 -0.0000011687211973303302
          0.000002109593558485487 0.0000013525684666986643 1.5272823295896937e-7 -0.000007604746056405487 -0.000021926326437216037 -0.000021988254966992526
          -0.00001275559566396578 -0.000023442465525103096 -0.000016663591949468703 -0.000011394161353837917 -0.00002026418706375932 -0.000013453313588450422
          -0.00000574645437084742 -0.000009637841307589406 -0.000006471819855854294 -8.961158033671257e-7 -0.000002937855023974964 -0.0000015224520917307
          7.452067289012709e-7 -3.4990825932904035e-8 3.967918808713694e-7 1.3735473968086963e-7 -5.005969113739111e-7 -5.494894248264832e-7
          0.0000014189608277016819 0.0000012692773019278708 -0.0000010000900553140332 -0.000020153776939695056 -0.000039243161420093875 -0.00002514348031370378
          -0.000016484100637557952 -0.000028076711825010536 -0.000019890743726845572 -0.000011576672735488097 -0.000014228629538641513 -0.000013767935436455325
          -0.0000057119290230236985 -0.000005650756671686519 -0.000007068190121500839 -5.756440232601231e-7 -2.2353685245630334e-7 -0.0000011045589266320092
          0.0000017079284249309993 0.0000022658446557335867 0.0000019733317491821105 0.000001191366964174538 0.0000021759087224827722 0.0000014069468162120416
          5.78153102989698e-7 0.0000018589623751175122 -6.142454498994643e-7 -0.00002739761573513494 -0.00005051344620957132 -0.00003617401032444956
          -0.00001624748271298118 -0.00002146804772766922 -0.00002089622147780426 -0.000009602301510966416 -0.000005974729360157943 -0.000013988480903519632
          -0.000004141308425547729 0.0000031609470906189194 -0.000006167247100043183 0.0000014256062440248102 0.000006340782292869017 8.726220243476801e-7
          0.000004095658709974553 0.000006546017413358585 0.000004815979534091019 0.0000031580770826922927 0.000004605013538664521 0.000004001995211944109
          0.0000017492484658959695 0.000003654002732896011 0.000001010063910285991 -0.000018070056495289588 -0.000031117780472988965 -0.000027779095795890663
          -0.000008825868897981842 0.000001066011264223149 -0.000014295622634820544 -0.00000792854064372503 0.000008265573124000003 -0.000012081683647640826
          -0.0000022395340163079702 0.000014343963205678406 -0.000004334332754502707 0.0000029010810637594697 0.000012436664296205935 0.000002649558671782848
          0.000006398776907041645 0.000010117111445022073 0.000007532973963050166 0.000005805183027824887 0.000006943585862319301 0.000007523702872727633
          0.0000033712545785963277 0.0000051046672314356 0.0000036601179008929896 -0.000005241406419748129 -0.0000025655454848338977 -0.00001625008698605268
          -1.6236558753046637e-7 0.00002788700111705511 -0.00000323436471744154 -0.000006727037447529227 0.000024269468517204573 -0.000010056412209566434
          -0.0000014712406069955497 0.00002015845300426533 -0.00000284505777249644 0.000003762690126592194 0.000014513586236428178 0.000003326793877315992
          0.000008053322157993911 0.000011303805362031238 0.000008785476009852064 0.000008383761728805728 0.000007778323029294237 0.00001067167881393244
          0.000005532653506517063 0.000005540795243997448 0.000006892961177850515 0.000002362827401715395 0.0000061414253504539495 8.183644736037277e-7
          0.000002182185248111 0.000006387581710374374 0.000012400517832585056 0.0000027727805963877195 0.000005774519241104163 0.0000011811256695991312
          0.000012884523203589293 0.000004852339401649648 0.0000010598831681673734 -0.0000037434438588251906 0.000011851066338208587 0.00003151005916877947
          0.0000047828731511399825 0.000007355140419634809 0.000021980379124308773 0.00005996663570217997 0.0000031642784731559376 -0.00002140460596031235
          -0.000008059503869954805 0.000012933241181414812 -0.000022265061242010206 -0.000011506253016144163 0.000007459595069240002 -0.0000014218892825171303
          0.000020654317710248893 -0.000021696926465301913 -0.000002189121153637133 0.0000063103993048034546 -0.000010845157262601157 0.000011823781594441293
          -0.000008017136635819766 4.4181038480473056e-7 -0.000012483363695484084 0.000014131650297273188 -2.281388060652867e-7 0.000021377160656167564
          -3.076648025181119e-7 0.00002194305403116579 0.000004532635093606628 6.994276011140776e-7 0.000008520049717783418 0.000010462167789271337
          0.00002586306634705382 -0.000009425898432474655 3.967294259776821e-7 0.000012948834814731922 0.000003731429413313483 0.000012528364550134152
          0.000005180133644131814 0.000007984482940957133 0.000002771684010119857 0.000012609614001728164 0.000014652678985132422 0.000012656184658815794
          -0.000009336482061431985 -0.000002881207128579196 -0.000013446036000586917 -0.00003430881487340165 -0.00003187453676513699 -0.000019254303221314176
          -0.000036139051453538615 -0.000022050183432718688 -0.000024186972103545923 -0.000018384971993290304 -0.000014071993898485263 -0.000010782782850470192
          -0.000006202697234982714 -0.000004999650163457249 -0.000006609531860019002 0.000006476610620228911 3.0397944466263593e-7 0.000001456624998286138
          0.000019374110787237844 0.00003316840470656002 0.000020444358645173993 0.000004131728394621628 0.0000030883321784358486 0.0000020111334100084144
          0.0000025726735394596134 0.0000060621042446539625 0.00000433048106343592 0.0000012461044055361858 0.000002115959720602051 -0.0000029342017885854166
          -0.0000031609613939317938 -0.0000064196464475800574 -0.000008663444403540776 0.00002384722185162086 0.00003484645700822797 0.000019726292706667356
          -0.000003926699148896345 -3.009886670179984e-7 0.0000012227954827963294 0.000001216070958168225 -0.000014737246918881952 -0.0000051027972588837955
          -3.4459449965024147e-7 -0.000001023520295378999 -5.307367385160022e-7 -1.163061994907677e-7 6.074637556828522e-7 -0.0000012809912870049428
          5.915932282350711e-7 0.000003351729742157722 0.000003319640251665812 6.581793963855026e-7 0.0000035331895578451233 0.000008081241544544843
          -0.0000043534315121666195 -3.8862183737416525e-7 1.4875866665223225e-7 0.000002158886353297116 -0.000003633860501754335 -0.0000025313650952416434
          0.00000237339708756331 -0.0000033761332014319023 6.101354258127717e-7 0.0000015172258559974575 0.000009696682527116432 0.0000065722028792314716
          4.67336056684739e-7 -0.0000015799738893509246 -0.00000635445236680382 -9.37005353766375e-7 -0.000005272560298877349 -0.000007487442316704562
          -0.00001305327892449186 -0.00002510702544678521 -0.000011238201144800689 7.246669428521979e-7 0.0000012720180427808897 0.0000020576457805086823
          0.0000021233205533145033 -4.1165670321315073e-7 -0.0000021802634282436922 0.0000018084865203403522 -0.0000022705474498497386 -0.000009406894521470782
          -0.000010395190972711452 -0.00001347255576842829 -0.000012341685422787019 0.000003227521115005058 0.0000014831555626496074 0.000002470098302175504
          0.0000019240288330491656 6.416448095902805e-7 0.0000014365450981771583 -2.2047504466202184e-8 -0.0000027739996684081336 -0.0000022608071983199265
          -0.00000821198124563785 0.000006057860929054894 -0.000009045694081152855 -0.00000287326539138294 -0.000015110595113481534 0.000014448160202785304
          -0.000015948294297791002 0.0000024497059254655063 -0.000002240724003146205 0.00000990031584441678 -0.000006170219195807125 0.000007334136415645606
          6.427488953575367e-8 -7.343743006517356e-7 3.932174337875627e-7 0.0000027625130754448807 -0.0000017420507310642042 4.1791380053259053e-7
          8.666961269204049e-7 -0.000003899186590862469 -0.000010112031123490559 0.000001230818477283846 0.00000151725485510526 -6.065072428642487e-7
          -0.000011192537320264817 0.000004783732276129882 -0.0000012989094689457373 -0.000004606329077226287 -0.00001560903624172466 -0.0000051257531400276946
          -0.0000025491084845107818 0.0000010902401642379211 -9.266051060816127e-8 0.000002449560582757585 0.000002379475761159905 0.0000021509966557390833
          -0.0000021666816487626687 0.0000010396185102234945 0.0000010586541263658822 -0.0000031303625341637734 0.0000016943518645062827 -0.0000010508730196217078
          0.000004744782650457566 -0.0000025953067411014705 -0.0000026850992312435484 2.814864303415151e-7 -0.000001994507903942816 0.0000017832210672513032
          0.0000017995610062445256 -0.00000151445606244951 -0.0000019245574118323394 -0.000004939659630521023 -0.000001545485372155377 -0.000007517731537138228
          -0.000011805167293591455 -0.000017775831024406663 -0.000018273834605522137 -0.000008842935020583103 -0.0000063956616383815295 -0.00002185692482705782
          -0.00002260662807769163 -0.000027054830450433994 -0.000026456246308622592 0.000004547386505312709 -8.672482590746378e-8 0.000005079167188682884
          0.0000031378027198023656 7.379554198723437e-7 9.285289315694167e-7 0.000001151181278285368 -0.000001667076579831353 -0.000001567380760441467
          -8.100181276777044e-7 -6.717226139658916e-7 -0.0000028327338553370968 9.933688681212915e-7 0.0000013427554589494003 0.0000026664466687732757
          0.0000016792673852644106 8.529949979078216e-7 0.0000013322814666379135 0.0000028425176867782898 -0.000004221387614927784 -0.000005711705209385937
          -0.00000583073690082949 -0.000007341874567582535 -0.000010763400885591221 -0.000008570936111231345 -0.000006746521508340167 -0.000010471666032671467
          0.000001813013365329491 0.000001996620283495343 0.000003336778368886323 0.00001033244520623304 0.000020668116337003994 0.0000183363531046591
          0.00003058539773965856 0.000014481199007990858 0.000017832276347084716 -0.000001113845429291313 -0.000008102721177721123 0.00000265595597422931
          -0.0000048078883956945845 -0.000004871062696840817 -0.000011657150006323322 -0.000012868758667071954 -0.000012062278951154894 -0.000005293342152719316
          -0.000008352701864150665 -0.000013506772964019982 -0.00001079995858439299 -0.000006427793307409169 0.0000016585619614511993 -0.000005448557848564128
          -0.000007721468715471413 -0.0000065289284398670905 -0.000002131805283443061 0.000001214252328790924 -0.000003875848658033143 -0.000003218085418600289
          -0.00000407256684110003 1.3871257476417292e-7 -2.15286163811855e-7 -0.0000013199939293368976 -0.0000010065021021658446 0.0000027191019065495904
          4.10022088383373e-7 0.0000015538347871661001 7.155304202642251e-7 3.386701913099012e-7 -0.000005865150009413608 -0.000003917547467980655
          -0.0000058322081830314634 -0.000002300732386975937 -0.000004765908981594312 -0.000001322426764458623 -0.000007984480707374023 -0.000004554238811635761
          -0.000012405104936332465 -0.000008202912324031114 -0.000012503691137689585 -0.000008486778103469284 -0.0000024414151903336644 -0.000010682904271600447
          -0.000008988643940155026 -0.000011545015916458214 -0.000008339910234619343 -0.0000055663849735515525 -0.0000028415317858306033 -2.553259650026063e-7
          -0.0000037129328489572677 0.000003011190633566904 4.494596072442125e-7 -0.000005562440877068114 -0.000001088198403793178 -7.457317993744828e-7
          -0.0000036818592589870497 -7.30608046655562e-7 -0.000006815758469811556 0.0000012879592030078102 0.000001304752283440118 -6.432187115079299e-7
          0.0000024981343987994648 1.3386374543176635e-7 0.000001590596545549168 -1.926523588010806e-8 5.327229548549722e-7 -7.859074377914669e-7
          -0.000012239532477928763 -0.000004296386377845504 -0.0000074982087839951805 0.000002915261880008166 -0.000011134374652815165 -0.0000035015214513338735
          -0.000009032123688823687 6.746465425883346e-7 -0.00002347692307024256 0.000014002782864773813 0.000004501432043448397 0.000024013463333383625
          6.272454897617713e-7 0.000013773845998982584 0.000002894327541014957 0.000009063594766267613 0.000013676748075807689 0.00001027559049133174
          3.337264563906331e-7 -0.000005135936337361674 0.000003848375896105781 -0.0000013966503274939757 -2.8789847939664215e-8 -0.000011857470777108803
          0.000008162421758184726 -0.000005550797997177018 -0.000003556744763378618 -0.000008228765268099639 3.649859015505963e-7 -0.000008385269373323637
          -0.0000029860155280139484 -0.0000021092270711198582 -0.0000043020654745312605 0.000002054594183127645 -0.000010698503731405504 0.0000029026493173836543
          -0.0000039984967679998484 -0.000004909092295297263 -0.000006568784032531805 -0.000005440510926969788 3.5581491995492764e-7 3.1573470572407447e-7
          0.0000016300005452594447 2.5060604958229704e-7 7.260072012716355e-7 0.0000050330569196024855 0.000006268774202854415 0.000008138877182213566
          0.000013565741097489904 0.00002634321538974929 0.000014207564613804083 -0.00000954964483609259 -0.000016118929590966564 -0.0000035697922439119996
          -0.000004917312595306526 -0.00000948960547234902 -0.00000939009122777714 -0.000008665345457057423 -0.000019348798304393705 -0.000011150461534334974
          -0.000008119344565707572 -0.000003867721350928055 -0.0000050464431329494755 3.6569895665687635e-7 -0.000003141714849040113 -0.000002932983538039835
          -0.000011506601151962947 -0.000013024501302717588 -0.000006998590734379195 -0.0000010611644110387203 -0.000011761152742081893 -0.000010786974952898404
          -0.0000012604434261147268 -0.000001033322391571015 -6.640314835198308e-7 -0.0000014849870991710118 -0.000010747598851685441 -0.000008615142314250673
          -0.0000054752686794185684 -0.000005653291802575587 -0.000002788646486286909 -0.0000024012421100247025 -0.0000043802209565868035 -0.0000020909227841457018
          -0.000022587180295196544 -0.000025118741374903497 -0.000021458086294896058 -0.000023047987511317942 -0.000008410489140952496 -0.000017159017297205
          -0.00003627707431289647 -0.00005224377956167085 -0.000029911147089289186 -0.000008694911797949706 -0.000006898200110441212 -0.000007168886242915097
          -0.0000176749794492774 -0.000003620529104724629 -0.000017579095417342636 0.000002058367820771765 0.0000014831947675987903 0.0000064213230401336495
          0.0000026000416287600726 -0.0000033907654488022493 0.0000042643326785556275 -6.549158281660139e-9 4.4850019864216967e-7 -0.0000010373873354715957
          0.000004500543226504741 0.0000025703141693991793 0.0000065882472768692 0.000002541846428543576 0.000005179034497936746 7.840560397182061e-7
          -0.000001297575257425826 0.0000020959577416608532 -0.000004518299604489018 -0.00002267279358866229 -0.000006385232343247317 -0.000016077497495587886
          0.0000036152115742600632 0.000004753931843235956 -0.000005223952029193707 0.00000423073842029803 -1.8903559148228388e-7 -9.837188378247416e-7
          0.0000060400676015794075 0.000004657899919302197 0.00000312028923532201 -0.0000011676941423415313 -9.873309424479615e-7 -0.0000065017621827439046
          -0.000001947489781469261 -0.000003150505864925844 -0.0000030119005719995984 0.000008641750557941523 0.000005191211195396117 0.0000070508336435575955
          -0.0000019526691825300785 -0.0000013995307792602973 -8.855854553531991e-7 -0.000004767105254141479 -0.000008677949476681643 -0.000007828526865042568
          -0.0000028567632351789163 0.0000031928142340091614 0.000002155108212003806 0.000007906866819522643 0.000014806334459473158 0.00001228252272148303
          -0.000005744319649147664 -0.0000025582870198104235 -0.000004582554795932656 -0.0000016460008822345024 0.000005179178408566687 -0.000004787093717052368
          0.000003069364578472955 0.000005596132363623607 0.0000049484243843170295 -0.000001595893642999946 -0.0000028368578985152326 -4.2649792666299424e-7
          0.000004509794044895571 -0.000004588425921490599 3.7163926750773124e-7 1.892296037225849e-8 -8.220672795059003e-7 1.762809675384669e-7
          0.000010121411558847854 0.000012311947294745343 0.000008044255345091011 0.0000034315196014399196 0.000002180986340492852 5.362327962221691e-8
          -0.000008747062812456546 -0.000002210867042391762 -0.000004561378249605397 -0.00001001680736463506 -0.000004786418579040032 -0.000007160359615026972
          -0.000003465911058297619 0.0000017322548459264286 -0.0000067219623849801985 -0.000003967324612819817 -0.000001750866608404844 -0.0000048162326366819885
          -0.000003754563579795589 0.000002683454695680265 -0.000003213143766221324 -0.000010627518223927778 -0.000008620656033138819 -0.000008002635660718516
          -0.00001051467672554679 -0.000005613811976286354 -0.000007553690634480581 5.188993033979419e-7 3.380590749080606e-7 2.681918630583098e-7
          0.000002918259078485636 6.920329118746682e-7 0.0000017093666161340643 0.000002443811757277259 7.113700258108008e-8 0.0000011192024332203065
          -0.000004381396373197635 -0.0000031722716235353665 9.320604950294881e-7 2.582691652230386e-7 -0.000001082322006830394 -6.934148626541736e-7
          -0.000026733459889293886 -0.000014999447534126426 -0.000015523607917242947 -0.000009712153972932648 -0.000007912844819753543 -0.0000059193586676632324
          -0.000013897495075451682 -0.000007791515238943572 -0.000013908050021960508 -0.00003629374139557098 -0.000013767599634311421 -0.000029387317098437428
          -0.0000161399142897976 -0.000020589850388691433 -0.00001697826352610324 -0.00000822573805890972 0.000004387642863047311 0.0000033352641007344808
          -0.000013601745038345492 0.000013604918637090402 0.0000107973805217286 0.000003214474088075736 0.000010368035346946039 0.000010253457084464027
          -0.000020184845746606776 -0.000040407645752055243 -0.00002321191334701475 -0.00001955706565134538 -0.000029489640633309153 -0.00002393115660035989
          -0.00000878060378659614 -3.4042549695915926e-7 -0.000017994244225073668 -0.000005121174046952598 -0.000018482354793064506 -0.000010668465492300278
          0.000001297905223641635 -0.000013141808854844582 -0.0000018466763804080716 -0.0000020982214006867034 -0.00001904365232169563 -0.000013079342095946231
          0.000006244932520965696 -0.0000036330150611600665 0.000011339408204906476 -0.0000063330236315904676 0.000005153003497022912 -0.000004095726533686478
          -0.000001948115979007528 -0.000010538352124269887 -0.000005063011131588302 -0.000012628155151950954 -0.000005273141302606851 -0.000007377846245808922
          0.000013390220332054961 0.000019272130665843462 0.00001082465009653432 0.000020078429739387935 0.000010109931177025577 0.000028444901335543393
          0.000003645251581085862 0.000017932302369976297 0.000012824986521046966 -0.000009818927772995562 -0.000020363478065943408 -0.0000018064599171252471
          0.0000018115793176971123 0.000001139777561836794 -0.0000015757940223515288 0.0000013670727536697902 0.00000608610855748655 0.000012199479888053838
          0.000013362560304231233 0.000013395992159222214 0.00000951384917768916 0.0000010160005756276042 0.0000026482987522113977 -0.000001191602300770235
          0.000006809199202864255 -0.000002973299520089151 0.000003178335770839466
        </DataArray>
        <DataArray type="Float64" Name="resid_z" format="ascii" RangeMin="0" RangeMax="0">
          0 0 0 0 0 0
          0 0 0 0 0 0
          0 0 0 0 0 0
          0 0 0 0 0 0
          0 0 0 0 0 0
          0 0 0 0 0 0
          0 0 0 0 0 0
          0 0 0 0 0 0
          0 0 0 0 0 0
          0 0 0 0 0 0
          0 0 0 0 0 0
          0 0 0 0 0 0
          0 0 0 0 0 0
          0 0 0 0 0 0
          0 0 0 0 0 0
          0 0 0 0 0 0
          0 0 0 0 0 0
          0 0 0 0 0 0
          0 0 0 0 0 0
          0 0 0 0 0 0
          0 0 0 0 0 0
          0 0 0 0 0 0
          0 0 0 0 0 0
          0 0 0 0 0 0
          0 0 0 0 0 0
          0 0 0 0 0 0
          0 0 0 0 0 0
          0 0 0 0 0 0
          0 0 0 0 0 0
          0 0 0 0 0 0
          0 0 0 0 0 0
          0 0 0 0 0 0
          0 0 0 0 0 0
          0 0 0 0 0 0
          0 0 0 0 0 0
          0 0 0 0 0 0
          0 0 0 0 0 0
          0 0 0 0 0 0
          0 0 0 0 0 0
          0 0 0 0 0 0
          0 0 0 0 0 0
          0 0 0 0 0 0
          0 0 0 0 0 0
          0 0 0 0 0 0
          0 0 0 0 0 0
          0 0 0 0 0 0
          0 0 0 0 0 0
          0 0 0 0 0 0
          0 0 0 0 0 0
          0 0 0 0 0 0
          0 0 0 0 0 0
          0 0 0 0 0 0
          0 0 0 0 0 0
          0 0 0 0 0 0
          0 0 0 0 0 0
          0 0 0 0 0 0
          0 0 0 0 0 0
          0 0 0 0 0 0
          0 0 0 0 0 0
          0 0 0 0 0 0
          0 0 0 0 0 0
          0 0 0 0 0 0
          0 0 0 0 0 0
          0 0 0 0 0 0
          0 0 0 0 0 0
          0 0 0 0 0 0
          0 0 0 0 0 0
          0 0 0 0 0 0
          0 0 0 0 0 0
          0 0 0 0 0 0
          0 0 0 0 0 0
          0 0 0 0 0 0
          0 0 0 0 0 0
          0 0 0 0 0 0
          0 0 0 0 0 0
          0 0 0 0 0 0
          0 0 0 0 0 0
          0 0 0 0 0 0
          0 0 0 0 0 0
          0 0 0 0 0 0
          0 0 0 0 0 0
          0 0 0 0 0 0
          0 0 0 0 0 0
          0 0 0 0 0 0
          0 0 0 0 0 0
          0 0 0 0 0 0
          0 0 0 0 0 0
          0 0 0 0 0 0
          0 0 0 0 0 0
          0 0 0 0 0 0
          0 0 0 0 0 0
          0 0 0 0 0 0
          0 0 0 0 0 0
          0 0 0 0 0 0
          0 0 0 0 0 0
          0 0 0 0 0 0
          0 0 0 0 0 0
          0 0 0 0 0 0
          0 0 0 0 0 0
          0 0 0 0 0 0
          0 0 0 0 0 0
          0 0 0 0 0 0
          0 0 0 0 0 0
          0 0 0 0 0 0
          0 0 0 0 0 0
          0 0 0 0 0 0
          0 0 0 0 0 0
          0 0 0 0 0 0
          0 0 0 0 0 0
          0 0 0 0 0 0
          0 0 0 0 0 0
          0 0 0 0 0 0
          0 0 0 0 0 0
          0 0 0 0 0 0
          0 0 0 0 0 0
          0 0 0 0 0 0
          0 0 0 0 0 0
          0 0 0 0 0 0
          0 0 0 0 0 0
          0 0 0 0 0 0
          0 0 0 0 0 0
          0 0 0 0 0 0
          0 0 0 0 0 0
          0 0 0 0 0 0
          0 0 0 0 0 0
          0 0 0 0 0 0
          0 0 0 0 0 0
          0 0 0 0 0 0
          0 0 0 0 0 0
          0 0 0 0 0 0
          0 0 0
        </DataArray>
        <DataArray type="Float64" Name="stress_zz" format="ascii" RangeMin="-221378.56130586745" RangeMax="419452.6591815215">
          -5934.706834399152 -6221.144124478518 -6507.581414557882 -6489.4948285110095 -6436.8316426951915 -6384.1684568793735
          -9685.146007302603 -9983.582393154844 -10282.018779007087 28564.30400571815 28207.12442781022 27849.94484990229
          16298.689118018689 16514.381326448587 16730.073534878487 5669.738443843615 5703.402879478484 5737.067315113352
          -1569.6703787994497 -1692.6526971926414 -1815.635015585834 -5287.3757285281945 -5107.0730256821225 -4926.770322836051
          -11099.946557769115 -11074.099222189832 -11048.251886610546 -13333.68937299305 -13925.661361215189 -14517.633349437328
          31813.542984072716 31295.663857493506 30777.784730914296 11116.554965667743 11402.557788872562 11688.560612077383
          -2354.8402984982235 -2339.3916540990704 -2323.9430096999167 -9164.197654236492 -9300.500177518665 -9436.80270080084
          -10979.160188626003 -10827.186353913543 -10675.212519201084 -16364.400403012969 -16357.859241970893 -16351.318080928815
          -16249.212867524577 -16702.158979778527 -17155.10509203248 65968.17377761289 67629.04649747466 69289.91921733641
          24845.62218217279 23887.30518497141 22928.98818777003 -3837.9769713946866 -3599.4732248938453 -3360.969478393003
          -16333.575565515344 -16468.516699459604 -16603.45783340386 -19361.445061458187 -19513.929153362966 -19666.413245267744
          -17319.84943206643 -17376.86814546411 -17433.88685886179 -16325.588705044218 -16223.709646636737 -16121.830588229252
          -16170.623915479673 -16375.813014314685 -16581.002113149694 56643.025484528414 59732.847746574625 62822.670008620815
          -6758.520984268389 -7279.258384291017 -7799.9957843136435 -32928.11750288554 -32269.236017734387 -31610.354532583235
          -35255.97662077796 -35268.59211554489 -35281.20761031183 -30025.488469573855 -30041.319491872353 -30057.150514170844
          -22119.53788404829 -22256.740622386813 -22393.94336072533 -14010.421490485853 -13848.365520068415 -13686.309549650978
          -17093.17163230424 -16982.831988018843 -16872.49234373345 -18591.45170918956 -17656.777373560533 -16722.103037931513
          -74214.11703734519 -75886.15909877028 -77558.20116019537 -67905.4752304992 -68369.23955504961 -68833.00387960003
          -52826.22983567239 -53468.11675935882 -54110.003683045245 -36655.340592643566 -36802.94553308909 -36950.550473534626
          -21566.29467497787 -21784.605043175034 -22002.915411372192 -11218.45682261716 -11296.63177839395 -11374.80673417074
          -8091.129946883362 -7696.798643155695 -7302.467339428024 -140401.60352811636 -147975.61009370728 -155549.6166592982
          -117110.62707874039 -120283.7585903579 -123456.89010197541 -82428.02588810096 -82971.08134283936 -83514.13679757775
          -47335.750000443484 -48591.69895073826 -49847.64790103302 -21413.752882648754 -22174.99172262941 -22936.230562610057
          -10844.618350245788 -10954.236976657956 -11063.855603070122 -1462.106383627733 -1534.6976910503754 -1607.2889984730175
          -1637.283396505521 -1252.407254203703 -867.5311119018843 -150765.02782135757 -144560.87243650013 -138356.71705164266
          -83806.41313008688 -80443.19165037916 -77079.97017067144 -68519.38250470143 -67613.7107843431 -66708.03906398473
          20338.659778252808 20848.263193590392 21357.866608927976 8057.936089089111 7646.957054347194 7235.978019605275
          7961.401010685258 8184.644012315612 8407.887013945967 2638.60767551686 2631.6200408351 2624.6324061533387
          -83.29959630772714 -220.46303357292152 -357.62647083811567 39270.28766023734 27882.314949810694 36874.14243929552
          53239.81249948977 40375.33657016247 28419.12610188216 36651.21288090292 53549.73983179383 41480.3854800876
          28955.93725395363 36428.283322510295 53859.667164097875 -117795.42482324174 133417.48739035398 125288.80815756526
          -51555.51268216302 -120994.95422902086 128875.17191402079 113432.87791578608 -54283.80663838449 -124194.48363479998
          124332.85643768762 101576.9476740069 -57012.100594605974 -31400.54816850165 58221.15485283222 -30847.06521601557
          60653.92746188907 -30293.582263529504 63086.70007094591 53081.25047730463 62377.8616068933 54319.41892357331
          64915.92937719231 55557.587369841975 67453.99714749133 9984.00065994007 43285.417323928275 10616.761345134826
          44224.77985842578 11249.522030329583 45164.1423929233 -216432.55006988387 240320.68215389643 -218905.55568787566
          224824.08854000096 -221378.56130586745 209327.4949261055 66728.55310725392 34131.426482978866 67166.37928755971
          32568.187763329206 67604.20546786553 31004.949043679546 620.4867879447145 -62.85957172026191 -746.2059313852387
          302949.4180203729 294157.7532714724 285366.0885225719 419452.6591815215 413430.9490083427 407409.2388351639
          58250.02094898752 31083.199518586232 44988.64593297216 31904.00720574438 31727.270916956804 32724.81489290252
          56717.60931803521 56121.068597085774 55524.52787613633 44730.62486479911 45296.148122018094 45861.67137923709
          -1730.3756318458168 -1655.5491728953064 -1580.7227139447962 -8734.015897202997 -11543.775168723909 -6995.009186946532
          1126.0492483573807 -9366.554056353289 -11614.567947425958 -6941.805769368303 1004.1021603155809 -9999.092215503577
          -11685.360726128005 -6888.602351790076 882.155072273782 585.4186864534222 577.1251443494384 568.8316022454537
          9038.501941906714 6779.511244474401 9371.592050085994 6674.169530113544 9704.682158265274 6568.8278157526875
          -2997.89388066218 -5429.386494900024 -8394.252683026974 -3945.967370267411 -3008.4991805628533 -5648.79289442647
          -8706.856931634597 -4002.667689107609 -3019.104480463526 -5868.1992939529155 -9019.46118024222 -4059.368007947807
          -14482.588473839525 -24955.650753785 -14928.318576677952 -25886.305629906114 -15374.048679516382 -26816.960506027222
          1892.4060360718922 1279.8631739936566 1975.6349020379537 1405.0518057227011 2058.8637680040147 1530.240437451746
          -8095.130169843913 -8611.148423352704 5164.779255424237 -8220.681896953249 -9699.312566867937 6010.525393430916
          -8346.233624062586 -10787.47671038317 6856.2715314375955 -912.6013824684877 -1435.1828348039771 1392.578739922176
          -2314.8425458134307 -780.8881961862121 -1592.792623564006 1425.715169608093 -2280.2098153619827 -649.1750099039363
          -1750.4024123240347 1458.8515992940102 -2245.577084910534 -5504.452075885013 -7596.239127556287 -5004.014582043599
          -5759.816051957435 -7854.32539771739 -4947.641542421463 -6015.180028029856 -8112.411667878489 -4891.268502799327
          -1387.171946995423 -4969.791421606601 -2229.8474604729827 1849.136480561449 -1445.2728019302626 -5276.135152115711
          -2345.2962125651516 1889.8076924734512 -1503.373656865102 -5582.478882624821 -2460.744964657321 1930.4789043854535
          -23283.62646501033 -10488.24249716591 -24549.085938933476 -10851.361865280067 -25814.5454128566 -11214.481233394226
          740.0579124655188 -623.5443292456584 -276.9859247029942 3694.551324940078 757.684519489524 -635.1065746338727
          -364.28886401519935 3677.795685038092 775.3111265135291 -646.6688200220872 -451.5918033274046 3661.040045136105
          1857.8679416437885 2447.373472186682 13965.927271239378 2049.865541625011 3101.1183102456876 14884.581634684355
          2241.8631416062335 3754.863148304693 15803.235998129328 222.12902910972977 -508.7929373849348 269.2512869669867
          -496.82031607220256 316.3735448242435 -484.8476947594704 2359.8817953202206 3002.22238204118 6483.504415171987
          2502.574226023407 2312.363519307355 2928.961951963054 6599.092828285508 2383.794586814976 2264.8452432944896
          2855.7015218849288 6714.68124139903 2265.014947606545 -1892.4168203950408 -3449.068312419993 -1934.3476336939675
          -3527.7407483345164 -1976.2784469928945 -3606.4131842490387 1942.9491284917144 5723.1192578931805 2063.6728367158557
          5898.850260241684 2184.3965449399975 6074.581262590187 -2121.1122927629585 -3983.2267897964275 -2187.6575088029585
          -4178.521677431024 -2254.2027248429595 -4373.81656506562 -5043.699558153836 -2727.0777489277334 -4895.670012542565
          -5810.299465723991 -4994.944066804305 -2663.011074723696 -4814.2662855949775 -5868.8945040874705 -4946.188575454773
          -2598.944400519658 -4732.86255864739 -5927.489542450951 -2379.5098393101907 -2287.4499859668895 -2195.390132623588
          -3204.0194871934855 -3058.447211726814 -2912.8749362601425 -2217.6740168350116 1071.6255803158704 -2221.5938687015014
          1256.3729105313314 -2225.5137205679903 1441.1202407467927 3249.201219414046 12493.026431695802 3431.1771721746304
          13431.133098571823 3613.1531249352142 14369.239765447845 12986.78889884156 29595.109176123136 13473.068540703718
          31774.00264417553 13959.348182565876 33952.89611222793 1309.4451812266911 1640.857666000697 1972.2701507747033
          -3264.0077405571164 2607.52491776263 -3478.5413065944613 2588.45739634304 -3693.0748726318056 2569.3898749234486
          641.5459972994603 4166.7504953362895 4218.802372478755 -1924.7901656936085 623.2576145534043 3967.908013862782
          4530.09201056727 -1706.3367164953324 604.9692318073481 3769.0655323892743 4841.381648655783 -1487.8832672970566
          -5550.19301868876 846.5092433482928 -5574.172024560844 859.973414498332 -5598.151030432929 873.4375856483709
          2989.8177861414147 -3592.7529539920524 11098.606505255928 2871.8566472838475 -3915.03688029135 11552.421545409672
          2753.89550842628 -4237.320806590647 12006.236585563413 -7254.727715676807 -5494.458519963711 -3489.6167984645012
          -7214.019268885656 -5631.8622776272705 -3373.9249885586164 -7173.310822094506 -5769.2660352908315 -3258.2331786527316
          753.2908946585017 788.6370831829768 823.983271707451 -4108.466204301318 -4080.984809769363 -4053.5034152374087
          -4833.1987647948845 -740.2455481810217 -5062.6346799856055 -915.6336141646275 -5292.070595176328 -1091.0216801482331
          5480.285708885077 5118.31379158721 5810.035964434828 4880.859512260479 6139.7862199845795 4643.405232933746
          1222.7546887205383 1181.216043740015 1139.6773987594922 2667.438444771912 1767.6615161367693 2824.032875000623
          1815.4480640758773 2980.6273052293345 1863.2346120149853 -1328.3565021740085 -1378.6800892503932 -1429.0036763267776
          5300.039178665525 5719.032191298327 5388.932703839141 5257.672683586416 5328.805395168852 5775.66277807532
          5420.498522176501 5272.490488505082 5357.571611672178 5832.293364852313 5452.06434051386 5287.308293423745
          7241.221032630881 6971.145364963248 6701.069697295612 -2060.8976697467488 -1320.0633827302622 -1971.959078869229
          -1328.2754969341988 -1883.0204879917092 -1336.4876111381354 2821.238345434795 2645.419598757973 2469.600852081151
          -1177.399483393081 -800.7330873183 -1262.1555418440914 -996.3538058041029 -1346.9116002951018 -1191.9745242899057
          -2293.760892689891 -2337.367225339811 -2380.97355798973 1083.0526577297271 2612.7471716607697 3343.7700723512066
          1003.6872427526985 2617.117312046801 3283.9045784501554 924.3218277756697 2621.4874524328334 3224.0390845491047
          5215.593786327748 7487.61630420839 5191.077803747995 7617.624647838406 5166.561821168243 7747.632991468423
          5091.278147629971 3066.7391420859994 5178.574485428538 3110.7713321971532 5265.870823227103 3154.8035223083075
          1807.87287544497 -5462.080244442427 1877.5344696799311 -5659.12109689143 1947.1960639148915 -5856.161949340434
          4840.460557464648 9486.84927090381 5010.612341079642 9762.023247850373 5180.764124694636 10037.197224796937
          -2068.8571136899964 -2140.3180263725208 -2211.778939055045 6794.973155018797 6983.516817121727 7172.060479224658
          -1707.968703928368 -1698.0031127855295 -1688.037521642691 -12136.76981744211 -12802.50727886969 -13468.24474029727
          -3075.564953703626 -3260.06782189758 -3444.5706900915334 152.94673945744034 195.838719992479 238.73070052751768
          3532.0464869458747 1689.468227996917 3580.462149433505 1728.2454953599515 3628.8778119211356 1767.0227627229865
          -4825.2805810471355 -4179.409336753715 -5128.197996328211 -4435.141142391684 -5431.115411609288 -4690.872948029652
          -2247.6819526045188 -2380.8135255018205 -2513.9450983991214 3915.4550270921545 4092.999905536849 4270.544783981544
          2.185207065946045 25.871532631271975 -242.28789998099228 -33.30698797981757 37.09308388546634 -127.35609313983693
          -68.79918302558121 48.31463513966062 -12.424286298681466 -3147.934850208093 832.8630899937227 -3247.0308807827887
          924.5400501581423 -3346.126911357485 1016.217010322562 1209.4257285649112 1266.463780385429 1323.501832205947
          5196.196008837831 5273.137939095281 5350.079869352729 3799.5959253219526 3849.0303018765803 3898.46467843121
          1811.5667511046802 1856.7681613206007 1901.9695715365215 130.00794609946206 151.79487363525874 173.58180117105553
          -9442.797339651783 -9806.090980222723 -10169.384620793668 -2371.905699953916 -2313.4291014569353 -2254.952502959955
          -2100.1017954749504 -1964.8867058335122 -1829.671616192073 -5279.476493383398 -5062.657824286357 -4845.839155189318
          1304.6139081171816 1501.5548913034 1698.4958744896182 -4343.462242068889 -4281.66570037916 -4219.86915868943
          880.4416656494061 961.2358156232076 1042.0299655970093 1478.1013914231814 1967.325698605961 2456.550005788742
          1106.5877371194938 976.4433450158847 846.2989529122756 -5755.666242148376 -5814.7253124997815 -5873.784382851184
          -1519.3887663896603 -1484.696717372044 -1450.0046683544283 -745.4358770052247 -757.9989744548404 -770.5620719044562
          -923.4034587487231 -804.5328686360382 -685.6622785233533 -4022.4791738436256 -4390.030578022791 -4757.581982201956
          410.8961682473001 343.3110535095045 275.7259387717095 736.9880149598519 12465.404721836205 834.6675524501933
          12997.417105111259 932.3470899405349 13529.429488386315 -2926.1116006559696 -2766.7300329873474 -2607.348465318726
          24245.22687826767 25836.260968847935 24799.05577639697 25867.831226082213 25352.884674526267 25899.40148331649
          8000.394587372622 8395.565053782311 8790.735520192005 3313.33542459193 3350.5900395155213 3387.8446544391118
          -7100.657766437491 -7188.842685402567 -7277.027604367645 -3855.814732412896 -3920.5358383321773 -3807.0295984518643
          -3861.717113457045 -3758.244464490833 -3802.898388581912 820.6861521542157 1042.0061245436057 4648.866786313808
          873.4796096811458 1177.7874438998003 4911.576271419343 926.2730672080758 1313.5687632559952 5174.285756524879
          2360.207392201398 2347.53927620033 2334.871160199262 1119.3761766270234 1130.4782028728305 1141.5802291186376
          606.633104304429 5014.4851737507615 605.3223339662242 5074.8101093301375 604.0115636280194 5135.135044909513
          1558.0430095164065 -1559.5525748619543 1615.1289443873777 -1535.8529500531452 1672.214879258349 -1512.153325244336
          2254.2739460161874 3569.8787691296184 2289.842122292511 3544.517116172858 2325.410298568834 3519.1554632160987
          2239.852652648491 3951.708294167523 2230.324041475532 3975.4454441006314 2220.7954303025717 3999.18259403374
          1097.844649718952 1166.7721326151986 1235.699615511445 2208.539425348901 1427.337346644578 2292.5838256726543
          1412.844083817911 2376.6282259964073 1398.3508209912434 110.61594595278038 123.42054707590395 136.22514819902864
          -420.9707819141874 1512.2110632647104 -454.0318167455497 1595.34033605508 -487.09285157691215 1678.469608845449
          1215.8883819106863 1247.543907538276 1279.1994331658655 4285.037160959872 4285.768046433369 4286.498931906866
          910.538985290715 909.5190163261433 908.4990473615712
        </DataArray>
        <DataArray type="Float64" Name="peeq" format="ascii" RangeMin="0" RangeMax="0">
          0 0 0 0 0 0
          0 0 0 0 0 0
          0 0 0 0 0 0
          0 0 0 0 0 0
          0 0 0 0 0 0
          0 0 0 0 0 0
          0 0 0 0 0 0
          0 0 0 0 0 0
          0 0 0 0 0 0
          0 0 0 0 0 0
          0 0 0 0 0 0
          0 0 0 0 0 0
          0 0 0 0 0 0
          0 0 0 0 0 0
          0 0 0 0 0 0
          0 0 0 0 0 0
          0 0 0 0 0 0
          0 0 0 0 0 0
          0 0 0 0 0 0
          0 0 0 0 0 0
          0 0 0 0 0 0
          0 0 0 0 0 0
          0 0 0 0 0 0
          0 0 0 0 0 0
          0 0 0 0 0 0
          0 0 0 0 0 0
          0 0 0 0 0 0
          0 0 0 0 0 0
          0 0 0 0 0 0
          0 0 0 0 0 0
          0 0 0 0 0 0
          0 0 0 0 0 0
          0 0 0 0 0 0
          0 0 0 0 0 0
          0 0 0 0 0 0
          0 0 0 0 0 0
          0 0 0 0 0 0
          0 0 0 0 0 0
          0 0 0 0 0 0
          0 0 0 0 0 0
          0 0 0 0 0 0
          0 0 0 0 0 0
          0 0 0 0 0 0
          0 0 0 0 0 0
          0 0 0 0 0 0
          0 0 0 0 0 0
          0 0 0 0 0 0
          0 0 0 0 0 0
          0 0 0 0 0 0
          0 0 0 0 0 0
          0 0 0 0 0 0
          0 0 0 0 0 0
          0 0 0 0 0 0
          0 0 0 0 0 0
          0 0 0 0 0 0
          0 0 0 0 0 0
          0 0 0 0 0 0
          0 0 0 0 0 0
          0 0 0 0 0 0
          0 0 0 0 0 0
          0 0 0 0 0 0
          0 0 0 0 0 0
          0 0 0 0 0 0
          0 0 0 0 0 0
          0 0 0 0 0 0
          0 0 0 0 0 0
          0 0 0 0 0 0
          0 0 0 0 0 0
          0 0 0 0 0 0
          0 0 0 0 0 0
          0 0 0 0 0 0
          0 0 0 0 0 0
          0 0 0 0 0 0
          0 0 0 0 0 0
          0 0 0 0 0 0
          0 0 0 0 0 0
          0 0 0 0 0 0
          0 0 0 0 0 0
          0 0 0 0 0 0
          0 0 0 0 0 0
          0 0 0 0 0 0
          0 0 0 0 0 0
          0 0 0 0 0 0
          0 0 0 0 0 0
          0 0 0 0 0 0
          0 0 0 0 0 0
          0 0 0 0 0 0
          0 0 0 0 0 0
          0 0 0 0 0 0
          0 0 0 0 0 0
          0 0 0 0 0 0
          0 0 0 0 0 0
          0 0 0 0 0 0
          0 0 0 0 0 0
          0 0 0 0 0 0
          0 0 0 0 0 0
          0 0 0 0 0 0
          0 0 0 0 0 0
          0 0 0 0 0 0
          0 0 0 0 0 0
          0 0 0 0 0 0
          0 0 0 0 0 0
          0 0 0 0 0 0
          0 0 0 0 0 0
          0 0 0 0 0 0
          0 0 0 0 0 0
          0 0 0 0 0 0
          0 0 0 0 0 0
          0 0 0 0 0 0
          0 0 0 0 0 0
          0 0 0 0 0 0
          0 0 0 0 0 0
          0 0 0 0 0 0
          0 0 0 0 0 0
          0 0 0 0 0 0
          0 0 0 0 0 0
          0 0 0 0 0 0
          0 0 0 0 0 0
          0 0 0 0 0 0
          0 0 0 0 0 0
          0 0 0 0 0 0
          0 0 0 0 0 0
          0 0 0 0 0 0
          0 0 0 0 0 0
          0 0 0 0 0 0
          0 0 0 0 0 0
          0 0 0 0 0 0
          0 0 0 0 0 0
          0 0 0 0 0 0
          0 0 0 0 0 0
          0 0 0
        </DataArray>
        <DataArray type="Float64" Name="pe11" format="ascii" RangeMin="0" RangeMax="0">
          0 0 0 0 0 0
          0 0 0 0 0 0
          0 0 0 0 0 0
          0 0 0 0 0 0
          0 0 0 0 0 0
          0 0 0 0 0 0
          0 0 0 0 0 0
          0 0 0 0 0 0
          0 0 0 0 0 0
          0 0 0 0 0 0
          0 0 0 0 0 0
          0 0 0 0 0 0
          0 0 0 0 0 0
          0 0 0 0 0 0
          0 0 0 0 0 0
          0 0 0 0 0 0
          0 0 0 0 0 0
          0 0 0 0 0 0
          0 0 0 0 0 0
          0 0 0 0 0 0
          0 0 0 0 0 0
          0 0 0 0 0 0
          0 0 0 0 0 0
          0 0 0 0 0 0
          0 0 0 0 0 0
          0 0 0 0 0 0
          0 0 0 0 0 0
          0 0 0 0 0 0
          0 0 0 0 0 0
          0 0 0 0 0 0
          0 0 0 0 0 0
          0 0 0 0 0 0
          0 0 0 0 0 0
          0 0 0 0 0 0
          0 0 0 0 0 0
          0 0 0 0 0 0
          0 0 0 0 0 0
          0 0 0 0 0 0
          0 0 0 0 0 0
          0 0 0 0 0 0
          0 0 0 0 0 0
          0 0 0 0 0 0
          0 0 0 0 0 0
          0 0 0 0 0 0
          0 0 0 0 0 0
          0 0 0 0 0 0
          0 0 0 0 0 0
          0 0 0 0 0 0
          0 0 0 0 0 0
          0 0 0 0 0 0
          0 0 0 0 0 0
          0 0 0 0 0 0
          0 0 0 0 0 0
          0 0 0 0 0 0
          0 0 0 0 0 0
          0 0 0 0 0 0
          0 0 0 0 0 0
          0 0 0 0 0 0
          0 0 0 0 0 0
          0 0 0 0 0 0
          0 0 0 0 0 0
          0 0 0 0 0 0
          0 0 0 0 0 0
          0 0 0 0 0 0
          0 0 0 0 0 0
          0 0 0 0 0 0
          0 0 0 0 0 0
          0 0 0 0 0 0
          0 0 0 0 0 0
          0 0 0 0 0 0
          0 0 0 0 0 0
          0 0 0 0 0 0
          0 0 0 0 0 0
          0 0 0 0 0 0
          0 0 0 0 0 0
          0 0 0 0 0 0
          0 0 0 0 0 0
          0 0 0 0 0 0
          0 0 0 0 0 0
          0 0 0 0 0 0
          0 0 0 0 0 0
          0 0 0 0 0 0
          0 0 0 0 0 0
          0 0 0 0 0 0
          0 0 0 0 0 0
          0 0 0 0 0 0
          0 0 0 0 0 0
          0 0 0 0 0 0
          0 0 0 0 0 0
          0 0 0 0 0 0
          0 0 0 0 0 0
          0 0 0 0 0 0
          0 0 0 0 0 0
          0 0 0 0 0 0
          0 0 0 0 0 0
          0 0 0 0 0 0
          0 0 0 0 0 0
          0 0 0 0 0 0
          0 0 0 0 0 0
          0 0 0 0 0 0
          0 0 0 0 0 0
          0 0 0 0 0 0
          0 0 0 0 0 0
          0 0 0 0 0 0
          0 0 0 0 0 0
          0 0 0 0 0 0
          0 0 0 0 0 0
          0 0 0 0 0 0
          0 0 0 0 0 0
          0 0 0 0 0 0
          0 0 0 0 0 0
          0 0 0 0 0 0
          0 0 0 0 0 0
          0 0 0 0 0 0
          0 0 0 0 0 0
          0 0 0 0 0 0
          0 0 0 0 0 0
          0 0 0 0 0 0
          0 0 0 0 0 0
          0 0 0 0 0 0
          0 0 0 0 0 0
          0 0 0 0 0 0
          0 0 0 0 0 0
          0 0 0 0 0 0
          0 0 0 0 0 0
          0 0 0 0 0 0
          0 0 0 0 0 0
          0 0 0 0 0 0
          0 0 0 0 0 0
          0 0 0 0 0 0
          0 0 0
        </DataArray>
        <DataArray type="Float64" Name="pe22" format="ascii" RangeMin="0" RangeMax="0">
          0 0 0 0 0 0
          0 0 0 0 0 0
          0 0 0 0 0 0
          0 0 0 0 0 0
          0 0 0 0 0 0
          0 0 0 0 0 0
          0 0 0 0 0 0
          0 0 0 0 0 0
          0 0 0 0 0 0
          0 0 0 0 0 0
          0 0 0 0 0 0
          0 0 0 0 0 0
          0 0 0 0 0 0
          0 0 0 0 0 0
          0 0 0 0 0 0
          0 0 0 0 0 0
          0 0 0 0 0 0
          0 0 0 0 0 0
          0 0 0 0 0 0
          0 0 0 0 0 0
          0 0 0 0 0 0
          0 0 0 0 0 0
          0 0 0 0 0 0
          0 0 0 0 0 0
          0 0 0 0 0 0
          0 0 0 0 0 0
          0 0 0 0 0 0
          0 0 0 0 0 0
          0 0 0 0 0 0
          0 0 0 0 0 0
          0 0 0 0 0 0
          0 0 0 0 0 0
          0 0 0 0 0 0
          0 0 0 0 0 0
          0 0 0 0 0 0
          0 0 0 0 0 0
          0 0 0 0 0 0
          0 0 0 0 0 0
          0 0 0 0 0 0
          0 0 0 0 0 0
          0 0 0 0 0 0
          0 0 0 0 0 0
          0 0 0 0 0 0
          0 0 0 0 0 0
          0 0 0 0 0 0
          0 0 0 0 0 0
          0 0 0 0 0 0
          0 0 0 0 0 0
          0 0 0 0 0 0
          0 0 0 0 0 0
          0 0 0 0 0 0
          0 0 0 0 0 0
          0 0 0 0 0 0
          0 0 0 0 0 0
          0 0 0 0 0 0
          0 0 0 0 0 0
          0 0 0 0 0 0
          0 0 0 0 0 0
          0 0 0 0 0 0
          0 0 0 0 0 0
          0 0 0 0 0 0
          0 0 0 0 0 0
          0 0 0 0 0 0
          0 0 0 0 0 0
          0 0 0 0 0 0
          0 0 0 0 0 0
          0 0 0 0 0 0
          0 0 0 0 0 0
          0 0 0 0 0 0
          0 0 0 0 0 0
          0 0 0 0 0 0
          0 0 0 0 0 0
          0 0 0 0 0 0
          0 0 0 0 0 0
          0 0 0 0 0 0
          0 0 0 0 0 0
          0 0 0 0 0 0
          0 0 0 0 0 0
          0 0 0 0 0 0
          0 0 0 0 0 0
          0 0 0 0 0 0
          0 0 0 0 0 0
          0 0 0 0 0 0
          0 0 0 0 0 0
          0 0 0 0 0 0
          0 0 0 0 0 0
          0 0 0 0 0 0
          0 0 0 0 0 0
          0 0 0 0 0 0
          0 0 0 0 0 0
          0 0 0 0 0 0
          0 0 0 0 0 0
          0 0 0 0 0 0
          0 0 0 0 0 0
          0 0 0 0 0 0
          0 0 0 0 0 0
          0 0 0 0 0 0
          0 0 0 0 0 0
          0 0 0 0 0 0
          0 0 0 0 0 0
          0 0 0 0 0 0
          0 0 0 0 0 0
          0 0 0 0 0 0
          0 0 0 0 0 0
          0 0 0 0 0 0
          0 0 0 0 0 0
          0 0 0 0 0 0
          0 0 0 0 0 0
          0 0 0 0 0 0
          0 0 0 0 0 0
          0 0 0 0 0 0
          0 0 0 0 0 0
          0 0 0 0 0 0
          0 0 0 0 0 0
          0 0 0 0 0 0
          0 0 0 0 0 0
          0 0 0 0 0 0
          0 0 0 0 0 0
          0 0 0 0 0 0
          0 0 0 0 0 0
          0 0 0 0 0 0
          0 0 0 0 0 0
          0 0 0 0 0 0
          0 0 0 0 0 0
          0 0 0 0 0 0
          0 0 0 0 0 0
          0 0 0 0 0 0
          0 0 0 0 0 0
          0 0 0 0 0 0
          0 0 0 0 0 0
          0 0 0
        </DataArray>
        <DataArray type="Float64" Name="pe33" format="ascii" RangeMin="0" RangeMax="0">
          0 0 0 0 0 0
          0 0 0 0 0 0
          0 0 0 0 0 0
          0 0 0 0 0 0
          0 0 0 0 0 0
          0 0 0 0 0 0
          0 0 0 0 0 0
          0 0 0 0 0 0
          0 0 0 0 0 0
          0 0 0 0 0 0
          0 0 0 0 0 0
          0 0 0 0 0 0
          0 0 0 0 0 0
          0 0 0 0 0 0
          0 0 0 0 0 0
          0 0 0 0 0 0
          0 0 0 0 0 0
          0 0 0 0 0 0
          0 0 0 0 0 0
          0 0 0 0 0 0
          0 0 0 0 0 0
          0 0 0 0 0 0
          0 0 0 0 0 0
          0 0 0 0 0 0
          0 0 0 0 0 0
          0 0 0 0 0 0
          0 0 0 0 0 0
          0 0 0 0 0 0
          0 0 0 0 0 0
          0 0 0 0 0 0
          0 0 0 0 0 0
          0 0 0 0 0 0
          0 0 0 0 0 0
          0 0 0 0 0 0
          0 0 0 0 0 0
          0 0 0 0 0 0
          0 0 0 0 0 0
          0 0 0 0 0 0
          0 0 0 0 0 0
          0 0 0 0 0 0
          0 0 0 0 0 0
          0 0 0 0 0 0
          0 0 0 0 0 0
          0 0 0 0 0 0
          0 0 0 0 0 0
          0 0 0 0 0 0
          0 0 0 0 0 0
          0 0 0 0 0 0
          0 0 0 0 0 0
          0 0 0 0 0 0
          0 0 0 0 0 0
          0 0 0 0 0 0
          0 0 0 0 0 0
          0 0 0 0 0 0
          0 0 0 0 0 0
          0 0 0 0 0 0
          0 0 0 0 0 0
          0 0 0 0 0 0
          0 0 0 0 0 0
          0 0 0 0 0 0
          0 0 0 0 0 0
          0 0 0 0 0 0
          0 0 0 0 0 0
          0 0 0 0 0 0
          0 0 0 0 0 0
          0 0 0 0 0 0
          0 0 0 0 0 0
          0 0 0 0 0 0
          0 0 0 0 0 0
          0 0 0 0 0 0
          0 0 0 0 0 0
          0 0 0 0 0 0
          0 0 0 0 0 0
          0 0 0 0 0 0
          0 0 0 0 0 0
          0 0 0 0 0 0
          0 0 0 0 0 0
          0 0 0 0 0 0
          0 0 0 0 0 0
          0 0 0 0 0 0
          0 0 0 0 0 0
          0 0 0 0 0 0
          0 0 0 0 0 0
          0 0 0 0 0 0
          0 0 0 0 0 0
          0 0 0 0 0 0
          0 0 0 0 0 0
          0 0 0 0 0 0
          0 0 0 0 0 0
          0 0 0 0 0 0
          0 0 0 0 0 0
          0 0 0 0 0 0
          0 0 0 0 0 0
          0 0 0 0 0 0
          0 0 0 0 0 0
          0 0 0 0 0 0
          0 0 0 0 0 0
          0 0 0 0 0 0
          0 0 0 0 0 0
          0 0 0 0 0 0
          0 0 0 0 0 0
          0 0 0 0 0 0
          0 0 0 0 0 0
          0 0 0 0 0 0
          0 0 0 0 0 0
          0 0 0 0 0 0
          0 0 0 0 0 0
          0 0 0 0 0 0
          0 0 0 0 0 0
          0 0 0 0 0 0
          0 0 0 0 0 0
          0 0 0 0 0 0
          0 0 0 0 0 0
          0 0 0 0 0 0
          0 0 0 0 0 0
          0 0 0 0 0 0
          0 0 0 0 0 0
          0 0 0 0 0 0
          0 0 0 0 0 0
          0 0 0 0 0 0
          0 0 0 0 0 0
          0 0 0 0 0 0
          0 0 0 0 0 0
          0 0 0 0 0 0
          0 0 0 0 0 0
          0 0 0 0 0 0
          0 0 0 0 0 0
          0 0 0 0 0 0
          0 0 0 0 0 0
          0 0 0 0 0 0
          0 0 0
        </DataArray>
        <DataArray type="Float64" Name="disp_x" format="ascii" RangeMin="0.0000011216173268290557" RangeMax="0.000006601312078874973">
          0.00000295180893838114 0.000002951802942798895 0.0000029517844849126694 0.000002693644950484652 0.000002693637862271363 0.0000026936182584284656
          0.000002956452114988166 0.0000029564466244792228 0.000002956429826908779 0.0000013756410107049598 0.0000013756055932539198 0.000001375497080019606
          0.0000016416208304230108 0.000001641592105813889 0.000001641506552875889 0.0000019072892313865167 0.00000190726803072347 0.0000019072042783737126
          0.0000021722464030755363 0.0000021722310261479875 0.0000021721855056344975 0.0000024363274477893365 0.0000024363173208893075 0.0000024362853926857407
          0.0000026995306776477205 0.0000026995246737207062 0.000002699508912278585 0.000002961953719162191 0.0000029619490790753637 0.0000029619348652174576
          0.0000013817892210147445 0.000001381746048442716 0.0000013816134030318189 0.000001648955507746198 0.0000016489228636065159 0.0000016488259006480945
          0.0000019151845568310047 0.0000019151623835062664 0.000001915095563687091 0.0000021801721247181255 0.000002180157281515255 0.0000021801135774517774
          0.0000024439080686289495 0.0000024438994894102377 0.000002443871610087112 0.0000027065339400336574 0.00000270652946719813 0.000002706519676479997
          0.0000029682901839347255 0.0000029682871160979897 0.00000296827671817977 0.0000011219055441629147 0.0000011218300953003263 0.0000011216173268290557
          0.0000013912612749184986 0.0000013912105989493143 0.0000013910544067290268 0.00000165939924401379 0.0000016593642280759788 0.000001659260480704904
          0.0000019257057799433185 0.000001925684533432874 0.0000019256206007631144 0.000002190159881002366 0.000002190147662591636 0.0000021901112881002136
          0.0000024530217813033045 0.000002453015765834391 0.0000024529971414814113 0.000002714633391207556 0.000002714631725135762 0.0000027146273448834396
          0.0000029753250917856783 0.0000029753253063619717 0.000002975326425097522 0.0000011344619454226009 0.000001134368160265699 0.0000011341043507214355
          0.000001405577132010389 0.0000014055214959021162 0.0000014053492061559965 0.0000016738617326887918 0.0000016738281288145966 0.0000016737286379872084
          0.0000019392596979851696 0.000001939243038898741 0.0000019391925170057787 0.000002202283756848195 0.000002202276913853218 0.000002202256243848505
          0.000002463557170871842 0.0000024635556984019705 0.0000024635520203738037 0.000002723622734964287 0.0000027236249998228563 0.0000027236292731589036
          0.000002982867311372004 0.000002982871668244246 0.000002982888310501898 0.0000011551384720834166 0.000001155030718767555 0.0000011547267943544294
          0.0000014264748314124505 0.000001426421129808842 0.0000014262540606443602 0.0000016930047628837269 0.000001692979914162919 0.000001692906141174951
          0.000001955867600418645 0.0000019558610813734343 0.0000019558416963377976 0.000002216251297599978 0.0000022162534209482405 0.0000022162589553281013
          0.0000024751023593894086 0.00000247510797697442 0.0000024751257713986995 0.0000027330897081311297 0.0000027330969168357636 0.0000027331171174051747
          0.000002990621263667961 0.000002990629644344491 0.0000029906548490407936 0.0000011876742358028808 0.0000011875804775133777 0.0000011872900840647297
          0.000001455019821925848 0.0000014549836112425479 0.000001454867261815858 0.0000017165924251806524 0.0000017165893804479754 0.0000017165785047119995
          0.0000019747951683751564 0.000001974807537684711 0.0000019748457796677744 0.0000022311633000320786 0.000002231178443791958 0.0000022312202058304225
          0.000002486871440105595 0.000002486886172075548 0.0000024869323709782135 0.000002742385740848481 0.000002742399631383908 0.0000027424382980080002
          0.0000029979613213765105 0.0000029979743743846956 0.000002998014779196648 0.0000012333229018320732 0.0000012332888417789308 0.000001233192825421373
          0.0000014900649334265134 0.0000014900852946671462 0.0000014901315371930628 0.0000017427388730279486 0.0000017427731836266941 0.0000017428811815640067
          0.0000019939207108866318 0.000001993956517914008 0.0000019940759347944384 0.0000022455071383043802 0.0000022455401900635375 0.0000022456303069161663
          0.000002497678223331293 0.0000024977038688049666 0.000002497785396977644 0.00000275062675544496 0.0000027506489068429203 0.0000027507113224444784
          0.000003004292052813221 0.0000030043091041700992 0.000003004362668161434 0.000002319967170683924 0.0000025470718587254858 0.000002578431535259461
          0.0000023734820555454808 0.000002320008880111058 0.0000025471063371931753 0.0000025784674956755205 0.000002373529778138921 0.0000023201405623706455
          0.000002547207099015887 0.0000025785743769371526 0.000002373675805401984 0.0000016615771984382517 0.0000016682275033573925 0.000001403805233660097
          0.0000014446814651409132 0.0000016616564792555673 0.000001668385891554791 0.0000014040458230692883 0.000001444774742334684 0.0000016618939129015114
          0.0000016688126624060487 0.0000014047263503420712 0.0000014450539097558902 0.0000018830917256869973 0.0000019396820202826247 0.000001883163738595276
          0.0000019397616580646334 0.0000018833568350375094 0.0000019400236013968587 0.000002173959400336532 0.0000020888407583286925 0.000002174022463836384
          0.000002088893856199471 0.000002174207596681827 0.000002089053436408056 0.0000027757648399569306 0.00000276041796532311 0.000002775792060554112
          0.0000027604495054708476 0.0000027758806068830362 0.0000027605391535057745 0.0000011971952650534976 0.0000012234041293414035 0.0000011972798793948257
          0.0000012236984517345256 0.0000011975418649140906 0.000001224586761453273 0.0000027604754022247983 0.0000025116949408168056 0.0000027605075724914307
          0.000002511736498775189 0.0000027605951613615475 0.000002511860993746642 0.000003009695831444727 0.000003009716980935955 0.000003009780433691214
          0.000001338900844875793 0.0000013392551235966926 0.0000013404396633797576 0.0000015544607821604468 0.0000015546448786311944 0.0000015553892316243967
          0.0000017845967117241349 0.0000020225858676440402 0.0000017847291801337209 0.000002022671868626142 0.0000017851461601682155 0.0000020229117760855733
          0.0000022651354352713017 0.0000022651930522256514 0.0000022653773728299915 0.0000030114618426541396 0.0000030114856186691908 0.000003011569138739182
          0.0000034564184279586644 0.000003456415029995532 0.00000345640564703867 0.0000032342898999829165 0.0000032133640781885567 0.000003436052098094685
          0.0000034664307814824646 0.000003234301421233463 0.0000032133722054153645 0.000003436058650752315 0.0000034664400259182606 0.0000032343385938513005
          0.0000032133978528032683 0.0000034360780741118552 0.000003466460297806348 0.000003636414213430643 0.000003636411106833372 0.0000036364008054071995
          0.0000035278194925661423 0.0000032482749227708438 0.000003527833236289529 0.000003248289042060519 0.0000035278768861236536 0.000003248332397018963
          0.000003970927142171194 0.000003785710876782996 0.000003631183017594426 0.000003741178742118117 0.000003970925580092622 0.0000037857094337526907
          0.0000036311809579304406 0.0000037411764835085287 0.000003970920884399487 0.000003785702615394084 0.0000036311757554554686 0.0000037411686597186484
          0.0000034000957644589184 0.000003191018923789063 0.0000034000996549876803 0.000003191023499443786 0.0000034001058152771393 0.000003191039778810671
          0.000003927960096033973 0.0000041631051965898574 0.000003927958075514583 0.000004163104187874148 0.000003927952312631626 0.000004163101224702329
          0.000003861570661454223 0.000003764714575145596 0.0000037015755641406766 0.000003861580125917297 0.0000037647266691619597 0.0000037015867843986084
          0.000003861608553774794 0.0000037647651750678337 0.0000037016203273769487 0.000005038375803186963 0.000005283799855080125 0.000005368617477970719
          0.000005102395826484966 0.000005038378021913401 0.000005283802089977103 0.000005368619703740965 0.0000051023986294034575 0.000005038385296033813
          0.000005283808719355846 0.000005368625535159613 0.0000051024073200522085 0.000004186100075356837 0.000004224257638048865 0.000004008507564790423
          0.000004186099227451669 0.0000042242573305403074 0.00000400850712976195 0.000004186097700922901 0.000004224257065884875 0.000004008506347125342
          0.000004842133888107551 0.000005111794451693262 0.0000052116084456596644 0.0000049090291687047635 0.000004842134051456002 0.000005111794777884655
          0.000005211609304108076 0.000004909029867058827 0.000004842135056369906 0.000005111795557851796 0.000005211611703864001 0.000004909032172499296
          0.0000031792082777687017 0.000003327466099598047 0.000003179210223729427 0.00000332746790381364 0.0000031792167639843314 0.0000033274708665624764
          0.000004899807176362465 0.000004877125789931386 0.000005149753538859937 0.000005167804126686218 0.0000048998115473244786 0.000004877129631386598
          0.000005149756868698915 0.000005167807696572033 0.000004899824711153334 0.000004877141548796086 0.000005149766695128707 0.000005167817298504877
          0.000003551388544977248 0.000003235987193195836 0.0000033820005601562482 0.0000035513908073755014 0.000003235986596252512 0.0000033820003794114244
          0.000003551398738414077 0.0000032359840956420984 0.0000033820029156165113 0.000004635585646443287 0.000004620968290606047 0.000004635590649414041
          0.000004620972621104004 0.000004635606023410599 0.000004620985357663314 0.000005119688584652001 0.00000515448623746865 0.000005414648731327502
          0.000005408715172352153 0.0000051196932787747106 0.0000051544900644491425 0.000005414652367808138 0.000005408718951441172 0.000005119707143327709
          0.000005154502457584905 0.000005414660906560248 0.000005408730388010943 0.000005921790692065301 0.000006049246465416579 0.000005921793951229603
          0.000006049249040229217 0.000005921803598843828 0.000006049255414422271 0.000005173338578431848 0.000004945900992855501 0.000005173340201763975
          0.000004945902056922643 0.000005173346707651499 0.000004945904319546573 0.000004327214673681886 0.000004435555048022692 0.000004327214046165623
          0.000004435554485803762 0.000004327211777646989 0.000004435552443557655 0.000004337596839486716 0.000004094974857605976 0.000004073631634261428
          0.000004371353008729231 0.00000433759991173808 0.000004094977811290988 0.000004073633050626421 0.000004371354779648758 0.000004337610931183971
          0.0000040949845058788185 0.000004073636427550934 0.000004371360737243175 0.000004840439122026236 0.000004840442192739639 0.000004840451914329235
          0.0000034092706209942814 0.000003409267663717362 0.0000034092604488760436 0.000004021653642756769 0.000003865966900194176 0.000004021651629419621
          0.000003865964602172826 0.0000040216456685192285 0.000003865958918413564 0.0000036631198880000977 0.0000036855823190359966 0.0000036631261691258997
          0.000003685590551894014 0.0000036631458209304055 0.0000036856166099297215 0.000003595172453253567 0.0000034536750905244135 0.000003595187575749165
          0.000003453689150091701 0.000003595236747056482 0.000003453741572858049 0.000003626972257405687 0.000003626975917442929 0.0000036269878148412683
          0.000003841016898469305 0.0000038712467527455165 0.000003841019465395169 0.0000038712514606553394 0.000003841027921893201 0.000003871267235807363
          0.000004613153423082505 0.000004566981706785989 0.0000042836156926477554 0.000004350740827947334 0.000004613159152025659 0.000004566988253222429
          0.000004283623082286501 0.00000435074738474113 0.000004613176250323885 0.00000456700737526228 0.000004283646019284427 0.000004350767250163325
          0.0000042826461965014 0.000004515492972329037 0.0000042826463747106574 0.000004515492995518174 0.0000042826459856423234 0.000004515491939130983
          0.000003888652864058937 0.0000040133111147978886 0.000004183135130780956 0.000003888664822406567 0.000004013319998041174 0.00000418314308784291
          0.0000038886966013551495 0.000004013341699212024 0.0000041831725304574055 0.0000040418404421939925 0.000003823529337848107 0.000003805696659079792
          0.000004041840755319312 0.000003823530456132155 0.000003805696699179202 0.000004041842750518404 0.000003823533738138114 0.0000038056970855648953
          0.0000046116314164777084 0.000004611632146315206 0.000004611635271978031 0.0000037917672222970453 0.0000037917661034712843 0.0000037917620663648146
          0.0000035873450084276294 0.000003585086079428385 0.000003587343507203512 0.0000035850856400201007 0.0000035873390650126933 0.0000035850831501265144
          0.0000039033669281240785 0.000003897889542950381 0.000003903375184786016 0.000003897896111180728 0.000003903402711488433 0.000003897915696933128
          0.000005495283022957914 0.000005495286005256609 0.000005495295104668341 0.0000037429720031861187 0.000003907143559192586 0.0000037429692312895555
          0.0000039071412958979886 0.0000037429602587727884 0.000003907136228250347 0.000004154948853949062 0.000004154946840233966 0.000004154940689458017
          0.000006062304592288929 0.000006083667808325334 0.000005947940432552421 0.000005846561090268977 0.0000060623067473180265 0.0000060836701324229095
          0.000005947942744341585 0.000005846563188000628 0.00000606231290961285 0.000006083676332402021 0.000005947949588035841 0.0000058465697734936385
          0.000004478300786913198 0.000004478308163844337 0.0000044783290679601725 0.0000043538119934166 0.000004114949679394984 0.0000043538159853540915
          0.0000041149541068171045 0.000004353827502136994 0.000004114967535708602 0.0000035891783076411926 0.000003589179331597961 0.0000035891841321539693
          0.000004049896869572352 0.000004208949510707161 0.000004049895243726916 0.00000420894819061995 0.000004049890388214083 0.000004208944216124361
          0.000005572659695647672 0.000005572660361428794 0.000005572662108624873 0.0000053666320054533205 0.00000573740219158394 0.000005663451912550946
          0.000005366635695678894 0.000005737405247847674 0.000005663454879478513 0.000005366646960504717 0.000005737415223534074 0.000005663462499322705
          0.000004730705965083129 0.000004818588666805056 0.000004730705920064333 0.0000048185895002822555 0.000004730706581463025 0.000004818591660837423
          0.000005617856837853281 0.000005751728436899175 0.000005617858733098009 0.0000057517308564319475 0.000005617864644531498 0.00000575173898102502
          0.000004989553417132582 0.0000047188705844092345 0.0000049895550714380226 0.000004718872241362075 0.000004989560870729374 0.0000047188751177996144
          0.0000051196889101863855 0.000004959413063613839 0.000005119690538207253 0.000004959414459260015 0.000005119697047039608 0.00000495941715164887
          0.000005949408231572772 0.000005949410639639298 0.000005949417523212671 0.000005436881387687462 0.000005436884610433779 0.000005436894576565112
          0.000006188526141118683 0.000006188528247972939 0.0000061885345513906 0.000004555897660562666 0.000004555899358025526 0.000004555905931164499
          0.0000057971114176833914 0.0000057971143567965734 0.000005797123601969403 0.000004234903901099084 0.000004234902219406074 0.000004234896855284557
          0.000004842104155125418 0.000004889808091392696 0.000004842109175691946 0.000004889812711792304 0.0000048421245702426925 0.000004889827283572894
          0.000005412051004286699 0.000005411173558181002 0.0000054120514703422815 0.000005411174809388751 0.000005412054054036032 0.000005411179060861298
          0.000005391247985635203 0.000005391249593993162 0.000005391253728034724 0.00000568819033160087 0.000005688193845926503 0.00000568820689516373
          0.000004381728626609501 0.000004594599635187579 0.000004549377795934476 0.000004381727572930328 0.00000459459899359929 0.000004549377194163035
          0.000004381725091968347 0.000004594596529148393 0.0000045493758038180166 0.000005657389217061227 0.000005708550040465243 0.000005657389894552101
          0.000005708551130243903 0.000005657390644476377 0.000005708554557503836 0.000004412824099946793 0.000004412822742298085 0.000004412818349824261
          0.00000477400601360475 0.0000047740113613206295 0.000004774028341089074 0.000005770386768833547 0.000005770388368371898 0.000005770393474553677
          0.0000046580375179429964 0.000004658037115419822 0.000004658035903675324 0.000004462272916592026 0.000004462271587955398 0.0000044622675886222475
          0.000004567495313302803 0.000004567497980312632 0.000004567506394325689 0.000004594785102083117 0.000004594788304034221 0.000004594798649205878
          0.0000031721093817000606 0.000003172104620656623 0.000003172089028973032 0.000003166761865650379 0.0000031667574204141458 0.000003166742018830499
          0.000004550863022832846 0.000004550861735022147 0.000004550859278089295 0.0000031678594355928643 0.0000031678553568849026 0.0000031678411359280214
          0.0000047254487989616576 0.000004725448065003773 0.000004725446381995708 0.0000031825081346107 0.000003182505469256523 0.000003182492241683239
          0.000004134806175463603 0.000004134811865523437 0.000004134829210610792 0.000004796087546782405 0.00000479608939285696 0.000004796093739521144
          0.0000041351672869372385 0.000004135174292655182 0.00000413519460523982 0.00000437371252145984 0.000004373717123652825 0.00000437373184820031
          0.000004382411994555401 0.0000043824174272680245 0.000004382434592609062 0.000005223716752242082 0.0000052237185581719784 0.0000052237253160166675
          0.0000055219428509616744 0.000005521944198992726 0.000005521947683772944 0.000003376493013062474 0.0000033819022056507593 0.00000337649064260064
          0.0000033819011907531466 0.0000033764862611269036 0.0000033819004608034914 0.0000033818470334980285 0.000003381844175033148 0.0000033818374119281214
          0.000003264005148731826 0.0000033025159419956778 0.0000032640221288599907 0.00000330253365713894 0.0000032640564048496046 0.000003302584589443072
          0.000005607694472154369 0.000005607697605656285 0.000005607708171160242 0.000005070139913026653 0.000005070144359068892 0.000005070158834150984
          0.000004091772361615542 0.000004091779846335665 0.000004091802083942948 0.00000616468677273526 0.000006278510176247896 0.000006164689269829039
          0.000006278512410939709 0.000006164696259517096 0.00000627851982932473 0.000005819776031416436 0.000005441476206966079 0.000005601416158081188
          0.000005819777153229801 0.000005441476484210623 0.000005601416743984868 0.000005819780698323691 0.000005441476430577222 0.000005601419396823761
          0.000006114839280573025 0.000006114841398252542 0.000006114847873439773 0.0000063462169665957245 0.000006346218929601383 0.0000063462247973105904
          0.000006067916853432036 0.000005960441529703307 0.000006067919721542317 0.0000059604444354173705 0.0000060679279946585195 0.000005960453460483457
          0.000006601303650354303 0.000006428212587263394 0.000006601305798506778 0.000006428214700506639 0.000006601312078874973 0.000006428221260953033
          0.000005981681295983208 0.000006026563242911743 0.000005981682825285447 0.000006026565039688581 0.0000059816879359051045 0.000006026570768265125
          0.000006292307962881119 0.000006293281541715903 0.000006292310024132938 0.000006293283444461338 0.000006292315920717494 0.000006293289668000044
          0.000005921632632489631 0.000005921633642232911 0.0000059216370201577965 0.000004233331582452487 0.000004571844592706415 0.000004233329831337377
          0.000004571843501586398 0.000004233324495237757 0.000004571840221339755 0.000005274510430397534 0.000005274510355925849 0.000005274509597833584
          0.000004790654407029481 0.000004852953505940133 0.000004790653781032314 0.00000485295294582002 0.000004790651484555585 0.00000485295111181613
          0.000004966810394960691 0.000004966810093593414 0.000004966809709610881 0.000006240700116144343 0.000006240702110088885 0.00000624070883898987
          0.000005042933787249003 0.000005042933535649535 0.0000050429327366302855
        </DataArray>
        <DataArray type="Float64" Name="disp_y" format="ascii" RangeMin="-0.0000023060629720613216" RangeMax="-0.0000010178116884007455">
          -0.0000015403677616707732 -0.0000015403768025880787 -0.000001540403778223422 -0.0000016126490793149873 -0.0000016126608990055512 -0.0000016126966414504206
          -0.0000016156691057235304 -0.0000016156800184549645 -0.000001615712272327147 -0.0000016498075891471203 -0.0000016498137649005142 -0.000001649832454944936
          -0.000001661961047702658 -0.0000016619735611696809 -0.0000016620110008162816 -0.0000016716906036245747 -0.0000016717061049670714 -0.0000016717525981350287
          -0.000001679121216869554 -0.0000016791375461869423 -0.0000016791865568625263 -0.0000016845824424239542 -0.0000016845983372373163 -0.000001684645965214672
          -0.0000016884473630210811 -0.0000016884619455231366 -0.0000016885061077992893 -0.0000016910510351294088 -0.0000016910643399860731 -0.0000016911025971146065
          -0.00000172576333834208 -0.0000017257782701251426 -0.000001725823178173973 -0.0000017389776554463272 -0.0000017389986289863418 -0.000001739061553386477
          -0.0000017489206043007646 -0.0000017489433014851643 -0.000001749011399467498 -0.0000017560721515678806 -0.0000017560941723856332 -0.0000017561600925574704
          -0.0000017610255880213978 -0.00000176104561723566 -0.0000017611058054537576 -0.000001764327019588406 -0.000001764344913704198 -0.0000017643979508353892
          -0.000001766386071636545 -0.0000017664013280992419 -0.0000017664488817409837 -0.0000017851175954230248 -0.0000017851345279862558 -0.000001785183951007459
          -0.0000018036832670630558 -0.0000018037125596707575 -0.0000018038003182829618 -0.0000018174111442164988 -0.0000018174444918726723 -0.000001817544039621463
          -0.0000018269882428229983 -0.0000018270204679378466 -0.000001827116817161771 -0.0000018333937448357418 -0.000001833422511302447 -0.0000018335087099753525
          -0.0000018375189282847975 -0.000001837543567126544 -0.0000018376171978399892 -0.0000018400436199397031 -0.0000018400646297588637 -0.000001840127531608678
          -0.0000018415116672888405 -0.0000018415289866078533 -0.000001841581974205993 -0.0000018640464099965427 -0.0000018640864251574277 -0.0000018642107038524445
          -0.0000018838304765612522 -0.0000018838811560034077 -0.0000018840344650899052 -0.000001897093396850927 -0.0000018971428425023486 -0.0000018972924806173594
          -0.000001905529239673354 -0.0000019055726088005257 -0.0000019057035952854542 -0.0000019106864023535983 -0.0000019107222685776003 -0.00000191082994397774
          -0.000001913699456767216 -0.0000019137283455444328 -0.0000019138156839687173 -0.0000019153304450366498 -0.000001915353881666492 -0.0000019154233373664474
          -0.0000019160243905595276 -0.0000019160436774822564 -0.0000019161034329386738 -0.0000019466762871119977 -0.0000019467625759190892 -0.0000019470098420773905
          -0.000001965892580991519 -0.0000019659774027801054 -0.0000019662256130981283 -0.0000019773391215410936 -0.000001977412810477219 -0.0000019776278745592552
          -0.0000019838327249608793 -0.0000019838884811653842 -0.000001984053706067999 -0.0000019873454276658007 -0.000001987388205052089 -0.000001987515597413013
          -0.000001989119982506644 -0.00000198915255759553 -0.0000019892492057502044 -0.000001989841419153818 -0.0000019898662662623837 -0.000001989940525875863
          -0.0000019899058534179465 -0.0000019899258595554534 -0.0000019899849672325933 -0.000002032328286762234 -0.0000020324974566365305 -0.0000020330030751819576
          -0.0000020483526032125153 -0.0000020484858174595586 -0.0000020488777428699853 -0.0000020568506602123227 -0.000002056944871547219 -0.000002057247871104829
          -0.000002060820275639859 -0.000002060889273759691 -0.0000020610897353963104 -0.0000020626373845773898 -0.000002062684872971223 -0.0000020628297015824754
          -0.0000020633251457201447 -0.000002063359634447596 -0.0000020634631241692053 -0.0000020633157017017718 -0.000002063340261765744 -0.0000020634142060466403
          -0.0000020629069965461297 -0.00000206292501864338 -0.000002062981316066247 -0.0000021174554572373223 -0.0000021177127812112955 -0.0000021185125147382286
          -0.000002128461595349414 -0.0000021286156774617446 -0.0000021291233941397202 -0.000002133905306230006 -0.000002134012671777139 -0.000002134317292377031
          -0.0000021352177830528156 -0.000002135285351688848 -0.000002135505118704631 -0.0000021360172595043975 -0.000002136065443708695 -0.0000021362073082480483
          -0.000002135986185812334 -0.0000021360176453376272 -0.0000021361150647255737 -0.000002135598410954666 -0.0000021356211305624614 -0.0000021356873495212072
          -0.0000021349392209814457 -0.000002134954848881854 -0.0000021349970426690433 -0.000002194071497782534 -0.000002195334602907519 -0.0000022474149365807184
          -0.0000022454828919518992 -0.0000021941047987424766 -0.0000021953597129330688 -0.0000022474308122929784 -0.0000022455054791689687 -0.0000021942147031241506
          -0.0000021954293739896 -0.0000022474778318993404 -0.0000022455638793426715 -0.0000021992136324823335 -0.0000022562428276007705 -0.0000022426446700677635
          -0.000002189733707296512 -0.0000021993308634910416 -0.0000022563409243874317 -0.0000022429057197337095 -0.0000021899485764860538 -0.0000021996780487112598
          -0.000002256642295432503 -0.0000022437411039916485 -0.0000021904884542098514 -0.0000022008788179672804 -0.000002252238208387141 -0.0000022009513258520153
          -0.0000022522832729333646 -0.0000022011734314841095 -0.0000022524162988056167 -0.000002250902757879826 -0.0000021952373573617755 -0.0000022509332305030295
          -0.0000021952886286567625 -0.0000022510090564646547 -0.000002195442475930781 -0.0000022041993957287194 -0.000002259158541264178 -0.0000022042159533974115
          -0.000002259172066876769 -0.0000022042731790372597 -0.0000022592106616679197 -0.0000021808715099357135 -0.000002231143664690535 -0.000002181274699522905
          -0.0000022316229185200154 -0.000002182406548026282 -0.0000022331059863435042 -0.0000023060268691081796 -0.0000023057344151886607 -0.000002306039930559562
          -0.000002305744329586332 -0.0000023060629720613216 -0.0000023057689133278757 -0.0000022208445567937137 -0.00000222085673764544 -0.000002220890120377232
          -0.000002285909822803501 -0.000002286213840480357 -0.0000022872227674947295 -0.0000022949957538764176 -0.0000022951509528624206 -0.0000022954690991939592
          -0.000002301188463249164 -0.0000023035380732209443 -0.0000023012426059879127 -0.0000023035669507976615 -0.000002301329351166116 -0.0000023036164890299556
          -0.0000023050807097666393 -0.0000023050936207070916 -0.0000023051432331085784 -0.0000023060132514549926 -0.0000023060218428374427 -0.000002306051688033125
          -0.000001405273614780275 -0.0000014052799567728452 -0.0000014052989127562969 -0.000002072694559343375 -0.0000019985095407396667 -0.0000019988093616405845
          -0.0000020752286074917507 -0.000002072709212961658 -0.0000019985252276869845 -0.0000019988222025576044 -0.000002075240707694521 -0.0000020727491577744443
          -0.000001998573359652313 -0.000001998860875139007 -0.0000020752739757422516 -0.0000013264841216331648 -0.0000013264893248143313 -0.0000013265047525942957
          -0.0000021604762941353255 -0.0000021501923530023995 -0.0000021604850222850376 -0.0000021502053145623653 -0.000002160516038357807 -0.000002150250234978762
          -0.0000014713209008162776 -0.0000015159746765667042 -0.0000015039647597503893 -0.0000014328599878654255 -0.000001471326792087844 -0.000001515981634810517
          -0.0000015039719318970312 -0.000001432865887613416 -0.0000014713439854416913 -0.0000015160026650212252 -0.000001503993290706209 -0.0000014328830938476412
          -0.0000019244994696730376 -0.0000019273965494949633 -0.0000019245125959904284 -0.0000019274122443935323 -0.0000019245530477556904 -0.000001927462637164226
          -0.0000013508479495764638 -0.0000014102464690579946 -0.0000013508532955394068 -0.0000014102516787647533 -0.0000013508694892645526 -0.000001410268147359329
          -0.0000021384546070430726 -0.0000022077730174718737 -0.000002124477356797469 -0.0000021384604923224347 -0.0000022077794696096048 -0.0000021244860646737304
          -0.000002138471060618854 -0.0000022077980932644954 -0.00000212450351690475 -0.0000017869122361317722 -0.0000017615351514870875 -0.0000018442073531436495
          -0.0000018711787249082267 -0.0000017869172074169488 -0.0000017615399845594784 -0.0000018442118380308657 -0.0000018711835844797613 -0.0000017869321675524204
          -0.000001761555818514944 -0.000001844224796073331 -0.000001871197179067337 -0.0000014944200244812621 -0.0000015475983540111912 -0.0000015617946735454372
          -0.0000014944257594307986 -0.000001547604380894543 -0.0000015618015605034634 -0.0000014944418031885978 -0.0000015476232665975435 -0.000001561821543852445
          -0.0000013672690643740544 -0.0000013754089303975704 -0.0000014461141087581988 -0.0000014629307785371263 -0.0000013672735566886376 -0.0000013754129939646032
          -0.000001446118542603357 -0.0000014629359508706997 -0.0000013672870451027793 -0.0000013754250914331835 -0.0000014461328927035762 -0.0000014629519689844639
          -0.0000018772403549046772 -0.0000018578338634196158 -0.0000018772558110468798 -0.000001857846552993905 -0.0000018772981148859759 -0.000001857881285885606
          -0.0000020614411917571775 -0.0000019749166072944076 -0.0000019611903103972074 -0.0000020526596288651988 -0.0000020614455282457953 -0.0000019749216665014397
          -0.0000019611949999228057 -0.000002052663748957662 -0.000002061458512911353 -0.0000019749367454094186 -0.000001961209826457166 -0.0000020526759990179543
          -0.0000018170772553274667 -0.0000017990973861319511 -0.0000017764475367477057 -0.0000018170883786148006 -0.0000017991102335570112 -0.000001776459098329091
          -0.0000018171225269096985 -0.0000017991448509009948 -0.0000017764934841719394 -0.0000020700461214442442 -0.000001985744292008079 -0.0000020700509128124487
          -0.0000019857499419628784 -0.0000020700655542542552 -0.0000019857667894675273 -0.0000022209777645040005 -0.0000021401836272802073 -0.0000021380027754427913
          -0.000002217369408384378 -0.0000022209807372453697 -0.0000021401868085495053 -0.0000021380056899149433 -0.000002217372014145151 -0.000002220989805065919
          -0.000002140196424268264 -0.000002138012758671899 -0.0000022173795911033146 -0.0000021115143760917744 -0.0000020407374739032006 -0.0000021115175677213166
          -0.0000020407409096470936 -0.0000021115262914216418 -0.000002040751191400898 -0.0000015361208377377452 -0.0000015393689212328786 -0.000001536125812943776
          -0.0000015393740168386185 -0.00000153614086260263 -0.0000015393893912076025 -0.000001463134688357098 -0.0000015231767728308367 -0.0000014631400792743311
          -0.0000015231823680660765 -0.0000014631545285407738 -0.0000015231989446059674 -0.000001823223714798548 -0.0000018198123617220246 -0.0000017290987202070184
          -0.0000017237092100158688 -0.0000018232310083218422 -0.0000018198206895630612 -0.0000017291068745945687 -0.0000017237160637697054 -0.0000018232527498823163
          -0.0000018198448187266351 -0.0000017291322194995559 -0.0000017237362105424267 -0.0000018894257266438859 -0.0000018894313127727002 -0.0000018894483653410386
          -0.0000015024639916055163 -0.000001502471669684511 -0.0000015024944601547015 -0.0000011557996907001002 -0.0000012111346804121992 -0.0000011558036573232213
          -0.0000012111390852266312 -0.000001155816019193099 -0.0000012111521092206374 -0.0000019955587803587146 -0.000002071121899821556 -0.000001995569795826495
          -0.000002071130116722776 -0.0000019956017704274525 -0.0000020711607504647203 -0.0000023051855756498854 -0.0000022298422295105648 -0.0000023051905015319813
          -0.00000222984879964937 -0.0000023052020721719166 -0.000002229868068989581 -0.000001913610766155852 -0.0000019136218519148057 -0.000001913655106586279
          -0.0000018187222566320665 -0.0000019089460806006378 -0.0000018187320781128953 -0.0000019089557818959053 -0.0000018187624169214464 -0.000001908985996785416
          -0.0000021493979237783863 -0.000002227928395676498 -0.00000222878468881059 -0.0000021525480671763664 -0.0000021494018944163917 -0.0000022279318392139748
          -0.0000022287892531065678 -0.000002152552689089007 -0.0000021494134543879695 -0.0000022279424136828834 -0.0000022288017251863637 -0.000002152565977000943
          -0.0000016252713121402062 -0.0000015949351176261191 -0.000001625278045468794 -0.0000015949410344998407 -0.000001625298657730938 -0.0000015949594516416702
          -0.0000023042293826510337 -0.0000022259970089246653 -0.000002303220760973824 -0.0000023042372529242454 -0.0000022260028704425743 -0.00000230322547898231
          -0.0000023042683254704034 -0.0000022260233253162535 -0.000002303236660739458 -0.0000016415941239267416 -0.0000017305280029260934 -0.00000164608144503025
          -0.0000016416017795372733 -0.000001730537009256604 -0.000001646089951835179 -0.0000016416249250927903 -0.0000017305630249717102 -0.0000016461151153546255
          -0.0000016684521098752809 -0.0000016684576402819615 -0.0000016684739788612962 -0.0000015694947104133354 -0.000001569502380505861 -0.0000015695265205362771
          -0.0000015729926637482975 -0.0000016466700699476973 -0.0000015730012240839374 -0.0000016466796901599258 -0.0000015730274193928417 -0.000001646708562492787
          -0.0000020715925506873813 -0.00000199486617716509 -0.0000020715993207990437 -0.000001994875167409603 -0.0000020716217304165946 -0.000001994901086654114
          -0.0000019472454239321995 -0.00000194724956286277 -0.0000019472619893344794 -0.0000012658270979782813 -0.0000012865578033435591 -0.0000012658317050969827
          -0.0000012865626795737443 -0.0000012658453748244556 -0.0000012865770856821276 -0.0000010917214501770453 -0.0000010917245748958907 -0.000001091733378172375
          -0.0000017515737697761282 -0.0000018004269205544195 -0.0000018309202376450522 -0.0000017715060652105955 -0.0000017515775850144932 -0.0000018004306299824477
          -0.0000018309237788519902 -0.0000017715100519723045 -0.0000017515892648993988 -0.000001800441157236428 -0.0000018309346888076446 -0.0000017715218031271904
          -0.0000023020288922067247 -0.0000023020320597858463 -0.0000023020428240077813 -0.0000019095368248420645 -0.0000019097670016474842 -0.000001909543939286978
          -0.0000019097750002656823 -0.0000019095651047851207 -0.0000019097991877445204 -0.0000017258459579694483 -0.0000017258564814194233 -0.0000017258879296299897
          -0.0000012538794809202685 -0.00000130413185362663 -0.0000012538838509454504 -0.000001304136378879372 -0.0000012538960627693199 -0.0000013041506853941895
          -0.0000014523396608721404 -0.000001452343337154076 -0.0000014523532749589692 -0.000002297548384127091 -0.0000021954874193684887 -0.0000022957433965930664
          -0.000002297551034297916 -0.0000021954901896593405 -0.0000022957465936922858 -0.0000022975601106546647 -0.000002195498148510938 -0.000002295757122233274
          -0.0000015610131805405497 -0.0000016261705745430383 -0.0000015610185343063007 -0.000001626175706965461 -0.000001561034801419075 -0.0000016261911132801157
          -0.0000018072112186729523 -0.000001877962286618726 -0.0000018072153283972707 -0.0000018779657050444494 -0.0000018072282419008025 -0.000001877975671520815
          -0.0000016935716309286604 -0.0000017372804630108747 -0.0000016935764590428997 -0.0000017372859489055523 -0.0000016935911911012021 -0.000001737301096645557
          -0.0000016105826625110826 -0.0000015926746881670242 -0.0000016105874400125459 -0.0000015926795232246066 -0.000001610601034200504 -0.0000015926946677133824
          -0.0000019332539167418318 -0.000001933257117910338 -0.000001933266004782123 -0.0000020552265858050023 -0.000002055230278811277 -0.0000020552422668728683
          -0.000001975548512296181 -0.0000019755517321613856 -0.0000019755622167048093 -0.0000017647440856064588 -0.0000017647502010512551 -0.0000017647672693543283
          -0.0000020014746078031792 -0.0000020014783376843796 -0.0000020014897951599894 -0.0000012057729832656076 -0.000001205776955216013 -0.0000012057893719906152
          -0.0000022244976834373915 -0.0000021452301317938337 -0.000002224500937900703 -0.0000021452336885528373 -0.0000022245103341590025 -0.0000021452442884147784
          -0.0000014803531562325041 -0.0000015399434311198888 -0.0000014803574449202126 -0.0000015399477133557941 -0.0000014803682188586976 -0.0000015399617453794446
          -0.00000164009543935264 -0.0000016401000490370465 -0.000001640113480093074 -0.000002079099570165297 -0.0000020791028996721725 -0.0000020791153529783268
          -0.0000013595388787015869 -0.0000013061232570410903 -0.0000014197371003702208 -0.0000013595439889131908 -0.0000013061274861096012 -0.0000014197422199939183
          -0.0000013595598737348755 -0.000001306139700191499 -0.0000014197582236471496 -0.0000015257886351489825 -0.0000016112241995025734 -0.0000015257927470558173
          -0.0000016112285899796753 -0.0000015258054011260706 -0.000001611242063096411 -0.0000012575901319864013 -0.0000012575944401656608 -0.0000012576054415520313
          -0.0000023006898848221577 -0.0000023006929741159524 -0.000002300702493784879 -0.000001696943811098014 -0.0000016969479603518364 -0.000001696960207145571
          -0.0000014904659786590058 -0.0000014904712048213157 -0.000001490486671299103 -0.0000011508464208267045 -0.0000011508499521929073 -0.0000011508609973402285
          -0.0000018230172009990473 -0.0000018230235709885784 -0.000001823045343738562 -0.000001902882645337446 -0.0000019028891844372684 -0.0000019029086753916367
          -0.0000015147752056254288 -0.000001514783502827355 -0.0000015148084942741943 -0.0000015923237675902652 -0.000001592333621044722 -0.000001592363669297144
          -0.0000012219496666993069 -0.0000012219535843593644 -0.0000012219655919292023 -0.0000016658692699811752 -0.0000016658811806091934 -0.0000016659168035266301
          -0.0000012450918962493815 -0.0000012450957677065305 -0.0000012451080871596068 -0.0000017374733042324547 -0.000001737486069678787 -0.000001737525916318913
          -0.000001995630571666771 -0.0000019956379815440103 -0.0000019956601479586988 -0.0000018089738393568895 -0.000001808979444006987 -0.0000018089965637080658
          -0.000002075296011270493 -0.0000020753020278474163 -0.000002075321051848391 -0.0000019926724739342227 -0.000001992678891347173 -0.0000019926982129424257
          -0.000002075561741784108 -0.0000020755671708552435 -0.0000020755838195267604 -0.0000017019700524074933 -0.0000017019747411622474 -0.0000017019883851876812
          -0.0000017285405500849887 -0.0000017285450728875426 -0.0000017285588689329595 -0.0000016529900000279237 -0.0000017243969853003335 -0.0000016530008847924842
          -0.0000017244084984005185 -0.0000016530337098854612 -0.0000017244454179720483 -0.0000015790923501630471 -0.0000015791016211284527 -0.000001579128829799
          -0.0000022272563437515532 -0.0000023056954936005725 -0.0000022272648625764585 -0.0000023056980474532728 -0.0000022272907756117466 -0.0000023056953805963955
          -0.0000021352098210532545 -0.0000021352125267200786 -0.0000021352198353087846 -0.0000022991979945862904 -0.0000022992008068240755 -0.000002299209223009242
          -0.0000021486294709934905 -0.0000021486343514617984 -0.0000021486486542310796 -0.000002136233054164277 -0.0000020726631978830012 -0.0000021362357467700582
          -0.000002072666124799767 -0.0000021362444135368656 -0.0000020726749457285522 -0.0000014013517677669912 -0.0000013900546937120863 -0.0000013587372122120089
          -0.0000014013553242952502 -0.000001390058290285104 -0.0000013587406256003823 -0.0000014013661962398577 -0.0000013900686323148345 -0.0000013587511370444357
          -0.0000018756050691549803 -0.0000018756083806721852 -0.0000018756181511326542 -0.000001913789454589168 -0.0000019137927642180777 -0.0000019138031459943155
          -0.0000022128837351003404 -0.000002293774466538902 -0.0000022128870120222163 -0.0000022937781239351056 -0.0000022128971314120446 -0.0000022937894535411043
          -0.0000019573439752658386 -0.000002016641045135038 -0.0000019573472304114987 -0.000002016643972497555 -0.000001957356963057583 -0.000002016652386891745
          -0.0000015926128847338335 -0.0000016773129581037471 -0.0000015926167858856191 -0.0000016773169247562452 -0.0000015926281024502851 -0.0000016773291351768058
          -0.0000016735704238481226 -0.0000017529827609472773 -0.0000016735742269835832 -0.0000017529864247101677 -0.000001673585589348389 -0.0000017529975022152574
          -0.0000015055095730742676 -0.0000015055133503519299 -0.000001505524615770956 -0.0000010178116884007455 -0.0000010465416327620026 -0.000001017814303175002
          -0.000001046544638557177 -0.000001017821467291601 -0.000001046553645775928 -0.0000013128627440446324 -0.0000013128663719459493 -0.0000013128766225259711
          -0.0000011741978771934536 -0.0000011022903831099419 -0.0000011742014142811202 -0.0000011022935371221328 -0.0000011742115300813446 -0.000001102302242255034
          -0.0000012774339396018593 -0.0000012774377610206798 -0.000001277448399973535 -0.0000018189980043946198 -0.0000018190014894669801 -0.0000018190118763222303
          -0.0000012026520863409752 -0.0000012026556943941676 -0.0000012026671758726563
        </DataArray>
        <DataArray type="Float64" Name="disp_z" format="ascii" RangeMin="-5.394609940771996e-8" RangeMax="0">
          0 -2.630880021033214e-8 -5.26185925661791e-8 0 -2.62819626365498e-8 -5.256269269652999e-8
          0 -2.625483540838134e-8 -5.2511071221620975e-8 0 -2.678097319443597e-8 -5.3560912379613986e-8
          0 -2.6588827579048635e-8 -5.3177860291407984e-8 0 -2.6442000213938784e-8 -5.2884052529756205e-8
          0 -2.6334857108222744e-8 -5.266941052712321e-8 0 -2.625914831970123e-8 -5.25192579310364e-8
          0 -2.6208534808040355e-8 -5.241542887110929e-8 0 -2.6191394476267064e-8 -5.2384250129542024e-8
          0 -2.6724493907144506e-8 -5.3447497714284586e-8 0 -2.6498045603573537e-8 -5.2996384447666836e-8
          0 -2.6337679644224366e-8 -5.267537703238635e-8 0 -2.622987148136642e-8 -5.245939332326668e-8
          0 -2.6160143455398857e-8 -5.232148236645404e-8 0 -2.6119094320876823e-8 -5.223583136524882e-8
          0 -2.6114432319544424e-8 -5.2231934213878724e-8 0 -2.696937640770228e-8 -5.394609940771996e-8
          0 -2.6606047174832813e-8 -5.321002759801652e-8 0 -2.6350697669001526e-8 -5.270164095277849e-8
          0 -2.6187760061950632e-8 -5.237535676071838e-8 0 -2.609043668204671e-8 -5.218073407641792e-8
          0 -2.6037495045170523e-8 -5.2075286831636125e-8 0 -2.6013315655456293e-8 -5.2026441128670985e-8
          0 -2.6016116557497826e-8 -5.203158732596707e-8 0 -2.6813810170303885e-8 -5.3640130239543185e-8
          0 -2.638841203082673e-8 -5.277468788497716e-8 0 -2.6123839933875762e-8 -5.224861035377223e-8
          0 -2.5979688992986423e-8 -5.1959758891073445e-8 0 -2.5911950632057664e-8 -5.1824060256277985e-8
          0 -2.588970497841119e-8 -5.177928208614367e-8 0 -2.589132786210068e-8 -5.1783890395867704e-8
          0 -2.5906660762341934e-8 -5.181082954095132e-8 0 -2.648204521433489e-8 -5.296536905906976e-8
          0 -2.6026853590150722e-8 -5.2047742473745337e-8 0 -2.5793082628379678e-8 -5.158276925404783e-8
          0 -2.57059813180531e-8 -5.1410940899227015e-8 0 -2.5695856361360797e-8 -5.1391294616664524e-8
          0 -2.5719021491769773e-8 -5.1436663129028285e-8 0 -2.5759854906457014e-8 -5.152096899759152e-8
          0 -2.5797848027199695e-8 -5.15947215637828e-8 0 -2.5851033603450076e-8 -5.170390759015734e-8
          0 -2.5457946721616493e-8 -5.091853382259639e-8 0 -2.5320727724599554e-8 -5.0648217568616405e-8
          0 -2.5377395889046873e-8 -5.075664705787568e-8 0 -2.54469919787907e-8 -5.089258085874958e-8
          0 -2.5537024073671246e-8 -5.1074811722498784e-8 0 -2.5622097896606375e-8 -5.124527137194383e-8
          0 -2.5690424321474332e-8 -5.138033423104297e-8 0 -2.4602984074997796e-8 -4.919319370495168e-8
          0 -2.45940494659136e-8 -4.9203620851496605e-8 0 -2.4705972256257173e-8 -4.9391756648488264e-8
          0 -2.4981153080316775e-8 -4.9974143288892164e-8 0 -2.5174370413438406e-8 -5.034451017342227e-8
          0 -2.5344379704135015e-8 -5.068865247132619e-8 0 -2.5493020257340645e-8 -5.098648157961721e-8
          0 -2.5596815497626428e-8 -5.118967020083402e-8 0 0 0
          0 -2.503748587375636e-8 -2.5244074314450696e-8 -2.519591382583917e-8 -2.497135251080888e-8 -5.008068012615861e-8
          -5.04868231100121e-8 -5.040278253959505e-8 -4.992844750800737e-8 0 0 0
          0 -2.4105397355894628e-8 -2.3514302145250257e-8 -2.257867832769214e-8 -2.3685862063027298e-8 -4.824335823203107e-8
          -4.6973046470532435e-8 -4.521599871360317e-8 -4.731814966956992e-8 0 0 -2.4439316073318784e-8
          -2.428073740573212e-8 -4.889243034554148e-8 -4.854399105432992e-8 0 0 -2.4718453005615033e-8
          -2.4749001315553048e-8 -4.945065645939424e-8 -4.948951633488522e-8 0 0 -2.539300895913381e-8
          -2.529813753160475e-8 -5.07869303108499e-8 -5.058357401599759e-8 0 0 -2.3129079825807192e-8
          -2.1410778939009513e-8 -4.626045086999376e-8 -4.2739615182236754e-8 0 0 -2.5272022959242128e-8
          -2.507820439083733e-8 -5.055031941961205e-8 -5.015704936865116e-8 0 -2.55258256090026e-8 -5.105215917349469e-8
          0 -2.0401125167456708e-8 -4.0653108417890654e-8 0 -2.2529253751528987e-8 -4.50807141430183e-8
          0 0 -2.3746138690070192e-8 -2.4328238055894858e-8 -4.756585539850981e-8 -4.865113763013078e-8
          0 -2.477348496633958e-8 -4.954792395119198e-8 0 -2.5450028127893285e-8 -5.090010296711586e-8
          0 -2.632762830921322e-8 -5.2655165621209636e-8 0 0 0
          0 -2.576158738135202e-8 -2.5837503613334085e-8 -2.587059455697987e-8 -2.580562877484836e-8 -5.1522673989063044e-8
          -5.167611683857671e-8 -5.1740660191534244e-8 -5.160992988205431e-8 0 -2.6347852945155224e-8 -5.2694893793110564e-8
          0 0 -2.5749411893471638e-8 -2.5684643668074768e-8 -5.150254871260066e-8 -5.1373594528013006e-8
          0 0 0 0 -2.6269449047177792e-8 -2.626063681926738e-8
          -2.6272582755604928e-8 -2.629893514601592e-8 -5.253773798011374e-8 -5.252357200771146e-8 -5.254426252397678e-8 -5.259830845777707e-8
          0 0 -2.5943228656462852e-8 -2.5929383779316984e-8 -5.188509069932147e-8 -5.18593857161734e-8
          0 0 -2.63218139317347e-8 -2.6288102567954623e-8 -5.264401934210517e-8 -5.257604126206546e-8
          0 0 0 -2.5854541580328128e-8 -2.58201006794647e-8 -2.5813344337966624e-8
          -5.170833788592228e-8 -5.1644777878509335e-8 -5.1618108125478085e-8 0 0 0
          0 -2.6141994172056103e-8 -2.616777243692756e-8 -2.6141015669859066e-8 -2.6118252514091815e-8 -5.228349348967115e-8
          -5.2335230659249176e-8 -5.228227599532978e-8 -5.2236460477713585e-8 0 0 0
          -2.626016157728069e-8 -2.62353830804066e-8 -2.622621037407083e-8 -5.25238053487225e-8 -5.247023003091061e-8 -5.2451270497303636e-8
          0 0 0 0 -2.6298469170315035e-8 -2.630344461958324e-8
          -2.627584567145419e-8 -2.62610336703431e-8 -5.2596399511520915e-8 -5.260946553494868e-8 -5.2550858105127323e-8 -5.2521354902554545e-8
          0 0 -2.5986565895008854e-8 -2.600663583844245e-8 -5.1976922422556234e-8 -5.201435912875524e-8
          0 0 0 0 -2.6031926242105155e-8 -2.606006154090515e-8
          -2.608900105121176e-8 -2.6057341779018825e-8 -5.206385599519396e-8 -5.2119793793540126e-8 -5.217827788217899e-8 -5.211491209752586e-8
          0 0 0 -2.6046137571077112e-8 -2.60498676069595e-8 -2.6070273719652806e-8
          -5.209271830865174e-8 -5.2096631296473534e-8 -5.214119399697456e-8 0 0 -2.6000251349752082e-8
          -2.6033128451854556e-8 -5.200056212483348e-8 -5.2066544043909036e-8 0 0 0
          0 -2.6010901026560295e-8 -2.603365520402466e-8 -2.605422655643211e-8 -2.604081138443802e-8 -5.202137781809009e-8
          -5.206717588051571e-8 -5.2109531456167067e-8 -5.2081769030796925e-8 0 0 -2.610130027669047e-8
          -2.612443331927817e-8 -5.2202924659317076e-8 -5.2248269922566484e-8 0 0 -2.6241207975969927e-8
          -2.6232898563004157e-8 -5.248255885987344e-8 -5.246689996364029e-8 0 0 -2.6265897125796303e-8
          -2.6241829094100963e-8 -5.2530890402928346e-8 -5.2482977963215285e-8 0 0 0
          0 -2.6091178100815508e-8 -2.6077064728566062e-8 -2.6131184737244543e-8 -2.614597709255127e-8 -5.2182232031705374e-8
          -5.215395993761112e-8 -5.226192986867839e-8 -5.229141115213628e-8 0 -2.6092637294326897e-8 -5.2185368059434573e-8
          0 -2.6281735291136326e-8 -5.256447333938206e-8 0 0 -2.6385275413143033e-8
          -2.6373260261112684e-8 -5.27705177950295e-8 -5.274701043143392e-8 0 0 -2.5906492734538166e-8
          -2.5842455873228566e-8 -5.1814244942607025e-8 -5.168575377280464e-8 0 0 -2.5703725254149656e-8
          -2.56410963891225e-8 -5.141234852574255e-8 -5.1264904081008516e-8 0 -2.596401921293956e-8 -5.192712946468856e-8
          0 0 -2.606879090148695e-8 -2.5997319338159915e-8 -5.2138403162148225e-8 -5.199480184602139e-8
          0 0 0 0 -2.597110445342795e-8 -2.5944225193654707e-8
          -2.5898275148214907e-8 -2.593315075613018e-8 -5.194208738751606e-8 -5.188820813946285e-8 -5.1797121515209695e-8 -5.186635602269598e-8
          0 0 -2.619795468516874e-8 -2.6208689759407968e-8 -5.239682958046497e-8 -5.241737516923922e-8
          0 0 0 -2.5774202289598696e-8 -2.585404467458269e-8 -2.5854687471673905e-8
          -5.154036603859311e-8 -5.170592183000133e-8 -5.17118815875415e-8 0 0 0
          -2.618629135561692e-8 -2.6128113020379057e-8 -2.618070987431309e-8 -5.2372431160713446e-8 -5.225612422959162e-8 -5.236186657608845e-8
          0 -2.6175519275952976e-8 -5.234988445918746e-8 0 -2.6227832026497137e-8 -5.2455587925774256e-8
          0 0 -2.6231482791713798e-8 -2.6181867557432055e-8 -5.246212758686425e-8 -5.236340972740055e-8
          0 0 -2.589377314554276e-8 -2.5942006986575726e-8 -5.178931163220036e-8 -5.1884249340643564e-8
          0 -2.6115451513333658e-8 -5.223086694007165e-8 0 0 -2.63609455611149e-8
          -2.6347378208158567e-8 -5.272162873707198e-8 -5.2694798751257686e-8 0 -2.6396628437750153e-8 -5.2793379523350066e-8
          0 0 0 0 -2.620033733453967e-8 -2.618722601381889e-8
          -2.617383357872354e-8 -2.618539277798929e-8 -5.240069648999913e-8 -5.237376566315413e-8 -5.23484267898389e-8 -5.237105453453923e-8
          0 -2.591050119609161e-8 -5.181953319372612e-8 0 0 -2.604554551519068e-8
          -2.6023880152179455e-8 -5.209104048243748e-8 -5.204748505222021e-8 0 -2.612222339968215e-8 -5.224379363701975e-8
          0 0 -2.6353636170807663e-8 -2.6332618658650513e-8 -5.2707311762068105e-8 -5.2665420857877805e-8
          0 -2.627878513990703e-8 -5.255797392637011e-8 0 0 0
          -2.6019435624540542e-8 -2.6069268525536794e-8 -2.603970750695281e-8 -5.203834241829796e-8 -5.213894725124188e-8 -5.20786592934001e-8
          0 0 -2.6223825368431976e-8 -2.6198144012492807e-8 -5.244804620459375e-8 -5.239761613344163e-8
          0 0 -2.616220816005938e-8 -2.6149060143081273e-8 -5.232446503979189e-8 -5.229763846114125e-8
          0 0 -2.6177234476782556e-8 -2.61537456131166e-8 -5.235447335887994e-8 -5.230726471027529e-8
          0 0 -2.6210685587812028e-8 -2.6210634965518184e-8 -5.2420946332127746e-8 -5.2419968153841934e-8
          0 -2.614861352676026e-8 -5.229694686000205e-8 0 -2.607294462371235e-8 -5.2145572828906e-8
          0 -2.6148276589186376e-8 -5.229661709106083e-8 0 -2.614219155478666e-8 -5.228737814608973e-8
          0 -2.6124359004061286e-8 -5.224918246389068e-8 0 -2.6359647176024745e-8 -5.271889802620663e-8
          0 0 -2.598057260633897e-8 -2.6004803302958493e-8 -5.196127003901347e-8 -5.200937025452975e-8
          0 0 -2.6270252151992638e-8 -2.6252150633100937e-8 -5.254125273596103e-8 -5.250455688639629e-8
          0 -2.6214262510632823e-8 -5.2428107515417056e-8 0 -2.6088176172499542e-8 -5.217679138707354e-8
          0 0 0 -2.6306256545072395e-8 -2.632058160808149e-8 -2.6280298639510415e-8
          -5.261229202669066e-8 -5.264141656650296e-8 -5.25613023845131e-8 0 0 -2.6258532102288463e-8
          -2.6229972710462826e-8 -5.2516667759643906e-8 -5.2459823138487896e-8 0 -2.6338872928033068e-8 -5.2678103629723614e-8
          0 -2.5953450163840384e-8 -5.190675427253706e-8 0 -2.620443527311951e-8 -5.2409130086111485e-8
          0 -2.6251609596767408e-8 -5.250373976223631e-8 0 -2.636913418323986e-8 -5.273868954000088e-8
          0 -2.6110508292060957e-8 -5.222012783523248e-8 0 -2.6068201051978402e-8 -5.213654848804021e-8
          0 -2.6290680760674094e-8 -5.258036988533748e-8 0 -2.6239879710310252e-8 -5.247846234512862e-8
          0 -2.6343437941160817e-8 -5.268510806158567e-8 0 -2.6180541451267388e-8 -5.235844931979534e-8
          0 -2.633647614577035e-8 -5.267359293724725e-8 0 -2.6112483652059434e-8 -5.222439966477481e-8
          0 -2.5974820077594645e-8 -5.19494812644163e-8 0 -2.6125451469276154e-8 -5.2250682251509785e-8
          0 -2.5932949623363285e-8 -5.186590914802548e-8 0 -2.6004785157900224e-8 -5.2009533471908856e-8
          0 -2.596704245634547e-8 -5.193419882095534e-8 0 -2.6190093184308627e-8 -5.23820962958711e-8
          0 -2.618717815710554e-8 -5.237419883356871e-8 0 0 -2.6182997886964945e-8
          -2.6117454696501267e-8 -5.23681411365638e-8 -5.223672102722557e-8 0 -2.623542835660166e-8 -5.247149508665966e-8
          0 0 -2.5601035163730668e-8 -2.5602518462167894e-8 -5.12040199582349e-8 -5.1209689798707425e-8
          0 -2.6063605909313064e-8 -5.212500849652241e-8 0 -2.5988521448723587e-8 -5.19767639236615e-8
          0 -2.5893544128622655e-8 -5.1785336702803676e-8 0 0 -2.6108979513527673e-8
          -2.6128931628067816e-8 -5.2217573467884156e-8 -5.225804622091105e-8 0 0 0
          -2.629531088351857e-8 -2.6291100694593793e-8 -2.630054514056178e-8 -5.259076934770343e-8 -5.258124499511619e-8 -5.2601006896516464e-8
          0 -2.6169887298624598e-8 -5.233965525967706e-8 0 -2.6171713887176716e-8 -5.2343641737974124e-8
          0 0 -2.608690079414291e-8 -2.605687328542525e-8 -5.2173474634222364e-8 -5.211339761211586e-8
          0 0 -2.6169705497267428e-8 -2.614922270109693e-8 -5.233896156987512e-8 -5.229853409592681e-8
          0 0 -2.6245393225421905e-8 -2.6221522383648646e-8 -5.249114025500804e-8 -5.24430182026767e-8
          0 0 -2.623344438225894e-8 -2.621105100147372e-8 -5.2466764255591365e-8 -5.242230253828799e-8
          0 -2.6266801673445753e-8 -5.253340985089403e-8 0 0 -2.6405808595997068e-8
          -2.6389573186084473e-8 -5.281169044548024e-8 -5.277872553575939e-8 0 -2.631506245737451e-8 -5.262992038634223e-8
          0 0 -2.635705772034582e-8 -2.637024950989719e-8 -5.2714758580491956e-8 -5.2740113581952895e-8
          0 -2.6323223521562336e-8 -5.264554640628567e-8 0 -2.619035673693539e-8 -5.238074296753466e-8
          0 -2.6344382681286493e-8 -5.268865795202241e-8
        </DataArray>
      </PointData>
      <CellData>
        <DataArray type="Int32" Name="libmesh_elem_id" format="ascii" RangeMin="1184" RangeMax="3139">
          1184 1185 1192 1193 1194 1195
          1196 1197 1198 1199 1200 1201
          1202 1203 1210 1211 1212 1213
          1214 1215 1216 1217 1218 1219
          1220 1221 1226 1227 1228 1229
          1230 1231 1232 1233 1234 1235
          1236 1237 1238 1239 1244 1245
          1246 1247 1248 1249 1250 1251
          1252 1253 1254 1255 1256 1257
          1262 1263 1264 1265 1266 1267
          1268 1269 1270 1271 1272 1273
          1274 1275 1280 1281 1282 1283
          1284 1285 1286 1287 1288 1289
          1290 1291 1292 1293 1294 1295
          1296 1297 1298 1299 1302 1303
          1308 1309 1310 1311 1312 1313
          1318 1319 1320 1321 1322 1323
          1324 1325 1332 1333 1334 1335
          1336 1337 1340 1341 1342 1343
          1346 1347 1350 1351 1352 1353
          1354 1355 1362 1363 1364 1365
          1368 1369 1370 1371 1382 1383
          1396 1397 1408 1409 1452 1453
          1456 1457 1468 1469 1476 1477
          1486 1487 1510 1511 1518 1519
          1532 1533 1558 1559 1560 1561
          1564 1565 1566 1567 1570 1571
          1586 1587 1602 1603 1618 1619
          1622 1623 1628 1629 1634 1635
          1680 1681 1686 1687 1696 1697
          1700 1701 1708 1709 1710 1711
          1728 1729 1740 1741 1750 1751
          1754 1755 1764 1765 1766 1767
          1782 1783 1804 1805 1814 1815
          1836 1837 1868 1869 1880 1881
          1884 1885 1890 1891 1900 1901
          1908 1909 1918 1919 1928 1929
          1948 1949 1952 1953 1968 1969
          1970 1971 1972 1973 1986 1987
          2004 2005 2006 2007 2008 2009
          2014 2015 2018 2019 2020 2021
          2030 2031 2040 2041 2044 2045
          2050 2051 2062 2063 2064 2065
          2068 2069 2082 2083 2092 2093
          2120 2121 2128 2129 2130 2131
          2134 2135 2146 2147 2160 2161
          2180 2181 2184 2185 2186 2187
          2208 2209 2214 2215 2216 2217
          2230 2231 2234 2235 2248 2249
          2262 2263 2270 2271 2276 2277
          2286 2287 2292 2293 2294 2295
          2296 2297 2302 2303 2304 2305
          2314 2315 2316 2317 2320 2321
          2330 2331 2332 2333 2344 2345
          2354 2355 2362 2363 2366 2367
          2374 2375 2382 2383 2390 2391
          2400 2401 2404 2405 2408 2409
          2410 2411 2412 2413 2414 2415
          2430 2431 2440 2441 2448 2449
          2456 2457 2460 2461 2474 2475
          2486 2487 2494 2495 2498 2499
          2500 2501 2506 2507 2520 2521
          2522 2523 2564 2565 2572 2573
          2578 2579 2586 2587 2592 2593
          2596 2597 2600 2601 2620 2621
          2624 2625 2658 2659 2660 2661
          2670 2671 2688 2689 2694 2695
          2722 2723 2754 2755 2764 2765
          2778 2779 2780 2781 2796 2797
          2824 2825 2832 2833 2846 2847
          2848 2849 2862 2863 2870 2871
          2878 2879 2880 2881 2886 2887
          2902 2903 2930 2931 2940 2941
          2958 2959 2968 2969 2988 2989
          3062 3063 3064 3065 3090 3091
          3106 3107 3132 3133 3138 3139
        </DataArray>
        <DataArray type="Int32" Name="subdomain_id" format="ascii" RangeMin="105" RangeMax="143">
          105 105 105 105 105 105
          105 105 105 105 105 105
          105 105 105 105 105 105
          105 105 105 105 105 105
          105 105 105 105 105 105
          105 105 105 105 105 105
          105 105 105 105 105 105
          105 105 105 105 105 105
          105 105 105 105 105 105
          105 105 105 105 105 105
          105 105 105 105 105 105
          105 105 105 105 105 105
          105 105 105 105 105 105
          105 105 105 105 106 106
          106 106 106 106 106 106
          106 106 106 106 106 106
          106 106 106 106 106 106
          106 106 106 106 106 106
          106 106 106 106 106 106
          106 106 106 106 106 106
          106 106 143 143 143 143
          143 143 143 143 107 107
          107 107 107 107 107 107
          107 107 107 107 107 107
          107 107 107 107 107 107
          107 107 107 107 107 107
          107 107 107 107 107 107
          107 107 107 107 107 107
          107 107 107 107 107 107
          107 107 107 107 107 107
          107 107 107 107 107 107
          107 107 107 107 107 107
          107 107 107 107 107 107
          107 107 107 107 107 107
          107 107 107 107 107 107
          107 107 107 107 107 107
          107 107 107 107 107 107
          107 107 107 107 107 107
          107 107 107 107 107 107
          107 107 107 107 107 107
          107 107 107 107 107 107
          107 107 107 107 107 107
          107 107 107 107 107 107
          107 107 107 107 107 107
          107 107 107 107 107 107
          107 107 107 107 107 107
          107 107 107 107 107 107
          107 107 107 107 107 107
          107 107 107 107 107 107
          107 107 107 107 107 107
          107 107 107 107 107 107
          107 107 107 107 107 107
          107 107 107 107 107 107
          107 107 107 107 107 107
          107 107 107 107 107 107
          107 107 107 107 107 107
          107 107 107 107 107 107
          107 107 107 107 107 107
          107 107 107 107 107 107
          107 107 107 107 107 107
          107 107 107 107 107 107
          107 107 107 107 107 107
          107 107 107 107 107 107
          107 107 107 107 107 107
          107 107 107 107 107 107
          107 107 107 107 107 107
          107 107 107 107 107 107
          107 107 107 107 107 107
          107 107 107 107 107 107
          107 107 107 107 107 107
          107 107 107 107 107 107
          107 107 107 107 107 107
          107 107 107 107 107 107
          107 107 107 107 107 107
          107 107 107 107 107 107
          107 107 107 107 107 107
        </DataArray>
        <DataArray type="Int32" Name="processor_id" format="ascii" RangeMin="4" RangeMax="4">
          4 4 4 4 4 4
          4 4 4 4 4 4
          4 4 4 4 4 4
          4 4 4 4 4 4
          4 4 4 4 4 4
          4 4 4 4 4 4
          4 4 4 4 4 4
          4 4 4 4 4 4
          4 4 4 4 4 4
          4 4 4 4 4 4
          4 4 4 4 4 4
          4 4 4 4 4 4
          4 4 4 4 4 4
          4 4 4 4 4 4
          4 4 4 4 4 4
          4 4 4 4 4 4
          4 4 4 4 4 4
          4 4 4 4 4 4
          4 4 4 4 4 4
          4 4 4 4 4 4
          4 4 4 4 4 4
          4 4 4 4 4 4
          4 4 4 4 4 4
          4 4 4 4 4 4
          4 4 4 4 4 4
          4 4 4 4 4 4
          4 4 4 4 4 4
          4 4 4 4 4 4
          4 4 4 4 4 4
          4 4 4 4 4 4
          4 4 4 4 4 4
          4 4 4 4 4 4
          4 4 4 4 4 4
          4 4 4 4 4 4
          4 4 4 4 4 4
          4 4 4 4 4 4
          4 4 4 4 4 4
          4 4 4 4 4 4
          4 4 4 4 4 4
          4 4 4 4 4 4
          4 4 4 4 4 4
          4 4 4 4 4 4
          4 4 4 4 4 4
          4 4 4 4 4 4
          4 4 4 4 4 4
          4 4 4 4 4 4
          4 4 4 4 4 4
          4 4 4 4 4 4
          4 4 4 4 4 4
          4 4 4 4 4 4
          4 4 4 4 4 4
          4 4 4 4 4 4
          4 4 4 4 4 4
          4 4 4 4 4 4
          4 4 4 4 4 4
          4 4 4 4 4 4
          4 4 4 4 4 4
          4 4 4 4 4 4
          4 4 4 4 4 4
          4 4 4 4 4 4
          4 4 4 4 4 4
          4 4 4 4 4 4
          4 4 4 4 4 4
          4 4 4 4 4 4
          4 4 4 4 4 4
          4 4 4 4 4 4
          4 4 4 4 4 4
          4 4 4 4 4 4
          4 4 4 4 4 4
          4 4 4 4 4 4
          4 4 4 4 4 4
          4 4 4 4 4 4
          4 4 4 4 4 4
          4 4 4 4 4 4
          4 4 4 4 4 4
          4 4 4 4 4 4
        </DataArray>
      </CellData>
      <Points>
        <DataArray type="Float64" Name="Points" NumberOfComponents="3" format="ascii" RangeMin="0.009206309225653747" RangeMax="0.01648243122598367">
          0.005 0.0086896551724064 0 0.005 0.0086896551724064 0.00015
          0.005 0.0086896551724064 0.0003 0.0045555555555561 0.0091034482758539 0
          0.0045555555555561 0.0091034482758539 0.00015 0.0045555555555561 0.0091034482758539 0.0003
          0.005 0.0091034482758539 0 0.005 0.0091034482758539 0.00015
          0.005 0.0091034482758539 0.0003 0.0023333333333353 0.0095172413793029 0
          0.0023333333333353 0.0095172413793029 0.00015 0.0023333333333353 0.0095172413793029 0.0003
          0.0027777777777802 0.0095172413793029 0 0.0027777777777802 0.0095172413793029 0.00015
          0.0027777777777802 0.0095172413793029 0.0003 0.0032222222222248 0.0095172413793029 0
          0.0032222222222248 0.0095172413793029 0.00015 0.0032222222222248 0.0095172413793029 0.0003
          0.0036666666666675 0.0095172413793029 0 0.0036666666666675 0.0095172413793029 0.00015
          0.0036666666666675 0.0095172413793029 0.0003 0.0041111111111126 0.0095172413793029 0
          0.0041111111111126 0.0095172413793029 0.00015 0.0041111111111126 0.0095172413793029 0.0003
          0.0045555555555561 0.0095172413793029 0 0.0045555555555561 0.0095172413793029 0.00015
          0.0045555555555561 0.0095172413793029 0.0003 0.005 0.0095172413793029 0
          0.005 0.0095172413793029 0.00015 0.005 0.0095172413793029 0.0003
          0.0023333333333355 0.0099310344827529 0 0.0023333333333355 0.0099310344827529 0.00015
          0.0023333333333355 0.0099310344827529 0.0003 0.0027777777777806 0.0099310344827529 0
          0.0027777777777806 0.0099310344827529 0.00015 0.0027777777777806 0.0099310344827529 0.0003
          0.0032222222222251 0.0099310344827529 0 0.0032222222222251 0.0099310344827529 0.00015
          0.0032222222222251 0.0099310344827529 0.0003 0.0036666666666677 0.0099310344827529 0
          0.0036666666666677 0.0099310344827529 0.00015 0.0036666666666677 0.0099310344827529 0.0003
          0.0041111111111127 0.0099310344827529 0 0.0041111111111127 0.0099310344827529 0.00015
          0.0041111111111127 0.0099310344827529 0.0003 0.0045555555555561 0.0099310344827529 0
          0.0045555555555561 0.0099310344827529 0.00015 0.0045555555555561 0.0099310344827529 0.0003
          0.005 0.0099310344827529 0 0.005 0.0099310344827529 0.00015
          0.005 0.0099310344827529 0.0003 0.0018888888888904 0.010344827586203 0
          0.0018888888888904 0.010344827586203 0.00015 0.0018888888888904 0.010344827586203 0.0003
          0.0023333333333357 0.010344827586203 0 0.0023333333333357 0.010344827586203 0.00015
          0.0023333333333357 0.010344827586203 0.0003 0.0027777777777809 0.010344827586203 0
          0.0027777777777809 0.010344827586203 0.00015 0.0027777777777809 0.010344827586203 0.0003
          0.0032222222222255 0.010344827586203 0 0.0032222222222255 0.010344827586203 0.00015
          0.0032222222222255 0.010344827586203 0.0003 0.0036666666666679 0.010344827586203 0
          0.0036666666666679 0.010344827586203 0.00015 0.0036666666666679 0.010344827586203 0.0003
          0.0041111111111129 0.010344827586203 0 0.0041111111111129 0.010344827586203 0.00015
          0.0041111111111129 0.010344827586203 0.0003 0.0045555555555562 0.010344827586203 0
          0.0045555555555562 0.010344827586203 0.00015 0.0045555555555562 0.010344827586203 0.0003
          0.005 0.010344827586203 0 0.005 0.010344827586203 0.00015
          0.005 0.010344827586203 0.0003 0.0018888888888905 0.010758620689653 0
          0.0018888888888905 0.010758620689653 0.00015 0.0018888888888905 0.010758620689653 0.0003
          0.0023333333333359 0.010758620689653 0 0.0023333333333359 0.010758620689653 0.00015
          0.0023333333333359 0.010758620689653 0.0003 0.0027777777777812 0.010758620689653 0
          0.0027777777777812 0.010758620689653 0.00015 0.0027777777777812 0.010758620689653 0.0003
          0.0032222222222258 0.010758620689653 0 0.0032222222222258 0.010758620689653 0.00015
          0.0032222222222258 0.010758620689653 0.0003 0.0036666666666681 0.010758620689653 0
          0.0036666666666681 0.010758620689653 0.00015 0.0036666666666681 0.010758620689653 0.0003
          0.004111111111113 0.010758620689653 0 0.004111111111113 0.010758620689653 0.00015
          0.004111111111113 0.010758620689653 0.0003 0.0045555555555562 0.010758620689653 0
          0.0045555555555562 0.010758620689653 0.00015 0.0045555555555562 0.010758620689653 0.0003
          0.005 0.010758620689653 0 0.005 0.010758620689653 0.00015
          0.005 0.010758620689653 0.0003 0.0018888888888907 0.0111724137931 0
          0.0018888888888907 0.0111724137931 0.00015 0.0018888888888907 0.0111724137931 0.0003
          0.002333333333336 0.0111724137931 0 0.002333333333336 0.0111724137931 0.00015
          0.002333333333336 0.0111724137931 0.0003 0.0027777777777815 0.0111724137931 0
          0.0027777777777815 0.0111724137931 0.00015 0.0027777777777815 0.0111724137931 0.0003
          0.0032222222222261 0.0111724137931 0 0.0032222222222261 0.0111724137931 0.00015
          0.0032222222222261 0.0111724137931 0.0003 0.0036666666666682 0.0111724137931 0
          0.0036666666666682 0.0111724137931 0.00015 0.0036666666666682 0.0111724137931 0.0003
          0.0041111111111132 0.0111724137931 0 0.0041111111111132 0.0111724137931 0.00015
          0.0041111111111132 0.0111724137931 0.0003 0.0045555555555562 0.0111724137931 0
          0.0045555555555562 0.0111724137931 0.00015 0.0045555555555562 0.0111724137931 0.0003
          0.005 0.0111724137931 0 0.005 0.0111724137931 0.00015
          0.005 0.0111724137931 0.0003 0.0018888888888908 0.01158620689655 0
          0.0018888888888908 0.01158620689655 0.00015 0.0018888888888908 0.01158620689655 0.0003
          0.0023333333333362 0.01158620689655 0 0.0023333333333362 0.01158620689655 0.00015
          0.0023333333333362 0.01158620689655 0.0003 0.0027777777777818 0.01158620689655 0
          0.0027777777777818 0.01158620689655 0.00015 0.0027777777777818 0.01158620689655 0.0003
          0.0032222222222264 0.01158620689655 0 0.0032222222222264 0.01158620689655 0.00015
          0.0032222222222264 0.01158620689655 0.0003 0.0036666666666684 0.01158620689655 0
          0.0036666666666684 0.01158620689655 0.00015 0.0036666666666684 0.01158620689655 0.0003
          0.0041111111111133 0.01158620689655 0 0.0041111111111133 0.01158620689655 0.00015
          0.0041111111111133 0.01158620689655 0.0003 0.0045555555555563 0.01158620689655 0
          0.0045555555555563 0.01158620689655 0.00015 0.0045555555555563 0.01158620689655 0.0003
          0.005 0.01158620689655 0 0.005 0.01158620689655 0.00015
          0.005 0.01158620689655 0.0003 0.0018888888888909 0.012 0
          0.0018888888888909 0.012 0.00015 0.0018888888888909 0.012 0.0003
          0.0023333333333364 0.012 0 0.0023333333333364 0.012 0.00015
          0.0023333333333364 0.012 0.0003 0.0027777777777821 0.012 0
          0.0027777777777821 0.012 0.00015 0.0027777777777821 0.012 0.0003
          0.0032222222222267 0.012 0 0.0032222222222267 0.012 0.00015
          0.0032222222222267 0.012 0.0003 0.0036666666666686 0.012 0
          0.0036666666666686 0.012 0.00015 0.0036666666666686 0.012 0.0003
          0.0041111111111135 0.012 0 0.0041111111111135 0.012 0.00015
          0.0041111111111135 0.012 0.0003 0.0045555555555563 0.012 0
          0.0045555555555563 0.012 0.00015 0.0045555555555563 0.012 0.0003
          0.005 0.012 0 0.005 0.012 0.00015
          0.005 0.012 0.0003 0.0037820013226837 0.012336480560236 0
          0.004185794034024 0.012345264070133 0 0.0042342826387353 0.012652901224832 0
          0.0038676442772706 0.012640465852933 0 0.0037820013226837 0.012336480560236 0.00015
          0.004185794034024 0.012345264070133 0.00015 0.0042342826387353 0.012652901224832 0.00015
          0.0038676442772706 0.012640465852933 0.00015 0.0037820013226837 0.012336480560236 0.0003
          0.004185794034024 0.012345264070133 0.0003 0.0042342826387353 0.012652901224832 0.0003
          0.0038676442772706 0.012640465852933 0.0003 0.0025889714655165 0.012382221976315 0
          0.0025681692138844 0.01272809974993 0 0.0020604062010233 0.012679406151259 0
          0.0021948734460593 0.012348192846391 0 0.0025889714655165 0.012382221976315 0.00015
          0.0025681692138844 0.01272809974993 0.00015 0.0020604062010233 0.012679406151259 0.00015
          0.0021948734460593 0.012348192846391 0.00015 0.0025889714655165 0.012382221976315 0.0003
          0.0025681692138844 0.01272809974993 0.0003 0.0020604062010233 0.012679406151259 0.0003
          0.0021948734460593 0.012348192846391 0.0003 0.0029921846324185 0.012381457466683 0
          0.0030781171064664 0.012687491868191 0 0.0029921846324185 0.012381457466683 0.00015
          0.0030781171064664 0.012687491868191 0.00015 0.0029921846324185 0.012381457466683 0.0003
          0.0030781171064664 0.012687491868191 0.0003 0.0035064061826528 0.012674722493539 0
          0.0033673902656471 0.012343623774248 0 0.0035064061826528 0.012674722493539 0.00015
          0.0033673902656471 0.012343623774248 0.00015 0.0035064061826528 0.012674722493539 0.0003
          0.0033673902656471 0.012343623774248 0.0003 0.0045893247731344 0.012399526217393 0
          0.004557077400537 0.01272310643902 0 0.0045893247731344 0.012399526217393 0.00015
          0.004557077400537 0.01272310643902 0.00015 0.0045893247731344 0.012399526217393 0.0003
          0.004557077400537 0.01272310643902 0.0003 0.0017386847932316 0.012348636106575 0
          0.001702980389272 0.012655949584096 0 0.0017386847932316 0.012348636106575 0.00015
          0.001702980389272 0.012655949584096 0.00015 0.0017386847932316 0.012348636106575 0.0003
          0.001702980389272 0.012655949584096 0.0003 0.0045555555555563 0.013 0
          0.0041111111111135 0.013 0 0.0045555555555563 0.013 0.00015
          0.0041111111111135 0.013 0.00015 0.0045555555555563 0.013 0.0003
          0.0041111111111135 0.013 0.0003 0.005 0.012499999999989 0
          0.005 0.012499999999989 0.00015 0.005 0.012499999999989 0.0003
          0.0018888888888909 0.013 0 0.0018888888888909 0.013 0.00015
          0.0018888888888909 0.013 0.0003 0.0023333333333364 0.013 0
          0.0023333333333364 0.013 0.00015 0.0023333333333364 0.013 0.0003
          0.0027777777777821 0.013 0 0.0032222222222267 0.013 0
          0.0027777777777821 0.013 0.00015 0.0032222222222267 0.013 0.00015
          0.0027777777777821 0.013 0.0003 0.0032222222222267 0.013 0.0003
          0.0036666666666686 0.013 0 0.0036666666666686 0.013 0.00015
          0.0036666666666686 0.013 0.0003 0.005 0.013 0
          0.005 0.013 0.00015 0.005 0.013 0.0003
          0.0058653844060618 0.0079194158644502 0 0.0058653844060618 0.0079194158644502 0.00015
          0.0058653844060618 0.0079194158644502 0.0003 0.0054092385319303 0.011645775400863 0
          0.0053833488776842 0.01122289251627 0 0.0057681451700529 0.011227839215398 0
          0.0058121034548515 0.011664867476358 0 0.0054092385319303 0.011645775400863 0.00015
          0.0053833488776842 0.01122289251627 0.00015 0.0057681451700529 0.011227839215398 0.00015
          0.0058121034548515 0.011664867476358 0.00015 0.0054092385319303 0.011645775400863 0.0003
          0.0053833488776842 0.01122289251627 0.0003 0.0057681451700529 0.011227839215398 0.0003
          0.0058121034548515 0.011664867476358 0.0003 0.0061750164335738 0.0074760206739226 0
          0.0061750164335738 0.0074760206739226 0.00015 0.0061750164335738 0.0074760206739226 0.0003
          0.0059117305299751 0.012157336766967 0 0.005424823391927 0.012092657417535 0
          0.0059117305299751 0.012157336766967 0.00015 0.005424823391927 0.012092657417535 0.00015
          0.0059117305299751 0.012157336766967 0.0003 0.005424823391927 0.012092657417535 0.0003
          0.0067343691031854 0.0082749920647978 0 0.0064165220606644 0.0085260954574503 0
          0.0061549788754448 0.0084621147205563 0 0.0063465715243025 0.0080645757596712 0
          0.0067343691031854 0.0082749920647978 0.00015 0.0064165220606644 0.0085260954574503 0.00015
          0.0061549788754448 0.0084621147205563 0.00015 0.0063465715243025 0.0080645757596712 0.00015
          0.0067343691031854 0.0082749920647978 0.0003 0.0064165220606644 0.0085260954574503 0.0003
          0.0061549788754448 0.0084621147205563 0.0003 0.0063465715243025 0.0080645757596712 0.0003
          0.0057156085606184 0.010806935576218 0 0.0053556270258422 0.010821833746382 0
          0.0057156085606184 0.010806935576218 0.00015 0.0053556270258422 0.010821833746382 0.00015
          0.0057156085606184 0.010806935576218 0.0003 0.0053556270258422 0.010821833746382 0.0003
          0.0066683322798844 0.007604545062767 0 0.0070645065688863 0.0079329639302151 0
          0.0066683322798844 0.007604545062767 0.00015 0.0070645065688863 0.0079329639302151 0.00015
          0.0066683322798844 0.007604545062767 0.0003 0.0070645065688863 0.0079329639302151 0.0003
          0.0064939459679252 0.012038015964773 0 0.0063228400853618 0.012437164584428 0
          0.0062168099714575 0.011953445524179 0 0.0064939459679252 0.012038015964773 0.00015
          0.0063228400853618 0.012437164584428 0.00015 0.0062168099714575 0.011953445524179 0.00015
          0.0064939459679252 0.012038015964773 0.0003 0.0063228400853618 0.012437164584428 0.0003
          0.0062168099714575 0.011953445524179 0.0003 0.0085394683783431 0.010062707851298 0
          0.0089610661825476 0.0099263712092025 0 0.0091044702108566 0.010399281799278 0
          0.0086466489465924 0.010543823526793 0 0.0085394683783431 0.010062707851298 0.00015
          0.0089610661825476 0.0099263712092025 0.00015 0.0091044702108566 0.010399281799278 0.00015
          0.0086466489465924 0.010543823526793 0.00015 0.0085394683783431 0.010062707851298 0.0003
          0.0089610661825476 0.0099263712092025 0.0003 0.0091044702108566 0.010399281799278 0.0003
          0.0086466489465924 0.010543823526793 0.0003 0.0070988195317831 0.0084027120924791 0
          0.0071605082668525 0.0086998196459927 0 0.0067922174506807 0.0087792626202703 0
          0.0070988195317831 0.0084027120924791 0.00015 0.0071605082668525 0.0086998196459927 0.00015
          0.0067922174506807 0.0087792626202703 0.00015 0.0070988195317831 0.0084027120924791 0.0003
          0.0071605082668525 0.0086998196459927 0.0003 0.0067922174506807 0.0087792626202703 0.0003
          0.0082212914374119 0.0076937845711927 0 0.0086800066977864 0.007743247126247 0
          0.0088477729813042 0.00814241905886 0 0.0083314775318771 0.0082316914297717 0
          0.0082212914374119 0.0076937845711927 0.00015 0.0086800066977864 0.007743247126247 0.00015
          0.0088477729813042 0.00814241905886 0.00015 0.0083314775318771 0.0082316914297717 0.00015
          0.0082212914374119 0.0076937845711927 0.0003 0.0086800066977864 0.007743247126247 0.0003
          0.0088477729813042 0.00814241905886 0.0003 0.0083314775318771 0.0082316914297717 0.0003
          0.0053430701544214 0.010541301697294 0 0.0055999206723275 0.01043253025418 0
          0.0053430701544214 0.010541301697294 0.00015 0.0055999206723275 0.01043253025418 0.00015
          0.0053430701544214 0.010541301697294 0.0003 0.0055999206723275 0.01043253025418 0.0003
          0.0082934157409751 0.011625007594535 0 0.0082561968973057 0.011128478524087 0
          0.0087259762319724 0.011059252375005 0 0.0087558560903097 0.01158375342748 0
          0.0082934157409751 0.011625007594535 0.00015 0.0082561968973057 0.011128478524087 0.00015
          0.0087259762319724 0.011059252375005 0.00015 0.0087558560903097 0.01158375342748 0.00015
          0.0082934157409751 0.011625007594535 0.0003 0.0082561968973057 0.011128478524087 0.0003
          0.0087259762319724 0.011059252375005 0.0003 0.0087558560903097 0.01158375342748 0.0003
          0.0059886023840467 0.010204624020488 0 0.005451541046517 0.010106162675601 0
          0.0057038380696848 0.0099786893665285 0 0.0059886023840467 0.010204624020488 0.00015
          0.005451541046517 0.010106162675601 0.00015 0.0057038380696848 0.0099786893665285 0.00015
          0.0059886023840467 0.010204624020488 0.0003 0.005451541046517 0.010106162675601 0.0003
          0.0057038380696848 0.0099786893665285 0.0003 0.0078369912454539 0.011665931946432 0
          0.0078144148304188 0.011182309200361 0 0.0078369912454539 0.011665931946432 0.00015
          0.0078144148304188 0.011182309200361 0.00015 0.0078369912454539 0.011665931946432 0.0003
          0.0078144148304188 0.011182309200361 0.0003 0.0086735759699153 0.012550377000034 0
          0.0087327775394086 0.012086203404192 0 0.0091819131238462 0.012082911785298 0
          0.0091730578335362 0.01253941989127 0 0.0086735759699153 0.012550377000034 0.00015
          0.0087327775394086 0.012086203404192 0.00015 0.0091819131238462 0.012082911785298 0.00015
          0.0091730578335362 0.01253941989127 0.00015 0.0086735759699153 0.012550377000034 0.0003
          0.0087327775394086 0.012086203404192 0.0003 0.0091819131238462 0.012082911785298 0.0003
          0.0091730578335362 0.01253941989127 0.0003 0.010056105947498 0.011950542930398 0
          0.010274327777913 0.011549885364188 0 0.010056105947498 0.011950542930398 0.00015
          0.010274327777913 0.011549885364188 0.00015 0.010056105947498 0.011950542930398 0.0003
          0.010274327777913 0.011549885364188 0.0003 0.0087795014641276 0.0086485955844896 0
          0.0083912374962093 0.008661976024637 0 0.0087795014641276 0.0086485955844896 0.00015
          0.0083912374962093 0.008661976024637 0.00015 0.0087795014641276 0.0086485955844896 0.0003
          0.0083912374962093 0.008661976024637 0.0003 0.0073407145553935 0.0082277946262138 0
          0.0075218701602762 0.0085641736532836 0 0.0073407145553935 0.0082277946262138 0.00015
          0.0075218701602762 0.0085641736532836 0.00015 0.0073407145553935 0.0082277946262138 0.0003
          0.0075218701602762 0.0085641736532836 0.0003 0.0073357310625303 0.010250124356937 0
          0.0069197896843151 0.010226005241683 0 0.0068905371289043 0.0097153304797672 0
          0.0074001182371208 0.0096888945892578 0 0.0073357310625303 0.010250124356937 0.00015
          0.0069197896843151 0.010226005241683 0.00015 0.0068905371289043 0.0097153304797672 0.00015
          0.0074001182371208 0.0096888945892578 0.00015 0.0073357310625303 0.010250124356937 0.0003
          0.0069197896843151 0.010226005241683 0.0003 0.0068905371289043 0.0097153304797672 0.0003
          0.0074001182371208 0.0096888945892578 0.0003 0.0081958803856553 0.010639401227375 0
          0.0081958803856553 0.010639401227375 0.00015 0.0081958803856553 0.010639401227375 0.0003
          0.0057785311780113 0.0084598603588589 0 0.0057785311780113 0.0084598603588589 0.00015
          0.0057785311780113 0.0084598603588589 0.0003 0.0068354780286894 0.0065149558629347 0
          0.0065694481807909 0.0068273110654121 0 0.0068354780286894 0.0065149558629347 0.00015
          0.0065694481807909 0.0068273110654121 0.00015 0.0068354780286894 0.0065149558629347 0.0003
          0.0065694481807909 0.0068273110654121 0.0003 0.0061608287914901 0.011213609336371 0
          0.0061928612734976 0.011646193292464 0 0.0061608287914901 0.011213609336371 0.00015
          0.0061928612734976 0.011646193292464 0.00015 0.0061608287914901 0.011213609336371 0.0003
          0.0061928612734976 0.011646193292464 0.0003 0.0060256410256453 0.013 0
          0.0057791181770977 0.012558961975135 0 0.0060256410256453 0.013 0.00015
          0.0057791181770977 0.012558961975135 0.00015 0.0060256410256453 0.013 0.0003
          0.0057791181770977 0.012558961975135 0.0003 0.0061071771839093 0.010748184383761 0
          0.0061071771839093 0.010748184383761 0.00015 0.0061071771839093 0.010748184383761 0.0003
          0.0064845320073614 0.010216336118065 0 0.0065278935143817 0.010725783571784 0
          0.0064845320073614 0.010216336118065 0.00015 0.0065278935143817 0.010725783571784 0.00015
          0.0064845320073614 0.010216336118065 0.0003 0.0065278935143817 0.010725783571784 0.0003
          0.0077968354342878 0.012121840026842 0 0.0077167513193965 0.012573751507337 0
          0.0072251022123942 0.012571145425366 0 0.0073422863282366 0.012132364188728 0
          0.0077968354342878 0.012121840026842 0.00015 0.0077167513193965 0.012573751507337 0.00015
          0.0072251022123942 0.012571145425366 0.00015 0.0073422863282366 0.012132364188728 0.00015
          0.0077968354342878 0.012121840026842 0.0003 0.0077167513193965 0.012573751507337 0.0003
          0.0072251022123942 0.012571145425366 0.0003 0.0073422863282366 0.012132364188728 0.0003
          0.0072550033809581 0.0091349332579085 0 0.0076541519095837 0.0089672912460138 0
          0.0072550033809581 0.0091349332579085 0.00015 0.0076541519095837 0.0089672912460138 0.00015
          0.0072550033809581 0.0091349332579085 0.0003 0.0076541519095837 0.0089672912460138 0.0003
          0.0065384615384679 0.013 0 0.0067552646820212 0.012548340065985 0
          0.007051282051287 0.013 0 0.0065384615384679 0.013 0.00015
          0.0067552646820212 0.012548340065985 0.00015 0.007051282051287 0.013 0.00015
          0.0065384615384679 0.013 0.0003 0.0067552646820212 0.012548340065985 0.0003
          0.007051282051287 0.013 0.0003 0.0068431084681841 0.0092248064360522 0
          0.0064629827835734 0.0097214310503871 0 0.0064401841603361 0.009249995775159 0
          0.0068431084681841 0.0092248064360522 0.00015 0.0064629827835734 0.0097214310503871 0.00015
          0.0064401841603361 0.009249995775159 0.00015 0.0068431084681841 0.0092248064360522 0.0003
          0.0064629827835734 0.0097214310503871 0.0003 0.0064401841603361 0.009249995775159 0.0003
          0.0078142698619037 0.0093821750433109 0 0.0078142698619037 0.0093821750433109 0.00015
          0.0078142698619037 0.0093821750433109 0.0003 0.0064227954769353 0.0088235452462607 0
          0.0064227954769353 0.0088235452462607 0.00015 0.0064227954769353 0.0088235452462607 0.0003
          0.0060749446210727 0.008846093909968 0 0.0060643722245677 0.0092551370126649 0
          0.0060749446210727 0.008846093909968 0.00015 0.0060643722245677 0.0092551370126649 0.00015
          0.0060749446210727 0.008846093909968 0.0003 0.0060643722245677 0.0092551370126649 0.0003
          0.0065702926001918 0.011654169374977 0 0.006566373886869 0.011214840249119 0
          0.0065702926001918 0.011654169374977 0.00015 0.006566373886869 0.011214840249119 0.00015
          0.0065702926001918 0.011654169374977 0.0003 0.006566373886869 0.011214840249119 0.0003
          0.0093206781870799 0.010991873758601 0 0.0093206781870799 0.010991873758601 0.00015
          0.0093206781870799 0.010991873758601 0.0003 0.0063586074578252 0.0071353312088165 0
          0.0066361392369192 0.0072470897144222 0 0.0063586074578252 0.0071353312088165 0.00015
          0.0066361392369192 0.0072470897144222 0.00015 0.0063586074578252 0.0071353312088165 0.0003
          0.0066361392369192 0.0072470897144222 0.0003 0.0070635342364542 0.0061542378287001 0
          0.0070635342364542 0.0061542378287001 0.00015 0.0070635342364542 0.0061542378287001 0.0003
          0.010295501843898 0.0098988447327244 0 0.010331968632679 0.010177975560165 0
          0.0100990439633 0.010345969653311 0 0.0099255608427027 0.010003443747144 0
          0.010295501843898 0.0098988447327244 0.00015 0.010331968632679 0.010177975560165 0.00015
          0.0100990439633 0.010345969653311 0.00015 0.0099255608427027 0.010003443747144 0.00015
          0.010295501843898 0.0098988447327244 0.0003 0.010331968632679 0.010177975560165 0.0003
          0.0100990439633 0.010345969653311 0.0003 0.0099255608427027 0.010003443747144 0.0003
          0.0075641025641077 0.013 0 0.0075641025641077 0.013 0.00015
          0.0075641025641077 0.013 0.0003 0.007358052416256 0.010740056955422 0
          0.0069470918478694 0.010735576046615 0 0.007358052416256 0.010740056955422 0.00015
          0.0069470918478694 0.010735576046615 0.00015 0.007358052416256 0.010740056955422 0.0003
          0.0069470918478694 0.010735576046615 0.0003 0.0060634003212644 0.00969554800092 0
          0.0060634003212644 0.00969554800092 0.00015 0.0060634003212644 0.00969554800092 0.0003
          0.0068797309840753 0.0070620910964483 0 0.0071475509773245 0.0073405239650904 0
          0.0068797309840753 0.0070620910964483 0.00015 0.0071475509773245 0.0073405239650904 0.00015
          0.0068797309840753 0.0070620910964483 0.0003 0.0071475509773245 0.0073405239650904 0.0003
          0.0094632087818517 0.0081862945076399 0 0.0094632087818517 0.0081862945076399 0.00015
          0.0094632087818517 0.0081862945076399 0.0003 0.0091025641025756 0.013 0
          0.0097400134531557 0.012425583162504 0 0.0096153846153981 0.013 0
          0.0091025641025756 0.013 0.00015 0.0097400134531557 0.012425583162504 0.00015
          0.0096153846153981 0.013 0.00015 0.0091025641025756 0.013 0.0003
          0.0097400134531557 0.012425583162504 0.0003 0.0096153846153981 0.013 0.0003
          0.0080231150782377 0.0087799001252051 0 0.0081700325353194 0.0091480386714452 0
          0.0080231150782377 0.0087799001252051 0.00015 0.0081700325353194 0.0091480386714452 0.00015
          0.0080231150782377 0.0087799001252051 0.0003 0.0081700325353194 0.0091480386714452 0.0003
          0.0095329104644106 0.010197774343332 0 0.0097620082938393 0.010606176712681 0
          0.0095329104644106 0.010197774343332 0.00015 0.0097620082938393 0.010606176712681 0.00015
          0.0095329104644106 0.010197774343332 0.0003 0.0097620082938393 0.010606176712681 0.0003
          0.008459458524824 0.0095324383395712 0 0.0079941048127097 0.0097727986382514 0
          0.008459458524824 0.0095324383395712 0.00015 0.0079941048127097 0.0097727986382514 0.00015
          0.008459458524824 0.0095324383395712 0.0003 0.0079941048127097 0.0097727986382514 0.0003
          0.0086852410268287 0.0090671784981495 0 0.0084121010432185 0.0089624922946051 0
          0.0086852410268287 0.0090671784981495 0.00015 0.0084121010432185 0.0089624922946051 0.00015
          0.0086852410268287 0.0090671784981495 0.0003 0.0084121010432185 0.0089624922946051 0.0003
          0.010101546658348 0.010930204106287 0 0.010101546658348 0.010930204106287 0.00015
          0.010101546658348 0.010930204106287 0.0003 0.009219770580739 0.01160836207586 0
          0.009219770580739 0.01160836207586 0.00015 0.009219770580739 0.01160836207586 0.0003
          0.010512959331867 0.011182607317474 0 0.010512959331867 0.011182607317474 0.00015
          0.010512959331867 0.011182607317474 0.0003 0.0077135351973544 0.0099243016659867 0
          0.0077135351973544 0.0099243016659867 0.00015 0.0077135351973544 0.0099243016659867 0.0003
          0.0098399724462143 0.011314297129672 0 0.0098399724462143 0.011314297129672 0.00015
          0.0098399724462143 0.011314297129672 0.0003 0.0071955324717728 0.0067909271139751 0
          0.0071955324717728 0.0067909271139751 0.00015 0.0071955324717728 0.0067909271139751 0.0003
          0.0081933420545987 0.012561933470251 0 0.0082754308174791 0.012106448253662 0
          0.0081933420545987 0.012561933470251 0.00015 0.0082754308174791 0.012106448253662 0.00015
          0.0081933420545987 0.012561933470251 0.0003 0.0082754308174791 0.012106448253662 0.0003
          0.0091885294783446 0.0083400759786555 0 0.009185366627384 0.008676208234384 0
          0.0091885294783446 0.0083400759786555 0.00015 0.009185366627384 0.008676208234384 0.00015
          0.0091885294783446 0.0083400759786555 0.0003 0.009185366627384 0.008676208234384 0.0003
          0.0091484396571168 0.0092413935725907 0 0.0091484396571168 0.0092413935725907 0.00015
          0.0091484396571168 0.0092413935725907 0.0003 0.0096530361744126 0.011754958706862 0
          0.0096530361744126 0.011754958706862 0.00015 0.0096530361744126 0.011754958706862 0.0003
          0.0074385983748104 0.0076487872335333 0 0.0078026145042184 0.0073499712891003 0
          0.0077209126941719 0.0079857422349365 0 0.0074385983748104 0.0076487872335333 0.00015
          0.0078026145042184 0.0073499712891003 0.00015 0.0077209126941719 0.0079857422349365 0.00015
          0.0074385983748104 0.0076487872335333 0.0003 0.0078026145042184 0.0073499712891003 0.0003
          0.0077209126941719 0.0079857422349365 0.0003 0.0096060866574151 0.0086034051599073 0
          0.0096917093907041 0.0090884547689663 0 0.0096060866574151 0.0086034051599073 0.00015
          0.0096917093907041 0.0090884547689663 0.00015 0.0096060866574151 0.0086034051599073 0.0003
          0.0096917093907041 0.0090884547689663 0.0003 0.0074956671905203 0.0070789212715492 0
          0.0074956671905203 0.0070789212715492 0.00015 0.0074956671905203 0.0070789212715492 0.0003
          0.0080769230769304 0.013 0 0.0080769230769304 0.013 0.00015
          0.0080769230769304 0.013 0.0003 0.0097960013481072 0.0095766790072516 0
          0.0097960013481072 0.0095766790072516 0.00015 0.0097960013481072 0.0095766790072516 0.0003
          0.0079025965714766 0.0083828176281282 0 0.0079025965714766 0.0083828176281282 0.00015
          0.0079025965714766 0.0083828176281282 0.0003 0.0075832963246375 0.0064815260672887 0
          0.0075832963246375 0.0064815260672887 0.00015 0.0075832963246375 0.0064815260672887 0.0003
          0.0077301559610225 0.010254379585944 0 0.0077301559610225 0.010254379585944 0.00015
          0.0077301559610225 0.010254379585944 0.0003 0.0077729216102883 0.010708725243031 0
          0.0077729216102883 0.010708725243031 0.00015 0.0077729216102883 0.010708725243031 0.0003
          0.0053754057810206 0.0085370600870078 0 0.0053754057810206 0.0085370600870078 0.00015
          0.0053754057810206 0.0085370600870078 0.0003 0.0053590367872451 0.0089652268696161 0
          0.0053590367872451 0.0089652268696161 0.00015 0.0053590367872451 0.0089652268696161 0.0003
          0.0077314143265107 0.0068791993815975 0 0.0077314143265107 0.0068791993815975 0.00015
          0.0077314143265107 0.0068791993815975 0.0003 0.0053527694027008 0.0093707431616054 0
          0.0053527694027008 0.0093707431616054 0.00015 0.0053527694027008 0.0093707431616054 0.0003
          0.0080272182678723 0.0070086219794164 0 0.0080272182678723 0.0070086219794164 0.00015
          0.0080272182678723 0.0070086219794164 0.0003 0.0053686841699875 0.0097656204902227 0
          0.0053686841699875 0.0097656204902227 0.00015 0.0053686841699875 0.0097656204902227 0.0003
          0.0069753270353201 0.011225035595701 0 0.0069753270353201 0.011225035595701 0.00015
          0.0069753270353201 0.011225035595701 0.0003 0.0081230348422786 0.010180774741819 0
          0.0081230348422786 0.010180774741819 0.00015 0.0081230348422786 0.010180774741819 0.0003
          0.0069714542407681 0.011681487349241 0 0.0069714542407681 0.011681487349241 0.00015
          0.0069714542407681 0.011681487349241 0.0003 0.0073877269320336 0.011214628569732 0
          0.0073877269320336 0.011214628569732 0.00015 0.0073877269320336 0.011214628569732 0.0003
          0.0073992085993983 0.011689991378362 0 0.0073992085993983 0.011689991378362 0.00015
          0.0073992085993983 0.011689991378362 0.0003 0.0088599825232994 0.0095868605102716 0
          0.0088599825232994 0.0095868605102716 0.00015 0.0088599825232994 0.0095868605102716 0.0003
          0.0093698999071837 0.0097470513643601 0 0.0093698999071837 0.0097470513643601 0.00015
          0.0093698999071837 0.0097470513643601 0.0003 0.005708830284701 0.0092938500467527 0
          0.005710003284826 0.0096895337898706 0 0.005708830284701 0.0092938500467527 0.00015
          0.005710003284826 0.0096895337898706 0.00015 0.005708830284701 0.0092938500467527 0.0003
          0.005710003284826 0.0096895337898706 0.0003 0.0057253261942579 0.008884797777202 0
          0.0057253261942579 0.008884797777202 0.00015 0.0057253261942579 0.008884797777202 0.0003
          0.0054465956081518 0.012540682824845 0 0.0055128205128226 0.013 0
          0.0054465956081518 0.012540682824845 0.00015 0.0055128205128226 0.013 0.00015
          0.0054465956081518 0.012540682824845 0.0003 0.0055128205128226 0.013 0.0003
          0.0095150035075373 0.012074113937236 0 0.0095150035075373 0.012074113937236 0.00015
          0.0095150035075373 0.012074113937236 0.0003 0.008589743589753 0.013 0
          0.008589743589753 0.013 0.00015 0.008589743589753 0.013 0.0003
          0.0068932543961937 0.012102712522565 0 0.0068932543961937 0.012102712522565 0.00015
          0.0068932543961937 0.012102712522565 0.0003 0.010475172867508 0.012102844227475 0
          0.010669582432454 0.011743114144408 0 0.010475172867508 0.012102844227475 0.00015
          0.010669582432454 0.011743114144408 0.00015 0.010475172867508 0.012102844227475 0.0003
          0.010669582432454 0.011743114144408 0.0003 0.0098857235699117 0.0079055319030787 0
          0.0092411258002763 0.0078319639415625 0 0.0095144479526816 0.0076594245921199 0
          0.0098857235699117 0.0079055319030787 0.00015 0.0092411258002763 0.0078319639415625 0.00015
          0.0095144479526816 0.0076594245921199 0.00015 0.0098857235699117 0.0079055319030787 0.0003
          0.0092411258002763 0.0078319639415625 0.0003 0.0095144479526816 0.0076594245921199 0.0003
          0.010385522435479 0.010608007769118 0 0.010385522435479 0.010608007769118 0.00015
          0.010385522435479 0.010608007769118 0.0003 0.010783127360108 0.010836567412064 0
          0.010783127360108 0.010836567412064 0.00015 0.010783127360108 0.010836567412064 0.0003
          0.010310686327751 0.012539165738252 0 0.010128205128219 0.013 0
          0.010310686327751 0.012539165738252 0.00015 0.010128205128219 0.013 0.00015
          0.010310686327751 0.012539165738252 0.0003 0.010128205128219 0.013 0.0003
          0.011222013645511 0.011097826594996 0 0.010925822172272 0.011428925131881 0
          0.011222013645511 0.011097826594996 0.00015 0.010925822172272 0.011428925131881 0.00015
          0.011222013645511 0.011097826594996 0.0003 0.010925822172272 0.011428925131881 0.0003
          0.010158980545183 0.0089928081418126 0 0.010234809282542 0.0094751596931164 0
          0.010158980545183 0.0089928081418126 0.00015 0.010234809282542 0.0094751596931164 0.00015
          0.010158980545183 0.0089928081418126 0.0003 0.010234809282542 0.0094751596931164 0.0003
          0.010689703280164 0.0094649590365737 0 0.010691300612525 0.0099168298135774 0
          0.010689703280164 0.0094649590365737 0.00015 0.010691300612525 0.0099168298135774 0.00015
          0.010689703280164 0.0094649590365737 0.0003 0.010691300612525 0.0099168298135774 0.0003
          0.010057653370411 0.0084974472595183 0 0.010057653370411 0.0084974472595183 0.00015
          0.010057653370411 0.0084974472595183 0.0003 0.0071984303565192 0.0057392272964834 0
          0.0077721363879251 0.0058968168784219 0 0.0071984303565192 0.0057392272964834 0.00015
          0.0077721363879251 0.0058968168784219 0.00015 0.0071984303565192 0.0057392272964834 0.0003
          0.0077721363879251 0.0058968168784219 0.0003 0.0089588909882048 0.0073942383853577 0
          0.0089588909882048 0.0073942383853577 0.00015 0.0089588909882048 0.0073942383853577 0.0003
          0.0081402125110085 0.0066115625704341 0 0.0082479601882269 0.0062087007836213 0
          0.0081402125110085 0.0066115625704341 0.00015 0.0082479601882269 0.0062087007836213 0.00015
          0.0081402125110085 0.0066115625704341 0.0003 0.0082479601882269 0.0062087007836213 0.0003
          0.0084364690699339 0.0071912877673881 0 0.0084364690699339 0.0071912877673881 0.00015
          0.0084364690699339 0.0071912877673881 0.0003 0.010601303654319 0.010290632654442 0
          0.010601303654319 0.010290632654442 0.00015 0.010601303654319 0.010290632654442 0.0003
          0.0085681017610313 0.0067725899286886 0 0.0085681017610313 0.0067725899286886 0.00015
          0.0085681017610313 0.0067725899286886 0.0003
          <InformationKey name="L2_NORM_RANGE" location="vtkDataArray" length="2">
            <Value index="0">
              0.0092063092257
            </Value>
            <Value index="1">
              0.016482431226
            </Value>
          </InformationKey>
        </DataArray>
      </Points>
      <Cells>
        <DataArray type="Int64" Name="connectivity" format="ascii" RangeMin="0" RangeMax="782">
          27 24 3 6 28 25
          4 7 28 25 4 7
          29 26 5 8 33 30
          9 12 34 31 10 13
          34 31 10 13 35 32
          11 14 36 33 12 15
          37 34 13 16 37 34
          13 16 38 35 14 17
          39 36 15 18 40 37
          16 19 40 37 16 19
          41 38 17 20 42 39
          18 21 43 40 19 22
          43 40 19 22 44 41
          20 23 45 42 21 24
          46 43 22 25 46 43
          22 25 47 44 23 26
          48 45 24 27 49 46
          25 28 49 46 25 28
          50 47 26 29 57 54
          30 33 58 55 31 34
          58 55 31 34 59 56
          32 35 60 57 33 36
          61 58 34 37 61 58
          34 37 62 59 35 38
          63 60 36 39 64 61
          37 40 64 61 37 40
          65 62 38 41 66 63
          39 42 67 64 40 43
          67 64 40 43 68 65
          41 44 69 66 42 45
          70 67 43 46 70 67
          43 46 71 68 44 47
          72 69 45 48 73 70
          46 49 73 70 46 49
          74 71 47 50 78 75
          51 54 79 76 52 55
          79 76 52 55 80 77
          53 56 81 78 54 57
          82 79 55 58 82 79
          55 58 83 80 56 59
          84 81 57 60 85 82
          58 61 85 82 58 61
          86 83 59 62 87 84
          60 63 88 85 61 64
          88 85 61 64 89 86
          62 65 90 87 63 66
          91 88 64 67 91 88
          64 67 92 89 65 68
          93 90 66 69 94 91
          67 70 94 91 67 70
          95 92 68 71 96 93
          69 72 97 94 70 73
          97 94 70 73 98 95
          71 74 102 99 75 78
          103 100 76 79 103 100
          76 79 104 101 77 80
          105 102 78 81 106 103
          79 82 106 103 79 82
          107 104 80 83 108 105
          81 84 109 106 82 85
          109 106 82 85 110 107
          83 86 111 108 84 87
          112 109 85 88 112 109
          85 88 113 110 86 89
          114 111 87 90 115 112
          88 91 115 112 88 91
          116 113 89 92 117 114
          90 93 118 115 91 94
          118 115 91 94 119 116
          92 95 120 117 93 96
          121 118 94 97 121 118
          94 97 122 119 95 98
          126 123 99 102 127 124
          100 103 127 124 100 103
          128 125 101 104 129 126
          102 105 130 127 103 106
          130 127 103 106 131 128
          104 107 132 129 105 108
          133 130 106 109 133 130
          106 109 134 131 107 110
          135 132 108 111 136 133
          109 112 136 133 109 112
          137 134 110 113 138 135
          111 114 139 136 112 115
          139 136 112 115 140 137
          113 116 141 138 114 117
          142 139 115 118 142 139
          115 118 143 140 116 119
          144 141 117 120 145 142
          118 121 145 142 118 121
          146 143 119 122 150 147
          123 126 151 148 124 127
          151 148 124 127 152 149
          125 128 153 150 126 129
          154 151 127 130 154 151
          127 130 155 152 128 131
          156 153 129 132 157 154
          130 133 157 154 130 133
          158 155 131 134 159 156
          132 135 160 157 133 136
          160 157 133 136 161 158
          134 137 162 159 135 138
          163 160 136 139 163 160
          136 139 164 161 137 140
          165 162 138 141 166 163
          139 142 166 163 139 142
          167 164 140 143 168 165
          141 144 169 166 142 145
          169 166 142 145 170 167
          143 146 171 172 173 174
          175 176 177 178 175 176
          177 178 179 180 181 182
          183 184 185 186 187 188
          189 190 187 188 189 190
          191 192 193 194 183 195
          196 184 187 197 198 188
          187 197 198 188 191 199
          200 192 201 202 171 174
          203 204 175 178 203 204
          175 178 205 206 179 182
          173 172 207 208 177 176
          209 210 177 176 209 210
          181 180 211 212 202 201
          196 195 204 203 198 197
          204 203 198 197 206 205
          200 199 213 186 185 214
          215 190 189 216 215 190
          189 216 217 194 193 218
          162 172 171 159 163 176
          175 160 163 176 175 160
          164 180 179 161 173 208
          219 220 177 210 221 222
          177 210 221 222 181 212
          223 224 159 171 202 156
          160 175 204 157 160 175
          204 157 161 179 206 158
          168 225 207 165 169 226
          209 166 169 226 209 166
          170 227 211 167 185 184
          231 228 189 188 232 229
          189 188 232 229 193 192
          233 230 234 184 196 235
          236 188 198 237 236 188
          198 237 238 192 200 239
          183 186 150 153 187 190
          151 154 187 190 151 154
          191 194 152 155 201 240
          235 196 203 241 237 198
          203 241 237 198 205 242
          239 200 174 220 240 201
          178 222 241 203 178 222
          241 203 182 224 242 205
          165 207 172 162 166 209
          176 163 166 209 176 163
          167 211 180 164 208 207
          225 243 210 209 226 244
          210 209 226 244 212 211
          227 245 195 153 156 202
          197 154 157 204 197 154
          157 204 199 155 158 206
          147 150 186 213 148 151
          190 215 148 151 190 215
          149 152 194 217 183 195
          153 187 197 154 187 197
          154 191 199 155 173 174
          220 177 178 222 177 178
          222 181 182 224 234 184
          231 236 188 232 236 188
          232 238 192 233 243 208
          219 244 210 221 244 210
          221 245 212 223 249 250
          251 252 253 254 255 256
          253 254 255 256 257 258
          259 260 264 265 249 252
          266 267 253 256 266 267
          253 256 268 269 257 260
          270 271 272 273 274 275
          276 277 274 275 276 277
          278 279 280 281 282 251
          250 283 284 255 254 285
          284 255 254 285 286 259
          258 287 273 288 289 270
          277 290 291 274 277 290
          291 274 281 292 293 278
          294 295 264 296 297 298
          266 299 297 298 266 299
          300 301 268 302 303 304
          305 306 307 308 309 310
          307 308 309 310 311 312
          313 314 270 315 316 317
          274 318 319 320 274 318
          319 320 278 321 322 323
          324 325 326 327 328 329
          330 331 328 329 330 331
          332 333 334 335 283 336
          337 282 285 338 339 284
          285 338 339 284 287 340
          341 286 342 343 344 345
          346 347 348 349 346 347
          348 349 350 351 352 353
          354 337 355 356 357 339
          358 359 357 339 358 359
          360 341 361 362 343 342
          363 364 347 346 365 366
          347 346 365 366 351 350
          367 368 369 370 371 372
          373 374 375 376 373 374
          375 376 377 378 379 380
          711 381 382 712 713 383
          384 714 713 383 384 714
          715 385 386 716 327 326
          387 388 331 330 389 390
          331 330 389 390 335 334
          391 392 393 394 316 315
          395 396 319 318 395 396
          319 318 397 398 322 321
          399 400 401 402 403 404
          405 406 403 404 405 406
          407 408 409 410 306 344
          343 411 310 348 347 412
          310 348 347 412 314 352
          351 413 414 246 273 272
          415 247 277 276 415 247
          277 276 416 248 281 280
          423 424 252 251 425 426
          256 255 425 426 256 255
          427 428 260 259 429 430
          264 295 431 432 266 298
          431 432 266 298 433 434
          268 301 282 337 354 435
          284 339 357 436 284 339
          357 436 286 341 360 437
          354 438 439 435 357 440
          441 436 357 440 441 436
          360 442 443 437 444 445
          446 447 448 449 450 451
          448 449 450 451 452 453
          454 455 456 316 394 457
          458 319 396 459 458 319
          396 459 460 322 398 461
          462 463 446 464 465 466
          450 467 465 466 450 467
          468 469 454 470 471 401
          472 473 474 405 475 476
          474 405 475 476 477 409
          478 479 402 456 457 480
          406 458 459 481 406 458
          459 481 410 460 461 482
          471 456 402 401 474 458
          406 405 474 458 406 405
          477 460 410 409 473 483
          317 471 476 484 320 474
          476 484 320 474 479 485
          323 477 486 483 473 487
          488 484 476 489 488 484
          476 489 490 485 479 491
          483 271 270 317 484 275
          274 320 484 275 274 320
          485 279 278 323 492 424
          423 493 494 426 425 495
          494 426 425 495 496 428
          427 497 498 344 306 305
          499 348 310 309 499 348
          310 309 500 352 314 313
          501 502 288 261 503 504
          290 262 503 504 290 262
          505 506 292 263 429 295
          463 462 431 298 466 465
          431 298 466 465 433 301
          469 468 510 511 512 513
          514 515 516 517 514 515
          516 517 518 519 520 521
          464 446 445 522 467 450
          449 523 467 450 449 523
          470 454 453 524 525 526
          400 399 527 528 404 403
          527 528 404 403 529 530
          408 407 487 473 472 531
          489 476 475 532 489 476
          475 532 491 479 478 533
          288 273 246 261 290 277
          247 262 290 277 247 262
          292 281 248 263 435 439
          493 423 436 441 495 425
          436 441 495 425 437 443
          497 427 288 502 534 535
          290 504 536 537 290 504
          536 537 292 506 538 539
          717 540 718 719 720 541
          721 722 720 541 721 722
          723 542 724 725 543 372
          544 545 546 376 547 548
          546 376 547 548 549 380
          550 551 480 457 552 553
          481 459 554 555 481 459
          554 555 482 461 556 557
          558 559 498 305 560 561
          499 309 560 561 499 309
          562 563 500 313 400 526
          439 438 404 528 441 440
          404 528 441 440 408 530
          443 442 564 565 480 553
          566 567 481 555 566 567
          481 555 568 569 482 557
          570 564 553 571 572 566
          555 573 572 566 555 573
          574 568 557 575 726 576
          559 512 727 577 561 516
          727 577 561 516 728 578
          563 520 579 345 344 498
          580 349 348 499 580 349
          348 499 581 353 352 500
          729 582 576 726 730 583
          577 727 730 583 577 727
          731 584 578 728 438 354
          531 472 440 357 532 475
          440 357 532 475 442 360
          533 478 438 472 401 400
          440 475 405 404 440 475
          405 404 442 478 409 408
          565 585 402 480 567 586
          406 481 567 586 406 481
          569 587 410 482 545 544
          732 733 548 547 734 735
          548 547 734 735 551 550
          736 737 534 502 501 418
          536 504 503 420 536 504
          503 420 538 506 505 422
          251 282 435 423 255 284
          436 425 255 284 436 425
          259 286 437 427 576 588
          498 559 577 589 499 561
          577 589 499 561 578 590
          500 563 591 534 418 417
          592 536 420 419 592 536
          420 419 593 538 422 421
          369 594 595 370 373 596
          597 374 373 596 597 374
          377 598 599 378 326 600
          601 387 330 602 603 389
          330 602 603 389 334 604
          605 391 606 570 387 601
          607 572 389 603 607 572
          389 603 608 574 391 605
          317 316 456 471 320 319
          458 474 320 319 458 474
          323 322 460 477 483 486
          272 271 484 488 276 275
          484 488 276 275 485 490
          280 279 582 729 738 739
          583 730 740 741 583 730
          740 741 584 731 742 743
          588 382 381 609 589 384
          383 610 589 384 383 610
          590 386 385 611 612 613
          324 614 615 616 328 617
          615 616 328 617 618 619
          332 620 382 582 739 712
          384 583 741 714 384 583
          741 714 386 584 743 716
          582 382 588 576 583 384
          589 577 583 384 589 577
          584 386 590 578 595 342
          345 370 597 346 349 374
          597 346 349 374 599 350
          353 378 621 622 606 601
          623 624 607 603 623 624
          607 603 625 626 608 605
          609 579 498 588 610 580
          499 589 610 580 499 589
          611 581 500 590 540 621
          601 600 541 623 603 602
          541 623 603 602 542 625
          605 604 591 627 535 534
          592 628 537 536 592 628
          537 536 593 629 539 538
          594 630 522 445 596 631
          523 449 596 631 523 449
          598 632 524 453 744 745
          633 622 746 747 634 624
          746 747 634 624 748 749
          635 626 324 327 636 614
          328 331 637 617 328 331
          637 617 332 335 638 620
          745 750 751 510 747 752
          753 514 747 752 753 514
          749 754 755 518 639 591
          417 507 640 592 419 508
          640 592 419 508 641 593
          421 509 371 370 345 579
          375 374 349 580 375 374
          349 580 379 378 353 581
          642 399 402 585 643 403
          406 586 643 403 406 586
          644 407 410 587 645 525
          399 642 646 527 403 643
          646 527 403 643 647 529
          407 644 326 718 540 600
          330 721 541 602 330 721
          541 602 334 724 542 604
          621 540 717 756 623 541
          720 757 623 541 720 757
          625 542 723 758 639 507
          759 760 640 508 761 762
          640 508 761 762 641 509
          763 764 388 387 570 571
          390 389 572 573 390 389
          572 573 392 391 574 575
          648 651 6 0 649 652
          7 1 649 652 7 1
          650 653 8 2 613 612
          535 627 616 615 537 628
          616 615 537 628 619 618
          539 629 627 591 639 654
          628 592 640 655 628 592
          640 655 629 593 641 656
          612 289 288 535 615 291
          290 537 615 291 290 537
          618 293 292 539 651 657
          27 6 652 658 28 7
          652 658 28 7 653 659
          29 8 756 744 622 621
          757 746 624 623 757 746
          624 623 758 748 626 625
          660 613 627 654 661 616
          628 655 661 616 628 655
          662 619 629 656 657 663
          48 27 658 664 49 28
          658 664 49 28 659 665
          50 29 666 493 439 526
          667 495 441 528 667 495
          441 528 668 497 443 530
          669 565 564 303 670 567
          566 307 670 567 566 307
          671 569 568 311 663 355
          72 48 664 358 73 49
          664 358 73 49 665 361
          74 50 672 492 493 666
          673 494 495 667 673 494
          495 667 674 496 497 668
          144 249 265 168 145 253
          267 169 145 253 267 169
          146 257 269 170 411 669
          303 306 412 670 307 310
          412 670 307 310 413 671
          311 314 765 718 326 325
          766 721 330 329 766 721
          330 329 767 724 334 333
          525 645 364 675 527 646
          366 676 527 646 366 676
          529 647 368 677 768 639
          760 769 770 640 762 771
          770 640 762 771 772 641
          764 773 669 411 645 642
          670 412 646 643 670 412
          646 643 671 413 647 644
          639 768 660 654 640 770
          661 655 640 770 661 655
          641 772 662 656 642 585
          565 669 643 586 567 670
          643 586 567 670 644 587
          569 671 393 315 270 289
          395 318 274 291 395 318
          274 291 397 321 278 293
          675 364 363 678 676 366
          365 679 676 366 365 679
          677 368 367 680 552 636
          327 388 554 637 331 390
          554 637 331 390 556 638
          335 392 675 678 672 666
          676 679 673 667 676 679
          673 667 677 680 674 668
          666 526 525 675 667 528
          527 676 667 528 527 676
          668 530 529 677 250 120
          96 283 254 121 97 285
          254 121 97 285 258 122
          98 287 444 447 678 363
          448 451 679 365 448 451
          679 365 452 455 680 367
          614 636 394 393 617 637
          396 395 617 637 396 395
          620 638 398 397 249 144
          120 250 253 145 121 254
          253 145 121 254 257 146
          122 258 564 681 304 303
          566 682 308 307 566 682
          308 307 568 683 312 311
          364 645 411 343 366 646
          412 347 366 646 412 347
          368 647 413 351 72 355
          337 336 73 358 339 338
          73 358 339 338 74 361
          341 340 304 681 606 684
          308 682 607 685 308 682
          607 685 312 683 608 686
          636 552 457 394 637 554
          459 396 637 554 459 396
          638 556 461 398 72 336
          283 96 73 338 285 97
          73 338 285 97 74 340
          287 98 289 612 614 393
          291 615 617 395 291 615
          617 395 293 618 620 397
          687 487 531 688 689 489
          532 690 689 489 532 690
          691 491 533 692 688 531
          354 356 690 532 357 359
          690 532 357 359 692 533
          360 362 388 571 553 552
          390 573 555 554 390 573
          555 554 392 575 557 556
          693 486 487 687 694 488
          489 689 694 488 489 689
          695 490 491 691 564 570
          606 681 566 572 607 682
          566 572 607 682 568 574
          608 683 414 272 486 693
          415 276 488 694 415 276
          488 694 416 280 490 695
          225 696 697 243 226 698
          699 244 226 698 699 244
          227 700 701 245 774 324
          613 660 775 328 616 661
          775 328 616 661 776 332
          619 662 544 702 609 381
          547 703 610 383 547 703
          610 383 550 704 611 385
          688 356 355 663 690 359
          358 664 690 359 358 664
          692 362 361 665 324 774
          765 325 328 775 766 329
          328 775 766 329 332 776
          767 333 684 558 305 304
          685 560 309 308 685 560
          309 308 686 562 313 312
          544 372 371 702 547 376
          375 703 547 376 375 703
          550 380 379 704 711 732
          544 381 713 734 547 383
          713 734 547 383 715 736
          550 385 513 512 559 558
          517 516 561 560 517 516
          561 560 521 520 563 562
          777 726 512 511 778 727
          516 515 778 727 516 515
          779 728 520 519 777 511
          510 751 778 515 514 753
          778 515 514 753 779 519
          518 755 294 296 424 492
          297 299 426 494 297 299
          426 494 300 302 428 496
          369 705 630 594 373 706
          631 596 373 706 631 596
          377 707 632 598 633 513
          558 684 634 517 560 685
          634 517 560 685 635 521
          562 686 684 606 622 633
          685 607 624 634 685 607
          624 634 686 608 626 635
          708 672 678 447 709 673
          679 451 709 673 679 451
          710 674 680 455 513 633
          745 510 517 634 747 514
          517 634 747 514 521 635
          749 518 774 660 768 780
          775 661 770 781 775 661
          770 781 776 662 772 782
          702 371 579 609 703 375
          580 610 703 375 580 610
          704 379 581 611 687 688
          663 657 689 690 664 658
          689 690 664 658 691 692
          665 659 696 265 264 430
          698 267 266 432 698 267
          266 432 700 269 268 434
          696 430 429 697 698 432
          431 699 698 432 431 699
          700 434 433 701 264 252
          424 296 266 256 426 299
          266 256 426 299 268 260
          428 302 708 294 492 672
          709 297 494 673 709 297
          494 673 710 300 496 674
          447 446 463 708 451 450
          466 709 451 450 466 709
          455 454 469 710 693 687
          657 651 694 689 658 652
          694 689 658 652 695 691
          659 653 595 594 445 444
          597 596 449 448 597 596
          449 448 599 598 453 452
          696 225 168 265 698 226
          169 267 698 226 169 267
          700 227 170 269 705 369
          372 543 706 373 376 546
          706 373 376 546 707 377
          380 549 414 693 651 648
          415 694 652 649 415 694
          652 649 416 695 653 650
          444 363 342 595 448 365
          346 597 448 365 346 597
          452 367 350 599 708 463
          295 294 709 466 298 297
          709 466 298 297 710 469
          301 300
        </DataArray>
        <DataArray type="Int64" Name="offsets" format="ascii" RangeMin="8" RangeMax="3632">
          8 16 24 32 40 48
          56 64 72 80 88 96
          104 112 120 128 136 144
          152 160 168 176 184 192
          200 208 216 224 232 240
          248 256 264 272 280 288
          296 304 312 320 328 336
          344 352 360 368 376 384
          392 400 408 416 424 432
          440 448 456 464 472 480
          488 496 504 512 520 528
          536 544 552 560 568 576
          584 592 600 608 616 624
          632 640 648 656 664 672
          680 688 696 704 712 720
          728 736 744 752 760 768
          776 784 792 800 808 816
          824 832 840 848 856 864
          872 880 888 896 904 912
          920 928 936 944 952 960
          968 976 982 988 994 1000
          1006 1012 1018 1024 1032 1040
          1048 1056 1064 1072 1080 1088
          1096 1104 1112 1120 1128 1136
          1144 1152 1160 1168 1176 1184
          1192 1200 1208 1216 1224 1232
          1240 1248 1256 1264 1272 1280
          1288 1296 1304 1312 1320 1328
          1336 1344 1352 1360 1368 1376
          1384 1392 1400 1408 1416 1424
          1432 1440 1448 1456 1464 1472
          1480 1488 1496 1504 1512 1520
          1528 1536 1544 1552 1560 1568
          1576 1584 1592 1600 1608 1616
          1624 1632 1640 1648 1656 1664
          1672 1680 1688 1696 1704 1712
          1720 1728 1736 1744 1752 1760
          1768 1776 1784 1792 1800 1808
          1816 1824 1832 1840 1848 1856
          1864 1872 1880 1888 1896 1904
          1912 1920 1928 1936 1944 1952
          1960 1968 1976 1984 1992 2000
          2008 2016 2024 2032 2040 2048
          2056 2064 2072 2080 2088 2096
          2104 2112 2120 2128 2136 2144
          2152 2160 2168 2176 2184 2192
          2200 2208 2216 2224 2232 2240
          2248 2256 2264 2272 2280 2288
          2296 2304 2312 2320 2328 2336
          2344 2352 2360 2368 2376 2384
          2392 2400 2408 2416 2424 2432
          2440 2448 2456 2464 2472 2480
          2488 2496 2504 2512 2520 2528
          2536 2544 2552 2560 2568 2576
          2584 2592 2600 2608 2616 2624
          2632 2640 2648 2656 2664 2672
          2680 2688 2696 2704 2712 2720
          2728 2736 2744 2752 2760 2768
          2776 2784 2792 2800 2808 2816
          2824 2832 2840 2848 2856 2864
          2872 2880 2888 2896 2904 2912
          2920 2928 2936 2944 2952 2960
          2968 2976 2984 2992 3000 3008
          3016 3024 3032 3040 3048 3056
          3064 3072 3080 3088 3096 3104
          3112 3120 3128 3136 3144 3152
          3160 3168 3176 3184 3192 3200
          3208 3216 3224 3232 3240 3248
          3256 3264 3272 3280 3288 3296
          3304 3312 3320 3328 3336 3344
          3352 3360 3368 3376 3384 3392
          3400 3408 3416 3424 3432 3440
          3448 3456 3464 3472 3480 3488
          3496 3504 3512 3520 3528 3536
          3544 3552 3560 3568 3576 3584
          3592 3600 3608 3616 3624 3632
        </DataArray>
        <DataArray type="UInt8" Name="types" format="ascii" RangeMin="12" RangeMax="13">
          12 12 12 12 12 12
          12 12 12 12 12 12
          12 12 12 12 12 12
          12 12 12 12 12 12
          12 12 12 12 12 12
          12 12 12 12 12 12
          12 12 12 12 12 12
          12 12 12 12 12 12
          12 12 12 12 12 12
          12 12 12 12 12 12
          12 12 12 12 12 12
          12 12 12 12 12 12
          12 12 12 12 12 12
          12 12 12 12 12 12
          12 12 12 12 12 12
          12 12 12 12 12 12
          12 12 12 12 12 12
          12 12 12 12 12 12
          12 12 12 12 12 12
          12 12 12 12 12 12
          12 12 13 13 13 13
          13 13 13 13 12 12
          12 12 12 12 12 12
          12 12 12 12 12 12
          12 12 12 12 12 12
          12 12 12 12 12 12
          12 12 12 12 12 12
          12 12 12 12 12 12
          12 12 12 12 12 12
          12 12 12 12 12 12
          12 12 12 12 12 12
          12 12 12 12 12 12
          12 12 12 12 12 12
          12 12 12 12 12 12
          12 12 12 12 12 12
          12 12 12 12 12 12
          12 12 12 12 12 12
          12 12 12 12 12 12
          12 12 12 12 12 12
          12 12 12 12 12 12
          12 12 12 12 12 12
          12 12 12 12 12 12
          12 12 12 12 12 12
          12 12 12 12 12 12
          12 12 12 12 12 12
          12 12 12 12 12 12
          12 12 12 12 12 12
          12 12 12 12 12 12
          12 12 12 12 12 12
          12 12 12 12 12 12
          12 12 12 12 12 12
          12 12 12 12 12 12
          12 12 12 12 12 12
          12 12 12 12 12 12
          12 12 12 12 12 12
          12 12 12 12 12 12
          12 12 12 12 12 12
          12 12 12 12 12 12
          12 12 12 12 12 12
          12 12 12 12 12 12
          12 12 12 12 12 12
          12 12 12 12 12 12
          12 12 12 12 12 12
          12 12 12 12 12 12
          12 12 12 12 12 12
          12 12 12 12 12 12
          12 12 12 12 12 12
          12 12 12 12 12 12
          12 12 12 12 12 12
          12 12 12 12 12 12
          12 12 12 12 12 12
          12 12 12 12 12 12
          12 12 12 12 12 12
          12 12 12 12 12 12
          12 12 12 12 12 12
          12 12 12 12 12 12
        </DataArray>
      </Cells>
    </Piece>
  </UnstructuredGrid>
</VTKFile>
