<?xml version="1.0"?>
<VTKFile type="UnstructuredGrid" version="0.1" byte_order="LittleEndian" header_type="UInt32" compressor="vtkZLibDataCompressor">
  <UnstructuredGrid>
    <Piece NumberOfPoints="780" NumberOfCells="454">
      <PointData>
        <DataArray type="Int32" Name="libmesh_node_id" format="ascii" RangeMin="1278" RangeMax="5063">
          1278 1279 1280 1281 1282 1283
          1284 1285 1286 1287 1288 1289
          1290 1291 1292 1293 1294 1295
          1296 1297 1298 1299 1300 1301
          1302 1303 1304 1305 1306 1307
          1308 1309 1310 1311 1312 1313
          1314 1315 1316 1317 1318 1319
          1320 1321 1322 1323 1324 1325
          1329 1330 1331 1332 1333 1334
          1335 1336 1337 1338 1339 1340
          1341 1342 1343 1344 1345 1346
          1347 1348 1349 1350 1351 1352
          1356 1357 1358 1359 1360 1361
          1362 1363 1364 1365 1366 1367
          1368 1369 1370 1371 1372 1373
          1374 1375 1376 1377 1378 1379
          1383 1384 1385 1386 1387 1388
          1389 1390 1391 1392 1393 1394
          1395 1396 1397 1398 1399 1400
          1401 1402 1403 1404 1405 1406
          1410 1411 1412 1413 1414 1415
          1416 1417 1418 1419 1420 1421
          1422 1423 1424 1425 1426 1427
          1428 1429 1430 1431 1432 1433
          1437 1438 1439 1440 1441 1442
          1443 1444 1445 1446 1447 1448
          1449 1450 1451 1452 1453 1454
          1455 1456 1457 1458 1459 1460
          1461 1462 1463 1464 1465 1466
          1467 1468 1469 1470 1471 1472
          1473 1474 1475 1476 1477 1478
          1479 1480 1481 1482 1483 1484
          1485 1486 1487 1488 1489 1490
          1491 1492 1493 1494 1495 1496
          1497 1498 1499 1500 1501 1502
          1503 1504 1505 1506 1507 1508
          1509 1510 1511 1512 1513 1514
          1515 1516 1517 1518 1519 1520
          1521 1522 1523 1524 1525 1526
          1527 1528 1529 1530 1531 1532
          1533 1534 1535 1536 1537 1538
          1539 1540 1541 1542 1543 1544
          1545 1546 1547 1548 1549 1550
          1551 1552 1553 1554 1555 1556
          1557 1558 1559 1560 1561 1562
          1563 1564 1565 1566 1567 1568
          1569 1570 1571 1572 1573 1574
          1575 1576 1577 1578 1579 1580
          1581 1582 1583 1584 1585 1586
          1587 1588 1589 1590 1591 1592
          1593 1594 1595 1596 1597 1598
          1599 1600 1601 1602 1603 1604
          1605 1606 1607 1608 1609 1610
          1611 1612 1613 1614 1615 1616
          1617 1618 1619 1620 1621 1622
          1623 1624 1625 1626 1627 1628
          1629 1630 1631 1632 1633 1634
          1635 1636 1637 1638 1639 1640
          1641 1642 1643 1644 1645 1646
          1647 1648 1649 1650 1651 1652
          1653 1654 1655 1656 1657 1658
          1659 1660 1661 1662 1663 1664
          1665 1666 1667 1668 1669 1670
          1671 1672 1673 1674 1675 1676
          1680 1681 1682 1683 1684 1685
          1686 1687 1688 1689 1690 1691
          1692 1693 1694 1695 1696 1697
          1698 1699 1700 1701 1702 1703
          1707 1708 1709 1710 1711 1712
          1713 1714 1715 1716 1717 1718
          1719 1720 1721 1722 1723 1724
          1725 1726 1727 1728 1729 1730
          1734 1735 1736 1737 1738 1739
          1740 1741 1742 1743 1744 1745
          1746 1747 1748 1749 1750 1751
          1752 1753 1754 1755 1756 1757
          1761 1762 1763 1764 1765 1766
          1767 1768 1769 1770 1771 1772
          1773 1774 1775 1776 1777 1778
          1779 1780 1781 1782 1783 1784
          1791 1792 1793 1794 1795 1796
          1797 1798 1799 1800 1801 1802
          1803 1804 1805 1806 1807 1808
          1809 1810 1811 1818 1819 1820
          1821 1822 1823 1824 1825 1826
          1827 1828 1829 1830 1831 1832
          1833 1834 1835 1836 1837 1838
          1845 1846 1847 1848 1849 1850
          1851 1852 1853 1854 1855 1856
          1857 1858 1859 1860 1861 1862
          1872 1873 1874 1875 1876 1877
          1878 1879 1880 1881 1882 1883
          1884 1885 1886 2184 2185 2186
          2187 2188 2189 2190 2191 2192
          2193 2194 2195 2196 2197 2198
          2199 2200 2201 2202 2203 2204
          2205 2206 2207 2208 2210 2211
          2212 2214 2215 2216 2218 2219
          2244 2246 2248 2262 2263 2264
          2265 2266 2267 2268 2269 2270
          2271 2272 2273 2592 2593 2594
          2595 2596 2597 2913 2914 2915
          2916 2917 2918 2919 2920 2921
          3336 3337 3338 3339 3340 3341
          3582 3583 3584 3585 3586 3587
          3688 3690 3692 3699 3700 3701
          3702 3703 3704 4161 4162 4163
          4164 4165 4166 4527 4528 4529
          4530 4531 4532 4536 4537 4538
          4539 4540 4541 4671 4672 4673
          4698 4699 4700 4701 4702 4703
          4725 4726 4727 4770 4771 4772
          4884 4885 4886 4905 4906 4907
          4983 4984 4985 5034 5035 5036
          5061 5062 5063 1863 1864 1865
          1887 1888 1889 1890 1891 1892
          1902 1899 1903 1900 1904 1901
          1905 1906 1907 1908 1909 1910
          1911 1912 1913 1914 1915 1916
          2209 2213 2217 2245 2247 2249
          2526 2525 2530 2529 2534 2533
          3234 3235 3236 3237 3238 3239
          3300 3301 3302 3303 3304 3305
          3366 3367 3368 3663 3665 3667
          3687 3386 3689 3389 3691 3392
          3705 3706 3707 3939 3940 3941
          3942 3943 3944 4467 4468 4469
          3455 3458 3461 3210 3120 3212
          3124 3214 3128 4441 4443 4445
          3119 3123 3127 3231 3232 3233
        </DataArray>
        <DataArray type="Float64" Name="resid_x" format="ascii" RangeMin="-0.2249371643289244" RangeMax="0.38110422796315957">
          -0.008257473234477786 0.0017898955994883892 -0.021133114400857522 0.003831791330829226 -0.01234692114962499 0.0005882731886788228
          -0.00023960390544486287 -0.0012769060389468123 -0.001252468639280302 -0.005541102852542501 0.0008782580862920497 0.0005023661072245389
          0.0002896556339919698 0.00009711677174761846 0.00012933731124942227 -0.00004718686296012464 0.00043868865890406283 0.00011665272660854598
          0.000327989124998318 0.00014577549222494213 0.000060906288798179276 0.00005484789960696901 0.0005128892892498627 0.0003084616125548223
          0.00048369041938034485 0.00015647240020744135 0.0047965648178252 0.00009380522547619563 0.006291560471455071 0.0006919566647214381
          0.0013205605337702764 0.0008928970706190142 -0.0031507508438437526 0.001075601152799699 -0.0072912692974389515 -0.0007071612739251165
          0.002297111160537213 0.0015114580880011275 0.0030231709108319293 0.0020281060850191324 -0.0015635361868060471 -0.0008058324053754617
          0.002123387564462398 0.0017194418807635614 0.002973096248627627 0.0030076327784858137 -0.003139427126466643 -0.001671066084224293
          -0.0020926106955769797 -0.005397997170980773 -0.0027976090640677853 0.00025265355047832116 0.0002451760003907566 0.0005982940104969359
          0.0005086868188675098 0.0004771350739227742 0.0006623565779584339 0.0005194285610077287 0.00023158093653030676 0.0007413766439228198
          0.0007440908994365003 0.0015931083943234725 0.0006686979636336687 0.0017675820313560742 0.0010261112615106427 -0.002090871983077669
          0.0020134431311529255 0.002657048474663526 -0.0015018316401258502 0.001724967640728714 0.002162548415690413 -0.003434904838363728
          0.0002869298997900671 0.0005991840886672151 0.000578545547364584 0.00018811209997071643 0.0000906882754749816 0.00038825892377403193
          0.0005165356598091364 0.00035344009838222945 0.0005559792468607938 0.0005116072037187891 0.0005911464842318637 0.001409799149694635
          0.013329544220375134 0.021322823487006204 0.005298099920646671 -0.011983600479907874 -0.020953031863078397 -0.009876413348885116
          0.0018358248230945229 0.0020668311829421526 -0.0020562604172953414 0.0006082818253165811 -0.0001121070388458989 -0.004404809640880636
          0.00037947321757769714 0.000685776947939587 0.0005950005215105136 0.00021874080828254705 0.00008293249629609534 0.0003856380602238474
          0.0004941083493221754 0.00133617349349624 0.0030274581875140427 0.0042658385153888645 0.0035942173769578645 -0.0027130802426853506
          0.041832315324084046 0.07685920888575337 0.03185577006569673 -0.04422724175804893 -0.08036567437743392 -0.037152715814629644
          0.0011656415097283102 0.0006938546888886066 -0.002897062264406891 0.001014194301565574 0.00041779338937253385 -0.003977383576178717
          0.00047098027714298496 0.0008766973124707533 0.0006863609213016986 0.00022349675772392885 0.00007217234664658179 0.00037382170202171494
          0.0009476269572115115 0.0037612875205352836 0.005900384097757616 0.023812826128900788 0.035228127916112406 0.005374769498859067
          0.010196211850408421 0.021424670692502534 0.009391224708664936 -0.03334586094099201 -0.0603718329613816 -0.029043752137676293
          0.000680255332908164 -0.0003672227606656975 -0.003712627985732908 -0.00013806685981565536 -0.0017775754984934444 -0.005273123891565312
          0.00046235262900751195 0.0007726831245378207 0.00065200583635594 0.002983941864858508 0.0035196059983340078 0.0012454258843730415
          0.014204089338643477 0.02894612329384394 0.01452255002357905 0.033550383806260076 0.05872857225079331 0.02103781080575917
          -0.0426078407951298 -0.08053932575764788 -0.039887167794746325 -0.008873879307342403 -0.01501397577331387 -0.009285627114886452
          0.0003662193620765919 -0.000792589406001909 -0.004187133310266766 -0.0015897202287278311 -0.003964813408024348 -0.006831930524257679
          0.000661011768564812 0.0006852193793136507 0.00047376587673486625 0.00023965159769367972 0.00036425259055405945 0.0005751240440368122
          0.0015928282537709393 0.0016604787150891198 0.0028656459700160397 0.09526460077472487 0.18814538509473522 0.08970755116486284
          -0.015406849790668531 -0.03635393660313113 -0.024960351373090717 -0.0856068625092199 -0.16367552835348187 -0.08069220687496115
          -0.00027550819820199024 -0.0009060188283336323 -0.005128489451450946 -0.0002836345896706227 -0.0014795002504879307 -0.004889708051174058
          -0.0014477111919419805 -0.0033539694804942677 -0.006790897099318016 0.00025925318268882336 0.0007267593289519425 0.0007428997269034454
          0.00019748789189932836 0.0000423136891347653 0.00009717586933977174 0.0007184009703049554 0.0005339685334435629 -0.0005680921981783271
          0.1735189623807809 0.34138402076724716 0.16670520213632134 -0.06012499472636268 -0.1250542418416618 -0.06986788051684734
          -0.1161420757735745 -0.22346498646981328 -0.11044572392823149 -0.00040359353474572757 -0.0012342640954843276 -0.006267166612131447
          -0.0004960250447796355 -0.0011143679872485102 -0.005285859123060455 0.0007486736671049599 0.0011935283667341423 -0.004523579309227532
          0.000042556879247257484 0.00034119431683876655 0.0010216628682258033 0.00027020685623480034 -0.00009452054614911276 -0.000873608062635256
          0.0008260080905788669 0.0005900551604778315 -0.0014571218142265252 0.19406734203298237 0.38110422796315957 0.18524135154172372
          -0.09927734822518541 -0.20188750604721184 -0.10834619597709239 -0.09004751677373246 -0.1720134359232368 -0.0858505796254092
          -0.0006108167684328869 -0.0013940612702292299 -0.006832653648358722 0.00016982362582584898 0.0007196640140625377 -0.004780854038849647
          0.0010514337734468526 0.002263369417457195 -0.0034585227230521376 0.0007565374098561506 0.004329825761960393 0.008560769370838273
          -0.0004059949509178651 -0.004255283119202424 -0.009674978875307438 0.03127535430717021 0.06194890466870717 0.028887771103092597
          0.1071212583219392 0.2069924472189073 0.09466153074283667 -0.1134068213497148 -0.2249371643289244 -0.11554850834058827
          -0.01612852624278238 -0.030514757879887 -0.020227618443403372 -0.00011693610474949878 -0.0002572643205502878 -0.006223672451823425
          0.0005035497773837605 0.001538777040478223 -0.004300892819989244 -0.00046181019386937194 -0.0002460608310008716 -0.0042682429524703025
          0.0017484907385245663 0.006156295664094813 0.004825601068722207 0.022866634658147866 0.03709871794439046 0.011798314612432748
          0.045832183935088366 0.09667239650461878 0.04749912381614951 -0.03547447410178872 -0.07614015304314936 -0.04646577678515307
          -0.026669180801239367 -0.05200335767790065 -0.030112215974883227 0.00025043132214230823 -0.0004233596828147057 -0.006633723263153257
          0.0007825352368939775 0.0013095415716488645 -0.005073645951432226 0.00035116256118605804 0.0012603972977114353 -0.004022211205324311
          -0.0014795259337345712 -0.0017423529982325547 -0.005017735830129766 0.0007482747879468121 0.00119220632755912 -0.0029635934459992797
          0.01288642499915671 0.022460390560917975 0.006294457141492238 -0.0021662671880950946 -0.0023221775632991104 -0.004956944216497838
          -0.005684469957015104 -0.0137188593289439 -0.013788960760481306 -0.000012770480616985935 -0.0015556378805685611 -0.007183870846650731
          0.0006846666413782287 0.0004540984355334565 -0.0059127134337710885 0.0007751525112089652 0.0011791098082305496 -0.00473048699045453
          -0.0008260560851622856 -0.0010619513301106664 -0.004663917765713954 -0.0016463906654267113 -0.0019142709682342662 -0.003306333255965299
          0.0014505633105734717 0.003130716008435286 -0.0006420451211379685 0.0009732045836781111 0.0018495400168778708 -0.003866365475770017
          0.0009480688147012195 0.0003185835369907686 -0.006067739230708469 0.0005689418499810195 -0.000838558332068029 -0.007791356993135157
          0.0005795538629138619 -0.00034460821092530125 -0.00689840276910525 0.0008173605526540229 0.0007273217679744093 -0.0054967460393076095
          0.00016869620179349454 0.00008427048776749047 -0.004617308761218908 -0.001083756472040065 -0.0015556475008633441 -0.004096727940474665
          -0.0009962790413604594 -0.0007031081714945486 -0.002339090144924505 0.0015018413740142122 0.003068262696798385 -0.002366071330050623
          0.00046721008175687473 0.00034591787619753234 -0.005696310876586175 0.00046590390472900367 -0.000894837262092274 -0.00744083974012355
          0.0006997432509345813 -0.00042007483905681653 -0.007575679827741322 0.0008750084928479396 0.0003624876776768815 -0.006418473547960879
          0.0005117465196180504 0.00028346296966752504 -0.005149922422533315 -0.00028590332962963316 -0.0006939127021494684 -0.00415614112257412
          -0.0008975563451327773 -0.0012137299475787344 -0.0028743479458350762 -0.0005821779625208023 0.00003953503001685732 -0.0008611550162118675
          0.001044301095101119 0.0019069895534293835 -0.006451070273847392 0.0001477961483420387 -0.0005008552071985584 -0.008205117530627248
          0.0011064623513377114 0.00030834807824220434 -0.0070587145427696285 0.0007889466439658932 0.00020252819949284628 -0.005903837389480415
          0.0000652985381437432 -0.0005137604501124216 -0.004610322765942421 -0.0005035937131472323 -0.0009286884544925655 -0.0030756167205723273
          -0.0005854103258631227 -0.00040029491050841415 -0.0012334551390109638 -0.00044232112569364546 0.0005354282217826523 0.0004987653520300839
          0.0013151696503648225 0.0026940355053142184 -0.00723930559245467 0.00028519563804341175 -0.00024363142998451437 -0.008397378040465586
          0.0013620478877025555 0.0008026407944807801 -0.0062779827482915 0.000714532026869108 0.00015828907620019095 -0.004902416173280244
          -0.00007329798182009739 -0.0006437275099786532 -0.003416750551524572 -0.0006195990911432858 -0.0009205915128784881 -0.0017903475615517195
          -0.0007791698799870517 -0.0005273785745050219 -0.00010058310138827409 -0.00018908026636399455 0.0012407825879172663 0.0019401488006129952
          0.0014514156115463805 0.0028709112184301944 -0.007723573630675773 0.0004192669114178038 -0.000017497484648298922 -0.007978219678749454
          0.0013756554359485307 0.0008753969359283076 -0.005280312962175238 0.0006672263636744447 0.00013025617532758105 -0.0035774977420857113
          0.00000564224076526898 -0.0002708526922736709 -0.001758143854718064 -0.0004216322635128833 -0.00020584367416187632 -0.0001839156321565838
          -0.0009887840167071005 -0.00051715624836568 0.0006133421634517688 -0.0013827368311707389 -0.0007576898712344793 0.0017620192797576095
          0.0015604169013201385 0.0030153854936010305 -0.007615562744047288 0.0011044634968842004 0.0013730718201596659 -0.006509991029191475
          0.0010508583702399932 0.0004363178626114461 -0.0041841280314827145 0.00042617381858800485 -0.000059430000395543914 -0.00213870054317411
          -0.0000663461926198039 -0.0000628500509058938 -0.00011080010497455106 -0.00027910695827060295 0.0003912258413487635 0.0015334174684218382
          -0.0005925952854806127 0.0005435675068108381 0.0019589128797132815 -0.0004621550692318621 0.0011310928048509084 0.002680188506674952
          0.002123891038340986 0.003541835667689952 -0.004176753105946673 0.00009518861285862101 -0.0004912180033072033 -0.0032052319078168523
          0.000045874886390073755 -0.00017410854478860927 -0.0004101549172803587 -0.00013154984701202466 0.0002628595999238925 0.0016688047074575607
          -0.0002548529833283908 0.0007126882451329308 0.002948424984422715 -0.0009649541512386506 0.00006875692807106759 0.0026623504127227804
          -0.0006626779135743277 0.0008134660593408505 0.00416207884581743 0.0020427252482306812 0.003532380947042668 -0.002217617913442993
          -0.00006832635443920765 -0.0006863162584149762 -0.0014064045524371238 0.00007347489885400904 0.0003408025944597881 0.0017550398807921752
          -0.0002785816011066089 0.0005168366546035585 0.003459134452961976 -0.00036898281892039364 0.0008623293586778047 0.00441953995295119
          -0.0015220090438354816 -0.0006356405916614349 0.003800538070921178 -0.0018315538406254994 -0.0010878496340058774 0.0052952164430966064
          0.0011236714110047785 0.0021085246292003035 -0.0002155147357285614 0.00011880470775249563 -0.00004816590466827364 0.0013117950832661762
          0.0004497590099274973 0.0010866916459031373 0.003912365434675991 -0.000048466469505292764 0.00114625485997788 0.005384317215501255
          -0.0007565668954656601 0.0007308474991054581 0.005736042559669308 -0.0032744370622204144 -0.003714729067882061 0.003998062353998577
          0.00023966571173872353 0.000292748974203505 0.0016669592643498987 0.0001240079073614453 0.00010370952184501903 0.0037952480342609007
          0.0002589556830479012 0.0006529468815426043 0.006078515079260605 -0.0005825223648692202 0.00027114942188699587 0.006950986050521024
          -0.003210973066683387 -0.004045822724642711 0.005255328533181114 0.00020078620845254136 -0.0011091036589077063 -0.0005755919996377479
          -0.00007509740068911697 0.0002383394421787699 -0.0015445696653380026 -0.00036800345133514156 -0.00031218401224553105 0.005219687216229119
          0.0006476085627431516 0.000021916174164804403 0.0023667339939716925 0.0007338651645136807 -0.0006141387514082552 -0.00008530169939646726
          0.0014214762997646346 0.0013043125879557138 -0.0016710605774417076 0.000258670100668823 0.0028378984717685185 -0.003949556820443512
          -0.005165088007025531 -0.004639474158718571 -0.005453727209618009 -0.00032741365326582894 -0.003981904767556443 -0.0021833194259892608
          -0.0009187910592087789 -0.006719079948385165 -0.0034735705547133122 0.006965138066289178 0.0057447958693011 0.004654546204934107
          -0.004492335530532188 -0.0076299961673056416 -0.0002328399072188958 -0.001333791752543334 -0.0006353934811356154 -0.0010212790488779433
          -0.001874246945400948 -0.0009263625963176203 -0.0003831150699680208 -0.002471292061676067 -0.0029763810465635032 -0.0012016201046822772
          -0.0017080348014282265 -0.0020825026104556166 0.0002190059960440749 -0.001998711723452562 -0.0016706663174117509 -0.0029623623957837353
          -0.0027198996212236537 -0.00570375493904951 -0.00838565271168168 -0.001540610294932243 -0.0017246285868610656 -0.00235397606630805
          -0.0012279691110483881 -0.003012194297308035 -0.004436408228990274 0.0020283529167546277 0.002702362296096439 0.0032161305643416682
          -0.004534168330314614 -0.006219067205282869 -0.006915632614419742 -0.009613295680674483 -0.008605320664348604 -0.008646179776769625
          -0.0007776766636076182 -0.0030195616332243658 0.00048362914603350404 -0.004654437352904939 0.007182403650281 0.00600644778109205
          0.0019918447397335726 0.0029808811172475913 -0.0012676173013828063 -0.0028451265500919476 -0.002583050312544355 -0.002473232864946162
          -0.003955812728483998 0.00338487850759428 0.0037019810823983867 -0.0014011367369088923 -0.0015101777818586903 0.0008435853037811469
          0.00019307229354303956 0.0032332287771592583 0.003461129863315815 -0.0006015830444525694 -0.0004528472815992224 -0.0007954925818930425
          -0.0015278308400428209 -0.001897030079243578 -0.003269609842943444 -0.0012581126022479516 -0.0011156590747736228 -0.00212817658105946
          -0.0015201357866113652 -0.004354799338849968 -0.003499850750267486 -0.0006891211089889993 -0.0015143335438514427 -0.006106500664631032
          0.001049740561630319 0.0017466818317124488 0.0008657630864408183 0.0021334897985016976 -0.0043590667866979516 -0.004060581575652922
          0.0001147202067635078 -0.0004284612851463976 -0.0022453140571716546 0.003237567482343273 0.0066543560618925746 -0.0031167089219978905
          -0.0025605571382461 -0.0020347750580058666 0.0014411197467660841 0.001270130241790568 0.0028517950837518846 -0.003195541755811604
          0.0012452853979700862 0.0033397620229154157 -0.005509061279311389 0.004321091592283999 0.007788887475601136 -0.003314998176424666
          0.003036190206004985 0.0041395914435375936 -0.0015540738299173462 -0.0023163197103492905 -0.00463537290514715 0.004426436256144584
          -0.0008516474886821612 -0.0035669921795342674 0.0027941589433568836 0.0002708888732465553 -0.000985698340119967 0.003734591468797177
          0.0002925627970515876 -0.00046066760977847565 0.00009530793392276138 -0.0012155699252556218 0.006127600480877682 0.004082861346114797
          -0.00017340647110808405 0.0007314173453534245 0.007709629712643107 -0.0012260739677851795 0.000033887312026692484 0.007678025522085186
          -0.003845475232890916 -0.0015875067689670175 0.006094190180119252 -0.0001061529689105889 -0.0032550161176896353 0.0013646793639745525
          -0.0058663819684401375 -0.00783323842341943 0.003525300090434058 -0.005773202250498599 -0.008441429139592671 -0.001250370643210097
          -0.0004016642476774024 -0.001311689898217061 -0.002285065516268503 -0.00346936445434487 0.00026925341501637945 0.004023410703650754
          -0.0015829337541406474 -0.0036697442244584266 -0.001702956204237438 -0.004809624408190771 0.0025035525905048317 0.0008992262407350182
          0.0020903837669266068 0.0004267381131288772 0.004623022150671119 0.00005817361460813686 -0.000572617132014841 -0.004633831312466086
          -0.004612845793015907 0.0019568969837777672 0.002412314957972228 -0.0028415215838881736 -0.005604957369579111 0.0005970269182240528
          0.000920899208725956 0.0009239189942533699 0.0009627738621613702 0.000977910487716116 -0.0012926637299788268 0.00003383346050256364
          -0.004139876919652785 -0.005793823059544678 0.002523806423321062 -0.0029949671897941954 -0.0021593212513968396 -0.004453756491592742
          -0.002908196246179884 0.0016229519443071716 0.003220447717357633 -0.002818719509080747 -0.001173257673150907 0.006912091640610907
          -0.0020855793490497376 -0.002730748486321488 -0.004413225957101474 -0.000045794716764469 0.0020670827288391536 0.0016224907742419248
          0.009294002446111449 -0.009034536979410923 -0.010851859486329829 0.0015826070378359702 0.0049170925510217955 -0.004756037391292267
          0.004345324896906533 0.010445740327977404 -0.004852382383827347 -0.005120595035753794 -0.004913212066158579 0.0005024398471409341
        </DataArray>
        <DataArray type="Float64" Name="resid_y" format="ascii" RangeMin="-1.2623293297438165" RangeMax="0.14944306339370372">
          -0.0020518951909671568 -0.28572653571133777 -0.005840325721789719 -0.4738938408262029 -0.0044958902251019395 0.05862408497329841
          0.00024545292659208795 -0.04123109218935102 0.0008136365534454904 -0.0487159652910429 -0.000035270999551639814 -0.09421333833314469
          0.000016246698682553795 -0.1151644853577105 -0.00002864170316179901 -0.21779409404944325 -0.0001171774893228561 -0.13767441589387852
          0.000016981416187576703 -0.06168882140711409 -0.000006129020777245059 -0.12787010724302295 -0.00010594986012547186 -0.0688216894228606
          -0.00009387808275515552 0.014492651245901024 -0.002501727445689772 0.008330674169520078 -0.0020908892689971135 -0.016420368089791314
          0.0010808047658213416 0.043971534829440696 0.0015805916551089594 0.028857337448815634 0.0012725733458541222 -0.07365569525916993
          0.0009937271926126756 0.03751181538849438 0.0016950215402277147 -0.011348364050880189 0.0006644043545695477 -0.1407230147555283
          0.00006146636399176342 0.13016031083548157 -0.0001546055372264321 0.14944306339370372 -0.00035034948354639717 0.0042255987466564005
          0.002434172781047114 0.007618828244673581 0.004566716155745831 -0.00008139099494455793 0.000026197024732374508 -0.00011764188532707026
          -0.00019119338099846117 -0.00007440526316344204 -0.0002672569727412838 -0.00021733913871943566 -0.0003404273982615877 -0.0008712413109783594
          0.00009122297730781125 0.0024301338271702916 0.0019755333622443402 0.001412303936593931 0.0031433187924828215 0.001531880146014769
          0.0014113631348063593 0.0030017338620342005 0.0015608571439785224 0.0009501112260202893 0.001992830216410446 0.001253827126387802
          -0.00020963237712005867 -0.000053791942390718495 -0.000048465019194463 -0.0001127831058988088 0.000027749344931160547 -0.00016852394076392885
          -0.00012954548997169864 0.00004776028367754932 -0.0002671278051546294 -0.0002795130809748053 -0.00001598440855299886 0.00021712397782131312
          -0.009766441865959603 -0.016755670784357482 -0.006864813102442524 -0.007206517107544719 -0.012195060875270586 -0.004795934566090176
          0.0015678674706310625 0.0034030551555695454 0.0018035161642277475 0.0013065605209537923 0.0026763264568677447 0.0014908032182088249
          -0.00025885965699373736 -0.00004606585666173946 -0.000038648242657826626 -0.00011391052269882351 -0.000017118335075158586 -0.0002083041139086944
          -0.00020663097409007528 -0.0013832440199925758 -0.003134743656212191 -0.0016557259166970137 -0.002000818304660215 -0.0019430680349088736
          -0.008687401469800654 -0.013963653182877733 -0.005745995284871214 -0.0008946670702820736 -0.002090758049404645 -0.001728756823166172
          0.0014003530185123791 0.002961732657816546 0.0014993036679768756 0.0015589220330369524 0.0030892975591093816 0.0015758696041512643
          -0.00025461730417082606 -0.0000792623705173634 -0.00008883977650861463 -0.00013154115429263313 -0.000023699126638798695 -0.00024978075259778076
          -0.0004326096051781997 0.0010216051488588784 0.002082256379867947 -0.008579457910009691 -0.014726927972780357 -0.005315667771265797
          -0.0008836150473680027 -0.0017616288829485904 -0.001210162879764276 0.00913453134145048 0.017637313400911903 0.007855587895379545
          0.0010459304682113868 0.002334791311562362 0.0010879908794367843 0.0009800169070567633 0.002044840125626418 0.00119749702994576
          -0.0001496762012753866 0.00017762989002576002 -0.00003136918291521407 -0.0005500443819956152 0.00028009332788002383 -0.0008475287862595993
          -0.014882413638927477 -0.027914609037070465 -0.013909851429679237 -0.023168801387732613 -0.04458278612237607 -0.022292865201389844
          -0.0001846109791863726 -0.0012923228955455945 -0.0025277823076389483 0.004701984297339257 0.00861351146867756 0.002996936600418887
          0.0003543811348461212 0.0011706036570202638 0.0005356942176396595 -0.0005961917083444068 -0.000773321941285543 0.00034312341530085
          -0.00001325413969401057 0.00024406505620427899 0.0001455440639873823 -0.0001407333487054574 0.00008400668428182323 -0.00014352036729643747
          0.0002874295372718716 -0.00025914963005049807 0.00023718583953338812 -0.02559070954890097 -0.049599894835087366 -0.023844402444456736
          -0.03725599361588877 -0.07235632728835623 -0.035801643897394986 -0.005145491395726787 -0.009956613383823365 -0.006092059565011909
          0.00011627535704178404 0.0010444843140164362 0.000031617455560351004 -0.0004807257539625742 -0.00033432632439800436 -0.00019387927380465353
          -0.001340523423011608 -0.0020861430411533433 -0.00019871370366153496 0.000022659896270177393 0.00021949817554760276 0.00009180699304026096
          -0.00013850098948177403 -0.00004951975537902109 -0.00012858517881658704 -0.00012362797682630156 0.00007795676676586316 -0.0002366539904750109
          -0.01797373444338174 -0.03352937164447328 -0.015868751469519105 -0.0192290342451627 -0.03649759839605926 -0.01805714007676723
          0.00211055957119638 0.005209577484067807 0.0019872753588576764 -0.0004673949890079965 0.00023969041381916023 -0.00024815628443358717
          -0.000671906139915468 -0.0006051337391033695 -0.00040917940692397625 -0.000389622192672634 -0.0004534482259628825 0.00029821912472238754
          -0.00013356071396765368 0.0003646214369257966 0.00019048825140809134 -0.0000392615320743972 -0.00016461524188729482 -0.0007893042931857719
          -0.0000635407738671101 0.00017818777180367285 -0.00019301151984874032 -0.0030180678420552165 -0.0042444137534944915 -0.001405766477253212
          0.022835787521025053 0.046295028092007195 0.022400204453805306 0.02121870900340128 0.042239935983092225 0.019497470499283742
          -0.0005607911401221966 0.00011355911352095571 -0.000258710963941422 -0.0000015785158330450244 0.0007920355642644372 0.00023079082323151923
          0.0003202831014424423 0.0007860849320003305 0.0006075022096331817 -0.0006339071507964825 -0.0013365221718660003 -0.002228860720275963
          -0.0008086964735153079 -0.003101231090691492 -0.002717318161935489 -0.015136454469462879 -0.029785859298981143 -0.01504042911991621
          -0.005321067283237002 -0.009657378799253047 -0.004906179726383408 0.048240253758353335 0.09472867284943814 0.0449299119676857
          0.01039681487776134 0.020034265515080862 0.008366871923122188 -0.0003122668717699395 0.0005613387078576282 -0.00005282429034242364
          0.00047068204874334274 0.0017741929728238848 0.0006119704999053011 -0.00009672242273645049 -0.000006345156482512326 0.0000973864900375987
          -0.00009427515114314444 0.0010630345542551045 0.0017297353493375411 -0.008499888796287769 -0.011862233211939188 -0.002777270008653243
          -0.00644962909329394 -0.010783071146924117 -0.0042502839492682964 0.037501252877317426 0.07404551603144105 0.035581927462543184
          0.019882958828750796 0.0384932266775565 0.017217296001731608 -0.0007817257534568633 -0.0005338618567914399 -0.0006567229422457799
          -0.000048215266014783875 0.0009460937268226388 0.0001499140034296187 0.0003809305846533273 0.0015477052843603512 0.0004363927198435813
          -0.0007469038762567132 -0.001142932320141156 -0.0008947812491571921 0.00003546466633567308 0.0003050750321205442 0.0013738401795748492
          0.00842298813821274 0.01386135842796643 0.005742983961446457 0.01725426512259054 0.032970826787477536 0.015516692396952192
          0.00745287132609751 0.015342268585972985 0.0072259724315953955 -0.0004818533405214209 -0.00016421554937462446 -0.00048580229022354704
          -0.000574985027459618 -0.00027194734135166376 -0.0004533547644832714 -0.0002099570007961793 0.00045926541655283426 -0.000054297103579570294
          -0.0005452084837590521 -0.0004014032436917836 -0.0005244700127399748 -0.0013704687663525263 -0.0024681942814694727 -0.0016008105227340898
          -0.00038163832238800877 -0.0008735796076029118 -0.0002796581550994909 0.00006126570410552867 -2.631600339864093e-7 0.00036978337647153303
          0.0004210503231035778 0.0010011021059923575 -0.0000577966902228777 -0.0002851439124142985 0.00022397663799100798 -0.00027196510664984075
          -0.0005020338166006333 -0.00005157486532236799 -0.00034000741728235084 -0.0004821440625744078 -0.00014168394935271111 -0.00037916967340007046
          -0.0005167546341861007 -0.0003877529057962903 -0.00042682926585124736 -0.0008178916026167216 -0.0011416381408380222 -0.000715951988917593
          -0.0008237049828966753 -0.0012831258112844107 -0.0006718144503998699 -0.0002596333898939873 -0.000382889972911471 -0.0001132994396677578
          -0.00020278167460802826 -0.00022380679513499258 -0.00017034017320466388 0.00010623616261862256 0.0006362994537519873 -0.00004710280599362626
          -0.00037444749607828953 0.000041050949878607135 -0.0003370625958213358 -0.0004757934013593923 -0.000008797357872292189 -0.000324131284124618
          -0.0005554562390506224 -0.0003382817780398506 -0.00044684440042053186 -0.0007304396509634492 -0.0010075809767327304 -0.0006754556859444594
          -0.0006487680437876793 -0.0010557814467832462 -0.0005249700043800896 -0.00027148102258606893 -0.00035385095923367617 -0.000050722474316311494
          -0.0004259423574445864 -0.0004734553992891133 -0.00040100482209592947 -0.0001457323025286783 0.00024090427997669472 -0.00018889727727700034
          -0.0005161688622931093 -0.00015437795258355091 -0.0004373507163103474 -0.0006104333793002237 -0.00032580545998889265 -0.00046580556712361165
          -0.0007381463850871794 -0.0008325660385234968 -0.0006305789108382032 -0.0007747222181645336 -0.0012693426277764902 -0.0007071683604906454
          -0.00017448180695074644 -0.0004557771768372437 -0.00010649310648282173 0.00028907948894080215 0.000437609324954652 0.000478167229276516
          -0.00042170948660480434 0.00007639637163348034 -0.00013657426877033974 -0.00026991816054910966 0.00008779748848330993 -0.00032397986611776286
          -0.00048259752438928327 -0.00009437840378756501 -0.0004463977993768298 -0.0007286698572189221 -0.0006880532338862655 -0.0006006164741498843
          -0.0008312740486832726 -0.0012110492965408115 -0.0007174686896832261 -0.0006099282967817199 -0.0012006547308511667 -0.0005295505876506124
          0.0000775964748935265 -0.00023775018789004565 0.00019184291997714764 0.0008677807495096057 0.0013591561770632254 0.0012102058620851452
          -0.0005041643209166558 0.00002308164797493184 -0.00026549102570094796 -0.00032823809093940337 0.000059222170782136097 -0.00040066609091604644
          -0.0005238119461143387 -0.00019397496844164586 -0.0005214645170745213 -0.0007754214071664101 -0.0009164705810052465 -0.0006385250510756169
          -0.0006861581469874631 -0.0011671733847527094 -0.0005722650154865172 -0.00015317991943541998 -0.0006443307405659127 -0.00014157225940281126
          0.0002511638529809068 -0.0001374184758220487 0.0004400212282563154 0.00010913153819694377 -0.00027349356883349385 0.0007274626773113857
          -0.0014061799799982566 -0.0016470301194773107 -0.0009615913125597952 -0.0011067607279243996 -0.0013941894500697494 -0.0009708844469558386
          -0.000651453786388756 -0.00043774390779094396 -0.0006081336139173166 -0.0006996661612027333 -0.0010158986052915264 -0.0005839831921982536
          -0.0003488268593669075 -0.0008886787992625073 -0.0002606528779482975 0.0002691370475543242 -0.00014761391771872523 0.0003029025797411655
          0.0007419894369056212 0.0006087725133420152 0.001020758717047987 0.0009208493020871483 0.0012055765300675453 0.0014670220939008438
          -0.0011600632667654875 -0.0013634342082233797 -0.0008355311154364942 -0.0005993840127430927 -0.000691513768498464 -0.0005705411614868594
          -0.0005512605159608899 -0.0009752075157690374 -0.00045014867938568404 -0.00003547512608631509 -0.0005773808753626319 0.00008790896404886617
          0.0005229257207228777 0.000029181831209867948 0.0005823896734299949 0.0007248287078041593 0.0004219051175755051 0.0012257739842317927
          0.0005458087534834233 0.0004104030612395726 0.0012588782863203196 -0.0011193576423614293 -0.001339999761737598 -0.0007119984294317039
          -0.0007717943276632153 -0.0011960333624570496 -0.00061654506771356 -0.0002500058041141895 -0.000681467692251414 -0.0001388250654290324
          0.00029812749711521924 -0.00022066205794402105 0.00043089926519529476 0.00079510634143104 0.0002588669517367137 0.0008808487455129743
          0.0008823923556618429 0.00048324212644801356 0.0014571028074945591 0.001554605195944525 0.002092207110913069 0.0017471205219889985
          -0.0009508086898188939 -0.001122467755404588 -0.00041475552364417245 -0.0005545524656901946 -0.0010402150456611525 -0.00024273431659133093
          0.00017783589719799764 -0.0002795789595289033 0.00021763639466354512 0.0006855348926214644 0.0002829251830492874 0.0008832936366208743
          0.0011301928714908538 0.0006461744912341638 0.0013045302986971485 0.002281807524834867 0.0028771833186704843 0.0020747606518888295
          -0.0007189356498355781 -0.0009774272455848054 -0.00041958207930253844 0.0005562009193293971 0.000800371501088637 0.0003601217000840373
          0.0019712148908356264 0.003127186781523683 0.0015795753293061932 0.003090642192651538 0.004734172235756673 0.002522516048332868
          0.0034241511177537376 0.005046854301931081 0.0024773198725051016 0.0004101591724644249 0.000010304048328219073 0.00010821820801553556
          0.0010439423039966533 0.0007270843938806393 0.00006076056210946312 0.0002798209021188519 0.0024758288246838067 0.0008295880655628078
          0.0006458833479511816 0.0004637614861039002 0.0016185584509098572 -0.0013561656803472433 -0.0013884974588983436 -0.00009547777299507426
          0.0005240458748865251 -0.003502381529857046 -0.002888821322242028 -0.0001831385280730985 0.0012147525205221665 -0.002035992932974462
          -0.0014371688397187832 0.0005051295018802734 0.0014293755047757317 0.0003342652562987325 0.0028164076995816356 0.0003648487674514367
          0.00044429430702602746 0.005437080720918586 0.00048499346380359576 0.00016516153670159683 0.0025300965111156315 0.0006051198336075314
          0.0016112194457410522 0.002430484286751189 0.001264518511294055 -0.0002609121126460334 -0.0002981343487462318 0.0009080734209120089
          0.0015668163548649694 -0.0008372162350369361 -0.0008019514246183079 0.0018278654165225089 0.0021104667470864535 -0.00036280631433682764
          -0.0007715964718939955 0.0008356276586757028 0.0009534475571346956 -0.0007032167364625086 0.0004035207381528072 -0.002621965926660752
          0.00005214449679591393 -0.0023554584803399115 0.0005143697241209444 0.0005590454611603402 0.00006724356313669855 -0.0007338683943235585
          0.0007578905934648578 0.00042567369751522754 -0.00028598398008217174 0.0006209649735362532 0.0008978155177938874 0.0004775694841023248
          -0.0012060019901368735 -0.0037821109072411763 -0.003029332594395806 -0.0073993467653108436 -0.0005477915953795431 -0.002478354562757634
          0.0009317527694117644 0.0005590377651810696 0.0009818785936263619 -0.0008318875906654921 0.0011567096153467515 -0.0003323239940642986
          0.0009818046445849021 0.0016085625910454426 0.0008361022669200052 0.002555108463953515 0.0030819082879949555 0.004583993094416067
          0.004823671001331117 0.002351484540619883 0.0021776972972756548 0.0021371075838868547 0.0018815707302527879 0.003074660019362574
          0.0024600756134220414 0.0020845492562247547 0.0014965549812341744 0.000007431330902592237 0.00022423865258369789 0.0001416958178290864
          -0.00004916174441216628 0.00005660730606096842 -0.00004424021383169635 -0.000409710706383154 -0.00046796890655265155 -0.0012357286434419579
          -0.0012945711314123615 -0.0004103359448908994 -0.0008762278106788195 -0.0005025945256958986 -0.0013785973456435507 -0.00006395120031205126
          -0.0010195146433237268 -0.00014267275893303788 -0.0017992009528213782 -0.000008927375381106994 -0.0008977398541179515 0.0003238528747966929
          -0.0005565009680639499 -0.0019194174316341517 -0.0010984216333357055 -0.001165317840027158 -0.0020358543652710948 -0.0005822692162413268
          0.0013717089133057775 0.0018444896349203571 0.0011518481643217615 -0.0006880509164216564 -0.0012638323730678747 -0.0008723581835320404
          -0.0063037933134117985 -0.010922226480562736 -0.003827251087678063 -0.0036492201081987363 -0.006720863860567999 -0.0022544216610139167
          -0.0017157315032176046 -0.002887904520777057 -0.0013661234168270628 0.0030160700859824807 0.003009292598829816 0.001803742162705374
          0.0004096101352824011 0.0026938008733961016 0.0036118789885722924 -0.00047033638074323036 0.0011929567570377886 0.00286017781704756
          0.0006280782109208127 -0.0013624350627159387 0.0018763438854396686 -0.0026715596441262424 0.0014331004237471134 -0.0008289586181549069
          0.002193742194254944 0.004956769871486966 0.0034146173950154735 0.002830906836736591 0.006338195940227109 0.004362582490796907
          0.002912026404472301 0.0053352575772165345 0.00409609167037539 -0.0005344264595161241 -0.000476265655508068 0.0020580215530277
          -0.0002117983592743733 0.0008876748072996488 0.003230623981256245 0.0007464269645754557 0.0010608911009571398 0.002068055130054147
          0.0012441119182828898 0.0017930029857127217 0.0023002560665460747 0.004279831861177863 0.0013611856235572067 0.002641368362031493
          0.0010174091727159218 0.0007597343089743858 0.000026000830885442028 -0.00027802092920192756 0.00169181993578163 0.0009254644159298886
          0.000411920180257791 -0.0010791515960436593 -0.0028129117773500467 -0.00281185749048396 -0.0022414686125855343 -0.002000423132032414
          -0.00003268952488724719 -0.0021893180024491476 -0.003199457304425002 -0.0002111433194444956 -0.0006739665795328365 0.0000921656508859614
          0.0019219736620987998 0.0008604960335761719 0.002774565182457278 0.0006636941297972487 0.0013644823374418663 0.0009742519709354247
          0.0047198651953165305 0.0063849309271385435 0.004026775081672707 0.00554025150283366 0.004160347238892026 0.00752150606341262
          0.005754372619295456 0.004055663147187416 0.0032122556712352868 0.002506108646628036 0.0026090033685869374 0.0018483124730332978
          -0.0011603177251202634 -0.002933133762068496 -0.0018757545706313827 -0.6087826437513936 -0.0010754559812549136 -1.2623293297438165
          -0.0018727700295957384 -0.6902117759939227 -0.0007661922480184935 -0.0027493713543540743 -0.004201447144545456 0.00043318395315117275
          -0.0011283802320715686 -0.0009628840322434828 0.0002737348835103459 0.0007239580265502865 0.000708222222181254 0.002634301241227044
        </DataArray>
        <DataArray type="Float64" Name="resid_z" format="ascii" RangeMin="0" RangeMax="0">
          0 0 0 0 0 0
          0 0 0 0 0 0
          0 0 0 0 0 0
          0 0 0 0 0 0
          0 0 0 0 0 0
          0 0 0 0 0 0
          0 0 0 0 0 0
          0 0 0 0 0 0
          0 0 0 0 0 0
          0 0 0 0 0 0
          0 0 0 0 0 0
          0 0 0 0 0 0
          0 0 0 0 0 0
          0 0 0 0 0 0
          0 0 0 0 0 0
          0 0 0 0 0 0
          0 0 0 0 0 0
          0 0 0 0 0 0
          0 0 0 0 0 0
          0 0 0 0 0 0
          0 0 0 0 0 0
          0 0 0 0 0 0
          0 0 0 0 0 0
          0 0 0 0 0 0
          0 0 0 0 0 0
          0 0 0 0 0 0
          0 0 0 0 0 0
          0 0 0 0 0 0
          0 0 0 0 0 0
          0 0 0 0 0 0
          0 0 0 0 0 0
          0 0 0 0 0 0
          0 0 0 0 0 0
          0 0 0 0 0 0
          0 0 0 0 0 0
          0 0 0 0 0 0
          0 0 0 0 0 0
          0 0 0 0 0 0
          0 0 0 0 0 0
          0 0 0 0 0 0
          0 0 0 0 0 0
          0 0 0 0 0 0
          0 0 0 0 0 0
          0 0 0 0 0 0
          0 0 0 0 0 0
          0 0 0 0 0 0
          0 0 0 0 0 0
          0 0 0 0 0 0
          0 0 0 0 0 0
          0 0 0 0 0 0
          0 0 0 0 0 0
          0 0 0 0 0 0
          0 0 0 0 0 0
          0 0 0 0 0 0
          0 0 0 0 0 0
          0 0 0 0 0 0
          0 0 0 0 0 0
          0 0 0 0 0 0
          0 0 0 0 0 0
          0 0 0 0 0 0
          0 0 0 0 0 0
          0 0 0 0 0 0
          0 0 0 0 0 0
          0 0 0 0 0 0
          0 0 0 0 0 0
          0 0 0 0 0 0
          0 0 0 0 0 0
          0 0 0 0 0 0
          0 0 0 0 0 0
          0 0 0 0 0 0
          0 0 0 0 0 0
          0 0 0 0 0 0
          0 0 0 0 0 0
          0 0 0 0 0 0
          0 0 0 0 0 0
          0 0 0 0 0 0
          0 0 0 0 0 0
          0 0 0 0 0 0
          0 0 0 0 0 0
          0 0 0 0 0 0
          0 0 0 0 0 0
          0 0 0 0 0 0
          0 0 0 0 0 0
          0 0 0 0 0 0
          0 0 0 0 0 0
          0 0 0 0 0 0
          0 0 0 0 0 0
          0 0 0 0 0 0
          0 0 0 0 0 0
          0 0 0 0 0 0
          0 0 0 0 0 0
          0 0 0 0 0 0
          0 0 0 0 0 0
          0 0 0 0 0 0
          0 0 0 0 0 0
          0 0 0 0 0 0
          0 0 0 0 0 0
          0 0 0 0 0 0
          0 0 0 0 0 0
          0 0 0 0 0 0
          0 0 0 0 0 0
          0 0 0 0 0 0
          0 0 0 0 0 0
          0 0 0 0 0 0
          0 0 0 0 0 0
          0 0 0 0 0 0
          0 0 0 0 0 0
          0 0 0 0 0 0
          0 0 0 0 0 0
          0 0 0 0 0 0
          0 0 0 0 0 0
          0 0 0 0 0 0
          0 0 0 0 0 0
          0 0 0 0 0 0
          0 0 0 0 0 0
          0 0 0 0 0 0
          0 0 0 0 0 0
          0 0 0 0 0 0
          0 0 0 0 0 0
          0 0 0 0 0 0
          0 0 0 0 0 0
          0 0 0 0 0 0
          0 0 0 0 0 0
          0 0 0 0 0 0
          0 0 0 0 0 0
          0 0 0 0 0 0
          0 0 0 0 0 0
          0 0 0 0 0 0
          0 0 0 0 0 0
          0 0 0 0 0 0
        </DataArray>
        <DataArray type="Float64" Name="stress_zz" format="ascii" RangeMin="-6687426.199720544" RangeMax="6596673.112926573">
          3440334.4864685195 6231037.5165066365 3345483.040088089 5595782.790904896 3250631.5937076593 4960528.065303154
          -3650628.620084505 -6654135.874664757 -3592123.8457208793 -6670781.037192651 -3533619.0713572535 -6687426.199720544
          313038.3058756911 909423.1270374482 394775.0942465153 1177256.7862912202 476511.8826173395 1445090.445544992
          405904.18117803766 523573.2460001737 237848.84393270646 321283.507813551 69793.50668737522 118993.76962692826
          -1347712.76856215 -845630.5637606604 -1264725.4371176793 -810161.4963330827 -1181738.1056732088 -774692.4289055049
          -2963141.3557585557 -2990804.143281279 -2934582.9037486757 -2983594.755521425 -2906024.451738796 -2976385.367761571
          -732380.3626055655 -1792074.516268902 -1028205.1001968845 -2083159.1326329594 -1324029.8377882037 -2374243.748997017
          -2432946.66935541 -3367744.2814211445 -1660190.165315262 -2991884.1526248013 -887433.6612751143 -2616024.023828457
          515878.6711685514 657545.214188274 799211.7572079964 -192256.67318956347 -133005.7462675962 -73754.81934562896
          -43719.90961107836 -111778.75446758403 -179837.59932408968 -260066.6035056894 -364672.8067153857 -469279.009925082
          -2253670.049237857 -2117093.3623705935 -1980516.67550333 -2647354.9833197515 -2641886.2731721685 -2636417.5630245856
          62448.39704709774 -215497.82694011438 -493444.05092732643 119616.4322093866 687610.0550164044 1255603.6778234218
          152532.53080771567 70638.04931805865 -11256.432171598382 211577.70313267937 189559.57942463513 167541.45571659086
          138655.9175209102 86734.89049042924 34813.863459948305 -1261330.4272956436 -1283663.1190958754 -1305995.810896107
          -2668654.368101222 -2513734.835854114 -2358815.3036070066 -2058724.0891905914 -2140575.782790876 -2222427.476391161
          129654.41779457807 -119904.21734848163 -369462.8524915413 2289386.262705538 2265388.0599784832 2241389.857251429
          -63539.838588536586 -71748.78095788244 -79957.7233272283 230681.53314238705 188527.7249895583 146373.91683672956
          -432773.05895410647 -478742.0168690972 -524710.9747840877 -2150753.287880157 -2106676.1301904637 -2062598.9725007704
          -2420134.658791036 -2291215.1351613235 -2162295.6115316115 -1365118.377614973 -1529421.7702472077 -1693725.1628794423
          924764.9693841602 724227.0936849809 523689.21798580175 2460072.882595167 2667674.948639793 2875277.014684418
          49535.55679494361 21356.81313686328 -6821.930521217055 137212.2737400555 69006.00303493105 799.7323298066185
          -1413391.13620775 -1405136.5243199677 -1396881.912432185 -2562361.362301603 -2499074.096730156 -2435786.8311587083
          -1907935.9969596076 -1842297.3267841695 -1776658.6566087315 -850731.0796632557 -1058072.5813496774 -1265414.083036099
          1326484.4623066853 1172977.262930497 1019470.0635543088 2172144.492187796 2564721.052193818 2957297.61219984
          176597.2081213089 122595.51869686085 68593.82927241278 -589366.8883027988 -631341.5755976026 -673316.2628924064
          -2110242.292449377 -2051189.548754787 -1992136.805060197 -2039128.9712287295 -1999271.0313184124 -1959413.0914080953
          -1466509.1606080956 -1425281.2017031559 -1384053.242798216 -665533.428402276 -865103.8576621315 -1064674.2869219868
          1250071.5737319484 1117992.8794735072 985914.1852150658 2262062.124730362 2628047.207913521 2994032.291096681
          118111.1302201914 90714.56531120162 63318.000402211816 -247969.92165977042 -295983.0251621646 -343996.1286645587
          -1492276.1356496182 -1477435.8995886152 -1462595.6635276123 -1797091.3354921595 -1734185.688945228 -1671280.0423982956
          -1024108.5905569041 -1020492.8845108354 -1016877.1784647668 -976723.921902395 -932644.4126989221 -888564.9034954491
          -339925.41957642697 -528834.9418336697 -717744.4640909125 1405625.491941838 1311779.9283207615 1217934.3646996848
          2109556.4566717665 2497822.6222170503 2886088.7877623336 97703.46266731517 50705.96278298673 3708.462898658272
          -1269476.8237330997 -1259545.7948976543 -1249614.7660622087 -1977698.7346745408 -1937788.5340976198 -1897878.3335206988
          -915510.4639788546 -904750.1454139273 -893989.8268489998 -313073.5421948484 -306106.76297644124 -299139.98375803407
          -409958.26490534825 -369045.7164285209 -328133.16795169376 272904.47159052 84163.40591201115 -104577.65976649773
          1885527.7864036271 1821829.5139864022 1758131.241569177 2221816.171303563 2606314.7503600284 2990813.3294164953
          -502798.30964269425 -546503.2024949627 -590208.0953472313 -2300051.8239960223 -2246417.8415596257 -2192783.8591232295
          -2000848.183949034 -1986976.421769651 -1973104.6595902676 -655671.4939525038 -683878.004536858 -712084.515121212
          -275226.8865669904 -246889.32466571016 -218551.76276442996 -118927.17174375044 -94454.89856047145 -69982.62537719242
          931017.5610060354 725654.6757414035 520291.79047677154 2611843.005678745 2534351.597569161 2456860.1894595777
          3033095.5427828105 3373945.0982496273 3714794.6537164445 -1528522.5777177783 -1511844.4638749198 -1495166.3500320616
          -3056131.766369654 -2953924.531324669 -2851717.2962796837 -1734186.3018381756 -1744076.5751098252 -1753966.8483814746
          -914695.7604551603 -930665.0875106073 -946634.4145660545 -532308.9125553711 -502266.61563601095 -472224.31871665095
          171831.91928851957 175088.37347972457 178344.82767092952 1568209.8761330952 1397887.101665434 1227564.3271977734
          3125649.0186486673 3073175.7265971806 3020702.4345456935 3827354.2251772974 4036568.016923396 4245781.808669494
          -2416462.658157709 -2364120.0180837926 -2311777.3780098762 -3373732.730236329 -3248258.020110057 -3122783.309983785
          -1964807.8296129704 -1954837.880498595 -1944867.93138422 -1309832.8004734106 -1295629.6104998565 -1281426.4205263027
          -368770.6742130162 -365490.04171205 -362209.4092110838 870004.4314369602 858657.1692146265 847309.9069922925
          2155112.9263841547 2071572.0208409922 1988031.115297831 2759064.5112455185 2747921.61101593 2736778.7107863408
          3872166.171557388 4008318.1480455524 4144470.1245337166 -3235878.115873077 -3152736.1720626187 -3069594.228252161
          -3573750.4704679814 -3473808.700328879 -3373866.9301897776 -2535901.3489965852 -2513978.0428219372 -2492054.7366472892
          -1210892.3145697368 -1202398.842816174 -1193905.3710626112 394650.5162767196 373088.7370598874 351526.9578430552
          1668097.875741609 1651427.4907149787 1634757.1056883489 2475115.691120633 2416685.1767291143 2358254.6623375956
          2861779.1974076875 2806508.7585422425 2751238.319676797 3951848.1894176295 4085298.1353978286 4218748.081378029
          -4084508.047416566 -3998818.8908312996 -3913129.7342460332 -3808202.5736483387 -3703090.673368211 -3597978.7730880836
          -2381699.662969667 -2368844.0495433807 -2355988.4361170945 -400134.2307334786 -416228.95556350204 -432323.68039352534
          1359558.8693266588 1329801.9807941408 1300045.0922616227 2416919.725019494 2394402.582787326 2371885.440555158
          2886594.158431823 2838205.708931813 2789817.259431803 3336537.574667508 3284494.325664661 3232451.076661815
          2755930.118594963 2810309.8933757087 2864689.6681564557 -4858465.054774329 -4827665.540253575 -4796866.02573282
          -3725561.3011944164 -3584538.3975900766 -3443515.493985736 -1454125.5418632808 -1476913.4622196066 -1499701.3825759327
          666143.0146499345 634080.0079254981 602017.0012010615 2252231.8039458464 2220560.935628016 2188890.0673101856
          3174867.3628695286 3147838.3504381105 3120809.338006692 3520233.2013323815 3494021.648282396 3467810.0952324113
          3213389.2095521213 3177490.7526075337 3141592.295662946 2701056.431999705 2723378.1672893846 2745699.9025790645
          -3138806.2194137466 -2951769.424176232 -2764732.628938718 -137061.7806809426 -213847.25152938312 -290632.72237782367
          1844767.3155105761 1799556.6455460954 1754345.9755816145 3066370.4982786346 3035515.2792501976 3004660.0602217615
          3752448.5404853937 3717818.2578305937 3683187.975175794 3991595.8511365023 3968843.8105345047 3946091.7699325075
          3519061.729519575 3514229.0748127857 3509396.4201059965 1636524.2004521438 1760340.5587092696 1884156.916966395
          -1993836.3764570926 -1762006.6407703473 -1530176.9050836025 1406589.7922231755 1274069.1244768866 1141548.4567305981
          3061477.278134111 3011957.149503912 2962437.0208737124 3849572.8945338656 3822977.4480815455 3796382.001629225
          4078883.8333149767 4033333.333745255 3987782.834175533 3876916.3646605215 3852648.225743442 3828380.086826362
          3269862.7262010844 3309952.911142269 3350043.0960834525 1836142.5215040678 2016391.0097119224 2196639.4979197774
          -523166.02105011046 -210449.28314589593 102267.45475831872 2968694.4958206397 2788637.057197123 2608579.618573606
          4202507.123412398 4150262.9576059887 4098018.7917995816 4570016.408921745 4544917.044677199 4519817.680432654
          4305266.660828493 4254785.751693343 4204304.842558192 3206693.3711500955 3244538.664750232 3282383.9583503683
          1280528.9071280141 1391895.8323740794 1503262.7576201442 612667.3376332816 504434.58751394524 396201.83739460865
          945721.1962276916 1405576.2193150246 1865431.2424023575 4372547.468140043 4158472.2774357456 3944397.086731448
          5131698.192009573 5074352.995607154 5017007.799204738 5017292.858679829 4992082.150636563 4966871.442593297
          4257719.351181846 4201835.611579401 4145951.8719769577 2390963.926126065 2534579.4533382 2678194.980550336
          -1015291.6593949494 -777151.3950428166 -539011.130690684 -2918939.42573929 -3335146.114952577 -3751352.804165864
          5507339.445174621 5272590.395824055 5037841.346473489 5727525.611022687 5661822.901785789 5596120.1925488915
          5009483.30709944 4988140.364854131 4966797.422608822 3692208.1782511575 3625850.441553325 3559492.7048554914
          1369327.7213560678 1555364.3942584633 1741401.067160859 -1904932.457264184 -1744724.628964167 -1584516.8006641497
          -2623711.531478286 -3262208.119980852 -3900704.7084834184 6279906.349460247 6034904.838932598 5789903.32840495
          5899875.743744744 5816375.555847293 5732875.367949842 4553296.15825483 4532481.500999169 4511666.843743507
          2813547.5308185364 2733693.4624026697 2653839.393986803 476832.5012712327 687555.6777195598 898278.8541678868
          -1770662.9147064816 -1771495.3165572174 -1772327.7184079532 -1806105.1542941516 -2450020.3787961616 -3093935.6032981714
          6596673.112926573 6356940.144724935 6117207.176523297 5620488.728264583 5509356.983033712 5398225.237802841
          3769550.217856882 3740947.2878680034 3712344.3578791255 1854697.4322970402 1770670.6793133405 1686643.92632964
          -288258.40394349763 -53921.39257996726 180415.6187835631 -2195510.8578119166 -2256610.2949288175 -2317709.7320457175
          6350303.491432019 6135756.312581478 5921209.133730937 4808680.524164672 4674501.609452052 4540322.694739431
          2579448.5302267703 2547190.130602965 2514931.73097916 587930.6971067267 515414.8905256053 442899.08394448383
          -1479444.8559334846 -1260106.1809762458 -1040767.5060190067 2550354.016042745 1304515.0231255165 2389423.917557492
          2256996.6127181184 2344528.498401366 1286030.329072007 2442626.2550394707 2109987.262748032 2138702.9807599876
          1267545.6350184972 2495828.5925214496 1962977.9127779466 -215630.0782840266 -737336.0749731585 1736102.938945068
          936057.6428569015 -583599.6852484898 -1117341.2942623203 1620581.2077686847 857260.479544393 -951569.2922129531
          -1497346.5135514825 1505059.4765923019 778463.3162318845 1689751.985888098 -1504571.4498024904 -2639685.4200123716
          2045734.0677921753 -1434922.811724026 -3215982.8536833012 2401716.149696253 -1365274.173645561 -3792280.287354232
          4721940.689327129 5377100.814734457 6032260.940141785 2205279.0198160545 4266338.253840692 2477387.345444234
          3277361.450612468 2236199.305053239 4411451.399739131 2324134.7719928524 3080254.0189104322 2267119.590290424
          4556564.54563757 2170882.1985414703 2883146.5872083954 596452.960184274 1450855.4820063484 290860.45637396385
          1406847.4448481493 -14732.047436346285 1362839.4076899504 4387254.2450541565 4375211.600386239 881892.9180846966
          4482634.25050375 4662959.434816237 1074851.3191616668 4578014.255953342 4950707.269246235 1267809.7202386372
          1514221.5629962445 -794926.101559785 1477113.88661911 -1062726.6458667978 1440006.2102419757 -1330527.1901738106
          114991.86414354593 -501182.7814944433 -152844.02567687986 -429910.25655408174 -420679.9154973059 -358637.73161372
          279299.0111166694 198182.6771289036 117066.34314113788 3442342.6321148677 4164694.308187677 3286175.6398138343
          4288525.943067306 3130008.6475128005 4412357.577946936 -1357485.1065786388 -1899573.1032241397 -1498431.4193805864
          -2477337.115435873 -1639377.7321825335 -3055101.1276476067 4448591.925536271 1481224.9186503822 4638544.740143739
          1478188.6884262713 4828497.554751206 1475152.4582021607 2920810.0738033243 1869522.8931355623 2747971.8436753997
          1790946.542726061 2575133.6135474755 1712370.1923165598 639557.1806266141 774769.6190808116 909982.0575350092
          483206.4979028703 -26442.01873741299 818982.2091357178 546041.7108889946 1154757.9203685652 1118525.440515402
          674612.2779339076 286863.1520417724 -100885.97385036289 -2872217.615950914 -2310575.0941704996 -1748932.5723900853
          -2271087.4538433966 -3122400.948804447 -3973714.4437654964 -6662628.040480051 -5409576.576464492 -4156525.112448934
          -2386353.1231437004 -2585637.4099812354 -2784921.6968187704 -3734700.843194362 -3250517.088001987 -2766333.3328096117
          -3072378.9390713014 -2450351.9431366418 -1828324.9472019821 -3024818.7003381983 -3502797.7538105566 -3980776.8072829135
          -3418719.3587698834 -3500757.646533069 -3582795.934296256 -4299275.948325034 -4721051.606141472 -5142827.263957908
          3307098.66174712 5409268.744894399 3157538.1627490735 5227996.494764904 3007977.6637510266 5046724.244635409
          780811.5274720588 744872.0108312084 708932.4941903576 -1204299.054365321 -1263741.609622295 -1323184.164879269
          -2964651.125288266 -2772775.6129934555 -2580900.1006986443 -4235672.246644196 -4302966.660069404 -4370261.073494613
          -580673.78226967 -124559.93354078793 331553.91518809425 462873.33055298706 705270.6635410324 947667.9965290774
          1343368.9316254 4039821.007213436 1086703.7121874904 3965245.8407416837 830038.4927495806 3890670.674269931
          -1087858.5529797364 -3531035.818259936 -1149547.6618063662 -3590538.570944931 -1211236.7706329962 -3650041.3236299264
          -132638.86609381426 -625215.9427558081 -72611.65247604964 -609130.4914347499 -12584.43885828508 -593045.0401136915
          -707369.3068300667 -716018.4328015571 -724667.5587730475 -3960952.5295911096 -3955339.654475062 -3949726.779359015
          658029.0354529349 351593.41560949665 520608.9024469786 236657.48043683404 383188.7694410223 121721.54526417152
          2407392.0712590073 2476495.5351236844 2545598.998988361 2103619.0865117162 4126753.3863660796 2152076.3052417114
          4326426.743655035 2200533.5239717076 4526100.10094399 -1939531.8670135308 -1521025.8354247375 -1102519.8038359447
          -2263648.450166378 -2265369.2716713753 -2267090.093176373 -3632594.0288662687 -3969863.6068024794 -3526457.739736648
          -4310834.076955222 -3420321.450607026 -4651804.547107965 -3332445.8962935084 -3458922.5335796047 -3585399.1708657006
          -5532866.856350502 -5812061.2844663365 -6091255.712582169 -1537730.1139940366 -1221764.7041508364 -905799.2943076363
        </DataArray>
        <DataArray type="Float64" Name="peeq" format="ascii" RangeMin="0" RangeMax="0.007886681321252776">
          0.00012191854006211845 0.00022339018085137255 0.00013058621029785327 0.0002435017168433835 0.00013925388053358806 0.0002636132528353945
          0.000014219569591991639 0.000020011674237082312 0.000013361004584466253 0.000019437369060122893 0.000012502439576940867 0.000018863063883163467
          0.0000034051292375014044 0.000006810258475002809 0.0000017025646187507022 0.0000034051292375014044 0 0
          0 0 0 0 0 0
          0.0000066963904969941865 0 0.000007577427194965326 7.916982930227659e-8 0.000008458463892936466 1.5833965860455317e-7
          0.00010495458242162571 0.00007235882272188087 0.00010731951800016738 0.00007415752512052488 0.00010968445357870905 0.0000759562275191689
          0.0003817254073686946 0.00033131981371080826 0.00038805368714584675 0.00033841180857199804 0.0003943819669229988 0.00034550380343318775
          0.0008283057736464951 0.0008097772117726856 0.0008430781074895702 0.0008240903793417027 0.0008578504413326453 0.0008384035469107198
          0.000010223449636432183 0.000008835351876161493 0.000007447254115890804 0.000004213732473450481 0.000003642320054404807 0.0000030709076353591326
          0 0 0 3.053990309380524e-7 5.239535264532401e-7 7.425080219684277e-7
          0.00003705818125004891 0.00003906459209335798 0.00004107100293666705 0.0002045138308305957 0.0002074303415982453 0.00021034685236589492
          0.0005368149221133728 0.000541965159463542 0.0005471153968137112 0.0009869516416546175 0.0010010683984890151 0.0010151851553234126
          0 0 0 0 0 0
          0 0 0 0.00001141114275313157 0.0000125998027552786 0.000013788462757425626
          0.00011008640969854629 0.00011289840157770528 0.00011571039345686427 0.0003697556273071298 0.00037225262919643264 0.0003747496310857355
          0.0007766546406402024 0.0007809511626003709 0.0007852476845605392 0.001262864501356343 0.001274941602357946 0.0012870187033595488
          0 0 0 0 0 0
          7.714466889486157e-7 0.0000011197318541659104 0.0000014680170193832053 0.00004891768429386259 0.00005123808364176784 0.000053558482989673095
          0.00023708091146897224 0.0002402629269818926 0.00024344494249481298 0.0005916075873713748 0.0005932988507571283 0.0005949901141428819
          0.00106440973012079 0.00106803572644171 0.0010716617227626295 0.0015710545729091373 0.001581911331582001 0.0015927680902548648
          0 0 0 0 0 0
          0.000014953983211379143 0.00001629642402617216 0.000017638864840965176 0.00013019129716204358 0.00013346487944798104 0.0001367384617339185
          0.00041832701259451844 0.00042119273234444987 0.0004240584520943813 0.0008601703066533843 0.0008612114644677286 0.000862252622282073
          0.0013978466504352034 0.0014013035497474967 0.0014047604490597903 0.0019625760256364315 0.0019725160143772556 0.00198245600311808
          0 0 0 0.0000030838554871391152 0.000003703458167708309 0.000004323060848277503
          0.00006358981851905652 0.00006630813367976664 0.00006902644884047675 0.00027275181895889186 0.0002766823706818955 0.0002806129224048992
          0.0006540058519054697 0.0006565914875895688 0.0006591771232736679 0.0011779947330533684 0.0011786569968933263 0.0011793192607332842
          0.0017887493038153388 0.0017920997374400237 0.0017954501710647085 0.002424329800614407 0.0024325928679140695 0.0024408559352137316
          0 0 0 6.219648470690467e-8 2.195832758309022e-7 3.7697006695489973e-7
          0.000029718079355208815 0.00003151420596622351 0.0000333103325772382 0.00017178400420658776 0.0001755981629785527 0.0001794123217505176
          0.0004814367129623672 0.00048535613667977074 0.0004892755603971745 0.0009507367110004649 0.0009530195276079905 0.0009553023442155162
          0.0015565211213787108 0.0015567015425793492 0.0015568819637799879 0.002233508514223802 0.0022362458349028578 0.002238983155581914
          0.0029169854984153537 0.002923170505078861 0.0029293555117423683 0 0 0
          0.000011060164783288745 0.000012004069087477933 0.000012947973391667122 0.00010205928615452841 0.00010507261504586295 0.0001080859439371975
          0.0003451467790950394 0.00034931097384819905 0.0003534751686013587 0.0007515516478210114 0.0007552109749585584 0.0007588703020961055
          0.001313442117789164 0.0013151215530610807 0.001316800988332997 0.0020000702952093245 0.0019993448520547056 0.0019986194089000866
          0.002723726238601066 0.002725322925154448 0.0027269196117078306 0.00341454773631536 0.00341875751832786 0.00342296730034036
          0 2.9240537251863538e-8 5.8481074503727076e-8 0.000046114503501807 0.000047892402056787245 0.000049670300611767504
          0.00022418171336683416 0.00022809825113471294 0.00023201478890259178 0.0005713173881345205 0.0005754460609371609 0.0005795747337398014
          0.0010800314398410182 0.0010832696476249205 0.0010865078554088228 0.0017404829104895995 0.0017413189986564383 0.0017421550868232773
          0.0025004712891197292 0.0024986301542125025 0.0024967890193052763 0.0032458433402658 0.0032459330601831305 0.003246022780100462
          0.0038988305886428006 0.0039010963473511575 0.003903362106059515 0.000005254930799141284 0.000006234100884594015 0.0000072132709700467465
          0.00010785182466856626 0.00011094319806450254 0.00011403457146043881 0.0003915005021112572 0.00039586661574105025 0.0004002327293708432
          0.000851182683016598 0.0008551233895720346 0.0008590640961274714 0.00147431630658602 0.00147684118918195 0.0014793660717778803
          0.0022300022653719688 0.0022297574719240907 0.002229512678476213 0.003036443146379347 0.003033455909733604 0.003030468673087862
          0.0037740963283214492 0.003772552210372331 0.003771008092423212 0.004370583948015726 0.0043706214002226795 0.004370658852429633
          0.00003077697312469661 0.00003325773327756008 0.000035738493430423544 0.00020953998269533292 0.00021448919954132124 0.0002194384163873096
          0.0006063918928588283 0.0006111308435237509 0.0006158697941886736 0.001195887742051086 0.0011993874967407248 0.0012028872514303636
          0.0019432924312121583 0.0019446267980719795 0.0019459611649318004 0.0027766846349578994 0.0027750216598234957 0.002773358684689093
          0.0035941393221121535 0.0035900248271613024 0.0035859103322104504 0.004301635439695462 0.004298399328794527 0.004295163217893591
          0.00494068503890366 0.004938290128169818 0.004935895217435977 0.00008963521535470552 0.00009395701986031472 0.0000982788243659239
          0.00037114522360871577 0.0003772683736548111 0.0003833915237009064 0.0008936266405495856 0.0008985595688956472 0.0009034924972417088
          0.0016235687184315616 0.0016261407687601479 0.001628712819088734 0.0024828675855774755 0.0024825049348191856 0.002482142284060895
          0.003364293098599103 0.003361072971943251 0.0033578528452873992 0.0041674894294247 0.004162366755102848 0.0041572440807809965
          0.0048189958506834685 0.004814325648624716 0.0048096554465659625 0.005279914793848754 0.005276774069294956 0.005273633344741157
          0.00019700892355085096 0.00020312647928031862 0.00020924403500978628 0.0006071755459813251 0.0006138114151456249 0.0006204472843099248
          0.0012757006351742082 0.0012801696022049045 0.0012846385692356012 0.002138340203675092 0.002139310671257954 0.0021402811388408164
          0.0030780526556192763 0.0030757278941631696 0.0030734031327070625 0.003972506424812045 0.003967772802152118 0.003963039179492192
          0.00472832086464973 0.004722314798502125 0.004716308732354518 0.005282303569565472 0.005276679985150537 0.0052710564007356015
          0.005602486776969057 0.005597947835325665 0.005593408893682275 0.0003702164459595499 0.0003770088914737369 0.0003838013369879239
          0.0009308217281361704 0.0009373394738644854 0.0009438572195928003 0.0017546558368444678 0.0017577570831613972 0.0017608583294783273
          0.0027285986611336167 0.002727483306044109 0.0027263679509546006 0.003711129509716326 0.003706848879423019 0.0037025682491297124
          0.004578082193706763 0.00457192858204543 0.004565774970384098 0.005242368904108828 0.005235650696023157 0.005228932487937487
          0.005659133417637097 0.005653039371097792 0.005646945324558487 0.005824141800452964 0.0058185765032751705 0.005813011206097379
          0.0013553225330306929 0.0013610120539199926 0.0013667015748092923 0.0023277844424720497 0.002328813408050776 0.002329842373629502
          0.003379872274928325 0.0033763888589740613 0.0033729054430197978 0.004358863331401414 0.004352817087603754 0.004346770843806094
          0.00515255840464076 0.005145320781957681 0.005138083159274602 0.005688041126705252 0.005680859134212836 0.005673677141720421
          0.005935803461006595 0.005929718111161363 0.005923632761316127 0.005926559668206668 0.005920818209470985 0.005915076750735304
          0.0018937536367164237 0.001897799485107956 0.001901845333499488 0.0029892417124684247 0.00298776438304133 0.0029862870536142344
          0.004072277116965868 0.004066363282183252 0.004060449447400637 0.004993125167509674 0.004985569197386008 0.0049780132272623425
          0.0056636887342214805 0.005655959322052218 0.005648229909882955 0.006040560308927082 0.00603378995483197 0.006027019600736857
          0.006120652158356087 0.006114877368422651 0.006109102578489214 0.005948283988928903 0.005941881140850972 0.005935478292773039
          0.002552524878268763 0.0025543108584062018 0.00255609683854364 0.0037237488170625446 0.0037198237032378518 0.0037158985894131576
          0.004780757392294407 0.004772641153185712 0.004764524914077015 0.005587963913954542 0.005579166748089486 0.005570369582224429
          0.006086843935032633 0.006079183015635826 0.006071522096239018 0.006274457396016812 0.006269195092902747 0.006263932789788683
          0.006202617849531442 0.006197466115573877 0.0061923143816163114 0.0059481125346780685 0.005939370292114314 0.00593062804955056
          0.003327471523799537 0.0033268299817765085 0.003326188439753479 0.004507347654924925 0.004501556654670523 0.004495765654416119
          0.005475624669987814 0.0054658429633663306 0.005456061256744846 0.0061188405270651445 0.006109301268833301 0.006099762010601458
          0.006410887831501646 0.006403768658268243 0.0063966494850348395 0.0063872792106023256 0.006383737705999322 0.006380196201396317
          0.006151065521409741 0.006146301664257347 0.006141537807104955 0.00582574923510918 0.005813748496549326 0.005801747757989471
          0.005310831293796824 0.0053041015801837356 0.005297371866570647 0.006124834739214946 0.006114125129903474 0.006103415520592003
          0.006558151958782185 0.006548567776025908 0.0065389835932696296 0.006618939822714156 0.0066128587864096025 0.006606777750105049
          0.006373548594042801 0.006371346456121337 0.006369144318199873 0.005941450808276669 0.005936321082071099 0.0059311913558655295
          0.005417889585552754 0.005405499471830242 0.005393109358107731 0.006100890335874205 0.006094225195482092 0.006087560055089978
          0.006693593809575675 0.006682759168848232 0.00667192452812079 0.006870423358254514 0.006861414596596348 0.006852405834938183
          0.006670976632324489 0.006666179253456975 0.006661381874589462 0.006181657586330303 0.0061803722485968575 0.006179086910863414
          0.005519378285659301 0.005514156125965043 0.005508933966270786 0.004756786666527574 0.004748277595807593 0.004739768525087612
          0.006835662885611925 0.006829871256429278 0.00682407962724663 0.007137816509793138 0.007127631652317298 0.007117446794841459
          0.00700714053901427 0.00699923165468538 0.006991322770356491 0.006511469563640869 0.006508158161414431 0.006504846759187994
          0.005756925240687785 0.005756866831171441 0.005756808421655097 0.004876275009480081 0.004872713465973848 0.004869151922467614
          0.007457450779465789 0.007452998852907775 0.007448546926349762 0.007398578194226239 0.007389821866775272 0.007381065539324305
          0.006911606457592581 0.006905511836710086 0.006899417215827591 0.006098742106577626 0.006097534020742297 0.0060963259349069675
          0.005099476725447333 0.005101609215098883 0.005103741704750434 0.005272105781640434 0.005743838776877674 0.005766220278838801
          0.005540748031610816 0.00526741567133874 0.005736217253019946 0.005759330443711715 0.005533282732550748 0.005262725561037048
          0.00572859572916222 0.00575244060858463 0.005525817433490683 0.004619050367255228 0.004911306232912488 0.004451998657597987
          0.004056154495712516 0.004610523022575665 0.004902106573236803 0.004448262877623569 0.004053635774459822 0.004601995677896102
          0.004892906913561118 0.004444527097649151 0.004051117053207127 0.0042917183976307356 0.003941787419713622 0.004842381839793101
          0.004296095403209586 0.003943927961131131 0.004834735428381641 0.004300472408788437 0.00394606850254864 0.00482708901697018
          0.003943318821721688 0.003951756526698846 0.003960194231676005 0.005714227233819401 0.005560113103959862 0.005666384143929903
          0.005650041895221527 0.005708051535680225 0.00555487574168238 0.005657018248622568 0.005641404236590326 0.005701875837541047
          0.005549638379404898 0.005647652353315232 0.005632766577959126 0.004172534917534783 0.003574790976386911 0.004165865721392916
          0.003574994565301177 0.00415919652525105 0.0035751981542154433 0.004970095921402371 0.004326143437144655 0.004363558039002222
          0.0049690393612792936 0.0043286840304601545 0.004366797620424038 0.004967982801156217 0.004331224623775655 0.004370037201845854
          0.0030512354381519832 0.0036653942843929625 0.0030554399989130582 0.0036616977886963767 0.0030596445596741337 0.0036580012929997912
          0.00529382999262242 0.004478261646135506 0.0052869040668746484 0.004480669608361136 0.005279978141126877 0.004483077570586766
          0.0053219075694084395 0.005312779216171777 0.005303650862935113 0.005141732846487444 0.004446986561859512 0.005139092341971714
          0.004449908095485008 0.005136451837455983 0.0044528296291105034 0.005621069235623199 0.005287660152326211 0.005613222628508541
          0.005282008171619175 0.005605376021393884 0.005276356190912139 0.0054045350313829356 0.005506679277101069 0.005399883416973836
          0.005498721241482677 0.005395231802564736 0.005490763205864286 0.004807681583032762 0.005181792408090424 0.004802727757698038
          0.00517546630971137 0.004797773932363313 0.005169140211332318 0.00253568789484238 0.0025447392621154212 0.002553790629388462
          0.0017809702416078095 0.0020675201715236544 0.0017960169283257135 0.0020808108258760323 0.001811063615043617 0.00209410148022841
          0.005047538590750268 0.005037997100643999 0.005028455610537729 0.001615341633777811 0.001630683015447625 0.001646024397117439
          0.005469744438497157 0.0054559139757461815 0.005442083512995205 0.0013803054145387448 0.0013966154035949562 0.0014129253926511674
          0.0031583187821068413 0.0031585373141236276 0.0031587558461404143 0.002652476573776987 0.002657214208205692 0.0026619518426343972
          0.002273062169065026 0.002281628787295144 0.0022901954055252623 0.003976745296968693 0.003973199485244885 0.003969653673521076
          0.00408045822452894 0.004080052116645572 0.004079646008762205 0.0031776877951465504 0.003178138097368439 0.0031785883995903274
          0.007404293654497863 0.007886681321252776 0.0073979348156411814 0.007883815158692223 0.0073915759767845 0.00788094899613167
          0.0065341480051696555 0.00653095761197438 0.0065277672187791045 0.005426949428909326 0.005428736676587989 0.005430523924266651
          0.0042626094317480805 0.004267458078753917 0.004272306725759751 0.0032239853311293535 0.003226629992361721 0.003229274653594088
          0.003111436678736967 0.0031215926488230962 0.003131748618909225 0.003167254418125666 0.0031748661255836825 0.0031824778330416994
          0.005621389705764093 0.00533197082815442 0.0056128773152298445 0.005328796154532062 0.005604364924695595 0.005325621480909702
          0.0033816429886674637 0.003387595639278769 0.003385758358291898 0.0033920232509196367 0.003389873727916332 0.0033964508625605044
          0.005073154762351675 0.005368603048387404 0.005067876011706684 0.005362180195709559 0.005062597261061693 0.005355757343031714
          0.0047180848730862856 0.004712887108343523 0.004707689343600762 0.0033426743102188596 0.0033481389756373557 0.0033536036410558518
          0.005587071900961121 0.005635775747244807 0.005577988910315679 0.0056302284563240455 0.005568905919670237 0.005624681165403284
          0.0035293144551177434 0.003534129544704843 0.003538944634291943 0.003873503837149294 0.00464226082094849 0.00387682481321127
          0.00464647568753212 0.0038801457892732464 0.004650690554115752 0.0031426731356518356 0.0031500714617143217 0.0031574697877768078
          0.004325954863209586 0.00432054656741881 0.004315138271628031 0.002039590122667174 0.0026912346196846858 0.0020474584429107843
          0.0026934982674364965 0.002055326763154395 0.0026957619151883063 0.003929585140349249 0.003923897899535423 0.003918210658721596
          0.00347090957852469 0.0034664807581011934 0.0034620519376776966 0.0024672791221436864 0.0024787837045474534 0.0024902882869512204
        </DataArray>
        <DataArray type="Float64" Name="pe11" format="ascii" RangeMin="0" RangeMax="0.007879736209908676">
          0.00012115651806480718 0.0002218944894581152 0.0001294412711855047 0.0002412330663931052 0.00013772602430620222 0.0002605716433280952
          0.00001415599978254133 0.000019894613548745877 0.000013248671756847708 0.000019221360602004214 0.000012341343731154084 0.000018548107655262555
          0.0000034008737883523705 0.000006801747576704741 0.0000017004368941761852 0.0000034008737883523705 0 0
          0 0 0 0 0 0
          0.000006695221429839651 0 0.0000075762247833761015 7.91670692302923e-8 0.000008457228136912553 1.583341384605846e-7
          0.0001049192066909223 0.00007234689078094634 0.0001072848314314906 0.00007414498608137904 0.00010965045617205888 0.00007594308138181173
          0.00038151614637051574 0.00033114985153595995 0.0003878507735823925 0.00033824839006763556 0.0003941854007942693 0.00034534692859931117
          0.0008276097542705518 0.0008090754865852348 0.0008423372496850256 0.0008233064565975609 0.0008570647450994996 0.0008375374266098869
          0.000010209273335749576 0.000008824737988952108 0.00000744020264215464 0.000004208693008168391 0.0000036379914558455982 0.0000030672899035228054
          0 0 0 3.053456532479322e-7 5.238734915344053e-7 7.424013298208784e-7
          0.00003704167750031265 0.00003904919903430986 0.00004105672056830706 0.00020438080092696515 0.00020730354302475287 0.00021022628512254058
          0.0005363664650508481 0.0005415315374585916 0.000546696609866335 0.0009861368206935247 0.001000244146487267 0.0010143514722810091
          0 0 0 0 0 0
          0 0 0 0.000011405963953360682 0.000012594717505498593 0.000013783471057636503
          0.00011001354401799688 0.00011282991241475238 0.00011564628081150785 0.0003694092947739587 0.00037192100292343644 0.00037443271107291416
          0.000775712302818387 0.0007800339748715783 0.0007843556469247698 0.0012614215735755078 0.001273491337745135 0.0012855611019147628
          0 0 0 0 0 0
          7.713519662547271e-7 0.0000011195563749432662 0.0000014677607836318054 0.0000488884748005586 0.000051209515537395574 0.000053530556274232546
          0.00023687036830166963 0.00024006139108938233 0.00024325241387709504 0.0005908703114690852 0.0005925841739402399 0.0005942980364113945
          0.001062744654144241 0.0010664008268356946 0.0010700569995271483 0.0015686779224222593 0.0015795512398840794 0.001590424557345899
          0 0 0 0 0 0
          0.000014947645158898626 0.000016289440513205743 0.00001763123586751286 0.00013008880150601365 0.00013336275878765452 0.00013663671606929537
          0.0004178304552205002 0.0004207086944927441 0.0004235869337649881 0.0008587984109164485 0.000859867862197417 0.0008609373134783856
          0.0013952867844824167 0.0013987780162854715 0.0014022692480885265 0.001959312917520206 0.001969275599888169 0.0019792382822561316
          0 0 0 0.0000030829357669472836 0.0000037022667698541016 0.0000043215977727609196
          0.0000635437074691392 0.00006626088974906725 0.00006897807202899527 0.00027245391089744805 0.0002763843989428767 0.00028031488698830544
          0.0006529975663710685 0.0006555975478881361 0.0006581975294052037 0.0011757854976084151 0.0011764765823472387 0.001177167667086062
          0.0017852934632957007 0.0017886697013780358 0.001792045939460371 0.0024201924881221584 0.002428443591494531 0.0024366946948669033
          0 0 0 6.218149310277858e-8 2.1952520789637948e-7 3.768689226899804e-7
          0.000029698973729160453 0.00003149443372008839 0.00003328989371101633 0.00017161088054372476 0.0001754238096882915 0.00017923673883285825
          0.00048072746001895535 0.0004846482876850176 0.0004885691153510798 0.0009489395040223587 0.0009512396209066285 0.0009535397377908982
          0.00155336862992537 0.0015535732269206935 0.0015537778239160167 0.0022293153004410435 0.002232054079820821 0.002234792859200599
          0.002912270055560529 0.0029183988955367593 0.0029245277355129887 0 0 0
          0.000011054920068111411 0.000011998461191876385 0.00001294200231564136 0.00010197480301261151 0.00010498635598659627 0.00010799790896058104
          0.00034468902238934414 0.0003488511562455561 0.00035301329010176813 0.0007501373260523893 0.0007538010054228234 0.0007574646847932576
          0.0013105749674779052 0.0013122770190890135 0.0013139790707001218 0.001995947606446596 0.0019952426576731455 0.0019945377088996952
          0.0027190851257150555 0.002720656630015028 0.0027222281343150015 0.00340982306184898 0.0034139319701112893 0.0034180408783735976
          0 2.9230738153338045e-8 5.846147630667609e-8 0.0000460876496941086 0.00004786419053581745 0.000049640731377526303
          0.0002239356217728482 0.0002278477384480815 0.00023175985512331477 0.0005703091963088032 0.0005744352018328399 0.0005785612073568766
          0.0010775569800512733 0.0010808034662219475 0.0010840499523926217 0.0017363425109212325 0.001737204088953715 0.0017380656669861974
          0.0024954372093125054 0.0024936103945970944 0.002491783579881683 0.0032409971977466505 0.0032410427398382883 0.0032410882819299265
          0.0038944455181629868 0.0038965792156253026 0.003898712913087617 0.000005253105818586313 0.000006231616543778937 0.0000072101272689715595
          0.00010776294532728724 0.0001108494637277131 0.00011393598212813896 0.0003908963092564365 0.00039525396844510913 0.00039961162763378177
          0.0008492216227741485 0.000853161632843136 0.0008571016429121236 0.001470401088132053 0.001472938314425436 0.0014754755407188193
          0.002224544155284036 0.002224317400556676 0.0022240906458293156 0.0030307147763196044 0.003027724626311271 0.0030247344763029366
          0.0037692091712147524 0.0037676085489097002 0.0037660079266046476 0.004366560961272493 0.004366452424992429 0.004366343888712364
          0.000030760223007332365 0.00003323764569741269 0.000035715068387493015 0.00020927060184222656 0.00021420863080117612 0.0002191466597601257
          0.0006050525874670124 0.0006097812092759167 0.0006145098310848208 0.0011924330888745168 0.001195937623470249 0.001199442158065981
          0.0019376209712811017 0.0019389696089409084 0.001940318246600715 0.0027700607509871158 0.00276840512388544 0.0027667494967837645
          0.0035882536807432166 0.0035841237173343445 0.0035799937539254725 0.004297447961989133 0.0042941548611665275 0.004290861760343923
          0.004938020893348511 0.0049354952720268835 0.004932969650705257 0.0000895478286542797 0.00009385937660744218 0.00009817092456060466
          0.0003703951326585539 0.00037649791946756713 0.00038260070627658044 0.0008909118684366296 0.0008958357952012991 0.0009007597219659687
          0.001618020367059923 0.0016206038389945704 0.001623187310929218 0.0024753841574925066 0.002475032973356238 0.002474681789219969
          0.003356982881151575 0.003353757588184923 0.0033505322952182715 0.004162094702915604 0.00415694501462637 0.004151795326337137
          0.00481591243564983 0.004811184458115032 0.004806456480580234 0.005278198859108592 0.005274956037664667 0.005271713216220743
          0.00019667102760259094 0.00020276609379358531 0.00020886115998457972 0.0006053307869723118 0.0006119377943999501 0.0006185448018275887
          0.0012707481699529306 0.0012752119991817133 0.001279675828410496 0.0021302926733480555 0.002131276730534341 0.0021322607877206265
          0.0030691234531926366 0.0030667990329993193 0.003064474612806003 0.0039652474799489815 0.003960487580183623 0.003955727680418265
          0.004723877515173612 0.004717822456902932 0.004711767398632252 0.005280179773697235 0.005274487315231261 0.005268794856765285
          0.005601521823614318 0.005596895692880259 0.005592269562146199 0.00036918242822914975 0.00037593168247186486 0.00038268093671458
          0.0009269164332211362 0.0009333982463433982 0.00093988005946566 0.0017466342505964975 0.0017497317787480808 0.0017528293068996643
          0.0027180987793055237 0.002716985580394227 0.0027158723814829306 0.0037014812001442306 0.00369717749592576 0.0036928737917072893
          0.004571589295994291 0.004565384665843458 0.004559180035692625 0.00523918501608602 0.0052323992045249165 0.005225613392963813
          0.005657959426917764 0.005651790962780872 0.005645622498643978 0.005823504271657972 0.005817863095019696 0.00581222191838142
          0.0013481387801178944 0.0013537752572569794 0.0013594117343960644 0.0023162529478603635 0.002317265929695109 0.0023182789115298546
          0.0033675680140384623 0.0033640597298345604 0.0033605514456306602 0.004349473129347903 0.0043433680731148885 0.004337263016881874
          0.005147400292523312 0.005140084465573867 0.005132768638624422 0.005686113809934073 0.005678854141805764 0.005671594473677455
          0.005935063511877762 0.005928919211257449 0.005922774910637136 0.005925424349886485 0.005919626494680883 0.0059138286394752795
          0.0018819750710728183 0.0018859335184650706 0.0018898919658573224 0.0029744025671500675 0.0029728765079597395 0.0029713504487694125
          0.004059386096756011 0.004053413023972107 0.004047439951188203 0.004985101946675588 0.004977450165829426 0.004969798384983266
          0.005660233236830454 0.005652400226657973 0.005644567216485491 0.006039439541472584 0.0060325832941123085 0.006025727046752031
          0.006119162669525064 0.006113331919930635 0.006107501170336206 0.005944373817553586 0.0059379712427781815 0.005931568668002779
          0.0025352265669900628 0.002536859591128293 0.0025384926152665233 0.003706647353888392 0.0037026147576942068 0.0036985821615000214
          0.004768814420278969 0.004760604533797665 0.00475239464731636 0.005582184959098215 0.005573271573485778 0.005564358187873341
          0.006084935675529418 0.006077171201783287 0.006069406728037156 0.00627299504625925 0.006267662451564874 0.0062623298568704995
          0.006198887129604209 0.006193652942503458 0.0061884187554027085 0.005940926495297856 0.00593213354178871 0.005923340588279563
          0.0033048164411718034 0.003303920172293113 0.003303023903414423 0.00448988375891057 0.00448390490897728 0.00447792605904399
          0.005466112543877438 0.00545620664045206 0.005446300737026681 0.006115469497604265 0.006105814052642183 0.0060961586076801015
          0.006409282503611403 0.006402090406156206 0.006394898308701009 0.006383057530321363 0.006379489958879112 0.00637592238743686
          0.006142140729107739 0.006137313104818697 0.006132485480529657 0.005813997056608977 0.005801917948764021 0.005789838840919063
          0.005295323988154792 0.005288326414009948 0.005281328839865105 0.006118625339225886 0.006107771229528323 0.00609691711983076
          0.006556145592133294 0.006546459648840228 0.006536773705547163 0.0066150645126406785 0.006608951346283679 0.006602838179926679
          0.006363542639482174 0.006361360893471111 0.006359179147460048 0.005925592708643599 0.0059204567287680894 0.005915320748892579
          0.005400917231203766 0.005388505642512477 0.00537609405382119 0.006089313738694319 0.006082330779543212 0.006075347820392105
          0.0066901990191389205 0.0066792193975438365 0.0066682397759487535 0.0068671412080589835 0.006858059674044551 0.006848978140030116
          0.006661466387414129 0.006656683251255051 0.006651900115095973 0.006164044512578712 0.00616281779608887 0.00616159107959903
          0.005497861307104066 0.0054926442017705895 0.005487427096437113 0.004737128190685834 0.004728523179539728 0.00471991816839362
          0.006828643118456935 0.006822540386789339 0.006816437655121743 0.007134703085677475 0.007124400875315318 0.00711409866495316
          0.0069984943668502456 0.00699055808800455 0.006982621809158854 0.006493190704422362 0.006489944570330631 0.006486698436238901
          0.0057315149420248 0.005731538233466956 0.005731561524909114 0.004850907726786394 0.004847309055591378 0.00484371038439636
          0.007453139304685556 0.007448454663258342 0.007443770021831127 0.007390857754852268 0.007382047493362259 0.007373237231872249
          0.006892790230589674 0.006886726778171341 0.0068806633257530074 0.006069737431731963 0.006068630947238756 0.006067524462745548
          0.005067671526691362 0.005069874120836644 0.005072076714981928 0.005264061731412575 0.005741172261756754 0.005764915737432896
          0.005537560120375531 0.0052592949603843 0.0057334615463659686 0.005757963624543574 0.005530056376042182 0.005254528189356027
          0.005725750830975182 0.005751011511654252 0.005522552631708833 0.004614959203109589 0.004908090065783794 0.004448020003026521
          0.00405144871619214 0.004606314009954774 0.004898806223447058 0.004444141812330633 0.004048804157140343 0.0045976688167999585
          0.004889522381110321 0.004440263621634744 0.0040461595980885445 0.00427376335898071 0.003924257458427083 0.004823519599150743
          0.004278220068320964 0.0039262695136048275 0.004815848624901864 0.0042826767776612176 0.003928281568782571 0.004808177650652987
          0.003928298739147302 0.003936846591310551 0.0039453944434738 0.0057136136433454 0.005559119276148875 0.0056657369128072545
          0.005649042029040513 0.005707356796293807 0.005553773177952405 0.005656278511371014 0.005640323188563981 0.005701099949242214
          0.005548427079755934 0.005646820109934773 0.005631604348087448 0.00416765786413628 0.0035697877664187345 0.004160846054134854
          0.0035698865880189126 0.004154034244133428 0.0035699854096190907 0.004960118013237335 0.004312665862859559 0.004349429117121513
          0.004959101837380793 0.00431524353627617 0.004352563913289063 0.004958085661524251 0.004317821209692782 0.004355698709456612
          0.0030466229393534237 0.0036600889571539747 0.0030507468034989293 0.0036562311395679854 0.003054870667644435 0.0036523733219819953
          0.005279777529753673 0.004463462168116031 0.005272939211424065 0.004465849270739826 0.00526610089309446 0.0044682363733636234
          0.005320256052050278 0.005311035596284855 0.0053018151405194325 0.005135031607916588 0.004435614152015479 0.005132382856771409
          0.00443863019473511 0.00512973410562623 0.004441646237454741 0.005613087281576281 0.005276091866746505 0.005605262327789838
          0.005270369321779821 0.005597437374003398 0.005264646776813137 0.005403163394864193 0.005505768109114106 0.005398381083352656
          0.0054976996193256515 0.005393598771841121 0.005489631129537198 0.004804465760412868 0.0051797923620958645 0.004799354967065432
          0.005173329694924553 0.0047942441737179944 0.005166867027753243 0.0025318324753492924 0.0025408233797137975 0.0025498142840783018
          0.0017789258474199573 0.002064557143396626 0.001793810857331649 0.0020777363986168793 0.0018086958672433404 0.0020909156538371325
          0.005044970810628642 0.005035344239637666 0.00502571766864669 0.0016129975685189313 0.0016281935535331976 0.0016433895385474634
          0.005454077173818881 0.005440235869483848 0.005426394565148813 0.0013778706740136266 0.0013940291442228493 0.001410187614432072
          0.0031530788830982275 0.003153096133029361 0.0031531133829604944 0.00264639072339762 0.00265084794689599 0.0026553051703943602
          0.002267582654682427 0.0022758437151531624 0.0022841047756238984 0.003956463317655893 0.003952686071036691 0.003948908824417488
          0.004054240836024082 0.0040537333471801044 0.004053225858336128 0.003159912797966934 0.0031600372088887232 0.0031601616198105127
          0.007385161490518531 0.007879736209908676 0.007378835099695528 0.00787677677426532 0.007372508708872526 0.007873817338621966
          0.006501168367450084 0.006498051607721688 0.006494934847993292 0.005388031061771444 0.005389898639125052 0.005391766216478659
          0.00422865625087393 0.004233503838842757 0.004238351426811584 0.0032015824100782 0.0032040662473933742 0.003206550084708549
          0.00309716728582042 0.003107325785749035 0.0031174842856776497 0.0031533670841355182 0.0031610008005365717 0.0031686345169376247
          0.005620274546105185 0.005328507850837589 0.005611655882713356 0.00532526893704 0.005603037219321526 0.005322030023242408
          0.003366526692796739 0.00337301597768354 0.0033707335103988984 0.0033773675470631925 0.003374940328001058 0.0033817191164428446
          0.005070410604564755 0.005366869683183046 0.005065003565506039 0.005360359443226952 0.005059596526447323 0.005353849203270855
          0.00471424089491431 0.004708882545220527 0.004703524195526743 0.0033286722987095037 0.0033340221073606853 0.003339371916011867
          0.0055862016707776295 0.005634578986033172 0.005577004040660192 0.00562893197229372 0.005567806410542757 0.005623284958554268
          0.0035157654950793765 0.003520789533185717 0.0035258135712920575 0.003861514757123239 0.0046334128684431715 0.0038649830744068876
          0.004637725627669857 0.0038684513916905357 0.004642038386896542 0.003126896830952346 0.003134092352837535 0.0031412878747227244
          0.0043210080183257405 0.004315434490139562 0.004309860961953382 0.0020358971980967366 0.0026851053114264343 0.0020435873834651875
          0.0026872015283129834 0.002051277568833639 0.002689297745199533 0.0039238926824952175 0.003918049172265906 0.003912205662036594
          0.0034633152429295435 0.0034587550029903076 0.003454194763051072 0.0024557444683149313 0.0024672158500786833 0.0024786872318424353
        </DataArray>
        <DataArray type="Float64" Name="pe22" format="ascii" RangeMin="-0.004093364938142748" RangeMax="0">
          -0.00005670938976815948 -0.00010388972124638677 -0.0000583120866847081 -0.00010830321256456153 -0.000059914783601256706 -0.00011271670388273629
          -0.000006775145871977142 -0.000009543381357316413 -0.000006183383344480816 -0.000008867096844007013 -0.000005591620816984491 -0.000008190812330697613
          -0.0000015828999782092252 -0.0000031657999564184505 -7.914499891046126e-7 -0.0000015828999782092252 0 0
          0 0 0 0 0 0
          -0.0000033713117260159736 0 -0.0000038037528806051543 -3.9412636419029436e-8 -0.000004236194035194335 -7.882527283805887e-8
          -0.00005278894029430998 -0.00003640874066390515 -0.00005372134314142146 -0.00003709955866083739 -0.00005465374598853295 -0.00003779037665776963
          -0.00019458111372019292 -0.00017007353448862656 -0.0001963702023265076 -0.00017233751301828657 -0.0001981592909328223 -0.00017460149154794664
          -0.0004182772705380741 -0.00040213893872103885 -0.0004225227657954643 -0.00040643692572700204 -0.0004267682610528544 -0.0004107349127329652
          -0.0000047645291449660975 -0.00000416048040242733 -0.0000035564316598885623 -0.0000020034551933189354 -0.0000017498349224773103 -0.0000014962146516356852
          0 0 0 -1.526734301919803e-7 -2.6035359405515337e-7 -3.6803375791832646e-7
          -0.00001859541989099779 -0.00001954469471376914 -0.000020493969536540487 -0.00010243111196347711 -0.00010350274324662863 -0.00010457437452978015
          -0.0002719568104585916 -0.0002730848439941416 -0.0002742128775296917 -0.0005042615780845707 -0.0005076882552676198 -0.000511114932450669
          0 0 0 0 0 0
          0 0 0 -0.000005692019484401536 -0.000006258527131583841 -0.000006825034778766146
          -0.00005483397681948236 -0.00005606078744712253 -0.0000572875980747627 -0.00018394514437907497 -0.00018458590522493553 -0.00018522666607079607
          -0.00039111015787610294 -0.0003917884574492495 -0.00039246675702239616 -0.0006375658344718155 -0.0006398924626717749 -0.0006422190908717343
          0 0 0 0 0 0
          -3.7914202442428243e-7 -5.473385779855014e-7 -7.155351315467204e-7 -0.000024238113673413636 -0.000025272533376010965 -0.0000263069530786083
          -0.00011696990786211773 -0.00011815523292506694 -0.00011934055798801615 -0.00029159745505216326 -0.0002915633341453195 -0.00029152921323847566
          -0.0005310958121906916 -0.0005312011295338913 -0.0005313064468770909 -0.0007868994327715792 -0.0007887484130404476 -0.000790597393309316
          0 0 0 0 0 0
          -0.000007348912351816244 -0.000007970662607404759 -0.000008592412862993274 -0.00006386295526535486 -0.00006515523391135373 -0.00006644751255735261
          -0.00020413182361770843 -0.00020482430154481442 -0.0002055167794719204 -0.0004195125748898056 -0.0004188447208143463 -0.00041817686673888696
          -0.0006920367178755232 -0.0006917285476166215 -0.0006914203773577197 -0.0009805622297266324 -0.0009821331694410034 -0.0009837041091553744
          0 0 0 -0.000001505049676735566 -0.0000017988450158683625 -0.0000020926403550011588
          -0.00003108227907011795 -0.00003224855221958847 -0.00003341482536905899 -0.00013238703119559377 -0.00013365668275452453 -0.0001349263343134553
          -0.00031549168422988455 -0.0003156536314769574 -0.0003158155787240303 -0.000569152653836776 -0.000568018064349169 -0.000566883474861562
          -0.0008802834233703304 -0.0008798047387585196 -0.000879326054146709 -0.0012067991015014107 -0.0012081493569299022 -0.001209499612358394
          0 0 0 -3.02487483371981e-8 -1.0607585034981902e-7 -1.8190295236243994e-7
          -0.000014471682443781752 -0.000015276567936661883 -0.000016081453429542012 -0.00008319900494508464 -0.00008463607626450661 -0.00008607314758392859
          -0.00023115820337351727 -0.00023199064518718008 -0.00023282308700084295 -0.000453982608850687 -0.00045366012115939636 -0.0004533376334681057
          -0.0007467503719273177 -0.0007452805213892757 -0.0007438106708512337 -0.0010939487406698579 -0.0010933420822662645 -0.0010927354238626712
          -0.0014472228335303298 -0.001448464994477075 -0.00144970715542382 0 0 0
          -0.000005374084557748298 -0.000005809194276138041 -0.000006244303994527785 -0.000049358322422332055 -0.0000505810238923211 -0.00005180372536231015
          -0.00016537014431356958 -0.0001665818185813615 -0.00016779349284915337 -0.00035700037800575344 -0.00035727040462137625 -0.000357540431236999
          -0.0006222864415574041 -0.0006215158960811225 -0.0006207453506048409 -0.0009552335785687972 -0.0009536008176638563 -0.0009519680567589154
          -0.0013295255443527662 -0.001328928827320964 -0.001328332110289162 -0.001690105096044123 -0.0016913546003493045 -0.0016926041046544861
          0 -1.3991121239865397e-8 -2.7982242479730794e-8 -0.00002231225173484392 -0.00002307487672531182 -0.000023837501715779713
          -0.00010737110406103698 -0.00010872930141790941 -0.00011008749877478184 -0.0002705701683331214 -0.0002712740537682213 -0.0002719779392033213
          -0.0005081918764204841 -0.0005079010312779036 -0.0005076101861353232 -0.0008203413822946063 -0.000819287050816456 -0.0008182327193383057
          -0.0011919612714215023 -0.001190466806267156 -0.0011889723411128096 -0.0015816860436320042 -0.001581342173321491 -0.0015809983030109775
          -0.001927011310898318 -0.0019283632951845138 -0.0019297152794707098 -0.0000025391304672078065 -0.000002998203680925963 -0.0000034572768946441196
          -0.00005172026912250979 -0.000052942437294563416 -0.00005416460546661705 -0.00018533769732351807 -0.00018646644689904746 -0.0001875951964745769
          -0.00039858451059778064 -0.0003986935119436395 -0.00039880251328949833 -0.0006886048016751183 -0.0006878210026303519 -0.0006870372035855855
          -0.0010484469256537353 -0.001047262149325926 -0.0010460773729981166 -0.0014489319686249956 -0.0014476589601629462 -0.001446385951700897
          -0.0018401927687285028 -0.0018401093586782138 -0.001840025948627924 -0.002160354741058243 -0.00216168471800908 -0.0021630146949599164
          -0.00001481653092141957 -0.000015921736979394475 -0.000017026943037369378 -0.00009933229236412338 -0.00010111196788941833 -0.00010289164341471326
          -0.0002833466857640014 -0.00028408959547580144 -0.0002848325051876014 -0.0005544157846839934 -0.0005539303942951199 -0.0005534450039062464
          -0.0009035094416508289 -0.0009023385152222259 -0.0009011675887936227 -0.0013063182326815174 -0.0013050970927240939 -0.0013038759527666704
          -0.0017212525580901005 -0.001720324081378247 -0.0017193956046663939 -0.0021066224389685254 -0.002106816318681663 -0.002107010198394801
          -0.002466074958656938 -0.0024674652742078017 -0.0024688555897586658 -0.000042616536707855574 -0.00004438391529977439 -0.000046151293891693194
          -0.0001733835757415228 -0.00017516281119779118 -0.00017694204665405955 -0.0004119487020194853 -0.00041217841782511627 -0.0004124081336307472
          -0.0007469968341126951 -0.0007459475282155084 -0.0007448982223183217 -0.001153218448525823 -0.0011517966875892898 -0.0011503749266527567
          -0.0015889295438925523 -0.0015879304969997332 -0.0015869314501069137 -0.0020081710901264736 -0.002008002402890944 -0.0020078337156554152
          -0.002374077302239002 -0.0023750358972415074 -0.0023759944922440127 -0.0026466201338708976 -0.002648699412272982 -0.002650778690675066
          -0.00009199427251812071 -0.00009420201758676182 -0.00009640976265540293 -0.000278676758847785 -0.0002799614256840209 -0.0002812460925202568
          -0.0005811017538961149 -0.0005806142406989927 -0.0005801267275018704 -0.0009799974674637424 -0.0009784598981956835 -0.0009769223289276244
          -0.0014336675808193995 -0.0014322820627153936 -0.0014308965446113882 -0.0018890609508276424 -0.0018886055111080001 -0.0018881500713883578
          -0.0022974285251348026 -0.0022981686752301398 -0.002298908825325477 -0.002618897030443784 -0.0026208384287204 -0.0026227798269970164
          -0.002820557348605229 -0.00282335440573768 -0.002826151462870131 -0.00016899021971844566 -0.0001708436351216623 -0.00017269705052487896
          -0.0004196056873336909 -0.00042006746525671 -0.0004205292431797289 -0.0007924640103746369 -0.0007911770485416511 -0.0007898900867086653
          -0.0012508820696207601 -0.0012491380158441922 -0.0012473939620676244 -0.0017395069519856388 -0.0017385579405292148 -0.0017376089290727908
          -0.002197474306637949 -0.002197781316331093 -0.002198088326024237 -0.0025721395305985484 -0.002573656771065916 -0.0025751740115332847
          -0.0028283731299529923 -0.0028308419233444297 -0.0028333107167358667 -0.002951653641143725 -0.002954442207310008 -0.00295723077347629
          -0.0006014784175752923 -0.0006009242524194604 -0.0006003700872636284 -0.001047064255279088 -0.0010451784235526848 -0.0010432925918262815
          -0.0015564397011479732 -0.0015548730902328544 -0.0015533064793177359 -0.002062305346420385 -0.002062110241886378 -0.002061915137352371
          -0.002501321756682856 -0.0025025515503419374 -0.0025037813440010196 -0.0028225007292801032 -0.0028247183452401676 -0.002826935961200232
          -0.002995668004992227 -0.0029981289588646783 -0.00300058991273713 -0.003029822224415699 -0.0030321118464532695 -0.0030344014684908407
          -0.0008309990326266133 -0.0008294648234930793 -0.0008279306143595454 -0.0013462516624208603 -0.0013441791638824372 -0.0013421066653440143
          -0.0018913065367047411 -0.0018903145357670372 -0.001889322534829333 -0.0023906797314271707 -0.002391362671357156 -0.0023920456112871405
          -0.00278550908129168 -0.002787583342772246 -0.0027896576042528124 -0.0030364972845651423 -0.003039407091715127 -0.0030423168988651115
          -0.0031241334101195276 -0.0031267470289885043 -0.0031293606478574806 -0.0030689308763746093 -0.003071205652584481 -0.0030734804287943524
          -0.0011143965292394833 -0.0011122821259585752 -0.0011101677226776675 -0.0016886998463439774 -0.0016870123903412468 -0.0016853249343385165
          -0.00224778040611286 -0.0022477113618499626 -0.0022476423175870654 -0.0027137268992689974 -0.0027152834461461432 -0.002716839993023289
          -0.003037849167878035 -0.0030404751070658336 -0.0030431010462536327 -0.0032001153437760826 -0.0032034659697695173 -0.003206816595762952
          -0.0032054668732967445 -0.00320882292058815 -0.0032121789678795556 -0.0031006301053483794 -0.0031034335025852677 -0.003106236899822156
          -0.001456255571584333 -0.0014543165530830433 -0.0014523775345817538 -0.0020699474256639754 -0.002069203980114229 -0.002068460534564482
          -0.0026154766997056405 -0.0026165502948932674 -0.002617623890080894 -0.0030204099361152577 -0.0030228817694665316 -0.003025353602817805
          -0.003251022346068544 -0.0032541854259096753 -0.0032573485057508064 -0.0033070593830297214 -0.0033108440649084986 -0.0033146287467872757
          -0.003216489652568675 -0.003220580501301641 -0.0032246713500346065 -0.003058922765729731 -0.0030617162087532034 -0.003064509651776676
          -0.002482550719536381 -0.00248318049349483 -0.0024838102674532786 -0.0029811555919112627 -0.0029834888953845988 -0.0029858221988579353
          -0.003296084334202254 -0.003299601027142186 -0.0033031177200821184 -0.003412394626717859 -0.003416465219860808 -0.003420535813003757
          -0.0033469330744747496 -0.0033516907673666195 -0.0033564484602584895 -0.0031354421244657927 -0.003139811075310539 -0.0031441800261552853
          -0.002848899959744436 -0.0028509543328373087 -0.0028530087059301813 -0.0029151934774853993 -0.0029175234637705758 -0.0029198534500557522
          -0.0033272182735694916 -0.0033309461202684376 -0.003334673966967384 -0.0035186314028064956 -0.0035233216568202673 -0.0035280119108340377
          -0.0034950179478000732 -0.0035001112468528196 -0.003505204545905566 -0.0032872416465375837 -0.003292683928358856 -0.0032981262101801283
          -0.0029341250931160124 -0.0029376953054563726 -0.0029412655177967336 -0.002512610436490763 -0.00251294008055089 -0.002513269724611018
          -0.0033490204906139005 -0.003353299183625128 -0.0033575778766363556 -0.0036278240910337925 -0.003633045558788278 -0.0036382670265427634
          -0.003656356207466814 -0.0036621073096853815 -0.0036678584119039484 -0.0034627348050839373 -0.0034683019356068225 -0.0034738690661297077
          -0.0030945455477624177 -0.003099474152538953 -0.003104402757315488 -0.0026093445732950286 -0.002611074762705017 -0.002612804952115006
          -0.0037525091434696426 -0.0037589031039196854 -0.0037652970643697273 -0.003845979532745034 -0.003852594163867913 -0.003859208794990792
          -0.003671804988041021 -0.0036781106585591973 -0.0036844163290773732 -0.0032868005321875448 -0.0032918902123311882 -0.0032969798924748304
          -0.0027646914226889053 -0.0027681184352065583 -0.0027715454477242113 -0.002800772638711849 -0.002971924274054648 -0.002952428279039408
          -0.0028736419561573297 -0.002802668114217151 -0.0029738333630392154 -0.002954533844922283 -0.0028749955202552694 -0.0028045635897224535
          -0.002975742452023784 -0.0029566394108051577 -0.0028763490843532096 -0.0022549024756673666 -0.0024006511021238052 -0.002186901228784631
          -0.0019921932932747107 -0.0022543474614251336 -0.0024010338419759524 -0.002187830954616491 -0.0019926048171156297 -0.0022537924471828998
          -0.0024014165818281 -0.0021887606804483505 -0.001993016340956549 -0.0023311852615796828 -0.002113397778459058 -0.0025802013826186796
          -0.0023334397190280932 -0.0021144019300538045 -0.0025817159432852265 -0.0023356941764765037 -0.002115406081648551 -0.0025832305039517724
          -0.0021617700867450178 -0.002163537446396314 -0.00216530480604761 -0.0028988228577953887 -0.0028076060728587328 -0.0028726672135869057
          -0.0028883957882113787 -0.002901360658689094 -0.0028098276423783545 -0.0028740488121025264 -0.0028899646141817416 -0.002903898459582799
          -0.002812049211897976 -0.002875430410618148 -0.002891533440152105 -0.0020222133119531744 -0.0017549159011558764 -0.002020929205541637
          -0.0017550322274607097 -0.0020196450991300996 -0.001755148553765543 -0.002683824424412781 -0.0023655343658845196 -0.002373834406881663
          -0.0026851447337594586 -0.0023664726476613114 -0.0023766666378110066 -0.0026864650431061357 -0.0023674109294381032 -0.0023794988687403495
          -0.001497731383474268 -0.0017613857580656988 -0.0014979539901246897 -0.0017597450743518702 -0.0014981765967751121 -0.0017581043906380416
          -0.0028089005498388073 -0.0024219359395728623 -0.002810975051390674 -0.002424715509001713 -0.0028130495529425413 -0.002427495078430564
          -0.002640817088557623 -0.0026416193729996373 -0.0026424216574416513 -0.0027322716089201327 -0.002421331765798643 -0.0027340141128057143
          -0.0024225373293138286 -0.002735756616691295 -0.002423742892829015 -0.0029383021173038605 -0.002812931479197079 -0.002940714330376848
          -0.0028158076257057234 -0.002943126543449836 -0.002818683772214368 -0.0027260248958195107 -0.002776371476343845 -0.002727710761831844
          -0.0027776302096905845 -0.0027293966278441766 -0.0027788889430373233 -0.0023691121708637637 -0.002584088864718199 -0.0023698641541775624
          -0.002584842146676107 -0.002370616137491361 -0.002585595428634015 -0.0012465717399100357 -0.0012472469133790911 -0.0012479220868481463
          -0.0008710091797150724 -0.0010147369119912055 -0.0008733641412893166 -0.0010162163139630907 -0.0008757191028635606 -0.001017695715934976
          -0.002471286751899841 -0.0024715215604425764 -0.0024717563689853127 -0.0007938743101630676 -0.0007967352878683173 -0.0007995962655735671
          -0.002901168456806404 -0.0029025128206121233 -0.0029038571844178427 -0.0006795217952048627 -0.000683304490592395 -0.0006870871859799274
          -0.0015056205827987182 -0.0015035109827833365 -0.0015014013827679546 -0.0012479444528572118 -0.0012466918448079392 -0.0012454392367586666
          -0.0010644417110974784 -0.0010649522211871943 -0.0010654627312769102 -0.0021144312979474527 -0.0021128608335419397 -0.002111290369136427
          -0.0021934251911729253 -0.0021933456228107042 -0.002193266054448483 -0.001691853228804155 -0.001689487604500226 -0.0016871219801962972
          -0.0039334266172933365 -0.004076165041279014 -0.003941111426414302 -0.00408476498971088 -0.003948796235535268 -0.004093364938142748
          -0.0035290150496149865 -0.003535090527939542 -0.0035411660062640983 -0.0029575008092342153 -0.0029612049406308886 -0.002964909072027562
          -0.0023236297477543036 -0.0023250906475937314 -0.0023265515474331583 -0.0017337872190075867 -0.0017323129498187377 -0.001730838680629889
          -0.0017018152972472268 -0.0017031229519750284 -0.0017044306067028295 -0.001735358616196041 -0.0017354585792838423 -0.0017355585423716436
          -0.002874158753527978 -0.0027882179417996 -0.0028750935359470892 -0.0027901608305897613 -0.0028760283183662 -0.0027921037193799226
          -0.001843708769863523 -0.0018317291936376648 -0.0018440784430457861 -0.001833096245012432 -0.0018444481162280492 -0.001834463296387199
          -0.002491063287990662 -0.0026718354989206366 -0.0024912617966431254 -0.00267325208349185 -0.002491460305295589 -0.002674668668063062
          -0.0022830352220794548 -0.0022823113046885903 -0.002281587387297726 -0.0018168989067675625 -0.0018176935952605982 -0.0018184882837536344
          -0.0028213808296509053 -0.0028760153747626896 -0.0028226019623763103 -0.0028779901128979475 -0.0028238230951017147 -0.0028799648510332045
          -0.0019353529749928048 -0.001935329347328445 -0.0019353057196640848 -0.002098207856591475 -0.0024989044104967266 -0.002098799664732248
          -0.0025016275477028906 -0.0020993914728730206 -0.002504350684909054 -0.0016973874694639777 -0.0016972149152019804 -0.001697042360939983
          -0.0020600426977127675 -0.002058415811146373 -0.002056788924579978 -0.0009719070295166948 -0.0012549178257044813 -0.0009719297677591496
          -0.001253603065296051 -0.0009719525060016045 -0.0012522883048876206 -0.001842731881106352 -0.0018400372150207344 -0.001837342548935117
          -0.0016021457522442126 -0.0015997972967654371 -0.0015974488412866619 -0.0013489289234607763 -0.0013496335802796102 -0.0013503382370984441
        </DataArray>
        <DataArray type="Float64" Name="pe33" format="ascii" RangeMin="-0.00380357116862966" RangeMax="0">
          -0.00006444712829664768 -0.00011800476821172839 -0.00007112918450079657 -0.0001329298538285436 -0.00007781124070494548 -0.0001478549394453588
          -0.000007380853910564183 -0.000010351232191429457 -0.000007065288412366887 -0.000010354263757997198 -0.000006749722914169591 -0.000010357295324564939
          -0.0000018179738101431463 -0.0000036359476202862926 -9.089869050715732e-7 -0.0000018179738101431463 0 0
          0 0 0 0 0 0
          -0.0000033239097038236745 0 -0.000003772471902770947 -3.975443281126289e-8 -0.000004221034101718219 -7.950886562252578e-8
          -0.00005213026639661229 -0.000035938150117041174 -0.00005356348829006911 -0.00003704542742054163 -0.00005499671018352593 -0.00003815270472404209
          -0.0001869350326503227 -0.00016107631704733333 -0.00019148057125588488 -0.00016591087704934896 -0.00019602610986144703 -0.0001707454370513646
          -0.0004093324837324777 -0.00040693654786419585 -0.00041981448388956136 -0.0004168695308705587 -0.000430296484046645 -0.00042680251387692154
          -0.000005444744190783477 -0.000004664257586524777 -0.0000038837709822660784 -0.000002205237814849455 -0.0000018881565333682884 -0.000001571075251887122
          0 0 0 -1.5267222305595181e-7 -2.635198974792519e-7 -3.74367571902552e-7
          -0.000018446257609314857 -0.000019504504320540713 -0.00002056275103176657 -0.00010194968896348797 -0.00010380079977812421 -0.00010565191059276044
          -0.0002644096545922564 -0.0002684466934644498 -0.00027248373233664327 -0.0004818752426089539 -0.000492555891219647 -0.00050323653983034
          0 0 0 0 0 0
          0 0 0 -0.0000057139444689591475 -0.0000063361903739147525 -0.000006958436278870358
          -0.00005517956719851453 -0.00005676912496762983 -0.000058358682736745136 -0.0001854641503948837 -0.00018733509769850088 -0.00018920604500211806
          -0.00038460214494228403 -0.00038824551742232873 -0.00039188888990237354 -0.0006238557391036922 -0.0006335988750733602 -0.0006433420110430281
          0 0 0 0 0 0
          -3.9220994183044454e-7 -5.722177969577648e-7 -7.52225652085085e-7 -0.000024650361127144948 -0.0000259369821613846 -0.000027223603195624254
          -0.00011990046043955187 -0.00012190615816431535 -0.0001239118558890789 -0.000299272856416922 -0.00030102083979492033 -0.00030276882317291874
          -0.0005316488419535492 -0.0005351996973018033 -0.0005387505526500573 -0.0007817784896506801 -0.0007908028268436315 -0.0007998271640365826
          0 0 0 0 0 0
          -0.000007598732807082379 -0.000008318777905800979 -0.000009038823004519578 -0.00006622584624065879 -0.00006820752487630077 -0.00007018920351194275
          -0.00021369863160279175 -0.00021588439294792974 -0.0002180701542930677 -0.0004392858360266427 -0.00044102314138307064 -0.0004427604467394986
          -0.0007032500666068934 -0.00070704946866885 -0.0007108488707308066 -0.0009787506877935739 -0.0009871424304471656 -0.0009955341731007574
          0 0 0 -0.0000015778860902117173 -0.0000019034217539857396 -0.000002228957417759762
          -0.00003246142839902125 -0.00003401233752947876 -0.00003556324665993627 -0.00014006687970185427 -0.00014272771618835218 -0.00014538855267485007
          -0.0003375058821411839 -0.0003399439164111786 -0.0003423819506811734 -0.0006066328437716388 -0.0006084585179980694 -0.0006102841922245001
          -0.0009050100399253701 -0.0009088649626195162 -0.0009127198853136622 -0.0012133933866207472 -0.0012202942345646282 -0.0012271950825085093
          0 0 0 -3.193274476558044e-8 -1.134493575465605e-7 -1.9496597032754054e-7
          -0.000015227291285378698 -0.000016217865783426506 -0.000017208440281474312 -0.00008841187559864012 -0.00009078773342378489 -0.00009316359124892966
          -0.0002495692566454381 -0.0002526576424978375 -0.0002557460283502368 -0.0004949568951716717 -0.0004975794997472322 -0.0005002021043227925
          -0.0008066182579980521 -0.0008082927055314177 -0.0008099671530647833 -0.0011353665597711856 -0.0011387119975545567 -0.001142057435337928
          -0.0014650472220301988 -0.001469933901059684 -0.0014748205800891687 0 0 0
          -0.000005680835510363115 -0.0000061892669157383465 -0.000006697698321113578 -0.00005261648059027943 -0.00005440533209427515 -0.0000561941835982709
          -0.00017931887807577453 -0.00018226933766419463 -0.00018521979725261476 -0.00039313694804663565 -0.00039653060080144714 -0.00039992425355625863
          -0.0006882885259205008 -0.0006907611230078909 -0.0006932337200952808 -0.001040714027877798 -0.0010416418400092892 -0.0010425696521407805
          -0.001389559581362289 -0.0013917278026940644 -0.0013938960240258396 -0.001719717965804857 -0.0017225773697619841 -0.001725436773719111
          0 -1.523961691347264e-8 -3.047923382694528e-8 -0.00002377539795926467 -0.00002478931381050563 -0.00002580322966174659
          -0.00011656451771181116 -0.00011911843703017204 -0.00012167235634853291 -0.00029973902797568165 -0.0003031611480646184 -0.00030658326815355516
          -0.0005693651036307889 -0.0005729024349440437 -0.0005764397662572985 -0.0009160011286266262 -0.0009179170381372591 -0.0009198329476478917
          -0.0013034759378910026 -0.0013031435883299378 -0.0013028112387688732 -0.0016593111541146459 -0.0016597005665167975 -0.0016600899789189492
          -0.001967434207264668 -0.0019682159204407875 -0.0019689976336169073 -0.000002713975351378504 -0.000003233412862852971 -0.000003752850374327439
          -0.00005604267620477741 -0.000057907026433149655 -0.0000597713766615219 -0.00020555861193291835 -0.0002087875215460616 -0.00021201643115920484
          -0.00045063711217636774 -0.0004544681208994964 -0.000458299129622625 -0.0007817962864569344 -0.0007851173117950841 -0.0007884383371332339
          -0.0011760972296303 -0.0011770552512307493 -0.0011780132728311987 -0.0015817828076946086 -0.0015800656661483236 -0.0015783485246020391
          -0.0019290164024862492 -0.0019274991902314864 -0.0019259819779767233 -0.0022062062202142497 -0.002204767706983349 -0.0022033291937524476
          -0.00001594369208591279 -0.000017315908718018218 -0.00001868812535012364 -0.00010993830947810315 -0.0001130966629117578 -0.00011625501634541244
          -0.0003217059017030109 -0.00032569161380011514 -0.0003296773258972194 -0.0006380173041905232 -0.0006420072291751287 -0.0006459971541597344
          -0.0010341115296302722 -0.0010366310937186822 -0.0010391506578070922 -0.0014637425183055977 -0.0014633080311613458 -0.0014628735440170937
          -0.0018670011226531154 -0.001863799635956097 -0.0018605981492590784 -0.002190825523020606 -0.002187338542484864 -0.0021838515619491223
          -0.0024719459346915725 -0.0024680299978190818 -0.0024641140609465905 -0.00004693129194642411 -0.000049475461307667775 -0.00005201963066891144
          -0.00019701155691703105 -0.00020133510826977593 -0.00020565865962252089 -0.00047896316641714406 -0.00048365737737618273 -0.0004883515883352214
          -0.0008710235329472273 -0.0008746563107790619 -0.0008782890886108962 -0.0013221657089666837 -0.0013232362857669479 -0.0013243068625672125
          -0.0017680533372590218 -0.00176582709118519 -0.0017636008451113578 -0.0021539236127891296 -0.002148942611735426 -0.0021439616106817216
          -0.002441835133410827 -0.0024361485608735242 -0.0024304619883362224 -0.002631578725237694 -0.002626256625391685 -0.002620934525545677
          -0.00010467675508447018 -0.00010856407620682347 -0.00011245139732917675 -0.0003266540281245267 -0.00033197636871592915 -0.0003372987093073317
          -0.0006896464160568157 -0.0006945977584827207 -0.0006995491009086256 -0.001150295205884313 -0.0011528168323386577 -0.0011553384587930024
          -0.001635455872373237 -0.0016345169702839258 -0.0016335780681946146 -0.0020761865291213386 -0.002071882069075622 -0.002067577609029906
          -0.0024264489900388086 -0.0024196537816727915 -0.0024128585733067744 -0.002661282743253452 -0.00265364888651086 -0.002646015029768269
          -0.00278096447500909 -0.002773541287142579 -0.0027661180992760675 -0.00020019220851070412 -0.00020508804735020256 -0.00020998388618970103
          -0.0005073107458874451 -0.0005133307810866879 -0.0005193508162859309 -0.0009541702402218603 -0.0009585547302064295 -0.0009629392201909988
          -0.0014672167096847636 -0.0014678475645500347 -0.001468478419415306 -0.0019619742481585918 -0.0019586195553965447 -0.0019552648626344976
          -0.002374114989356341 -0.0023676033495123646 -0.002361091709668388 -0.0026670454854874717 -0.002658742433459 -0.0026504393814305283
          -0.002829586296964772 -0.0028209490394364416 -0.0028123117819081112 -0.0028718506305142467 -0.002863420887709688 -0.00285499114490513
          -0.0007466603625426019 -0.0007528510048375188 -0.0007590416471324358 -0.0012691886925812754 -0.0012720875061424243 -0.0012749863197035727
          -0.0018111283128904882 -0.0018091866396017062 -0.0018072449663129244 -0.0022871677829275163 -0.00228125783122851 -0.0022753478795295035
          -0.002646078535840455 -0.002637532915231928 -0.002628987294623402 -0.0028636130806539697 -0.0028541357965655963 -0.002844658512477223
          -0.002939395506885534 -0.00293079025239277 -0.0029221849979000052 -0.002895602125470786 -0.0028875146482276117 -0.002879427170984438
          -0.001050976038446205 -0.0010564686949719906 -0.0010619613514977766 -0.0016281509047292074 -0.0016286973440773022 -0.0016292437834253969
          -0.0021680795600512682 -0.002163098488205069 -0.0021581174163588695 -0.0025944222152484153 -0.00258608749447227 -0.002577752773696124
          -0.0028747241555387745 -0.0028648168838857255 -0.0028549096122326774 -0.0030029422569074417 -0.0029931762023971803 -0.0029834101478869194
          -0.0029950292594055354 -0.00298658489094213 -0.0029781405224787237 -0.002875442941178977 -0.002866765590193701 -0.0028580882392084243
          -0.0014208300377505792 -0.0014245774651697172 -0.0014283248925888556 -0.002017947507544415 -0.00201560236735296 -0.0020132572271615045
          -0.002521034014166109 -0.0025128931719477013 -0.002504752329729294 -0.002868458059829218 -0.0028579881273396355 -0.002847518194850052
          -0.0030470865076513832 -0.0030366960947174537 -0.0030263056817835237 -0.003072879702483167 -0.003064196481795357 -0.003055513261107547
          -0.002993420256307464 -0.002984830021915308 -0.0029762397875231516 -0.0028402963899494763 -0.002828700039203441 -0.0028171036884574053
          -0.0018485608695874701 -0.0018496036192100695 -0.0018506463688326687 -0.0024199363332465937 -0.0024147009288630512 -0.0024094655244795084
          -0.002850635844171798 -0.0028396563455587924 -0.002828676846945787 -0.0030950595614890075 -0.0030829322831756527 -0.0030708050048622974
          -0.0031582601575428576 -0.0031479049802465298 -0.0031375498029502023 -0.0030759981472916406 -0.003068645893970613 -0.0030612936406495847
          -0.0029256510765390637 -0.0029167326035170566 -0.0029078141304950495 -0.0027550742908792458 -0.002740201740010815 -0.002725329189142385
          -0.002812773268618409 -0.002805145920515117 -0.0027975185724118247 -0.0031374697473146233 -0.0031242823341437243 -0.003111094920972825
          -0.0032600612579310392 -0.003246858621698042 -0.0032336559854650444 -0.003202669885922818 -0.003192486126422869 -0.003182302366922922
          -0.003016609565007423 -0.0030096701261044904 -0.003002730687201558 -0.0027901505841778063 -0.0027806456534575498 -0.002771140722737294
          -0.0025520172714593283 -0.0025375513096751678 -0.0025230853478910072 -0.003174120261208919 -0.0031648073157726354 -0.003155494370336352
          -0.0033629807455694285 -0.003348273277275399 -0.0033335658089813694 -0.0033485098052524875 -0.003334738017224282 -0.0033209662291960773
          -0.003166448439614055 -0.00315657200440223 -0.0031466955691904063 -0.0028768028660411268 -0.0028701338677300137 -0.0028634648694189
          -0.0025637362139880526 -0.0025549488963142156 -0.0025461615786403794 -0.0022245177541950698 -0.002215583098988836 -0.002206648443782602
          -0.003479622627843033 -0.0034692412031642104 -0.0034588597784853876 -0.0035068789946436814 -0.003491355316527039 -0.0034758316384103974
          -0.0033421381593834298 -0.0033284507783191675 -0.0033147633972549053 -0.0030304558993384237 -0.003021642634723808 -0.003012829370109193
          -0.0026369693942623795 -0.0026320640809280034 -0.002627158767593627 -0.002241563153491364 -0.0022362342928863594 -0.002230905432281355
          -0.003700630161215912 -0.0036895515593386554 -0.0036784729574613987 -0.003544878222107233 -0.0035294533294943442 -0.0035140284368814566
          -0.003220985242548652 -0.003208616119612143 -0.003196246996675634 -0.002782936899544417 -0.0027767407349075677 -0.002770544570270718
          -0.0023029801040024543 -0.0023017556856300856 -0.0023005312672577166 -0.002463289092700726 -0.0027692479877021057 -0.002812487458393488
          -0.0026639181642182015 -0.0024566268461671493 -0.0027596281833267523 -0.0028034297796212908 -0.0026550608557869117 -0.0024499645996335735
          -0.002750008378951399 -0.0027943721008490937 -0.002646203547355622 -0.002360056727442223 -0.002507438963659988 -0.0022611187742418897
          -0.0020592554229174297 -0.0023519665485296397 -0.002497772381471105 -0.002256310857714142 -0.0020561993400247127 -0.0023438763696170574
          -0.002488105799282221 -0.002251502941186394 -0.0020531432571319957 -0.0019425780974010268 -0.0018108596799680241 -0.002243318216532063
          -0.0019447803492928701 -0.0018118675835510226 -0.0022341326816166384 -0.0019469826011847139 -0.0018128754871340209 -0.0022249471467012125
          -0.0017665286524022842 -0.001773309144914237 -0.0017800896374261896 -0.002814790785550011 -0.0027515132032901422 -0.0027930696992203483
          -0.002760646240829134 -0.002805996137604712 -0.0027439455355740498 -0.002782229699268487 -0.0027503585743822376 -0.0027972014896594137
          -0.0027363778678579573 -0.002771389699316625 -0.002740070907935341 -0.002145444552183106 -0.0018148718652628575 -0.0021399168485932165
          -0.0018148543605582023 -0.002134389145003327 -0.0018148368558535471 -0.0022762935888245538 -0.0019471314969750392 -0.001975594710239849
          -0.002273957103621334 -0.0019487708886148584 -0.001975897275478055 -0.002271620618418114 -0.0019504102802546776 -0.001976199840716262
          -0.0015488915558791554 -0.0018987031990882765 -0.001552792813374239 -0.0018964860652161148 -0.001556694070869322 -0.001894268931343953
          -0.002470876979914865 -0.002041526228543168 -0.002461964160033391 -0.0020411337617381132 -0.0024530513401519183 -0.0020407412949330584
          -0.002679438963492654 -0.002669416223285217 -0.002659393483077781 -0.0024027599989964545 -0.002014282386216836 -0.0023983687439656943
          -0.002016092865421281 -0.002393977488934935 -0.002017903344625726 -0.0026747851642724206 -0.002463160387549426 -0.002664547997412991
          -0.0024545616960740977 -0.0026543108305535617 -0.0024459630045987695 -0.002677138499044682 -0.0027293966327702596 -0.002670670321520812
          -0.0027200694096350666 -0.0026642021439969425 -0.0027107421864998736 -0.002435353589549104 -0.002595703497377664 -0.0024294908128878684
          -0.0025884875482484458 -0.0024236280362266334 -0.002581271599119227 -0.001285260735439257 -0.001293576466334706 -0.0013018921972301552
          -0.0009079166677048848 -0.0010498202314054201 -0.0009204467160423323 -0.0010615200846537884 -0.0009329767643797797 -0.0010732199379021564
          -0.0025736840587287997 -0.0025638226791950885 -0.0025539612996613777 -0.0008191232583558636 -0.00083145826566488 -0.0008437932729738964
          -0.0025529087170124763 -0.002537723048871723 -0.00252253738073097 -0.0006983488788087637 -0.0007107246536304542 -0.0007231004284521445
          -0.0016474583002995086 -0.0016495851502460245 -0.0016517120001925398 -0.0013984462705404074 -0.0014041561020880504 -0.0014098659336356937
          -0.0012031409435849481 -0.0012108914939659681 -0.001218642044346988 -0.0018420320197084401 -0.0018398252374947507 -0.001837618455281061
          -0.0018608156448511567 -0.0018603877243694002 -0.0018599598038876435 -0.0014680595691627788 -0.001470549604388497 -0.0014730396396142147
          -0.003451734873225193 -0.00380357116862966 -0.003437723673281225 -0.003792011784554438 -0.003423712473337257 -0.003780452400479215
          -0.0029721533178350967 -0.0029629610797821454 -0.002953768841729193 -0.0024305302525372274 -0.0024286936984941627 -0.0024268571444510984
          -0.0019050265031196252 -0.0019084131912490258 -0.0019117998793784262 -0.001467795191070613 -0.001471753297574636 -0.0014757114040786594
          -0.001395351988573193 -0.0014042028337740067 -0.0014130536789748204 -0.0014180084679394774 -0.0014255422212527292 -0.0014330759745659809
          -0.002746115792577206 -0.002540289909037989 -0.0027365623467662656 -0.0025351081064502365 -0.002727008900955325 -0.0025299263038624847
          -0.001522817922933216 -0.001541286784045876 -0.0015266550673531123 -0.0015442713020507605 -0.0015304922117730085 -0.0015472558200556453
          -0.0025793473165740917 -0.00269503418426241 -0.002573741768862912 -0.0026871073597351013 -0.0025681362211517323 -0.002679180535207792
          -0.002431205672834855 -0.002426571240531936 -0.002421936808229017 -0.0015117733919419417 -0.0015163285121000867 -0.001520883632258232
          -0.0027648208411267237 -0.002758563611270481 -0.0027544020782838824 -0.0027509418593957722 -0.002743983315441042 -0.0027433201075210637
          -0.0015804125200865713 -0.0015854601858572718 -0.0015905078516279723 -0.001763306900531763 -0.0021345084579464445 -0.0017661834096746386
          -0.0021360980799669652 -0.0017690599188175144 -0.0021376877019874865 -0.0014295093614883677 -0.0014368774376355546 -0.0014442455137827414
          -0.002260965320612973 -0.0022570186789931885 -0.0022530720373734035 -0.0010639901685800413 -0.001430187485721952 -0.0010716576157060378
          -0.001433598463016932 -0.0010793250628320344 -0.0014370094403119125 -0.0020811608013888644 -0.0020780119572451714 -0.002074863113101477
          -0.0018611694906853302 -0.0018589577062248703 -0.0018567459217644102 -0.0011068155448541548 -0.001117582269799073 -0.0011283489947439911
        </DataArray>
        <DataArray type="Float64" Name="disp_x" format="ascii" RangeMin="0.0000018232923683686622" RangeMax="0.00003430037776567557">
          0.0000024101968365208395 0.000002469902671339474 0.000002408768489189217 0.000002481149592403651 0.000002406009419595686 0.000002472617777538584
          0.0000029905185303713647 0.000003016784315631982 0.000002989252048043341 0.000003016569029912985 0.0000029857338586804684 0.0000030121648218437044
          0.0000035398322770044165 0.0000035502294944395 0.0000035398737854463434 0.0000035482712323365675 0.000003540257688288888 0.000003549502726596502
          0.000004092363564452128 0.000004096211146896213 0.000004092337875743003 0.000004096546199195663 0.000004092093722719253 0.000004095993162774365
          0.000004647781538547796 0.000004648723128599137 0.000004648340167649823 0.0000046490871822996815 0.000004649201348394711 0.000004649572043954275
          0.000005211644230634272 0.000005206717455543371 0.000005213753627123523 0.000005208246208293497 0.000005220503813733551 0.000005213480803785138
          0.000005858478807654572 0.000005823986339167772 0.000005861967806598385 0.00000582780276286583 0.00000587413234198619 0.0000058390193723593816
          0.000006665629233188587 0.000006610291315838742 0.000006675415048420871 0.000006619879850939133 0.000006698108708258679 0.000006649899659308218
          0.000002388501028393275 0.0000023884318434911803 0.000002387890631793352 0.000002957012712490679 0.000002956701315457755 0.000002955893095891184
          0.0000035238621197339085 0.0000035236737389779 0.00000352327178837035 0.000004084077752481093 0.000004084175017420146 0.000004084028280474832
          0.000004643649539446179 0.000004644662873754529 0.0000046474171824847125 0.0000052372595603769835 0.000005240332957172759 0.000005250444040388512
          0.0000059494843526764815 0.000005953734572232172 0.000005966190571892995 0.000006830545517506663 0.000006839567350077324 0.000006864571667810204
          0.0000023883837838598723 0.000002388307541853196 0.0000023880947663321736 0.0000029495657292203863 0.0000029494157333608376 0.0000029490311103757544
          0.0000035136727225349808 0.0000035135576518407733 0.0000035130350940758667 0.0000040769830120093045 0.000004077316179703947 0.0000040780658246424555
          0.00000464777068167687 0.000004649971221114982 0.000004656327474543223 0.000005295672693020859 0.000005299828683300078 0.000005313342290426514
          0.000006098860942533076 0.000006104280264016166 0.000006120235947798579 0.000007120178271127819 0.000007128229065384707 0.000007153791978130762
          0.0000023893465347159645 0.000002389314759419906 0.0000023892374029638166 0.000002950007025266628 0.000002949880968812011 0.000002949486408175706
          0.000003511462592581429 0.000003511598647410501 0.000003511527712257109 0.000004074513271546666 0.00000407548712481267 0.000004078607406116601
          0.000004678505291934219 0.000004682117730734803 0.000004692766558950067 0.0000054055775535781014 0.0000054108129352307605 0.000005427783871334712
          0.000006330550453661835 0.000006336470567411991 0.000006353474371571676 0.000007483357427750254 0.000007492250455179799 0.000007518058476816935
          0.0000023915039171563598 0.0000023914596351070384 0.0000023914578696575862 0.0000029526168367642164 0.000002952582335654018 0.0000029522111855861926
          0.0000035140127488136766 0.0000035144917385432847 0.000003515567118105211 0.0000040883858127704894 0.0000040906595440911054 0.000004097833610024854
          0.000004751133043657906 0.0000047561719956604244 0.000004771083100213573 0.000005582735495927923 0.0000055888332159587325 0.000005608557844018551
          0.000006644306903108347 0.000006650818367432391 0.000006669117500468981 0.000007953081211725289 0.000007962924126317819 0.000007992280882583423
          0.0000023938380983381726 0.000002393808007089 0.0000023936614741140507 0.000002956288402445385 0.00000295651045755752 0.000002956732520249119
          0.000003520106048528669 0.000003521375415578222 0.0000035252816693278088 0.000004134504139867232 0.000004138253321897612 0.00000414981203460478
          0.000004882219848369864 0.000004888493902298922 0.000004907052103165567 0.000005838675333286021 0.000005845611552066617 0.000005868057891397594
          0.000007058350591049095 0.000007065696049808329 0.000007086318015564754 0.000008559206239343038 0.000008569828740619512 0.000008601564974323916
          0.00000183053635924882 0.0000018305191442835816 0.000001830495275280517 0.0000023940072654693065 0.0000023941560703693597 0.000002394271082694425
          0.00000295772523661007 0.000002958378732703051 0.000002960365854527181 0.00000354452484868452 0.00000354721830998393 0.0000035553081827836295
          0.000004226302512625449 0.00000423141433021257 0.000004247065546418044 0.0000050845216220376354 0.000005092008426944243 0.000005114276465489137
          0.000006192355667856899 0.000006200178757408659 0.000006225309568835618 0.000007598383400807827 0.000007606417583451916 0.0000076289376161805815
          0.00000931108138913783 0.000009321898679460161 0.000009354384592989951 0.0000018282038805342821 0.0000018282141888714622 0.0000018279769687097941
          0.0000023907294614242287 0.0000023911992834519413 0.000002392366674503652 0.0000029612455811856935 0.0000029631082099650887 0.000002968948059477952
          0.000003602531746248722 0.0000036065489881625722 0.0000036186671447872638 0.000004376727856321648 0.000004383233139913857 0.000004402845793884735
          0.000005372266992648705 0.000005380977096579671 0.0000054071477964181645 0.000006663269511725131 0.000006671844218835334 0.0000066992707052717835
          0.000008284078867801857 0.000008292446039933344 0.000008315777552763916 0.000010222617320734734 0.000010233158632304378 0.000010264575201002468
          0.0000018242308633952312 0.0000018244377111974808 0.0000018245269223895662 0.000002384612551394393 0.0000023857872380112907 0.000002389517728876048
          0.000002985343445115093 0.000002988649289040593 0.0000029988510586774115 0.000003701961961288434 0.0000037074819036002158 0.0000037239204157588836
          0.0000045969528882784015 0.000004604818748676959 0.000004628745680200466 0.000005762748704975447 0.0000057725503927456525 0.000005802186428941439
          0.000007267731735179251 0.000007276888498813661 0.000007305869423280505 0.000009127075388137835 0.00000913531913407045 0.000009158372575380225
          0.00001130173513568299 0.000011311175645584151 0.00001133922739108084 0.0000018232923683686622 0.0000018238731630724122 0.0000018248535249268229
          0.000002388221228180321 0.0000023904929379874955 0.000002397872221282915 0.000003038653092948792 0.000003043527779185529 0.000003058565527797144
          0.000003852000773503691 0.000003859235804572921 0.000003880802760979248 0.000004902281086592414 0.000004911610669283216 0.000004940014938749931
          0.000006275507979876713 0.000006286071652458326 0.000006317875930454881 0.000008018095030493821 0.000008027260353954871 0.000008056439130168886
          0.000010125251566067025 0.00001013315191587677 0.000010154834177594678 0.00001253319137619045 0.000012540966776146538 0.000012564271887533025
          0.0000018253616900552186 0.0000018262703323816444 0.0000018289356173794321 0.0000024158521714876223 0.000002419653852485462 0.0000024312712339275414
          0.0000031342214373136963 0.000003140994298689959 0.0000031614646839169738 0.000004070372391004954 0.000004079444093530001 0.00000410702947070558
          0.000005314505823613525 0.0000053251180401763585 0.000005357435571252959 0.000006927971785435402 0.000006938655563636112 0.0000069709035671621886
          0.000008925307364739348 0.000008934265300430002 0.000008961383711162617 0.000011268963744168294 0.000011275938226987195 0.000011296162610497092
          0.000013894570460617244 0.000013900584633855673 0.000013919318442664514 0.0000018337095726965416 0.0000018357498886138234 0.000001842038805155179
          0.0000024730983470307974 0.000002478572860863964 0.000002495192804081523 0.0000032877359193992234 0.0000032964292622790126 0.0000033228214011898237
          0.000004388131808292482 0.00000439893484527005 0.000004431867602070567 0.000005858118266019636 0.0000058695431800486805 0.000005904184771379332
          0.00000773263895549247 0.000007743212632412598 0.000007774934857581305 0.00000999627235936388 0.000010004561558793802 0.000010030289665590368
          0.000012598583451291663 0.000012604213219956 0.000012620889326081636 0.000015459384672277835 0.000015463424377446854 0.000015473475676286696
          0.000001860591287219391 0.0000018644514587720131 0.0000018756540577833202 0.0000025714717832078035 0.0000025788782832248213 0.0000026015827692298376
          0.0000035234442489460617 0.000003534038166779839 0.000003566335935227114 0.000004828645042452726 0.000004840744864543154 0.000004877564721218897
          0.000006554511523918658 0.000006566258528348825 0.0000066018010437178965 0.00000870732099500119 0.000008717262477076945 0.00000874726579217986
          0.000011242863266740349 0.000011250060374763583 0.000011271666377873557 0.000014080989935375051 0.000014085187629136025 0.000014097700907945715
          0.000017115095068405152 0.000017117044753660415 0.000017122919048921876 0.000001916819435608668 0.000001922653888750107 0.0000019393184217645353
          0.0000027322508692921692 0.000002741740016257427 0.0000027712090918910684 0.0000038640075892091876 0.000003876424450365474 0.000003914159497186947
          0.0000054153006173854005 0.000005428186575349628 0.000005467227611428121 0.00000742452282318226 0.000007435944696831461 0.000007470494102909668
          0.000009865173192889102 0.000009873949101314745 0.000009900320031013107 0.000012660281006830177 0.000012665823965882886 0.000012682609757567327
          0.000015703876930810982 0.00001570624582085488 0.00001571325298470697 0.000018879750643430948 0.00001887946843174818 0.00001887733517286583
          0.0000029784626326516194 0.000002990017715881644 0.0000030263701227222364 0.000004337786851328009 0.000004351583405911426 0.0000043933124817601636
          0.000006173404803381274 0.000006186292133330375 0.0000062253316742384455 0.000008484421203907277 0.000008494851059150543 0.000008526357089031681
          0.00001120937677009839 0.00001121644236581562 0.000011237734434520574 0.000014242412480311526 0.000014245900980070944 0.000014256068595723464
          0.00001745013050926715 0.000017450331035256784 0.00001745109184688049 0.000020702733048963476 0.000020700584195072944 0.00002069370701506267
          0.0000033394221708125565 0.000003352601446185649 0.0000033948024441946576 0.000004976085970172924 0.000004990596891787859 0.000005034118369680448
          0.000007127811253621208 0.000007139907286519381 0.000007176478119581338 0.00000974753371602322 0.00000975624186354509 0.000009782482962561298
          0.000012737032590308116 0.000012741954600573456 0.00001275678650500949 0.00001596911260148339 0.00001597034676357602 0.000015973869743985634
          0.000019301620426963335 0.000019299726084264063 0.000019293221797677646 0.00002258498494202753 0.000022581599923833944 0.000022568426060123774
          0.000003848837929542322 0.000003862748921270521 0.0000039082966073985286 0.000005809445774747588 0.000005823802550203775 0.000005866360257489976
          0.000008298900151387237 0.000008309435160599794 0.00000834121449308438 0.000011222606275772082 0.000011228930483999675 0.000011247925043770395
          0.000014446395370933369 0.000014448517018605618 0.0000144549283480199 0.00001782111509403346 0.000017820367730445096 0.00001781721310220468
          0.0000212127809368183 0.000021209994050294156 0.000021202261945948566 0.00002453117127842264 0.000024524803358066706 0.00002450692667233309
          0.000004543830370011862 0.00000455698671768308 0.00000460186601012911 0.000006866431633319842 0.0000068796343996147 0.0000069181918872435355
          0.000009701072720385595 0.000009709382992256371 0.000009734237783112553 0.000012909835521642852 0.0000129133046443063 0.000012923760793446133
          0.00001632972346494711 0.000016328827873754732 0.000016326348409450036 0.000019798258578690743 0.00001979531105503479 0.00001978446897115231
          0.000023183481458005935 0.000023179702427234426 0.000023167806448823113 0.00002642535398226913 0.000026417125742810493 0.000026397627948431895
          0.000008171239501471097 0.000008182264532341557 0.000008213798552977254 0.00001134356437993436 0.00001134900074056297 0.000011365056602431406
          0.000014803610337723455 0.000014803915999918129 0.000014804942335639713 0.00001836985098558515 0.0000183660565635695 0.000018354902025496242
          0.000021878467015798625 0.000021873687290153225 0.000021856761108102536 0.00002521577391096777 0.000025209860582606613 0.0000251946890307119
          0.000028345523257524736 0.000028334546890480656 0.000028304597011382763 0.000009741820719030089 0.000009749688256092793 0.000009771435298631693
          0.00001322894120012408 0.000013231003369820411 0.00001323671548373225 0.000016891100736968478 0.000016888069004909742 0.000016879142798318657
          0.000020538873069632756 0.000020532217012479712 0.00002051263095878712 0.00002401564906355802 0.00002400880627671627 0.000023985000410400407
          0.000027217337813705764 0.000027208754070231883 0.00002718651339192491 0.000030093459243757766 0.00003008016573067993 0.00003004020348342533
          0.00001158850581785675 0.00001159226701004108 0.000011601712850148676 0.000015348541025414396 0.00001534680182873187 0.00001534083256288335
          0.00001914319273129732 0.00001913661829769175 0.000019117109396532587 0.000022782711633706756 0.00002277313654313663 0.000022744660866137674
          0.000026120262092896625 0.000026111249987304784 0.000026080480921354038 0.00002906752371799959 0.000029056765502316342 0.000029029231085130465
          0.00001370904024258208 0.000013707857266237292 0.000013702857714761393 0.0000176727337421193 0.000017666843386204326 0.000017648124329218332
          0.00002150163898836062 0.00002149149056670501 0.000021461185976413838 0.00002501558819694623 0.00002500340914467805 0.000024966863877393988
          0.000028093230624070175 0.000028082332532081213 0.000028046489706694018 0.0000272349331019668 0.00002377258609768039 0.0000218454038166243
          0.00002466387509201989 0.00002722502921525448 0.00002376709231898804 0.000021842402844433154 0.000024657502556702292 0.00002719353965719457
          0.00002375141367760176 0.0000218334802617049 0.000024640873002218345 0.000013600714812327461 0.000014791239128917559 0.000012877831350835467
          0.000011726245459439694 0.00001360964784203444 0.00001479887890326122 0.000012887530874618695 0.000011737667463464935 0.000013634859768896873
          0.000014819423246114271 0.000012920451311996392 0.00001177566777363971 0.00003095396090815256 0.00003161102229395831 0.00002977467243309741
          0.00003093868317631752 0.00003159615247527422 0.000029760049742175297 0.00003088858053771494 0.00003154533141954532 0.000029709031714459712
          0.00003160384269996382 0.000031592466235404435 0.000031559277424059013 0.000019854201755873655 0.000017942435181650083 0.00002016101704333344
          0.000022493471104784838 0.000019854038832788415 0.000017945117458359637 0.000020160871566846093 0.00002248965352459866 0.000019853796895333163
          0.000017953905610909636 0.000020163653466006322 0.000022477735453834638 0.000012187020099876545 0.000010621600672394556 0.000012199036459875581
          0.000010634370433642048 0.000012232905668551677 0.000010675938085947628 0.00002853903679359358 0.000030740643141691095 0.00003070148628384911
          0.00002852915855416609 0.00003073104095012105 0.00003069146308020652 0.000028495385337418956 0.00003070391704656721 0.00003065787027608511
          0.000009643932385108818 0.000010944570679878647 0.000009657648093618249 0.00001095918058722004 0.000009701862024373265 0.000011000903022437476
          0.00002800280302694601 0.000030424678151010196 0.000027990869791990387 0.00003041224020612041 0.00002795259339462268 0.000030371699404457355
          0.00001701464559201872 0.0000170188552266715 0.000017029451910943866 0.00002735517998981262 0.000030330859693372093 0.000027346438915802414
          0.00003032170655516999 0.000027319859307372465 0.000030292919502003415 0.000025586364260280656 0.00002769732972834893 0.000025578798680781014
          0.000027687161172426402 0.000025562739863117756 0.000027656756559728295 0.000016745732131372762 0.000017867622936228032 0.000016749974615443988
          0.000017870964251661512 0.000016763458031511172 0.000017880370554173973 0.000014115118117773442 0.000015754277992497157 0.00001412290239997108
          0.000015760335757220632 0.000014150033141482355 0.000015778079316095735 0.000008850515902588033 0.000008864565532138853 0.000008910073571094081
          0.000007897170068981644 0.000008261429084364376 0.000007913039480387023 0.000008275370125969739 0.000007954117380764034 0.000008317689119796224
          0.000015351419243303287 0.000015358959691305724 0.000015378612896532436 0.000007530481326725962 0.0000075456446840118535 0.000007601150998964489
          0.000028059954479804046 0.000028049192514052326 0.000028014285515052755 0.000007271034800937931 0.000007285251000076499 0.000007333089304344181
          0.00000992630474052245 0.000009943455995729767 0.00000999286018929962 0.000009111808418480588 0.00000912981938617371 0.000009188841946626595
          0.000008559156562239797 0.000008578021964315373 0.00000863497512238769 0.00003159968768359325 0.00003158636536509362 0.000031543226863336764
          0.00003068738898703814 0.00003067634245931181 0.000030646816956767106 0.00003283289426160044 0.00003282103795893964 0.00003278361829413351
          0.000020144901267143374 0.000016083249080601805 0.000020134570593708005 0.00001607651828000297 0.000020102459935523605 0.000016055464152573193
          0.000023877873470408665 0.000023864503977349024 0.000023824224097972354 0.000027133021271930234 0.000027119058468077387 0.000027076870644694794
          0.00002984199638515916 0.0000298307000428825 0.000029793541511287373 0.000032027244134723834 0.00003201724927228695 0.00003199031485459967
          0.00003334934497805095 0.000033338795813264115 0.00003330896759716629 0.00003336932724029217 0.00003336139065107596 0.00003333967319466729
          0.000022004138906742386 0.000025491625741434038 0.000022000883899901605 0.00002548375820484053 0.000021989288908131982 0.000025459287609464356
          0.00003346643197862398 0.00003321523785950915 0.00003345821646784664 0.00003320660990694425 0.000033434395924106324 0.00003318339687021827
          0.000015860498322581842 0.000017855668865611122 0.000015866233862242048 0.000017858203423984516 0.000015881217308992547 0.000017865900434597292
          0.000014022740326930928 0.000014031908156921848 0.000014059371724946867 0.000033194645955733714 0.00003318551401553448 0.00003316085884096522
          0.000019363859451942588 0.0000209901155134297 0.000019364426524543816 0.00002098904877858306 0.00001936859036747611 0.00002098656126898016
          0.00003344579279179925 0.0000334390176210651 0.00003341787769846781 0.00003280861228244336 0.000029522776522772756 0.000032803379960537565
          0.000029515554583405618 0.00003278956469445488 0.000029491775958135683 0.000032918712342519964 0.00003290587837650075 0.00003286168562796965
          0.000012478856118296716 0.000012491378711779467 0.000012529442574971544 0.000007850791143056955 0.000008803674267594477 0.00000786881198573953
          0.00000882334704074087 0.000007925526824317128 0.000008883116596611455 0.000011236390131362297 0.000011252246787307177 0.000011300067532615876
          0.000010143183236910883 0.000010161463924977862 0.000010219247256762346 0.00003430037776567557 0.00003429153149826085 0.000034270551769098594
        </DataArray>
        <DataArray type="Float64" Name="disp_y" format="ascii" RangeMin="-0.000022042878754626157" RangeMax="0">
          -1.7879710322394464e-7 0 -1.802423101053746e-7 0 -1.8640380521381956e-7 0
          -1.4800879867304067e-7 0 -1.4766492210010116e-7 0 -1.4599934278385104e-7 0
          -1.4844142266066206e-7 0 -1.4817814417608493e-7 0 -1.4767555817928783e-7 0
          -1.5127771132431427e-7 0 -1.5130540746165682e-7 0 -1.5121208544581163e-7 0
          -1.557285814949946e-7 0 -1.5536555681648824e-7 0 -1.5470908667212137e-7 0
          -1.6874002451891165e-7 0 -1.6776836623669356e-7 0 -1.6472680326627343e-7 0
          -2.1902571749210404e-7 0 -2.1774232199447588e-7 0 -2.1322504672979727e-7 0
          -3.378960548549012e-7 0 -3.3628610646808455e-7 0 -3.331557125255211e-7 0
          -3.2385446760108527e-7 -3.246033220833461e-7 -3.260431630658587e-7 -3.0694324703936966e-7 -3.069194557593823e-7 -3.0688754784288144e-7
          -3.0067891815997505e-7 -3.0056071961518214e-7 -3.000708928831021e-7 -3.0529555666231564e-7 -3.0513821231534276e-7 -3.050074216436467e-7
          -3.1429506837377537e-7 -3.135339553189793e-7 -3.1151959332382994e-7 -3.515800384481146e-7 -3.4976503464531086e-7 -3.4416177872345346e-7
          -4.639214829035059e-7 -4.6122439346636464e-7 -4.5263295358979716e-7 -6.739859214194654e-7 -6.711494312152498e-7 -6.610498518320964e-7
          -4.637916839461443e-7 -4.6377700856981414e-7 -4.638541475464497e-7 -4.586802583028147e-7 -4.5870536590419786e-7 -4.586740493490364e-7
          -4.560115679554847e-7 -4.559786409411848e-7 -4.5598425806625685e-7 -4.607454951010014e-7 -4.60299757463875e-7 -4.5940991488660634e-7
          -4.820402917013985e-7 -4.806308084578335e-7 -4.7651110744161377e-7 -5.612417747670904e-7 -5.586005782229452e-7 -5.50414573970391e-7
          -7.480625344075836e-7 -7.444383273379586e-7 -7.330111519609281e-7 -0.0000010817777911328277 -0.0000010778035624213225 -0.000001065242768739843
          -6.053742113045942e-7 -6.05396135378692e-7 -6.055097105825239e-7 -6.058493324802717e-7 -6.05849740763353e-7 -6.057977873931079e-7
          -6.085143925239129e-7 -6.083785094810773e-7 -6.082764006090384e-7 -6.192186533818554e-7 -6.183277594682348e-7 -6.160052988420638e-7
          -6.674003934021613e-7 -6.652494978735918e-7 -6.58547555449165e-7 -8.071806214286845e-7 -8.037788743389841e-7 -7.931298788351244e-7
          -0.0000010895490195815294 -0.0000010852515762203125 -0.0000010721698034964152 -0.0000015484910465696553 -0.0000015436100378502763 -0.0000015300526068781112
          -7.488182818112016e-7 -7.488248159549691e-7 -7.487974209604041e-7 -7.518954145906859e-7 -7.518769196261827e-7 -7.519290732868843e-7
          -7.583068586726287e-7 -7.577856100979074e-7 -7.566959045826966e-7 -7.85270650552945e-7 -7.836641651171167e-7 -7.78917172746253e-7
          -8.802543379945354e-7 -8.773218568292181e-7 -8.68211645694176e-7 -0.0000010999436254896685 -0.0000010957826420093632 -0.000001083049176155459
          -0.0000014917481553295148 -0.0000014866747630129627 -0.000001471328691643799 -0.000002081710505736279 -0.00000207618233415087 -0.0000020590113538290336
          -8.936139809058063e-7 -8.936261943870685e-7 -8.936324479959825e-7 -8.972132872365819e-7 -8.969422818275555e-7 -8.965714445819111e-7
          -9.105533887731674e-7 -9.094150997432831e-7 -9.0631419742344e-7 -9.69389889817268e-7 -9.66994790032462e-7 -9.595407239248538e-7
          -0.0000011301209674157686 -0.0000011263491565251934 -0.00000111476887432102 -0.0000014469945376677278 -0.0000014420380785384988 -0.0000014269547067531223
          -0.000001963877669792907 -0.000001957998772037141 -0.0000019401786007150796 -0.000002706439985775091 -0.0000027002254054769208 -0.0000026808997054920013
          -0.0000010372503729498862 -0.0000010372682427110105 -0.0000010372922584469489 -0.0000010395410858265723 -0.0000010394750146582805 -0.0000010395975281946307
          -0.0000010428003388672588 -0.0000010420650093515671 -0.0000010401857926372207 -0.0000010733122907939556 -0.0000010714032237159963 -0.0000010655112570042928
          -0.0000011834213887614458 -0.0000011801323079042353 -0.0000011701213913098629 -0.0000014268164807597963 -0.0000014221631822089497 -0.000001407863876402119
          -0.0000018586600058176299 -0.0000018528350182510892 -0.0000018350131248562588 -0.0000025196024550376253 -0.000002513029511692231 -0.000002493132797977791
          -0.0000034305371909731664 -0.0000034239894042184907 -0.0000034037706843540533 -0.0000011840267651324912 -0.00000118407972910679 -0.0000011842641702965912
          -0.0000011856782048518382 -0.0000011853226369179826 -0.0000011846919545672644 -0.0000011955452833328065 -0.0000011941589834763956 -0.0000011900188977629877
          -0.000001260149656345947 -0.0000012573701100070782 -0.0000012487550201980392 -0.0000014370494804683481 -0.0000014328221245608172 -0.0000014199882850546712
          -0.0000017826908479044908 -0.0000017770847207568686 -0.000001759859088565087 -0.000002349360046290773 -0.0000023426884295863292 -0.0000023222327743000704
          -0.0000031699286289679977 -0.000003162807965968048 -0.0000031412010577509705 -0.000004255785402913808 -0.0000042492561563656945 -0.000004228885543231458
          -0.000001330271615327476 -0.0000013302212017283295 -0.0000013304324284216772 -0.0000013345535861421983 -0.0000013338686562964112 -0.0000013320706612816134
          -0.0000013650794074029478 -0.0000013630268722842223 -0.0000013566162448801315 -0.0000014804281275106848 -0.0000014767568491703604 -0.00000146562757888425
          -0.0000017420843830077324 -0.0000017368200898128244 -0.000001720658307200952 -0.00000221229943055291 -0.000002205747420959069 -0.000002185597873697166
          -0.00000293406700051235 -0.000002926802185494967 -0.000002904511866750408 -0.000003924476930551259 -0.0000039173036554652786 -0.0000038950032923031985
          -0.000005182055738769113 -0.000005175623333216089 -0.0000051559923201980045 -0.0000014755453329902065 -0.0000014752440277573874 -0.0000014747289114020023
          -0.0000014908062211502757 -0.0000014895443047051425 -0.0000014860215989361398 -0.0000015590469212762753 -0.0000015562883898154936 -0.0000015480682423183879
          -0.0000017439969904176339 -0.000001739384181542986 -0.0000017253309224322244 -0.0000021136469491539206 -0.0000021073290380735303 -0.0000020876257985694635
          -0.000002731379545527624 -0.0000027240212068824746 -0.000002701410100732495 -0.0000036247060596568155 -0.000003617172378554244 -0.000003594343217365291
          -0.000004790122250852913 -0.0000047828954203824806 -0.000004761902587535477 -0.000006206154549592905 -0.000006200409650673444 -0.0000061817011338092775
          -0.000001622124819255172 -0.0000016214216780085295 -0.0000016195906359808768 -0.0000016591834468459136 -0.000001657164794777643 -0.0000016511664251656481
          -0.0000017834881076987182 -0.0000017797638169598644 -0.0000017686527095773251 -0.0000020620535338336316 -0.0000020563732631136346 -0.0000020387701606715125
          -0.000002569369306895864 -0.000002562103312069843 -0.000002539549945942641 -0.0000033550381164425386 -0.000003347125177428997 -0.0000033229394243033456
          -0.000004428086376477845 -0.000004420429058910107 -0.000004397344482069126 -0.000005767812059163037 -0.000005760976132046577 -0.000005740130598232753
          -0.000007325795494222842 -0.000007320476954649345 -0.000007304389169829914 -0.000001774785452793915 -0.0000017734122136399139 -0.0000017696619257317404
          -0.0000018470949285354024 -0.00000184414294046225 -0.0000018351256494718628 -0.0000020478648266350973 -0.0000020429195916287284 -0.00000202764497933455
          -0.0000024519788551370593 -0.0000024451558397825245 -0.0000024239714731269005 -0.000003124619322591775 -0.0000031166156369351632 -0.000003092068556628089
          -0.000004095178443651705 -0.000004087013604836024 -0.00000406216241437308 -0.000005352894972442265 -0.000005345427615037207 -0.000005322568127596003
          -0.00000685702992463076 -0.000006850772485802365 -0.000006831461541202724 -0.000008567325123921161 -0.000008562879281402251 -0.00000854866115381626
          -0.0000019375296662606794 -0.0000019353479688353814 -0.00000192895639689106 -0.0000020650991950166333 -0.0000020609249604906607 -0.0000020481173770775054
          -0.0000023701023695356234 -0.0000023638158348865676 -0.0000023442991599734977 -0.0000029305886228509377 -0.0000029227104551568878 -0.000002898406220764035
          -0.000003793147736395238 -0.000003784675827876853 -0.0000037587111744653148 -0.0000049618230875380735 -0.000004953751258042025 -0.000004929200233714569
          -0.000006403685249220027 -0.0000063968303251998355 -0.000006376055170502989 -0.000008064327191711922 -0.000008059068850041018 -0.000008043634602551639
          -0.000009881312779611709 -0.000009878119619610496 -0.00000986795673309191 -0.0000021177608957112633 -0.000002114430931888695 -0.0000021044993866669377
          -0.0000023255551510644074 -0.0000023199907702167595 -0.000002302768903595901 -0.000002768538787070505 -0.000002760925469758618 -0.0000027372544717073036
          -0.000003515835443480404 -0.000003507120786771535 -0.0000034802605123035307 -0.0000045886342192840094 -0.000004579989349227727 -0.000004553590975536806
          -0.000005961811058839797 -0.000005954227060512627 -0.000005931186236310425 -0.000007579204066496191 -0.000007573370915960649 -0.000007555830873790894
          -0.000009370292545202859 -0.000009366645993819987 -0.000009355512370137836 -0.000011260933836475247 -0.000011259625691171043 -0.00001125495129595811
          -0.000002644919123002845 -0.000002637783078051799 -0.00000261551987467732 -0.0000032630475611024113 -0.000003254185579926884 -0.0000032266930431715193
          -0.000004225593375187029 -0.000004216338471875808 -0.000004187947777048692 -0.000005521991246024193 -0.00000551359344400671 -0.000005488094186462305
          -0.000007097111547795752 -0.000007090462796032009 -0.000007070292167759642 -0.000008871050630019659 -0.000008866628829333615 -0.000008853071449753108
          -0.0000107579962525533 -0.000010755751708632845 -0.000010749569336015702 -0.000012685568793183873 -0.0000126854973914413 -0.00001268659255151328
          -0.0000030441576211165406 -0.0000030353237644521824 -0.000003007736089539628 -0.000003875367421673043 -0.0000038655032533664 -0.000003835062447599274
          -0.000005075593953687192 -0.00000506621039402924 -0.000005037548246364086 -0.000006598976221115 -0.000006591284701156096 -0.000006568002405098895
          -0.000008362793254303856 -0.000008357477512160336 -0.000008341572889392745 -0.00001026680517315214 -0.000010264015080954967 -0.000010255735510684505
          -0.00001221175646822909 -0.000012211249275945248 -0.000012209123233418317 -0.000014123955164330239 -0.000014124913435397623 -0.000014127259811903039
          -0.0000035485481952322785 -0.0000035380990507650776 -0.000003505629640339896 -0.000004627472712561714 -0.000004617005700442499 -0.00000458497608878453
          -0.000006078432735086187 -0.000006069419487107162 -0.000006041996338385721 -0.00000782022968777226 -0.000007813643953209578 -0.000007793693291217256
          -0.000009746992852067457 -0.000009743257255096828 -0.000009732214528889222 -0.00001174632531076175 -0.000011745332707929929 -0.000011742848323448701
          -0.000013715377257199216 -0.000013716346749208467 -0.000013720276420809652 -0.000015580813140345804 -0.000015583072067207036 -0.000015586850465200725
          -0.000004186686356523674 -0.0000041749415986520756 -0.000004138696222165006 -0.00000553949251178358 -0.000005528941672728299 -0.000005497001181662989
          -0.0000072423471642146564 -0.000007234228042543854 -0.000007209642236866375 -0.000009181722179876632 -0.000009176587592540469 -0.000009161089890927978
          -0.000011234771652194536 -0.000011232727426520243 -0.000011226712614847972 -0.000013285704374840253 -0.000013286556653687859 -0.0000132890395008256
          -0.000015240461837639666 -0.00001524323559958321 -0.000015252055528198227 -0.000017039861302045653 -0.0000170445038986762 -0.000017056639052048184
          -0.0000066282934060195586 -0.0000066182344741505465 -0.000006588082945283768 -0.000008570080302968679 -0.00000856335148719531 -0.000008543067677450598
          -0.000010673957982698969 -0.000010670657634836893 -0.000010660708735749979 -0.000012808124229812825 -0.000012808042763623648 -0.000012807803031227394
          -0.000014861969474578555 -0.000014864836560832485 -0.000014872681642307129 -0.00001675555981976446 -0.000016760592206884096 -0.00001677504133694076
          -0.000018450327943594323 -0.0000184580134292157 -0.000018479078273618087 -0.000007906466288166321 -0.000007897527591202889 -0.0000078709224147471
          -0.000010057893592759469 -0.000010053072306077089 -0.000010038514684845202 -0.000012279965091297768 -0.000012278968827355333 -0.000012275831721061542
          -0.0000144411332864838 -0.000014443535708208302 -0.000014450540658913617 -0.00001644271409297357 -0.000016448009193109164 -0.00001646344036812878
          -0.00001822103956428208 -0.00001822850561029421 -0.000018251451932451452 -0.000019740044002433937 -0.000019749293029998107 -0.000019778174588509993
          -0.000009380392725502558 -0.000009373314671937865 -0.000009352305375690594 -0.000011693203961510741 -0.000011690886639610084 -0.000011683785503276908
          -0.00001397156266678309 -0.000013973400999791976 -0.000013978715517950349 -0.000016093262464777136 -0.000016098580717708537 -0.00001611436792124025
          -0.00001797697320512356 -0.00001798486111364599 -0.00001800874930707504 -0.000019575763263443183 -0.00001958527264219647 -0.000019614412625319477
          -0.000011045931264230232 -0.000011041560325510537 -0.000011028577019327523 -0.00001345015379245131 -0.00001345095699695159 -0.000013453342845672306
          -0.00001570499351829397 -0.000015710059324008593 -0.000015725293505774605 -0.00001770749473441672 -0.000017715716649887002 -0.00001774061154902222
          -0.000019401312083171913 -0.0000194112810615525 -0.000019441952904779957 -0.00001661550141953752 -0.000014535082801267481 -0.000013072917401623904
          -0.000014759981440231313 -0.000016620482092581875 -0.000014536982320764983 -0.000013073493863370097 -0.000014762802091587093 -0.000016632702792152286
          -0.00001454200954596873 -0.000013075951126674769 -0.000014771930437650122 -0.000005976905364568063 -0.000007079559541086392 -0.000006023122976104079
          -0.000005012613962525324 -0.000005972328589706942 -0.000007075999213337846 -0.000006017883970120262 -0.00000500687114130422 -0.000005958185757901961
          -0.000007065113167664327 -0.000006002317474008101 -0.000004989345530375623 -0.00001953396670217903 -0.000020377347530424728 -0.000019105621701633487
          -0.00001954189667998299 -0.00002038663663048065 -0.00001911295306631456 -0.000019566045572604987 -0.00002041919806315632 -0.000019139065997994316
          -0.000019850418914560726 -0.000019857543771692547 -0.000019883372297328937 -0.000011567017793144648 -0.000010128375876300424 -0.000011441141464733974
          -0.000013135366894744455 -0.000011566074583306894 -0.000010126301187112081 -0.000011440563534794921 -0.000013136637122507563 -0.00001156359665050457
          -0.00001011817794436433 -0.000011439064558187895 -0.000013141119868569016 -0.0000047227832834802155 -0.000004022900300523823 -0.000004717926751698415
          -0.000004016794903425341 -0.000004702542491280897 -0.000003997887551427185 -0.000017274397085877035 -0.000018709762419535332 -0.00001887406170332569
          -0.0000172788837084302 -0.00001871565550744512 -0.000018880261985862172 -0.000017296814747552446 -0.000018734701198285126 -0.00001889783639648005
          -0.0000031159781543744547 -0.0000036144529702424845 -0.0000031098899365747394 -0.0000036095151436730984 -0.0000030908975404065054 -0.0000035943306491302874
          -0.00001760797806821783 -0.000018936363094725056 -0.00001761478013371658 -0.000018943020065091158 -0.0000176336586327628 -0.000018969976376818775
          -0.000008806869448504375 -0.000008804191342117525 -0.00000879760897361699 -0.000016384552554939904 -0.000018221300546418238 -0.00001638951094075022
          -0.00001822731825475163 -0.000016403742956951286 -0.00001824886924029063 -0.000015934921075037317 -0.000017138976406643046 -0.00001593824747870099
          -0.000017145028186608093 -0.000015947203351471863 -0.00001716223341516542 -0.000009201491589640014 -0.000009771035999949466 -0.00000919822640276389
          -0.000009768672063801844 -0.000009188840339490241 -0.000009762624836910339 -0.000007037372873988031 -0.000008265961904175066 -0.000007033071942468785
          -0.000008262406163569135 -0.000007019722695508382 -0.000008252497300628838 -0.0000023395089450324125 -0.0000023341688906205995 -0.0000023162671899316084
          -0.0000012022259654331898 -0.0000017075126148188602 -0.0000011986693366072945 -0.0000017031016667323281 -0.0000011887926077331326 -0.0000016884137232446643
          -0.000007665664246730155 -0.000007662489334942834 -0.000007654344126852136 -7.322139497340111e-7 -7.315708543926796e-7 -7.24588295752687e-7
          -0.00001794084696792888 -0.000017947374337266303 -0.00001796645000224151 -3.8314231098682487e-7 -3.823934759194565e-7 -3.8207565806081216e-7
          -0.000002660842466653882 -0.0000026563884795057616 -0.0000026415318115422314 -0.0000018102415637826933 -0.00000180866568051499 -0.0000017991662894374195
          -0.0000013686675137417335 -0.000001365964771324207 -0.0000013654225227934023 -0.00002085968417737447 -0.000020869700885619206 -0.000020901053765828776
          -0.000020765858719634275 -0.00002077611269255138 -0.000020807859376212678 -0.000021801884938129716 -0.00002181111434612769 -0.000021840748555419982
          -0.00001528420588456965 -0.000012881673152004272 -0.000015288695963931864 -0.000012880985354903676 -0.00001530244061649422 -0.00001287885090334027
          -0.000017419333057264714 -0.000017427732716926166 -0.000017453392591607512 -0.00001921687753750744 -0.000019227448363196614 -0.00001926003910320394
          -0.00002065738108056815 -0.000020668279220271405 -0.00002070227117266815 -0.000021759917377560157 -0.00002176975921342069 -0.00002180048921027044
          -0.0000211541019443169 -0.000021161595766972918 -0.000021183494056261285 -0.000020932248653665456 -0.00002093979976824217 -0.000020961259752488634
          -0.00001239925903967539 -0.000014885388905575577 -0.00001240041448799972 -0.000014888798242693017 -0.000012404147940915081 -0.000014898524311196022
          -0.00002037121139301903 -0.00002040365191252798 -0.000020377379423518596 -0.000020410245792481518 -0.00002039325960405287 -0.000020429620029568643
          -0.000007127012698799497 -0.000008933772674246784 -0.0000071245610109180695 -0.000008931989875137643 -0.000007116968756840029 -0.000008926110866652414
          -0.000005544578660055065 -0.000005541954673085045 -0.000005534474958972811 -0.000020602549790149147 -0.000020610605397901336 -0.000020632873202819372
          -0.000010495581341021727 -0.000011236462316325671 -0.00001049552616362968 -0.000011237771301409109 -0.000010492172929380345 -0.000011241127039303034
          -0.00002012158831214916 -0.00002012848597648861 -0.000020145869862593683 -0.000019431694735778086 -0.00001746699714209959 -0.000019439184069353436
          -0.00001747318362195773 -0.000019465283552306564 -0.000017489534315241762 -0.000021384688488394026 -0.000021393473268258652 -0.00002142066310324043
          -0.000004173773307255303 -0.000004171265177562925 -0.000004163217909424602 0 -0.0000010416679331337 0
          -0.000001039339230502641 0 -0.0000010343427038591713 -0.000003027885729095773 -0.0000030257552007304363 -0.000003020608581558114
          -0.000002033284733949293 -0.0000020312057810209008 -0.0000020288389533234985 -0.00002201695535967381 -0.00002202349527036047 -0.000022042878754626157
        </DataArray>
        <DataArray type="Float64" Name="disp_z" format="ascii" RangeMin="-0.0000012633014695055541" RangeMax="0">
          0 0 -6.738617427540112e-8 -8.343180611722752e-8 -1.31643074717857e-7 -1.8049312956248172e-7
          0 0 -5.664948029556622e-8 -5.14178029686774e-8 -1.1405399012100504e-7 -9.588356433546128e-8
          0 0 -5.5706617052369914e-8 -5.6038979358927385e-8 -1.1168454486495645e-7 -1.1357785624830373e-7
          0 0 -5.6567302371611065e-8 -5.616666139088689e-8 -1.132004082346257e-7 -1.120046503288339e-7
          0 0 -5.512456036472688e-8 -5.5198596452031964e-8 -1.1073198591305444e-7 -1.1105451404497048e-7
          0 0 -6.095993522080465e-8 -5.8299956400392175e-8 -1.2257425590017259e-7 -1.1695856315432318e-7
          0 0 -8.186345307667326e-8 -7.641503780348335e-8 -1.656504485039703e-7 -1.5560829072745214e-7
          0 0 -1.0999555037906104e-7 -1.0750443894027825e-7 -2.255723140506578e-7 -2.1942384673911292e-7
          0 -5.932907194595467e-8 -1.194566329868288e-7 0 -5.8252551714024275e-8 -1.1617549965479635e-7
          0 -5.7273947971601127e-8 -1.1463232031012517e-7 0 -5.6367367676802975e-8 -1.129062036625204e-7
          0 -5.6792975285345786e-8 -1.14498842223198e-7 0 -6.93385051008148e-8 -1.3940065577918636e-7
          0 -9.468474927427833e-8 -1.9139167154737301e-7 0 -1.2092798838463816e-7 -2.453190814378744e-7
          0 -5.911024485113708e-8 -1.1818673744102822e-7 0 -5.826802536516848e-8 -1.1655422616911895e-7
          0 -5.7593993954943635e-8 -1.152675580254371e-7 0 -5.636125559861599e-8 -1.1316670954960377e-7
          0 -6.170022873517209e-8 -1.2465615513859617e-7 0 -8.217703733735993e-8 -1.650485467387778e-7
          0 -1.1420555380542108e-7 -2.301741344305204e-7 0 -1.4835101973174606e-7 -2.992240306326602e-7
          0 -5.876741118981907e-8 -1.1748350469472715e-7 0 -5.843771067261251e-8 -1.1688524047005401e-7
          0 -5.724885572140359e-8 -1.1470263794502772e-7 0 -5.8411789560406874e-8 -1.1765834087712012e-7
          0 -7.158376331239278e-8 -1.447214430828304e-7 0 -1.004281669599501e-7 -2.0131576897161197e-7
          0 -1.3749280921724473e-7 -2.766191765594819e-7 0 -1.6957860443343243e-7 -3.4114462530358173e-7
          0 -5.870309857039026e-8 -1.1733125474125812e-7 0 -5.8436665615109667e-8 -1.170560170952889e-7
          0 -5.7358667549466224e-8 -1.1519139922446788e-7 0 -6.404750779223331e-8 -1.2936236026177053e-7
          0 -8.661220905433736e-8 -1.748176383255792e-7 0 -1.2266481996163862e-7 -2.454781835641314e-7
          0 -1.6348433320743935e-7 -3.2884527315250536e-7 0 -1.9748955594295176e-7 -3.974692752526049e-7
          0 -5.8812510363975684e-8 -1.1767468104430732e-7 0 -5.804050824307823e-8 -1.1633315365300251e-7
          0 -6.012452598725645e-8 -1.212340086967539e-7 0 -7.542718792526316e-8 -1.5244065296796238e-7
          0 -1.0604559811021653e-7 -2.1355928445837893e-7 0 -1.4850251877055237e-7 -2.9712790497023525e-7
          0 -1.942928357524225e-7 -3.9050376539294585e-7 0 -2.3278951461110226e-7 -4.676990549783636e-7
          0 -5.868254171496824e-8 -1.1737035889628362e-7 0 -5.849570453487256e-8 -1.1714751720660376e-7
          0 -5.906373194136815e-8 -1.1878756257507615e-7 0 -6.795146488053669e-8 -1.3725788645704263e-7
          0 -9.178329504505558e-8 -1.8518030464724576e-7 0 -1.3023866893269825e-7 -2.619359707327163e-7
          0 -1.7931465561336854e-7 -3.586796569822658e-7 0 -2.2939682389203784e-7 -4.604723785191056e-7
          0 -2.708108274645793e-7 -5.432297899899551e-7 0 -5.8529041255071793e-8 -1.1720007154689295e-7
          0 -5.78799089588076e-8 -1.1605285804108013e-7 0 -6.397063196217969e-8 -1.28988040976399e-7
          0 -8.176800236305119e-8 -1.6510298435133973e-7 0 -1.1280666438943783e-7 -2.2725029389007914e-7
          0 -1.5978734598149872e-7 -3.209867251985331e-7 0 -2.1552681529687156e-7 -4.3078964745631756e-7
          0 -2.684074847312782e-7 -5.380471013934274e-7 0 -3.096837458196607e-7 -6.204489533615685e-7
          0 -5.7727107466362116e-8 -1.1573243713236605e-7 0 -5.956838005042851e-8 -1.1980400995379236e-7
          0 -7.383731892813057e-8 -1.4902483635138838e-7 0 -1.0004791848635264e-7 -2.016880260828318e-7
          0 -1.3971361211104763e-7 -2.8111201468919906e-7 0 -1.951184740352073e-7 -3.914326382551447e-7
          0 -2.5628325051355465e-7 -5.117721194307214e-7 0 -3.104814326047923e-7 -6.212393373218336e-7
          0 -3.4846594742671705e-7 -6.975286341818801e-7 0 -5.7102212761093877e-8 -1.1455323068016578e-7
          0 -6.357821775541198e-8 -1.2808615630179862e-7 0 -8.737552508010662e-8 -1.765150621026981e-7
          0 -1.2326582803755257e-7 -2.481725313407154e-7 0 -1.736637655436902e-7 -3.489164742592499e-7
          0 -2.3582188865463505e-7 -4.7224954932447017e-7 0 -2.991907105286257e-7 -5.971929616630874e-7
          0 -3.5246642401516917e-7 -7.048786979952447e-7 0 -3.848813157096839e-7 -7.691053714909425e-7
          0 -5.8499292527629264e-8 -1.1788666074670085e-7 0 -7.163086664792555e-8 -1.4500877483418062e-7
          0 -1.0434615488704712e-7 -2.1053768368743248e-7 0 -1.5274299443183416e-7 -3.071436800011771e-7
          0 -2.1435319654310727e-7 -4.2984523132409123e-7 0 -2.8071677837611646e-7 -5.612590516756812e-7
          0 -3.416591403656938e-7 -6.819619631531405e-7 0 -3.879890169340565e-7 -7.74731752173525e-7
          0 -4.230946210911147e-7 -8.454895547976727e-7 0 -6.273863712036998e-8 -1.2678985972381086e-7
          0 -8.50536951627065e-8 -1.7229268758630387e-7 0 -1.2868475368516725e-7 -2.594842001185825e-7
          0 -1.8972210947016865e-7 -3.80987306639302e-7 0 -2.593292573555711e-7 -5.190170587734673e-7
          0 -3.270628798635211e-7 -6.533762537709353e-7 0 -3.8528150288092683e-7 -7.686781047608324e-7
          0 -4.304761250969598e-7 -8.591303165077734e-7 0 -4.5151370007381815e-7 -9.014310741497621e-7
          0 -7.124779222111244e-8 -1.443268999453512e-7 0 -1.0504530388377974e-7 -2.1257466846476374e-7
          0 -1.6151682159929205e-7 -3.251771304982738e-7 0 -2.3304927448377988e-7 -4.67074800170534e-7
          0 -3.074778034521768e-7 -6.145968695264012e-7 0 -3.7425599652973853e-7 -7.469869974485468e-7
          0 -4.271297180997942e-7 -8.51880445341202e-7 0 -4.6082379508034067e-7 -9.188891119703027e-7
          0 -4.779704697317924e-7 -9.53811627746975e-7 0 -8.5866716157292e-8 -1.7352710811821897e-7
          0 -1.3276622572082335e-7 -2.6844051712693986e-7 0 -2.026538614770307e-7 -4.070918595680923e-7
          0 -2.820532449188169e-7 -5.643289079620971e-7 0 -3.5763416373608097e-7 -7.14019576470071e-7
          0 -4.19672396439781e-7 -8.370879701858348e-7 0 -4.6301282244822626e-7 -9.23229268601206e-7
          0 -4.872962871384438e-7 -9.71731014119264e-7 0 -4.915240985445718e-7 -9.799640741820378e-7
          0 -1.6982268261271034e-7 -3.4277283856062783e-7 0 -2.5180794967639604e-7 -5.046645178277692e-7
          0 -3.351197118843104e-7 -6.694819338878527e-7 0 -4.0728820075837763e-7 -8.124973223742526e-7
          0 -4.6113204606483165e-7 -9.192830031653205e-7 0 -4.925750787698088e-7 -9.819534490049065e-7
          0 -5.017233290437028e-7 -0.0000010006215624134682 0 -4.958588449599696e-7 -9.899213271266441e-7
          0 -2.172299911777308e-7 -4.3752854062772847e-7 0 -3.077130779167825e-7 -6.153862750003284e-7
          0 -3.8996105486677976e-7 -7.780718294482991e-7 0 -4.5379126297027504e-7 -9.04759858949988e-7
          0 -4.953056579516807e-7 -9.87242029637205e-7 0 -5.137564482634781e-7 -0.000001024103161709206
          0 -5.092480614812418e-7 -0.0000010155538743799608 0 -4.844712550422766e-7 -9.67473889930282e-7
          0 -2.747025735835099e-7 -5.520955200180114e-7 0 -3.680569491503068e-7 -7.348247397386714e-7
          0 -4.439215373170689e-7 -8.849249666389267e-7 0 -4.95106699215495e-7 -9.86694436097212e-7
          0 -5.202076310857401e-7 -0.0000010368875811702137 0 -5.214471408740953e-7 -0.000001040351048924079
          0 -5.078266648112442e-7 -0.0000010133022038538439 0 -4.911819828094643e-7 -9.785891284633005e-7
          0 -3.404295178187281e-7 -6.830313138112775e-7 0 -4.29544060000055e-7 -8.566633893113136e-7
          0 -4.93795566825986e-7 -9.837578309114476e-7 0 -5.288824803423686e-7 -0.0000010537314963847438
          0 -5.359940014556276e-7 -0.0000010684400331541546 0 -5.195002656902128e-7 -0.0000010372189763499536
          0 -4.907579543459067e-7 -9.793515779978725e-7 0 -4.734293714144549e-7 -9.407938678298431e-7
          0 -4.88805074605875e-7 -9.743175093505107e-7 0 -5.365792781580082e-7 -0.000001068628390959359
          0 -5.528478176958865e-7 -0.0000011013681096358113 0 -5.414383663533372e-7 -0.000001079405014581496
          0 -5.095352304738655e-7 -0.0000010177679157806916 0 -4.7303705541532933e-7 -9.431122781886935e-7
          0 -4.5200173342806415e-7 -8.982841145856892e-7 0 -5.42551151327199e-7 -0.0000010812855603496572
          0 -5.696748817445862e-7 -0.000001134319293341976 0 -5.651270345751947e-7 -0.000001125793794275052
          0 -5.352844455651553e-7 -0.0000010671524541255773 0 -4.887741580679621e-7 -9.762887034161817e-7
          0 -4.3868438160664565e-7 -8.733594098081411e-7 0 -4.0000150724148824e-7 -7.96073780861353e-7
          0 -5.874843422739262e-7 -0.0000011708752408595951 0 -5.903598360003278e-7 -0.000001175361327337245
          0 -5.632448849250009e-7 -0.0000011219857437395149 0 -5.138758861971013e-7 -0.00000102457084306228
          0 -4.5091779311575034e-7 -9.010781978503326e-7 0 -3.882927505557695e-7 -7.733948573599157e-7
          0 -6.194732914559137e-7 -0.0000012347587174414442 0 -5.949502422818311e-7 -0.000001184466695120976
          0 -5.436565901450084e-7 -0.0000010831193785298696 0 -4.744582610948546e-7 -9.465570127399399e-7
          0 -3.97644744236912e-7 -7.956655497123011e-7 0 0 0
          0 -4.313884108382486e-7 -4.7540822548426373e-7 -4.788170853576457e-7 -4.595923442379671e-7 -8.594362505133771e-7
          -9.474958181384095e-7 -9.548575860075096e-7 -9.164548227963836e-7 0 0 0
          0 -4.2004297620197526e-7 -4.434712522569249e-7 -4.0108490326216976e-7 -3.7123040151604217e-7 -8.361229519435267e-7
          -8.825970222025176e-7 -8.009262471011185e-7 -7.416369917307159e-7 0 0 0
          -3.336771107545879e-7 -3.1788817052660004e-7 -4.003581139177971e-7 -6.702981390971608e-7 -6.37189041014743e-7 -7.951028839920611e-7
          0 -2.9774854439749794e-7 -5.985977665337704e-7 0 0 0
          0 -4.849283842771041e-7 -4.68951486390054e-7 -4.824806492896417e-7 -4.784754328696978e-7 -9.669668367394883e-7
          -9.361108591465262e-7 -9.60663073334343e-7 -9.52699644937765e-7 0 0 -3.8326037250385176e-7
          -3.3287332016320415e-7 -7.636100542296732e-7 -6.664669100565183e-7 0 0 0
          -3.911421288603367e-7 -3.3338840955743836e-7 -3.4075575838750106e-7 -7.830824311167369e-7 -6.677720246310975e-7 -6.817523178651362e-7
          0 0 -2.905643141880175e-7 -3.440734890316822e-7 -5.835033145984839e-7 -6.861188519658116e-7
          0 0 -4.360048751487785e-7 -3.5875457612633357e-7 -8.677056019544225e-7 -7.181902838941437e-7
          0 -4.6004846445769805e-7 -9.160703965453435e-7 0 0 -4.2016244787123496e-7
          -3.5282954770026836e-7 -8.381407129226454e-7 -7.063287494524471e-7 0 0 -4.5798486208203735e-7
          -4.470932438041891e-7 -9.108825902690089e-7 -8.917485033939434e-7 0 0 -4.5661371602132166e-7
          -4.678254868861911e-7 -9.109971465044537e-7 -9.323687677734348e-7 0 0 -4.2552132430533833e-7
          -4.5261226793913544e-7 -8.495666103207236e-7 -9.034497434271484e-7 0 -2.4854915921090274e-7 -5.020213464316848e-7
          0 0 -1.9211870728045245e-7 -2.0986665315446654e-7 -3.9252028589853445e-7 -4.2585500088249186e-7
          0 -4.491001130591012e-7 -8.947234147131492e-7 0 -1.739833139311368e-7 -3.557883118577982e-7
          0 -4.515149020573247e-7 -8.975585313830264e-7 0 -1.4309980559945748e-7 -2.8576969524050744e-7
          0 -3.0491698414768107e-7 -6.094552703966901e-7 0 -2.6265971671103066e-7 -5.277148799557323e-7
          0 -2.2600038494013836e-7 -4.4719556607491275e-7 0 -3.3861246007002857e-7 -6.769635644565659e-7
          0 -3.2802064551567885e-7 -6.548612524230627e-7 0 -2.765280444987599e-7 -5.544179290495097e-7
          0 0 -5.793145098199228e-7 -6.3378822310902e-7 -0.0000011534911147267399 -0.0000012633014695055541
          0 -5.036753183406728e-7 -0.0000010040851756611238 0 -4.178078174515893e-7 -8.347509286963622e-7
          0 -3.3386348968531086e-7 -6.697579243228102e-7 0 -2.664252812394521e-7 -5.334584057203362e-7
          0 -2.4970789378907044e-7 -5.04138542608808e-7 0 -2.600525011535926e-7 -5.22483875224472e-7
          0 0 -4.833225603594463e-7 -4.388887288459646e-7 -9.631495666275391e-7 -8.758561930195833e-7
          0 0 -2.822388561429595e-7 -2.804663119860442e-7 -5.656807115797744e-7 -5.610313925701841e-7
          0 0 -4.4558557874802274e-7 -4.6625535823895354e-7 -8.900784946155979e-7 -9.303879872425885e-7
          0 -4.260743424252379e-7 -8.50741775979477e-7 0 -2.73128691385765e-7 -5.479434096190675e-7
          0 0 -4.7381338558568975e-7 -4.770589822081971e-7 -9.439032244678137e-7 -9.510283905949374e-7
          0 -2.7388873516076134e-7 -5.499837338609144e-7 0 0 -3.0641490095209573e-7
          -3.7357188341476814e-7 -6.142179290788778e-7 -7.485873330296328e-7 0 -2.512952527486038e-7 -5.052098656949008e-7
          0 -4.002234413824828e-7 -7.994704571596042e-7 0 0 -2.1860623578128932e-7
          -2.9114335064604566e-7 -4.4194268949760895e-7 -5.836895893420866e-7 0 -3.7406269258032824e-7 -7.470970064832029e-7
          0 -3.5285335684379065e-7 -7.057490263064168e-7 0 -2.0988121781908408e-7 -4.242481444956882e-7
        </DataArray>
      </PointData>
      <CellData>
        <DataArray type="Int32" Name="libmesh_elem_id" format="ascii" RangeMin="776" RangeMax="3207">
          776 777 778 779 780 781
          782 783 784 785 786 787
          788 789 794 795 796 797
          798 799 800 801 802 803
          804 805 806 807 812 813
          814 815 816 817 818 819
          820 821 822 823 824 825
          830 831 832 833 834 835
          836 837 838 839 840 841
          842 843 848 849 850 851
          852 853 854 855 856 857
          858 859 860 861 866 867
          868 869 870 871 872 873
          874 875 876 877 878 879
          884 885 886 887 888 889
          890 891 892 893 894 895
          896 897 900 901 902 903
          904 905 906 907 908 909
          910 911 912 913 914 915
          918 919 920 921 922 923
          924 925 926 927 928 929
          930 931 932 933 936 937
          938 939 940 941 942 943
          944 945 946 947 948 949
          950 951 954 955 956 957
          958 959 960 961 962 963
          964 965 966 967 968 969
          972 973 974 975 976 977
          978 979 980 981 982 983
          984 985 986 987 990 991
          992 993 994 995 996 997
          998 999 1000 1001 1002 1003
          1004 1005 1008 1009 1010 1011
          1012 1013 1014 1015 1016 1017
          1018 1019 1020 1021 1022 1023
          1028 1029 1030 1031 1032 1033
          1034 1035 1036 1037 1038 1039
          1040 1041 1046 1047 1048 1049
          1050 1051 1052 1053 1054 1055
          1056 1057 1058 1059 1064 1065
          1066 1067 1068 1069 1070 1071
          1072 1073 1074 1075 1076 1077
          1082 1083 1084 1085 1086 1087
          1088 1089 1090 1091 1092 1093
          1094 1095 1102 1103 1104 1105
          1106 1107 1108 1109 1110 1111
          1112 1113 1120 1121 1122 1123
          1124 1125 1126 1127 1128 1129
          1130 1131 1138 1139 1140 1141
          1142 1143 1144 1145 1146 1147
          1148 1149 1156 1157 1158 1159
          1160 1161 1162 1163 1164 1165
          1166 1167 1174 1175 1176 1177
          1178 1179 1180 1181 1182 1183
          1374 1375 1376 1377 1378 1379
          1384 1385 1388 1389 1404 1405
          1458 1459 1536 1537 1542 1543
          1624 1625 1648 1649 1658 1659
          1672 1673 1770 1771 1810 1811
          1818 1819 1828 1829 1830 1831
          1866 1867 2074 2075 2078 2079
          2116 2117 2124 2125 2288 2289
          2290 2291 2336 2337 2342 2343
          2348 2349 2352 2353 2356 2357
          2358 2359 2424 2425 2452 2453
          2464 2465 2496 2497 2526 2527
          2530 2531 2532 2533 2554 2555
          2560 2561 2590 2591 2594 2595
          2622 2623 2736 2737 2740 2741
          2762 2763 2768 2769 2794 2795
          2800 2801 2864 2865 2890 2891
          2904 2905 2920 2921 2956 2957
          2986 2987 3018 3019 3036 3037
          3088 3089 3114 3115 3144 3145
          3156 3157 3176 3177 3184 3185
          3190 3191 3206 3207
        </DataArray>
        <DataArray type="Int32" Name="subdomain_id" format="ascii" RangeMin="105" RangeMax="107">
          105 105 105 105 105 105
          105 105 105 105 105 105
          105 105 105 105 105 105
          105 105 105 105 105 105
          105 105 105 105 105 105
          105 105 105 105 105 105
          105 105 105 105 105 105
          105 105 105 105 105 105
          105 105 105 105 105 105
          105 105 105 105 105 105
          105 105 105 105 105 105
          105 105 105 105 105 105
          105 105 105 105 105 105
          105 105 105 105 105 105
          105 105 105 105 105 105
          105 105 105 105 105 105
          105 105 105 105 105 105
          105 105 105 105 105 105
          105 105 105 105 105 105
          105 105 105 105 105 105
          105 105 105 105 105 105
          105 105 105 105 105 105
          105 105 105 105 105 105
          105 105 105 105 105 105
          105 105 105 105 105 105
          105 105 105 105 105 105
          105 105 105 105 105 105
          105 105 105 105 105 105
          105 105 105 105 105 105
          105 105 105 105 105 105
          105 105 105 105 105 105
          105 105 105 105 105 105
          105 105 105 105 105 105
          105 105 105 105 105 105
          105 105 105 105 105 105
          105 105 105 105 105 105
          105 105 105 105 105 105
          105 105 105 105 105 105
          105 105 105 105 105 105
          105 105 105 105 105 105
          105 105 105 105 105 105
          105 105 105 105 105 105
          105 105 105 105 105 105
          105 105 105 105 105 105
          105 105 105 105 105 105
          105 105 105 105 105 105
          105 105 105 105 105 105
          105 105 105 105 105 105
          105 105 105 105 105 105
          105 105 105 105 105 105
          105 105 105 105 105 105
          105 105 105 105 105 105
          105 105 105 105 105 105
          105 105 105 105 105 105
          107 107 107 107 107 107
          107 107 107 107 107 107
          107 107 107 107 107 107
          107 107 107 107 107 107
          107 107 107 107 107 107
          107 107 107 107 107 107
          107 107 107 107 107 107
          107 107 107 107 107 107
          107 107 107 107 107 107
          107 107 107 107 107 107
          107 107 107 107 107 107
          107 107 107 107 107 107
          107 107 107 107 107 107
          107 107 107 107 107 107
          107 107 107 107 107 107
          107 107 107 107 107 107
          107 107 107 107 107 107
          107 107 107 107 107 107
          107 107 107 107 107 107
          107 107 107 107 107 107
          107 107 107 107 107 107
          107 107 107 107
        </DataArray>
        <DataArray type="Int32" Name="processor_id" format="ascii" RangeMin="6" RangeMax="6">
          6 6 6 6 6 6
          6 6 6 6 6 6
          6 6 6 6 6 6
          6 6 6 6 6 6
          6 6 6 6 6 6
          6 6 6 6 6 6
          6 6 6 6 6 6
          6 6 6 6 6 6
          6 6 6 6 6 6
          6 6 6 6 6 6
          6 6 6 6 6 6
          6 6 6 6 6 6
          6 6 6 6 6 6
          6 6 6 6 6 6
          6 6 6 6 6 6
          6 6 6 6 6 6
          6 6 6 6 6 6
          6 6 6 6 6 6
          6 6 6 6 6 6
          6 6 6 6 6 6
          6 6 6 6 6 6
          6 6 6 6 6 6
          6 6 6 6 6 6
          6 6 6 6 6 6
          6 6 6 6 6 6
          6 6 6 6 6 6
          6 6 6 6 6 6
          6 6 6 6 6 6
          6 6 6 6 6 6
          6 6 6 6 6 6
          6 6 6 6 6 6
          6 6 6 6 6 6
          6 6 6 6 6 6
          6 6 6 6 6 6
          6 6 6 6 6 6
          6 6 6 6 6 6
          6 6 6 6 6 6
          6 6 6 6 6 6
          6 6 6 6 6 6
          6 6 6 6 6 6
          6 6 6 6 6 6
          6 6 6 6 6 6
          6 6 6 6 6 6
          6 6 6 6 6 6
          6 6 6 6 6 6
          6 6 6 6 6 6
          6 6 6 6 6 6
          6 6 6 6 6 6
          6 6 6 6 6 6
          6 6 6 6 6 6
          6 6 6 6 6 6
          6 6 6 6 6 6
          6 6 6 6 6 6
          6 6 6 6 6 6
          6 6 6 6 6 6
          6 6 6 6 6 6
          6 6 6 6 6 6
          6 6 6 6 6 6
          6 6 6 6 6 6
          6 6 6 6 6 6
          6 6 6 6 6 6
          6 6 6 6 6 6
          6 6 6 6 6 6
          6 6 6 6 6 6
          6 6 6 6 6 6
          6 6 6 6 6 6
          6 6 6 6 6 6
          6 6 6 6 6 6
          6 6 6 6 6 6
          6 6 6 6 6 6
          6 6 6 6 6 6
          6 6 6 6 6 6
          6 6 6 6 6 6
          6 6 6 6 6 6
          6 6 6 6 6 6
          6 6 6 6
        </DataArray>
      </CellData>
      <Points>
        <DataArray type="Float64" Name="Points" NumberOfComponents="3" format="ascii" RangeMin="0.0018888888888872" RangeMax="0.010555613193541787">
          0.0018888888888873 0.00041379310344749 0 0.0018888888888872 0 0
          0.0018888888888873 0.00041379310344749 0.00015 0.0018888888888872 0 0.00015
          0.0018888888888873 0.00041379310344749 0.0003 0.0018888888888872 0 0.0003
          0.0023333333333313 0.00041379310344749 0 0.0023333333333311 0 0
          0.0023333333333313 0.00041379310344749 0.00015 0.0023333333333311 0 0.00015
          0.0023333333333313 0.00041379310344749 0.0003 0.0023333333333311 0 0.0003
          0.0027777777777734 0.00041379310344749 0 0.0027777777777731 0 0
          0.0027777777777734 0.00041379310344749 0.00015 0.0027777777777731 0 0.00015
          0.0027777777777734 0.00041379310344749 0.0003 0.0027777777777731 0 0.0003
          0.003222222222218 0.00041379310344749 0 0.0032222222222177 0 0
          0.003222222222218 0.00041379310344749 0.00015 0.0032222222222177 0 0.00015
          0.003222222222218 0.00041379310344749 0.0003 0.0032222222222177 0 0.0003
          0.0036666666666636 0.00041379310344749 0 0.0036666666666634 0 0
          0.0036666666666636 0.00041379310344749 0.00015 0.0036666666666634 0 0.00015
          0.0036666666666636 0.00041379310344749 0.0003 0.0036666666666634 0 0.0003
          0.0041111111111091 0.00041379310344749 0 0.004111111111109 0 0
          0.0041111111111091 0.00041379310344749 0.00015 0.004111111111109 0 0.00015
          0.0041111111111091 0.00041379310344749 0.0003 0.004111111111109 0 0.0003
          0.0045555555555554 0.00041379310344749 0 0.0045555555555553 0 0
          0.0045555555555554 0.00041379310344749 0.00015 0.0045555555555553 0 0.00015
          0.0045555555555554 0.00041379310344749 0.0003 0.0045555555555553 0 0.0003
          0.005 0.00041379310344749 0 0.005 0 0
          0.005 0.00041379310344749 0.00015 0.005 0 0.00015
          0.005 0.00041379310344749 0.0003 0.005 0 0.0003
          0.0018888888888875 0.00082758620689497 0 0.0018888888888875 0.00082758620689497 0.00015
          0.0018888888888875 0.00082758620689497 0.0003 0.0023333333333315 0.00082758620689497 0
          0.0023333333333315 0.00082758620689497 0.00015 0.0023333333333315 0.00082758620689497 0.0003
          0.0027777777777737 0.00082758620689497 0 0.0027777777777737 0.00082758620689497 0.00015
          0.0027777777777737 0.00082758620689497 0.0003 0.0032222222222183 0.00082758620689497 0
          0.0032222222222183 0.00082758620689497 0.00015 0.0032222222222183 0.00082758620689497 0.0003
          0.0036666666666638 0.00082758620689497 0 0.0036666666666638 0.00082758620689497 0.00015
          0.0036666666666638 0.00082758620689497 0.0003 0.0041111111111093 0.00082758620689497 0
          0.0041111111111093 0.00082758620689497 0.00015 0.0041111111111093 0.00082758620689497 0.0003
          0.0045555555555554 0.00082758620689497 0 0.0045555555555554 0.00082758620689497 0.00015
          0.0045555555555554 0.00082758620689497 0.0003 0.005 0.00082758620689497 0
          0.005 0.00082758620689497 0.00015 0.005 0.00082758620689497 0.0003
          0.0018888888888876 0.0012413793103426 0 0.0018888888888876 0.0012413793103426 0.00015
          0.0018888888888876 0.0012413793103426 0.0003 0.0023333333333317 0.0012413793103426 0
          0.0023333333333317 0.0012413793103426 0.00015 0.0023333333333317 0.0012413793103426 0.0003
          0.002777777777774 0.0012413793103426 0 0.002777777777774 0.0012413793103426 0.00015
          0.002777777777774 0.0012413793103426 0.0003 0.0032222222222186 0.0012413793103426 0
          0.0032222222222186 0.0012413793103426 0.00015 0.0032222222222186 0.0012413793103426 0.0003
          0.003666666666664 0.0012413793103426 0 0.003666666666664 0.0012413793103426 0.00015
          0.003666666666664 0.0012413793103426 0.0003 0.0041111111111095 0.0012413793103426 0
          0.0041111111111095 0.0012413793103426 0.00015 0.0041111111111095 0.0012413793103426 0.0003
          0.0045555555555554 0.0012413793103426 0 0.0045555555555554 0.0012413793103426 0.00015
          0.0045555555555554 0.0012413793103426 0.0003 0.005 0.0012413793103426 0
          0.005 0.0012413793103426 0.00015 0.005 0.0012413793103426 0.0003
          0.0018888888888877 0.0016551724137901 0 0.0018888888888877 0.0016551724137901 0.00015
          0.0018888888888877 0.0016551724137901 0.0003 0.0023333333333319 0.0016551724137901 0
          0.0023333333333319 0.0016551724137901 0.00015 0.0023333333333319 0.0016551724137901 0.0003
          0.0027777777777743 0.0016551724137901 0 0.0027777777777743 0.0016551724137901 0.00015
          0.0027777777777743 0.0016551724137901 0.0003 0.0032222222222189 0.0016551724137901 0
          0.0032222222222189 0.0016551724137901 0.00015 0.0032222222222189 0.0016551724137901 0.0003
          0.0036666666666642 0.0016551724137901 0 0.0036666666666642 0.0016551724137901 0.00015
          0.0036666666666642 0.0016551724137901 0.0003 0.0041111111111096 0.0016551724137901 0
          0.0041111111111096 0.0016551724137901 0.00015 0.0041111111111096 0.0016551724137901 0.0003
          0.0045555555555555 0.0016551724137901 0 0.0045555555555555 0.0016551724137901 0.00015
          0.0045555555555555 0.0016551724137901 0.0003 0.005 0.0016551724137901 0
          0.005 0.0016551724137901 0.00015 0.005 0.0016551724137901 0.0003
          0.0018888888888879 0.0020689655172371 0 0.0018888888888879 0.0020689655172371 0.00015
          0.0018888888888879 0.0020689655172371 0.0003 0.002333333333332 0.0020689655172371 0
          0.002333333333332 0.0020689655172371 0.00015 0.002333333333332 0.0020689655172371 0.0003
          0.0027777777777746 0.0020689655172371 0 0.0027777777777746 0.0020689655172371 0.00015
          0.0027777777777746 0.0020689655172371 0.0003 0.0032222222222192 0.0020689655172371 0
          0.0032222222222192 0.0020689655172371 0.00015 0.0032222222222192 0.0020689655172371 0.0003
          0.0036666666666643 0.0020689655172371 0 0.0036666666666643 0.0020689655172371 0.00015
          0.0036666666666643 0.0020689655172371 0.0003 0.0041111111111098 0.0020689655172371 0
          0.0041111111111098 0.0020689655172371 0.00015 0.0041111111111098 0.0020689655172371 0.0003
          0.0045555555555555 0.0020689655172371 0 0.0045555555555555 0.0020689655172371 0.00015
          0.0045555555555555 0.0020689655172371 0.0003 0.005 0.0020689655172371 0
          0.005 0.0020689655172371 0.00015 0.005 0.0020689655172371 0.0003
          0.001888888888888 0.0024827586206843 0 0.001888888888888 0.0024827586206843 0.00015
          0.001888888888888 0.0024827586206843 0.0003 0.0023333333333322 0.0024827586206843 0
          0.0023333333333322 0.0024827586206843 0.00015 0.0023333333333322 0.0024827586206843 0.0003
          0.0027777777777749 0.0024827586206843 0 0.0027777777777749 0.0024827586206843 0.00015
          0.0027777777777749 0.0024827586206843 0.0003 0.0032222222222196 0.0024827586206843 0
          0.0032222222222196 0.0024827586206843 0.00015 0.0032222222222196 0.0024827586206843 0.0003
          0.0036666666666645 0.0024827586206843 0 0.0036666666666645 0.0024827586206843 0.00015
          0.0036666666666645 0.0024827586206843 0.0003 0.0041111111111099 0.0024827586206843 0
          0.0041111111111099 0.0024827586206843 0.00015 0.0041111111111099 0.0024827586206843 0.0003
          0.0045555555555555 0.0024827586206843 0 0.0045555555555555 0.0024827586206843 0.00015
          0.0045555555555555 0.0024827586206843 0.0003 0.005 0.0024827586206843 0
          0.005 0.0024827586206843 0.00015 0.005 0.0024827586206843 0.0003
          0.0014444444444442 0.0028965517241314 0 0.0014444444444442 0.0028965517241314 0.00015
          0.0014444444444442 0.0028965517241314 0.0003 0.0018888888888881 0.0028965517241314 0
          0.0018888888888881 0.0028965517241314 0.00015 0.0018888888888881 0.0028965517241314 0.0003
          0.0023333333333324 0.0028965517241314 0 0.0023333333333324 0.0028965517241314 0.00015
          0.0023333333333324 0.0028965517241314 0.0003 0.0027777777777753 0.0028965517241314 0
          0.0027777777777753 0.0028965517241314 0.00015 0.0027777777777753 0.0028965517241314 0.0003
          0.0032222222222199 0.0028965517241314 0 0.0032222222222199 0.0028965517241314 0.00015
          0.0032222222222199 0.0028965517241314 0.0003 0.0036666666666647 0.0028965517241314 0
          0.0036666666666647 0.0028965517241314 0.00015 0.0036666666666647 0.0028965517241314 0.0003
          0.0041111111111101 0.0028965517241314 0 0.0041111111111101 0.0028965517241314 0.00015
          0.0041111111111101 0.0028965517241314 0.0003 0.0045555555555556 0.0028965517241314 0
          0.0045555555555556 0.0028965517241314 0.00015 0.0045555555555556 0.0028965517241314 0.0003
          0.005 0.0028965517241314 0 0.005 0.0028965517241314 0.00015
          0.005 0.0028965517241314 0.0003 0.0014444444444442 0.0033103448275785 0
          0.0014444444444442 0.0033103448275785 0.00015 0.0014444444444442 0.0033103448275785 0.0003
          0.0018888888888882 0.0033103448275785 0 0.0018888888888882 0.0033103448275785 0.00015
          0.0018888888888882 0.0033103448275785 0.0003 0.0023333333333326 0.0033103448275785 0
          0.0023333333333326 0.0033103448275785 0.00015 0.0023333333333326 0.0033103448275785 0.0003
          0.0027777777777756 0.0033103448275785 0 0.0027777777777756 0.0033103448275785 0.00015
          0.0027777777777756 0.0033103448275785 0.0003 0.0032222222222202 0.0033103448275785 0
          0.0032222222222202 0.0033103448275785 0.00015 0.0032222222222202 0.0033103448275785 0.0003
          0.0036666666666649 0.0033103448275785 0 0.0036666666666649 0.0033103448275785 0.00015
          0.0036666666666649 0.0033103448275785 0.0003 0.0041111111111102 0.0033103448275785 0
          0.0041111111111102 0.0033103448275785 0.00015 0.0041111111111102 0.0033103448275785 0.0003
          0.0045555555555556 0.0033103448275785 0 0.0045555555555556 0.0033103448275785 0.00015
          0.0045555555555556 0.0033103448275785 0.0003 0.005 0.0033103448275785 0
          0.005 0.0033103448275785 0.00015 0.005 0.0033103448275785 0.0003
          0.0014444444444443 0.0037241379310256 0 0.0014444444444443 0.0037241379310256 0.00015
          0.0014444444444443 0.0037241379310256 0.0003 0.0018888888888884 0.0037241379310256 0
          0.0018888888888884 0.0037241379310256 0.00015 0.0018888888888884 0.0037241379310256 0.0003
          0.0023333333333328 0.0037241379310256 0 0.0023333333333328 0.0037241379310256 0.00015
          0.0023333333333328 0.0037241379310256 0.0003 0.0027777777777759 0.0037241379310256 0
          0.0027777777777759 0.0037241379310256 0.00015 0.0027777777777759 0.0037241379310256 0.0003
          0.0032222222222205 0.0037241379310256 0 0.0032222222222205 0.0037241379310256 0.00015
          0.0032222222222205 0.0037241379310256 0.0003 0.003666666666665 0.0037241379310256 0
          0.003666666666665 0.0037241379310256 0.00015 0.003666666666665 0.0037241379310256 0.0003
          0.0041111111111104 0.0037241379310256 0 0.0041111111111104 0.0037241379310256 0.00015
          0.0041111111111104 0.0037241379310256 0.0003 0.0045555555555556 0.0037241379310256 0
          0.0045555555555556 0.0037241379310256 0.00015 0.0045555555555556 0.0037241379310256 0.0003
          0.005 0.0037241379310256 0 0.005 0.0037241379310256 0.00015
          0.005 0.0037241379310256 0.0003 0.0014444444444444 0.0041379310344727 0
          0.0014444444444444 0.0041379310344727 0.00015 0.0014444444444444 0.0041379310344727 0.0003
          0.0018888888888885 0.0041379310344727 0 0.0018888888888885 0.0041379310344727 0.00015
          0.0018888888888885 0.0041379310344727 0.0003 0.002333333333333 0.0041379310344727 0
          0.002333333333333 0.0041379310344727 0.00015 0.002333333333333 0.0041379310344727 0.0003
          0.0027777777777762 0.0041379310344727 0 0.0027777777777762 0.0041379310344727 0.00015
          0.0027777777777762 0.0041379310344727 0.0003 0.0032222222222208 0.0041379310344727 0
          0.0032222222222208 0.0041379310344727 0.00015 0.0032222222222208 0.0041379310344727 0.0003
          0.0036666666666652 0.0041379310344727 0 0.0036666666666652 0.0041379310344727 0.00015
          0.0036666666666652 0.0041379310344727 0.0003 0.0041111111111105 0.0041379310344727 0
          0.0041111111111105 0.0041379310344727 0.00015 0.0041111111111105 0.0041379310344727 0.0003
          0.0045555555555557 0.0041379310344727 0 0.0045555555555557 0.0041379310344727 0.00015
          0.0045555555555557 0.0041379310344727 0.0003 0.005 0.0041379310344727 0
          0.005 0.0041379310344727 0.00015 0.005 0.0041379310344727 0.0003
          0.0014444444444444 0.0045517241379199 0 0.0014444444444444 0.0045517241379199 0.00015
          0.0014444444444444 0.0045517241379199 0.0003 0.0018888888888886 0.0045517241379199 0
          0.0018888888888886 0.0045517241379199 0.00015 0.0018888888888886 0.0045517241379199 0.0003
          0.0023333333333331 0.0045517241379199 0 0.0023333333333331 0.0045517241379199 0.00015
          0.0023333333333331 0.0045517241379199 0.0003 0.0027777777777765 0.0045517241379199 0
          0.0027777777777765 0.0045517241379199 0.00015 0.0027777777777765 0.0045517241379199 0.0003
          0.0032222222222211 0.0045517241379199 0 0.0032222222222211 0.0045517241379199 0.00015
          0.0032222222222211 0.0045517241379199 0.0003 0.0036666666666654 0.0045517241379199 0
          0.0036666666666654 0.0045517241379199 0.00015 0.0036666666666654 0.0045517241379199 0.0003
          0.0041111111111107 0.0045517241379199 0 0.0041111111111107 0.0045517241379199 0.00015
          0.0041111111111107 0.0045517241379199 0.0003 0.0045555555555557 0.0045517241379199 0
          0.0045555555555557 0.0045517241379199 0.00015 0.0045555555555557 0.0045517241379199 0.0003
          0.005 0.0045517241379199 0 0.005 0.0045517241379199 0.00015
          0.005 0.0045517241379199 0.0003 0.0014444444444445 0.0049655172413669 0
          0.0014444444444445 0.0049655172413669 0.00015 0.0014444444444445 0.0049655172413669 0.0003
          0.0018888888888888 0.0049655172413669 0 0.0018888888888888 0.0049655172413669 0.00015
          0.0018888888888888 0.0049655172413669 0.0003 0.0023333333333333 0.0049655172413669 0
          0.0023333333333333 0.0049655172413669 0.00015 0.0023333333333333 0.0049655172413669 0.0003
          0.0027777777777768 0.0049655172413669 0 0.0027777777777768 0.0049655172413669 0.00015
          0.0027777777777768 0.0049655172413669 0.0003 0.0032222222222214 0.0049655172413669 0
          0.0032222222222214 0.0049655172413669 0.00015 0.0032222222222214 0.0049655172413669 0.0003
          0.0036666666666656 0.0049655172413669 0 0.0036666666666656 0.0049655172413669 0.00015
          0.0036666666666656 0.0049655172413669 0.0003 0.0041111111111108 0.0049655172413669 0
          0.0041111111111108 0.0049655172413669 0.00015 0.0041111111111108 0.0049655172413669 0.0003
          0.0045555555555557 0.0049655172413669 0 0.0045555555555557 0.0049655172413669 0.00015
          0.0045555555555557 0.0049655172413669 0.0003 0.005 0.0049655172413669 0
          0.005 0.0049655172413669 0.00015 0.005 0.0049655172413669 0.0003
          0.0014444444444445 0.0053793103448139 0 0.0014444444444445 0.0053793103448139 0.00015
          0.0014444444444445 0.0053793103448139 0.0003 0.0018888888888889 0.0053793103448139 0
          0.0018888888888889 0.0053793103448139 0.00015 0.0018888888888889 0.0053793103448139 0.0003
          0.0023333333333335 0.0053793103448139 0 0.0023333333333335 0.0053793103448139 0.00015
          0.0023333333333335 0.0053793103448139 0.0003 0.0027777777777771 0.0053793103448139 0
          0.0027777777777771 0.0053793103448139 0.00015 0.0027777777777771 0.0053793103448139 0.0003
          0.0032222222222217 0.0053793103448139 0 0.0032222222222217 0.0053793103448139 0.00015
          0.0032222222222217 0.0053793103448139 0.0003 0.0036666666666658 0.0053793103448139 0
          0.0036666666666658 0.0053793103448139 0.00015 0.0036666666666658 0.0053793103448139 0.0003
          0.004111111111111 0.0053793103448139 0 0.004111111111111 0.0053793103448139 0.00015
          0.004111111111111 0.0053793103448139 0.0003 0.0045555555555558 0.0053793103448139 0
          0.0045555555555558 0.0053793103448139 0.00015 0.0045555555555558 0.0053793103448139 0.0003
          0.005 0.0053793103448139 0 0.005 0.0053793103448139 0.00015
          0.005 0.0053793103448139 0.0003 0.0014444444444446 0.0057931034482612 0
          0.0014444444444446 0.0057931034482612 0.00015 0.0014444444444446 0.0057931034482612 0.0003
          0.001888888888889 0.0057931034482612 0 0.001888888888889 0.0057931034482612 0.00015
          0.001888888888889 0.0057931034482612 0.0003 0.0023333333333337 0.0057931034482612 0
          0.0023333333333337 0.0057931034482612 0.00015 0.0023333333333337 0.0057931034482612 0.0003
          0.0027777777777774 0.0057931034482612 0 0.0027777777777774 0.0057931034482612 0.00015
          0.0027777777777774 0.0057931034482612 0.0003 0.003222222222222 0.0057931034482612 0
          0.003222222222222 0.0057931034482612 0.00015 0.003222222222222 0.0057931034482612 0.0003
          0.0036666666666659 0.0057931034482612 0 0.0036666666666659 0.0057931034482612 0.00015
          0.0036666666666659 0.0057931034482612 0.0003 0.0041111111111112 0.0057931034482612 0
          0.0041111111111112 0.0057931034482612 0.00015 0.0041111111111112 0.0057931034482612 0.0003
          0.0045555555555558 0.0057931034482612 0 0.0045555555555558 0.0057931034482612 0.00015
          0.0045555555555558 0.0057931034482612 0.0003 0.005 0.0057931034482612 0
          0.005 0.0057931034482612 0.00015 0.005 0.0057931034482612 0.0003
          0.0018888888888891 0.0062068965517097 0 0.0018888888888891 0.0062068965517097 0.00015
          0.0018888888888891 0.0062068965517097 0.0003 0.0023333333333339 0.0062068965517097 0
          0.0023333333333339 0.0062068965517097 0.00015 0.0023333333333339 0.0062068965517097 0.0003
          0.0027777777777778 0.0062068965517097 0 0.0027777777777778 0.0062068965517097 0.00015
          0.0027777777777778 0.0062068965517097 0.0003 0.0032222222222224 0.0062068965517097 0
          0.0032222222222224 0.0062068965517097 0.00015 0.0032222222222224 0.0062068965517097 0.0003
          0.0036666666666661 0.0062068965517097 0 0.0036666666666661 0.0062068965517097 0.00015
          0.0036666666666661 0.0062068965517097 0.0003 0.0041111111111113 0.0062068965517097 0
          0.0041111111111113 0.0062068965517097 0.00015 0.0041111111111113 0.0062068965517097 0.0003
          0.0045555555555558 0.0062068965517097 0 0.0045555555555558 0.0062068965517097 0.00015
          0.0045555555555558 0.0062068965517097 0.0003 0.005 0.0062068965517097 0
          0.005 0.0062068965517097 0.00015 0.005 0.0062068965517097 0.0003
          0.0018888888888893 0.0066206896551586 0 0.0018888888888893 0.0066206896551586 0.00015
          0.0018888888888893 0.0066206896551586 0.0003 0.002333333333334 0.0066206896551586 0
          0.002333333333334 0.0066206896551586 0.00015 0.002333333333334 0.0066206896551586 0.0003
          0.0027777777777781 0.0066206896551586 0 0.0027777777777781 0.0066206896551586 0.00015
          0.0027777777777781 0.0066206896551586 0.0003 0.0032222222222227 0.0066206896551586 0
          0.0032222222222227 0.0066206896551586 0.00015 0.0032222222222227 0.0066206896551586 0.0003
          0.0036666666666663 0.0066206896551586 0 0.0036666666666663 0.0066206896551586 0.00015
          0.0036666666666663 0.0066206896551586 0.0003 0.0041111111111115 0.0066206896551586 0
          0.0041111111111115 0.0066206896551586 0.00015 0.0041111111111115 0.0066206896551586 0.0003
          0.0045555555555559 0.0066206896551586 0 0.0045555555555559 0.0066206896551586 0.00015
          0.0045555555555559 0.0066206896551586 0.0003 0.005 0.0066206896551586 0
          0.005 0.0066206896551586 0.00015 0.005 0.0066206896551586 0.0003
          0.0018888888888894 0.0070344827586082 0 0.0018888888888894 0.0070344827586082 0.00015
          0.0018888888888894 0.0070344827586082 0.0003 0.0023333333333342 0.0070344827586082 0
          0.0023333333333342 0.0070344827586082 0.00015 0.0023333333333342 0.0070344827586082 0.0003
          0.0027777777777784 0.0070344827586082 0 0.0027777777777784 0.0070344827586082 0.00015
          0.0027777777777784 0.0070344827586082 0.0003 0.003222222222223 0.0070344827586082 0
          0.003222222222223 0.0070344827586082 0.00015 0.003222222222223 0.0070344827586082 0.0003
          0.0036666666666665 0.0070344827586082 0 0.0036666666666665 0.0070344827586082 0.00015
          0.0036666666666665 0.0070344827586082 0.0003 0.0041111111111116 0.0070344827586082 0
          0.0041111111111116 0.0070344827586082 0.00015 0.0041111111111116 0.0070344827586082 0.0003
          0.0045555555555559 0.0070344827586082 0 0.0045555555555559 0.0070344827586082 0.00015
          0.0045555555555559 0.0070344827586082 0.0003 0.005 0.0070344827586082 0
          0.005 0.0070344827586082 0.00015 0.005 0.0070344827586082 0.0003
          0.0018888888888895 0.0074482758620575 0 0.0018888888888895 0.0074482758620575 0.00015
          0.0018888888888895 0.0074482758620575 0.0003 0.0023333333333344 0.0074482758620575 0
          0.0023333333333344 0.0074482758620575 0.00015 0.0023333333333344 0.0074482758620575 0.0003
          0.0027777777777787 0.0074482758620575 0 0.0027777777777787 0.0074482758620575 0.00015
          0.0027777777777787 0.0074482758620575 0.0003 0.0032222222222233 0.0074482758620575 0
          0.0032222222222233 0.0074482758620575 0.00015 0.0032222222222233 0.0074482758620575 0.0003
          0.0036666666666666 0.0074482758620576 0 0.0036666666666666 0.0074482758620576 0.00015
          0.0036666666666666 0.0074482758620576 0.0003 0.0041111111111118 0.0074482758620576 0
          0.0041111111111118 0.0074482758620576 0.00015 0.0041111111111118 0.0074482758620576 0.0003
          0.0045555555555559 0.0074482758620576 0 0.0045555555555559 0.0074482758620576 0.00015
          0.0045555555555559 0.0074482758620576 0.0003 0.005 0.0074482758620575 0
          0.005 0.0074482758620575 0.00015 0.005 0.0074482758620575 0.0003
          0.0023333333333346 0.0078620689655065 0 0.0023333333333346 0.0078620689655065 0.00015
          0.0023333333333346 0.0078620689655065 0.0003 0.002777777777779 0.0078620689655065 0
          0.002777777777779 0.0078620689655065 0.00015 0.002777777777779 0.0078620689655065 0.0003
          0.0032222222222236 0.0078620689655065 0 0.0032222222222236 0.0078620689655065 0.00015
          0.0032222222222236 0.0078620689655065 0.0003 0.0036666666666668 0.0078620689655065 0
          0.0036666666666668 0.0078620689655065 0.00015 0.0036666666666668 0.0078620689655065 0.0003
          0.0041111111111119 0.0078620689655065 0 0.0041111111111119 0.0078620689655065 0.00015
          0.0041111111111119 0.0078620689655065 0.0003 0.004555555555556 0.0078620689655065 0
          0.004555555555556 0.0078620689655065 0.00015 0.004555555555556 0.0078620689655065 0.0003
          0.005 0.0078620689655065 0 0.005 0.0078620689655065 0.00015
          0.005 0.0078620689655065 0.0003 0.0023333333333348 0.0082758620689564 0
          0.0023333333333348 0.0082758620689564 0.00015 0.0023333333333348 0.0082758620689564 0.0003
          0.0027777777777793 0.0082758620689564 0 0.0027777777777793 0.0082758620689564 0.00015
          0.0027777777777793 0.0082758620689564 0.0003 0.0032222222222239 0.0082758620689564 0
          0.0032222222222239 0.0082758620689564 0.00015 0.0032222222222239 0.0082758620689564 0.0003
          0.003666666666667 0.0082758620689564 0 0.003666666666667 0.0082758620689564 0.00015
          0.003666666666667 0.0082758620689564 0.0003 0.0041111111111121 0.0082758620689564 0
          0.0041111111111121 0.0082758620689564 0.00015 0.0041111111111121 0.0082758620689564 0.0003
          0.004555555555556 0.0082758620689564 0 0.004555555555556 0.0082758620689564 0.00015
          0.004555555555556 0.0082758620689564 0.0003 0.005 0.0082758620689564 0
          0.005 0.0082758620689564 0.00015 0.005 0.0082758620689564 0.0003
          0.002333333333335 0.0086896551724064 0 0.002333333333335 0.0086896551724064 0.00015
          0.002333333333335 0.0086896551724064 0.0003 0.0027777777777796 0.0086896551724064 0
          0.0027777777777796 0.0086896551724064 0.00015 0.0027777777777796 0.0086896551724064 0.0003
          0.0032222222222242 0.0086896551724064 0 0.0032222222222242 0.0086896551724064 0.00015
          0.0032222222222242 0.0086896551724064 0.0003 0.0036666666666672 0.0086896551724064 0
          0.0036666666666672 0.0086896551724064 0.00015 0.0036666666666672 0.0086896551724064 0.0003
          0.0041111111111122 0.0086896551724064 0 0.0041111111111122 0.0086896551724064 0.00015
          0.0041111111111122 0.0086896551724064 0.0003 0.004555555555556 0.0086896551724064 0
          0.004555555555556 0.0086896551724064 0.00015 0.004555555555556 0.0086896551724064 0.0003
          0.0023333333333351 0.0091034482758539 0 0.0023333333333351 0.0091034482758539 0.00015
          0.0023333333333351 0.0091034482758539 0.0003 0.0027777777777799 0.0091034482758539 0
          0.0027777777777799 0.0091034482758539 0.00015 0.0027777777777799 0.0091034482758539 0.0003
          0.0032222222222245 0.0091034482758539 0 0.0032222222222245 0.0091034482758539 0.00015
          0.0032222222222245 0.0091034482758539 0.0003 0.0036666666666673 0.0091034482758539 0
          0.0036666666666673 0.0091034482758539 0.00015 0.0036666666666673 0.0091034482758539 0.0003
          0.0041111111111124 0.0091034482758539 0 0.0041111111111124 0.0091034482758539 0.00015
          0.0041111111111124 0.0091034482758539 0.0003 0.0058597010152523 0.0063127004857001 0
          0.0053951839928307 0.0062556571299739 0 0.0053921082338215 0.005828945826549 0
          0.0057916174309905 0.0058352682535246 0 0.0058597010152523 0.0063127004857001 0.00015
          0.0053951839928307 0.0062556571299739 0.00015 0.0053921082338215 0.005828945826549 0.00015
          0.0057916174309905 0.0058352682535246 0.00015 0.0058597010152523 0.0063127004857001 0.0003
          0.0053951839928307 0.0062556571299739 0.0003 0.0053921082338215 0.005828945826549 0.0003
          0.0057916174309905 0.0058352682535246 0.0003 0.0057558905586118 0.0030553709280972 0
          0.0057130501801562 0.0035159257865852 0 0.005360618756523 0.0035837068269911 0
          0.0053739732009329 0.0031599138809835 0 0.0057558905586118 0.0030553709280972 0.00015
          0.0057130501801562 0.0035159257865852 0.00015 0.005360618756523 0.0035837068269911 0.00015
          0.0053739732009329 0.0031599138809835 0.00015 0.0057558905586118 0.0030553709280972 0.0003
          0.0057130501801562 0.0035159257865852 0.0003 0.005360618756523 0.0035837068269911 0.0003
          0.0053739732009329 0.0031599138809835 0.0003 0.0056439388514995 0.0075162532529611 0
          0.0053753336003136 0.0081134227852172 0 0.0053162760057692 0.0077147827843445 0
          0.0056439388514995 0.0075162532529611 0.00015 0.0053753336003136 0.0081134227852172 0.00015
          0.0053162760057692 0.0077147827843445 0.00015 0.0056439388514995 0.0075162532529611 0.0003
          0.0053753336003136 0.0081134227852172 0.0003 0.0053162760057692 0.0077147827843445 0.0003
          0.0059025575310583 0.0073410103875386 0 0.0059025575310583 0.0073410103875386 0.00015
          0.0059025575310583 0.0073410103875386 0.0003 0.005369078903807 0.0054112957512825 0
          0.0053441966179727 0.0050059769161847 0 0.0056930202847481 0.0049554676612008 0
          0.0057606246390047 0.0053811345728149 0 0.005369078903807 0.0054112957512825 0.00015
          0.0053441966179727 0.0050059769161847 0.00015 0.0056930202847481 0.0049554676612008 0.00015
          0.0057606246390047 0.0053811345728149 0.00015 0.005369078903807 0.0054112957512825 0.0003
          0.0053441966179727 0.0050059769161847 0.0003 0.0056930202847481 0.0049554676612008 0.0003
          0.0057606246390047 0.0053811345728149 0.0003 0.0057438065986578 0.0025718646608386 0
          0.0053684283361675 0.002728434685479 0 0.0057438065986578 0.0025718646608386 0.00015
          0.0053684283361675 0.002728434685479 0.00015 0.0057438065986578 0.0025718646608386 0.0003
          0.0053684283361675 0.002728434685479 0.0003 0.0061712548385041 0.0061513410385421 0
          0.006445117357903 0.0062971891343806 0 0.0062246515840748 0.0066057171706914 0
          0.0061712548385041 0.0061513410385421 0.00015 0.006445117357903 0.0062971891343806 0.00015
          0.0062246515840748 0.0066057171706914 0.00015 0.0061712548385041 0.0061513410385421 0.0003
          0.006445117357903 0.0062971891343806 0.0003 0.0062246515840748 0.0066057171706914 0.0003
          0.0053553835295756 0.0022900157905326 0 0.0057116151882083 0.0021168511926722 0
          0.0053553835295756 0.0022900157905326 0.00015 0.0057116151882083 0.0021168511926722 0.00015
          0.0053553835295756 0.0022900157905326 0.0003 0.0057116151882083 0.0021168511926722 0.0003
          0.0054233068561349 0.007134337670225 0 0.0059254586078826 0.006969673542248 0
          0.0054233068561349 0.007134337670225 0.00015 0.0059254586078826 0.006969673542248 0.00015
          0.0054233068561349 0.007134337670225 0.0003 0.0059254586078826 0.006969673542248 0.0003
          0.0057792643598707 0.0040250905144168 0 0.0057792643598707 0.0040250905144168 0.00015
          0.0057792643598707 0.0040250905144168 0.0003 0.0061880810420103 0.0058441905555885 0
          0.0066005814160285 0.0059502230786403 0 0.0061880810420103 0.0058441905555885 0.00015
          0.0066005814160285 0.0059502230786403 0.00015 0.0061880810420103 0.0058441905555885 0.0003
          0.0066005814160285 0.0059502230786403 0.0003 0.0054017220983371 0.0066575347525889 0
          0.0057115805714605 0.0066548075405697 0 0.0054017220983371 0.0066575347525889 0.00015
          0.0057115805714605 0.0066548075405697 0.00015 0.0054017220983371 0.0066575347525889 0.0003
          0.0057115805714605 0.0066548075405697 0.0003 0.005332609719228 0.0047287620137874 0
          0.0055816175545808 0.004587255111362 0 0.005332609719228 0.0047287620137874 0.00015
          0.0055816175545808 0.004587255111362 0.00015 0.005332609719228 0.0047287620137874 0.0003
          0.0055816175545808 0.004587255111362 0.0003 0.0053693194142364 0.0039518184911864 0
          0.0054474185858658 0.0042751360204936 0 0.0053693194142364 0.0039518184911864 0.00015
          0.0054474185858658 0.0042751360204936 0.00015 0.0053693194142364 0.0039518184911864 0.0003
          0.0054474185858658 0.0042751360204936 0.0003 0.0053395672611724 0.0018614292474742 0
          0.0053395672611724 0.0018614292474742 0.00015 0.0053395672611724 0.0018614292474742 0.0003
          0.0053367365074525 0.0010378216876611 0 0.0053236825500972 0.0014543115259673 0
          0.0053367365074525 0.0010378216876611 0.00015 0.0053236825500972 0.0014543115259673 0.00015
          0.0053367365074525 0.0010378216876611 0.0003 0.0053236825500972 0.0014543115259673 0.0003
          0.0056326688189693 0.0038271453778623 0 0.0056326688189693 0.0038271453778623 0.00015
          0.0056326688189693 0.0038271453778623 0.0003 0.0053236477572007 0.00066751117045644 0
          0.0053236477572007 0.00066751117045644 0.00015 0.0053236477572007 0.00066751117045644 0.0003
          0.0052365987891119 0.0074441888076402 0 0.0052365987891119 0.0074441888076402 0.00015
          0.0052365987891119 0.0074441888076402 0.0003 0.0052651323069134 0.00040272801788152 0
          0.0052651323069134 0.00040272801788152 0.00015 0.0052651323069134 0.00040272801788152 0.0003
          0.005675081773805 0.0016743369040255 0 0.005675081773805 0.0016743369040255 0.00015
          0.005675081773805 0.0016743369040255 0.0003 0.0056481668838523 0.0012062671985027 0
          0.0056481668838523 0.0012062671985027 0.00015 0.0056481668838523 0.0012062671985027 0.0003
          0.0055517738097912 0.00099492145317098 0 0.0055517738097912 0.00099492145317098 0.00015
          0.0055517738097912 0.00099492145317098 0.0003 0.005 0.0086896551724064 0
          0.005 0.0086896551724064 0.00015 0.005 0.0086896551724064 0.0003
          0.0045555555555561 0.0091034482758539 0 0.0045555555555561 0.0091034482758539 0.00015
          0.0045555555555561 0.0091034482758539 0.0003 0.005 0.0091034482758539 0
          0.005 0.0091034482758539 0.00015 0.005 0.0091034482758539 0.0003
          0.0027777777777802 0.0095172413793029 0 0.0023333333333353 0.0095172413793029 0
          0.0027777777777802 0.0095172413793029 0.00015 0.0023333333333353 0.0095172413793029 0.00015
          0.0027777777777802 0.0095172413793029 0.0003 0.0023333333333353 0.0095172413793029 0.0003
          0.0032222222222248 0.0095172413793029 0 0.0032222222222248 0.0095172413793029 0.00015
          0.0032222222222248 0.0095172413793029 0.0003 0.0036666666666675 0.0095172413793029 0
          0.0036666666666675 0.0095172413793029 0.00015 0.0036666666666675 0.0095172413793029 0.0003
          0.0041111111111126 0.0095172413793029 0 0.0041111111111126 0.0095172413793029 0.00015
          0.0041111111111126 0.0095172413793029 0.0003 0.0045555555555561 0.0095172413793029 0
          0.0045555555555561 0.0095172413793029 0.00015 0.0045555555555561 0.0095172413793029 0.0003
          0.0058653844060618 0.0079194158644502 0 0.0058653844060618 0.0079194158644502 0.00015
          0.0058653844060618 0.0079194158644502 0.0003 0.0061750164335738 0.0074760206739226 0
          0.0061750164335738 0.0074760206739226 0.00015 0.0061750164335738 0.0074760206739226 0.0003
          0.0060512178389602 0.0047929387822649 0 0.0062389906493372 0.0053128670028646 0
          0.0060512178389602 0.0047929387822649 0.00015 0.0062389906493372 0.0053128670028646 0.00015
          0.0060512178389602 0.0047929387822649 0.0003 0.0062389906493372 0.0053128670028646 0.0003
          0.0068354780286894 0.0065149558629347 0 0.0065694481807909 0.0068273110654121 0
          0.0068354780286894 0.0065149558629347 0.00015 0.0065694481807909 0.0068273110654121 0.00015
          0.0068354780286894 0.0065149558629347 0.0003 0.0065694481807909 0.0068273110654121 0.0003
          0.0061614658010566 0.0029736343202522 0 0.0061372854142827 0.0036106222238676 0
          0.0061614658010566 0.0029736343202522 0.00015 0.0061372854142827 0.0036106222238676 0.00015
          0.0061614658010566 0.0029736343202522 0.0003 0.0061372854142827 0.0036106222238676 0.0003
          0.0061231952422177 0.002444135475079 0 0.0061231952422177 0.002444135475079 0.00015
          0.0061231952422177 0.002444135475079 0.0003 0.0063586074578252 0.0071353312088165 0
          0.0063586074578252 0.0071353312088165 0.00015 0.0063586074578252 0.0071353312088165 0.0003
          0.005927800859391 0.0043689372395662 0 0.0063054236008776 0.0041223407032968 0
          0.005927800859391 0.0043689372395662 0.00015 0.0063054236008776 0.0041223407032968 0.00015
          0.005927800859391 0.0043689372395662 0.0003 0.0063054236008776 0.0041223407032968 0.0003
          0.0070635342364542 0.0061542378287001 0 0.0070635342364542 0.0061542378287001 0.00015
          0.0070635342364542 0.0061542378287001 0.0003 0.0071984303565192 0.0057392272964834 0
          0.0067200519522164 0.0055550541115669 0 0.0071984303565192 0.0057392272964834 0.00015
          0.0067200519522164 0.0055550541115669 0.00015 0.0071984303565192 0.0057392272964834 0.0003
          0.0067200519522164 0.0055550541115669 0.0003 0.0053754057810206 0.0085370600870078 0
          0.0053754057810206 0.0085370600870078 0.00015 0.0053754057810206 0.0085370600870078 0.0003
          0.0060722038988066 0.0019538017587265 0 0.0060722038988066 0.0019538017587265 0.00015
          0.0060722038988066 0.0019538017587265 0.0003 0.0055128205128194 0 0
          0.0057061681768373 0.00065177476244477 0 0.0055128205128194 0 0.00015
          0.0057061681768373 0.00065177476244477 0.00015 0.0055128205128194 0 0.0003
          0.0057061681768373 0.00065177476244477 0.0003 0.0060137569775388 0.0015029488511318 0
          0.0060137569775388 0.0015029488511318 0.00015 0.0060137569775388 0.0015029488511318 0.0003
          0.0059245902968253 0.0010856763727913 0 0.0059245902968253 0.0010856763727913 0.00015
          0.0059245902968253 0.0010856763727913 0.0003 0.0057785311780113 0.0084598603588589 0
          0.0057785311780113 0.0084598603588589 0.00015 0.0057785311780113 0.0084598603588589 0.0003
          <InformationKey name="L2_NORM_RANGE" location="vtkDataArray" length="2">
            <Value index="0">
              0.0018888888889
            </Value>
            <Value index="1">
              0.010555613194
            </Value>
          </InformationKey>
        </DataArray>
      </Points>
      <Cells>
        <DataArray type="Int64" Name="connectivity" format="ascii" RangeMin="0" RangeMax="779">
          6 0 1 7 8 2
          3 9 8 2 3 9
          10 4 5 11 12 6
          7 13 14 8 9 15
          14 8 9 15 16 10
          11 17 18 12 13 19
          20 14 15 21 20 14
          15 21 22 16 17 23
          24 18 19 25 26 20
          21 27 26 20 21 27
          28 22 23 29 30 24
          25 31 32 26 27 33
          32 26 27 33 34 28
          29 35 36 30 31 37
          38 32 33 39 38 32
          33 39 40 34 35 41
          42 36 37 43 44 38
          39 45 44 38 39 45
          46 40 41 47 51 48
          0 6 52 49 2 8
          52 49 2 8 53 50
          4 10 54 51 6 12
          55 52 8 14 55 52
          8 14 56 53 10 16
          57 54 12 18 58 55
          14 20 58 55 14 20
          59 56 16 22 60 57
          18 24 61 58 20 26
          61 58 20 26 62 59
          22 28 63 60 24 30
          64 61 26 32 64 61
          26 32 65 62 28 34
          66 63 30 36 67 64
          32 38 67 64 32 38
          68 65 34 40 69 66
          36 42 70 67 38 44
          70 67 38 44 71 68
          40 46 75 72 48 51
          76 73 49 52 76 73
          49 52 77 74 50 53
          78 75 51 54 79 76
          52 55 79 76 52 55
          80 77 53 56 81 78
          54 57 82 79 55 58
          82 79 55 58 83 80
          56 59 84 81 57 60
          85 82 58 61 85 82
          58 61 86 83 59 62
          87 84 60 63 88 85
          61 64 88 85 61 64
          89 86 62 65 90 87
          63 66 91 88 64 67
          91 88 64 67 92 89
          65 68 93 90 66 69
          94 91 67 70 94 91
          67 70 95 92 68 71
          99 96 72 75 100 97
          73 76 100 97 73 76
          101 98 74 77 102 99
          75 78 103 100 76 79
          103 100 76 79 104 101
          77 80 105 102 78 81
          106 103 79 82 106 103
          79 82 107 104 80 83
          108 105 81 84 109 106
          82 85 109 106 82 85
          110 107 83 86 111 108
          84 87 112 109 85 88
          112 109 85 88 113 110
          86 89 114 111 87 90
          115 112 88 91 115 112
          88 91 116 113 89 92
          117 114 90 93 118 115
          91 94 118 115 91 94
          119 116 92 95 123 120
          96 99 124 121 97 100
          124 121 97 100 125 122
          98 101 126 123 99 102
          127 124 100 103 127 124
          100 103 128 125 101 104
          129 126 102 105 130 127
          103 106 130 127 103 106
          131 128 104 107 132 129
          105 108 133 130 106 109
          133 130 106 109 134 131
          107 110 135 132 108 111
          136 133 109 112 136 133
          109 112 137 134 110 113
          138 135 111 114 139 136
          112 115 139 136 112 115
          140 137 113 116 141 138
          114 117 142 139 115 118
          142 139 115 118 143 140
          116 119 147 144 120 123
          148 145 121 124 148 145
          121 124 149 146 122 125
          150 147 123 126 151 148
          124 127 151 148 124 127
          152 149 125 128 153 150
          126 129 154 151 127 130
          154 151 127 130 155 152
          128 131 156 153 129 132
          157 154 130 133 157 154
          130 133 158 155 131 134
          159 156 132 135 160 157
          133 136 160 157 133 136
          161 158 134 137 162 159
          135 138 163 160 136 139
          163 160 136 139 164 161
          137 140 165 162 138 141
          166 163 139 142 166 163
          139 142 167 164 140 143
          174 171 144 147 175 172
          145 148 175 172 145 148
          176 173 146 149 177 174
          147 150 178 175 148 151
          178 175 148 151 179 176
          149 152 180 177 150 153
          181 178 151 154 181 178
          151 154 182 179 152 155
          183 180 153 156 184 181
          154 157 184 181 154 157
          185 182 155 158 186 183
          156 159 187 184 157 160
          187 184 157 160 188 185
          158 161 189 186 159 162
          190 187 160 163 190 187
          160 163 191 188 161 164
          192 189 162 165 193 190
          163 166 193 190 163 166
          194 191 164 167 198 195
          168 171 199 196 169 172
          199 196 169 172 200 197
          170 173 201 198 171 174
          202 199 172 175 202 199
          172 175 203 200 173 176
          204 201 174 177 205 202
          175 178 205 202 175 178
          206 203 176 179 207 204
          177 180 208 205 178 181
          208 205 178 181 209 206
          179 182 210 207 180 183
          211 208 181 184 211 208
          181 184 212 209 182 185
          213 210 183 186 214 211
          184 187 214 211 184 187
          215 212 185 188 216 213
          186 189 217 214 187 190
          217 214 187 190 218 215
          188 191 219 216 189 192
          220 217 190 193 220 217
          190 193 221 218 191 194
          225 222 195 198 226 223
          196 199 226 223 196 199
          227 224 197 200 228 225
          198 201 229 226 199 202
          229 226 199 202 230 227
          200 203 231 228 201 204
          232 229 202 205 232 229
          202 205 233 230 203 206
          234 231 204 207 235 232
          205 208 235 232 205 208
          236 233 206 209 237 234
          207 210 238 235 208 211
          238 235 208 211 239 236
          209 212 240 237 210 213
          241 238 211 214 241 238
          211 214 242 239 212 215
          243 240 213 216 244 241
          214 217 244 241 214 217
          245 242 215 218 246 243
          216 219 247 244 217 220
          247 244 217 220 248 245
          218 221 252 249 222 225
          253 250 223 226 253 250
          223 226 254 251 224 227
          255 252 225 228 256 253
          226 229 256 253 226 229
          257 254 227 230 258 255
          228 231 259 256 229 232
          259 256 229 232 260 257
          230 233 261 258 231 234
          262 259 232 235 262 259
          232 235 263 260 233 236
          264 261 234 237 265 262
          235 238 265 262 235 238
          266 263 236 239 267 264
          237 240 268 265 238 241
          268 265 238 241 269 266
          239 242 270 267 240 243
          271 268 241 244 271 268
          241 244 272 269 242 245
          273 270 243 246 274 271
          244 247 274 271 244 247
          275 272 245 248 279 276
          249 252 280 277 250 253
          280 277 250 253 281 278
          251 254 282 279 252 255
          283 280 253 256 283 280
          253 256 284 281 254 257
          285 282 255 258 286 283
          256 259 286 283 256 259
          287 284 257 260 288 285
          258 261 289 286 259 262
          289 286 259 262 290 287
          260 263 291 288 261 264
          292 289 262 265 292 289
          262 265 293 290 263 266
          294 291 264 267 295 292
          265 268 295 292 265 268
          296 293 266 269 297 294
          267 270 298 295 268 271
          298 295 268 271 299 296
          269 272 300 297 270 273
          301 298 271 274 301 298
          271 274 302 299 272 275
          306 303 276 279 307 304
          277 280 307 304 277 280
          308 305 278 281 309 306
          279 282 310 307 280 283
          310 307 280 283 311 308
          281 284 312 309 282 285
          313 310 283 286 313 310
          283 286 314 311 284 287
          315 312 285 288 316 313
          286 289 316 313 286 289
          317 314 287 290 318 315
          288 291 319 316 289 292
          319 316 289 292 320 317
          290 293 321 318 291 294
          322 319 292 295 322 319
          292 295 323 320 293 296
          324 321 294 297 325 322
          295 298 325 322 295 298
          326 323 296 299 327 324
          297 300 328 325 298 301
          328 325 298 301 329 326
          299 302 333 330 303 306
          334 331 304 307 334 331
          304 307 335 332 305 308
          336 333 306 309 337 334
          307 310 337 334 307 310
          338 335 308 311 339 336
          309 312 340 337 310 313
          340 337 310 313 341 338
          311 314 342 339 312 315
          343 340 313 316 343 340
          313 316 344 341 314 317
          345 342 315 318 346 343
          316 319 346 343 316 319
          347 344 317 320 348 345
          318 321 349 346 319 322
          349 346 319 322 350 347
          320 323 351 348 321 324
          352 349 322 325 352 349
          322 325 353 350 323 326
          354 351 324 327 355 352
          325 328 355 352 325 328
          356 353 326 329 360 357
          330 333 361 358 331 334
          361 358 331 334 362 359
          332 335 363 360 333 336
          364 361 334 337 364 361
          334 337 365 362 335 338
          366 363 336 339 367 364
          337 340 367 364 337 340
          368 365 338 341 369 366
          339 342 370 367 340 343
          370 367 340 343 371 368
          341 344 372 369 342 345
          373 370 343 346 373 370
          343 346 374 371 344 347
          375 372 345 348 376 373
          346 349 376 373 346 349
          377 374 347 350 378 375
          348 351 379 376 349 352
          379 376 349 352 380 377
          350 353 381 378 351 354
          382 379 352 355 382 379
          352 355 383 380 353 356
          387 384 360 363 388 385
          361 364 388 385 361 364
          389 386 362 365 390 387
          363 366 391 388 364 367
          391 388 364 367 392 389
          365 368 393 390 366 369
          394 391 367 370 394 391
          367 370 395 392 368 371
          396 393 369 372 397 394
          370 373 397 394 370 373
          398 395 371 374 399 396
          372 375 400 397 373 376
          400 397 373 376 401 398
          374 377 402 399 375 378
          403 400 376 379 403 400
          376 379 404 401 377 380
          405 402 378 381 406 403
          379 382 406 403 379 382
          407 404 380 383 411 408
          384 387 412 409 385 388
          412 409 385 388 413 410
          386 389 414 411 387 390
          415 412 388 391 415 412
          388 391 416 413 389 392
          417 414 390 393 418 415
          391 394 418 415 391 394
          419 416 392 395 420 417
          393 396 421 418 394 397
          421 418 394 397 422 419
          395 398 423 420 396 399
          424 421 397 400 424 421
          397 400 425 422 398 401
          426 423 399 402 427 424
          400 403 427 424 400 403
          428 425 401 404 429 426
          402 405 430 427 403 406
          430 427 403 406 431 428
          404 407 435 432 408 411
          436 433 409 412 436 433
          409 412 437 434 410 413
          438 435 411 414 439 436
          412 415 439 436 412 415
          440 437 413 416 441 438
          414 417 442 439 415 418
          442 439 415 418 443 440
          416 419 444 441 417 420
          445 442 418 421 445 442
          418 421 446 443 419 422
          447 444 420 423 448 445
          421 424 448 445 421 424
          449 446 422 425 450 447
          423 426 451 448 424 427
          451 448 424 427 452 449
          425 428 453 450 426 429
          454 451 427 430 454 451
          427 430 455 452 428 431
          459 456 432 435 460 457
          433 436 460 457 433 436
          461 458 434 437 462 459
          435 438 463 460 436 439
          463 460 436 439 464 461
          437 440 465 462 438 441
          466 463 439 442 466 463
          439 442 467 464 440 443
          468 465 441 444 469 466
          442 445 469 466 442 445
          470 467 443 446 471 468
          444 447 472 469 445 448
          472 469 445 448 473 470
          446 449 474 471 447 450
          475 472 448 451 475 472
          448 451 476 473 449 452
          477 474 450 453 478 475
          451 454 478 475 451 454
          479 476 452 455 483 480
          459 462 484 481 460 463
          484 481 460 463 485 482
          461 464 486 483 462 465
          487 484 463 466 487 484
          463 466 488 485 464 467
          489 486 465 468 490 487
          466 469 490 487 466 469
          491 488 467 470 492 489
          468 471 493 490 469 472
          493 490 469 472 494 491
          470 473 495 492 471 474
          496 493 472 475 496 493
          472 475 497 494 473 476
          498 495 474 477 499 496
          475 478 499 496 475 478
          500 497 476 479 504 501
          480 483 505 502 481 484
          505 502 481 484 506 503
          482 485 507 504 483 486
          508 505 484 487 508 505
          484 487 509 506 485 488
          510 507 486 489 511 508
          487 490 511 508 487 490
          512 509 488 491 513 510
          489 492 514 511 490 493
          514 511 490 493 515 512
          491 494 516 513 492 495
          517 514 493 496 517 514
          493 496 518 515 494 497
          519 516 495 498 520 517
          496 499 520 517 496 499
          521 518 497 500 525 522
          501 504 526 523 502 505
          526 523 502 505 527 524
          503 506 528 525 504 507
          529 526 505 508 529 526
          505 508 530 527 506 509
          531 528 507 510 532 529
          508 511 532 529 508 511
          533 530 509 512 534 531
          510 513 535 532 511 514
          535 532 511 514 536 533
          512 515 537 534 513 516
          538 535 514 517 538 535
          514 517 539 536 515 518
          687 537 516 519 688 538
          517 520 688 538 517 520
          689 539 518 521 543 540
          522 525 544 541 523 526
          544 541 523 526 545 542
          524 527 546 543 525 528
          547 544 526 529 547 544
          526 529 548 545 527 530
          549 546 528 531 550 547
          529 532 550 547 529 532
          551 548 530 533 552 549
          531 534 553 550 532 535
          553 550 532 535 554 551
          533 536 690 552 534 537
          691 553 535 538 691 553
          535 538 692 554 536 539
          693 690 537 687 694 691
          538 688 694 691 538 688
          695 692 539 689 696 697
          540 543 698 699 541 544
          698 699 541 544 700 701
          542 545 702 696 543 546
          703 698 544 547 703 698
          544 547 704 700 545 548
          705 702 546 549 706 703
          547 550 706 703 547 550
          707 704 548 551 708 705
          549 552 709 706 550 553
          709 706 550 553 710 707
          551 554 711 708 552 690
          712 709 553 691 712 709
          553 691 713 710 554 692
          555 556 557 558 559 560
          561 562 559 560 561 562
          563 564 565 566 567 568
          569 570 571 572 573 574
          571 572 573 574 575 576
          577 578 579 714 580 581
          582 715 583 584 582 715
          583 584 585 716 586 587
          579 588 717 714 582 589
          718 715 582 589 718 715
          585 590 719 716 591 592
          593 594 595 596 597 598
          595 596 597 598 599 600
          601 602 594 558 557 591
          598 562 561 595 598 562
          561 595 602 566 565 599
          603 567 570 604 605 571
          574 606 605 571 574 606
          607 575 578 608 555 609
          610 611 559 612 613 614
          559 612 613 614 563 615
          616 617 594 593 720 721
          598 597 722 723 598 597
          722 723 602 601 724 725
          726 727 611 610 728 729
          614 613 728 729 614 613
          730 731 617 616 567 732
          733 568 571 734 735 572
          571 734 735 572 575 736
          737 576 604 618 619 603
          606 620 621 605 606 620
          621 605 608 622 623 607
          567 603 738 732 571 605
          739 734 571 605 739 734
          575 607 740 736 579 624
          625 588 582 626 627 589
          582 626 627 589 585 628
          629 590 625 741 717 588
          627 742 718 589 627 742
          718 589 629 743 719 590
          744 630 733 745 746 631
          735 747 746 631 735 747
          748 632 737 749 633 634
          610 609 635 636 613 612
          635 636 613 612 637 638
          616 615 634 750 726 610
          636 751 728 613 636 751
          728 613 638 752 730 616
          555 558 633 609 559 562
          635 612 559 562 635 612
          563 566 637 615 753 750
          634 754 755 751 636 756
          755 751 636 756 757 752
          638 758 639 640 625 624
          641 642 627 626 641 642
          627 626 643 644 629 628
          625 611 727 741 627 614
          729 742 627 614 729 742
          629 617 731 743 634 633
          721 754 636 635 723 756
          636 635 723 756 638 637
          725 758 580 759 687 519
          583 760 688 520 583 760
          688 520 586 761 689 521
          581 580 519 498 584 583
          520 499 584 583 520 499
          587 586 521 500 592 645
          646 593 596 647 648 597
          596 647 648 597 600 649
          650 601 651 652 300 273
          653 654 301 274 653 654
          301 274 655 656 302 275
          569 651 273 246 573 653
          274 247 573 653 274 247
          577 655 275 248 556 405
          381 557 560 406 382 561
          560 406 382 561 564 407
          383 565 570 569 246 219
          574 573 247 220 574 573
          247 220 578 577 248 221
          557 381 354 591 561 382
          355 595 561 382 355 595
          565 383 356 599 604 570
          219 192 606 574 220 193
          606 574 220 193 608 578
          221 194 640 555 611 625
          642 559 614 627 642 559
          614 627 644 563 617 629
          618 604 192 165 620 606
          193 166 620 606 193 166
          622 608 194 167 657 618
          165 141 658 620 166 142
          658 620 166 142 659 622
          167 143 660 661 117 93
          662 663 118 94 662 663
          118 94 664 665 119 95
          661 657 141 117 663 658
          142 118 663 658 142 118
          665 659 143 119 762 738
          603 619 763 739 605 621
          763 739 605 621 764 740
          607 623 429 639 624 453
          430 641 626 454 430 641
          626 454 431 643 628 455
          666 568 733 630 667 572
          735 631 667 572 735 631
          668 576 737 632 669 660
          93 69 670 662 94 70
          670 662 94 70 671 664
          95 71 592 327 300 645
          596 328 301 647 596 328
          301 647 600 329 302 649
          721 633 558 594 723 635
          562 598 723 635 562 598
          725 637 566 602 744 720
          593 646 746 722 597 648
          746 722 597 648 748 724
          601 650 477 453 624 672
          478 454 626 673 478 454
          626 673 479 455 628 674
          327 592 591 354 328 596
          595 355 328 596 595 355
          329 600 599 356 669 675
          765 766 670 676 767 768
          670 676 767 768 671 677
          769 770 639 429 405 556
          641 430 406 560 641 430
          406 560 643 431 407 564
          581 672 624 579 584 673
          626 582 584 673 626 582
          587 674 628 585 678 619
          618 657 679 621 620 658
          679 621 620 658 680 623
          622 659 42 43 765 675
          44 45 767 676 44 45
          767 676 46 47 769 677
          646 645 300 652 648 647
          301 654 648 647 301 654
          650 649 302 656 619 678
          771 762 621 679 772 763
          621 679 772 763 623 680
          773 764 744 646 652 630
          746 648 654 631 746 648
          654 631 748 650 656 632
          678 681 774 771 679 682
          775 772 679 682 775 772
          680 683 776 773 681 678
          657 661 682 679 658 663
          682 679 658 663 683 680
          659 665 666 630 652 651
          667 631 654 653 667 631
          654 653 668 632 656 655
          651 569 568 666 653 573
          572 667 653 573 572 667
          655 577 576 668 681 684
          766 774 682 685 768 775
          682 685 768 775 683 686
          770 776 759 580 714 777
          760 583 715 778 760 583
          715 778 761 586 716 779
          672 581 498 477 673 584
          499 478 673 584 499 478
          674 587 500 479 639 556
          555 640 641 560 559 642
          641 560 559 642 643 564
          563 644 675 669 69 42
          676 670 70 44 676 670
          70 44 677 671 71 46
          684 681 661 660 685 682
          663 662 685 682 663 662
          686 683 665 664 660 669
          766 684 662 670 768 685
          662 670 768 685 664 671
          770 686
        </DataArray>
        <DataArray type="Int64" Name="offsets" format="ascii" RangeMin="8" RangeMax="3632">
          8 16 24 32 40 48
          56 64 72 80 88 96
          104 112 120 128 136 144
          152 160 168 176 184 192
          200 208 216 224 232 240
          248 256 264 272 280 288
          296 304 312 320 328 336
          344 352 360 368 376 384
          392 400 408 416 424 432
          440 448 456 464 472 480
          488 496 504 512 520 528
          536 544 552 560 568 576
          584 592 600 608 616 624
          632 640 648 656 664 672
          680 688 696 704 712 720
          728 736 744 752 760 768
          776 784 792 800 808 816
          824 832 840 848 856 864
          872 880 888 896 904 912
          920 928 936 944 952 960
          968 976 984 992 1000 1008
          1016 1024 1032 1040 1048 1056
          1064 1072 1080 1088 1096 1104
          1112 1120 1128 1136 1144 1152
          1160 1168 1176 1184 1192 1200
          1208 1216 1224 1232 1240 1248
          1256 1264 1272 1280 1288 1296
          1304 1312 1320 1328 1336 1344
          1352 1360 1368 1376 1384 1392
          1400 1408 1416 1424 1432 1440
          1448 1456 1464 1472 1480 1488
          1496 1504 1512 1520 1528 1536
          1544 1552 1560 1568 1576 1584
          1592 1600 1608 1616 1624 1632
          1640 1648 1656 1664 1672 1680
          1688 1696 1704 1712 1720 1728
          1736 1744 1752 1760 1768 1776
          1784 1792 1800 1808 1816 1824
          1832 1840 1848 1856 1864 1872
          1880 1888 1896 1904 1912 1920
          1928 1936 1944 1952 1960 1968
          1976 1984 1992 2000 2008 2016
          2024 2032 2040 2048 2056 2064
          2072 2080 2088 2096 2104 2112
          2120 2128 2136 2144 2152 2160
          2168 2176 2184 2192 2200 2208
          2216 2224 2232 2240 2248 2256
          2264 2272 2280 2288 2296 2304
          2312 2320 2328 2336 2344 2352
          2360 2368 2376 2384 2392 2400
          2408 2416 2424 2432 2440 2448
          2456 2464 2472 2480 2488 2496
          2504 2512 2520 2528 2536 2544
          2552 2560 2568 2576 2584 2592
          2600 2608 2616 2624 2632 2640
          2648 2656 2664 2672 2680 2688
          2696 2704 2712 2720 2728 2736
          2744 2752 2760 2768 2776 2784
          2792 2800 2808 2816 2824 2832
          2840 2848 2856 2864 2872 2880
          2888 2896 2904 2912 2920 2928
          2936 2944 2952 2960 2968 2976
          2984 2992 3000 3008 3016 3024
          3032 3040 3048 3056 3064 3072
          3080 3088 3096 3104 3112 3120
          3128 3136 3144 3152 3160 3168
          3176 3184 3192 3200 3208 3216
          3224 3232 3240 3248 3256 3264
          3272 3280 3288 3296 3304 3312
          3320 3328 3336 3344 3352 3360
          3368 3376 3384 3392 3400 3408
          3416 3424 3432 3440 3448 3456
          3464 3472 3480 3488 3496 3504
          3512 3520 3528 3536 3544 3552
          3560 3568 3576 3584 3592 3600
          3608 3616 3624 3632
        </DataArray>
        <DataArray type="UInt8" Name="types" format="ascii" RangeMin="12" RangeMax="12">
          12 12 12 12 12 12
          12 12 12 12 12 12
          12 12 12 12 12 12
          12 12 12 12 12 12
          12 12 12 12 12 12
          12 12 12 12 12 12
          12 12 12 12 12 12
          12 12 12 12 12 12
          12 12 12 12 12 12
          12 12 12 12 12 12
          12 12 12 12 12 12
          12 12 12 12 12 12
          12 12 12 12 12 12
          12 12 12 12 12 12
          12 12 12 12 12 12
          12 12 12 12 12 12
          12 12 12 12 12 12
          12 12 12 12 12 12
          12 12 12 12 12 12
          12 12 12 12 12 12
          12 12 12 12 12 12
          12 12 12 12 12 12
          12 12 12 12 12 12
          12 12 12 12 12 12
          12 12 12 12 12 12
          12 12 12 12 12 12
          12 12 12 12 12 12
          12 12 12 12 12 12
          12 12 12 12 12 12
          12 12 12 12 12 12
          12 12 12 12 12 12
          12 12 12 12 12 12
          12 12 12 12 12 12
          12 12 12 12 12 12
          12 12 12 12 12 12
          12 12 12 12 12 12
          12 12 12 12 12 12
          12 12 12 12 12 12
          12 12 12 12 12 12
          12 12 12 12 12 12
          12 12 12 12 12 12
          12 12 12 12 12 12
          12 12 12 12 12 12
          12 12 12 12 12 12
          12 12 12 12 12 12
          12 12 12 12 12 12
          12 12 12 12 12 12
          12 12 12 12 12 12
          12 12 12 12 12 12
          12 12 12 12 12 12
          12 12 12 12 12 12
          12 12 12 12 12 12
          12 12 12 12 12 12
          12 12 12 12 12 12
          12 12 12 12 12 12
          12 12 12 12 12 12
          12 12 12 12 12 12
          12 12 12 12 12 12
          12 12 12 12 12 12
          12 12 12 12 12 12
          12 12 12 12 12 12
          12 12 12 12 12 12
          12 12 12 12 12 12
          12 12 12 12 12 12
          12 12 12 12 12 12
          12 12 12 12 12 12
          12 12 12 12 12 12
          12 12 12 12 12 12
          12 12 12 12 12 12
          12 12 12 12 12 12
          12 12 12 12 12 12
          12 12 12 12 12 12
          12 12 12 12 12 12
          12 12 12 12 12 12
          12 12 12 12 12 12
          12 12 12 12
        </DataArray>
      </Cells>
    </Piece>
  </UnstructuredGrid>
</VTKFile>
