<?xml version="1.0"?>
<VTKFile type="UnstructuredGrid" version="0.1" byte_order="LittleEndian" header_type="UInt32" compressor="vtkZLibDataCompressor">
  <UnstructuredGrid>
    <Piece NumberOfPoints="783" NumberOfCells="456">
      <PointData>
        <DataArray type="Int32" Name="libmesh_node_id" format="ascii" RangeMin="1863" RangeMax="4982">
          1863 1864 1865 1887 1888 1889
          1890 1891 1892 1899 1900 1901
          1902 1903 1904 1905 1906 1907
          1908 1909 1910 1911 1912 1913
          1914 1915 1916 1917 1918 1919
          1926 1927 1928 1929 1930 1931
          1932 1933 1934 1935 1936 1937
          1938 1939 1940 1941 1942 1943
          1944 1945 1946 1950 1951 1952
          1953 1954 1955 1956 1957 1958
          1959 1960 1961 1962 1963 1964
          1965 1966 1967 1968 1969 1970
          1971 1972 1973 1977 1978 1979
          1980 1981 1982 1983 1984 1985
          1986 1987 1988 1989 1990 1991
          1992 1993 1994 1995 1996 1997
          1998 1999 2000 2004 2005 2006
          2007 2008 2009 2010 2011 2012
          2013 2014 2015 2016 2017 2018
          2019 2020 2021 2022 2023 2024
          2025 2026 2027 2031 2032 2033
          2034 2035 2036 2037 2038 2039
          2040 2041 2042 2043 2044 2045
          2046 2047 2048 2049 2050 2051
          2052 2053 2054 2058 2059 2060
          2061 2062 2063 2064 2065 2066
          2067 2068 2069 2070 2071 2072
          2073 2074 2075 2076 2077 2078
          2079 2080 2081 2082 2083 2084
          2085 2086 2087 2088 2089 2090
          2091 2092 2093 2094 2095 2096
          2097 2098 2099 2100 2101 2102
          2103 2104 2105 2106 2107 2108
          2109 2110 2111 2118 2119 2120
          2121 2122 2123 2136 2137 2138
          2139 2140 2141 2142 2143 2144
          2145 2146 2147 2154 2155 2156
          2157 2158 2159 2160 2161 2162
          2163 2165 2167 2169 2170 2171
          2172 2173 2174 2175 2176 2177
          2178 2179 2180 2181 2182 2183
          2209 2213 2217 2232 2233 2234
          2235 2236 2237 2238 2239 2240
          2241 2242 2243 2245 2247 2249
          2310 2311 2312 2313 2314 2315
          2364 2365 2366 2367 2368 2369
          2370 2371 2372 2373 2374 2375
          2574 2575 2576 2577 2578 2579
          2586 2587 2588 2589 2590 2591
          2634 2635 2636 2637 2638 2639
          2640 2641 2642 2673 2674 2675
          2676 2677 2678 2679 2680 2681
          2682 2683 2684 2727 2728 2729
          2730 2731 2732 2733 2734 2735
          2826 2827 2828 2829 2830 2831
          2832 2833 2834 2835 2836 2837
          2874 2875 2876 2877 2878 2879
          2901 2902 2903 2904 2905 2906
          2907 2908 2909 2910 2911 2912
          3003 3004 3005 3006 3007 3008
          3009 3010 3011 3012 3013 3014
          3015 3016 3017 3024 3025 3026
          3027 3028 3029 3030 3031 3032
          3033 3034 3035 3037 3038 3041
          3042 3045 3046 3048 3049 3050
          3051 3052 3053 3105 3106 3107
          3108 3109 3110 3168 3169 3170
          3171 3172 3173 3174 3175 3176
          3177 3178 3179 3228 3229 3230
          3231 3232 3233 3234 3235 3236
          3237 3238 3239 3246 3247 3248
          3249 3250 3251 3264 3265 3266
          3267 3268 3269 3375 3376 3377
          3393 3394 3395 3396 3397 3398
          3423 3424 3425 3426 3427 3428
          3429 3430 3431 3432 3433 3434
          3441 3442 3443 3444 3445 3446
          3465 3466 3467 3468 3469 3470
          3471 3472 3473 3474 3475 3476
          3477 3478 3479 3480 3481 3482
          3516 3517 3518 3546 3547 3548
          3549 3550 3551 3552 3553 3554
          3573 3574 3575 3576 3577 3578
          3600 3601 3602 3663 3664 3665
          3666 3667 3668 3705 3706 3707
          3723 3724 3725 3726 3727 3728
          3729 3730 3731 3732 3733 3734
          3789 3790 3791 3810 3811 3812
          3813 3814 3815 3819 3820 3821
          3840 3841 3842 3843 3844 3845
          3864 3865 3866 3891 3892 3893
          3894 3895 3896 3897 3898 3899
          3933 3934 3935 3936 3937 3938
          3945 3946 3947 3948 3949 3950
          3996 3997 3998 3999 4000 4001
          4002 4003 4004 4005 4006 4007
          4038 4039 4040 4071 4072 4073
          4074 4075 4076 4083 4084 4085
          4110 4111 4112 4113 4114 4115
          4131 4132 4133 4134 4135 4136
          4137 4138 4139 4140 4141 4142
          4143 4144 4145 4239 4240 4241
          4242 4243 4244 4245 4246 4247
          4248 4249 4250 4329 4330 4331
          4332 4333 4334 4356 4357 4358
          4359 4360 4361 4362 4363 4364
          4392 4393 4394 4419 4420 4421
          4446 4447 4448 4449 4450 4451
          4467 4468 4469 4479 4480 4481
          4503 4504 4505 4512 4513 4514
          4524 4525 4526 4542 4543 4544
          4548 4549 4550 4563 4564 4565
          4575 4576 4577 4596 4597 4598
          4632 4633 4634 4674 4675 4676
          4686 4687 4688 4755 4756 4757
          4758 4759 4760 4776 4777 4778
          4824 4825 4826 4827 4828 4829
          4839 4840 4841 4959 4960 4961
          4980 4981 4982 3036 3039 3040
          3043 3044 3047 3609 3693 3610
          3613 3695 3614 3617 3697 3618
          4021 4024 4027 4020 4023 4026
          4009 4008 4013 4012 4017 4016
          3671 4188 3675 4189 3679 4190
          2402 2409 2405 2410 2408 2411
          2389 4395 2393 4396 2397 4397
          2400 2403 2406 3939 4287 3941
          4288 3943 4289 3694 3696 3698
          4599 4380 4600 4384 4601 4388
          4830 4831 4832 4022 4025 4028
          4656 4657 4658
        </DataArray>
        <DataArray type="Float64" Name="resid_x" format="ascii" RangeMin="-0.000012526951061908598" RangeMax="0.00004503799750388282">
          0.000006495756929347785 0.000010833596988391037 0.000007318825273827656 0.0000022537395094612833 0.000008126863834112541 0.00000831896935482579
          -1.2606075239229853e-7 0.0000023435100686697297 0.000006049690855380874 0.000001811131885243178 0.000002651252824614758 0.0000031429524387505126
          0.0000018953531808474366 0.000004436906540061791 0.000004636150180981069 0.000004772211384174163 0.000005717545422889714 0.0000040459712372653556
          0.000006207675795399936 0.000004199973747676111 0.000004401034454093455 0.000008031815737052916 0.000004229505376041054 0.0000037680205384749144
          -2.7010942449390285e-7 0.000004652492310075473 0.0000080704025420264 3.1950922008139315e-7 0.000001747164850796068 0.000006109148516952878
          -2.005400387972145e-7 5.412053205589018e-7 0.000003117757038095803 7.545966889122013e-7 0.0000018958065548524416 0.000004034885799808485
          0.0000019775912274422325 0.0000027604825069138528 0.000004581738472397845 0.0000021926749798062417 0.000002592939925438742 0.000004792555850396951
          0.000004771478192222567 0.000004026871007312138 0.000005326519361914528 0.000005274456341686218 0.000004553186565114942 0.000007091084627597333
          0.000003264042950146262 0.0000011706034780400998 0.000005651102967574317 0.0000052403097670072896 0.000005858195166963398 0.00000587284239439434
          0.0000012483980568189779 0.0000013832119720724734 0.0000041992745501984174 0.0000020954057780020463 0.000003988379512875895 0.000005595540545244582
          0.000003908209914915695 0.00000472367908188609 0.00000575129338886704 0.000003263476614501215 0.000003329267020069082 0.000004972642673184424
          0.000003639073998473741 0.000002264192948464583 0.000004969106402130663 0.000004645470674025098 0.00000356421066727286 0.000005509471808551325
          0.0000032722847168042968 0.0000013344744324572666 0.000005608451850047658 0.000005505886325973819 0.000009949470423098461 0.000008516278428238877
          0.000003301408156186625 0.000004099417395764249 0.000005981878899441462 0.000004491371818571288 0.000005360365240347775 0.0000063306681992170155
          0.000003958674894000147 0.000004230050162257193 0.0000051566665334457085 0.0000035880621941375423 0.0000031962537686558434 0.000004450667740352188
          0.000003622396602009914 0.0000026596985895910308 0.00000432229004621032 0.00000427388410040308 0.000003421718559715181 0.000004872659219667952
          0.0000026091842140196775 7.819682084075907e-7 0.0000036537153983440263 0.00000785899189725825 0.000014685523129998046 0.000011715503889897505
          0.000003583734965229013 0.0000050899898509371155 0.000006894639891341647 0.000005261859476912711 0.000005931779883505683 0.000006992125892502088
          0.000004127596390235411 0.0000037617524325517238 0.000004987836111136623 0.0000037325737741733533 0.0000027882360578157517 0.000004307668861724956
          0.0000035659292021428257 0.000002261270819703398 0.000004130611427899389 0.000004025844340893592 0.0000033774231986694048 0.000004816483612057887
          0.000002414425325558689 7.139564790481501e-7 0.000003671511892955337 0.000009376695861762485 0.000017735117591399785 0.000014117201336816265
          0.000004160620730608855 0.0000060747296868335354 0.0000073520539026761256 0.000005596578483757497 0.000005764218287573897 0.0000069301232384910705
          0.0000043760867958209104 0.0000028470562418725365 0.000004718242334611489 0.00000390444992370842 0.000001927547724656087 0.000004172983577466205
          0.0000037487642400302335 0.0000014932166796377544 0.00000415750774163115 0.000004168586343777925 0.0000026104987455033424 0.000004962641916295141
          0.0000028015242065082546 5.697473930421637e-7 0.000004306635875805931 0.000008902016248812927 0.000016799279173085324 0.000012591720209620405
          0.0000029095426561931426 0.0000032441559494889027 0.000005131375083178291 0.00000481048077573612 0.0000028302838724070245 0.000005632201666126713
          0.000004751084170140363 0.0000019877366339571267 0.000004352708465327204 0.000004248424853692256 0.0000011986426775578707 0.000003852752253286074
          0.000004239511914638783 0.000001182410569122716 0.00000413682320110631 0.0000047144104965424205 0.000002393947152845577 0.000005380159252776906
          0.0000037084677222409823 6.285878173528658e-7 0.000005479175986145002 0.0000014246184030231035 0.0000015944110175469817 -8.781079410269399e-7
          -4.2000258781982325e-7 -7.381290206831537e-7 0.000003908942334041043 0.0000022756450485106328 0.0000024322683326305494 0.0000024576931139108638
          0.000006668151211974838 0.000005500694542304174 0.000004308067069525023 7.915104668354545e-7 -0.0000041173212486774954 -0.0000032780675519039626
          7.593314691467512e-7 1.219957735942856e-7 -0.000007951649916664721 -0.00000376595774742583 8.75435511193956e-7 0.0000029525564054777576
          -0.0000022656715991768717 -0.000002031081710152094 0.000003442784618501449 0.000005910308159884359 0.000001575590970526175 0.0000035741446343662275
          -0.0000014570476832842516 0.00000386554836018238 0.000002683135253811475 0.000008519429274156387 0.000007244420940133445 0.000002810436027678165
          0.0000011958530191646943 0.0000036842472195264264 0.0000027273984031239706 0.000010356277386269763 0.000003158333420724257 0.000011753366916944508
          0.0000020969744018827906 0.00000966024056392456 0.000004255911872250769 0.000006980206571194358 0.000005262170952258227 0.000010140276624159839
          0.000006358967772346347 0.000006649120946500275 9.424363311971717e-7 0.0000034693547806829983 0.0000023830690660496534 0.000003891214208351368
          0.0000019100736516931838 0.000003885081388266265 0.000004838041335202686 0.000008584873732897513 0.000005841089034563929 0.000008347865402158483
          -0.000005600256815008198 -0.000012526951061908598 -0.000007450852957779919 -0.000002013877097528649 -0.000008327499102012137 -0.000004830164563929262
          7.971045098420504e-7 -4.932225744491703e-8 -0.0000016220279857037667 -0.0000048678618898012616 1.4397659725551293e-7 -6.499481766675252e-7
          0.00000578927564287568 -5.904299216208386e-8 0.0000011228389709683206 0.000003567265450588053 -2.4947002519315475e-7 0.000004853382403968709
          0.000008991024213811372 0.000012734447243811786 0.000013518813297919152 0.000004148313284990657 0.000003962723531092394 2.3657458447789992e-7
          -7.836556368268077e-7 0.000005073067797956021 0.0000039893173872096455 8.284542218905955e-7 -0.00000154382124450958 0.000007877883559492815
          0.000005847632057576213 0.0000021536404325450675 0.000002508390676503325 0.000012553463007325405 0.000015068756638925151 0.000012274891572516822
          -0.0000013874121819745788 0.000008597799451059984 -0.0000029802468031192575 0.00000736443209348181 0.000004485736616099967 0.000009028226323315458
          1.6370032640544707e-7 -1.5039308909337024e-7 5.961827224121308e-7 -9.212808648184634e-7 0.0000029964723222697387 0.0000044572701816125715
          0.000004857241577282956 7.594058886728483e-7 0.00001098109723340901 0.000007149962784391839 0.00000756629514842011 0.0000099855470438448
          0.000001534190832486182 0.000002752839634245774 4.094311106817017e-7 0.00000442402691919197 0.0000031121250491095154 0.0000064052226018129765
          0.000004448129790612931 0.000006844191792310106 0.0000015773053039236373 0.000005685503820962445 0.000012241791760403409 0.000012934770961980924
          0.0000024755116377894737 4.00360140706546e-7 0.0000045541737916376945 0.0000033419911743548525 0.0000023276984013609336 0.000005752379354739823
          0.000005838111093448006 0.000009624531876029074 0.0000066912571214938765 -2.707985680139302e-8 -6.746636588284005e-7 -6.743723560687087e-7
          -0.0000021214255608859034 0.000003416535194422643 0.0000064301338358330185 0.000002884090877508516 0.000005746283785357242 0.000013559840600696482
          0.00001575583966439975 0.000016188917241866108 0.000017414591518494227 0.000004839784053065066 5.502823815506375e-7 8.995621670893073e-7
          0.000005549937439591757 0.000002697362280201787 0.000009222818539544875 0.00000654931639451628 0.00000840289578640796 0.00001317279140811145
          0.000007540687468221563 0.000014307434662574892 0.000006346274543073127 -0.0000010633517780744839 0.00001470102579337329 0.00003480439121517076
          0.000017005936490233076 0.0000014220959278499201 0.000014866167768023963 0.000024030658765439306 0.000020144705540237062 0.000010981008969235262
          0.0000037715962171169792 0.00000146567200665082 0.000004506799556214247 3.3707920232828315e-7 0.000005360113179087023 0.000003033017589415543
          -1.5944770603848468e-7 0.000002813487035124851 0.000002157972579297507 -9.488851746564109e-7 0.0000016779909695063822 0.0000014402704888727413
          0.000009461228170137836 0.0000031959624307020817 0.000008873792633479205 0.000007546537587277413 0.000017010181529331092 0.00001229630026744477
          0.000004375069791506814 0.000004411806599269319 4.372836919230849e-7 0.0000023227602410913484 0.000004689654094613971 9.324644122399306e-7
          0.000006980755722474363 0.000006900316414037988 0.0000026006637907638464 0.000008844965525778292 0.0000051242092670156225 0.000005892744463609212
          0.000002007763624800596 0.000009083960675337899 0.000008316822567300264 -1.8268545898258992e-7 -7.075577914683606e-7 -2.5231235012412867e-7
          -0.0000021702456065586517 0.0000027352474996078513 5.003068703768321e-7 0.000006214964926365418 0.000001775239892087832 0.000012732796232706178
          0.000012367437900007161 0.000013979744891257084 0.000015275665470548816 0.000007251491556115042 0.000005084201361027496 0.000016568120577542533
          0.000013427418710243444 0.000016557959314489334 0.000015446405006391828 9.545805818023112e-7 0.0000016902707766219827 0.000002759708123578619
          0.000006104736917422748 0.000013288056766036505 0.000013010003856228636 0.000007975509072749576 0.000007199894693998843 0.000004983672536346129
          0.000005179780057762429 0.00000944996341190052 0.000010072090035451176 1.9260690375944023e-8 -4.867113952977675e-7 -8.012372875176865e-7
          -7.934906373074924e-7 0.0000029014705416052777 0.000006763705760914895 0.0000024690695699103316 0.000006930144555661322 0.000010253049025799044
          0.000012594889393313657 0.000011885435560188284 0.00001712809886211808 0.000012950702145131388 0.000009419914424602105 0.000010768468813315835
          0.00000861763915649405 0.000007807565803652494 0.000008322260771187473 0.000011079464603769296 0.000012439821894916214 0.000015096878573039874
          0.00001568623608561026 0.000012351490006112797 0.000011308607130278148 0.0000062220413199476354 0.000004113372471525878 0.000004708102246397949
          0.00000283010951901419 0.000005722094883919837 0.000005862701123071634 0.0000032511708314419963 0.0000071993661431291045 3.2004878192104513e-7
          0.000005776859134387635 0.000007270406769954718 0.000007351143799572135 0.000006170225905544058 0.000002163435843582917 0.000006297132165822283
          0.00001528615270740552 0.000008265337593682531 0.000007383445419506529 0.0000027402120228448013 0.000007747749282138727 0.000005321714455663873
          0.000004482927500659706 5.8069171693375665e-8 -0.0000010184049132888617 8.321809686906434e-7 0.000004624228723493218 5.211199765042807e-7
          0.0000023026500636236236 0.0000013879754477974515 0.000010060544615719813 0.000008130824266650016 0.000008864017746690322 0.000008370476893615475
          0.00000307579460789853 0.000003870575162545631 0.00000643627252361334 0.000004193580283473608 0.000014884589575214768 0.00001133453493340486
          0.000005028779391569316 0.000010386209039037197 0.000004680345894958471 0.0000036369583007456185 0.000004165592849325606 0.0000029324282757592357
          0.0000053627602306649536 0.000007685111327426775 0.0000045589806785262255 0.000007557351970444159 0.000010741801595659517 0.000003175020536705375
          0.00001005997599279329 0.000004709499980326548 0.0000023710233176821305 0.000013430066422515097 0.000008408444040375329 0.000005369912957409184
          0.000009729315367801306 0.00000415746867114819 0.000010890707984434478 0.000007304790930917626 0.000005419872125433933 0.000006840330743274059
          0.000004830085399643025 0.0000057764448382346956 0.0000036329759464104328 0.000002199724732920849 0.000006633653337417833 0.000006012809971034372
          0.000003376733412330246 0.000005148858512216137 4.858723596790071e-7 -1.1309960146199671e-7 0.00000433008828326642 0.000004263547874083784
          0.000009510645696764186 0.0000034456124334281135 0.000019184799421978482 0.000007656072085415744 0.0000017018017851311296 0.00001527803230372271
          3.201835893362759e-7 0.000010322225822978481 0.000002386328752365663 0.000024497838053472165 0.00003608950311306813 0.000019486870357354746
          0.00001090252652347079 0.000013103061179964293 0.000004866306685613608 0.000004178167847590508 0.00002592832426706604 0.000030073115071083123
          0.000011792919899611398 0.000007629988494461948 0.00002010369265237344 0.000018786924694147444 0.000009452526193554078 0.00000992979302000263
          0.000003317386481183071 7.389971037330412e-7 0.000004664566959022842 -8.822695689580939e-7 0.0000069985067060462924 -0.000002121217732020675
          0.000007801349474867436 0.000005068583265321891 0.000010595633838761387 0.000009349955008897126 0.0000034624671422234243 0.000006268626308036929
          0.000005706340700850632 0.000006631877134177788 0.000003364287488483164 0.0000036778407597332086 0.000007809164644712041 0.000009680593035729657
          0.00001990423184139445 0.00003540258538725638 0.00002047032470153809 0.000002804248748655702 0.000019492409097265906 0.000008936096494438495
          0.000001845060771166196 0.000021432959575573562 0.000016505803805078045 0.000005877446724755764 0.000018081443040163236 0.000011385030056154655
          0.000015084317224411947 0.000009524318369980023 0.000006632493957603458 0.0000029645189953964035 0.000010237962454362481 0.000008911099387276522
          0.00002241845316108826 0.00002272291653160341 0.000010684813730676979 0.000018007787472740233 0.000013334408676346499 0.0000161607053608126
          0.00000327731144167398 0.000006086630914170499 0.0000010947698878549517 0.000008171733726247687 0.000015771529818797703 0.000013083237435318473
          0.0000069098458182481615 0.000010094981605535125 0.0000015870604012646616 0.000010331278634700958 0.0000093106774106122 0.000010554076481650299
          0.000016464876921279403 0.00002480606130128571 0.00001856429858893005 0.000012070645104667044 0.000006341963835199138 0.000014636834374082142
          0.000022782488277584 0.00002548740176777642 0.000017254918236231376 0.00001380539369644218 0.00000983244431651542 0.000007672204372810576
          0.000010224532053904056 -0.0000018315760983433904 0.000007920618927848011 0.0000055597044238409055 2.6047553181030025e-7 0.00000769851432169677
          0.00001515890117231855 0.000015486236617623383 0.0000076213040615114025 0.000011356954057295532 0.000010550485150084832 0.000012159488005480945
          0.000014586849350156639 0.000011567575980975242 0.000011045447553537091 0.000007944505336421326 0.00001043099325917507 0.000013886095413306876
          0.000011359214664885542 0.000005304958091256751 0.00002038856136254985 0.000014117880015596107 0.000003810116648850226 0.000007369165772375119
          0.000012055302942459711 0.000011291356988074597 0.000015097328724733572 0.000005314475163470389 0.000015651291140006407 0.0000031404931635226063
          0.000009528739285696863 0.00001395976200702087 0.000007868176905456714 0.00002872857957314512 0.000031013042484540065 0.000039507633975421896
          0.00004503799750388282 0.00002456853190224706 0.000029615120055614952 0.000009105816257903854 1.66093705566972e-7 0.0000073696122123712016
          0.000008146439869016753 0.000004564829897191203 0.0000064459753096324235 0.000022611773546898917 0.00003230694902389697 0.00002513906973233837
          0.00002021803680751777 0.000005759951690442744 0.000010493676135925334 0.000021363204295299365 0.000027343336016449893 0.000017623680026723765
          0.000010180130231851603 0.000006298242853364222 0.000009027366920544289 0.000011170846305530446 0.00000461829547315773 0.000009068083766106128
          0.000004523832257463667 4.037112731891668e-7 0.000002890491788587468 0.000008141796971949944 0.00000461075999413918 0.000005578209221979158
          0.000016281806563100965 0.00001846686647344331 0.000012955316164631192 0.000007584609496014139 0.000005334116103150599 0.0000075594087547425914
          0.000019270770608148524 0.00002818427165174331 0.00001744499838807201 0.000007457156161572165 0.000005602947339033992 0.00000716298924252623
          0.000007146227218646217 0.0000025617768959484977 0.000005474926463189256 0.000015328443610296283 0.000009766766575047825 0.000011713101088384192
          0.000005252576519620966 0.0000018931513213749085 0.00000563873083869737 0.000009222192751900948 0.0000020122283699297583 0.0000057717456375394605
          0.000010874427297413725 0.000002024026519276134 0.000005584282081416703 0.000016859656136680723 0.000011782495572765228 0.000012994982878655748
          0.000021991028448686833 0.000006025493513361901 0.000011308785844876823 0.00000850550389508431 0.000007184653573855115 5.348931813031754e-7
          6.206154143928444e-7 0.000003584597551453683 0.0000026414040368294422 0.000011065314823865968 0.0000038432121137743636 0.000005988717146299116
          0.000011852050040617179 0.000007500012579653159 0.000003003473056817363 0.000002350579836885025 0.000005627729620316657 0.0000028691672455671835
          0.000016546112374671296 0.00000634470421168043 0.0000061518797789261725 0.000009596355286856095 0.0000064806285474672265 0.000007319681921358345
          0.000011045804310771956 0.0000035567700475969133 0.000006279875754855446 0.000014606221150792464 0.000013356027971811457 0.000017687299640911647
          0.00001686703199776929 0.000011004091372779357 0.000011711280876625096 0.0000117898531490912 0.00002939888794983858 9.782943187763848e-7
          0.000025542185174032284 0.000042874799496051 0.000006576474521957643 0.00002867463157052441 0.000022976112801331716 0.000011471245448479994
          0.000017006499764105065 0.00003010419235494055 0.000014064723487416941 0.00002546403236491912 0.00002535784945734143 0.00001779120764366926
          0.00000954132790242923 0.000004668264530716115 0.000020352337732010284 0.000009837864455297662 0.000014834781668415786 0.000007642571768662343
          0.00000398923393540862 0.000019775948980282898 0.000014992087952636624 0.000017045586675035196 0.0000220506747554694 0.00001606471863357939
          0.00002892732127190989 0.00002973990518850833 0.00004417912241860833 0.000037381460015861734 0.000027036511500710958 0.000023697615674556083
          0.0000049115140171585026 0.000029800131653434647 0.00001685734438461317 0.000038753906133504046 0.000022228225847853444 0.000025073498658434445
          0.000028895723664268402 0.000040843934518530745 0.000028210529818273322 0.00001275318343940679 0.000012312896585431332 0.000013753312177677834
          0.000015384946606911143 0.000013550091920333518 0.000020456152685199847 0.000024367188203200385 0.00003313076998145981 0.00002630881911847016
          0.000023743773747586516 0.00000979434840653326 0.00003976922053650078 0.000019116113177286564 0.00002399769583327771 0.0000209059953399926
          0.000022293270599771375 0.00002764350479189659 0.000016161667757197407 0.000021912115810707178 0.00002908044878235927 0.000017083796298722476
          0.000013855718158928276 0.00001792018612856161 0.000015262804238025396
        </DataArray>
        <DataArray type="Float64" Name="resid_y" format="ascii" RangeMin="-0.00003789136991791354" RangeMax="0.0000063217735611644475">
          -0.000012581538166047974 -0.000015908892367510856 -0.000008367579654181868 -0.000003657746889852709 -0.000013418490134746441 -0.0000124458739467221
          4.873345273333218e-9 -0.000005671087235819758 -0.000009308541340456375 -0.000012227887285729336 -0.000030931204180561014 -0.000018630267384870704
          -0.000011141255766207794 -0.00002901225948907793 -0.000019219664822142657 -0.000012497340955746478 -0.000029495119546293913 -0.000020226978528419676
          -0.000012097002971587362 -0.000027372186213361904 -0.000018638951996417102 -0.000009901166811984025 -0.000019797289393976014 -0.000014825480053139162
          -1.0300376859003618e-7 -0.0000016747312923774682 -0.000006884648350882067 -8.634927985823587e-8 -0.0000016470128879233874 -0.000006831906254117434
          -4.51656032069217e-7 -0.000002887377058270052 -0.000003878676743628712 -9.546591353982309e-7 -0.0000020267813126834122 -0.000005729294860094131
          -0.0000017864098391454086 -6.044109091499911e-7 -0.000005882303767858546 -0.0000017142480696358958 -3.1592028006469097e-7 -0.000005200817259255405
          -0.000003881462205790852 -0.000001794553470052182 -0.000005236210734417806 -0.0000080911647049502 -0.00000601008348758824 -0.00000853343048548387
          -0.000004747176656335651 -0.000001968913038200796 -0.000007088531768654864 -0.000012097074113908562 -0.00002521900644160413 -0.000015243851828061067
          -0.000008939851692304698 -0.00001088453310460133 -0.000011109620663160222 -0.000008430681411260993 -0.000008500605713496548 -0.000010802534191396707
          -0.000009306183246272047 -0.000006782449674326736 -0.000010323624807788423 -0.000008728094435903923 -0.000005428268134191096 -0.000009516214880699383
          -0.00000754768647553538 -0.0000030486273125639434 -0.000008356355888761765 -0.000007043266546817692 -0.0000021965689367927418 -0.000007714462180613904
          -0.000005184818279501974 -8.060195131908733e-7 -0.00000797704603149518 -0.000006199750684349886 -0.000009863017499729676 -0.00000804373035638399
          -0.000006324470056735115 -0.0000033290167476690558 -0.00000676275251261689 -0.000007105096151843737 -0.0000013173775460333104 -0.000007096447664840799
          -0.000006940576878977298 -5.408476125472531e-7 -0.000006920658663700941 -0.000006995894803642514 -4.2333237516519774e-7 -0.000007055454402719614
          -0.000006813510282489702 -1.452207823887967e-7 -0.000006989307456833752 -0.000006933863280259326 -9.776021597481584e-7 -0.000007326950232416614
          -0.000005419049926361219 -5.006069055471518e-7 -0.000006592040828347356 -0.000009958436357697387 -0.000010957565947482262 -0.00001045370641154092
          -0.000006263241909058165 -0.000003454068883303532 -0.000007329851829166595 -0.000006297231493897996 -8.099422100656638e-7 -0.000006640651685037129
          -0.000006471795382657387 -6.402755908145943e-8 -0.000006403903558361798 -0.000006618657566710186 2.6527913323274796e-7 -0.000006653722437335342
          -0.00000671671029020245 2.705003978309417e-7 -0.0000068693353091637405 -0.000007011607399529454 -9.693752074909148e-7 -0.000007536244212012419
          -0.0000057854861854750306 -0.0000014593813216392908 -0.00000750855914768804 -0.0000068386890016286506 -0.000008690998970967145 -0.00000822770936027839
          -0.00000466487161736133 -2.4419854598915856e-7 -0.000005569731663773595 -0.000005551194218194819 0.0000011314223671192794 -0.00000570535330243413
          -0.000005672310810490161 0.0000011242348523857193 -0.000005590971118248078 -0.0000061638769502754195 9.047864118552629e-7 -0.0000063560660223463405
          -0.000006533834686902468 6.721387772268619e-7 -0.000006911697036036599 -0.0000069391911733723485 -5.010640228711796e-7 -0.000007501959670715326
          -0.000005892376282432693 -8.486727458654336e-7 -0.000007582475201670449 -0.00000468283978640599 -0.0000011946395633705142 -0.000005572813387186293
          -0.000003276598363098626 0.00000265976825242209 -0.000004204495225486327 -0.000003817207669660691 0.0000032809293065982903 -0.00000496201753330712
          -0.000005232096058654934 0.0000012230270065166637 -0.000004972361168656403 -0.000005735650481474008 8.523329619106179e-7 -0.000005915904277120632
          -0.0000061908173766599475 6.744966398420857e-7 -0.000006751012593260788 -0.000006686123868915664 -3.492743857105157e-7 -0.000007624029577751185
          -0.0000063055183314101974 -0.0000011117459847130584 -0.000008475087393373763 -0.000003545350506489048 -0.000003377921747954593 5.322814111085282e-7
          7.012864657166863e-7 -0.000002886099476573367 -0.000005706357352952204 -7.930166629065323e-7 2.6958825022132746e-7 -0.000009955421103215525
          -0.000013179553877827599 -0.000005689825837374308 -0.000004008732469439925 -0.0000020480434914163514 0.0000013156342965156987 0.0000028261925022268763
          -0.000002367725083899687 -7.581990578361952e-7 0.0000027984802015090186 0.000005084703391902701 -0.000002358002267003039 -0.0000070513345537051575
          -0.0000030949633835078774 -0.0000013123890645547198 -0.000008390173942524493 -0.00000629547192042626 0.0000011455408588049304 -0.000006742415662536194
          0.0000036073236922024715 -0.000009221233674285012 -0.0000026109260472650248 -0.000003974216345399399 -0.000008115972086653739 3.90182102608886e-7
          -0.000009641457304209594 -0.000003855773654424903 -0.000011581253611529438 -0.000009565281656081278 -1.5785234948990316e-7 -0.000014396892482472978
          5.766499308658695e-7 -0.00001701648159918275 -0.000004125056241856338 -0.000004429429511176863 -0.000005064053475799246 -0.000005524874811230207
          -0.00000802685513223711 -0.000006508052385112428 -0.000005343045881470165 -0.000007314735583816858 -0.000007025400309096169 -0.0000067119089861659704
          -0.000005865680481532151 -0.000005510893513762131 -0.00000587766019624164 -0.000009723914245062144 -0.000008569085395826632 -0.000012557594704316888
          -0.000006389968240791996 -0.000002618160671949074 -0.000001908452426634469 -0.000006934199960196511 -0.000005244156716134596 -0.000004071858359165018
          -0.000006403573147135966 -0.0000043656526539782685 -0.000004517561820402589 -0.000002302806045588815 -0.000004102712511391653 -0.0000034499004127267873
          -0.000007708573026959584 -0.000004855783642804517 -0.000003627440712958719 -0.000005046631866530106 -2.337749976490458e-7 -0.000004921444257517237
          -0.000002643414891721329 -0.000015698004531689014 -0.00001468068289418368 -0.0000033967254834976236 -0.0000029436535443072565 1.641081723881277e-7
          8.073191256072546e-7 -0.000003912140122032479 -0.000005007592416192072 -0.000003124362202689898 -0.0000025851647482144635 -0.00001003073992303415
          -0.000009567345054216359 -0.000009231677005143088 -0.000010383744852069006 -0.000008107536154535518 -0.000011933433232291617 -0.000011353995011711884
          -0.0000048965864884974175 -0.000010134327847700561 -0.000002283730296236304 -0.000005329348153925058 -0.00001281531386767426 -0.000010964424332058666
          -3.828762433879043e-8 2.435296110178328e-7 4.6233472358967603e-7 7.867124827013253e-7 -6.30602799422085e-7 -0.000002073719950358016
          -0.000001322809848738199 -0.000005374509855962835 -0.00000873726260166392 -0.000005137050402264504 -0.0000073145107061496975 -0.000013333078932150667
          -0.000006719980848497124 -0.000005815376467618362 -0.0000035714536434730028 -0.0000035908069916929636 -0.000007398248173503923 -0.000006886431116221608
          -0.000009197793957479907 -0.000004967420092129304 -0.000006953164700256552 -0.000001522969224899886 -0.000013243114567838311 -0.000009499089278169979
          -6.489266925976695e-7 7.540178088797506e-7 -0.000006311936092799793 -0.0000025807789168993695 -0.0000023270768391911445 -0.000008689781426441875
          -0.000010908862788847106 -0.0000165992157424898 -0.00000978437713618132 7.962917433854827e-8 7.249399828195696e-7 0.000001504824084664052
          0.0000017073303554384148 -0.0000024766211676246694 -0.0000022974639952316224 -0.0000013731995806187842 -0.000006297686165412843 -0.000013041621035261505
          -0.000011952864319932002 -0.000016143373393374526 -0.00001814553694635219 -0.0000030981195418026616 2.872359057279686e-7 -0.00000261492398832895
          -0.000005033711107793951 -2.592569770289155e-7 -0.000003883726499830445 -0.000006875399219672881 -0.000006666067232218714 -0.000009809630726731423
          -0.000010053653535761417 -0.000009690771052699686 -0.000008322240465160648 -5.321884392122875e-7 -0.00002285021935940091 -0.000020332498967096015
          -0.000017537486084816256 -2.2352330820984978e-7 -0.000021050860842095412 -0.000015258908717747516 -0.000016814581614160024 -0.000005833317690620565
          -0.0000056794289880583715 -0.0000037494925260563375 -0.000005031727732723867 2.1038376584511104e-7 -0.00000614305191256638 -0.0000041655563683684615
          9.547086861393453e-8 -0.0000035060116908448152 -0.00001106395565937451 8.4728163735775e-7 -0.0000013492908643485471 -0.000005746269036328855
          -0.000012814725967716812 8.248608169550073e-7 -0.00001074756140176424 -0.00001385859119090076 -0.000019898984504868 -0.000010981442204998932
          -0.0000036282329814440193 -0.0000041471186417183295 -0.0000017129319613915905 -6.212748200921589e-7 -3.0028760979097097e-7 -7.855189516603987e-7
          -0.000010014284601798321 -0.000004982461638385234 -0.0000029169445984152716 -0.000003963346490053719 -0.0000015323751113962072 -0.00000294158450404175
          -0.00000359053810638707 -0.00001321641749410388 -0.000014757491004383644 3.0921681096716946e-8 -0.000007513584363687221 -0.0000012165567685451777
          0.0000017638899988309297 -0.0000014460139914317105 -0.00001101461268792508 -0.000006242613816396635 -0.0000013893918823078234 -0.000012101617531512943
          -0.000020067383592505114 -0.000016391763060564536 -0.00001589167011153606 -0.0000012799801634211022 -7.700433039028434e-7 -0.0000075612051229665225
          -0.000007588588690427673 -0.000010987044369559576 -0.000011963572414361577 -0.000003106943285826301 -0.0000059291377593017995 -1.0127258607758871e-7
          -6.03615988972999e-7 -0.0000074617528948335565 -0.0000061493994776809675 -0.000007112316408861875 -0.000002738864579110087 -0.00000740924785715049
          -0.0000023439454817229984 -0.000009891586356938417 -0.000008569083902757943 1.0947548968222309e-7 0.000001012323723005755 0.0000016550692924291455
          0.0000017267513366531206 -0.00000160623783868356 -9.544489385101239e-7 -0.000003460817795689075 -0.000004346468528174281 -0.000010950825359097062
          -0.000011634734388369511 -0.000014763787330406702 -0.00001619082367933266 -0.000014082485013082978 -0.000010487225423566095 -0.000015365871558640186
          -0.0000032420721588904966 -0.000004718278796490144 -0.00000900847302706502 -0.0000017565177548211144 -0.000003897049162768142 0.0000047099984922501295
          -0.0000010185613869059112 -9.034319634702165e-7 -0.0000051196820045687486 -0.000004101459909654041 -0.00000818085518794389 -0.00000353279455021175
          -0.000009490397254521832 -0.000008620530672037545 -0.000012443610272130576 -0.000008283552151868052 -0.000008840526222361235 -0.000003276740433673115
          -0.000004938773575957969 -0.000008964593057721507 -0.00000766270306093485 -0.00001306578103298095 -0.000007013883128039605 -0.000011860313061572147
          -0.000007589302286264282 -0.000007906228958470905 -0.000003395919708286746 -0.0000046595044167004225 -0.000010925144887792906 -0.000010603349322821625
          -0.000009729203423809903 1.431934609601171e-7 9.887660959672067e-7 -0.0000013909381563351544 -0.000008894326798613954 -8.748187454723447e-7
          -8.329733038969864e-7 -0.000007464006069448758 -0.00001647512162005274 -0.00001119013302867478 -0.000013579290781187648 -0.000018040295617758988
          -0.000012798641777739522 -0.0000068998418285507596 -0.000010109284715930636 -0.00000495569472572753 -0.00001355167009542955 -0.000009840836923277752
          -0.000006780607162472818 -0.00000618880270955623 -0.000012624087932921015 -0.000004548036409052854 -0.0000024913539789627598 -0.00000969529169685552
          -0.00000664798970293097 -0.000011292898165879764 -0.000009931561956904916 -0.000013445176264575802 -0.000007179823314578792 -0.0000030556113710684257
          -0.000007210758883141773 -0.000003825581887710811 -0.0000011453000675534092 -0.000010221827730486077 -0.00000956367997089402 -0.000004889409578550871
          -0.000005218121406347191 -5.050773091196462e-7 -0.00000993008188264824 -0.000010591654100413489 -0.000007256831000717863 -0.00000893830247329988
          -0.000008111293674450525 -0.000002237589286837628 -0.000007201387177129849 7.955270478606988e-9 -0.000008269745595201015 -0.000004704456263472981
          -0.0000105243924077166 -0.000007448269113084424 -0.000007400533305585311 -0.000001215533712323625 -0.000010616118655636282 -0.000007527547505319521
          -0.000008837987186013961 -0.0000020183813809715153 -0.00002125186882220284 -0.0000025538279267312697 -0.0000030072571638203698 -0.000004029242526111185
          8.952843869431369e-7 -0.000004333963539002953 -0.0000020632679916111722 -0.000024053235352828814 -0.00003789136991791354 -0.000020818740558669648
          -0.000008756810802170584 -0.000007065474532678886 0.00000281408507220738 -0.000006114084949293032 -0.000021635723705359846 -0.00001602663801038469
          0.0000063217735611644475 -0.00001451403439110691 -0.000012037728079580031 -0.000010008226944556182 3.724367625360797e-7 -0.000013233599675088314
          -0.000012731897188753341 -0.000007439572482461075 -0.000009288602137373663 -0.000006801992375711843 -0.00001244005377694932 -0.0000037777911870212275
          -0.000007600280093487 -0.000011603555909460612 -0.00001286028149893436 -0.000013309758975730765 -0.000006376712234712825 -0.000007802112329424737
          -0.000004938629773607083 -0.00000622326985696281 -0.000001802653931353912 -0.0000030261519679570387 -0.000005401823431208132 -0.0000082749143919085
          -0.000005023182478287088 -0.000011770732504804565 -0.000010979830765986322 -0.000011433305828127292 -0.00000854936534545631 -0.000004653523504889555
          -0.0000072654064726129254 -0.0000046638442215893566 -0.000006063822582272262 -0.000009237746007014972 -0.00001013173603780517 -0.000006783624323639857
          -0.000011758361382555342 -0.000005782009206478644 -0.000007157886995738183 -0.000002216636490891006 -0.000009031584996565135 -0.000007696845641711782
          -0.00001150816505115235 -0.000012258191801596758 -0.000006131723132194247 -0.00000416317703405512 -0.000012410337513410908 -0.000010628984106819412
          -0.0000055481532026877 -0.000004509390946269044 -0.00000239270533110552 -0.000004333735219810841 -0.00001536192084782527 -0.00001256542535482165
          -0.000011610806021219392 -0.000010843681177416086 -0.000004544874184853401 -0.00000561191942212956 -0.000008868218168193564 -0.000005782383127236716
          -0.00001834279928804498 -0.000023331483734694957 -0.00001816480565605181 -0.00001903317970967434 -0.000008854860420904752 -0.000015190681118399307
          -0.000023192678559642507 -0.00003226884467740464 -0.000019353035929557238 -0.000010586761484671255 -0.000008883193565118255 -0.000009461234477342161
          -0.000010796286058433868 -0.0000028009134056552164 -0.000010925203068428996 -0.000005629453382517344 -4.6440875700647435e-7 -0.0000055883863955979735
          -0.000004695401579663926 -0.00001600142320228276 6.949250090725707e-7 -0.000016694477218802926 -0.000009106737445860281 -0.00001984792649567372
          -0.000009493290175669692 -0.0000037367149541521483 -0.000013962347750184727 4.383428342902111e-7 -0.000010152926130981184 -0.000005819676213989107
          -0.00000940925156353795 -0.0000013261330502824416 -0.000013553318091542171 -0.00001506197023464829 -0.0000049868068265621675 -0.000010313111492776241
          -0.000006911895650697775 -0.000002161558616545038 -0.000009090799619650668 -0.0000032780597092382097 -0.0000038183360514297895 -0.000007197212423200577
          -0.000009938437210603793 -0.000009069468909113365 -0.000010804643085622623 -0.000013093340646539667 -0.000009428700666233927 -0.000017074068065626655
          -0.000012321972238237 -0.000012868795879494768 -0.000013696104898027438 -0.000006085914377659818 0.0000011192628381123323 -0.000005114803292903623
          -0.000011745696732027395 -0.000005920984491101296 -0.000006675138912644123 -0.00001391631712119464 -0.000021076130322879522 -0.000015189485429253089
          -0.000013201580096116987 -0.000003873258584836427 -0.000007743625450567365 -0.000018112504181199427 -0.00002259072300624023 -0.00001370342701423311
          -0.00000872047828239745 -0.0000036218849945660048 -0.000008397896987542668 -0.000014603035133970137 -0.0000019660728405898435 -0.00001063485761309494
          -0.000008687801774768383 -0.000014172490775898883 -0.000008944803766508524 -0.0000038646517505139255 -0.0000024038997326874395 -0.0000051879364257280056
          -0.000013049146484171367 -0.00001437782442827596 -0.000009893402633282151 -0.000005309012806879038 -0.0000037551144538268758 -0.0000067638988324484825
          -0.000014408004196168195 -0.00002064789908669349 -0.000013158649474099594 -0.000006975119361776749 -0.000003144336589107344 -0.000006049235000757727
          -0.000011142845212375359 -0.000002915328085299415 -0.000008909293527081634 -0.00001563643950545533 -0.0000075830494370497485 -0.000010562320448449444
          -0.00001100805304973286 -0.0000026582245166422575 -0.000009717149705430576 -0.000013129567007998458 -0.000006143243355552844 -0.000012105618564844413
          -0.00001795121412186823 -0.0000066674524629990566 -0.000011204242217369327 -0.000016559102659055493 -0.000010812048810347492 -0.00001098969049576526
          -0.000017405284790268476 -0.000006211634329497673 -0.000010580022850108575 -0.000004926456179763492 -0.000008024951814537156 -1.9980754799157376e-7
          -0.000002932462360770525 -0.0000033277885934673455 -0.000004491618076378511 -0.000011493608565181328 -0.000005239400925876464 -0.000005789522651185319
          -0.000011257140196409363 -0.00000514742623253326 -2.9327227549138385e-7 -5.178851308882976e-7 -0.0000048030969929677494 -0.0000018733296428829777
          -0.000017765332880256986 -0.000010627565311801743 -0.000011103252483041031 -0.000014874760492093568 -0.000009844304073355751 -0.000009626640876501897
          -0.000017892027581778696 -0.000012489608166218417 -0.000016808182524041555 -0.000012728649719374267 -0.000004797614087731798 -0.000009847244599308583
          -0.0000033729693699733644 -0.000006869987685616079 -0.000005804269971646046 -0.000009570381586011464 -0.000017659968833824962 -0.000004835987610313751
          -0.000021696281531915704 -0.0000265922805107021 -0.000011386930906687187 -0.000018820407697728997 -0.000015533120365588023 -0.000009582381598004664
          -0.000012928182161474431 -0.000023544363831246723 -0.000014677080157886671 -0.00001581837653375764 -0.000023358992329161783 -0.00001592602174967702
          -0.000002963847707550347 -8.656094470080501e-7 -0.000006447705821716098 -0.0000030174790542772194 -0.000007059440231485395 -0.0000058221682952940956
          -2.940112441220284e-7 -0.000005327109778588196 -0.000002309839689159602 0.0000035168893232065054 -0.000008730365870541525 -0.000004448590382184325
          -0.00001700986366581954 -0.000015633573882944344 -0.000032450362614721076 -0.000022836482194150964 -0.000021453478461346334 -0.000009731335668553952
          -0.0000051820914839040624 -0.000016227262787713633 -0.00001120667056149667 -0.000015578598088030957 -0.000009662117061066261 -0.00000899725321561835
          -0.000018318411987806307 -0.000022563225010161295 -0.000013957169915243973 -0.000014824259587572445 -0.000016460832402355637 -0.00001705316859993821
          -0.00002308202259605069 -0.000012543818209549001 -0.000016962793140149618 -0.000016624352282294287 -0.00002905074447785011 -0.000020691284272683283
          -0.000023612243297156405 -0.0000031384769458731726 -0.000034348321314185346 -0.00000949892167465341 -0.00001697973612183913 -0.000010905907346607426
          -0.000011748678717463969 -0.000018660401385834496 -0.000012781988472248401 0.000002576563305519211 0.000005571498296234358 -6.018912432517558e-7
          -0.000012442771236139284 -0.000015730266355660875 -0.000012110722459293417
        </DataArray>
        <DataArray type="Float64" Name="resid_z" format="ascii" RangeMin="0" RangeMax="0">
          0 0 0 0 0 0
          0 0 0 0 0 0
          0 0 0 0 0 0
          0 0 0 0 0 0
          0 0 0 0 0 0
          0 0 0 0 0 0
          0 0 0 0 0 0
          0 0 0 0 0 0
          0 0 0 0 0 0
          0 0 0 0 0 0
          0 0 0 0 0 0
          0 0 0 0 0 0
          0 0 0 0 0 0
          0 0 0 0 0 0
          0 0 0 0 0 0
          0 0 0 0 0 0
          0 0 0 0 0 0
          0 0 0 0 0 0
          0 0 0 0 0 0
          0 0 0 0 0 0
          0 0 0 0 0 0
          0 0 0 0 0 0
          0 0 0 0 0 0
          0 0 0 0 0 0
          0 0 0 0 0 0
          0 0 0 0 0 0
          0 0 0 0 0 0
          0 0 0 0 0 0
          0 0 0 0 0 0
          0 0 0 0 0 0
          0 0 0 0 0 0
          0 0 0 0 0 0
          0 0 0 0 0 0
          0 0 0 0 0 0
          0 0 0 0 0 0
          0 0 0 0 0 0
          0 0 0 0 0 0
          0 0 0 0 0 0
          0 0 0 0 0 0
          0 0 0 0 0 0
          0 0 0 0 0 0
          0 0 0 0 0 0
          0 0 0 0 0 0
          0 0 0 0 0 0
          0 0 0 0 0 0
          0 0 0 0 0 0
          0 0 0 0 0 0
          0 0 0 0 0 0
          0 0 0 0 0 0
          0 0 0 0 0 0
          0 0 0 0 0 0
          0 0 0 0 0 0
          0 0 0 0 0 0
          0 0 0 0 0 0
          0 0 0 0 0 0
          0 0 0 0 0 0
          0 0 0 0 0 0
          0 0 0 0 0 0
          0 0 0 0 0 0
          0 0 0 0 0 0
          0 0 0 0 0 0
          0 0 0 0 0 0
          0 0 0 0 0 0
          0 0 0 0 0 0
          0 0 0 0 0 0
          0 0 0 0 0 0
          0 0 0 0 0 0
          0 0 0 0 0 0
          0 0 0 0 0 0
          0 0 0 0 0 0
          0 0 0 0 0 0
          0 0 0 0 0 0
          0 0 0 0 0 0
          0 0 0 0 0 0
          0 0 0 0 0 0
          0 0 0 0 0 0
          0 0 0 0 0 0
          0 0 0 0 0 0
          0 0 0 0 0 0
          0 0 0 0 0 0
          0 0 0 0 0 0
          0 0 0 0 0 0
          0 0 0 0 0 0
          0 0 0 0 0 0
          0 0 0 0 0 0
          0 0 0 0 0 0
          0 0 0 0 0 0
          0 0 0 0 0 0
          0 0 0 0 0 0
          0 0 0 0 0 0
          0 0 0 0 0 0
          0 0 0 0 0 0
          0 0 0 0 0 0
          0 0 0 0 0 0
          0 0 0 0 0 0
          0 0 0 0 0 0
          0 0 0 0 0 0
          0 0 0 0 0 0
          0 0 0 0 0 0
          0 0 0 0 0 0
          0 0 0 0 0 0
          0 0 0 0 0 0
          0 0 0 0 0 0
          0 0 0 0 0 0
          0 0 0 0 0 0
          0 0 0 0 0 0
          0 0 0 0 0 0
          0 0 0 0 0 0
          0 0 0 0 0 0
          0 0 0 0 0 0
          0 0 0 0 0 0
          0 0 0 0 0 0
          0 0 0 0 0 0
          0 0 0 0 0 0
          0 0 0 0 0 0
          0 0 0 0 0 0
          0 0 0 0 0 0
          0 0 0 0 0 0
          0 0 0 0 0 0
          0 0 0 0 0 0
          0 0 0 0 0 0
          0 0 0 0 0 0
          0 0 0 0 0 0
          0 0 0 0 0 0
          0 0 0 0 0 0
          0 0 0 0 0 0
          0 0 0 0 0 0
          0 0 0 0 0 0
          0 0 0 0 0 0
          0 0 0 0 0 0
          0 0 0
        </DataArray>
        <DataArray type="Float64" Name="stress_zz" format="ascii" RangeMin="-74075.53865869" RangeMax="139501.64470121913">
          -1965.702204145269 -2061.4753189086737 -2157.248433672078 -2147.197867833175 -2129.895857405191 -2112.5938469772063
          -3203.723632096251 -3309.899252951574 -3416.074873806897 9487.66548787349 9357.645513939693 9227.625540005898
          5434.0621364106055 5494.7551157358885 5555.448095061172 1912.730951741553 1911.0632629186568 1909.3955740957606
          -491.4190592955403 -544.5798061513112 -597.7405530070823 -1741.4617139268496 -1684.1030917941732 -1626.7444696614966
          -3687.585101359228 -3675.4986709338114 -3663.4122405083945 -4429.861567082737 -4625.081430277606 -4820.301293472477
          10568.90857062794 10398.769172997316 10228.629775366695 3717.7424731609126 3809.8120990288626 3901.8817248968116
          -759.1716638045227 -756.9206121487866 -754.6695604930503 -3027.6491188560644 -3074.5137627891227 -3121.378406722181
          -3636.5503630943467 -3584.260986559182 -3531.971610024017 -5435.5970258036095 -5429.706626816507 -5423.816227829406
          -5400.225919212905 -5548.045258961132 -5695.864598709359 21913.874529782723 22474.157562217806 23034.440594652893
          8280.743161089202 7968.371287155982 7655.999413222764 -1240.5529027199814 -1159.7468425016432 -1078.9407822833057
          -5408.815905582163 -5450.067128718172 -5491.318351854181 -6424.84044618068 -6470.262019076725 -6515.683591972771
          -5743.448428538701 -5758.697638908891 -5773.946849279082 -5411.444543764046 -5376.095450989535 -5340.746358215023
          -5368.953243482012 -5436.061878892013 -5503.170514302011 18928.39206081193 19964.977440404633 21001.56281999734
          -2150.660171955835 -2322.585771977644 -2494.511371999452 -10886.61242894335 -10671.819894117974 -10457.027359292599
          -11690.643885618101 -11695.244324646836 -11699.84476367557 -9960.6079917022 -9965.113388809885 -9969.618785917568
          -7331.961377569008 -7376.991080090449 -7422.0207826118885 -4638.968353090686 -4584.372658661441 -4529.776964232196
          -5665.778559044413 -5629.693475278856 -5593.6083915132995 -5929.326455755892 -5598.1329021345955 -5266.939348513301
          -24555.18812930212 -25114.9877734524 -25674.78741760268 -22534.67985462722 -22695.921303612555 -22857.162752597884
          -17549.92770181501 -17764.855314662076 -17979.782927509143 -12173.641364546958 -12223.032549676467 -12272.423734805976
          -7150.757799107177 -7223.922470423208 -7297.08714173924 -3712.4579657421264 -3738.265594502187 -3764.0732232622477
          -2674.5956298886736 -2544.3771980701363 -2414.158766251599 -46427.03514409787 -48925.901355510825 -51424.76756692379
          -38884.938738555575 -39947.08179377173 -41009.224848987884 -27411.35035139371 -27600.638035490556 -27789.9257195874
          -15755.935971343419 -16175.57638206645 -16595.21679278948 -7126.459583788651 -7378.308961412623 -7630.158339036594
          -3599.650477735425 -3632.8731566363804 -3666.095835537337 -476.27739413429026 -497.0724601710431 -517.8675262077958
          -531.4721852886692 -401.57669889635883 -271.6812125040485 -50093.30635933594 -48030.16030235041 -45967.01424536487
          -27938.201313933692 -26815.361100476228 -25692.520887018756 -22835.177998217736 -22543.378309079148 -22251.578619940552
          6732.891281688144 6899.363705795769 7065.836129903394 2676.9750658108674 2537.0639134782186 2397.15276114557
          2678.5233610672717 2744.063099446014 2809.6028378247574 907.2527114176582 896.1298394265592 885.0069674354604
          -15.698170468896535 -63.537909126208916 -111.3776477835213 13096.152302297593 9390.38011595404 12357.968910083822
          17729.37872599514 13458.53074296505 9538.766228565235 12270.463708227666 17842.62372425693 13820.909183632508
          9687.15234117643 12182.958506371506 17955.868722518724 -39265.275998594 44337.07613009696 41646.29887623414
          -17288.971294429077 -40339.05948241423 42815.769641938525 37718.91531674667 -18171.904112243417 -41412.84296623448
          41294.463153780096 33791.53175725921 -19054.836930057754 -10475.35213516577 19357.61990986648 -10293.428830329192
          20161.199721475044 -10111.505525492623 20964.77953308361 17638.01911648941 20728.515016199104 18060.79579217682
          21575.73810363716 18483.572467864236 22422.961191075217 3436.8119574234843 14433.847153947969 3618.219350031317
          14737.765816880115 3799.6267426391496 15041.684479812262 -72337.20489422212 80115.66198189973 -73206.37177645606
          74954.79290453931 -74075.53865869 69793.92382717889 22092.878646347406 11340.107740528665 22255.180835483618
          10838.860611976876 22417.483024619833 10337.613483425082 246.2524240249745 10.09885865805754 -226.05470670885938
          100859.88907408703 97933.4339108656 95006.97874764417 139501.64470121913 137487.5505527514 135473.45640428364
          19360.319904166394 10366.591267219184 14934.594345298592 10626.198626510628 10508.868786430792 10885.805985802072
          18835.096791115502 18648.842051457894 18462.587311800286 14857.455180823856 15045.933450468277 15234.411720112701
          -567.2021288154533 -551.752547846221 -536.3029668769886 -2905.7835350475953 -3828.458211931299 -2317.358053505728
          373.0471596221206 -3112.1950466209496 -3855.44942314794 -2305.3837989005556 334.5635675160963 -3318.606558194304
          -3882.44063436458 -2293.4095442953835 296.07997541007217 183.8968045383183 163.82896159578513 143.76111865325186
          3012.756653143376 2246.597409294516 3126.677223593536 2216.5178638248935 3240.597794043696 2186.438318355272
          -988.5320232275437 -1815.1476396989613 -2792.125409108261 -1291.3313208930122 -994.293080978968 -1880.7144843986455
          -2891.345431342926 -1319.3800759462447 -1000.0541387303922 -1946.2813290983295 -2990.565453577591 -1347.4288309994768
          -4809.258872308478 -8285.596192412815 -4964.347684593584 -8599.804430413196 -5119.436496878689 -8914.012668413576
          626.8144039353831 428.59681557901365 645.5987942118584 467.46580276740866 664.3831844883337 506.3347899558037
          -2654.23155096755 -2843.9597531281556 1759.9003950793583 -2701.641832261269 -3205.6014197127606 2037.4885231873543
          -2749.0521135549884 -3567.2430862973642 2315.0766512953505 -322.70189186994685 -478.44643784880475 444.9618943345685
          -802.1495110153458 -275.79387258923475 -536.3384269538327 458.387731875319 -781.1288876366904 -228.88585330852274
          -594.2304160588607 471.8135694160695 -760.1082642580351 -1812.249219307534 -2523.7403181995155 -1669.33678037055
          -1904.4090479459792 -2610.2972975765815 -1645.6419945163232 -1996.5688765844243 -2696.8542769536475 -1621.9472086620963
          -466.05477927461345 -1641.7158870883623 -726.5094177325393 615.4568054564727 -484.1562224119407 -1744.0428049617703
          -766.3293413483573 635.5473078150494 -502.2576655492679 -1846.3697228351782 -806.1492649641748 655.6378101736259
          -7742.01944275064 -3499.3742833184315 -8163.051205014217 -3621.3494220161806 -8584.082967277793 -3743.324560713929
          234.00359143912237 -205.21983937767718 -99.41822532655112 1225.5140227762342 242.9069465807871 -208.9968820785248
          -123.43802215001733 1220.1007597716512 251.81030172245173 -212.7739247793724 -147.45781897348354 1214.6874967670683
          614.1113710049882 804.1781474685738 4637.918074047523 676.4896127065572 1021.2654624016434 4941.859241523043
          738.8678544081259 1238.3527773347128 5245.800408998563 69.80603131527656 -162.19150639372367 85.7781087184287
          -163.72448350674117 101.75018612158084 -165.25746061975866 785.8195405289478 1004.0859476284762 2167.1149765978935
          829.2723001937356 773.6912024450321 977.151594112968 2200.119457491441 790.9530607512763 761.5628643611165
          950.2172405974597 2233.123938384989 752.6338213088169 -626.7328665124604 -1135.6957665027467 -641.4924107873297
          -1169.832609093289 -656.251955062199 -1203.9694516838313 648.2925983312115 1886.7657275835509 693.9655374552073
          1958.6105244357102 739.6384765792031 2030.4553212878695 -699.9626155619447 -1322.2152893464047 -725.4375523153509
          -1388.611597805716 -750.9124890687573 -1455.0079062650266 -1680.4066883706512 -920.0880420377086 -1626.5438398252759
          -1929.7468229344472 -1663.3014518305044 -895.0619931216638 -1602.7041907536543 -1953.500919694726 -1646.1962152903582
          -870.035944205619 -1578.864541682033 -1977.2550164550048 -800.1896404257393 -768.576393173751 -736.9631459217627
          -1058.3994015943176 -1008.4326119413831 -958.4658222884487 -744.3536592290164 363.43094698334346 -760.9983822326774
          414.6340802787878 -777.6431052363384 465.83721357423195 1088.9600827866545 4169.816377513314 1145.1705331760022
          4479.071406463112 1201.38098356535 4788.32643541291 4304.637805008835 9823.417862180342 4472.2098537565
          10553.750718367348 4639.7819025041645 11284.083574554354 439.1867606495776 545.7334868330274 652.2802130164771
          -1092.2249718049688 862.8182173945437 -1162.1360111649767 859.244644644355 -1232.0470505249846 855.6710718941663
          234.63554316531304 1398.0412500594637 1404.3820911776327 -610.1122349918031 224.19783831725948 1335.7956861962148
          1510.3684783778458 -547.3177799497511 213.76013346920593 1273.5501223329657 1616.3548655780583 -484.52332490769896
          -1853.5098148653292 276.0415822049085 -1862.613874472271 277.3435866711599 -1871.7179340792131 278.64559113741115
          973.9461895351799 -1192.5873971835815 3660.0404091806085 942.4091112081373 -1299.301234883802 3822.4683039457996
          910.872032881095 -1406.0150725840224 3984.8961987109915 -2413.428178665573 -1832.1012348734948 -1158.6368993715173
          -2399.697981780934 -1877.4560561205578 -1119.000084502651 -2385.967784896295 -1922.8108773676208 -1079.3632696337852
          241.57908308083438 250.33949027174634 259.0998974626583 -1370.635808453352 -1355.2862795820106 -1339.936750710669
          -1605.3698599337747 -247.72081066469897 -1677.5514202441736 -301.95605807615664 -1749.7329805545728 -356.1913054876143
          1838.755004372045 1706.701195445381 1944.7514534977317 1628.4324464431088 2050.7479026234187 1550.1636974408366
          395.62748806443096 384.38150833041107 373.13552859639105 861.9014948570083 568.4254020926693 905.22427388386
          574.1164133058268 948.5470529107117 579.8074245189841 -478.7650509076549 -504.9828738496385 -531.2006967916222
          1789.1492565945973 1951.8669624500992 1808.2892246098115 1746.2196410375745 1783.2411701275835 1949.480413062039
          1816.2283523624717 1748.4115101122422 1777.3330836605694 1947.093863673979 1824.1674801151314 1750.60337918691
          2386.5832839247373 2311.7156715075585 2236.8480590903796 -686.0161536614543 -447.2942239595709 -656.6091459721887
          -445.10933155258545 -627.202138282923 -442.92443914559993 929.5138433081536 876.0959053031949 822.6779672982361
          -405.0540736671215 -288.84885014683204 -438.55493741456945 -351.13584393091907 -472.05580116201725 -413.42283771500604
          -762.0297640191804 -774.0598780730447 -786.0899921269091 335.0107904179782 868.6326089190774 1105.19961335814
          316.6533802281719 866.5693008576054 1083.0007509734608 298.29597003836557 864.5059927961335 1060.8018885887816
          1723.6180565358904 2478.057547272392 1722.124063296888 2522.5507164224887 1720.6300700578856 2567.043885572586
          1684.6883867684796 1006.4130417751654 1717.5707655102838 1026.6703185975975 1750.4531442520874 1046.9275954200298
          594.3182301012412 -1835.6750751191569 614.8839334883052 -1895.0545312657148 635.4496368753692 -1954.4339874122725
          1600.9817143582927 3134.962592395857 1659.2381443740753 3233.789725224106 1717.4945743898575 3332.616858052356
          -693.0078392662911 -722.4377814924587 -751.8677237186262 2259.2747934695026 2319.187451879117 2379.100110288732
          -554.148744467291 -561.3678494818473 -568.5869544964037 -4039.150657368691 -4257.589297630127 -4476.027937891562
          -1030.6876934662998 -1096.5171592126972 -1162.3466249590945 26.216839600835783 38.40639212926672 50.5959446576976
          1188.9010170266663 570.3788836946763 1207.6181550635458 580.7496005687887 1226.3352931004256 591.1203174429011
          -1596.9836135511553 -1385.4682668427477 -1700.857706006134 -1472.9359946222603 -1804.7317984611127 -1560.4037224017734
          -753.8939123206418 -799.8426729103574 -845.7914335000729 1295.8198242146882 1353.558654391522 1411.2974845683552
          -22.75333814146483 -9.178536032457657 -92.72204271016648 -30.44970189346574 -8.846268820822473 -49.697510983687216
          -38.146065645466706 -8.514001609187183 -6.672979257207928 -1054.6054584483888 266.90652375581516 -1087.1234847368228
          300.97764261094596 -1119.6415110252567 335.04876146607677 379.70059074737765 398.5959687955083 417.49134684363895
          1710.8869426687706 1750.5879731620323 1790.2890036552942 1250.93505101927 1272.0828510304677 1293.2306510416654
          597.4636140056875 620.180595564553 642.8975771234184 19.1955318825605 29.086775039832503 38.97801819710462
          -3139.1299521423734 -3258.1149735653485 -3377.0999949883235 -779.5920783422184 -766.6532405199065 -753.7144026975946
          -684.8412078336942 -641.629080381867 -598.4169529300398 -1739.377419178686 -1673.233915186929 -1607.0904111951718
          422.825867465249 483.91593617751323 545.0060048897776 -1444.0347743476634 -1422.5800784921007 -1401.125382636538
          299.5809797929576 322.3215454349142 345.06211107687085 487.56004759659254 652.090448418145 816.6208492396977
          379.137773031544 337.6441068968867 296.15044076222927 -1933.4378648471304 -1945.8441262903145 -1958.2503877334984
          -481.5294454860817 -476.44626009467606 -471.3630747032705 -236.62525392105402 -243.01022777553067 -249.39520163000725
          -288.2385807325099 -255.14095099936515 -222.0433212662204 -1332.5919705869944 -1462.6213803460498 -1592.6507901051054
          127.56670979610772 104.39336176635055 81.22001373659327 241.54146926509583 4134.64877753757 277.40325856926853
          4315.850963229428 313.2650478734413 4497.053148921286 -965.6520467083064 -911.6412395312203 -857.6304323541342
          8051.103928903578 8578.045206508741 8237.656894085827 8590.800601196062 8424.209859268078 8603.555995883386
          2667.3256339312866 2793.562214653825 2919.7987953763636 1073.4279128950875 1098.3385120957378 1123.249111296388
          -2334.424742921599 -2373.5137447732127 -2412.602746624826 -1263.0784339850482 -1276.3910723041804 -1248.9397482143518
          -1258.0846820449947 -1234.8010624436554 -1239.7782917858085 279.0365708003193 347.0158424061062 1534.9832662575136
          302.3760039311626 400.91832368792393 1634.0410968301542 325.7154370620057 454.82080496974163 1733.098927402795
          801.5627812986364 800.7879344659054 800.0130876331745 380.5995532561104 389.2140043316098 397.82845540710906
          205.13082894198217 1665.991362365779 200.7103274413163 1681.823808759314 196.28982594065064 1697.656255152849
          516.3397586861403 -505.0169639378552 539.3729343903558 -496.5881841614406 562.4061100945712 -488.159404385026
          763.5604815208852 1201.6452291970547 784.1942843800903 1201.1689133793357 804.8280872392957 1200.692597561617
          767.9888662283108 1345.5870239666963 769.3024760849526 1349.6224607494946 770.6160859415941 1353.6578975322927
          379.20815729973754 410.51125653036274 441.81435576098784 709.7430674445469 480.61230615505895 746.4103028751989
          479.30408724873615 783.077538305851 477.99586834241353 46.43877754593795 58.5751567154115 70.71153588488524
          -147.51615415305156 497.09231156695023 -143.44285140057232 533.6530754057745 -139.36954864809314 570.2138392445988
          425.6938198104989 440.2384761399743 454.7831324694498 1466.3859445976796 1462.5693012169547 1458.75265783623
          309.0036908124066 321.74131044051876 334.4789300686309
        </DataArray>
        <DataArray type="Float64" Name="peeq" format="ascii" RangeMin="0" RangeMax="0">
          0 0 0 0 0 0
          0 0 0 0 0 0
          0 0 0 0 0 0
          0 0 0 0 0 0
          0 0 0 0 0 0
          0 0 0 0 0 0
          0 0 0 0 0 0
          0 0 0 0 0 0
          0 0 0 0 0 0
          0 0 0 0 0 0
          0 0 0 0 0 0
          0 0 0 0 0 0
          0 0 0 0 0 0
          0 0 0 0 0 0
          0 0 0 0 0 0
          0 0 0 0 0 0
          0 0 0 0 0 0
          0 0 0 0 0 0
          0 0 0 0 0 0
          0 0 0 0 0 0
          0 0 0 0 0 0
          0 0 0 0 0 0
          0 0 0 0 0 0
          0 0 0 0 0 0
          0 0 0 0 0 0
          0 0 0 0 0 0
          0 0 0 0 0 0
          0 0 0 0 0 0
          0 0 0 0 0 0
          0 0 0 0 0 0
          0 0 0 0 0 0
          0 0 0 0 0 0
          0 0 0 0 0 0
          0 0 0 0 0 0
          0 0 0 0 0 0
          0 0 0 0 0 0
          0 0 0 0 0 0
          0 0 0 0 0 0
          0 0 0 0 0 0
          0 0 0 0 0 0
          0 0 0 0 0 0
          0 0 0 0 0 0
          0 0 0 0 0 0
          0 0 0 0 0 0
          0 0 0 0 0 0
          0 0 0 0 0 0
          0 0 0 0 0 0
          0 0 0 0 0 0
          0 0 0 0 0 0
          0 0 0 0 0 0
          0 0 0 0 0 0
          0 0 0 0 0 0
          0 0 0 0 0 0
          0 0 0 0 0 0
          0 0 0 0 0 0
          0 0 0 0 0 0
          0 0 0 0 0 0
          0 0 0 0 0 0
          0 0 0 0 0 0
          0 0 0 0 0 0
          0 0 0 0 0 0
          0 0 0 0 0 0
          0 0 0 0 0 0
          0 0 0 0 0 0
          0 0 0 0 0 0
          0 0 0 0 0 0
          0 0 0 0 0 0
          0 0 0 0 0 0
          0 0 0 0 0 0
          0 0 0 0 0 0
          0 0 0 0 0 0
          0 0 0 0 0 0
          0 0 0 0 0 0
          0 0 0 0 0 0
          0 0 0 0 0 0
          0 0 0 0 0 0
          0 0 0 0 0 0
          0 0 0 0 0 0
          0 0 0 0 0 0
          0 0 0 0 0 0
          0 0 0 0 0 0
          0 0 0 0 0 0
          0 0 0 0 0 0
          0 0 0 0 0 0
          0 0 0 0 0 0
          0 0 0 0 0 0
          0 0 0 0 0 0
          0 0 0 0 0 0
          0 0 0 0 0 0
          0 0 0 0 0 0
          0 0 0 0 0 0
          0 0 0 0 0 0
          0 0 0 0 0 0
          0 0 0 0 0 0
          0 0 0 0 0 0
          0 0 0 0 0 0
          0 0 0 0 0 0
          0 0 0 0 0 0
          0 0 0 0 0 0
          0 0 0 0 0 0
          0 0 0 0 0 0
          0 0 0 0 0 0
          0 0 0 0 0 0
          0 0 0 0 0 0
          0 0 0 0 0 0
          0 0 0 0 0 0
          0 0 0 0 0 0
          0 0 0 0 0 0
          0 0 0 0 0 0
          0 0 0 0 0 0
          0 0 0 0 0 0
          0 0 0 0 0 0
          0 0 0 0 0 0
          0 0 0 0 0 0
          0 0 0 0 0 0
          0 0 0 0 0 0
          0 0 0 0 0 0
          0 0 0 0 0 0
          0 0 0 0 0 0
          0 0 0 0 0 0
          0 0 0 0 0 0
          0 0 0 0 0 0
          0 0 0 0 0 0
          0 0 0 0 0 0
          0 0 0 0 0 0
          0 0 0 0 0 0
          0 0 0 0 0 0
          0 0 0 0 0 0
          0 0 0 0 0 0
          0 0 0 0 0 0
          0 0 0
        </DataArray>
        <DataArray type="Float64" Name="pe11" format="ascii" RangeMin="0" RangeMax="0">
          0 0 0 0 0 0
          0 0 0 0 0 0
          0 0 0 0 0 0
          0 0 0 0 0 0
          0 0 0 0 0 0
          0 0 0 0 0 0
          0 0 0 0 0 0
          0 0 0 0 0 0
          0 0 0 0 0 0
          0 0 0 0 0 0
          0 0 0 0 0 0
          0 0 0 0 0 0
          0 0 0 0 0 0
          0 0 0 0 0 0
          0 0 0 0 0 0
          0 0 0 0 0 0
          0 0 0 0 0 0
          0 0 0 0 0 0
          0 0 0 0 0 0
          0 0 0 0 0 0
          0 0 0 0 0 0
          0 0 0 0 0 0
          0 0 0 0 0 0
          0 0 0 0 0 0
          0 0 0 0 0 0
          0 0 0 0 0 0
          0 0 0 0 0 0
          0 0 0 0 0 0
          0 0 0 0 0 0
          0 0 0 0 0 0
          0 0 0 0 0 0
          0 0 0 0 0 0
          0 0 0 0 0 0
          0 0 0 0 0 0
          0 0 0 0 0 0
          0 0 0 0 0 0
          0 0 0 0 0 0
          0 0 0 0 0 0
          0 0 0 0 0 0
          0 0 0 0 0 0
          0 0 0 0 0 0
          0 0 0 0 0 0
          0 0 0 0 0 0
          0 0 0 0 0 0
          0 0 0 0 0 0
          0 0 0 0 0 0
          0 0 0 0 0 0
          0 0 0 0 0 0
          0 0 0 0 0 0
          0 0 0 0 0 0
          0 0 0 0 0 0
          0 0 0 0 0 0
          0 0 0 0 0 0
          0 0 0 0 0 0
          0 0 0 0 0 0
          0 0 0 0 0 0
          0 0 0 0 0 0
          0 0 0 0 0 0
          0 0 0 0 0 0
          0 0 0 0 0 0
          0 0 0 0 0 0
          0 0 0 0 0 0
          0 0 0 0 0 0
          0 0 0 0 0 0
          0 0 0 0 0 0
          0 0 0 0 0 0
          0 0 0 0 0 0
          0 0 0 0 0 0
          0 0 0 0 0 0
          0 0 0 0 0 0
          0 0 0 0 0 0
          0 0 0 0 0 0
          0 0 0 0 0 0
          0 0 0 0 0 0
          0 0 0 0 0 0
          0 0 0 0 0 0
          0 0 0 0 0 0
          0 0 0 0 0 0
          0 0 0 0 0 0
          0 0 0 0 0 0
          0 0 0 0 0 0
          0 0 0 0 0 0
          0 0 0 0 0 0
          0 0 0 0 0 0
          0 0 0 0 0 0
          0 0 0 0 0 0
          0 0 0 0 0 0
          0 0 0 0 0 0
          0 0 0 0 0 0
          0 0 0 0 0 0
          0 0 0 0 0 0
          0 0 0 0 0 0
          0 0 0 0 0 0
          0 0 0 0 0 0
          0 0 0 0 0 0
          0 0 0 0 0 0
          0 0 0 0 0 0
          0 0 0 0 0 0
          0 0 0 0 0 0
          0 0 0 0 0 0
          0 0 0 0 0 0
          0 0 0 0 0 0
          0 0 0 0 0 0
          0 0 0 0 0 0
          0 0 0 0 0 0
          0 0 0 0 0 0
          0 0 0 0 0 0
          0 0 0 0 0 0
          0 0 0 0 0 0
          0 0 0 0 0 0
          0 0 0 0 0 0
          0 0 0 0 0 0
          0 0 0 0 0 0
          0 0 0 0 0 0
          0 0 0 0 0 0
          0 0 0 0 0 0
          0 0 0 0 0 0
          0 0 0 0 0 0
          0 0 0 0 0 0
          0 0 0 0 0 0
          0 0 0 0 0 0
          0 0 0 0 0 0
          0 0 0 0 0 0
          0 0 0 0 0 0
          0 0 0 0 0 0
          0 0 0 0 0 0
          0 0 0 0 0 0
          0 0 0 0 0 0
          0 0 0 0 0 0
          0 0 0 0 0 0
          0 0 0
        </DataArray>
        <DataArray type="Float64" Name="pe22" format="ascii" RangeMin="0" RangeMax="0">
          0 0 0 0 0 0
          0 0 0 0 0 0
          0 0 0 0 0 0
          0 0 0 0 0 0
          0 0 0 0 0 0
          0 0 0 0 0 0
          0 0 0 0 0 0
          0 0 0 0 0 0
          0 0 0 0 0 0
          0 0 0 0 0 0
          0 0 0 0 0 0
          0 0 0 0 0 0
          0 0 0 0 0 0
          0 0 0 0 0 0
          0 0 0 0 0 0
          0 0 0 0 0 0
          0 0 0 0 0 0
          0 0 0 0 0 0
          0 0 0 0 0 0
          0 0 0 0 0 0
          0 0 0 0 0 0
          0 0 0 0 0 0
          0 0 0 0 0 0
          0 0 0 0 0 0
          0 0 0 0 0 0
          0 0 0 0 0 0
          0 0 0 0 0 0
          0 0 0 0 0 0
          0 0 0 0 0 0
          0 0 0 0 0 0
          0 0 0 0 0 0
          0 0 0 0 0 0
          0 0 0 0 0 0
          0 0 0 0 0 0
          0 0 0 0 0 0
          0 0 0 0 0 0
          0 0 0 0 0 0
          0 0 0 0 0 0
          0 0 0 0 0 0
          0 0 0 0 0 0
          0 0 0 0 0 0
          0 0 0 0 0 0
          0 0 0 0 0 0
          0 0 0 0 0 0
          0 0 0 0 0 0
          0 0 0 0 0 0
          0 0 0 0 0 0
          0 0 0 0 0 0
          0 0 0 0 0 0
          0 0 0 0 0 0
          0 0 0 0 0 0
          0 0 0 0 0 0
          0 0 0 0 0 0
          0 0 0 0 0 0
          0 0 0 0 0 0
          0 0 0 0 0 0
          0 0 0 0 0 0
          0 0 0 0 0 0
          0 0 0 0 0 0
          0 0 0 0 0 0
          0 0 0 0 0 0
          0 0 0 0 0 0
          0 0 0 0 0 0
          0 0 0 0 0 0
          0 0 0 0 0 0
          0 0 0 0 0 0
          0 0 0 0 0 0
          0 0 0 0 0 0
          0 0 0 0 0 0
          0 0 0 0 0 0
          0 0 0 0 0 0
          0 0 0 0 0 0
          0 0 0 0 0 0
          0 0 0 0 0 0
          0 0 0 0 0 0
          0 0 0 0 0 0
          0 0 0 0 0 0
          0 0 0 0 0 0
          0 0 0 0 0 0
          0 0 0 0 0 0
          0 0 0 0 0 0
          0 0 0 0 0 0
          0 0 0 0 0 0
          0 0 0 0 0 0
          0 0 0 0 0 0
          0 0 0 0 0 0
          0 0 0 0 0 0
          0 0 0 0 0 0
          0 0 0 0 0 0
          0 0 0 0 0 0
          0 0 0 0 0 0
          0 0 0 0 0 0
          0 0 0 0 0 0
          0 0 0 0 0 0
          0 0 0 0 0 0
          0 0 0 0 0 0
          0 0 0 0 0 0
          0 0 0 0 0 0
          0 0 0 0 0 0
          0 0 0 0 0 0
          0 0 0 0 0 0
          0 0 0 0 0 0
          0 0 0 0 0 0
          0 0 0 0 0 0
          0 0 0 0 0 0
          0 0 0 0 0 0
          0 0 0 0 0 0
          0 0 0 0 0 0
          0 0 0 0 0 0
          0 0 0 0 0 0
          0 0 0 0 0 0
          0 0 0 0 0 0
          0 0 0 0 0 0
          0 0 0 0 0 0
          0 0 0 0 0 0
          0 0 0 0 0 0
          0 0 0 0 0 0
          0 0 0 0 0 0
          0 0 0 0 0 0
          0 0 0 0 0 0
          0 0 0 0 0 0
          0 0 0 0 0 0
          0 0 0 0 0 0
          0 0 0 0 0 0
          0 0 0 0 0 0
          0 0 0 0 0 0
          0 0 0 0 0 0
          0 0 0 0 0 0
          0 0 0 0 0 0
          0 0 0 0 0 0
          0 0 0
        </DataArray>
        <DataArray type="Float64" Name="pe33" format="ascii" RangeMin="0" RangeMax="0">
          0 0 0 0 0 0
          0 0 0 0 0 0
          0 0 0 0 0 0
          0 0 0 0 0 0
          0 0 0 0 0 0
          0 0 0 0 0 0
          0 0 0 0 0 0
          0 0 0 0 0 0
          0 0 0 0 0 0
          0 0 0 0 0 0
          0 0 0 0 0 0
          0 0 0 0 0 0
          0 0 0 0 0 0
          0 0 0 0 0 0
          0 0 0 0 0 0
          0 0 0 0 0 0
          0 0 0 0 0 0
          0 0 0 0 0 0
          0 0 0 0 0 0
          0 0 0 0 0 0
          0 0 0 0 0 0
          0 0 0 0 0 0
          0 0 0 0 0 0
          0 0 0 0 0 0
          0 0 0 0 0 0
          0 0 0 0 0 0
          0 0 0 0 0 0
          0 0 0 0 0 0
          0 0 0 0 0 0
          0 0 0 0 0 0
          0 0 0 0 0 0
          0 0 0 0 0 0
          0 0 0 0 0 0
          0 0 0 0 0 0
          0 0 0 0 0 0
          0 0 0 0 0 0
          0 0 0 0 0 0
          0 0 0 0 0 0
          0 0 0 0 0 0
          0 0 0 0 0 0
          0 0 0 0 0 0
          0 0 0 0 0 0
          0 0 0 0 0 0
          0 0 0 0 0 0
          0 0 0 0 0 0
          0 0 0 0 0 0
          0 0 0 0 0 0
          0 0 0 0 0 0
          0 0 0 0 0 0
          0 0 0 0 0 0
          0 0 0 0 0 0
          0 0 0 0 0 0
          0 0 0 0 0 0
          0 0 0 0 0 0
          0 0 0 0 0 0
          0 0 0 0 0 0
          0 0 0 0 0 0
          0 0 0 0 0 0
          0 0 0 0 0 0
          0 0 0 0 0 0
          0 0 0 0 0 0
          0 0 0 0 0 0
          0 0 0 0 0 0
          0 0 0 0 0 0
          0 0 0 0 0 0
          0 0 0 0 0 0
          0 0 0 0 0 0
          0 0 0 0 0 0
          0 0 0 0 0 0
          0 0 0 0 0 0
          0 0 0 0 0 0
          0 0 0 0 0 0
          0 0 0 0 0 0
          0 0 0 0 0 0
          0 0 0 0 0 0
          0 0 0 0 0 0
          0 0 0 0 0 0
          0 0 0 0 0 0
          0 0 0 0 0 0
          0 0 0 0 0 0
          0 0 0 0 0 0
          0 0 0 0 0 0
          0 0 0 0 0 0
          0 0 0 0 0 0
          0 0 0 0 0 0
          0 0 0 0 0 0
          0 0 0 0 0 0
          0 0 0 0 0 0
          0 0 0 0 0 0
          0 0 0 0 0 0
          0 0 0 0 0 0
          0 0 0 0 0 0
          0 0 0 0 0 0
          0 0 0 0 0 0
          0 0 0 0 0 0
          0 0 0 0 0 0
          0 0 0 0 0 0
          0 0 0 0 0 0
          0 0 0 0 0 0
          0 0 0 0 0 0
          0 0 0 0 0 0
          0 0 0 0 0 0
          0 0 0 0 0 0
          0 0 0 0 0 0
          0 0 0 0 0 0
          0 0 0 0 0 0
          0 0 0 0 0 0
          0 0 0 0 0 0
          0 0 0 0 0 0
          0 0 0 0 0 0
          0 0 0 0 0 0
          0 0 0 0 0 0
          0 0 0 0 0 0
          0 0 0 0 0 0
          0 0 0 0 0 0
          0 0 0 0 0 0
          0 0 0 0 0 0
          0 0 0 0 0 0
          0 0 0 0 0 0
          0 0 0 0 0 0
          0 0 0 0 0 0
          0 0 0 0 0 0
          0 0 0 0 0 0
          0 0 0 0 0 0
          0 0 0 0 0 0
          0 0 0 0 0 0
          0 0 0 0 0 0
          0 0 0 0 0 0
          0 0 0 0 0 0
          0 0 0 0 0 0
          0 0 0
        </DataArray>
        <DataArray type="Float64" Name="disp_x" format="ascii" RangeMin="3.738748968884506e-7" RangeMax="0.0000022005094610801537">
          9.840059758905423e-7 9.84003980109834e-7 9.839978306550724e-7 8.979327238824122e-7 8.979303862396849e-7 8.979239168468559e-7
          9.855399806903735e-7 9.855381796593938e-7 9.85532627222742e-7 4.585741728640604e-7 4.585623973967247e-7 4.5852635544396795e-7
          5.472337013253267e-7 5.472241664193629e-7 5.471957671133116e-7 6.3579036672171e-7 6.357833048139652e-7 6.357621032874192e-7
          7.241111741887713e-7 7.241060239330318e-7 7.240908863844021e-7 8.121412133429985e-7 8.121378031822904e-7 8.12127160291593e-7
          8.998797187423892e-7 8.998777525621139e-7 8.998725308982739e-7 9.873591724617947e-7 9.873576371512771e-7 9.873529295788821e-7
          4.6061019662027944e-7 4.6059586928410674e-7 4.605518553448018e-7 5.496632461579258e-7 5.49652405172055e-7 5.496201964591664e-7
          6.384057383064072e-7 6.383983727560628e-7 6.383761851331485e-7 7.267363835897809e-7 7.267314585940689e-7 7.267169392515948e-7
          8.146515954323164e-7 8.146487400653038e-7 8.146394699595945e-7 9.021982015108008e-7 9.021966957959587e-7 9.021934422002822e-7
          9.894558813333928e-7 9.894548514595755e-7 9.894513984417864e-7 3.739706726463493e-7 3.739455855739533e-7 3.738748968884506e-7
          4.637490176213653e-7 4.637321885350101e-7 4.6368031448773704e-7 5.531246876869794e-7 5.531130669171854e-7 5.530786240480621e-7
          6.418931114681985e-7 6.418860352947928e-7 6.418647937362036e-7 7.300466489558361e-7 7.300425785478101e-7 7.300304851471124e-7
          8.17671516826651e-7 8.176695035134197e-7 8.176633071972389e-7 9.0488107519298e-7 9.048805084177611e-7 9.048790407251022e-7
          9.917848644864287e-7 9.917849343774395e-7 9.91785303487739e-7 3.7813185068934596e-7 3.781007044066506e-7 3.7801303587418923e-7
          4.6849501371891186e-7 4.68476520976314e-7 4.684193276124045e-7 5.579203976379011e-7 5.579092073840463e-7 5.578761607003116e-7
          6.463877438263773e-7 6.463821840159283e-7 6.463653908026355e-7 7.34066724581703e-7 7.340644298715359e-7 7.340575460080721e-7
          8.211641073986138e-7 8.211636025690578e-7 8.211623654009639e-7 9.078600698093072e-7 9.078608077755334e-7 9.078622181984285e-7
          9.942829921897736e-7 9.942844238831941e-7 9.942899454239108e-7 3.849859034855483e-7 3.849500935692465e-7 3.8484907823899633e-7
          4.7542576713595584e-7 4.754079155120732e-7 4.7535245791969937e-7 5.642707269134845e-7 5.642624282823533e-7 5.642379157310473e-7
          6.518972930328693e-7 6.518950894151679e-7 6.518886349268597e-7 7.386998534288401e-7 7.387005268253952e-7 7.387023453417866e-7
          8.249928077986981e-7 8.249946510368965e-7 8.250005471218305e-7 9.109983906220249e-7 9.110007704024237e-7 9.110074761936217e-7
          9.96852058174672e-7 9.968548291919657e-7 9.968631989817792e-7 3.957765458903535e-7 3.9574533893470796e-7 3.9564880663898226e-7
          4.84897190658861e-7 4.848851445404279e-7 4.848464892719325e-7 5.720985810374397e-7 5.720975012392743e-7 5.72093875051367e-7
          6.581785020603928e-7 6.581825598829324e-7 6.581952509502652e-7 7.436476874126973e-7 7.436526768442958e-7 7.436665320798739e-7
          8.288967382431181e-7 8.289016022109278e-7 8.289169386625415e-7 9.140806991911575e-7 9.14085286996101e-7 9.140981304571787e-7
          9.9928431554921e-7 9.992886357822452e-7 9.993020668528129e-7 4.1092724090875146e-7 4.1091588393793316e-7 4.108837796886375e-7
          4.965315271727509e-7 4.965382431580018e-7 4.965536050403216e-7 5.807787740867504e-7 5.807901064543956e-7 5.808259936283693e-7
          6.645270098182343e-7 6.64538849456196e-7 6.645785308021637e-7 7.48407989676117e-7 7.484189015681431e-7 7.484488227474098e-7
          8.324819966771346e-7 8.32490451360003e-7 8.325175169405713e-7 9.168133251989356e-7 9.168206599184193e-7 9.16841406301858e-7
          0.0000010013819118997965 0.0000010013875657784455 0.0000010014053929063356 7.732191106737931e-7 8.489379441716207e-7 8.593856856163449e-7
          7.910525977365856e-7 7.732329239950948e-7 8.489494149440533e-7 8.593977161998933e-7 7.91068536598319e-7 7.73276673637807e-7
          8.4898292109349e-7 8.594332860068343e-7 7.91117049024038e-7 5.536830715004585e-7 5.558758724354037e-7 4.6768433868967993e-7
          4.813559588549996e-7 5.537094243629408e-7 5.559286016529808e-7 4.67764452324798e-7 4.813869673156621e-7 5.537883907841069e-7
          5.560705156603871e-7 4.67990998372259e-7 4.814798672180144e-7 6.275485642604596e-7 6.464044093467717e-7 6.275724046675544e-7
          6.464308435287887e-7 6.276365788827843e-7 6.465179293458114e-7 7.245248450416098e-7 6.961559421327609e-7 7.245456499737428e-7
          6.961734286514234e-7 7.246071369506096e-7 6.962264264718819e-7 9.251830228578235e-7 9.200595606475344e-7 9.251920093251454e-7
          9.200700071341727e-7 9.252214522911862e-7 9.200997988868083e-7 3.988167776959452e-7 4.0750538292334977e-7 3.988448039082163e-7
          4.076032221131036e-7 3.9893161786067614e-7 4.0789864398077653e-7 9.200749622570155e-7 8.371299659811016e-7 9.200855743905784e-7
          8.371436918421751e-7 9.201146954520335e-7 8.371851022171376e-7 0.0000010031709889252058 0.0000010031779875470205 0.0000010031991006251854
          4.460038150106211e-7 4.46121729986237e-7 4.4651612767860165e-7 5.179177769435596e-7 5.179789061518847e-7 5.182264867117333e-7
          5.946762961560831e-7 6.740417649707337e-7 5.947201822068157e-7 6.740702221715946e-7 5.948588073201278e-7 6.741499460674189e-7
          7.549210896677949e-7 7.549399453277954e-7 7.550011169334515e-7 0.000001003751733481754 0.0000010037595890807664 0.0000010037873789164371
          0.0000011522425568892185 0.0000011522414317468976 0.0000011522383411489298 0.0000010780686597360234 0.0000010711061847533945 0.0000011453432856947104
          0.0000011554574596305639 0.0000010780724763669673 0.0000010711088562796968 0.0000011453454641855617 0.0000011554605233711741 0.0000010780848471712979
          0.0000010711173689195507 0.000001145351895873585 0.0000011554672493591154 0.0000012122572669595359 0.000001212256209499833 0.0000012122528242370146
          0.0000011759101113786021 0.000001082718646098445 0.000001175914688137832 0.0000010827233016456337 0.0000011759291859566432 0.0000010827377294770288
          0.0000013237469799330925 0.0000012619963035176536 0.0000012104854592271871 0.0000012471648516386224 0.0000013237464762357682 0.0000012619958750240156
          0.0000012104848044583704 0.0000012471641213255923 0.0000013237449502776654 0.000001261993678988904 0.000001210483109729971 0.0000012471615699609664
          0.0000011333706035620373 0.000001063671125175608 0.0000011333718800088437 0.0000010636726356384213 0.0000011333739142129954 0.0000010636780437761093
          0.0000013094427352103283 0.0000013878208353764097 0.0000013094420558211702 0.0000013878204821155868 0.000001309440157590853 0.0000013878195309823395
          0.0000012871753211239225 0.0000012548780719898152 0.000001233840394446175 0.0000012871784653856546 0.0000012548820955202495 0.0000012338440719201586
          0.000001287187911323847 0.000001254894910695802 0.00000123385522099211 0.0000016795343010797208 0.0000017613523618813262 0.0000017896121542258571
          0.0000017008608271869444 0.0000016795350472960197 0.0000017613531808921798 0.0000017896129070631367 0.0000017008618097762885 0.0000016795375119560859
          0.0000017613554428459508 0.0000017896148874007024 0.0000017008647676422948 0.000001395472677798917 0.0000014081837199642924 0.000001336259406342797
          0.000001395472374716886 0.0000014081836463206417 0.0000013362593092246553 0.000001395471897752623 0.0000014081836048735656 0.0000013362590983343704
          0.0000016141863622271696 0.0000017040777084354975 0.0000017373399228161375 0.000001636470860420001 0.0000016141864168512791 0.0000017040778204213893
          0.0000017373402299182066 0.000001636471092979169 0.0000016141867390785591 0.0000017040780734874462 0.0000017373410355284585 0.0000016364718850318606
          0.0000010597442077227761 0.0000011091717237389955 0.0000010597448424885574 0.0000011091723219546048 0.000001059747025177737 0.0000011091732891777908
          0.0000016332941099807862 0.0000016257473783990286 0.0000017166321551767187 0.0000017226339866579916 0.0000016332955618809219 0.000001625748645416978
          0.0000017166332638743562 0.000001722635166312719 0.0000016332999292187195 0.000001625752597029494 0.0000017166365365359213 0.0000017226383653174355
          0.000001183826946907573 0.0000010786881990263023 0.0000011273677881756035 0.000001183827687251645 0.0000010786879945964505 0.000001127367710581435
          0.0000011838303038243364 0.0000010786871766227223 0.000001127368533215114 0.000001545212393980975 0.0000015403531557361232 0.0000015452140415749353
          0.000001540354594813428 0.0000015452191303174004 0.0000015403588293834297 0.0000017065683022517578 0.000001718180399824431 0.000001804906693770752
          0.0000018029160199697336 0.0000017065698779779082 0.0000017181816828344663 0.000001804907935269982 0.0000018029172806882945 0.0000017065745025889345
          0.0000017181858335825085 0.000001804910792921962 0.0000018029211300173838 0.000001973967108406331 0.000002016466535346882 0.0000019739682105351954
          0.0000020164674197508716 0.0000019739714367198063 0.0000020164695645759924 0.0000017245679118219234 0.000001648749848556903 0.0000017245684696700105
          0.0000016487502419153493 0.0000017245706924588716 0.0000016487510372307806 0.0000014425193973543284 0.0000014786254569827909 0.000001442519175493392
          0.000001478625252910686 0.0000014425184371022265 0.0000014786246095433176 0.000001445916936935956 0.0000013650368879116547 0.0000013579387096035113
          0.0000014571879010807591 0.0000014459179460738042 0.0000013650378804360062 0.0000013579391882366498 0.000001457188527329557 0.000001445921613619792
          0.000001365040106184209 0.0000013579403365681515 0.0000014571905308974153 0.0000016135324428744838 0.000001613533440319862 0.0000016135366637685803
          0.0000011365098663854606 0.0000011365088619714486 0.0000011365064776473646 0.0000013407048521678677 0.0000012887973658187303 0.0000013407041596111322
          0.0000012887965584695356 0.0000013407022028991976 0.0000012887946824391415 0.000001221040728032691 0.000001228516555926825 0.0000012210427932201042
          0.000001228519271245439 0.0000012210493036824136 0.0000012285279114046345 0.0000011983483266742173 0.0000011511842371291645 0.0000011983533563632855
          0.0000011511888687384219 0.0000011983697303577864 0.000001151206302797534 0.0000012090051141769006 0.000001209006322643943 0.0000012090102554652036
          0.000001280377454960367 0.0000012904381415377924 0.0000012803782856343298 0.0000012904396953917592 0.0000012803810752179506 0.0000012904449210644994
          0.0000015377226667995933 0.0000015223206318827616 0.000001427858260653646 0.0000014502446217369232 0.000001537724567273096 0.000001522322803790352
          0.0000014278607321500608 0.0000014502467794181472 0.0000015377302364916288 0.0000015223291561990988 0.0000014278683402619448 0.0000014502533720455456
          0.0000014276344594868572 0.0000015052610643537004 0.0000014276345254390162 0.0000015052610913375073 0.0000014276344479127363 0.0000015052607696686886
          0.0000012961856394197017 0.000001337749567717308 0.0000013943547892942533 0.0000012961895808505571 0.000001337752470383701 0.0000013943573753831359
          0.0000012962001351512262 0.0000013377596577448954 0.000001394367131958748 0.0000013473570236734935 0.0000012745645552375503 0.0000012686356713689251
          0.0000013473571122062196 0.0000012745649026135437 0.0000012686356901891525 0.0000013473577881427799 0.000001274565993026867 0.0000012686358245083159
          0.0000015372967214167535 0.0000015372969267127259 0.0000015372979887963198 0.0000012640061089649188 0.0000012640056947349362 0.000001264004367850998
          0.0000011958598724815679 0.0000011950933023687192 0.000001195859362030193 0.0000011950931382192681 0.0000011958579080855762 0.0000011950923266309077
          0.0000013011184499455442 0.0000012993048005248748 0.0000013011211806566925 0.0000012993069733197587 0.0000013011303134035372 0.0000012993134515162835
          0.0000018318185632748826 0.0000018318195667492807 0.0000018318226295872408 0.0000012477881120065624 0.00000130251309348409 0.000001247787210288839
          0.0000013025123275104527 0.0000012477842435721617 0.000001302510645049819 0.0000013851490926064433 0.0000013851483708822846 0.0000013851462909160304
          0.000002020870381700234 0.0000020279834549824564 0.0000019827333719749422 0.0000019489489406312947 0.0000020208711496742393 0.0000020279842293363794
          0.0000019827341439407423 0.000001948949640739366 0.000002020873221632755 0.000002027986274744738 0.000001982736401701617 0.000001948951864694395
          0.0000014927500818316252 0.0000014927525147474757 0.0000014927594620414773 0.0000014513068771164292 0.0000013716793717734948 0.0000014513082128174242
          0.0000013716808448153034 0.0000014513120386378533 0.0000013716853021018997 0.0000011964424391396353 0.0000011964427485790639 0.0000011964443361194198
          0.0000013501060138038145 0.0000014031199492117817 0.0000013501054535816046 0.0000014031194899184736 0.0000013501038606467404 0.0000014031181905774316
          0.000001857696332992768 0.000001857696559461923 0.0000018576971171695733 0.000001788875230904012 0.0000019124870963882398 0.0000018878191495840657
          0.000001788876453152021 0.0000019124880976056936 0.0000018878201396679347 0.0000017888801991622466 0.0000019124914059374647 0.0000018878226831300413
          0.0000015770097464123516 0.0000016062948786707612 0.0000015770096678364625 0.0000016062951105060427 0.0000015770099017231393 0.0000016062958438921322
          0.000001872703809174652 0.0000019173177221382713 0.0000018727043679039014 0.000001917318460142973 0.0000018727063397278799 0.000001917321165298087
          0.0000016632754133013069 0.0000015730335618952646 0.0000016632759862269567 0.0000015730341459635018 0.0000016632779627654193 0.0000015730351475854087
          0.0000017066711826942265 0.0000016532454043647998 0.0000017066716915125881 0.000001653245800988844 0.0000017066738632172185 0.0000016532467336418717
          0.000001983204570227334 0.0000019832053696761934 0.000001983207666887279 0.0000018123316557851089 0.0000018123327125160149 0.0000018123360495577216
          0.000002062906650616929 0.0000020629072790597235 0.0000020629093144209096 0.0000015187003363804456 0.0000015187008244562024 0.0000015187030045954439
          0.0000019324243878815876 0.0000019324253130222216 0.000001932428407613093 0.0000014117867237927572 0.0000014117861474437896 0.0000014117844202411323
          0.000001614034427477761 0.0000016299479709633666 0.0000016140360769481963 0.000001629949498944807 0.000001614041183006102 0.000001629954337432171
          0.0000018041527489613052 0.0000018038505982267947 0.000001804152821384821 0.0000018038509820844558 0.0000018041537026763647 0.0000018038524405354092
          0.0000017971917059477735 0.000001797192267365681 0.0000017971937168493631 0.0000018961021165548644 0.0000018961032476125676 0.0000018961075910982845
          0.0000014607085553661908 0.0000015316789214190303 0.0000015165859821426363 0.00000146070818037767 0.0000015316787180098133 0.0000015165857321402557
          0.0000014607073767628736 0.000001531677908675206 0.000001516585276845893 0.0000018859295998807096 0.0000019029703718836187 0.0000018859297731871338
          0.0000019029706915922252 0.0000018859299526891916 0.0000019029718161538998 0.000001471090280565176 0.0000014710897899952755 0.0000014710883535939228
          0.0000015913241745437555 0.0000015913259390208382 0.0000015913315791782539 0.000001923569340884393 0.0000019235698597379602 0.0000019235715345882804
          0.000001552796974120236 0.000001552796759022564 0.00000155279634866061 0.0000014875902104300164 0.0000014875897369200199 0.0000014875883361015912
          0.0000015225559418260524 0.0000015225568200616018 0.0000015225596232156247 0.0000015316389745346284 0.0000015316400467429558 0.0000015316435023032455
          0.000001057448608970057 0.000001057446986047509 0.0000010574418053934677 0.0000010556523198512288 0.0000010556508000788248 0.0000010556456757463344
          0.0000015171121134263115 0.0000015171116034589537 0.0000015171108001362932 0.000001056004176969121 0.0000010560027948372613 0.0000010559980821099988
          0.0000015753078843856609 0.0000015753076235409786 0.0000015753070128855797 0.0000010608730925575216 0.000001060872195461181 0.0000010608677998183764
          0.0000013782839851553065 0.0000013782858640337176 0.0000013782916015635475 0.0000015987618103654397 0.0000015987623805946258 0.000001598763831691338
          0.0000013783916935089705 0.0000013783940309907752 0.0000013784007683183982 0.0000014579266987001222 0.0000014579282493024225 0.0000014579331481695766
          0.0000014608135775612032 0.0000014608153902843345 0.0000014608210967281427 0.0000017413339710955735 0.0000017413344481067443 0.0000017413367138202138
          0.0000018407443802644556 0.0000018407447127181374 0.0000018407458837462478 0.000001125556098939072 0.000001127345389573183 0.0000011255552712640207
          0.0000011273450156638548 0.0000011255538080097625 0.0000011273447615837682 0.0000011273547206498876 0.0000011273536982637328 0.0000011273514545370658
          0.00000108795279570239 0.0000011007842382914603 0.0000010879583340211462 0.0000011007900620297335 0.0000010879697122237332 0.0000011008069569301683
          0.0000018692593278554467 0.00000186926029932239 0.0000018692638253121194 0.0000016900403391725908 0.000001690041799569812 0.0000016900466065053625
          0.0000013639150231210543 0.0000013639174850755528 0.0000013639248619663802 0.0000020549314653867316 0.0000020928852380065704 0.0000020549322511666827
          0.0000020928859506891887 0.0000020549345326833607 0.0000020928883748896996 0.0000019400807795909458 0.000001813975968592542 0.0000018672969852578174
          0.0000019400811649771623 0.0000018139759949921107 0.0000018672971809198922 0.000001940082339603085 0.0000018139759103429033 0.0000018672981036201023
          0.0000020383610067217746 0.0000020383617052309043 0.0000020383637486207435 0.000002115483037472489 0.0000021154835843369443 0.0000021154855080038975
          0.0000020226599667964896 0.000001986819304790054 0.0000020226609289698212 0.0000019868202574945523 0.0000020226636773961103 0.0000019868232641690333
          0.000002200506561341933 0.0000021427976178806654 0.0000022005073251336336 0.0000021427982351403073 0.0000022005094610801537 0.000002142800394966961
          0.000001994021561953767 0.0000020089689631610865 0.0000019940220557673466 0.000002008969453537613 0.000001994023715799077 0.0000020089712805639217
          0.0000020975540883526956 0.000002097865652448048 0.000002097554827965139 0.00000209786620129271 0.000002097556873015661 0.00000209786819094793
          0.0000019740183041671005 0.0000019740185764109263 0.000001974019635969669 0.0000014112879568547772 0.0000015241311889097972 0.0000014112873474655074
          0.0000015241308211545768 0.0000014112855688304151 0.000001524129761766562 0.0000017583294244880527 0.0000017583293982283943 0.0000017583291375006186
          0.0000015970554103245466 0.0000016178332357503327 0.000001597055160503413 0.0000016178330806742545 0.0000015970543374257666 0.0000016178325444130375
          0.000001655761858935992 0.0000016557617239386546 0.0000016557615330814399 0.0000020803263266484755 0.000002080326917656336 0.0000020803291047592875
          0.0000016811495040967569 0.0000016811494033230739 0.0000016811491686494176
        </DataArray>
        <DataArray type="Float64" Name="disp_y" format="ascii" RangeMin="-7.690744289349272e-7" RangeMax="-3.3946452241564816e-7">
          -5.137510981736926e-7 -5.137540643095561e-7 -5.137630060698847e-7 -5.378590997367533e-7 -5.37863087894238e-7 -5.378750212851509e-7
          -5.388590605201653e-7 -5.388627392729266e-7 -5.38873528937316e-7 -5.503064306423374e-7 -5.5030851853732e-7 -5.503147223848194e-7
          -5.543418629283799e-7 -5.543460444019098e-7 -5.54358478527414e-7 -5.575725790358257e-7 -5.575777521653504e-7 -5.575931962328831e-7
          -5.600393631598426e-7 -5.600448106606713e-7 -5.600610883674785e-7 -5.618513014793984e-7 -5.618565893444605e-7 -5.618724190516336e-7
          -5.631321216668556e-7 -5.631369877313198e-7 -5.63151709789891e-7 -5.639937455891702e-7 -5.639981976666508e-7 -5.640109648110569e-7
          -5.756295889230854e-7 -5.756345541946029e-7 -5.756494813582267e-7 -5.800179575336335e-7 -5.800249315077086e-7 -5.800458609905544e-7
          -5.833199844357396e-7 -5.833275185939471e-7 -5.833501856232147e-7 -5.856943993310398e-7 -5.857017119770032e-7 -5.857236603809018e-7
          -5.873379517086185e-7 -5.87344598271528e-7 -5.873646331512196e-7 -5.884320557166789e-7 -5.884379698147551e-7 -5.884556269522164e-7
          -5.891126953274181e-7 -5.891177518199118e-7 -5.891336050781938e-7 -5.954389664659774e-7 -5.95444579422492e-7 -5.954609328114116e-7
          -6.01604748745267e-7 -6.01614452343323e-7 -6.016436185303028e-7 -6.061646154527297e-7 -6.061756771811685e-7 -6.062087605183951e-7
          -6.093457236990033e-7 -6.093563964562977e-7 -6.093884314114485e-7 -6.114726670605238e-7 -6.114821929973476e-7 -6.115108646122721e-7
          -6.128412891258968e-7 -6.128494457725593e-7 -6.128739517772124e-7 -6.136774277339394e-7 -6.136843778060404e-7 -6.137053194359929e-7
          -6.141617932239609e-7 -6.141675433985151e-7 -6.141851969867006e-7 -6.217467868750461e-7 -6.21760060267293e-7 -6.218013331858372e-7
          -6.283196352918881e-7 -6.2833643538516e-7 -6.283873369230456e-7 -6.327262808972704e-7 -6.32742671437154e-7 -6.327923835738939e-7
          -6.355287794622472e-7 -6.355431538013693e-7 -6.355866861324813e-7 -6.372412664242298e-7 -6.372531482678542e-7 -6.372889572298602e-7
          -6.382405698408249e-7 -6.382501352155142e-7 -6.382791990295859e-7 -6.387798559196206e-7 -6.387876147051471e-7 -6.388107364557228e-7
          -6.390069718031722e-7 -6.390133566743286e-7 -6.390332588186714e-7 -6.492849763354796e-7 -6.493135640669235e-7 -6.493955973204397e-7
          -6.556718961707381e-7 -6.557000480006474e-7 -6.557824538661009e-7 -6.594759756214707e-7 -6.595004258859854e-7 -6.595718544132547e-7
          -6.616333523316783e-7 -6.61651847809439e-7 -6.617067434494206e-7 -6.627994863745351e-7 -6.628136649576011e-7 -6.62856017498109e-7
          -6.633873070591513e-7 -6.63398096160783e-7 -6.634302531752781e-7 -6.636243502561365e-7 -6.6363257732235e-7 -6.636573034239417e-7
          -6.636421896392284e-7 -6.636488143636959e-7 -6.636685061130469e-7 -6.778312006988094e-7 -6.77887342460737e-7 -6.780551830195691e-7
          -6.831588864651174e-7 -6.832031285113799e-7 -6.833333069812602e-7 -6.859828937924803e-7 -6.8601417256322e-7 -6.861148292458398e-7
          -6.873010881407979e-7 -6.873239946447174e-7 -6.873905912304038e-7 -6.879035227860853e-7 -6.879192726856946e-7 -6.879674176231582e-7
          -6.881301201274476e-7 -6.881415418746272e-7 -6.881759734498567e-7 -6.881242088062941e-7 -6.88132334285116e-7 -6.881569584156129e-7
          -6.879846061154122e-7 -6.879905719827012e-7 -6.88009340438848e-7 -7.062098603142483e-7 -7.062953113735381e-7 -7.065610196312518e-7
          -7.09867270366896e-7 -7.099184764054771e-7 -7.100871868421718e-7 -7.116741893352923e-7 -7.117098743545564e-7 -7.118110825090996e-7
          -7.121082382518711e-7 -7.121306757869366e-7 -7.122036956797883e-7 -7.123720711503005e-7 -7.123880544138443e-7 -7.124352278004053e-7
          -7.123596033067365e-7 -7.123700311553114e-7 -7.124024743076593e-7 -7.122278630259799e-7 -7.122353948524911e-7 -7.122575018732371e-7
          -7.120047250984022e-7 -7.120099067640705e-7 -7.120240042606986e-7 -7.317313183876637e-7 -7.321506359341051e-7 -7.495187916786081e-7
          -7.488763032232927e-7 -7.317423629596506e-7 -7.321590395894124e-7 -7.495240951632234e-7 -7.488838229184769e-7 -7.31778955606577e-7
          -7.321823652434173e-7 -7.495397909349272e-7 -7.489032150315997e-7 -7.334572046321385e-7 -7.524791827641565e-7 -7.479592270840889e-7
          -7.303043603968869e-7 -7.334961697500456e-7 -7.525117631286381e-7 -7.480460563354046e-7 -7.303757626176044e-7 -7.336115155010654e-7
          -7.526118901385125e-7 -7.483238796862942e-7 -7.305552274914224e-7 -7.340067730854391e-7 -7.51135162093882e-7 -7.340308671800626e-7
          -7.511501519027449e-7 -7.341046312367816e-7 -7.51194319428043e-7 -7.506861990716183e-7 -7.321222499346565e-7 -7.506962753120499e-7
          -7.321392830623008e-7 -7.507214614570233e-7 -7.321904311128561e-7 -7.351046479914763e-7 -7.534328736016709e-7 -7.351101675656767e-7
          -7.534373673309338e-7 -7.351293536971367e-7 -7.534501692937869e-7 -7.273636775636284e-7 -7.441399419665168e-7 -7.274978099546631e-7
          -7.44299525077147e-7 -7.278743742699071e-7 -7.447932948904199e-7 -7.690626337640602e-7 -7.689690381152295e-7 -7.690668065096946e-7
          -7.689722630547754e-7 -7.690744289349272e-7 -7.689804108633384e-7 -7.406517126669484e-7 -7.406557497612952e-7 -7.406669047997583e-7
          -7.624044408210012e-7 -7.625054842740866e-7 -7.628408232829521e-7 -7.654157007463109e-7 -7.654673159917797e-7 -7.655729736514823e-7
          -7.67467322936347e-7 -7.682443025324648e-7 -7.674854101153121e-7 -7.682538868934708e-7 -7.675142521907604e-7 -7.682703192370068e-7
          -7.687541894834455e-7 -7.687584104051441e-7 -7.68774849741113e-7 -7.690530651036262e-7 -7.69055823945502e-7 -7.690657585494035e-7
          -4.68691372128788e-7 -4.686935134262674e-7 -4.686998580318032e-7 -6.912447593173218e-7 -6.665076796991893e-7 -6.666038198299564e-7
          -6.920856534599518e-7 -6.91249636337487e-7 -6.665129103541225e-7 -6.666081226844266e-7 -6.920897207822795e-7 -6.912629670320752e-7
          -6.665289599141642e-7 -6.666210335473354e-7 -6.921008413578532e-7 -4.424138619610949e-7 -4.424155659216626e-7 -4.4242073516512704e-7
          -7.205111016478811e-7 -7.17087143537202e-7 -7.205140017549644e-7 -7.170914083328411e-7 -7.205243482774824e-7 -7.171063724151978e-7
          -4.907015636509148e-7 -5.055962177989724e-7 -5.015954292957993e-7 -4.778825859999192e-7 -4.907035396840949e-7 -5.055985888841598e-7
          -5.015978528000954e-7 -4.778846192717721e-7 -4.9070931157097e-7 -5.05605650840348e-7 -5.016050314160318e-7 -4.778904459612353e-7
          -6.418258246107348e-7 -6.427955496400569e-7 -6.418301809910669e-7 -6.428007418800321e-7 -6.418436696999867e-7 -6.428175313208322e-7
          -4.5053040734118677e-7 -4.7033105875754675e-7 -4.5053215947762763e-7 -4.703328074339506e-7 -4.5053759996163315e-7 -4.7033835455842344e-7
          -7.131610552414605e-7 -7.362776487599159e-7 -7.085036309494835e-7 -7.131630684908593e-7 -7.362798449451957e-7 -7.085065202742298e-7
          -7.131666443219025e-7 -7.362861118843115e-7 -7.085123745362512e-7 -5.959054870166542e-7 -5.874348085514025e-7 -6.149983556791815e-7
          -6.240018595770099e-7 -5.95907172195806e-7 -5.874364815938968e-7 -6.149998801245388e-7 -6.240035586570383e-7 -5.959122202914329e-7
          -5.874418041407148e-7 -6.150042737619686e-7 -6.240081808104444e-7 -4.983985023697988e-7 -5.161298908207872e-7 -5.208692838283747e-7
          -4.984004088197382e-7 -5.161319125940014e-7 -5.208716024431601e-7 -4.984058150999905e-7 -5.161382302983533e-7 -5.208783010053202e-7
          -4.5598146630591226e-7 -4.586876462825999e-7 -4.822610136993175e-7 -4.878779204007369e-7 -4.5598299059931835e-7 -4.5868901208662506e-7
          -4.822625188309075e-7 -4.878796844047902e-7 -4.5598751866602465e-7 -4.586930474412131e-7 -4.822673354517558e-7 -4.87885083829087e-7
          -6.260715043906593e-7 -6.195977736782852e-7 -6.260766011305869e-7 -6.196019744460426e-7 -6.260907148251449e-7 -6.196135573279799e-7
          -6.874523283699261e-7 -6.586013505936173e-7 -6.540145886789417e-7 -6.845140736031792e-7 -6.874538050654246e-7 -6.586030755334591e-7
          -6.540161356207692e-7 -6.845155017420283e-7 -6.874582023596296e-7 -6.586081795092718e-7 -6.540211362450553e-7 -6.845196473026717e-7
          -6.060032459283438e-7 -6.000144467623237e-7 -5.924590586940907e-7 -6.060069810230459e-7 -6.000186834414862e-7 -5.924629045323292e-7
          -6.06018396547896e-7 -6.000302344194882e-7 -5.924743656462218e-7 -6.903303973710703e-7 -6.622201505014828e-7 -6.903320343883263e-7
          -6.622220948860683e-7 -6.90337012705163e-7 -6.62227798030671e-7 -7.40640833758887e-7 -7.136992896133683e-7 -7.129610192980276e-7
          -7.394252265773879e-7 -7.406418843090921e-7 -7.137003618689866e-7 -7.12962051525021e-7 -7.394261436009367e-7 -7.406449843107606e-7
          -7.137036715198107e-7 -7.12964495036853e-7 -7.394287684522364e-7 -7.041047130964398e-7 -6.804990133261963e-7 -7.041058275643e-7
          -6.805001977539154e-7 -7.041087833281101e-7 -6.805036899799436e-7 -5.122748786516982e-7 -5.133652828057846e-7 -5.122765235582285e-7
          -5.133669363134479e-7 -5.122815880978711e-7 -5.133720649805377e-7 -4.879626265223252e-7 -5.07980753068092e-7 -4.879643898796594e-7
          -5.079826452628284e-7 -4.879692305421294e-7 -5.079882154844787e-7 -6.080347611036564e-7 -6.069032444348216e-7 -5.766551649564409e-7
          -5.748503358434083e-7 -6.080372137298026e-7 -6.069060607209543e-7 -5.766579358278542e-7 -5.748526814188187e-7 -6.080445169824701e-7
          -6.069141604699618e-7 -5.766664479186103e-7 -5.7485945386243e-7 -6.30095592281247e-7 -6.300974195739369e-7 -6.301031382272195e-7
          -5.011006404647406e-7 -5.011031964094215e-7 -5.011108248709408e-7 -3.8548588972563217e-7 -4.039426719227895e-7 -3.8548717863687266e-7
          -4.0394407699668124e-7 -3.854913308017203e-7 -4.039484270294443e-7 -6.655158140872812e-7 -6.907123220221821e-7 -6.655194921727216e-7
          -6.907150537645143e-7 -6.655301624908595e-7 -6.907253007090697e-7 -7.687638945430622e-7 -7.436432408419035e-7 -7.687655096791209e-7
          -7.436454006641005e-7 -7.687693817539924e-7 -7.436518326754316e-7 -6.381908555456298e-7 -6.38194479540179e-7 -6.382055745513599e-7
          -6.065457263708498e-7 -6.366303033162159e-7 -6.065489725073568e-7 -6.366335516585261e-7 -6.065591116012666e-7 -6.366436517469611e-7
          -7.167911284836839e-7 -7.429782080993119e-7 -7.432718690991134e-7 -7.178490262731639e-7 -7.167924331405089e-7 -7.429794254337729e-7
          -7.432734335317192e-7 -7.178506814673338e-7 -7.167963913245247e-7 -7.429830265173457e-7 -7.432776932077413e-7 -7.178552368575279e-7
          -5.420286125319075e-7 -5.319065375204518e-7 -5.420308059651625e-7 -5.319085011900833e-7 -5.420376885803925e-7 -5.319146612903815e-7
          -7.684383535584306e-7 -7.42349049759586e-7 -7.680949800756511e-7 -7.684409797545005e-7 -7.423509859256298e-7 -7.680964841658856e-7
          -7.68451357645738e-7 -7.423578163011193e-7 -7.681002410608199e-7 -5.474777046280054e-7 -5.771377870342178e-7 -5.489796526561591e-7
          -5.474801675303092e-7 -5.771407684096663e-7 -5.489825003727238e-7 -5.474878784562939e-7 -5.771494644015985e-7 -5.489908861344949e-7
          -5.564181768699386e-7 -5.56419982654699e-7 -5.56425471380567e-7 -5.234424776023982e-7 -5.234449335904382e-7 -5.234529849027319e-7
          -5.246138325267083e-7 -5.491811843005077e-7 -5.246166611217952e-7 -5.491843829848695e-7 -5.24625408502329e-7 -5.491940137254594e-7
          -6.908648653792808e-7 -6.652801892600628e-7 -6.908670962902797e-7 -6.652831527034422e-7 -6.908745906244969e-7 -6.652918150089451e-7
          -6.493508826357414e-7 -6.493522797513416e-7 -6.493564805298633e-7 -4.221840525120316e-7 -4.2909271961306996e-7 -4.221856112052749e-7
          -4.290942512194296e-7 -4.221901402803681e-7 -4.290990742813219e-7 -3.6411433406623405e-7 -3.6411533055765405e-7 -3.6411821193174326e-7
          -5.840818393585938e-7 -6.003700779401336e-7 -6.105436927424779e-7 -5.907374100379751e-7 -5.840831728661908e-7 -6.003713182604903e-7
          -6.105448876840758e-7 -5.907387581301051e-7 -5.840870092745104e-7 -6.003749100232507e-7 -6.105485518594205e-7 -5.90742729470999e-7
          -7.676893312723343e-7 -7.676902692309489e-7 -7.676939097308267e-7 -6.368159553499371e-7 -6.368986775014357e-7 -6.368183322840717e-7
          -6.369013003747407e-7 -6.368254344079651e-7 -6.369093982283626e-7 -5.75581988390669e-7 -5.755854114722368e-7 -5.755958845786033e-7
          -4.1819187131233506e-7 -4.3494508192293267e-7 -4.1819330824491137e-7 -4.349465968285213e-7 -4.181974028110841e-7 -4.3495140626942893e-7
          -4.843246394709505e-7 -4.843258948892287e-7 -4.843291793644535e-7 -7.661616993866821e-7 -7.321135006918975e-7 -7.655455807269755e-7
          -7.66162528414667e-7 -7.321144220841692e-7 -7.655466483515439e-7 -7.661656060769443e-7 -7.3211709864533e-7 -7.655502101689988e-7
          -5.205891067081686e-7 -5.423131965221775e-7 -5.205908502353213e-7 -5.423149057621183e-7 -5.205962849662446e-7 -5.423200645238577e-7
          -6.026524789694756e-7 -6.262380356882988e-7 -6.026538200217804e-7 -6.262391348982367e-7 -6.026581427173967e-7 -6.262424817207737e-7
          -5.647826913821155e-7 -5.793660121519292e-7 -5.647843126656237e-7 -5.793678577171117e-7 -5.64789281492878e-7 -5.793729589090192e-7
          -5.371058967206627e-7 -5.311397755979838e-7 -5.371074212908128e-7 -5.311412707339443e-7 -5.371119443158645e-7 -5.311463285505872e-7
          -6.446654789860058e-7 -6.446665437195819e-7 -6.446695046457334e-7 -6.853591164012222e-7 -6.853602846171387e-7 -6.853643096882104e-7
          -6.587561663053132e-7 -6.587572097549433e-7 -6.587606979360054e-7 -5.885287174040194e-7 -5.885306795694235e-7 -5.885364043065854e-7
          -6.674197929604623e-7 -6.674210134500908e-7 -6.67424862467782e-7 -4.0214521391516487e-7 -4.021465115271782e-7 -4.021506970727874e-7
          -7.41825200987593e-7 -7.153922577135602e-7 -7.418262572735385e-7 -7.153934215367863e-7 -7.418294471127109e-7 -7.153970362130344e-7
          -4.936714148340547e-7 -5.135413918547039e-7 -4.936727845404274e-7 -5.135427974860676e-7 -4.936764036044586e-7 -5.135474930606528e-7
          -5.469373791261791e-7 -5.46938916928181e-7 -5.469434424993367e-7 -6.933080050866083e-7 -6.933090777057112e-7 -6.93313241774205e-7
          -4.534165999398596e-7 -4.3559901230713804e-7 -4.734854224198475e-7 -4.5341826840237327e-7 -4.3560042811284435e-7 -4.734871298502721e-7
          -4.5342361065784143e-7 -4.35604551990978e-7 -4.734925083193495e-7 -5.08812734698092e-7 -5.372986965011331e-7 -5.088140694260105e-7
          -5.373001452566582e-7 -5.088182807830987e-7 -5.373046429711353e-7 -4.194200443497772e-7 -4.1942139267178374e-7 -4.1942506951237335e-7
          -7.672331074466314e-7 -7.672340494640761e-7 -7.672372437429826e-7 -5.658788040251817e-7 -5.658801860523047e-7 -5.658842804253903e-7
          -4.970672313670723e-7 -4.97068864169495e-7 -4.970740075097549e-7 -3.8382328618629316e-7 -3.8382444550639334e-7 -3.8382809538017516e-7
          -6.079597547888519e-7 -6.079618637742001e-7 -6.079691471530569e-7 -6.345905515569629e-7 -6.34592616844007e-7 -6.345991333689518e-7
          -5.052118038393257e-7 -5.052145513594076e-7 -5.052228614575716e-7 -5.310697549267477e-7 -5.310730233175385e-7 -5.310830412563797e-7
          -4.075318225906005e-7 -4.0753299659093445e-7 -4.07537016156649e-7 -5.555926475915872e-7 -5.555965827002144e-7 -5.556084671572996e-7
          -4.1524430995560877e-7 -4.152455652813625e-7 -4.152496141388902e-7 -5.794677711355569e-7 -5.794719579812149e-7 -5.794852202289366e-7
          -6.655298121336885e-7 -6.655322537650433e-7 -6.655396757087506e-7 -6.032701524817011e-7 -6.032719276645139e-7 -6.03277628944464e-7
          -6.920946686634278e-7 -6.920966445308802e-7 -6.921030168710172e-7 -6.645375663275495e-7 -6.645396402988373e-7 -6.645461121391975e-7
          -6.921772110709162e-7 -6.921788977298624e-7 -6.921844463702769e-7 -5.675754212959998e-7 -5.67576849167935e-7 -5.675813999306777e-7
          -5.76424213829129e-7 -5.764256137299887e-7 -5.764302153452589e-7 -5.512934059989705e-7 -5.751033473048435e-7 -5.512969876010431e-7
          -5.751071207872715e-7 -5.513079056981818e-7 -5.751194166156289e-7 -5.266528417310442e-7 -5.266558067742682e-7 -5.26664847700053e-7
          -7.427848837235523e-7 -7.689404913364325e-7 -7.427876384788094e-7 -7.689413252435906e-7 -7.427962596221917e-7 -7.689404564896397e-7
          -7.120211198360979e-7 -7.120219274105112e-7 -7.120243955953417e-7 -7.667245281843233e-7 -7.667253540291643e-7 -7.667282014837957e-7
          -7.165491316772143e-7 -7.165506561779667e-7 -7.165554408096012e-7 -7.12334286708233e-7 -6.911322203657115e-7 -7.123351754532772e-7
          -6.911331813772062e-7 -7.123380673816688e-7 -6.911361454369986e-7 -4.673131465501758e-7 -4.6356056912820966e-7 -4.53111573751359e-7
          -4.673143741441961e-7 -4.6356171034542857e-7 -4.5311275179256723e-7 -4.673180670953819e-7 -4.635651007302433e-7 -4.531163363946344e-7
          -6.254354541227938e-7 -6.25436556285873e-7 -6.254398259715942e-7 -6.381556938473089e-7 -6.381567695342508e-7 -6.381601907633784e-7
          -7.378969962143397e-7 -7.648739314080657e-7 -7.378981010071617e-7 -7.648751641382144e-7 -7.379014915462969e-7 -7.648789932008276e-7
          -6.526644403906848e-7 -6.724448652798771e-7 -6.526655369644043e-7 -6.724458216288472e-7 -6.526687902396539e-7 -6.724486621860652e-7
          -5.31082236764248e-7 -5.593224239195494e-7 -5.310835464362639e-7 -5.593236790617137e-7 -5.310873412555195e-7 -5.593276508834141e-7
          -5.580619332655343e-7 -5.845406151298197e-7 -5.580632329652797e-7 -5.845417400311159e-7 -5.580670831537329e-7 -5.845454012512829e-7
          -5.020407130359211e-7 -5.02041886032839e-7 -5.020455850995723e-7 -3.3946452241564816e-7 -3.4903739413737453e-7 -3.3946534701744143e-7
          -3.490383551524619e-7 -3.394676934656756e-7 -3.4904132599287693e-7 -4.3782596377142664e-7 -4.378271915998125e-7 -4.3783062081209265e-7
          -3.916018775248534e-7 -3.676206841944625e-7 -3.916029890955261e-7 -3.6762175868534455e-7 -3.9160629907475634e-7 -3.6762475260967085e-7
          -4.260218155045383e-7 -4.2602304381630235e-7 -4.260265508835231e-7 -6.065544917669519e-7 -6.065556540598232e-7 -6.065591364034193e-7
          -4.0108252154012896e-7 -4.010836913105558e-7 -4.010875535517777e-7
        </DataArray>
        <DataArray type="Float64" Name="disp_z" format="ascii" RangeMin="-1.7986420009041234e-8" RangeMax="0">
          0 -8.772344007021196e-9 -1.7544998565806414e-8 0 -8.763452554622917e-9 -1.752650320482395e-8
          0 -8.754430158815629e-9 -1.7509337350313924e-8 0 -8.929269716594893e-9 -1.785822769992239e-8
          0 -8.865498899592632e-9 -1.7731083315064375e-8 0 -8.81672157325068e-9 -1.763349080416322e-8
          0 -8.78112501374443e-9 -1.7562178078842977e-8 0 -8.755937402255937e-9 -1.7512211279612722e-8
          0 -8.73904066183792e-9 -1.7477529216119158e-8 0 -8.733340663939408e-9 -1.7467170495125947e-8
          0 -8.910568985784464e-9 -1.7820643198341212e-8 0 -8.835324918086655e-9 -1.767073793050556e-8
          0 -8.782041018882e-9 -1.7564086183784377e-8 0 -8.746205182664272e-9 -1.7492284431145223e-8
          0 -8.723006347961e-9 -1.7446402894743092e-8 0 -8.709334733422874e-9 -1.7417885920589775e-8
          0 -8.707759424584303e-9 -1.7416535014264952e-8 0 -8.991988069176985e-9 -1.7986420009041234e-8
          0 -8.871235021796647e-9 -1.774177651177006e-8 0 -8.786420249231343e-9 -1.757292439208872e-8
          0 -8.732264330080302e-9 -1.7464470289034298e-8 0 -8.699896969323809e-9 -1.7399741338540177e-8
          0 -8.68226313371996e-9 -1.7364619562953854e-8 0 -8.674173116562685e-9 -1.7348281968585353e-8
          0 -8.675056551589069e-9 -1.7349904250198014e-8 0 -8.94026931894912e-9 -1.788467037928266e-8
          0 -8.799003489335118e-9 -1.7597317997034992e-8 0 -8.711082110502447e-9 -1.7422476918576905e-8
          0 -8.663148899402773e-9 -1.7326426377282632e-8 0 -8.640586890597056e-9 -1.728122902117814e-8
          0 -8.633139840464228e-9 -1.7266239193583547e-8 0 -8.633626905778616e-9 -1.726766485069747e-8
          0 -8.638678511877561e-9 -1.7276525311977214e-8 0 -8.830158513639085e-9 -1.766074800389368e-8
          0 -8.679003119973648e-9 -1.7356031036767735e-8 0 -8.601252429863278e-9 -1.7201383244412107e-8
          0 -8.572241063618064e-9 -1.7144142641732235e-8 0 -8.56879853537699e-9 -1.7137459748396034e-8
          0 -8.576421356909367e-9 -1.7152385302535377e-8 0 -8.58992416543652e-9 -1.7180267411082988e-8
          0 -8.602503464516415e-9 -1.7204678031920246e-8 0 -8.62078299785956e-9 -1.7242229760633247e-8
          0 -8.490137332495082e-9 -1.698114579359967e-8 0 -8.444366026360402e-9 -1.689099396510486e-8
          0 -8.463099631643124e-9 -1.6926813002993993e-8 0 -8.486120591072585e-9 -1.697177436188022e-8
          0 -8.515940692903845e-9 -1.7032140363036824e-8 0 -8.544129108402744e-9 -1.7088618191328314e-8
          0 -8.566776404610661e-9 -1.7133383584095535e-8 0 -8.2063060696953e-9 -1.64083116848307e-8
          0 -8.203093102473297e-9 -1.6411365305707304e-8 0 -8.240119641805169e-9 -1.6473536058091088e-8
          0 -8.331470555451738e-9 -1.6666875040608364e-8 0 -8.3955513011296e-9 -1.6789690605150573e-8
          0 -8.451934508162083e-9 -1.6903808864609664e-8 0 -8.501225697118088e-9 -1.700256816489911e-8
          0 -8.535638050534199e-9 -1.7069961871557655e-8 0 0 0
          0 -8.349979137567945e-9 -8.418511999442248e-9 -8.402437654132604e-9 -8.327985889788372e-9 -1.6701877489722485e-8
          -1.6836636836444268e-8 -1.6808569411116732e-8 -1.6651265185827994e-8 0 0 0
          0 -8.040670630527906e-9 -7.844261292312108e-9 -7.533153324588228e-9 -7.901287684817874e-9 -1.609215845799694e-8
          -1.5669997359993297e-8 -1.508585931503243e-8 -1.5784774500088483e-8 0 0 -8.151466407118597e-9
          -8.09881793393711e-9 -1.6307518829679136e-8 -1.6191822690465643e-8 0 0 -8.244154397239217e-9
          -8.254283446309199e-9 -1.6492843382206654e-8 -1.650573959358657e-8 0 0 -8.467818508106928e-9
          -8.436329750684067e-9 -1.693603163514916e-8 -1.6868473865891217e-8 0 0 -7.71649574782253e-9
          -7.14459142051331e-9 -1.543357464254189e-8 -1.4261690343320739e-8 0 0 -8.427804997948594e-9
          -8.36349559934621e-9 -1.6857655748072477e-8 -1.6727162904591652e-8 0 -8.512010872969634e-9 -1.7024193503614496e-8
          0 -6.808839421626601e-9 -1.3567990350801343e-8 0 -7.516912930737468e-9 -1.5041237326340194e-8
          0 0 -7.921259762402588e-9 -8.114643813325217e-9 -1.58669843321819e-8 -1.622753939244998e-8
          0 -8.262391555398247e-9 -1.6525105773106967e-8 0 -8.486815521264427e-9 -1.6973655325564812e-8
          0 -8.778558314137994e-9 -1.7557117266689188e-8 0 0 0
          0 -8.590371263987245e-9 -8.615628493155324e-9 -8.626594745976536e-9 -8.604989213440977e-9 -1.718057319853369e-8
          -1.7231631335259776e-8 -1.725301223861731e-8 -1.7209528954896156e-8 0 -8.785312471991983e-9 -1.7570372713120073e-8
          0 0 -8.586259356286868e-9 -8.564772345225287e-9 -1.7173755878081135e-8 -1.713096356068351e-8
          0 0 0 0 -8.759216767179821e-9 -8.756279843486606e-9
          -8.760258702471354e-9 -8.76902825746039e-9 -1.7518053785089473e-8 -1.751331549133158e-8 -1.7520225877856668e-8 -1.7538209654142493e-8
          0 0 -8.650758648872246e-9 -8.646182785749614e-9 -1.7301068883904185e-8 -1.729258630756468e-8
          0 0 -8.776628970156939e-9 -8.765417287503233e-9 -1.7553395971116807e-8 -1.753077888967558e-8
          0 0 0 -8.62113214738229e-9 -8.60967734216753e-9 -8.607441538752737e-9
          -1.72420223879579e-8 -1.7220868302516345e-8 -1.7212043405543433e-8 0 0 0
          0 -8.716755455429222e-9 -8.725374146231284e-9 -8.716436095862972e-9 -8.708842715890475e-9 -1.7433354465707865e-8
          -1.745063608157873e-8 -1.7432940192084373e-8 -1.7417643741543017e-8 0 0 0
          -8.756127538944421e-9 -8.747861521745178e-9 -8.744845064730207e-9 -1.7513425024141335e-8 -1.7495563686815676e-8 -1.7489291826866663e-8
          0 0 0 0 -8.76888541843128e-9 -8.770512701302475e-9
          -8.761348755997989e-9 -8.756336595946763e-9 -1.753758555184905e-8 -1.7541909652234004e-8 -1.7522424246012986e-8 -1.751244928463614e-8
          0 0 -8.665217756113145e-9 -8.671872880014488e-9 -1.7331683577128887e-8 -1.73441088651947e-8
          0 0 0 0 -8.680018760679998e-9 -8.689459509181042e-9
          -8.699056741853376e-9 -8.688473356126349e-9 -1.7360030989064935e-8 -1.7378815483892638e-8 -1.7398210777344515e-8 -1.7377013408851082e-8
          0 0 0 -8.684979255591007e-9 -8.68628255052669e-9 -8.69303785601229e-9
          -1.7370109532176707e-8 -1.7371520830694255e-8 -1.7386293513131575e-8 0 0 -8.669533281991578e-9
          -8.680514951194156e-9 -1.733907305413261e-8 -1.7361128740448648e-8 0 0 0
          0 -8.672882120099977e-9 -8.68055567018378e-9 -8.68740020691696e-9 -8.682853778431319e-9 -1.7345643093270587e-8
          -1.736106270471844e-8 -1.7375156185950654e-8 -1.7365753814423567e-8 0 0 -8.703048666149682e-9
          -8.710794884516245e-9 -1.740622233578151e-8 -1.742138634606177e-8 0 0 -8.749762596206938e-9
          -8.74702365758445e-9 -1.7499571648193597e-8 -1.7494392715229492e-8 0 0 -8.758033299706699e-9
          -8.750033987381366e-9 -1.7515765891359403e-8 -1.74998353895265e-8 0 0 0
          0 -8.69988838908747e-9 -8.695204505294497e-9 -8.713239930009934e-9 -8.718143461419871e-9 -1.7399732131778885e-8
          -1.739035143042563e-8 -1.7426335698614578e-8 -1.743611612962741e-8 0 -8.700338746224724e-9 -1.74007022105764e-8
          0 -8.763317543651572e-9 -1.7526959191455557e-8 0 0 -8.79771020756634e-9
          -8.793679265118035e-9 -1.759541739632101e-8 -1.7587574971714806e-8 0 0 -8.63849051563626e-9
          -8.617155928394738e-9 -1.727740995240404e-8 -1.723459316605679e-8 0 0 -8.571016568979819e-9
          -8.550241602915697e-9 -1.71436591657519e-8 -1.709475356434071e-8 0 -8.657631410342776e-9 -1.7314969158452673e-8
          0 0 -8.692488299319804e-9 -8.668685514254409e-9 -1.7385252881900606e-8 -1.7337418458337825e-8
          0 0 0 0 -8.659771723610272e-9 -8.650759410568013e-9
          -8.63552348289985e-9 -8.647200303756353e-9 -1.731949432388309e-8 -1.730145419228375e-8 -1.727125216823391e-8 -1.7294426424647328e-8
          0 0 -8.735455570202544e-9 -8.739019197990596e-9 -1.747120486058192e-8 -1.7478029704829806e-8
          0 0 0 -8.594375046927297e-9 -8.620933876463522e-9 -8.621046774492637e-9
          -1.7186063944234576e-8 -1.724113532109021e-8 -1.724291944266493e-8 0 0 0
          -8.731563729604045e-9 -8.712222311998447e-9 -8.729744656305174e-9 -1.7463083335646912e-8 -1.7424417221188018e-8 -1.745963203506831e-8
          0 -8.727956532217543e-9 -1.745554392743241e-8 0 -8.745393021508123e-9 -1.7490768822365187e-8
          0 0 -8.746614829145195e-9 -8.73010797993851e-9 -1.7492952850113726e-8 -1.746010351439675e-8
          0 0 -8.634182345445142e-9 -8.650268584539299e-9 -1.726895165515806e-8 -1.730060908723097e-8
          0 -8.707858591717305e-9 -1.7415712721209614e-8 0 0 -8.789656233078877e-9
          -8.785145547677627e-9 -1.7579217162090797e-8 -1.7570308161469375e-8 0 -8.801517470890077e-9 -1.7603067010770186e-8
          0 0 0 0 -8.736186432902291e-9 -8.731729298470023e-9
          -8.72728896713806e-9 -8.731133178581703e-9 -1.747244257721899e-8 -1.746323951423288e-8 -1.745486326468297e-8 -1.746234918258762e-8
          0 -8.639534282813311e-9 -1.7278566855715144e-8 0 0 -8.684669140201456e-9
          -8.677496277555107e-9 -1.7369324027645477e-8 -1.7354896524913023e-8 0 -8.710296907615508e-9 -1.742035870830532e-8
          0 0 -8.78719087044242e-9 -8.78021734519617e-9 -1.757440510696594e-8 -1.7560484370184955e-8
          0 -8.76226698235763e-9 -1.7524708969731082e-8 0 0 0
          -8.675678889291536e-9 -8.69236457193866e-9 -8.682410467081722e-9 -1.735116552095279e-8 -1.738486928805167e-8 -1.736457836249206e-8
          0 0 -8.744031843496923e-9 -8.735504962248111e-9 -1.748819535456114e-8 -1.7471444133381223e-8
          0 0 -8.723478360769944e-9 -8.719076574269177e-9 -1.744695802368359e-8 -1.74379623179867e-8
          0 0 -8.728528375941695e-9 -8.72067942291437e-9 -1.745704727172893e-8 -1.7441278590415908e-8
          0 0 -8.739622482251323e-9 -8.739640299141089e-9 -1.7479126284408558e-8 -1.7478826186484618e-8
          0 -8.71890398572652e-9 -1.7437728506543897e-8 0 -8.693660315212936e-9 -1.7387222599258406e-8
          0 -8.718736266479709e-9 -1.7437542205282015e-8 0 -8.716857912341168e-9 -1.7434699352250705e-8
          0 -8.710775782537679e-9 -1.7421697250887643e-8 0 -8.789188715586107e-9 -1.7578221654627092e-8
          0 0 -8.662818964781832e-9 -8.67095384293446e-9 -1.7325685497097023e-8 -1.7341854785063978e-8
          0 0 -8.759421705409936e-9 -8.75342048403901e-9 -1.7519070519725317e-8 -1.7506912035839222e-8
          0 -8.740804925319612e-9 -1.7481466182446962e-8 0 -8.698687437159559e-9 -1.739752171897584e-8
          0 0 0 -8.771459615222508e-9 -8.776239659616358e-9 -8.762788997442441e-9
          -1.7542832059646525e-8 -1.755255049165786e-8 -1.752581847759975e-8 0 0 -8.755550696953466e-9
          -8.746051518913787e-9 -1.751097587569377e-8 -1.7492052988551217e-8 0 -8.782317808199199e-9 -1.756474521237979e-8
          0 -8.653787197290829e-9 -1.7307498239523842e-8 0 -8.737584161250747e-9 -1.747525443853772e-8
          0 -8.753277811419103e-9 -1.750670663274866e-8 0 -8.792403919990384e-9 -1.7584973027941145e-8
          0 -8.706302731500671e-9 -1.7412311294093744e-8 0 -8.692194259558738e-9 -1.738444206579856e-8
          0 -8.766318558981203e-9 -1.7532337466370345e-8 0 -8.749434885871369e-9 -1.7498433095602942e-8
          0 -8.783763961952316e-9 -1.756691268903498e-8 0 -8.729711813704838e-9 -1.745853195225498e-8
          0 -8.781518546845811e-9 -1.756331408714724e-8 0 -8.707083033429436e-9 -1.7413981915170988e-8
          0 -8.661126643665815e-9 -1.7322203410581377e-8 0 -8.71127342738197e-9 -1.7422474374998106e-8
          0 -8.647157001277006e-9 -1.7294326360070735e-8 0 -8.671064041872575e-9 -1.7342130437174154e-8
          0 -8.658483326398616e-9 -1.731700359577153e-8 0 -8.732761466267713e-9 -1.7466176462524798e-8
          0 -8.731766617238593e-9 -1.7463483485324164e-8 0 0 -8.730518859962904e-9
          -8.708725284851283e-9 -1.7461756282412715e-8 -1.741803217541721e-8 0 -8.747935741393821e-9 -1.749609677473272e-8
          0 0 -8.53698186454717e-9 -8.53742632952497e-9 -1.7074613167198025e-8 -1.70763801128834e-8
          0 -8.69049188322103e-9 -1.73802389993527e-8 0 -8.665408213582034e-9 -1.7330722071675765e-8
          0 -8.634039361319093e-9 -1.7267516091203757e-8 0 0 -8.70547744820969e-9
          -8.712142323111841e-9 -1.7410829087947826e-8 -1.7424321776070867e-8 0 0 0
          -8.767553555814536e-9 -8.766189993582554e-9 -8.769344660281094e-9 -1.7535149135330066e-8 -1.753202157789958e-8 -1.753868271588045e-8
          0 -8.725812531817656e-9 -1.7451549607055842e-8 0 -8.726374443778785e-9 -1.745280827897256e-8
          0 0 -8.698142605701048e-9 -8.688087031044132e-9 -1.7396175142129808e-8 -1.737607189348721e-8
          0 0 -8.725707830869379e-9 -8.718880923405701e-9 -1.7451275137223864e-8 -1.7437778095815886e-8
          0 0 -8.750997865065851e-9 -8.742965133753475e-9 -1.750213313385481e-8 -1.748584999125276e-8
          0 0 -8.746936546325736e-9 -8.739449714713092e-9 -1.749385334993692e-8 -1.7478949571102096e-8
          0 -8.758026638147093e-9 -1.751593251614015e-8 0 0 -8.804342067483842e-9
          -8.798957238072066e-9 -1.7608709957607873e-8 -1.759775447188771e-8 0 -8.774214643366563e-9 -1.754834171343944e-8
          0 0 -8.788089039778129e-9 -8.792563013405106e-9 -1.7576336334143542e-8 -1.7585019533236788e-8
          0 -8.776923684234044e-9 -1.755349648904159e-8 0 -8.732635509993873e-9 -1.7465277396581723e-8
          0 -8.783979769889214e-9 -1.7567941829340953e-8
        </DataArray>
      </PointData>
      <CellData>
        <DataArray type="Int32" Name="libmesh_elem_id" format="ascii" RangeMin="1184" RangeMax="3139">
          1184 1185 1192 1193 1194 1195
          1196 1197 1198 1199 1200 1201
          1202 1203 1210 1211 1212 1213
          1214 1215 1216 1217 1218 1219
          1220 1221 1226 1227 1228 1229
          1230 1231 1232 1233 1234 1235
          1236 1237 1238 1239 1244 1245
          1246 1247 1248 1249 1250 1251
          1252 1253 1254 1255 1256 1257
          1262 1263 1264 1265 1266 1267
          1268 1269 1270 1271 1272 1273
          1274 1275 1280 1281 1282 1283
          1284 1285 1286 1287 1288 1289
          1290 1291 1292 1293 1294 1295
          1296 1297 1298 1299 1302 1303
          1308 1309 1310 1311 1312 1313
          1318 1319 1320 1321 1322 1323
          1324 1325 1332 1333 1334 1335
          1336 1337 1340 1341 1342 1343
          1346 1347 1350 1351 1352 1353
          1354 1355 1362 1363 1364 1365
          1368 1369 1370 1371 1382 1383
          1396 1397 1408 1409 1452 1453
          1456 1457 1468 1469 1476 1477
          1486 1487 1510 1511 1518 1519
          1532 1533 1558 1559 1560 1561
          1564 1565 1566 1567 1570 1571
          1586 1587 1602 1603 1618 1619
          1622 1623 1628 1629 1634 1635
          1680 1681 1686 1687 1696 1697
          1700 1701 1708 1709 1710 1711
          1728 1729 1740 1741 1750 1751
          1754 1755 1764 1765 1766 1767
          1782 1783 1804 1805 1814 1815
          1836 1837 1868 1869 1880 1881
          1884 1885 1890 1891 1900 1901
          1908 1909 1918 1919 1928 1929
          1948 1949 1952 1953 1968 1969
          1970 1971 1972 1973 1986 1987
          2004 2005 2006 2007 2008 2009
          2014 2015 2018 2019 2020 2021
          2030 2031 2040 2041 2044 2045
          2050 2051 2062 2063 2064 2065
          2068 2069 2082 2083 2092 2093
          2120 2121 2128 2129 2130 2131
          2134 2135 2146 2147 2160 2161
          2180 2181 2184 2185 2186 2187
          2208 2209 2214 2215 2216 2217
          2230 2231 2234 2235 2248 2249
          2262 2263 2270 2271 2276 2277
          2286 2287 2292 2293 2294 2295
          2296 2297 2302 2303 2304 2305
          2314 2315 2316 2317 2320 2321
          2330 2331 2332 2333 2344 2345
          2354 2355 2362 2363 2366 2367
          2374 2375 2382 2383 2390 2391
          2400 2401 2404 2405 2408 2409
          2410 2411 2412 2413 2414 2415
          2430 2431 2440 2441 2448 2449
          2456 2457 2460 2461 2474 2475
          2486 2487 2494 2495 2498 2499
          2500 2501 2506 2507 2520 2521
          2522 2523 2564 2565 2572 2573
          2578 2579 2586 2587 2592 2593
          2596 2597 2600 2601 2620 2621
          2624 2625 2658 2659 2660 2661
          2670 2671 2688 2689 2694 2695
          2722 2723 2754 2755 2764 2765
          2778 2779 2780 2781 2796 2797
          2824 2825 2832 2833 2846 2847
          2848 2849 2862 2863 2870 2871
          2878 2879 2880 2881 2886 2887
          2902 2903 2930 2931 2940 2941
          2958 2959 2968 2969 2988 2989
          3062 3063 3064 3065 3090 3091
          3106 3107 3132 3133 3138 3139
        </DataArray>
        <DataArray type="Int32" Name="subdomain_id" format="ascii" RangeMin="105" RangeMax="143">
          105 105 105 105 105 105
          105 105 105 105 105 105
          105 105 105 105 105 105
          105 105 105 105 105 105
          105 105 105 105 105 105
          105 105 105 105 105 105
          105 105 105 105 105 105
          105 105 105 105 105 105
          105 105 105 105 105 105
          105 105 105 105 105 105
          105 105 105 105 105 105
          105 105 105 105 105 105
          105 105 105 105 105 105
          105 105 105 105 106 106
          106 106 106 106 106 106
          106 106 106 106 106 106
          106 106 106 106 106 106
          106 106 106 106 106 106
          106 106 106 106 106 106
          106 106 106 106 106 106
          106 106 143 143 143 143
          143 143 143 143 107 107
          107 107 107 107 107 107
          107 107 107 107 107 107
          107 107 107 107 107 107
          107 107 107 107 107 107
          107 107 107 107 107 107
          107 107 107 107 107 107
          107 107 107 107 107 107
          107 107 107 107 107 107
          107 107 107 107 107 107
          107 107 107 107 107 107
          107 107 107 107 107 107
          107 107 107 107 107 107
          107 107 107 107 107 107
          107 107 107 107 107 107
          107 107 107 107 107 107
          107 107 107 107 107 107
          107 107 107 107 107 107
          107 107 107 107 107 107
          107 107 107 107 107 107
          107 107 107 107 107 107
          107 107 107 107 107 107
          107 107 107 107 107 107
          107 107 107 107 107 107
          107 107 107 107 107 107
          107 107 107 107 107 107
          107 107 107 107 107 107
          107 107 107 107 107 107
          107 107 107 107 107 107
          107 107 107 107 107 107
          107 107 107 107 107 107
          107 107 107 107 107 107
          107 107 107 107 107 107
          107 107 107 107 107 107
          107 107 107 107 107 107
          107 107 107 107 107 107
          107 107 107 107 107 107
          107 107 107 107 107 107
          107 107 107 107 107 107
          107 107 107 107 107 107
          107 107 107 107 107 107
          107 107 107 107 107 107
          107 107 107 107 107 107
          107 107 107 107 107 107
          107 107 107 107 107 107
          107 107 107 107 107 107
          107 107 107 107 107 107
          107 107 107 107 107 107
          107 107 107 107 107 107
          107 107 107 107 107 107
          107 107 107 107 107 107
          107 107 107 107 107 107
          107 107 107 107 107 107
          107 107 107 107 107 107
          107 107 107 107 107 107
        </DataArray>
        <DataArray type="Int32" Name="processor_id" format="ascii" RangeMin="4" RangeMax="4">
          4 4 4 4 4 4
          4 4 4 4 4 4
          4 4 4 4 4 4
          4 4 4 4 4 4
          4 4 4 4 4 4
          4 4 4 4 4 4
          4 4 4 4 4 4
          4 4 4 4 4 4
          4 4 4 4 4 4
          4 4 4 4 4 4
          4 4 4 4 4 4
          4 4 4 4 4 4
          4 4 4 4 4 4
          4 4 4 4 4 4
          4 4 4 4 4 4
          4 4 4 4 4 4
          4 4 4 4 4 4
          4 4 4 4 4 4
          4 4 4 4 4 4
          4 4 4 4 4 4
          4 4 4 4 4 4
          4 4 4 4 4 4
          4 4 4 4 4 4
          4 4 4 4 4 4
          4 4 4 4 4 4
          4 4 4 4 4 4
          4 4 4 4 4 4
          4 4 4 4 4 4
          4 4 4 4 4 4
          4 4 4 4 4 4
          4 4 4 4 4 4
          4 4 4 4 4 4
          4 4 4 4 4 4
          4 4 4 4 4 4
          4 4 4 4 4 4
          4 4 4 4 4 4
          4 4 4 4 4 4
          4 4 4 4 4 4
          4 4 4 4 4 4
          4 4 4 4 4 4
          4 4 4 4 4 4
          4 4 4 4 4 4
          4 4 4 4 4 4
          4 4 4 4 4 4
          4 4 4 4 4 4
          4 4 4 4 4 4
          4 4 4 4 4 4
          4 4 4 4 4 4
          4 4 4 4 4 4
          4 4 4 4 4 4
          4 4 4 4 4 4
          4 4 4 4 4 4
          4 4 4 4 4 4
          4 4 4 4 4 4
          4 4 4 4 4 4
          4 4 4 4 4 4
          4 4 4 4 4 4
          4 4 4 4 4 4
          4 4 4 4 4 4
          4 4 4 4 4 4
          4 4 4 4 4 4
          4 4 4 4 4 4
          4 4 4 4 4 4
          4 4 4 4 4 4
          4 4 4 4 4 4
          4 4 4 4 4 4
          4 4 4 4 4 4
          4 4 4 4 4 4
          4 4 4 4 4 4
          4 4 4 4 4 4
          4 4 4 4 4 4
          4 4 4 4 4 4
          4 4 4 4 4 4
          4 4 4 4 4 4
          4 4 4 4 4 4
          4 4 4 4 4 4
        </DataArray>
      </CellData>
      <Points>
        <DataArray type="Float64" Name="Points" NumberOfComponents="3" format="ascii" RangeMin="0.009206309225653747" RangeMax="0.01648243122598367">
          0.005 0.0086896551724064 0 0.005 0.0086896551724064 0.00015
          0.005 0.0086896551724064 0.0003 0.0045555555555561 0.0091034482758539 0
          0.0045555555555561 0.0091034482758539 0.00015 0.0045555555555561 0.0091034482758539 0.0003
          0.005 0.0091034482758539 0 0.005 0.0091034482758539 0.00015
          0.005 0.0091034482758539 0.0003 0.0023333333333353 0.0095172413793029 0
          0.0023333333333353 0.0095172413793029 0.00015 0.0023333333333353 0.0095172413793029 0.0003
          0.0027777777777802 0.0095172413793029 0 0.0027777777777802 0.0095172413793029 0.00015
          0.0027777777777802 0.0095172413793029 0.0003 0.0032222222222248 0.0095172413793029 0
          0.0032222222222248 0.0095172413793029 0.00015 0.0032222222222248 0.0095172413793029 0.0003
          0.0036666666666675 0.0095172413793029 0 0.0036666666666675 0.0095172413793029 0.00015
          0.0036666666666675 0.0095172413793029 0.0003 0.0041111111111126 0.0095172413793029 0
          0.0041111111111126 0.0095172413793029 0.00015 0.0041111111111126 0.0095172413793029 0.0003
          0.0045555555555561 0.0095172413793029 0 0.0045555555555561 0.0095172413793029 0.00015
          0.0045555555555561 0.0095172413793029 0.0003 0.005 0.0095172413793029 0
          0.005 0.0095172413793029 0.00015 0.005 0.0095172413793029 0.0003
          0.0023333333333355 0.0099310344827529 0 0.0023333333333355 0.0099310344827529 0.00015
          0.0023333333333355 0.0099310344827529 0.0003 0.0027777777777806 0.0099310344827529 0
          0.0027777777777806 0.0099310344827529 0.00015 0.0027777777777806 0.0099310344827529 0.0003
          0.0032222222222251 0.0099310344827529 0 0.0032222222222251 0.0099310344827529 0.00015
          0.0032222222222251 0.0099310344827529 0.0003 0.0036666666666677 0.0099310344827529 0
          0.0036666666666677 0.0099310344827529 0.00015 0.0036666666666677 0.0099310344827529 0.0003
          0.0041111111111127 0.0099310344827529 0 0.0041111111111127 0.0099310344827529 0.00015
          0.0041111111111127 0.0099310344827529 0.0003 0.0045555555555561 0.0099310344827529 0
          0.0045555555555561 0.0099310344827529 0.00015 0.0045555555555561 0.0099310344827529 0.0003
          0.005 0.0099310344827529 0 0.005 0.0099310344827529 0.00015
          0.005 0.0099310344827529 0.0003 0.0018888888888904 0.010344827586203 0
          0.0018888888888904 0.010344827586203 0.00015 0.0018888888888904 0.010344827586203 0.0003
          0.0023333333333357 0.010344827586203 0 0.0023333333333357 0.010344827586203 0.00015
          0.0023333333333357 0.010344827586203 0.0003 0.0027777777777809 0.010344827586203 0
          0.0027777777777809 0.010344827586203 0.00015 0.0027777777777809 0.010344827586203 0.0003
          0.0032222222222255 0.010344827586203 0 0.0032222222222255 0.010344827586203 0.00015
          0.0032222222222255 0.010344827586203 0.0003 0.0036666666666679 0.010344827586203 0
          0.0036666666666679 0.010344827586203 0.00015 0.0036666666666679 0.010344827586203 0.0003
          0.0041111111111129 0.010344827586203 0 0.0041111111111129 0.010344827586203 0.00015
          0.0041111111111129 0.010344827586203 0.0003 0.0045555555555562 0.010344827586203 0
          0.0045555555555562 0.010344827586203 0.00015 0.0045555555555562 0.010344827586203 0.0003
          0.005 0.010344827586203 0 0.005 0.010344827586203 0.00015
          0.005 0.010344827586203 0.0003 0.0018888888888905 0.010758620689653 0
          0.0018888888888905 0.010758620689653 0.00015 0.0018888888888905 0.010758620689653 0.0003
          0.0023333333333359 0.010758620689653 0 0.0023333333333359 0.010758620689653 0.00015
          0.0023333333333359 0.010758620689653 0.0003 0.0027777777777812 0.010758620689653 0
          0.0027777777777812 0.010758620689653 0.00015 0.0027777777777812 0.010758620689653 0.0003
          0.0032222222222258 0.010758620689653 0 0.0032222222222258 0.010758620689653 0.00015
          0.0032222222222258 0.010758620689653 0.0003 0.0036666666666681 0.010758620689653 0
          0.0036666666666681 0.010758620689653 0.00015 0.0036666666666681 0.010758620689653 0.0003
          0.004111111111113 0.010758620689653 0 0.004111111111113 0.010758620689653 0.00015
          0.004111111111113 0.010758620689653 0.0003 0.0045555555555562 0.010758620689653 0
          0.0045555555555562 0.010758620689653 0.00015 0.0045555555555562 0.010758620689653 0.0003
          0.005 0.010758620689653 0 0.005 0.010758620689653 0.00015
          0.005 0.010758620689653 0.0003 0.0018888888888907 0.0111724137931 0
          0.0018888888888907 0.0111724137931 0.00015 0.0018888888888907 0.0111724137931 0.0003
          0.002333333333336 0.0111724137931 0 0.002333333333336 0.0111724137931 0.00015
          0.002333333333336 0.0111724137931 0.0003 0.0027777777777815 0.0111724137931 0
          0.0027777777777815 0.0111724137931 0.00015 0.0027777777777815 0.0111724137931 0.0003
          0.0032222222222261 0.0111724137931 0 0.0032222222222261 0.0111724137931 0.00015
          0.0032222222222261 0.0111724137931 0.0003 0.0036666666666682 0.0111724137931 0
          0.0036666666666682 0.0111724137931 0.00015 0.0036666666666682 0.0111724137931 0.0003
          0.0041111111111132 0.0111724137931 0 0.0041111111111132 0.0111724137931 0.00015
          0.0041111111111132 0.0111724137931 0.0003 0.0045555555555562 0.0111724137931 0
          0.0045555555555562 0.0111724137931 0.00015 0.0045555555555562 0.0111724137931 0.0003
          0.005 0.0111724137931 0 0.005 0.0111724137931 0.00015
          0.005 0.0111724137931 0.0003 0.0018888888888908 0.01158620689655 0
          0.0018888888888908 0.01158620689655 0.00015 0.0018888888888908 0.01158620689655 0.0003
          0.0023333333333362 0.01158620689655 0 0.0023333333333362 0.01158620689655 0.00015
          0.0023333333333362 0.01158620689655 0.0003 0.0027777777777818 0.01158620689655 0
          0.0027777777777818 0.01158620689655 0.00015 0.0027777777777818 0.01158620689655 0.0003
          0.0032222222222264 0.01158620689655 0 0.0032222222222264 0.01158620689655 0.00015
          0.0032222222222264 0.01158620689655 0.0003 0.0036666666666684 0.01158620689655 0
          0.0036666666666684 0.01158620689655 0.00015 0.0036666666666684 0.01158620689655 0.0003
          0.0041111111111133 0.01158620689655 0 0.0041111111111133 0.01158620689655 0.00015
          0.0041111111111133 0.01158620689655 0.0003 0.0045555555555563 0.01158620689655 0
          0.0045555555555563 0.01158620689655 0.00015 0.0045555555555563 0.01158620689655 0.0003
          0.005 0.01158620689655 0 0.005 0.01158620689655 0.00015
          0.005 0.01158620689655 0.0003 0.0018888888888909 0.012 0
          0.0018888888888909 0.012 0.00015 0.0018888888888909 0.012 0.0003
          0.0023333333333364 0.012 0 0.0023333333333364 0.012 0.00015
          0.0023333333333364 0.012 0.0003 0.0027777777777821 0.012 0
          0.0027777777777821 0.012 0.00015 0.0027777777777821 0.012 0.0003
          0.0032222222222267 0.012 0 0.0032222222222267 0.012 0.00015
          0.0032222222222267 0.012 0.0003 0.0036666666666686 0.012 0
          0.0036666666666686 0.012 0.00015 0.0036666666666686 0.012 0.0003
          0.0041111111111135 0.012 0 0.0041111111111135 0.012 0.00015
          0.0041111111111135 0.012 0.0003 0.0045555555555563 0.012 0
          0.0045555555555563 0.012 0.00015 0.0045555555555563 0.012 0.0003
          0.005 0.012 0 0.005 0.012 0.00015
          0.005 0.012 0.0003 0.0037820013226837 0.012336480560236 0
          0.004185794034024 0.012345264070133 0 0.0042342826387353 0.012652901224832 0
          0.0038676442772706 0.012640465852933 0 0.0037820013226837 0.012336480560236 0.00015
          0.004185794034024 0.012345264070133 0.00015 0.0042342826387353 0.012652901224832 0.00015
          0.0038676442772706 0.012640465852933 0.00015 0.0037820013226837 0.012336480560236 0.0003
          0.004185794034024 0.012345264070133 0.0003 0.0042342826387353 0.012652901224832 0.0003
          0.0038676442772706 0.012640465852933 0.0003 0.0025889714655165 0.012382221976315 0
          0.0025681692138844 0.01272809974993 0 0.0020604062010233 0.012679406151259 0
          0.0021948734460593 0.012348192846391 0 0.0025889714655165 0.012382221976315 0.00015
          0.0025681692138844 0.01272809974993 0.00015 0.0020604062010233 0.012679406151259 0.00015
          0.0021948734460593 0.012348192846391 0.00015 0.0025889714655165 0.012382221976315 0.0003
          0.0025681692138844 0.01272809974993 0.0003 0.0020604062010233 0.012679406151259 0.0003
          0.0021948734460593 0.012348192846391 0.0003 0.0029921846324185 0.012381457466683 0
          0.0030781171064664 0.012687491868191 0 0.0029921846324185 0.012381457466683 0.00015
          0.0030781171064664 0.012687491868191 0.00015 0.0029921846324185 0.012381457466683 0.0003
          0.0030781171064664 0.012687491868191 0.0003 0.0035064061826528 0.012674722493539 0
          0.0033673902656471 0.012343623774248 0 0.0035064061826528 0.012674722493539 0.00015
          0.0033673902656471 0.012343623774248 0.00015 0.0035064061826528 0.012674722493539 0.0003
          0.0033673902656471 0.012343623774248 0.0003 0.0045893247731344 0.012399526217393 0
          0.004557077400537 0.01272310643902 0 0.0045893247731344 0.012399526217393 0.00015
          0.004557077400537 0.01272310643902 0.00015 0.0045893247731344 0.012399526217393 0.0003
          0.004557077400537 0.01272310643902 0.0003 0.0017386847932316 0.012348636106575 0
          0.001702980389272 0.012655949584096 0 0.0017386847932316 0.012348636106575 0.00015
          0.001702980389272 0.012655949584096 0.00015 0.0017386847932316 0.012348636106575 0.0003
          0.001702980389272 0.012655949584096 0.0003 0.0045555555555563 0.013 0
          0.0041111111111135 0.013 0 0.0045555555555563 0.013 0.00015
          0.0041111111111135 0.013 0.00015 0.0045555555555563 0.013 0.0003
          0.0041111111111135 0.013 0.0003 0.005 0.012499999999989 0
          0.005 0.012499999999989 0.00015 0.005 0.012499999999989 0.0003
          0.0018888888888909 0.013 0 0.0018888888888909 0.013 0.00015
          0.0018888888888909 0.013 0.0003 0.0023333333333364 0.013 0
          0.0023333333333364 0.013 0.00015 0.0023333333333364 0.013 0.0003
          0.0027777777777821 0.013 0 0.0032222222222267 0.013 0
          0.0027777777777821 0.013 0.00015 0.0032222222222267 0.013 0.00015
          0.0027777777777821 0.013 0.0003 0.0032222222222267 0.013 0.0003
          0.0036666666666686 0.013 0 0.0036666666666686 0.013 0.00015
          0.0036666666666686 0.013 0.0003 0.005 0.013 0
          0.005 0.013 0.00015 0.005 0.013 0.0003
          0.0058653844060618 0.0079194158644502 0 0.0058653844060618 0.0079194158644502 0.00015
          0.0058653844060618 0.0079194158644502 0.0003 0.0054092385319303 0.011645775400863 0
          0.0053833488776842 0.01122289251627 0 0.0057681451700529 0.011227839215398 0
          0.0058121034548515 0.011664867476358 0 0.0054092385319303 0.011645775400863 0.00015
          0.0053833488776842 0.01122289251627 0.00015 0.0057681451700529 0.011227839215398 0.00015
          0.0058121034548515 0.011664867476358 0.00015 0.0054092385319303 0.011645775400863 0.0003
          0.0053833488776842 0.01122289251627 0.0003 0.0057681451700529 0.011227839215398 0.0003
          0.0058121034548515 0.011664867476358 0.0003 0.0061750164335738 0.0074760206739226 0
          0.0061750164335738 0.0074760206739226 0.00015 0.0061750164335738 0.0074760206739226 0.0003
          0.0059117305299751 0.012157336766967 0 0.005424823391927 0.012092657417535 0
          0.0059117305299751 0.012157336766967 0.00015 0.005424823391927 0.012092657417535 0.00015
          0.0059117305299751 0.012157336766967 0.0003 0.005424823391927 0.012092657417535 0.0003
          0.0067343691031854 0.0082749920647978 0 0.0064165220606644 0.0085260954574503 0
          0.0061549788754448 0.0084621147205563 0 0.0063465715243025 0.0080645757596712 0
          0.0067343691031854 0.0082749920647978 0.00015 0.0064165220606644 0.0085260954574503 0.00015
          0.0061549788754448 0.0084621147205563 0.00015 0.0063465715243025 0.0080645757596712 0.00015
          0.0067343691031854 0.0082749920647978 0.0003 0.0064165220606644 0.0085260954574503 0.0003
          0.0061549788754448 0.0084621147205563 0.0003 0.0063465715243025 0.0080645757596712 0.0003
          0.0057156085606184 0.010806935576218 0 0.0053556270258422 0.010821833746382 0
          0.0057156085606184 0.010806935576218 0.00015 0.0053556270258422 0.010821833746382 0.00015
          0.0057156085606184 0.010806935576218 0.0003 0.0053556270258422 0.010821833746382 0.0003
          0.0066683322798844 0.007604545062767 0 0.0070645065688863 0.0079329639302151 0
          0.0066683322798844 0.007604545062767 0.00015 0.0070645065688863 0.0079329639302151 0.00015
          0.0066683322798844 0.007604545062767 0.0003 0.0070645065688863 0.0079329639302151 0.0003
          0.0064939459679252 0.012038015964773 0 0.0063228400853618 0.012437164584428 0
          0.0062168099714575 0.011953445524179 0 0.0064939459679252 0.012038015964773 0.00015
          0.0063228400853618 0.012437164584428 0.00015 0.0062168099714575 0.011953445524179 0.00015
          0.0064939459679252 0.012038015964773 0.0003 0.0063228400853618 0.012437164584428 0.0003
          0.0062168099714575 0.011953445524179 0.0003 0.0085394683783431 0.010062707851298 0
          0.0089610661825476 0.0099263712092025 0 0.0091044702108566 0.010399281799278 0
          0.0086466489465924 0.010543823526793 0 0.0085394683783431 0.010062707851298 0.00015
          0.0089610661825476 0.0099263712092025 0.00015 0.0091044702108566 0.010399281799278 0.00015
          0.0086466489465924 0.010543823526793 0.00015 0.0085394683783431 0.010062707851298 0.0003
          0.0089610661825476 0.0099263712092025 0.0003 0.0091044702108566 0.010399281799278 0.0003
          0.0086466489465924 0.010543823526793 0.0003 0.0070988195317831 0.0084027120924791 0
          0.0071605082668525 0.0086998196459927 0 0.0067922174506807 0.0087792626202703 0
          0.0070988195317831 0.0084027120924791 0.00015 0.0071605082668525 0.0086998196459927 0.00015
          0.0067922174506807 0.0087792626202703 0.00015 0.0070988195317831 0.0084027120924791 0.0003
          0.0071605082668525 0.0086998196459927 0.0003 0.0067922174506807 0.0087792626202703 0.0003
          0.0082212914374119 0.0076937845711927 0 0.0086800066977864 0.007743247126247 0
          0.0088477729813042 0.00814241905886 0 0.0083314775318771 0.0082316914297717 0
          0.0082212914374119 0.0076937845711927 0.00015 0.0086800066977864 0.007743247126247 0.00015
          0.0088477729813042 0.00814241905886 0.00015 0.0083314775318771 0.0082316914297717 0.00015
          0.0082212914374119 0.0076937845711927 0.0003 0.0086800066977864 0.007743247126247 0.0003
          0.0088477729813042 0.00814241905886 0.0003 0.0083314775318771 0.0082316914297717 0.0003
          0.0053430701544214 0.010541301697294 0 0.0055999206723275 0.01043253025418 0
          0.0053430701544214 0.010541301697294 0.00015 0.0055999206723275 0.01043253025418 0.00015
          0.0053430701544214 0.010541301697294 0.0003 0.0055999206723275 0.01043253025418 0.0003
          0.0082934157409751 0.011625007594535 0 0.0082561968973057 0.011128478524087 0
          0.0087259762319724 0.011059252375005 0 0.0087558560903097 0.01158375342748 0
          0.0082934157409751 0.011625007594535 0.00015 0.0082561968973057 0.011128478524087 0.00015
          0.0087259762319724 0.011059252375005 0.00015 0.0087558560903097 0.01158375342748 0.00015
          0.0082934157409751 0.011625007594535 0.0003 0.0082561968973057 0.011128478524087 0.0003
          0.0087259762319724 0.011059252375005 0.0003 0.0087558560903097 0.01158375342748 0.0003
          0.0059886023840467 0.010204624020488 0 0.005451541046517 0.010106162675601 0
          0.0057038380696848 0.0099786893665285 0 0.0059886023840467 0.010204624020488 0.00015
          0.005451541046517 0.010106162675601 0.00015 0.0057038380696848 0.0099786893665285 0.00015
          0.0059886023840467 0.010204624020488 0.0003 0.005451541046517 0.010106162675601 0.0003
          0.0057038380696848 0.0099786893665285 0.0003 0.0078369912454539 0.011665931946432 0
          0.0078144148304188 0.011182309200361 0 0.0078369912454539 0.011665931946432 0.00015
          0.0078144148304188 0.011182309200361 0.00015 0.0078369912454539 0.011665931946432 0.0003
          0.0078144148304188 0.011182309200361 0.0003 0.0086735759699153 0.012550377000034 0
          0.0087327775394086 0.012086203404192 0 0.0091819131238462 0.012082911785298 0
          0.0091730578335362 0.01253941989127 0 0.0086735759699153 0.012550377000034 0.00015
          0.0087327775394086 0.012086203404192 0.00015 0.0091819131238462 0.012082911785298 0.00015
          0.0091730578335362 0.01253941989127 0.00015 0.0086735759699153 0.012550377000034 0.0003
          0.0087327775394086 0.012086203404192 0.0003 0.0091819131238462 0.012082911785298 0.0003
          0.0091730578335362 0.01253941989127 0.0003 0.010056105947498 0.011950542930398 0
          0.010274327777913 0.011549885364188 0 0.010056105947498 0.011950542930398 0.00015
          0.010274327777913 0.011549885364188 0.00015 0.010056105947498 0.011950542930398 0.0003
          0.010274327777913 0.011549885364188 0.0003 0.0087795014641276 0.0086485955844896 0
          0.0083912374962093 0.008661976024637 0 0.0087795014641276 0.0086485955844896 0.00015
          0.0083912374962093 0.008661976024637 0.00015 0.0087795014641276 0.0086485955844896 0.0003
          0.0083912374962093 0.008661976024637 0.0003 0.0073407145553935 0.0082277946262138 0
          0.0075218701602762 0.0085641736532836 0 0.0073407145553935 0.0082277946262138 0.00015
          0.0075218701602762 0.0085641736532836 0.00015 0.0073407145553935 0.0082277946262138 0.0003
          0.0075218701602762 0.0085641736532836 0.0003 0.0073357310625303 0.010250124356937 0
          0.0069197896843151 0.010226005241683 0 0.0068905371289043 0.0097153304797672 0
          0.0074001182371208 0.0096888945892578 0 0.0073357310625303 0.010250124356937 0.00015
          0.0069197896843151 0.010226005241683 0.00015 0.0068905371289043 0.0097153304797672 0.00015
          0.0074001182371208 0.0096888945892578 0.00015 0.0073357310625303 0.010250124356937 0.0003
          0.0069197896843151 0.010226005241683 0.0003 0.0068905371289043 0.0097153304797672 0.0003
          0.0074001182371208 0.0096888945892578 0.0003 0.0081958803856553 0.010639401227375 0
          0.0081958803856553 0.010639401227375 0.00015 0.0081958803856553 0.010639401227375 0.0003
          0.0057785311780113 0.0084598603588589 0 0.0057785311780113 0.0084598603588589 0.00015
          0.0057785311780113 0.0084598603588589 0.0003 0.0068354780286894 0.0065149558629347 0
          0.0065694481807909 0.0068273110654121 0 0.0068354780286894 0.0065149558629347 0.00015
          0.0065694481807909 0.0068273110654121 0.00015 0.0068354780286894 0.0065149558629347 0.0003
          0.0065694481807909 0.0068273110654121 0.0003 0.0061608287914901 0.011213609336371 0
          0.0061928612734976 0.011646193292464 0 0.0061608287914901 0.011213609336371 0.00015
          0.0061928612734976 0.011646193292464 0.00015 0.0061608287914901 0.011213609336371 0.0003
          0.0061928612734976 0.011646193292464 0.0003 0.0060256410256453 0.013 0
          0.0057791181770977 0.012558961975135 0 0.0060256410256453 0.013 0.00015
          0.0057791181770977 0.012558961975135 0.00015 0.0060256410256453 0.013 0.0003
          0.0057791181770977 0.012558961975135 0.0003 0.0061071771839093 0.010748184383761 0
          0.0061071771839093 0.010748184383761 0.00015 0.0061071771839093 0.010748184383761 0.0003
          0.0064845320073614 0.010216336118065 0 0.0065278935143817 0.010725783571784 0
          0.0064845320073614 0.010216336118065 0.00015 0.0065278935143817 0.010725783571784 0.00015
          0.0064845320073614 0.010216336118065 0.0003 0.0065278935143817 0.010725783571784 0.0003
          0.0077968354342878 0.012121840026842 0 0.0077167513193965 0.012573751507337 0
          0.0072251022123942 0.012571145425366 0 0.0073422863282366 0.012132364188728 0
          0.0077968354342878 0.012121840026842 0.00015 0.0077167513193965 0.012573751507337 0.00015
          0.0072251022123942 0.012571145425366 0.00015 0.0073422863282366 0.012132364188728 0.00015
          0.0077968354342878 0.012121840026842 0.0003 0.0077167513193965 0.012573751507337 0.0003
          0.0072251022123942 0.012571145425366 0.0003 0.0073422863282366 0.012132364188728 0.0003
          0.0072550033809581 0.0091349332579085 0 0.0076541519095837 0.0089672912460138 0
          0.0072550033809581 0.0091349332579085 0.00015 0.0076541519095837 0.0089672912460138 0.00015
          0.0072550033809581 0.0091349332579085 0.0003 0.0076541519095837 0.0089672912460138 0.0003
          0.0065384615384679 0.013 0 0.0067552646820212 0.012548340065985 0
          0.007051282051287 0.013 0 0.0065384615384679 0.013 0.00015
          0.0067552646820212 0.012548340065985 0.00015 0.007051282051287 0.013 0.00015
          0.0065384615384679 0.013 0.0003 0.0067552646820212 0.012548340065985 0.0003
          0.007051282051287 0.013 0.0003 0.0068431084681841 0.0092248064360522 0
          0.0064629827835734 0.0097214310503871 0 0.0064401841603361 0.009249995775159 0
          0.0068431084681841 0.0092248064360522 0.00015 0.0064629827835734 0.0097214310503871 0.00015
          0.0064401841603361 0.009249995775159 0.00015 0.0068431084681841 0.0092248064360522 0.0003
          0.0064629827835734 0.0097214310503871 0.0003 0.0064401841603361 0.009249995775159 0.0003
          0.0078142698619037 0.0093821750433109 0 0.0078142698619037 0.0093821750433109 0.00015
          0.0078142698619037 0.0093821750433109 0.0003 0.0064227954769353 0.0088235452462607 0
          0.0064227954769353 0.0088235452462607 0.00015 0.0064227954769353 0.0088235452462607 0.0003
          0.0060749446210727 0.008846093909968 0 0.0060643722245677 0.0092551370126649 0
          0.0060749446210727 0.008846093909968 0.00015 0.0060643722245677 0.0092551370126649 0.00015
          0.0060749446210727 0.008846093909968 0.0003 0.0060643722245677 0.0092551370126649 0.0003
          0.0065702926001918 0.011654169374977 0 0.006566373886869 0.011214840249119 0
          0.0065702926001918 0.011654169374977 0.00015 0.006566373886869 0.011214840249119 0.00015
          0.0065702926001918 0.011654169374977 0.0003 0.006566373886869 0.011214840249119 0.0003
          0.0093206781870799 0.010991873758601 0 0.0093206781870799 0.010991873758601 0.00015
          0.0093206781870799 0.010991873758601 0.0003 0.0063586074578252 0.0071353312088165 0
          0.0066361392369192 0.0072470897144222 0 0.0063586074578252 0.0071353312088165 0.00015
          0.0066361392369192 0.0072470897144222 0.00015 0.0063586074578252 0.0071353312088165 0.0003
          0.0066361392369192 0.0072470897144222 0.0003 0.0070635342364542 0.0061542378287001 0
          0.0070635342364542 0.0061542378287001 0.00015 0.0070635342364542 0.0061542378287001 0.0003
          0.010295501843898 0.0098988447327244 0 0.010331968632679 0.010177975560165 0
          0.0100990439633 0.010345969653311 0 0.0099255608427027 0.010003443747144 0
          0.010295501843898 0.0098988447327244 0.00015 0.010331968632679 0.010177975560165 0.00015
          0.0100990439633 0.010345969653311 0.00015 0.0099255608427027 0.010003443747144 0.00015
          0.010295501843898 0.0098988447327244 0.0003 0.010331968632679 0.010177975560165 0.0003
          0.0100990439633 0.010345969653311 0.0003 0.0099255608427027 0.010003443747144 0.0003
          0.0075641025641077 0.013 0 0.0075641025641077 0.013 0.00015
          0.0075641025641077 0.013 0.0003 0.007358052416256 0.010740056955422 0
          0.0069470918478694 0.010735576046615 0 0.007358052416256 0.010740056955422 0.00015
          0.0069470918478694 0.010735576046615 0.00015 0.007358052416256 0.010740056955422 0.0003
          0.0069470918478694 0.010735576046615 0.0003 0.0060634003212644 0.00969554800092 0
          0.0060634003212644 0.00969554800092 0.00015 0.0060634003212644 0.00969554800092 0.0003
          0.0068797309840753 0.0070620910964483 0 0.0071475509773245 0.0073405239650904 0
          0.0068797309840753 0.0070620910964483 0.00015 0.0071475509773245 0.0073405239650904 0.00015
          0.0068797309840753 0.0070620910964483 0.0003 0.0071475509773245 0.0073405239650904 0.0003
          0.0094632087818517 0.0081862945076399 0 0.0094632087818517 0.0081862945076399 0.00015
          0.0094632087818517 0.0081862945076399 0.0003 0.0091025641025756 0.013 0
          0.0097400134531557 0.012425583162504 0 0.0096153846153981 0.013 0
          0.0091025641025756 0.013 0.00015 0.0097400134531557 0.012425583162504 0.00015
          0.0096153846153981 0.013 0.00015 0.0091025641025756 0.013 0.0003
          0.0097400134531557 0.012425583162504 0.0003 0.0096153846153981 0.013 0.0003
          0.0080231150782377 0.0087799001252051 0 0.0081700325353194 0.0091480386714452 0
          0.0080231150782377 0.0087799001252051 0.00015 0.0081700325353194 0.0091480386714452 0.00015
          0.0080231150782377 0.0087799001252051 0.0003 0.0081700325353194 0.0091480386714452 0.0003
          0.0095329104644106 0.010197774343332 0 0.0097620082938393 0.010606176712681 0
          0.0095329104644106 0.010197774343332 0.00015 0.0097620082938393 0.010606176712681 0.00015
          0.0095329104644106 0.010197774343332 0.0003 0.0097620082938393 0.010606176712681 0.0003
          0.008459458524824 0.0095324383395712 0 0.0079941048127097 0.0097727986382514 0
          0.008459458524824 0.0095324383395712 0.00015 0.0079941048127097 0.0097727986382514 0.00015
          0.008459458524824 0.0095324383395712 0.0003 0.0079941048127097 0.0097727986382514 0.0003
          0.0086852410268287 0.0090671784981495 0 0.0084121010432185 0.0089624922946051 0
          0.0086852410268287 0.0090671784981495 0.00015 0.0084121010432185 0.0089624922946051 0.00015
          0.0086852410268287 0.0090671784981495 0.0003 0.0084121010432185 0.0089624922946051 0.0003
          0.010101546658348 0.010930204106287 0 0.010101546658348 0.010930204106287 0.00015
          0.010101546658348 0.010930204106287 0.0003 0.009219770580739 0.01160836207586 0
          0.009219770580739 0.01160836207586 0.00015 0.009219770580739 0.01160836207586 0.0003
          0.010512959331867 0.011182607317474 0 0.010512959331867 0.011182607317474 0.00015
          0.010512959331867 0.011182607317474 0.0003 0.0077135351973544 0.0099243016659867 0
          0.0077135351973544 0.0099243016659867 0.00015 0.0077135351973544 0.0099243016659867 0.0003
          0.0098399724462143 0.011314297129672 0 0.0098399724462143 0.011314297129672 0.00015
          0.0098399724462143 0.011314297129672 0.0003 0.0071955324717728 0.0067909271139751 0
          0.0071955324717728 0.0067909271139751 0.00015 0.0071955324717728 0.0067909271139751 0.0003
          0.0081933420545987 0.012561933470251 0 0.0082754308174791 0.012106448253662 0
          0.0081933420545987 0.012561933470251 0.00015 0.0082754308174791 0.012106448253662 0.00015
          0.0081933420545987 0.012561933470251 0.0003 0.0082754308174791 0.012106448253662 0.0003
          0.0091885294783446 0.0083400759786555 0 0.009185366627384 0.008676208234384 0
          0.0091885294783446 0.0083400759786555 0.00015 0.009185366627384 0.008676208234384 0.00015
          0.0091885294783446 0.0083400759786555 0.0003 0.009185366627384 0.008676208234384 0.0003
          0.0091484396571168 0.0092413935725907 0 0.0091484396571168 0.0092413935725907 0.00015
          0.0091484396571168 0.0092413935725907 0.0003 0.0096530361744126 0.011754958706862 0
          0.0096530361744126 0.011754958706862 0.00015 0.0096530361744126 0.011754958706862 0.0003
          0.0074385983748104 0.0076487872335333 0 0.0078026145042184 0.0073499712891003 0
          0.0077209126941719 0.0079857422349365 0 0.0074385983748104 0.0076487872335333 0.00015
          0.0078026145042184 0.0073499712891003 0.00015 0.0077209126941719 0.0079857422349365 0.00015
          0.0074385983748104 0.0076487872335333 0.0003 0.0078026145042184 0.0073499712891003 0.0003
          0.0077209126941719 0.0079857422349365 0.0003 0.0096060866574151 0.0086034051599073 0
          0.0096917093907041 0.0090884547689663 0 0.0096060866574151 0.0086034051599073 0.00015
          0.0096917093907041 0.0090884547689663 0.00015 0.0096060866574151 0.0086034051599073 0.0003
          0.0096917093907041 0.0090884547689663 0.0003 0.0074956671905203 0.0070789212715492 0
          0.0074956671905203 0.0070789212715492 0.00015 0.0074956671905203 0.0070789212715492 0.0003
          0.0080769230769304 0.013 0 0.0080769230769304 0.013 0.00015
          0.0080769230769304 0.013 0.0003 0.0097960013481072 0.0095766790072516 0
          0.0097960013481072 0.0095766790072516 0.00015 0.0097960013481072 0.0095766790072516 0.0003
          0.0079025965714766 0.0083828176281282 0 0.0079025965714766 0.0083828176281282 0.00015
          0.0079025965714766 0.0083828176281282 0.0003 0.0075832963246375 0.0064815260672887 0
          0.0075832963246375 0.0064815260672887 0.00015 0.0075832963246375 0.0064815260672887 0.0003
          0.0077301559610225 0.010254379585944 0 0.0077301559610225 0.010254379585944 0.00015
          0.0077301559610225 0.010254379585944 0.0003 0.0077729216102883 0.010708725243031 0
          0.0077729216102883 0.010708725243031 0.00015 0.0077729216102883 0.010708725243031 0.0003
          0.0053754057810206 0.0085370600870078 0 0.0053754057810206 0.0085370600870078 0.00015
          0.0053754057810206 0.0085370600870078 0.0003 0.0053590367872451 0.0089652268696161 0
          0.0053590367872451 0.0089652268696161 0.00015 0.0053590367872451 0.0089652268696161 0.0003
          0.0077314143265107 0.0068791993815975 0 0.0077314143265107 0.0068791993815975 0.00015
          0.0077314143265107 0.0068791993815975 0.0003 0.0053527694027008 0.0093707431616054 0
          0.0053527694027008 0.0093707431616054 0.00015 0.0053527694027008 0.0093707431616054 0.0003
          0.0080272182678723 0.0070086219794164 0 0.0080272182678723 0.0070086219794164 0.00015
          0.0080272182678723 0.0070086219794164 0.0003 0.0053686841699875 0.0097656204902227 0
          0.0053686841699875 0.0097656204902227 0.00015 0.0053686841699875 0.0097656204902227 0.0003
          0.0069753270353201 0.011225035595701 0 0.0069753270353201 0.011225035595701 0.00015
          0.0069753270353201 0.011225035595701 0.0003 0.0081230348422786 0.010180774741819 0
          0.0081230348422786 0.010180774741819 0.00015 0.0081230348422786 0.010180774741819 0.0003
          0.0069714542407681 0.011681487349241 0 0.0069714542407681 0.011681487349241 0.00015
          0.0069714542407681 0.011681487349241 0.0003 0.0073877269320336 0.011214628569732 0
          0.0073877269320336 0.011214628569732 0.00015 0.0073877269320336 0.011214628569732 0.0003
          0.0073992085993983 0.011689991378362 0 0.0073992085993983 0.011689991378362 0.00015
          0.0073992085993983 0.011689991378362 0.0003 0.0088599825232994 0.0095868605102716 0
          0.0088599825232994 0.0095868605102716 0.00015 0.0088599825232994 0.0095868605102716 0.0003
          0.0093698999071837 0.0097470513643601 0 0.0093698999071837 0.0097470513643601 0.00015
          0.0093698999071837 0.0097470513643601 0.0003 0.005708830284701 0.0092938500467527 0
          0.005710003284826 0.0096895337898706 0 0.005708830284701 0.0092938500467527 0.00015
          0.005710003284826 0.0096895337898706 0.00015 0.005708830284701 0.0092938500467527 0.0003
          0.005710003284826 0.0096895337898706 0.0003 0.0057253261942579 0.008884797777202 0
          0.0057253261942579 0.008884797777202 0.00015 0.0057253261942579 0.008884797777202 0.0003
          0.0054465956081518 0.012540682824845 0 0.0055128205128226 0.013 0
          0.0054465956081518 0.012540682824845 0.00015 0.0055128205128226 0.013 0.00015
          0.0054465956081518 0.012540682824845 0.0003 0.0055128205128226 0.013 0.0003
          0.0095150035075373 0.012074113937236 0 0.0095150035075373 0.012074113937236 0.00015
          0.0095150035075373 0.012074113937236 0.0003 0.008589743589753 0.013 0
          0.008589743589753 0.013 0.00015 0.008589743589753 0.013 0.0003
          0.0068932543961937 0.012102712522565 0 0.0068932543961937 0.012102712522565 0.00015
          0.0068932543961937 0.012102712522565 0.0003 0.010475172867508 0.012102844227475 0
          0.010669582432454 0.011743114144408 0 0.010475172867508 0.012102844227475 0.00015
          0.010669582432454 0.011743114144408 0.00015 0.010475172867508 0.012102844227475 0.0003
          0.010669582432454 0.011743114144408 0.0003 0.0098857235699117 0.0079055319030787 0
          0.0092411258002763 0.0078319639415625 0 0.0095144479526816 0.0076594245921199 0
          0.0098857235699117 0.0079055319030787 0.00015 0.0092411258002763 0.0078319639415625 0.00015
          0.0095144479526816 0.0076594245921199 0.00015 0.0098857235699117 0.0079055319030787 0.0003
          0.0092411258002763 0.0078319639415625 0.0003 0.0095144479526816 0.0076594245921199 0.0003
          0.010385522435479 0.010608007769118 0 0.010385522435479 0.010608007769118 0.00015
          0.010385522435479 0.010608007769118 0.0003 0.010783127360108 0.010836567412064 0
          0.010783127360108 0.010836567412064 0.00015 0.010783127360108 0.010836567412064 0.0003
          0.010310686327751 0.012539165738252 0 0.010128205128219 0.013 0
          0.010310686327751 0.012539165738252 0.00015 0.010128205128219 0.013 0.00015
          0.010310686327751 0.012539165738252 0.0003 0.010128205128219 0.013 0.0003
          0.011222013645511 0.011097826594996 0 0.010925822172272 0.011428925131881 0
          0.011222013645511 0.011097826594996 0.00015 0.010925822172272 0.011428925131881 0.00015
          0.011222013645511 0.011097826594996 0.0003 0.010925822172272 0.011428925131881 0.0003
          0.010158980545183 0.0089928081418126 0 0.010234809282542 0.0094751596931164 0
          0.010158980545183 0.0089928081418126 0.00015 0.010234809282542 0.0094751596931164 0.00015
          0.010158980545183 0.0089928081418126 0.0003 0.010234809282542 0.0094751596931164 0.0003
          0.010689703280164 0.0094649590365737 0 0.010691300612525 0.0099168298135774 0
          0.010689703280164 0.0094649590365737 0.00015 0.010691300612525 0.0099168298135774 0.00015
          0.010689703280164 0.0094649590365737 0.0003 0.010691300612525 0.0099168298135774 0.0003
          0.010057653370411 0.0084974472595183 0 0.010057653370411 0.0084974472595183 0.00015
          0.010057653370411 0.0084974472595183 0.0003 0.0071984303565192 0.0057392272964834 0
          0.0077721363879251 0.0058968168784219 0 0.0071984303565192 0.0057392272964834 0.00015
          0.0077721363879251 0.0058968168784219 0.00015 0.0071984303565192 0.0057392272964834 0.0003
          0.0077721363879251 0.0058968168784219 0.0003 0.0089588909882048 0.0073942383853577 0
          0.0089588909882048 0.0073942383853577 0.00015 0.0089588909882048 0.0073942383853577 0.0003
          0.0081402125110085 0.0066115625704341 0 0.0082479601882269 0.0062087007836213 0
          0.0081402125110085 0.0066115625704341 0.00015 0.0082479601882269 0.0062087007836213 0.00015
          0.0081402125110085 0.0066115625704341 0.0003 0.0082479601882269 0.0062087007836213 0.0003
          0.0084364690699339 0.0071912877673881 0 0.0084364690699339 0.0071912877673881 0.00015
          0.0084364690699339 0.0071912877673881 0.0003 0.010601303654319 0.010290632654442 0
          0.010601303654319 0.010290632654442 0.00015 0.010601303654319 0.010290632654442 0.0003
          0.0085681017610313 0.0067725899286886 0 0.0085681017610313 0.0067725899286886 0.00015
          0.0085681017610313 0.0067725899286886 0.0003
          <InformationKey name="L2_NORM_RANGE" location="vtkDataArray" length="2">
            <Value index="0">
              0.0092063092257
            </Value>
            <Value index="1">
              0.016482431226
            </Value>
          </InformationKey>
        </DataArray>
      </Points>
      <Cells>
        <DataArray type="Int64" Name="connectivity" format="ascii" RangeMin="0" RangeMax="782">
          27 24 3 6 28 25
          4 7 28 25 4 7
          29 26 5 8 33 30
          9 12 34 31 10 13
          34 31 10 13 35 32
          11 14 36 33 12 15
          37 34 13 16 37 34
          13 16 38 35 14 17
          39 36 15 18 40 37
          16 19 40 37 16 19
          41 38 17 20 42 39
          18 21 43 40 19 22
          43 40 19 22 44 41
          20 23 45 42 21 24
          46 43 22 25 46 43
          22 25 47 44 23 26
          48 45 24 27 49 46
          25 28 49 46 25 28
          50 47 26 29 57 54
          30 33 58 55 31 34
          58 55 31 34 59 56
          32 35 60 57 33 36
          61 58 34 37 61 58
          34 37 62 59 35 38
          63 60 36 39 64 61
          37 40 64 61 37 40
          65 62 38 41 66 63
          39 42 67 64 40 43
          67 64 40 43 68 65
          41 44 69 66 42 45
          70 67 43 46 70 67
          43 46 71 68 44 47
          72 69 45 48 73 70
          46 49 73 70 46 49
          74 71 47 50 78 75
          51 54 79 76 52 55
          79 76 52 55 80 77
          53 56 81 78 54 57
          82 79 55 58 82 79
          55 58 83 80 56 59
          84 81 57 60 85 82
          58 61 85 82 58 61
          86 83 59 62 87 84
          60 63 88 85 61 64
          88 85 61 64 89 86
          62 65 90 87 63 66
          91 88 64 67 91 88
          64 67 92 89 65 68
          93 90 66 69 94 91
          67 70 94 91 67 70
          95 92 68 71 96 93
          69 72 97 94 70 73
          97 94 70 73 98 95
          71 74 102 99 75 78
          103 100 76 79 103 100
          76 79 104 101 77 80
          105 102 78 81 106 103
          79 82 106 103 79 82
          107 104 80 83 108 105
          81 84 109 106 82 85
          109 106 82 85 110 107
          83 86 111 108 84 87
          112 109 85 88 112 109
          85 88 113 110 86 89
          114 111 87 90 115 112
          88 91 115 112 88 91
          116 113 89 92 117 114
          90 93 118 115 91 94
          118 115 91 94 119 116
          92 95 120 117 93 96
          121 118 94 97 121 118
          94 97 122 119 95 98
          126 123 99 102 127 124
          100 103 127 124 100 103
          128 125 101 104 129 126
          102 105 130 127 103 106
          130 127 103 106 131 128
          104 107 132 129 105 108
          133 130 106 109 133 130
          106 109 134 131 107 110
          135 132 108 111 136 133
          109 112 136 133 109 112
          137 134 110 113 138 135
          111 114 139 136 112 115
          139 136 112 115 140 137
          113 116 141 138 114 117
          142 139 115 118 142 139
          115 118 143 140 116 119
          144 141 117 120 145 142
          118 121 145 142 118 121
          146 143 119 122 150 147
          123 126 151 148 124 127
          151 148 124 127 152 149
          125 128 153 150 126 129
          154 151 127 130 154 151
          127 130 155 152 128 131
          156 153 129 132 157 154
          130 133 157 154 130 133
          158 155 131 134 159 156
          132 135 160 157 133 136
          160 157 133 136 161 158
          134 137 162 159 135 138
          163 160 136 139 163 160
          136 139 164 161 137 140
          165 162 138 141 166 163
          139 142 166 163 139 142
          167 164 140 143 168 165
          141 144 169 166 142 145
          169 166 142 145 170 167
          143 146 171 172 173 174
          175 176 177 178 175 176
          177 178 179 180 181 182
          183 184 185 186 187 188
          189 190 187 188 189 190
          191 192 193 194 183 195
          196 184 187 197 198 188
          187 197 198 188 191 199
          200 192 201 202 171 174
          203 204 175 178 203 204
          175 178 205 206 179 182
          173 172 207 208 177 176
          209 210 177 176 209 210
          181 180 211 212 202 201
          196 195 204 203 198 197
          204 203 198 197 206 205
          200 199 213 186 185 214
          215 190 189 216 215 190
          189 216 217 194 193 218
          162 172 171 159 163 176
          175 160 163 176 175 160
          164 180 179 161 173 208
          219 220 177 210 221 222
          177 210 221 222 181 212
          223 224 159 171 202 156
          160 175 204 157 160 175
          204 157 161 179 206 158
          168 225 207 165 169 226
          209 166 169 226 209 166
          170 227 211 167 185 184
          231 228 189 188 232 229
          189 188 232 229 193 192
          233 230 234 184 196 235
          236 188 198 237 236 188
          198 237 238 192 200 239
          183 186 150 153 187 190
          151 154 187 190 151 154
          191 194 152 155 201 240
          235 196 203 241 237 198
          203 241 237 198 205 242
          239 200 174 220 240 201
          178 222 241 203 178 222
          241 203 182 224 242 205
          165 207 172 162 166 209
          176 163 166 209 176 163
          167 211 180 164 208 207
          225 243 210 209 226 244
          210 209 226 244 212 211
          227 245 195 153 156 202
          197 154 157 204 197 154
          157 204 199 155 158 206
          147 150 186 213 148 151
          190 215 148 151 190 215
          149 152 194 217 183 195
          153 187 197 154 187 197
          154 191 199 155 173 174
          220 177 178 222 177 178
          222 181 182 224 234 184
          231 236 188 232 236 188
          232 238 192 233 243 208
          219 244 210 221 244 210
          221 245 212 223 249 250
          251 252 253 254 255 256
          253 254 255 256 257 258
          259 260 264 265 249 252
          266 267 253 256 266 267
          253 256 268 269 257 260
          270 271 272 273 274 275
          276 277 274 275 276 277
          278 279 280 281 282 251
          250 283 284 255 254 285
          284 255 254 285 286 259
          258 287 273 288 289 270
          277 290 291 274 277 290
          291 274 281 292 293 278
          294 295 264 296 297 298
          266 299 297 298 266 299
          300 301 268 302 303 304
          305 306 307 308 309 310
          307 308 309 310 311 312
          313 314 270 315 316 317
          274 318 319 320 274 318
          319 320 278 321 322 323
          324 325 326 327 328 329
          330 331 328 329 330 331
          332 333 334 335 283 336
          337 282 285 338 339 284
          285 338 339 284 287 340
          341 286 342 343 344 345
          346 347 348 349 346 347
          348 349 350 351 352 353
          354 337 355 356 357 339
          358 359 357 339 358 359
          360 341 361 362 343 342
          363 364 347 346 365 366
          347 346 365 366 351 350
          367 368 369 370 371 372
          373 374 375 376 373 374
          375 376 377 378 379 380
          711 381 382 712 713 383
          384 714 713 383 384 714
          715 385 386 716 327 326
          387 388 331 330 389 390
          331 330 389 390 335 334
          391 392 393 394 316 315
          395 396 319 318 395 396
          319 318 397 398 322 321
          399 400 401 402 403 404
          405 406 403 404 405 406
          407 408 409 410 306 344
          343 411 310 348 347 412
          310 348 347 412 314 352
          351 413 414 246 273 272
          415 247 277 276 415 247
          277 276 416 248 281 280
          423 424 252 251 425 426
          256 255 425 426 256 255
          427 428 260 259 429 430
          264 295 431 432 266 298
          431 432 266 298 433 434
          268 301 282 337 354 435
          284 339 357 436 284 339
          357 436 286 341 360 437
          354 438 439 435 357 440
          441 436 357 440 441 436
          360 442 443 437 444 445
          446 447 448 449 450 451
          448 449 450 451 452 453
          454 455 456 316 394 457
          458 319 396 459 458 319
          396 459 460 322 398 461
          462 463 446 464 465 466
          450 467 465 466 450 467
          468 469 454 470 471 401
          472 473 474 405 475 476
          474 405 475 476 477 409
          478 479 402 456 457 480
          406 458 459 481 406 458
          459 481 410 460 461 482
          471 456 402 401 474 458
          406 405 474 458 406 405
          477 460 410 409 473 483
          317 471 476 484 320 474
          476 484 320 474 479 485
          323 477 486 483 473 487
          488 484 476 489 488 484
          476 489 490 485 479 491
          483 271 270 317 484 275
          274 320 484 275 274 320
          485 279 278 323 492 424
          423 493 494 426 425 495
          494 426 425 495 496 428
          427 497 498 344 306 305
          499 348 310 309 499 348
          310 309 500 352 314 313
          501 502 288 261 503 504
          290 262 503 504 290 262
          505 506 292 263 429 295
          463 462 431 298 466 465
          431 298 466 465 433 301
          469 468 510 511 512 513
          514 515 516 517 514 515
          516 517 518 519 520 521
          464 446 445 522 467 450
          449 523 467 450 449 523
          470 454 453 524 525 526
          400 399 527 528 404 403
          527 528 404 403 529 530
          408 407 487 473 472 531
          489 476 475 532 489 476
          475 532 491 479 478 533
          288 273 246 261 290 277
          247 262 290 277 247 262
          292 281 248 263 435 439
          493 423 436 441 495 425
          436 441 495 425 437 443
          497 427 288 502 534 535
          290 504 536 537 290 504
          536 537 292 506 538 539
          717 540 718 719 720 541
          721 722 720 541 721 722
          723 542 724 725 543 372
          544 545 546 376 547 548
          546 376 547 548 549 380
          550 551 480 457 552 553
          481 459 554 555 481 459
          554 555 482 461 556 557
          558 559 498 305 560 561
          499 309 560 561 499 309
          562 563 500 313 400 526
          439 438 404 528 441 440
          404 528 441 440 408 530
          443 442 564 565 480 553
          566 567 481 555 566 567
          481 555 568 569 482 557
          570 564 553 571 572 566
          555 573 572 566 555 573
          574 568 557 575 726 576
          559 512 727 577 561 516
          727 577 561 516 728 578
          563 520 579 345 344 498
          580 349 348 499 580 349
          348 499 581 353 352 500
          729 582 576 726 730 583
          577 727 730 583 577 727
          731 584 578 728 438 354
          531 472 440 357 532 475
          440 357 532 475 442 360
          533 478 438 472 401 400
          440 475 405 404 440 475
          405 404 442 478 409 408
          565 585 402 480 567 586
          406 481 567 586 406 481
          569 587 410 482 545 544
          732 733 548 547 734 735
          548 547 734 735 551 550
          736 737 534 502 501 418
          536 504 503 420 536 504
          503 420 538 506 505 422
          251 282 435 423 255 284
          436 425 255 284 436 425
          259 286 437 427 576 588
          498 559 577 589 499 561
          577 589 499 561 578 590
          500 563 591 534 418 417
          592 536 420 419 592 536
          420 419 593 538 422 421
          369 594 595 370 373 596
          597 374 373 596 597 374
          377 598 599 378 326 600
          601 387 330 602 603 389
          330 602 603 389 334 604
          605 391 606 570 387 601
          607 572 389 603 607 572
          389 603 608 574 391 605
          317 316 456 471 320 319
          458 474 320 319 458 474
          323 322 460 477 483 486
          272 271 484 488 276 275
          484 488 276 275 485 490
          280 279 582 729 738 739
          583 730 740 741 583 730
          740 741 584 731 742 743
          588 382 381 609 589 384
          383 610 589 384 383 610
          590 386 385 611 612 613
          324 614 615 616 328 617
          615 616 328 617 618 619
          332 620 382 582 739 712
          384 583 741 714 384 583
          741 714 386 584 743 716
          582 382 588 576 583 384
          589 577 583 384 589 577
          584 386 590 578 595 342
          345 370 597 346 349 374
          597 346 349 374 599 350
          353 378 621 622 606 601
          623 624 607 603 623 624
          607 603 625 626 608 605
          609 579 498 588 610 580
          499 589 610 580 499 589
          611 581 500 590 540 621
          601 600 541 623 603 602
          541 623 603 602 542 625
          605 604 591 627 535 534
          592 628 537 536 592 628
          537 536 593 629 539 538
          594 630 522 445 596 631
          523 449 596 631 523 449
          598 632 524 453 744 745
          633 622 746 747 634 624
          746 747 634 624 748 749
          635 626 324 327 636 614
          328 331 637 617 328 331
          637 617 332 335 638 620
          745 750 751 510 747 752
          753 514 747 752 753 514
          749 754 755 518 639 591
          417 507 640 592 419 508
          640 592 419 508 641 593
          421 509 371 370 345 579
          375 374 349 580 375 374
          349 580 379 378 353 581
          642 399 402 585 643 403
          406 586 643 403 406 586
          644 407 410 587 645 525
          399 642 646 527 403 643
          646 527 403 643 647 529
          407 644 326 718 540 600
          330 721 541 602 330 721
          541 602 334 724 542 604
          621 540 717 756 623 541
          720 757 623 541 720 757
          625 542 723 758 639 507
          759 760 640 508 761 762
          640 508 761 762 641 509
          763 764 388 387 570 571
          390 389 572 573 390 389
          572 573 392 391 574 575
          648 651 6 0 649 652
          7 1 649 652 7 1
          650 653 8 2 613 612
          535 627 616 615 537 628
          616 615 537 628 619 618
          539 629 627 591 639 654
          628 592 640 655 628 592
          640 655 629 593 641 656
          612 289 288 535 615 291
          290 537 615 291 290 537
          618 293 292 539 651 657
          27 6 652 658 28 7
          652 658 28 7 653 659
          29 8 756 744 622 621
          757 746 624 623 757 746
          624 623 758 748 626 625
          660 613 627 654 661 616
          628 655 661 616 628 655
          662 619 629 656 657 663
          48 27 658 664 49 28
          658 664 49 28 659 665
          50 29 666 493 439 526
          667 495 441 528 667 495
          441 528 668 497 443 530
          669 565 564 303 670 567
          566 307 670 567 566 307
          671 569 568 311 663 355
          72 48 664 358 73 49
          664 358 73 49 665 361
          74 50 672 492 493 666
          673 494 495 667 673 494
          495 667 674 496 497 668
          144 249 265 168 145 253
          267 169 145 253 267 169
          146 257 269 170 411 669
          303 306 412 670 307 310
          412 670 307 310 413 671
          311 314 765 718 326 325
          766 721 330 329 766 721
          330 329 767 724 334 333
          525 645 364 675 527 646
          366 676 527 646 366 676
          529 647 368 677 768 639
          760 769 770 640 762 771
          770 640 762 771 772 641
          764 773 669 411 645 642
          670 412 646 643 670 412
          646 643 671 413 647 644
          639 768 660 654 640 770
          661 655 640 770 661 655
          641 772 662 656 642 585
          565 669 643 586 567 670
          643 586 567 670 644 587
          569 671 393 315 270 289
          395 318 274 291 395 318
          274 291 397 321 278 293
          675 364 363 678 676 366
          365 679 676 366 365 679
          677 368 367 680 552 636
          327 388 554 637 331 390
          554 637 331 390 556 638
          335 392 675 678 672 666
          676 679 673 667 676 679
          673 667 677 680 674 668
          666 526 525 675 667 528
          527 676 667 528 527 676
          668 530 529 677 250 120
          96 283 254 121 97 285
          254 121 97 285 258 122
          98 287 444 447 678 363
          448 451 679 365 448 451
          679 365 452 455 680 367
          614 636 394 393 617 637
          396 395 617 637 396 395
          620 638 398 397 249 144
          120 250 253 145 121 254
          253 145 121 254 257 146
          122 258 564 681 304 303
          566 682 308 307 566 682
          308 307 568 683 312 311
          364 645 411 343 366 646
          412 347 366 646 412 347
          368 647 413 351 72 355
          337 336 73 358 339 338
          73 358 339 338 74 361
          341 340 304 681 606 684
          308 682 607 685 308 682
          607 685 312 683 608 686
          636 552 457 394 637 554
          459 396 637 554 459 396
          638 556 461 398 72 336
          283 96 73 338 285 97
          73 338 285 97 74 340
          287 98 289 612 614 393
          291 615 617 395 291 615
          617 395 293 618 620 397
          687 487 531 688 689 489
          532 690 689 489 532 690
          691 491 533 692 688 531
          354 356 690 532 357 359
          690 532 357 359 692 533
          360 362 388 571 553 552
          390 573 555 554 390 573
          555 554 392 575 557 556
          693 486 487 687 694 488
          489 689 694 488 489 689
          695 490 491 691 564 570
          606 681 566 572 607 682
          566 572 607 682 568 574
          608 683 414 272 486 693
          415 276 488 694 415 276
          488 694 416 280 490 695
          225 696 697 243 226 698
          699 244 226 698 699 244
          227 700 701 245 774 324
          613 660 775 328 616 661
          775 328 616 661 776 332
          619 662 544 702 609 381
          547 703 610 383 547 703
          610 383 550 704 611 385
          688 356 355 663 690 359
          358 664 690 359 358 664
          692 362 361 665 324 774
          765 325 328 775 766 329
          328 775 766 329 332 776
          767 333 684 558 305 304
          685 560 309 308 685 560
          309 308 686 562 313 312
          544 372 371 702 547 376
          375 703 547 376 375 703
          550 380 379 704 711 732
          544 381 713 734 547 383
          713 734 547 383 715 736
          550 385 513 512 559 558
          517 516 561 560 517 516
          561 560 521 520 563 562
          777 726 512 511 778 727
          516 515 778 727 516 515
          779 728 520 519 777 511
          510 751 778 515 514 753
          778 515 514 753 779 519
          518 755 294 296 424 492
          297 299 426 494 297 299
          426 494 300 302 428 496
          369 705 630 594 373 706
          631 596 373 706 631 596
          377 707 632 598 633 513
          558 684 634 517 560 685
          634 517 560 685 635 521
          562 686 684 606 622 633
          685 607 624 634 685 607
          624 634 686 608 626 635
          708 672 678 447 709 673
          679 451 709 673 679 451
          710 674 680 455 513 633
          745 510 517 634 747 514
          517 634 747 514 521 635
          749 518 774 660 768 780
          775 661 770 781 775 661
          770 781 776 662 772 782
          702 371 579 609 703 375
          580 610 703 375 580 610
          704 379 581 611 687 688
          663 657 689 690 664 658
          689 690 664 658 691 692
          665 659 696 265 264 430
          698 267 266 432 698 267
          266 432 700 269 268 434
          696 430 429 697 698 432
          431 699 698 432 431 699
          700 434 433 701 264 252
          424 296 266 256 426 299
          266 256 426 299 268 260
          428 302 708 294 492 672
          709 297 494 673 709 297
          494 673 710 300 496 674
          447 446 463 708 451 450
          466 709 451 450 466 709
          455 454 469 710 693 687
          657 651 694 689 658 652
          694 689 658 652 695 691
          659 653 595 594 445 444
          597 596 449 448 597 596
          449 448 599 598 453 452
          696 225 168 265 698 226
          169 267 698 226 169 267
          700 227 170 269 705 369
          372 543 706 373 376 546
          706 373 376 546 707 377
          380 549 414 693 651 648
          415 694 652 649 415 694
          652 649 416 695 653 650
          444 363 342 595 448 365
          346 597 448 365 346 597
          452 367 350 599 708 463
          295 294 709 466 298 297
          709 466 298 297 710 469
          301 300
        </DataArray>
        <DataArray type="Int64" Name="offsets" format="ascii" RangeMin="8" RangeMax="3632">
          8 16 24 32 40 48
          56 64 72 80 88 96
          104 112 120 128 136 144
          152 160 168 176 184 192
          200 208 216 224 232 240
          248 256 264 272 280 288
          296 304 312 320 328 336
          344 352 360 368 376 384
          392 400 408 416 424 432
          440 448 456 464 472 480
          488 496 504 512 520 528
          536 544 552 560 568 576
          584 592 600 608 616 624
          632 640 648 656 664 672
          680 688 696 704 712 720
          728 736 744 752 760 768
          776 784 792 800 808 816
          824 832 840 848 856 864
          872 880 888 896 904 912
          920 928 936 944 952 960
          968 976 982 988 994 1000
          1006 1012 1018 1024 1032 1040
          1048 1056 1064 1072 1080 1088
          1096 1104 1112 1120 1128 1136
          1144 1152 1160 1168 1176 1184
          1192 1200 1208 1216 1224 1232
          1240 1248 1256 1264 1272 1280
          1288 1296 1304 1312 1320 1328
          1336 1344 1352 1360 1368 1376
          1384 1392 1400 1408 1416 1424
          1432 1440 1448 1456 1464 1472
          1480 1488 1496 1504 1512 1520
          1528 1536 1544 1552 1560 1568
          1576 1584 1592 1600 1608 1616
          1624 1632 1640 1648 1656 1664
          1672 1680 1688 1696 1704 1712
          1720 1728 1736 1744 1752 1760
          1768 1776 1784 1792 1800 1808
          1816 1824 1832 1840 1848 1856
          1864 1872 1880 1888 1896 1904
          1912 1920 1928 1936 1944 1952
          1960 1968 1976 1984 1992 2000
          2008 2016 2024 2032 2040 2048
          2056 2064 2072 2080 2088 2096
          2104 2112 2120 2128 2136 2144
          2152 2160 2168 2176 2184 2192
          2200 2208 2216 2224 2232 2240
          2248 2256 2264 2272 2280 2288
          2296 2304 2312 2320 2328 2336
          2344 2352 2360 2368 2376 2384
          2392 2400 2408 2416 2424 2432
          2440 2448 2456 2464 2472 2480
          2488 2496 2504 2512 2520 2528
          2536 2544 2552 2560 2568 2576
          2584 2592 2600 2608 2616 2624
          2632 2640 2648 2656 2664 2672
          2680 2688 2696 2704 2712 2720
          2728 2736 2744 2752 2760 2768
          2776 2784 2792 2800 2808 2816
          2824 2832 2840 2848 2856 2864
          2872 2880 2888 2896 2904 2912
          2920 2928 2936 2944 2952 2960
          2968 2976 2984 2992 3000 3008
          3016 3024 3032 3040 3048 3056
          3064 3072 3080 3088 3096 3104
          3112 3120 3128 3136 3144 3152
          3160 3168 3176 3184 3192 3200
          3208 3216 3224 3232 3240 3248
          3256 3264 3272 3280 3288 3296
          3304 3312 3320 3328 3336 3344
          3352 3360 3368 3376 3384 3392
          3400 3408 3416 3424 3432 3440
          3448 3456 3464 3472 3480 3488
          3496 3504 3512 3520 3528 3536
          3544 3552 3560 3568 3576 3584
          3592 3600 3608 3616 3624 3632
        </DataArray>
        <DataArray type="UInt8" Name="types" format="ascii" RangeMin="12" RangeMax="13">
          12 12 12 12 12 12
          12 12 12 12 12 12
          12 12 12 12 12 12
          12 12 12 12 12 12
          12 12 12 12 12 12
          12 12 12 12 12 12
          12 12 12 12 12 12
          12 12 12 12 12 12
          12 12 12 12 12 12
          12 12 12 12 12 12
          12 12 12 12 12 12
          12 12 12 12 12 12
          12 12 12 12 12 12
          12 12 12 12 12 12
          12 12 12 12 12 12
          12 12 12 12 12 12
          12 12 12 12 12 12
          12 12 12 12 12 12
          12 12 12 12 12 12
          12 12 12 12 12 12
          12 12 13 13 13 13
          13 13 13 13 12 12
          12 12 12 12 12 12
          12 12 12 12 12 12
          12 12 12 12 12 12
          12 12 12 12 12 12
          12 12 12 12 12 12
          12 12 12 12 12 12
          12 12 12 12 12 12
          12 12 12 12 12 12
          12 12 12 12 12 12
          12 12 12 12 12 12
          12 12 12 12 12 12
          12 12 12 12 12 12
          12 12 12 12 12 12
          12 12 12 12 12 12
          12 12 12 12 12 12
          12 12 12 12 12 12
          12 12 12 12 12 12
          12 12 12 12 12 12
          12 12 12 12 12 12
          12 12 12 12 12 12
          12 12 12 12 12 12
          12 12 12 12 12 12
          12 12 12 12 12 12
          12 12 12 12 12 12
          12 12 12 12 12 12
          12 12 12 12 12 12
          12 12 12 12 12 12
          12 12 12 12 12 12
          12 12 12 12 12 12
          12 12 12 12 12 12
          12 12 12 12 12 12
          12 12 12 12 12 12
          12 12 12 12 12 12
          12 12 12 12 12 12
          12 12 12 12 12 12
          12 12 12 12 12 12
          12 12 12 12 12 12
          12 12 12 12 12 12
          12 12 12 12 12 12
          12 12 12 12 12 12
          12 12 12 12 12 12
          12 12 12 12 12 12
          12 12 12 12 12 12
          12 12 12 12 12 12
          12 12 12 12 12 12
          12 12 12 12 12 12
          12 12 12 12 12 12
          12 12 12 12 12 12
          12 12 12 12 12 12
          12 12 12 12 12 12
          12 12 12 12 12 12
          12 12 12 12 12 12
          12 12 12 12 12 12
          12 12 12 12 12 12
        </DataArray>
      </Cells>
    </Piece>
  </UnstructuredGrid>
</VTKFile>
