<?xml version="1.0"?>
<VTKFile type="UnstructuredGrid" version="0.1" byte_order="LittleEndian" header_type="UInt32" compressor="vtkZLibDataCompressor">
  <UnstructuredGrid>
    <Piece NumberOfPoints="774" NumberOfCells="452">
      <PointData>
        <DataArray type="Int32" Name="libmesh_node_id" format="ascii" RangeMin="2286" RangeMax="4991">
          2286 2287 2288 2289 2290 2291
          2292 2293 2294 2295 2296 2297
          2340 2341 2342 2343 2344 2345
          2346 2347 2348 2349 2350 2351
          2400 2401 2403 2404 2406 2407
          2412 2413 2414 2415 2416 2417
          2418 2419 2420 2421 2422 2423
          2487 2488 2489 2490 2491 2492
          2523 2524 2525 2526 2527 2528
          2529 2530 2531 2532 2533 2534
          2550 2551 2552 2553 2554 2555
          2556 2557 2558 2559 2560 2561
          2580 2581 2582 2583 2584 2585
          2685 2686 2687 2688 2689 2690
          2691 2692 2693 2694 2695 2696
          2698 2699 2700 2702 2703 2704
          2706 2707 2708 2796 2797 2798
          2799 2800 2801 2802 2803 2804
          2805 2806 2807 2838 2839 2840
          2841 2842 2843 2844 2845 2846
          2847 2848 2849 2881 2883 2885
          2949 2950 2951 2952 2953 2954
          2955 2956 2957 3054 3055 3056
          3057 3058 3059 3093 3094 3095
          3096 3097 3098 3099 3100 3101
          3102 3103 3104 3117 3118 3119
          3120 3121 3122 3123 3124 3125
          3126 3127 3128 3195 3196 3197
          3198 3199 3200 3201 3202 3203
          3210 3211 3212 3213 3214 3215
          3216 3217 3218 3219 3220 3221
          3222 3223 3224 3225 3226 3227
          3252 3253 3254 3255 3256 3257
          3300 3301 3302 3303 3304 3305
          3306 3307 3308 3309 3310 3311
          3318 3319 3320 3321 3322 3323
          3324 3325 3326 3327 3328 3329
          3330 3331 3332 3333 3334 3335
          3366 3367 3368 3378 3379 3380
          3381 3382 3383 3384 3385 3386
          3387 3388 3389 3390 3391 3392
          3453 3454 3455 3456 3457 3458
          3459 3460 3461 3483 3484 3485
          3492 3493 3494 3525 3526 3528
          3529 3531 3532 3543 3544 3545
          3564 3565 3566 3567 3568 3569
          3570 3571 3572 3588 3589 3590
          3591 3592 3593 3609 3610 3611
          3612 3613 3614 3615 3616 3617
          3618 3619 3620 3630 3631 3632
          3633 3634 3635 3636 3637 3638
          3639 3640 3641 3654 3655 3656
          3657 3658 3659 3660 3661 3662
          3684 3685 3686 3687 3689 3691
          3693 3694 3695 3696 3697 3698
          3708 3709 3710 3711 3712 3713
          3735 3736 3737 3738 3739 3740
          3741 3742 3743 3744 3745 3746
          3747 3748 3749 3762 3763 3764
          3771 3772 3773 3774 3775 3776
          3777 3778 3779 3786 3787 3788
          3795 3796 3797 3798 3799 3800
          3801 3802 3803 3804 3805 3806
          3807 3808 3809 3816 3817 3818
          3834 3835 3836 3837 3838 3839
          3846 3847 3848 3849 3850 3851
          3861 3862 3863 3882 3884 3885
          3887 3888 3890 3900 3901 3902
          3903 3904 3905 3906 3907 3908
          3924 3925 3926 3927 3928 3929
          3930 3931 3932 3939 3940 3941
          3942 3943 3944 3954 3955 3956
          3958 3959 3960 3962 3963 3964
          3969 3970 3971 3972 3973 3974
          3993 3994 3995 4032 4033 4034
          4035 4036 4037 4053 4054 4055
          4056 4057 4058 4059 4060 4061
          4062 4063 4064 4089 4090 4091
          4104 4105 4106 4107 4108 4109
          4116 4117 4118 4128 4129 4130
          4167 4168 4169 4170 4171 4172
          4185 4186 4187 4208 4209 4212
          4213 4216 4217 4233 4234 4235
          4236 4237 4238 4254 4255 4256
          4257 4258 4259 4269 4270 4271
          4272 4273 4274 4284 4285 4286
          4287 4288 4289 4290 4291 4292
          4293 4294 4295 4302 4303 4304
          4314 4315 4316 4317 4318 4319
          4320 4321 4322 4323 4324 4325
          4326 4327 4328 4338 4339 4340
          4344 4345 4346 4350 4351 4352
          4353 4354 4355 4365 4366 4367
          4368 4369 4370 4371 4372 4373
          4374 4375 4376 4377 4378 4379
          4380 4381 4382 4383 4384 4385
          4386 4387 4388 4389 4390 4391
          4398 4399 4400 4416 4417 4418
          4422 4423 4424 4425 4426 4427
          4428 4429 4430 4434 4435 4436
          4437 4438 4439 4440 4441 4442
          4443 4444 4445 4458 4459 4460
          4482 4483 4484 4485 4486 4487
          4488 4489 4490 4491 4492 4493
          4494 4495 4496 4497 4498 4499
          4500 4501 4502 4506 4507 4508
          4509 4510 4511 4518 4519 4520
          4521 4522 4523 4545 4546 4547
          4566 4567 4568 4569 4570 4571
          4572 4573 4574 4599 4600 4601
          4602 4603 4604 4605 4606 4607
          4611 4612 4613 4647 4648 4649
          4650 4651 4652 4653 4654 4655
          4656 4657 4658 4677 4678 4679
          4689 4690 4691 4692 4693 4694
          4695 4696 4697 4716 4717 4718
          4743 4744 4745 4746 4747 4748
          4749 4750 4751 4779 4780 4781
          4788 4789 4790 4800 4801 4802
          4803 4804 4805 4806 4807 4808
          4809 4810 4811 4830 4831 4832
          4872 4873 4874 4902 4903 4904
          4923 4924 4925 4968 4969 4970
          4986 4987 4988 4989 4990 4991
          2880 2882 2884 3883 3873 3886
          3876 3889 3879 3957 3961 3965
          3875 3878 3881 4119 4120 4121
          4206 4207 4210 4211 4214 4215
          4347 4348 4349 4251 4252 4253
        </DataArray>
        <DataArray type="Float64" Name="resid_x" format="ascii" RangeMin="-0.1357835821452289" RangeMax="0.11080125844956346">
          0.001011760211604873 0.002203244930509385 0.0020950130159738123 0.002881864828186309 0.0002722865572213351 0.0031352944644442715
          -0.0009687135021954063 -0.0004653759760495646 -0.012085572545328827 -0.013555383393732967 -0.014572320477022949 -0.012975363253724836
          -0.0034330543140930203 -0.00028930873316568295 -0.0013964972818179128 0.0009581011640058534 -0.005878021430160807 0.0006510032001969535
          -0.0036070952465495076 -0.0012474636166199815 -0.019338918273022365 -0.011114101580968594 -0.010313169757121043 -0.015891635894947242
          -0.011601402867531974 -0.004828656709206847 -0.017538639660582334 -0.004904865349071308 -0.020892485186691623 -0.005392410904814682
          0.003708612834679492 -0.01164728012546501 -0.0010145676312784957 0.046370949213906165 0.027741038052829126 -0.015622091306102703
          -0.005462486459289817 0.017462897897640772 0.012411833572029352 -0.01018611721395235 -0.010417012857864894 -0.0035724643468242334
          -0.0019601282873333847 -0.0007858352609240171 0.003139263158385086 0.008066311553036165 -0.007792624594591402 -0.002911901327669497
          -0.0005111752487438892 0.00022921125397923348 -0.0023929291189856983 -0.0024566239447434413 -0.001228556767909339 -0.00018530260553695221
          -0.004878873782363513 -0.006922301165953826 0.0013121404210219012 0.002101244391437662 0.002866401128748919 -0.003031154173118722
          0.0005743064391947605 0.00037613842187456115 0.0018358513279839173 0.0015796163818517783 0.0034741277950889327 0.0021444427207133465
          0.0029938331310335187 0.0016369109810439042 -0.008275202201070808 -0.003939524340233813 -0.00520055409311837 -0.007635555840915131
          -0.00023587713112327435 0.0002310701483487776 -0.0018307729899236236 0.00017755781106121304 -0.009224322125360729 -0.009214890119210395
          0.0015403040900938691 -0.0009114569819521634 -0.0006479993565342568 -0.00219141762522046 -0.0015703003840235041 -0.0026576868313670232
          0.0001743734692034593 0.000024312240842760957 -0.011401752349648575 -0.01384755213222455 -0.010201547679129064 -0.008766363087087115
          -0.007366670700584166 -0.009289215336162115 -0.004299927858737895 -0.013114320869910046 -0.004750925087654068 -0.002184074781454548
          -0.015531829467187563 -0.014485872774281816 -0.009780308633790646 0.0014292652368785852 0.0015892500153911193 0.0007803686383764941
          0.0023187295355788784 -0.001810061712513189 -0.0033730423795743647 -0.0008648734850673634 -0.0006607451010074428 -0.008191553306713395
          -0.006227124580997945 -0.005728418590902784 -0.008835652411125494 0.00016728656581577184 0.0012305580606639666 0.0004743129731581419
          -0.00029619469670150167 -0.00007408462171198948 0.0006574500612099854 0.0008898868219517908 -0.001002506890591448 -0.005461426386946577
          -0.005318809076055864 -0.004503341776846526 -0.00397330209309521 -0.01695601671450042 -0.003256472730564397 0.012390737420654219
          -0.0014333527787924183 -0.00025888204193069697 -0.0015886834290630425 -0.0008125701470209634 -0.000010403755686283489 0.0002542452093168279
          -0.0007740011638697197 -0.0009859447765743212 -0.0011551248256189695 -0.0004478694607588096 -0.00022191240456681527 0.0005723882016317461
          0.0006926619983165239 -0.0067376383472463885 -0.0062319042282315 -0.003270698296708119 0.0047070354280478455 0.002976078710453578
          0.00678710321540521 -0.00623724511930579 0.01972194953979578 0.006788323147281616 0.017932478003859664 -0.002740613189256891
          0.013667980907397848 0.0030643986119494038 0.006619146025328426 0.0013310843472158496 0.0027132365090403177 0.0049672228472061875
          0.002895932238580201 -0.0008196177527262094 0.0035941517837558834 0.0008034860939574173 -0.0012180215120238813 -0.021592786079261295
          -0.014269827058226436 -0.015798001951988994 -0.023151818969353144 -0.007342160294400379 -0.008823922971110676 -0.002623480437859982
          -0.012973964400063931 -0.008033684412223074 -0.003316922794644128 -0.008660469978165608 -0.013117694074471054 -0.007045734885142707
          -0.00021133019938535114 0.0011139882919222188 -0.0012857223793236727 0.0022980273373001125 -0.014601661896628038 -0.009631693858861645
          0.0015595658026166248 0.0020352521832611714 0.0010163622046883702 0.003274460196637463 0.0030582572260104968 0.00422696299173797
          0.003479920377863266 0.006123623540339906 -0.0066301458782129785 -0.00592460050648036 -0.005905856317716562 -0.002524244975711909
          -0.014001239581117098 -0.03484193033250893 -0.00835072023037231 -0.03974238423397125 -0.011052117447442278 -0.012725605422098774
          -0.0008522988209982429 -0.0002830859499400873 -0.003364221533317391 -0.0021552883044861915 -0.009389271107394848 -0.006856974193675924
          0.0001226461844443527 -0.0030862565219207383 0.005983983672897875 0.0014849416257547432 -0.0000965050558754399 -0.0037338679374059325
          -0.00013611828077153554 -0.002137064082037732 0.00014705129033476538 0.002070895062945999 -0.0017423939574727765 -0.005108271546256038
          -0.0014481944356168341 0.0007764648579577926 -0.00807036717057974 -0.006827246584767188 -0.005651268070935522 -0.007191512091010099
          -0.0009089156629985551 -0.0012007259176112228 0.001006086807557982 -0.00033291943381108524 -0.001166133659789681 -0.0020283963830358687
          0.0000872734512054052 -0.0010691370019983992 -0.008879611389319919 -0.0010943184332115052 -0.0006541307671188434 0.0012342809481671324
          0.002438144117077101 -0.003195236445693528 -0.00509674554669548 0.00014012924748563194 -0.000823739151272207 -0.0017906570572110425
          -0.0001360269237649092 -0.0008050282358160743 -0.004174467973946605 -0.00541957647233815 -0.0015116928842200394 -0.003199008064780351
          -0.0014410186261750724 -0.0012161671777946026 -0.0017513053153876967 -0.002459937563816794 -0.0016064270601505726 -0.0038126681216645864
          -0.010134219725719262 -0.008239617205937577 -0.011599797006571322 -0.0056732407419088915 -0.004088674892470223 -0.0019928790871936997
          -0.000955515283165731 -0.0009177881058537452 -0.007610881585052631 -0.00667155005197273 -0.011805820603004946 -0.01845725727564229
          -0.01099924472523739 -0.018506390092726477 -0.009107874282140216 -0.001134969784145845 -0.0010371233478894126 -0.0069119700955235786
          -0.0011817018721718142 -0.001734999842843088 -0.0014930397043042554 -0.002552648038203209 0.000494288766960338 0.001185796644183057
          -0.008946552891603954 -0.0052722453315503515 -0.008221600648372629 0.0016038282589132535 0.00328418471470604 0.00422728801373129
          0.007504168341412321 -0.0036492349220997866 0.0009621362767906483 0.0006014518705992344 -0.00013658312688347163 0.0002646872935843092
          -0.0004115739694849907 0.0012078161065254278 -0.0017909006423089124 -0.0002569780522687637 -0.00591205166182629 -0.01672046195442789
          -0.007430766970381031 -0.012226566415338702 -0.018032640392996235 0.0009666029967343448 -0.0013340920403193124 -0.0015508244168440655
          0.001261421004882024 0.001175473946375405 -0.003907863012359236 -0.001609488094912237 0.001760949481676377 -0.013187892342448215
          -0.016140869848857875 -0.01586257012686243 -0.01459162897185351 -0.0035649034579163796 0.002153076521102637 0.0017021769459848457
          -0.010818538207878703 0.0036397508333720907 0.0009815205783567649 -0.01561934038360313 -0.01222082603097574 -0.007428310115438208
          -0.0025055215667890707 -0.001380630217107992 -0.002531415009968896 -0.003798882968498063 -0.0050741939316374385 -0.0035379556337318263
          -0.011063890264619403 -0.007504404585787938 -0.016000713386008947 -0.009422815204480628 -0.014464929446161179 -0.016915975381369464
          -0.005811626824707261 -0.008652043574429946 -0.0019814666629720534 -0.0054908047565245255 -0.015284587756588586 -0.017556380807416616
          -0.0055093468625129205 0.000068903857487701 -0.002071898719673726 -0.005314435499636838 -0.0023336442304552063 -0.0034134910893781623
          -0.004442311808108279 0.0011444406841474297 -0.0012741830863148285 0.001762174660881577 -0.0016822190908678536 -0.017060815748271896
          -0.006682836070423082 -0.010046851382736754 -0.015060919895979907 -0.008616031235542998 -0.003111076322621642 -0.013327835587989334
          -0.008255609267544317 -0.004368094125375421 -0.015020288308189134 -0.00457936876700793 -0.0037758686943734077 -0.0026121309855628994
          -0.00247294713738766 -0.0064669484374126895 -0.008453084894922025 -0.006768680778656666 -0.005275267034473785 -0.006155168197740757
          -0.00494726921761135 -0.0035737183518733673 -0.0021561735528026205 0.00013173340508210174 -0.006607115671657837 -0.006001177299860494
          -0.0031979198080591686 -0.002310892967456013 -0.0017745541406037901 -0.0030735574329292803 -0.0006498733612545493 -0.0007960361947862704
          0.0007715406905886013 -0.008568492972319763 -0.009518734613597424 -0.0056790809483794336 0.0007346657398884515 -0.008786286586518033
          -0.006265877026079281 -0.0013378224436966235 -0.015034997474732137 -0.0037403367125630194 -0.0006714003842437366 -0.008945362609876328
          -0.0021877099823468527 -0.004349216233403563 -0.0033680110805196506 -0.005146370435358039 -0.001422837225135254 -0.0042900509148833255
          -0.007730591164013312 -0.0031795311779846958 -0.0076883536805359975 0.007504528464071569 -0.023972473715856424 0.01707065530060614
          -0.028777219910612217 0.010872808422519142 -0.0020894632655430456 0.0012711992786704762 0.0009987409923146728 -0.0032984608007327054
          -0.0037440838350097927 -0.0001304381908582286 -0.00030384310049846874 -0.006644309730882814 -0.004267891540649771 -0.0023753733327840365
          -0.010074251329780681 0.0013241429942469907 -0.0075908738665209086 -0.00042398497150464287 0.0035561391455640745 0.005005510399070268
          0.006998399959841084 -0.00369402156767773 0.008597723603941176 -0.005915018640975767 -0.006002796961805501 -0.008581230751103952
          -0.007560464838898717 -0.0017130226593997655 0.00037283532899667904 -0.010694611696662193 -0.010233504970629248 -0.01170921580904416
          -0.03293237158965567 -0.021160935431968397 -0.012477158726864168 -0.024479142986072233 -0.019175302976361053 -0.010584441061952887
          0.006046990057845036 -0.010255309337327212 0.007782477521608655 0.00336564533789252 -0.005935941252356081 -0.004906692455365569
          -0.007397095593155711 -0.005742378700646533 -0.013359218928888694 -0.0045882219897670495 -0.005293651139473887 -0.0037885265862724893
          -0.001156607734547066 0.0007221887432828922 -0.0009747431144768726 0.0007532143403707892 0.0008770106496758245 -0.000988262036541343
          -0.001552104713664626 -0.003304110926518611 -0.004604017482005673 0.0008439069421828371 0.0023989867832159284 0.0027108829007089774
          0.004930680238786511 -0.004678215009862097 -0.00061602199222488 -0.0020782872873952307 0.0022813121596065855 -0.004704885345915066
          -0.008470241413593982 0.0032175905625377865 -0.009800101073357936 -0.004796194642825213 0.0029661976146755364 -0.01207657070113477
          0.006492804666762275 0.004254304021232613 0.00564508476216119 -0.008013992467144071 0.0004720498993027178 -0.012801427422665768
          -0.011970879852349015 -0.008124217575313786 0.003591469440226369 -0.00559325017488721 0.0034955770111118056 -0.010293447929708321
          -0.0056739513248615925 0.001629766661709331 -0.008829460705182868 -0.03624982452254777 0.039264089912061095 -0.03427916374293227
          0.11080125844956346 -0.0003566356073192445 0.023372681463889933 -0.007451067179415571 -0.008946228210071183 -0.0018482364111318539
          -0.0028532649792643028 -0.008872531320748278 -0.010380076139949956 -0.007325667008883485 -0.004748637718311244 -0.009660482854334518
          -0.0060453815426635416 -0.0007637171833696499 -0.01416464807374318 -0.012830114627758071 -0.00290465807013085 -0.009922413574192213
          -0.0031654574727637552 0.00034167247506466936 -0.0025560795930497093 -0.006100115239359383 -0.007765901009707754 -0.005101310410029036
          -0.0043057050208430425 -0.004941346652577394 -0.0028901605448830026 -0.001629592898742871 -0.005070151962596192 0.00469961557705556
          -0.0011751781609934397 0.0003724593849465663 -0.0029267755659745376 0.0004759900551789542 0.008536525626819724 0.003827770953590104
          0.002016751799478911 -0.00031570056129570645 0.002035751209288783 0.000019300867281302203 -0.005695190978832976 -0.004371046340239104
          -0.007089183842669655 -0.008992920212541833 -0.0012159346354918554 -0.003431390490450603 -0.019262649105556306 -0.0007457689589207561
          -0.01355509240086672 -0.01972905371582101 -0.013438454495960706 -0.0001996202640777156 -0.00010206032767978712 -0.014208170136162046
          -0.0003025011825066315 0.0043436188275496335 0.001145125976778516 -0.004627834414979937 -0.0026883469206131494 0.002956389650851321
          0.0016728910152306042 -0.010847653865390328 -0.010932292099630203 -0.00826839019012926 -0.00034942410304861227 0.0011971834727964037
          0.007142327012232386 0.0031293241406320504 0.00265430433047964 -0.0038798207488317527 0.004600247087904297 0.00170595928030437
          -0.005761532433253613 -0.010309949650887162 0.003943534455896902 -0.002051372551027164 0.0021820017994986785 -0.00437332647409816
          -0.004659534505139007 0.0005496617635407652 0.0023970146856222563 -0.0007209512575245824 -0.005860899539211317 0.003383442171539297
          0.0012409931217676196 -0.000841896658676955 -0.006645789775446609 -0.0037843808427635572 -0.007739876038717952 -0.006090748916354194
          -0.005029551312976999 0.0025262311908722523 -0.012719636220007935 -0.010310995018745217 -0.008699456449273946 -0.010211837660859757
          -0.0031415534245891052 -0.0029632824579213235 -0.0012583603291398404 -0.0019532540136166787 -0.005511103949300988 -0.0033704614374734376
          -0.008366251231687105 -0.001690424024656828 -0.006383114161480741 -0.009017831876684923 -0.0037747107768986154 -0.026264506872923477
          0.000472379141260415 -0.026596497753228476 -0.002752768448154974 0.002690444740006015 0.002330867136583592 0.002703377090368164
          0.0015597755678200542 -0.011836036330397981 -0.012325734138228128 -0.010488176938922678 -0.021598226672443488 -0.02128175863018722
          -0.009539511494403463 -0.005687258167783926 -0.004326903895871759 -0.0019342252348797384 -0.0029164565308210655 -0.0045357394744010016
          0.00019727536841696036 -0.0033839429923840925 -0.005783799709597304 -0.0024977002483268507 0.0002816757402310799 -0.0038540089297685043
          -0.0010934553770747257 -0.0005134833932327609 -0.007241891087732988 -0.011494116654600539 -0.011736268925379711 -0.009688837663649252
          -0.0024134325663665024 -0.0013136870906897968 -0.007997732527043055 -0.0071713501651498035 -0.0028852343077154785 0.0006946902611106864
          -0.0033454299188289127 -0.014151034275791119 -0.005387457242742144 0.00010973471742925511 -0.005349264348677885 0.0034516856726263256
          -0.0004726606862739402 -0.007700336726363943 -0.00717832339175839 -0.004156335556956492 -0.001152802031016087 -0.006738653738988631
          -0.004955530965563115 0.00035776918811114555 -0.012054234023961108 -0.001391733967004427 -0.0009373889125274815 -0.009376748448387318
          -0.008281347306810627 -0.003930910210779182 -0.010587735100880291 -0.009646390891095535 -0.016361983574777028 -0.010969393593011745
          0.0023051305404280242 -0.0012170206437565056 0.0021202065739513998 0.0014050714004101295 -0.009459655893275354 -0.007199733440293343
          -0.007337007141513752 -0.0022654928454421963 -0.013735825461423268 -0.005145062886220408 -0.0005540547363844794 -0.0006935664583593848
          -0.004928090098541782 0.005552975607128641 -0.01234166043979723 -0.00026778784877556916 -0.002629708869418046 -0.0016863664017634505
          -0.004626924314120373 -0.00627067075621035 -0.008888198324422447 -0.007900520609998019 0.000745331034824992 -0.00448549180515756
          -0.0031498226018102926 -0.0010524872443902211 -0.001939580535407437 -0.0008162654575594175 -0.000227385115271872 -0.0011401323198718671
          -0.004066652342278765 -0.01012426485300022 -0.004251637246359685 -0.008362956462135251 -0.004953192492484604 -0.00762168910762373
          -0.0018569272402331194 -0.004021695062518482 0.009762610329875798 -0.001381485789850423 -0.0006672351107290808 -0.006535971906731497
          -0.010028633660228436 -0.0037181960825130034 -0.009034483105515356 -0.006810738382287074 -0.004540642063916245 -0.008588120989905246
          -0.0017340205861779978 -0.0021658708945340166 -0.007109329771293638 -0.008092359138078375 -0.0014914257405984621 -0.009353790020214525
          -0.006742982912790296 -0.010756889463381825 -0.002141609443356174 -0.006493260031665393 -0.012629948277965042 -0.013481264600986975
          -0.006400076153102674 -0.0011755740112588953 -0.007097734621316576 -0.008911095207951192 -0.01088773968601231 -0.010651117438753133
          -0.030099545976781217 -0.027968697454676672 -0.0017738544232914766 -0.011823949794523614 -0.00895608508898249 -0.01007169835268762
          -0.004774156449049993 0.0015288474884762593 0.0017732318204282116 -0.013757461083057088 -0.019264296260163682 -0.014345990325260516
          -0.009492588305078709 -0.015726276442810327 0.00009675168367717646 -0.005740553305601637 -0.0064677722894188605 -0.013599041900356212
          -0.014078870610110705 -0.06020851573156705 -0.05375853922738649 -0.0024104886572189343 -0.011322998982468135 -0.014603536218658064
          -0.02164626748920284 -0.020965555127160584 -0.015446809800963024 -0.011156633441278707 -0.013794082938627383 -0.007662698643868815
          -0.019619460893308016 -0.023556013606444992 -0.014774511052971562 -0.01794219336320957 -0.04849997292174635 -0.03530029453792061
          0.04165972543150698 0.07056107169392511 -0.10371558327603836 0.03315480313587926 -0.1357835821452289 -0.0429628052439206
          -0.01447190100804363 -0.01821784068448906 -0.0121183371274185 -0.06916111123720903 -0.05805462577967724 0.010873724721896849
        </DataArray>
        <DataArray type="Float64" Name="resid_y" format="ascii" RangeMin="-1.2737997048587943" RangeMax="1.0454141215856827">
          0.0007605905410128233 0.0004202438296957989 0.0001821433439218867 -0.0005748215611779961 0.0027114275946465427 0.0020753939819154743
          0.0029297867723090676 0.0008453591193022802 0.0056067267596804915 0.0062860123626194975 0.00558880221784494 0.004249750913934092
          0.003298043394103903 0.0017896326046126787 0.0007134476769374565 -0.0008338009973534732 0.0064291199007959765 0.004789675484667216
          0.0017437255042568878 0.00311173078659438 0.00467894562192267 0.005073369752685464 0.004028440392422228 0.004981367975048501
          0.0026081743688317616 0.004432024378783317 0.002567500976589754 0.009059157038027787 0.0020010195265633968 0.003552745546708258
          0.0009057753378925266 -0.0032739832441606165 -0.0022850703235208214 -0.025012389849434546 -0.006961408574863591 -0.004036008667748801
          -0.0024995838123877956 -0.04662267665762862 0.0029307727482469174 0.0008351045714016445 0.00209545510931175 -0.018905701522713786
          -0.0007243754566554766 0.0004618330788563052 0.0005227533289140773 0.006703249879489337 0.0035434650881460417 0.005788712436713264
          -0.00038077477508445534 -0.0007902167514808878 0.000915995321454921 -0.00021037339132931598 -0.0008603334855059319 -0.0025809939315159514
          0.0032037267281912474 -0.000034813910086722855 -0.0009463738051177228 -0.0017356735015326974 0.0012587944492557512 -0.00030928348016222296
          -0.0009892937113225586 -0.00026405980714958033 -0.0005676259286938046 -0.00036048668048882515 -0.001137195589350104 -0.0001660068693668526
          -0.0007144956743256881 0.0000712614554411739 0.00031533541245543084 0.000334541709734959 0.0006805631019499159 0.000927769262425493
          0.001557522209777229 0.0035946485656051658 0.0017005429992273946 0.0028311473883173184 0.003319571089680784 0.004129528847761556
          -0.00026179478203031126 0.00009480963808528031 -0.000041629680771593236 0.00006756258450985042 -0.0011109060456668263 0.00019940515026473093
          0.0009001526210505872 0.001232853268667622 -0.00048575505822412435 0.00013889789206600334 0.0008249932401567239 0.0010162313859405914
          -0.001700856893347369 0.007701792045641143 0.006385171524654343 -0.0025792386461657713 0.004064884926044288 0.004518864573476861
          0.0039458396422502595 0.0048887245294633175 0.003729351280361809 0.00014201671375460578 -0.0012382368496145681 -0.0009873487222318983
          0.0009413383334919145 0.0026642437140382003 -0.001177470159899878 -0.001852708308742665 0.00022197610351842867 0.0014156360331435414
          0.0000707828117680236 -0.00023769670509886376 -0.0002432344151054311 -0.00026016466741393685 0.0004218521386021301 -0.0001428379478917996
          -0.0002549027341036958 0.00007715035017294425 0.0010172415307995175 0.0005407136820890224 -0.000029305042195670872 0.0007292945988700006
          0.0014519670971395726 0.001480954209190255 0.0002648744930077024 0.028031693943642702 0.03251212525758146 0.016579261266851816
          0.00033824695013348616 -0.000296048013486816 -0.00002112879557231162 -0.00035769826563297746 -0.0006403085054443314 0.001363936946933375
          0.000023169250096974348 0.00016392176954677096 0.0017857545753983128 0.00063967078379501 0.0023385180920073856 -0.00008111468631938346
          0.0021967018282256223 0.0005235656820620771 0.0017651414129101137 0.002253683358158065 0.007366060108128625 0.0011036110417826928
          0.004105737806810339 0.0027084476983829098 0.011299231387923214 0.004404364147423789 0.007762359749215464 0.0045363822407827326
          0.005982282918656989 0.005111260967824827 0.004586313119133878 -0.0013412123904845696 -0.00022123897528691927 0.002358782471583387
          0.003028253463271846 -0.0011241850636742878 0.0004363944193044311 0.0019197341401482326 0.004090598023206882 0.00022498240110935264
          0.00016139712788915128 -0.0009876918041160643 0.0022948775229258978 -0.0007640163288047952 0.006536043974789074 -0.0012830456586960942
          0.0016267362341165076 0.011235700386040881 0.0023225132737234033 0.0032400581300820047 0.009354991730273321 0.0014204629136053207
          -0.6209709612719096 -0.46752218560677894 -1.2737997048587943 -0.951350266794498 -0.6575904585497656 -0.6138502015267073
          0.00027039249049218284 0.0002234742695319883 0.0010650559098413642 0.0007909314885263599 0.0011927563854006173 0.0009472521061783257
          0.0022127933808460815 0.002787338766630211 0.005312175839081057 0.0029897167560102023 0.0031891887222475213 0.0037092225004636825
          0.001016708275089484 0.0012520624872530972 -0.006983003335714777 -0.00787629202315994 -0.0017724764039037666 -0.0089592032091515
          -0.00023601468496489697 -0.0005487581226051308 -0.0004983431133369631 -0.0007682931276884464 -0.00042139492989184957 0.00006572385308756257
          0.0032736156612447193 0.001286306974325191 0.003436479945523027 -0.00045379950014420856 0.0037619078461926247 0.0033496000599478604
          0.0019511857293331714 0.001608111384597738 -0.0003306810397095683 0.00028820466795290156 0.0014521567505656474 0.003778648892163755
          0.0011527623805404896 0.0018845097363823227 0.0022626813476242236 0.003551227784005545 0.0029331206616201866 0.0029651681899604126
          0.001355350908048003 -0.0009446354044930216 0.0028012419843825853 0.000013286015174016064 0.0024254683625277718 0.0019441916310329599
          -0.00017898282446043856 0.0001087799833499048 0.000005692737542306592 0.0020743960958853475 0.0036993885598530785 0.002015949141945972
          0.004171577718060121 0.001777241502569138 0.003736701623773625 -0.0002522518238185865 -0.000504340968654135 -0.00011013789139815988
          -0.0005885238477239159 -0.0012067207455591297 0.00016626310824796597 0.00029846602756359447 -0.00020219033371769723 -0.000016079687706643808
          0.000515069684622449 -0.0007714444935080222 0.0003091061434591924 0.0006856814281879231 -0.0010448531086137969 0.00026953351010194915
          0.00014011733194296827 -0.0001828762332385936 0.00041053898308124337 0.00015729233695588318 -0.002342162270342396 -0.0006913739672042007
          -0.44114815412677977 -0.8817474310702486 -0.5112953055971201 0.0011560187825120014 0.007519443220672606 0.004955497673862191
          0.001342927260187421 0.006099096301615606 0.0041137341061697336 -0.000521167981348436 -0.001925287970479972 -0.0007383463309408866
          0.0000702970101014444 0.003499219379432872 0.0028909511670088817 0.0005380867976916837 0.0032346072367573364 0.004807544216124671
          0.0018606649060436131 0.0032979356910984303 0.005645837464712783 0.0018089634098399365 0.0024853175330778743 0.002125578048096599
          0.0018608470864594912 0.002293300494922823 0.0022822494578786934 -0.000865607942930835 0.0004171675692407756 -0.0008616325659152047
          -0.0008197116091510637 -0.0006168467212716577 0.0016592057980400754 -0.0016161554453224536 -0.0009096663992450571 0.0026835342700646803
          0.0023101243961354267 0.0017950234750533367 0.001830062728797266 0.0006885459703149799 0.0017068003883826122 0.004461842269919136
          0.002248759502924136 0.0014016533504980222 0.0009749329256938388 0.003934749669467774 0.0039957765675699974 0.003976266473027235
          0.002535845497907807 0.004955488055833068 0.006821764788689788 -0.00007743454360667479 -0.00006059449770112746 -0.00003621212394311346
          0.003609565513986515 0.001155190888604385 0.003292107783503778 0.0035464752997700355 0.005391871244414093 0.005114540298440856
          0.0010337218565044382 -0.00003123192906340222 0.00013707656445027805 0.00025991824292498356 0.0008359773730276521 0.00048331223173986304
          0.004363757911958005 0.004292244039872273 0.005660696412936539 0.006946919799530105 0.0029344768473744676 0.0047934976021839215
          0.005413229095429517 0.0063499540500912 0.002385823932882336 0.005088945273767742 0.003041310622152571 0.005011891162738813
          0.0036077055737810462 0.0022544789176098534 0.0014293594795911201 0.0028912762770400557 0.0003381468387125726 0.0010397027865855502
          0.0023007461513818717 0.002535617652090205 0.0019558330213966524 0.0006560221540095057 0.004213972960947776 0.0065622249230888885
          0.003613928690408892 0.005197898239714838 0.007700892279689342 0.0037254857425210175 0.003915198821329929 0.006063582752789315
          0.005476427892406349 0.004799290285373098 0.006678551261000462 -0.0010440939969440788 0.000664265179506629 -0.0005171331900162279
          0.001878399029735231 0.003681756453397078 0.0037723678874125033 0.004660898378730127 0.00627029737471696 0.004699519969174254
          -0.0006795715573306715 -0.0004871728979624901 -0.0003475081567052285 0.0017902608349806837 0.0029853986495007034 0.004581414552645546
          0.0012796641758867633 0.0002914226966715394 0.000839889634296459 0.003928794621192555 0.0037665834789126773 0.0034804192538684248
          0.0019107682896341571 0.004284690310762382 0.002866976686318523 0.004735071483772269 0.0019181921859810352 0.004095286242954493
          0.0042324510070868016 0.0019471083120822241 0.005012393031748996 0.003129279414370967 0.001052333839208941 0.002664929119645082
          0.0007964173802221114 0.0004948889437748766 0.00012560051178084342 -0.0005793786913895482 0.0009372532676314993 0.0009402263314098463
          0.001505421141267782 -0.002066352849527775 0.0021202366195966216 0.00970902058452583 0.007777025499646567 0.016161876184587337
          0.000427366137700419 0.0025823220224515386 0.0016188555502715807 0.0012245092066196506 0.0004564792363571102 0.0014424681280674478
          0.0007179639159293205 -0.00022693222063571716 0.0009280272031824965 -0.000014695727718561091 0.000721727878890216 0.0013738485392675304
          0.00023826727790654534 0.0010499253525975139 -0.0005930994219158631 0.0012749684762062008 -0.0015943454719959949 0.00012974264688033615
          0.0002964114025294229 -0.003037363741671073 0.0013081643561834097 0.006902880875885975 0.00625902183999838 0.01151023330652623
          0.011262289468195297 0.0036284550848942887 0.004115864580606643 0.00487729337767015 0.004592406153520245 0.011118097841722352
          0.006785941825237202 0.010313914802099922 0.0180118630575396 0.007826873081663771 0.007472967204720654 0.012154315383021419
          0.01100694359855342 0.00028946417664590246 0.01603319685357088 -0.0008550324303498308 -0.0007643002066757831 0.004711482230488485
          0.0034271419764809186 0.0020305945571393313 0.002280048462099782 0.3942006865994077 0.33289651815747073 0.7898387371934661
          0.6684178988291082 0.4423885243411728 0.3849222399963639 0.12273776172808415 -0.04379545021733092 0.25428942138862076
          -0.0721258262882381 0.217949994840811 0.06620978663266097 0.0010341188977130156 0.00048653138598549195 0.0008424346662344179
          -0.0006531756348928039 0.0009561031355265898 0.0003902725822307884 0.0016331690759626705 0.0013215595265743119 0.002013770189722236
          0.4527146709084346 0.004397667392384378 0.9037804291465333 0.015463473168419088 0.4581563774781393 0.006168339251920882
          0.4652748692787756 0.9165889453284207 0.42841064069915546 0.003707625026592526 0.002226732436692691 0.004835133128354013
          0.42511623512550006 0.8299740879235002 0.331605723567996 0.004430366766280613 0.0017130033726567295 0.0035936365700633133
          0.004292345851649549 0.00034805550491570983 0.002246158043744284 -0.046576318368810515 0.5271340234886616 -0.07141258464934257
          1.0454141215856827 -0.05740869693832512 0.32204820537327383 0.004948214142090485 0.006913348287489102 0.0012949998605217838
          0.0020510931087818485 0.0021721132500947815 0.002015252261217515 0.0016041597752797787 -0.001944104464188301 0.0003985712311546097
          0.004637944449708775 0.0027768287319674956 0.005299603414432308 0.007746816995513717 0.0019253160989460005 0.0023226773815816226
          0.0020211873863098806 0.0012279148378968596 0.0007590298994089167 0.0021956609778441827 0.002373145368660179 0.0009709694824067139
          0.005609596991963617 0.009949287492358572 0.005422229981485338 0.0016490792264041432 0.0009599869417506735 -0.0003973931839541256
          -0.0028937845833882647 0.00119238453289372 0.0006214466386487982 0.0021670366079053066 0.0005244459716765015 0.0016621971317674483
          0.0008999045717854176 0.0019069751096829207 -0.00001971008098593935 0.0036594347181438808 0.0013406352765325258 0.002769316034711866
          0.0028336921674828597 -0.00030657760156233005 0.000046188988240158935 0.0006156848911313406 0.002383491410724803 0.0018941607875532784
          0.005487931647085831 0.005992538911028744 0.005085953296580903 0.008654802623992874 0.01262811969897959 0.007731460678508245
          0.004478206790601291 0.002087556894449949 0.001627191145438793 0.00392420829419779 0.003067041136286086 0.0011226527108375295
          0.0012819816339308815 0.002284030720979935 0.003083005343547718 0.00417802836076283 0.004260878245740729 0.004623017515968997
          0.004900199392621929 0.0040419908169310875 0.0028723902270073043 0.0041555316419374655 0.004094888729586049 0.003623538998317105
          -0.0025334925918786416 -0.0009345204089074161 -0.009482584922331089 -0.00533321780852343 -0.00040643951231410236 -0.00276725472999112
          0.0005718539013385704 -0.0006817510341214153 0.001493225559386642 0.00019499708299798926 0.0021511800255003544 -0.0009648345288437929
          0.0025046044909838756 0.0035337994174822274 0.0022129111262961243 0.0007844978031482375 0.0029268866732243826 0.003938464770529108
          0.00316798490446496 0.00004766339264122843 0.0027661774513326187 0.001990245209479158 -0.0005217513664796947 0.0013930068977921206
          0.0006238083920308557 0.0011594422667821624 0.0005610511753249559 0.0010770049091150535 0.0006228578192697398 0.0008615138065739131
          0.0005407736087043591 -0.003331487055324517 0.0013057429686549604 -0.0007510495867348727 -0.0014178181419457203 0.004858549781572685
          -0.006336146983623281 0.004070828446469069 -0.0002470890640052237 0.0005308473193257335 -0.0007567199506192113 0.0016050316762800665
          -0.0013671671570328892 0.000328694997857093 -0.0005505078569027488 0.005853315891396205 0.010904583944011392 0.006856960820124658
          -0.00013530936652883518 -0.001648286758182238 -0.0033191060451709387 -0.0044539336500632465 -0.00033820731476214005 -0.0028427647723869715
          -0.0007754020517633797 0.0003982154331966803 0.0025950142253357567 0.0005593292663691463 -0.0008636319691215366 0.0009276785300614265
          0.0021932666697938585 0.002894984373993381 0.0017985439299248729 0.002750931532751355 0.004140285588548037 0.0036738045400919184
          0.0006382811641610919 -0.00005247413682640811 0.00042980077197712907 0.0021313569363621 -0.001170539311492913 0.00022740147297063695
          -0.0013408306087156763 0.0024651015168808688 0.00019926422134244892 0.0007772421557269427 -0.0018305324806413559 0.00045464938392997256
          -0.002355165505857071 0.0008163218004298978 0.00019325425820931885 -0.0005485805530672239 -0.0014084703817437982 -0.0001741342730565143
          0.0035735832121011613 0.0019177371770444651 0.0037228691247883777 0.00009014609423912967 -0.0006925872725883631 -0.0002895766190059157
          0.003639990716910381 0.00403911109518712 0.003473637182465711 0.006758110855657584 0.009659102054034197 0.004645734126373813
          0.0005177736061663385 0.0006845166282368753 -0.0004077534208496991 -0.00033732965813132454 -0.0003487642292572257 0.0003393980555370657
          0.003702941855725006 0.00006183060993247835 0.00242494045076197 0.002050202245887034 0.0019866405217621175 0.001822048903803386
          0.0045194815315503095 0.0013288370161163021 0.005879717143145627 0.0023501699819391333 0.0023568789684532687 0.0012566111376500974
          0.0039394738162468745 0.004660369224974148 0.0027403058453281393 0.0027583156801697095 0.0027823602075952303 0.0034284711648938093
          -0.085857318013417 0.00027143096957976676 -0.12704793503480744 -0.1547634839778091 0.0005682365678379431 -0.24167937093132086
          -0.005434392781888786 -0.0007031533581878247 -0.07480639232042169 0.00013726175202688484 -0.003893919698291115 -0.0007161291772257439
          0.0023522651655258214 0.004086386693604782 -0.006917074203497464 0.001215093615155996 -0.001516576402497652 0.0019286002120339901
          0.000740615419388635 -0.003616447147170243 0.00007193335230176734 0.005854858067267182 0.0058366710281122225 0.003643291670895138
          -0.27900868838425164 -0.5529385223180994 -0.27597162968854994 0.0014615845990447462 -0.0034471163060282584 -0.00005574357580323541
          0.004253045574305503 0.0019082781184064923 0.003404361705419079 -0.0000264392438122929 0.003919233205724959 0.0033334111628893215
          0.005288797342670931 0.0027492484081882707 0.002233128979307747 0.003216140171572776 0.0038817435696749114 0.002146735771172817
          -0.013069922399909936 -0.033631652084827296 -0.009831645538985884 0.005414849750176899 0.0007828578703482358 0.0009943464450274664
          0.0016935078421278504 0.0010341569283453256 0.00004476691073856953 0.008334692061637061 0.011619717971276755 0.0060981535714563495
          0.004974693827949281 0.004134666505810569 0.0009080647212465487 0.0024898621289999173 0.0011735008502884725 0.0022857617466601754
          0.0078013271608219316 -0.03679624618242017 -0.03509656118651715 -0.0021779236840768212 0.019733824849308773 0.0018850180382993242
          0.03509213829936014 -0.0034247373772339773 0.009166257676323342 0.007121621230844977 0.004747429390508234 0.0036204003226291345
          0.001589224564434208 -0.0023923544033017663 0.001373719280535174 0.019259095908783275 0.03352790279910883 0.01857981366322395
          0.38856988967582096 -0.012420812378661772 0.7273140472768281 -0.010087842628378182 0.3335842196016934 0.036607134466617765
          0.009629784850529288 0.014609776863635182 0.017553525729145883 0.029385225089381184 0.02752018752822022 0.020039001613234103
        </DataArray>
        <DataArray type="Float64" Name="resid_z" format="ascii" RangeMin="0" RangeMax="0">
          0 0 0 0 0 0
          0 0 0 0 0 0
          0 0 0 0 0 0
          0 0 0 0 0 0
          0 0 0 0 0 0
          0 0 0 0 0 0
          0 0 0 0 0 0
          0 0 0 0 0 0
          0 0 0 0 0 0
          0 0 0 0 0 0
          0 0 0 0 0 0
          0 0 0 0 0 0
          0 0 0 0 0 0
          0 0 0 0 0 0
          0 0 0 0 0 0
          0 0 0 0 0 0
          0 0 0 0 0 0
          0 0 0 0 0 0
          0 0 0 0 0 0
          0 0 0 0 0 0
          0 0 0 0 0 0
          0 0 0 0 0 0
          0 0 0 0 0 0
          0 0 0 0 0 0
          0 0 0 0 0 0
          0 0 0 0 0 0
          0 0 0 0 0 0
          0 0 0 0 0 0
          0 0 0 0 0 0
          0 0 0 0 0 0
          0 0 0 0 0 0
          0 0 0 0 0 0
          0 0 0 0 0 0
          0 0 0 0 0 0
          0 0 0 0 0 0
          0 0 0 0 0 0
          0 0 0 0 0 0
          0 0 0 0 0 0
          0 0 0 0 0 0
          0 0 0 0 0 0
          0 0 0 0 0 0
          0 0 0 0 0 0
          0 0 0 0 0 0
          0 0 0 0 0 0
          0 0 0 0 0 0
          0 0 0 0 0 0
          0 0 0 0 0 0
          0 0 0 0 0 0
          0 0 0 0 0 0
          0 0 0 0 0 0
          0 0 0 0 0 0
          0 0 0 0 0 0
          0 0 0 0 0 0
          0 0 0 0 0 0
          0 0 0 0 0 0
          0 0 0 0 0 0
          0 0 0 0 0 0
          0 0 0 0 0 0
          0 0 0 0 0 0
          0 0 0 0 0 0
          0 0 0 0 0 0
          0 0 0 0 0 0
          0 0 0 0 0 0
          0 0 0 0 0 0
          0 0 0 0 0 0
          0 0 0 0 0 0
          0 0 0 0 0 0
          0 0 0 0 0 0
          0 0 0 0 0 0
          0 0 0 0 0 0
          0 0 0 0 0 0
          0 0 0 0 0 0
          0 0 0 0 0 0
          0 0 0 0 0 0
          0 0 0 0 0 0
          0 0 0 0 0 0
          0 0 0 0 0 0
          0 0 0 0 0 0
          0 0 0 0 0 0
          0 0 0 0 0 0
          0 0 0 0 0 0
          0 0 0 0 0 0
          0 0 0 0 0 0
          0 0 0 0 0 0
          0 0 0 0 0 0
          0 0 0 0 0 0
          0 0 0 0 0 0
          0 0 0 0 0 0
          0 0 0 0 0 0
          0 0 0 0 0 0
          0 0 0 0 0 0
          0 0 0 0 0 0
          0 0 0 0 0 0
          0 0 0 0 0 0
          0 0 0 0 0 0
          0 0 0 0 0 0
          0 0 0 0 0 0
          0 0 0 0 0 0
          0 0 0 0 0 0
          0 0 0 0 0 0
          0 0 0 0 0 0
          0 0 0 0 0 0
          0 0 0 0 0 0
          0 0 0 0 0 0
          0 0 0 0 0 0
          0 0 0 0 0 0
          0 0 0 0 0 0
          0 0 0 0 0 0
          0 0 0 0 0 0
          0 0 0 0 0 0
          0 0 0 0 0 0
          0 0 0 0 0 0
          0 0 0 0 0 0
          0 0 0 0 0 0
          0 0 0 0 0 0
          0 0 0 0 0 0
          0 0 0 0 0 0
          0 0 0 0 0 0
          0 0 0 0 0 0
          0 0 0 0 0 0
          0 0 0 0 0 0
          0 0 0 0 0 0
          0 0 0 0 0 0
          0 0 0 0 0 0
          0 0 0 0 0 0
          0 0 0 0 0 0
          0 0 0 0 0 0
          0 0 0 0 0 0
          0 0 0 0 0 0
        </DataArray>
        <DataArray type="Float64" Name="stress_zz" format="ascii" RangeMin="-6692935.65276628" RangeMax="6573580.163032983">
          -1084652.8527311755 -294753.72687485913 -958342.9720342974 -2230557.000610386 -1190913.4354529753 -363831.76108788885
          -964267.2080259315 -2237750.4214863423 -1297174.018174775 -432909.7953009185 -970191.4440175658 -2244943.842362298
          256384.23773068594 54387.21281197789 356307.79289991385 469204.5299691318 250379.28618031763 28434.607967511118
          345246.9187272499 468105.1388542098 244374.33462994912 2482.0031230443274 334186.04455458594 467005.7477392878
          -1429719.074789253 -586548.4922141755 -1512065.210570482 -533800.5114258702 -1594411.346351711 -481052.53063756507
          -1975501.151740307 -643067.0363015096 -293895.69060748135 -3134656.089268543 -2003333.9144591072 -692035.6342999821
          -356464.93220513564 -3361657.42198969 -2031166.6771779072 -741004.2322984545 -419034.1738027901 -3588658.7547108373
          759440.993859487 1542593.928985974 686595.5926422663 1484115.8019430137 613750.1914250456 1425637.674900053
          1896137.8463277002 3942259.4778240975 4034643.552874334 1233852.6207236908 1931547.2718735407 4273593.353420644
          3964031.3174751117 953365.320966077 1966956.6974193815 4604927.229017191 3893419.082075888 672878.0212084634
          2414709.5013248725 2663428.9577276036 2054119.7762463368 2227436.8289182563 2523172.670228055 2652169.2640481084
          2179278.7781052883 2403078.4897319293 2631635.839131237 2640909.570368613 2304437.7799642393 2578720.150545602
          -3246482.7096526925 -1893197.3740783301 -3284568.8260574425 -1990278.6806887593 -3322654.942462193 -2087359.9872991887
          -710920.0911009733 3374438.35733281 4931799.982597233 2799116.7688449025 -731136.7540827211 3527230.2328750235
          4837543.767530632 2774256.3174949135 -751353.417064469 3680022.108417237 4743287.552464031 2749395.8661449244
          1531490.5232573482 1697941.727891474 3288207.8746261606 1502219.1240151394 1629467.6007480551 3418560.04143767
          1472947.7247729306 1560993.4736046363 3548912.2082491796 3503706.127579217 2863967.4081057655 1582468.4405553078
          3393191.907417762 3383861.6774073755 2895912.359339427 1654794.4467176115 3264531.963559833 3264017.227235534
          2927857.310573089 1727120.4528799155 3135872.0197019037 380458.1184141793 -46820.75368542515 457082.90401788073
          -104249.11520501523 255175.1030786316 63001.372508974804 559925.9411720061 -220908.24298481992 129892.08774308395
          172823.49870337482 662768.9783261314 -337567.37076462473 -28448.318352980743 -5070.037137968466 18308.244077043957
          1999895.7796538242 2811184.180594321 1286767.7183888075 2042547.9502304855 2937213.950042902 1456113.8080370433
          2085200.1208071467 3063243.7194914827 1625459.8976852796 1682953.1932118 506880.7180991769 1583877.6906541404
          620827.3926829824 1484802.1880964811 734774.0672667879 528191.3826645473 1519971.1815461605 2407197.7951881457
          2237925.405893754 587094.1076474126 1551199.4696472478 2416514.4460638845 2302652.007204345 645996.8326302778
          1582427.757748335 2425831.0969396234 2367378.608514936 -399574.005925294 -4566368.022958173 -5863043.13349529
          -3792369.0412157564 -693837.2432987152 -4918003.308529038 -6277989.393130785 -4252460.226365215 -988100.4806721363
          -5269638.594099902 -6692935.65276628 -4712551.411514674 3482030.7805344914 1723466.7839111295 3284962.3198427027
          3524291.4072740357 1766493.7929170923 3350008.791737796 3566552.034013581 1809520.8019230554 3415055.2636328894
          -3409254.899528054 5236018.814885762 -3288846.480144122 5194203.278048291 -3168438.0607601907 5152387.741210819
          316779.92642772215 868108.512109396 -1070509.8590804215 -697951.4559204634 285510.77932736604 896889.7022052789
          -1107491.3770287759 -840436.3547299792 254241.63222700992 925670.892301162 -1144472.8949771305 -982921.2535394947
          2410054.790979268 1516004.282239434 2428427.1253168024 1602659.3464761244 2446799.4596543377 1689314.4107128151
          -483256.77448796656 -825922.5852007626 -422973.3737621029 -833183.0217260517 -362689.9730362392 -840443.4582513409
          1551297.6857739433 1778524.575734885 1465862.5620406442 1818695.346198028 1380427.4383073451 1858866.116661171
          -2472609.6268001213 -3375178.4870196735 -3516987.275538357 -2259536.801240712 -2532029.6936135073 -3453822.0583678833
          -3533857.2799091614 -2238346.869112531 -2591449.7604268934 -3532465.629716093 -3550727.284279966 -2217156.9369843504
          1790967.3633614208 -2667684.509402064 1841246.7337255105 -3059851.4701368622 1891526.1040896 -3452018.4308716604
          -1085422.8324487288 -1082744.8761421498 -1080066.9198355707 1537457.2985657183 2219183.7593306107 1555307.9673692412
          2246073.6710861614 1573158.6361727645 2272963.5828417125 546820.5625113982 1101028.746325417 240297.28667651472
          580040.2926514089 1104983.7593128912 88363.42844914278 613260.0227914196 1108938.7723003651 -63570.42977822924
          -1502194.0769329974 -1436616.7409215013 -2717498.3644036707 -1418627.3373932363 -1297085.0981284014 -2692055.3857290316
          -1335060.5978534746 -1157553.4553353013 -2666612.407054392 2786118.625796741 3069281.542402426 3352444.45900811
          5805031.1367890425 6189305.6499110125 6573580.163032983 -117354.87072381988 556894.6734650689 -212160.70992754816
          563202.738477529 -306966.54913127644 569510.8034899894 -226874.3664827745 11197.570826688723 249269.508136152
          -2237099.0970426025 1195967.8121555615 82900.07115715911 -2241815.297935305 1270929.9676760666 39568.348848841386
          -2246531.498828008 1345892.1231965711 -3763.3734594761627 -87291.09057106239 1019581.0272937339 -266853.6376656036
          841233.8855999747 -446416.1847601449 662886.7439062155 -1277347.2793509015 -1161108.5729927595 -1731923.5197758852
          -1606661.6540721976 -1396552.3852248436 -1262915.4006043451 -1830805.4634672618 -1735856.4211332237 -1515757.491098785
          -1364722.2282159312 -1929687.4071586384 -1865051.18819425 963026.9694131319 -171794.12617625768 117982.69890716922
          1135056.8520497868 920032.8796590769 -146284.23929782593 117734.50471942929 1061564.5739937243 877038.7899050219
          -120774.35241939418 117486.31053168932 988072.2959376618 1261111.319722154 958042.7370302689 -106672.99276005849
          1312038.140596178 921816.0457534424 -273893.0400163405 1362964.9614702014 885589.3544766161 -441113.08727262245
          2878924.9627940273 2989862.0403704257 3100799.117946823 346686.58385471057 182185.13944260095 17683.69503049142
          -457492.5331879069 -1393874.459798899 -400937.2934287114 -1251438.060830953 -344382.0536695159 -1109001.6618630067
          -179192.0831803621 -609582.8977901674 -201657.7949000035 -561060.1746617251 -224123.50661964485 -512537.45153328276
          4120991.4242966296 4243794.55358667 4366597.68287671 497439.3933627067 77780.85268035282 1579546.5870384946
          1590778.8046559112 543110.7195174696 34062.365760909546 1582079.4455501034 1674443.6956540311 588782.0456722329
          -9656.12115853404 1584612.3040617127 1758108.5866521504 -233514.9107703751 -279031.47547936405 -324548.0401883533
          -33395.729728633945 19953.119543606255 73301.96881584649 -1786274.6759219053 -3571796.3161786874 -1813698.7682177455
          -3667357.0705768308 -1841122.8605135852 -3762917.824974973 -836282.6645628565 -932462.2720723087 -1028641.8795817606
          -3886795.0448665777 -2392533.2846964956 -3907353.7154124887 -2356502.925741441 -3927912.3859583996 -2320472.5667863865
          -4176495.4710099394 -4982497.17014932 -5788498.869288701 -1340004.3511376216 -1032685.073330306 -1305608.8683815268
          -1009270.8001451906 -1271213.385625432 -985856.5269600749 -953167.603483557 -938334.2299319687 -923500.8563803806
          936932.1993886773 920474.9627546583 904017.7261206394 -844932.9138733179 -833116.282961061 -821299.6520488043
          -3437385.6257672673 -2279841.0601071883 -3879151.6924476083 -2641983.7575260988 -4320917.759127949 -3004126.454945009
          111087.36229031021 175720.6170700484 240353.8718497866 -2623491.265324057 -974135.7193442464 -2778401.63560344
          -1031028.1899636294 -2933312.005882823 -1087920.6605830123 4477283.299926053 1420085.5350057853 2426254.5220842445
          4431667.246344067 1308296.9755348975 2246276.5560026704 4386051.19276208 1196508.4160640098 2066298.589921096
          2005088.972333726 1532793.9848879634 2095622.7120028497 2017653.4455645948 1537002.1178135746 2073379.7132622253
          2030217.9187954634 1541210.250739186 2051136.7145216009 1863845.2966517755 3887338.809287268 1898282.0338414968
          4094885.600405668 1932718.7710312186 4302432.391524069 1249461.5482800407 945543.5131353454 680166.0916414505
          1317860.2123103589 945669.7899356366 694636.8017681162 1386258.876340677 945796.0667359275 709107.5118947818
          -812776.6379042476 -82037.7651430686 -889071.7970293008 -74874.21722204665 -965366.9561543544 -67710.66930102467
          535123.3852193878 517506.3702069822 499889.35519457655 729252.1393419981 1994424.103955869 676723.8443966623
          2002556.086350461 624195.5494513267 2010688.0687450531 2954807.4883638937 2619509.0926173255 2922815.0210271673
          2470218.801401917 2890822.553690442 2320928.5101865083 169635.27605800785 534242.3241085787 -48777.4842097974
          354086.6742384946 -267190.2444776027 173931.0243684104 -938951.3234799879 -867099.2626080889 -795247.2017361901
          396479.3495465915 7062.072363549058 445296.87033003545 61027.3292654623 494114.3911134794 114992.58616737557
          978331.3245059052 940879.8007322676 903428.2769586298 786262.2516082262 887288.1243426849 988313.9970771436
          2000937.8486204096 2201803.5775351245 2402669.306449839 985467.2148266973 1167265.7852933845 1349064.3557600714
          -413864.1181233282 -328271.39625257 -242678.67438181178 -981888.1873033914 1701810.7157908264 -1060259.116135585
          2055917.1084121298 -1138630.0449677785 2410023.5010334332 124129.21100022004 -274464.4104496417 81347.41014504326
          -261767.0662495135 38565.609289866494 -249069.7220493852 -3445440.4852073025 -3502836.429566549 -3560232.373925796
          466387.02424811496 486458.53495063755 506530.0456531602 -688553.8374429392 -638344.6137427296 -588135.3900425202
          1587512.7486628238 1570975.6452787153 1554438.541894607 462397.8305912099 879540.4192418305 1296683.0078924508
          -1434358.5024628225 -1418536.563788884 -1402714.6251149457 2798947.64410065 2012078.5146320947 2820975.5740699023
          2105421.698795666 2843003.504039155 2198764.8829592373 2070923.0080054451 2074206.969649924 2077490.9312944033
          1085663.2065300257 1595465.3994854556 1058262.143427529 1431891.914545072 1030861.0803250319 1268318.4296046884
          1392771.4464085472 676162.2514461363 1056441.6906801981 1353296.456307444 687733.5631537724 1030316.6503257116
          1313821.4662063408 699304.8748614085 1004191.609971225 610067.6116357743 603917.7884812523 597767.9653267302
          1717809.9790543388 1737634.5363378595 1757459.0936213802 671706.6325875046 1627010.9452980652 691748.7988136942
          1713007.6738724941 711790.965039884 1799004.4024469233 2221380.4548805216 2989463.4939334714 2265934.953506505
          3038936.00707529 2310489.452132489 3088408.5202171104 3770630.1949828495 3910786.5711836535 4050942.947384456
          3101907.8854184235 4190493.60132033 3073081.934142988 4327498.250746978 3044255.982867553 4464502.900173625
          -4463366.181980022 917091.6442156429 -2126983.186835546 -3984142.9370545563 -4597336.377424327 1345301.59432767
          -2085219.512683258 -3934656.5638519796 -4731306.572868632 1773511.544439697 -2043455.8385309689 -3885170.190649404
          -851062.6515171789 -783562.2867924961 -716061.9220678131 -2029855.3398068212 -1930576.9218695941 -1831298.5039323668
          339201.8466120758 -78747.35589034563 224410.13498227994 -321194.0484010751 109618.42335248401 -563640.7409118046
          520016.77428049216 565965.7502075405 611914.7261345887 76986.27291758682 251667.45752672647 127421.39473591118
          82073.39236107584 177856.5165542355 -87520.6728045748 -2328294.498095208 -3459235.67273348 -2320180.637648445
          -3628270.0379113024 -2312066.7772016823 -3797304.4030891247 548790.7384543242 650705.3472738599 752619.9560933955
          3351020.0008310014 4458441.519180823 3561089.7307556896 4735842.782076574 3771159.4606803777 5013244.044972326
          -3936917.6091762893 -3586612.6680349475 -2474866.2695699353 -3308317.932863101 -3996035.1587163 -3503918.7265317594
          -2407807.451553514 -3440642.3722166056 -4055152.708256311 -3421224.7850285727 -2340748.6335370936 -3572966.8115701103
          299533.9319480428 294437.90929979796 289341.88665155304 -2938368.8690631255 -4588017.460796621 -2968988.797897329
          -4432161.307163247 -2999608.7267315327 -4276305.153529872 491293.66846317775 3977938.058406325 475452.1218982892
          4180018.8598507205 459610.57533340063 4382099.661295114 3948212.836359157 4082698.0209450843 4217183.20553101
          1667933.8817600773 1673426.2051093823 1678918.5284586872 -107668.58665885887 -164075.09049281207 -220481.59432676528
          -2063423.7838293654 -2145107.4756416255 -2226791.1674538855 -3837319.8190493598 -3954397.550326978 -4071475.2816045964
          -1309100.1658275153 669426.4895702975 -1321527.7318624237 549005.1570905095 -1333955.2978973326 428583.8246107214
          -1930781.8117078324 -2019897.584130982 -2109013.3565541315 2354624.2170788827 3116755.818813963 3878887.420549043
          1125046.9222057138 1066401.7484929408 1007756.574780168 1325142.8756908423 1281554.3536209508 1237965.831551059
          -5128810.704204541 -5159693.779950618 -5190576.855696695 1927805.4699058584 1966696.6242156653 2005587.7785254717
          3429826.1958676185 3308016.668626869 4860629.870683941 3379433.4271617187 3326182.929027998 4909816.170023845
          3329040.6584558184 3344349.189429126 4959002.469363748 785753.6304752638 1263184.1422437113 1740614.6540121585
          122221.35137072127 1080739.4221310618 -90248.78339859725 787825.3064172074 -302718.91816791584 494911.19070335286
          -3346550.1073203753 -3433515.7046539104 -3520481.301987446 -3887873.9583222494 -3873051.8954810672 -3858229.832639885
          5869037.759145856 5830469.812853364 5791901.866560873 -5138726.737616418 -5065246.255498395 -4991765.773380373
          -5461.713029887931 648523.586745411 74011.23052815847 685532.104983126 153484.17408620488 722540.6232208412
          -4388064.463821033 -4429515.692923054 -4470966.922025075 -2651845.8434228194 -2770922.143128854 -2889998.4428348904
          -3579811.6338215843 -4003519.7387563107 -4427227.843691037 80536.11513795989 115298.06159272615 150060.00804749242
          1035968.6020869451 1036431.4912189594 1036894.3803509738 3297605.71976294 3589849.0552148097 3882092.390666679
          1291544.7566965763 1046188.690700116 1099917.9314808184 985954.4544368682 908291.1062650608 925720.2181736203
          -1589444.4981320482 -1678750.433809538 -1768056.3694870267 -1855544.5895316703 -899358.2047778241 -1809707.4336563007
          -867825.7021103505 -1763870.2777809307 -836293.1994428767 1188876.2570315623 1215986.5272474543 1243096.7974633465
          -190687.03029667403 -168388.57538701003 -146090.12047734618 -1842115.5521873322 -1825344.6680610427 -1808573.7839347534
          552239.4833362359 -1380031.4747059254 1174536.4932044144 -1180857.4594253988 1796833.5030725924 -981683.4441448726
          -1752622.8290617932 -1631356.6800473894 -1510090.5310329858 -2237990.0593203558 -2339028.7955824025 -2440067.5318444497
        </DataArray>
        <DataArray type="Float64" Name="peeq" format="ascii" RangeMin="0.002743165115743779" RangeMax="0.010874273673820782">
          0.006404922744382076 0.006293537050196161 0.00565798329153189 0.005893414677848754 0.006404270407526568 0.006292689555217838
          0.005657355733865859 0.005893051017803764 0.006403618070671061 0.006291842060239514 0.005656728176199829 0.005892687357758775
          0.008240156732899798 0.007922141682471422 0.00793163504901871 0.008243888452641837 0.008238434057602783 0.007922347307288738
          0.007932432299603784 0.008243375477864521 0.008236711382305773 0.007922552932106055 0.007933229550188856 0.008242862503087204
          0.004362349791846346 0.004982545276628671 0.004361783353481795 0.00498263328398669 0.0043612169151172435 0.0049827212913447095
          0.009485513401996448 0.00962135755425035 0.009053437626878357 0.00907134679041071 0.0094854505295271 0.009620556019767157
          0.009051374156340454 0.009068641938463962 0.009485387657057755 0.009619754485283967 0.009049310685802552 0.009065937086517213
          0.008022200720465418 0.008354492651313775 0.0080243398739164 0.00835557736401067 0.008026479027367379 0.008356662076707565
          0.006510515801804463 0.006233757370206803 0.006310210721755916 0.006618872006240256 0.006509224445936794 0.006236460423616548
          0.006307200424242025 0.006609667612521964 0.006507933090069124 0.006239163477026295 0.006304190126728134 0.006600463218803672
          0.009060386652163183 0.009678117752233234 0.009261438719278352 0.008721050483323242 0.009058018568149863 0.009672027534424053
          0.00925733409051048 0.008719660990434381 0.00905565048413654 0.009665937316614871 0.009253229461742604 0.008718271497545522
          0.006124668984274554 0.006518599010257763 0.006125031166454779 0.006518465879565604 0.006125393348635004 0.006518332748873444
          0.006908568206713521 0.006611890790550139 0.007923295615141095 0.00800934402646618 0.006901483004276815 0.006605226747308668
          0.007918277223579722 0.00800537966999932 0.00689439780184011 0.006598562704067195 0.007913258832018353 0.008001415313532458
          0.0072970141119520935 0.007376586687335002 0.007857338201431146 0.007295158184975711 0.007374779608554727 0.007856206413482163
          0.00729330225799933 0.007372972529774452 0.007855074625533177 0.010456606385635529 0.010783146928546471 0.010623299830291994
          0.010344205838793093 0.010447528083034898 0.010775959436439105 0.01061504252236901 0.010334715428390675 0.010438449780434267
          0.010768771944331741 0.010606785214446027 0.010325225017988255 0.0077062446872782865 0.008098747348394457 0.007619540053056809
          0.007422004709735281 0.007704174430771348 0.00809782529902065 0.007619781586748991 0.007421410407328287 0.0077021041742644115
          0.008096903249646844 0.007620023120441176 0.007420816104921293 0.009240367303953915 0.009240507685137903 0.009240648066321888
          0.006610374504976416 0.00642406203928479 0.006167555690256806 0.006611129091965735 0.006425664336673201 0.006170434045172263
          0.0066118836789550535 0.006427266634061614 0.006173312400087721 0.007909543006822705 0.00846224861001109 0.007906176313053202
          0.008460773887057935 0.007902809619283696 0.00845929916410478 0.009925818026022073 0.009588299861469534 0.009886617073200822
          0.010294368139579884 0.009927198067020247 0.009590747241723901 0.00988854295637432 0.010294341213451234 0.00992857810801842
          0.009593194621978269 0.00989046883954782 0.010294314287322583 0.005185634291780365 0.0057129976368576075 0.004518236232605892
          0.0036213943479896766 0.005177316065882444 0.005703065847453239 0.004510187006900925 0.003621921653653859 0.0051689978399845245
          0.00569313405804887 0.0045021377811959576 0.003622448959318042 0.008829303221581652 0.008632795218566676 0.008511052824791277
          0.008832332019599511 0.008633704634319407 0.008514464506119951 0.008835360817617368 0.008634614050072138 0.008517876187448623
          0.0028339178288061422 0.00489768382188591 0.002842283617967131 0.004890433360056136 0.00285064940712812 0.004883182898226363
          0.007732392814185546 0.0077438314026058025 0.008395326112748304 0.008653113581293706 0.007728702351718612 0.007742031791115898
          0.00839170545325576 0.008646157014139379 0.0077250118892516805 0.007740232179625995 0.008388084793763215 0.008639200446985051
          0.00919852309297306 0.008930132891940947 0.009201537178083754 0.00893081219857145 0.009204551263194449 0.008931491505201956
          0.0061081975287273285 0.00638943207250639 0.006102218574399212 0.006382340935366529 0.006096239620071097 0.006375249798226667
          0.008870815681981895 0.008157347221385029 0.008865593379192129 0.008155919108809194 0.008860371076402359 0.00815449099623336
          0.006590133156418679 0.00629077363551338 0.0062280802955780624 0.0066351074670494715 0.006591151578292613 0.006292035475825787
          0.006229791890140914 0.006637202399109772 0.006592170000166548 0.006293297316138195 0.006231503484703767 0.006639297331170075
          0.0060841644306533285 0.005775098157299121 0.006085689753291747 0.0057749973474771656 0.006087215075930167 0.005774896537655214
          0.005764125538792418 0.005757867326747836 0.005751609114703254 0.007055270981730759 0.006995791512160155 0.007057155959481172
          0.006996730969150186 0.007059040937231585 0.006997670426140219 0.006839927593062059 0.00673747060066442 0.006673446497454934
          0.006838672306909146 0.006736489302334835 0.006667372301716689 0.006837417020756234 0.006735508004005251 0.006661298105978445
          0.006282732158231568 0.006456179158985946 0.0053793645040344515 0.006276915089142707 0.006453175491586695 0.005372226234564615
          0.006271098020053848 0.006450171824187443 0.005365087965094778 0.005861898851724934 0.005866937033713617 0.005871975215702301
          0.006457286940107552 0.006450702312580785 0.006444117685054018 0.008788674952613724 0.00888910930184707 0.00878429981035238
          0.00888367789462289 0.008779924668091034 0.008878246487398711 0.006624670926420901 0.00662308178219988 0.006621492637978859
          0.005936760199092549 0.006206276182006542 0.0067924115211533695 0.005939742723170263 0.0062101047324123245 0.00679151577796154
          0.005942725247247976 0.006213933282818107 0.006790620034769711 0.00927133129426314 0.00951703461944833 0.009262235208870397
          0.009508378100374186 0.009253139123477654 0.009499721581300042 0.004266896810163884 0.0037861568746572673 0.0038110929887622803
          0.004465132276787291 0.0042657767024467524 0.0037861730096412174 0.003812126600211311 0.004464372693402404 0.00426465659472962
          0.003786189144625167 0.0038131602116603424 0.004463613110017516 0.006058069258326178 0.005293246376984925 0.005457050025087919
          0.006188654949582369 0.006057684330375872 0.005293168490239065 0.005456485237954124 0.006187700573614496 0.006057299402425567
          0.0052930906034932045 0.005455920450820329 0.006186746197646624 0.008507342161356908 0.008069203671598784 0.008534467343218582
          0.008504854458164592 0.008067205445323706 0.0085305486964365 0.008502366754972276 0.008065207219048628 0.008526630049654418
          0.006687043762572368 0.006688598754035791 0.006690153745499215 0.006584542461546088 0.006574613333955238 0.006564684206364385
          0.0033442380621920005 0.00311967372924035 0.00334749635620762 0.003124098730860754 0.0033507546502232386 0.003128523732481159
          0.004560300711008368 0.00515320270987655 0.004560263680977601 0.00515358979385765 0.0045602266509468335 0.005153976877838751
          0.006496282670981569 0.0064991277465851266 0.006501972822188683 0.007003342577283261 0.00743610515277033 0.007401859299513878
          0.006827746896010539 0.007004724294573378 0.0074368556043588685 0.0074012350348219595 0.0068276629046748576 0.007006106011863494
          0.007437606055947409 0.007400610770130043 0.006827578913339176 0.007907076947586982 0.007905918101468581 0.007904759255350181
          0.006926299488528374 0.006927922642597559 0.0069295457966667435 0.007090873079366534 0.006479439151996759 0.007090242220907445
          0.006478412839697922 0.007089611362448358 0.006477386527399085 0.005431667546286879 0.00543703193250735 0.005442396318727822
          0.006264037700303699 0.006753940242460442 0.0062647073750798 0.006755909531345073 0.006265377049855899 0.006757878820229703
          0.005360078484972921 0.005360626280572783 0.0053611740761726435 0.007013028009522905 0.007074058047755359 0.007014516436414673
          0.007076169968664595 0.0070160048633064395 0.007078281889573832 0.006969333650710702 0.0069705629069548 0.006971792163198897
          0.006766776214738707 0.006765655348872646 0.0067645344830065835 0.007208887678121583 0.007211898476223509 0.007214909274325436
          0.004909803097964499 0.005340472089711942 0.0049106484262795335 0.005341535590289386 0.0049114937545945685 0.0053425990908668305
          0.007549378187637118 0.007551288190950231 0.007553198194263343 0.008397592856659569 0.008338998726146378 0.008394965091025035
          0.008336795870186113 0.008392337325390502 0.00833459301422585 0.009770008745694572 0.010103362420477924 0.009741661452114537
          0.009763679250908036 0.010094623058221964 0.009735916495535348 0.009757349756121497 0.010085883695966002 0.009730171538956158
          0.010776483643236624 0.010562170663025502 0.010489278306484683 0.01077214931081098 0.010560715922650066 0.010486270576749163
          0.010767814978385337 0.01055926118227463 0.010483262847013643 0.00482750526099141 0.005598276302391283 0.0048316410798847804
          0.005603432673239462 0.00483577689877815 0.00560858904408764 0.008637564389201331 0.008483611425561139 0.008370193069533172
          0.008635391275478911 0.00847998507997148 0.008368272812442588 0.008633218161756492 0.008476358734381819 0.008366352555352004
          0.008647339621657327 0.008450814801774006 0.00864465676696595 0.008449437440488684 0.008641973912274573 0.008448060079203363
          0.005636343988860939 0.005636443398639102 0.005636542808417265 0.010645527656442985 0.010874273673820782 0.01064377391101636
          0.010870536268208606 0.010642020165589735 0.010866798862596432 0.010835169309551666 0.01049743097638693 0.010828572626781609
          0.010488701259376114 0.010821975944011554 0.0104799715423653 0.00970964592238599 0.010022207854898272 0.009699930520816273
          0.010011975910315612 0.009690215119246557 0.010001743965732956 0.008902230284391322 0.00889814232125161 0.008894054358111896
          0.010222427297044864 0.010148513012019805 0.010221765673151318 0.010148552902555358 0.010221104049257773 0.010148592793090916
          0.009653743502562064 0.009652221820578476 0.009650700138594889 0.007654057234652917 0.007655362018214791 0.007656666801776665
          0.008999723627278744 0.008997777904512118 0.008995832181745492 0.007476044687532815 0.007478791958422821 0.00748153922931283
          0.007462745983722677 0.007464949589628431 0.007467153195534186 0.00844989975299825 0.008305030200979831 0.008450523483472333
          0.008306563553703216 0.008451147213946417 0.008308096906426601 0.007636136507087972 0.007518371108190235 0.007639150469355514
          0.00752034451975311 0.007642164431623055 0.007522317931315987 0.0057620376105420555 0.005762852136416712 0.0057636666622913665
          0.005907717557248522 0.005908020766988601 0.005908323976728681 0.007474269976655754 0.007476062457089675 0.007477854937523596
          0.0070437200540894255 0.007044660834811243 0.00704560161553306 0.004614096421428784 0.004622048873779482 0.00463000132613018
          0.004110560197375595 0.004114486453743255 0.0041184127101109155 0.009001651943496999 0.008383621427950391 0.009001573873069916
          0.008386636291124808 0.009001495802642832 0.008389651154299224 0.00961000575179427 0.009606842469770772 0.009603679187747271
          0.010320656535927866 0.009959943736259117 0.010310904947463558 0.009950031159737785 0.010301153358999247 0.009940118583216457
          0.006649645443211864 0.00717150729867783 0.006485816282213211 0.006648438579167585 0.007170448697131775 0.006485431864829891
          0.006647231715123304 0.007169390095585722 0.0064850474474465675 0.006308291879224313 0.006309125556283123 0.006309959233341933
          0.01013859796449372 0.010133057804944716 0.010127517645395708 0.007951033384748273 0.008009158267470817 0.007951321486961442
          0.008009078672585013 0.007951609589174614 0.008008999077699207 0.010078376265978291 0.009573962098595868 0.010077707565473926
          0.00957570965498915 0.010077038864969565 0.009577457211382432 0.009044537141400038 0.009048518304773188 0.009052499468146338
          0.009425769415409188 0.008982641118405826 0.009429276588895898 0.008987387520278424 0.009432783762382607 0.008992133922151022
          0.0034340535114840785 0.0038502752453657713 0.003799662336793172 0.0033374436953025315 0.003441541722803456 0.0038601169225243866
          0.0038063775107350663 0.003345002931184402 0.003449029934122835 0.0038699585996830018 0.0038130926846769607 0.003352562167066272
          0.004740949228779672 0.004741294563859508 0.004741639898939344 0.005132843630971204 0.0051399512725246056 0.005147058914078006
          0.0071944527306047005 0.007190202434524002 0.007192353105105715 0.007188923179364191 0.007190253479606731 0.00718764392420438
          0.007899612929474336 0.007903696791696307 0.007907780653918282 0.008787229319262466 0.008628933911594139 0.0087838883085056
          0.008623220011111196 0.008780547297748733 0.00861750611062825 0.006068930588844234 0.004993667192622605 0.006059993562217837
          0.004985091860964138 0.006051056535591439 0.0049765165293056725 0.006990612431915755 0.006991379711750154 0.006992146991584555
          0.008560571233138308 0.00867003091301771 0.008566009197967519 0.008675366383901288 0.008571447162796729 0.008680701854784867
          0.005142901372488894 0.005444339956430372 0.005051567652788465 0.004606909722163309 0.0051430983440126825 0.005444835265566994
          0.00505198381766222 0.004607414536288065 0.005143295315536472 0.0054453305747036145 0.005052399982535977 0.0046079193504128205
          0.007210852331951807 0.007207291630933891 0.007203730929915976 0.004028195989306311 0.003460158196164549 0.004030267570486232
          0.003465385361783761 0.004032339151666151 0.0034706125274029734 0.008070983823115902 0.008960583905217978 0.008067278944900436
          0.00895777685872263 0.00806357406668497 0.00895496981222728 0.00900860242266012 0.009004061302425894 0.008999520182191667
          0.00820085202914524 0.008198207664538059 0.008195563299930882 0.007213520626941079 0.0072079888671772434 0.0072024571074134095
          0.004393905499331281 0.004398157083451977 0.0044024086675726725 0.0030581237957211854 0.0030632045584102884 0.0030682853210993915
          0.007125667755417222 0.008046686060901293 0.007118697874845294 0.008042793110409407 0.007111727994273367 0.008038900159917518
          0.003882083811280061 0.003883544830250993 0.0038850058492219245 0.004140412621741273 0.004148003199706005 0.004155593777670737
          0.008514659774181692 0.008509740088626696 0.008504820403071699 0.010505374980589045 0.010498790878654542 0.010492206776720041
          0.003037158611544855 0.003042714340830993 0.0030482700701171313 0.008211938848063512 0.008216334151420321 0.00822072945477713
          0.00990177983955624 0.009854376415128933 0.009035903478226049 0.009894530206000729 0.009847381321204792 0.009030419953339171
          0.009887280572445218 0.00984038622728065 0.009024936428452292 0.004419383080976426 0.004429301929890691 0.004439220778804959
          0.008703223743379592 0.008498820414543534 0.008696433420653005 0.008492640210126067 0.00868964309792642 0.008486460005708603
          0.005040928748892439 0.005043539635262914 0.005046150521633391 0.005842788524607876 0.005843685696190328 0.005844582867772778
          0.00787712067873644 0.00787145091538423 0.007865781152032021 0.0033301661326554464 0.0033349890159207205 0.0033398118991859946
          0.005043364876947714 0.005756391063184306 0.00504377460985063 0.005756919767936564 0.005044184342753547 0.005757448472688822
          0.005715955633057343 0.005716222518371309 0.005716489403685277 0.002743165115743779 0.002746711826251555 0.0027502585367593308
          0.008691177250113709 0.00868948259322577 0.008687787936337829 0.008887764612385225 0.008882937721088566 0.008878110829791907
          0.010689809092431403 0.010683414420772171 0.010677019749112943 0.00820464934202376 0.008203645019283364 0.008202640696542968
          0.008395245889574724 0.008286837289309172 0.008390525426473405 0.008283936475707585 0.008385804963372085 0.008281035662106
          0.008787405057036563 0.00878416257291586 0.008780920088795162 0.008178753797888547 0.008238766804137087 0.008180252227540069
          0.008238899431264882 0.008181750657191594 0.008239032058392676 0.008476966814812303 0.008475906410671238 0.008474846006530173
          0.008296415559575264 0.008297091099225367 0.008297766638875473 0.008318625249234782 0.008317759132702164 0.008316893016169547
          0.007715392120372588 0.007777169754133116 0.00772069015192459 0.007782556351255708 0.007725988183476591 0.007787942948378299
          0.008131822303891189 0.008134863853952649 0.00813790540401411 0.008325974451162944 0.00832637046578746 0.008326766480411973
        </DataArray>
        <DataArray type="Float64" Name="pe11" format="ascii" RangeMin="0.002742319160226543" RangeMax="0.010870783817594577">
          0.006404096428015568 0.0062928819543874946 0.005657183393210778 0.005892061287389692 0.006403419992656052 0.0062920219958556576
          0.005656533000347021 0.005891648348432076 0.006402743557296537 0.0062911620373238206 0.005655882607483265 0.0058912354094744586
          0.008238466296934751 0.007920141578900853 0.007927608649369488 0.008239884397555 0.00823669837552478 0.007920289850621475
          0.007928342409361858 0.0082393103532875 0.008234930454114806 0.007920438122342097 0.00792907616935423 0.008238736309019997
          0.004361814271917473 0.004982018148532409 0.004361238651373249 0.004982096762053363 0.004360663030829023 0.004982175375574316
          0.009478382300288482 0.009614158655898961 0.009047203375417093 0.009065802490833975 0.009478166032251845 0.009613209812022974
          0.00904506876979364 0.009062911838838197 0.009477949764215208 0.009612260968146987 0.009042934164170189 0.009060021186842416
          0.008015279219187228 0.008347657759313213 0.00801736656897851 0.008348700334119568 0.008019453918769792 0.008349742908925921
          0.006507192969136107 0.0062287875465854015 0.0063060678109037056 0.006617474157647274 0.006505832927057758 0.006231475920116618
          0.006302976703172501 0.0066081305274911855 0.006504472884979413 0.006234164293647835 0.006299885595441297 0.0065987868973350974
          0.009057334561686062 0.009674163517569676 0.009256389643579253 0.008717912071386438 0.00905498549584001 0.00966805044984167
          0.00925231333695361 0.008716563208693046 0.00905263642999396 0.009661937382113668 0.009248237030327969 0.008715214345999651
          0.006122224505136298 0.006517076180489419 0.006122494003782279 0.006516894067965017 0.00612276350242826 0.006516711955440615
          0.006903235607481448 0.006606365297480629 0.007920139741541942 0.008006592370501987 0.006896299826265258 0.006599762176577927
          0.007915162389595816 0.008002681234819497 0.00688936404504907 0.006593159055675225 0.007910185037649693 0.00799877009913701
          0.007296321350012801 0.007375905109837703 0.007856455866862235 0.0072944804667180825 0.007374105806848848 0.00785531638308554
          0.0072926395834233635 0.007372306503859995 0.007854176899308844 0.010455701833570537 0.01078130538684987 0.010620315348067923
          0.0103420672280853 0.010446625231512921 0.010774053599545651 0.010611995708238084 0.010332553280905142 0.010437548629455309
          0.010766801812241432 0.01060367606840824 0.010323039333724984 0.007703622945618299 0.008093319305372333 0.007612737444940567
          0.0074187536649714045 0.007701595935243725 0.008092447458203582 0.007613065718862014 0.007418203705746634 0.007699568924869149
          0.008091575611034834 0.007613393992783461 0.007417653746521863 0.009232913167947537 0.009232949883230075 0.009232986598512615
          0.006606729613861051 0.006418481348741848 0.006161036730722223 0.006607444906527644 0.006420098454490692 0.0061638845382564825
          0.006608160199194236 0.006421715560239534 0.0061667323457907436 0.007907711935895291 0.008458613988549 0.00790436176936619
          0.00845716454334712 0.007901011602837085 0.008455715098145241 0.009917442826165739 0.009578985847447683 0.0098766699919523
          0.010285849772247984 0.009918695404056783 0.009581346492568022 0.009878510439665792 0.010285709632961501 0.009919947981947825
          0.009583707137688361 0.009880350887379284 0.010285569493675015 0.005178283853960421 0.005705286564531405 0.0045074241737951565
          0.0036122613231025598 0.005170046947881205 0.005695555776513859 0.00449924056828471 0.003612560735163152 0.00516181004180199
          0.005685824988496314 0.004491056962774263 0.0036128601472237448 0.008819322190074351 0.00862582602510949 0.008501069351994702
          0.008822340593117931 0.008626699731540982 0.008504481152492643 0.008825358996161513 0.00862757343797247 0.008507892952990585
          0.0028282136954986374 0.004891692533067368 0.0028363006315361163 0.004884354411541798 0.0028443875675735948 0.0048770162900162286
          0.007719896532134627 0.007734157434598994 0.008387016367546234 0.008641244204663799 0.007716092443126261 0.007732399349117805
          0.008383431441596723 0.008634240847326743 0.007712288354117897 0.007730641263636616 0.008379846515647212 0.008627237489989689
          0.009188720046829689 0.008923002935784564 0.009191689307042297 0.00892363407305045 0.009194658567254908 0.008924265210316338
          0.006104797971352955 0.0063872278866308595 0.006098660995672071 0.006380026132378207 0.006092524019991188 0.0063728243781255535
          0.008857294643488537 0.008143968825668573 0.008851927141848579 0.008142371651427232 0.00884655964020862 0.00814077447718589
          0.0065870245779710845 0.006287210253937178 0.006221821333486617 0.006628994251418692 0.006587962326282811 0.006288349514684575
          0.0062233541847642095 0.006630962841566276 0.006588900074594537 0.0062894887754319714 0.006224887036041801 0.006632931431713859
          0.006074658774817353 0.005764504335353513 0.0060762991118055555 0.005764324985105421 0.0060779394487937575 0.005764145634857331
          0.005759379304757322 0.005752926529041708 0.005746473753326094 0.0070476107200673176 0.006985307714918805 0.007049647205511089
          0.0069863536197166615 0.00705168369095486 0.006987399524514519 0.006838367958947591 0.006735016018726458 0.006671948319454607
          0.00683707903119176 0.006734005711650019 0.00666574833313484 0.00683579010343593 0.00673299540457358 0.006659548346815072
          0.0062786248302782125 0.006453500317817543 0.0053730499582573515 0.006272747186697316 0.006450391560977958 0.005365719442148499
          0.0062668695431164195 0.006447282804138371 0.005358388926039646 0.00585375855859775 0.0058588431919619 0.005863927825326051
          0.006452496981854788 0.0064458682586176295 0.00643923953538047 0.008787654445677787 0.008888137504378293 0.008783305338922867
          0.008882730766233568 0.008778956232167949 0.008877324028088843 0.00662301998829149 0.006621342416035185 0.00661966484377888
          0.0059232071339760505 0.006194378540984817 0.006779801625933187 0.005926266442631939 0.006198443981846056 0.006778856650387239
          0.005929325751287828 0.0062025094227072955 0.0067779116748412915 0.009262072655843629 0.00950657021468428 0.009252985367355686
          0.009497832098034169 0.009243898078867744 0.009489093981384061 0.0042662710829881895 0.0037855735797778117 0.0038105202686742915
          0.0044644176824962635 0.004265140880319934 0.003785586835486282 0.003811547882643192 0.004463641854568845 0.004264010677651679
          0.003785600091194752 0.0038125754966120934 0.004462866026641428 0.006057460491101999 0.005292564577941097 0.005456402703819635
          0.006188008575130062 0.006057076123118921 0.00529247889418691 0.005455827011462948 0.006187047243341039 0.006056691755135843
          0.005292393210432723 0.00545525131910626 0.006186085911552019 0.008506252080311767 0.008068259389941549 0.00853371326243804
          0.008503758885862672 0.008066257564196953 0.008529796227173243 0.008501265691413573 0.00806425573845236 0.008525879191908442
          0.0066820542555031184 0.006683705689661068 0.006685357123819019 0.006583333740573283 0.00657325375952954 0.006563173778485799
          0.003343435230456649 0.003119124491520387 0.0033466770286169 0.003123550246490913 0.00334991882677715 0.003127976001461439
          0.004559585388539027 0.005152482036175266 0.004559527910948909 0.00515285653856994 0.004559470433358791 0.005153231040964615
          0.006487949015111245 0.006491005592225611 0.006494062169339976 0.007002576420522627 0.007435079148181478 0.007401034760267789
          0.006827096133726536 0.007003942789366726 0.007435816262503471 0.00740040413163346 0.006826997905450836 0.007005309158210825
          0.007436553376825463 0.007399773502999134 0.006826899677175135 0.007906195983186088 0.007905031504818864 0.00790386702645164
          0.0069255319888397665 0.006927142960397072 0.006928753931954377 0.007078745679147646 0.006466507732706322 0.007077924219979966
          0.006465287449699389 0.0070771027608122865 0.006464067166692457 0.005419318240866594 0.005424910019201916 0.005430501797537239
          0.006253912861403391 0.006744000697940787 0.006254347949320781 0.006745791008032139 0.00625478303723817 0.006747581318123492
          0.005348421830896313 0.005348919814285431 0.005349417797674549 0.0070104379658290335 0.007068963349479206 0.007011893058099731
          0.007071012717070985 0.007013348150370425 0.007073062084662763 0.006968023044216635 0.006969234575757826 0.006970446107299017
          0.006766181825080597 0.0067650635256390635 0.00676394522619753 0.007200202786244745 0.007203110261970572 0.007206017737696397
          0.004895815762688934 0.005328109153405683 0.004896547766221192 0.005329130469699546 0.004897279769753449 0.005330151785993411
          0.0075382889839576 0.0075400622226534 0.007541835461349202 0.008394914240606382 0.008336828371492726 0.00839218234597646
          0.008334554341394218 0.008389450451346538 0.008332280311295709 0.009767643053394063 0.010100191712352597 0.009738343174826658
          0.009761317079491223 0.010091409147195932 0.009732585473599061 0.009754991105588383 0.010082626582039265 0.009726827772371466
          0.010772019932704286 0.010555426828838619 0.010481930831369397 0.010767572193989909 0.010553816506255639 0.010478826957072534
          0.010763124455275531 0.01055220618367266 0.010475723082775671 0.00481290707561818 0.005587676308605365 0.0048172388660989735
          0.005592957463730347 0.004821570656579769 0.005598238618855328 0.008635801894676425 0.00848272694500096 0.008368858943473102
          0.008633616065691952 0.008479096833394224 0.008366930920576506 0.008631430236707477 0.008475466721787487 0.00836500289767991
          0.008643180117068393 0.008446792690109383 0.008640411216560699 0.00844534887912125 0.008637642316053006 0.008443905068133117
          0.005635744444702431 0.005635823898564381 0.005635903352426328 0.010639719832719156 0.010870783817594577 0.010637778000301558
          0.010866905202364165 0.01063583616788396 0.010863026587133754 0.010833795448800757 0.010496845492161655 0.010827132526834756
          0.01048813353612369 0.010820469604868755 0.010479421580085729 0.009703068946032236 0.010014449523962795 0.009693332216942631
          0.010004161689549856 0.009683595487853032 0.009993873855136916 0.008895679328512826 0.008891638809521674 0.008887598290530522
          0.010214674641416944 0.010140795360254915 0.010213825471390225 0.010140669588948636 0.010212976301363507 0.010140543817642357
          0.009645821226802166 0.009644165933692645 0.009642510640583126 0.007653307014190999 0.0076546034597112875 0.007655899905231576
          0.008991905349128361 0.008989980214794937 0.008988055080461514 0.007475293729417982 0.007478028431660814 0.0074807631339036465
          0.007461610167736143 0.007463797245841401 0.007465984323946662 0.008443374488405517 0.008296642722736435 0.00844402785768559
          0.008298373612516792 0.008444681226965664 0.008300104502297147 0.007628778498025823 0.007514180133424059 0.007631728817350383
          0.007516104585126322 0.007634679136674944 0.007518029036828588 0.0057497892489961995 0.00575045671765978 0.00575112418632336
          0.005907093389938814 0.005907393730636949 0.005907694071335082 0.007472177317771011 0.007473937231066176 0.007475697144361343
          0.007039742513242788 0.007040759595708844 0.0070417766781748995 0.004601307950301802 0.004609410075057021 0.004617512199812239
          0.00409748975809056 0.004101392916601028 0.004105296075111495 0.008988571833744448 0.008370887386627739 0.008988380799252248
          0.008373783412659987 0.00898818976476005 0.008376679438692235 0.009598774408226485 0.00959552645775758 0.009592278507288677
          0.01031589304027452 0.009955357923534134 0.010306082110115746 0.009945381600542076 0.01029627117995697 0.009935405277550019
          0.006648972145778169 0.007170924821321296 0.006485150514969171 0.006647773878855007 0.007169878899861136 0.00648476501236868
          0.006646575611931844 0.0071688329784009765 0.00648437950976819 0.006307704790480206 0.006308523464374641 0.006309342138269076
          0.010129666638086038 0.010124058663744745 0.010118450689403452 0.007950047532309903 0.008008481015556113 0.007950297968427417
          0.008008371369184855 0.007950548404544934 0.008008261722813596 0.010068687319673853 0.009562188123487098 0.010067940316060538
          0.009563899322073953 0.010067193312447225 0.009565610520660808 0.009031300454594476 0.009035280092780311 0.009039259730966143
          0.009414524594055309 0.008970374264678935 0.009417995647037177 0.008975143048784853 0.009421466700019043 0.00897991183289077
          0.003427985504855114 0.00384273789853759 0.003794705541945119 0.0033345824166771568 0.00343545893478035 0.0038527725413760316
          0.0038015493282771715 0.003342182636214221 0.003442932364705586 0.0038628071842144725 0.0038083931146092238 0.0033497828557512853
          0.004740048353302671 0.004740367580517921 0.0047406868077331694 0.005119567925121405 0.00512688984846581 0.0051342117718102135
          0.00719330752032938 0.007188776614754272 0.007191217578031358 0.007187513097187845 0.007189127635733336 0.007186249579621419
          0.007889161450520798 0.007893157428848739 0.007897153407176678 0.00878600980283858 0.008628149168320469 0.008782667106177665
          0.008622445752015848 0.00877932440951675 0.00861674233571123 0.00606314702776994 0.004986057862415456 0.0060542735680261354
          0.004977315758964467 0.00604540010828233 0.004968573655513478 0.006990121290224542 0.0069908878740908426 0.006991654457957144
          0.008547993320340213 0.008657760149811553 0.008553421732178327 0.008663135354825581 0.008558850144016441 0.008668510559839611
          0.005136425433440143 0.005441230530892246 0.005049925549766986 0.004603199882666931 0.005136495628951379 0.005441645853128884
          0.005050302344484037 0.004603656677264403 0.005136565824462617 0.0054420611753655205 0.005050679139201089 0.004604113471861874
          0.007209465130865166 0.00720589457195769 0.007202324013050214 0.004026385499919357 0.00345889846975552 0.004028443107136426
          0.0034641303936049483 0.004030500714353494 0.003469362317454376 0.008068687604621294 0.008958459564293607 0.008065028327494214
          0.008955662791236598 0.008061369050367133 0.008952866018179588 0.009007043423361666 0.00900254408398096 0.008998044744600253
          0.00820022451757034 0.008197558214153333 0.008194891910736328 0.0072112444076712565 0.007205728394022024 0.0072002123803727915
          0.004386731516700583 0.004391074622394619 0.004395417728088656 0.0030532304508316573 0.0030582879195497313 0.0030633453882678062
          0.007122055300907947 0.008044703284612233 0.007115171069727371 0.008040837984115801 0.007108286838546794 0.008036972683619371
          0.0038814895078163694 0.003882932040529489 0.0038843745732426095 0.004128682883327568 0.0041363035866980565 0.004143924290068545
          0.008514006159376213 0.008509084658175214 0.008504163156974217 0.010499177045921812 0.010492527333104181 0.010485877620286549
          0.003035990151792357 0.003041561670636999 0.003047133189481642 0.008201925860100278 0.008206286804223722 0.008210647748347167
          0.009900950035011633 0.00985335066321031 0.009034422898526712 0.009893761419282611 0.00984639158041536 0.00902900155565451
          0.00988657280355359 0.009839432497620409 0.00902358021278231 0.00440866744845825 0.004418897252345014 0.0044291270562317785
          0.008702532910912988 0.008498236655883314 0.008695749044822374 0.008492034785971023 0.008688965178731762 0.008485832916058733
          0.005030703661166381 0.005033259065838267 0.005035814470510152 0.005837740192761573 0.005838486345062961 0.005839232497364349
          0.007874101798687343 0.0078684504843145 0.00786279916994166 0.0033296283553626315 0.0033344604741612845 0.003339292592959937
          0.0050427661756072 0.005755759438059169 0.0050431612365962756 0.005756274497820094 0.005043556297585352 0.005756789557581018
          0.005706922226183362 0.005706979835953763 0.005707037445724163 0.002742319160226543 0.0027458910737614365 0.00274946298729633
          0.00868612740202465 0.008684258005324281 0.008682388608623913 0.008886694387002637 0.008881884301189084 0.008877074215375529
          0.010685737198662863 0.010679265020472497 0.010672792842282133 0.008203685349263983 0.008202645590215834 0.00820160583116769
          0.008394633975627518 0.008286094638692313 0.008389896223003112 0.00828316835936282 0.008385158470378705 0.008280242080033329
          0.008782403229695876 0.008779040860078526 0.00877567849046117 0.008175763179372065 0.008236418080098966 0.008177233717247006
          0.008236537631717477 0.008178704255121946 0.008236657183335985 0.008474294864485251 0.008473237900810227 0.008472180937135206
          0.008292901237120297 0.00829359216845054 0.008294283099780784 0.008314981728511764 0.008314082658841176 0.008313183589170587
          0.007708532679650401 0.007771991376682987 0.007714033230155352 0.007777472812761201 0.0077195337806603035 0.007782954248839416
          0.008127922516038012 0.008130976357700314 0.008134030199362619 0.008321379421422413 0.008321704509338296 0.008322029597254178
        </DataArray>
        <DataArray type="Float64" Name="pe22" format="ascii" RangeMin="-0.0056518714174256185" RangeMax="-0.0013430479785135688">
          -0.0031826836918731113 -0.003122459056827818 -0.0028119503067215793 -0.002938771686473843 -0.003182205097649622 -0.003121971215497901
          -0.002810992081126302 -0.0029381327589055603 -0.0031817265034261326 -0.003121483374167984 -0.0028100338555310245 -0.002937493831337278
          -0.004217679828515128 -0.004053897355485472 -0.0040997550305683925 -0.004276005852620373 -0.004217438769737282 -0.0040543026762390345
          -0.004099957167628704 -0.004275783304462509 -0.004217197710959436 -0.004054707996992597 -0.004100159304689015 -0.004275560756304645
          -0.0021549852978757222 -0.0024587990185808957 -0.0021544812654231203 -0.002458331845590372 -0.002153977232970519 -0.002457864672599848
          -0.005024386047135471 -0.005113383471918092 -0.0047901479574529926 -0.004779604804402068 -0.0050269732529669865 -0.005115581341686466
          -0.004790415232392445 -0.004781967009734339 -0.0050295604587985016 -0.005117779211454839 -0.004790682507331896 -0.00478432921506661
          -0.004189369966108322 -0.004386236105544924 -0.004189437498403018 -0.0043858296690484615 -0.004189505030697714 -0.0043854232325520005
          -0.003401133685848705 -0.0032982783717545178 -0.0033073665042539315 -0.003390657070762199 -0.0034031366971966686 -0.003300736217027493
          -0.003309730046329437 -0.0033918634053799837 -0.003405139708544633 -0.0033031940623004675 -0.0033120935884049414 -0.003393069739997768
          -0.004505136854476084 -0.0048628609345413056 -0.0046575778364138865 -0.004363854100618004 -0.004506630840477731 -0.004864558742713659
          -0.004659713509983498 -0.004365634178049907 -0.004508124826479378 -0.004866256550886014 -0.00466184918355311 -0.00436741425548181
          -0.0030622425310750075 -0.0032562408976955885 -0.0030619500195974117 -0.0032557141138494852 -0.003061657508119815 -0.003255187330003382
          -0.00325952554605044 -0.0031138342130616545 -0.0038102513701337376 -0.0038659246673191875 -0.0032603204531667664 -0.0031123160196434266
          -0.0038103113624324593 -0.003866613105013189 -0.003261115360283093 -0.0031107978262251987 -0.0038103713547311814 -0.00386730154270719
          -0.003613988457828509 -0.0036533200234498122 -0.003871930617514335 -0.0036150191364248 -0.0036537559277507697 -0.003871708444875027
          -0.003616049815021092 -0.003654191832051727 -0.0038714862722357187 -0.005212012361245172 -0.005476983918762406 -0.005390688189784445
          -0.005183950943678013 -0.0052138706545200204 -0.005479293490921073 -0.005392734548442106 -0.005185514720193923 -0.00521572894779487
          -0.005481603063079741 -0.005394780907099766 -0.005187078496709834 -0.0038950474301074696 -0.004132715944315394 -0.003940974896347642
          -0.0038062472398582136 -0.0038963665613083683 -0.004135308877072747 -0.003942871793536551 -0.003807834891470694 -0.0038976856925092666
          -0.004137901809830099 -0.003944768690725461 -0.003809422543083175 -0.004892785077514563 -0.0048940588576128295 -0.004895332637711096
          -0.0034698177015189528 -0.0034034904262148346 -0.0032868452624849297 -0.0034723282124424254 -0.003404774512844812 -0.003289268906385541
          -0.003474838723365899 -0.0034060585994747897 -0.003291692550286153 -0.003946834367505015 -0.004276289971310137 -0.003947818247454102
          -0.004278546444905002 -0.003948802127403189 -0.0042808029184998675 -0.0052672667926538285 -0.005087205392967819 -0.00522392015267833
          -0.005431665687280053 -0.00527021864636177 -0.005089292228804254 -0.005226608374000799 -0.005434780217247311 -0.005273170500069712
          -0.005091379064640689 -0.005229296595323268 -0.005437894747214569 -0.0024082322326805074 -0.0026472112522676473 -0.0020685266518506535
          -0.0016769539510155507 -0.0024053281085122734 -0.0026468768192186845 -0.002065789855921124 -0.0016750509360155894 -0.0024024239843440398
          -0.002646542386169721 -0.0020630530599915946 -0.0016731479210156277 -0.004693277419213295 -0.004548279418423931 -0.004516360326607023
          -0.004692481405904072 -0.004547661041473323 -0.004515431981590265 -0.004691685392594849 -0.004547042664522715 -0.004514503636573507
          -0.0013443879674759046 -0.0022977674452704603 -0.0013437179729947366 -0.002292270677757259 -0.0013430479785135688 -0.002286773910244058
          -0.0039810946330213525 -0.004006170957301864 -0.004281781818026432 -0.0044130613314915645 -0.003980501114104365 -0.004007026398918201
          -0.004284048803171355 -0.004414181191593179 -0.003979907595187376 -0.0040078818405345365 -0.004286315788316278 -0.004415301051694793
          -0.0048843349745766465 -0.004718985042888224 -0.004885010622833899 -0.004718915812045196 -0.004885686271091154 -0.004718846581202166
          -0.00299820259394171 -0.0031824503100900832 -0.002998325033981803 -0.003184052079348622 -0.0029984474740218964 -0.0031856538486071603
          -0.004562820876105423 -0.004225901558721511 -0.004563709422832445 -0.0042251932793998265 -0.004564597969559467 -0.004224485000078142
          -0.00331161252709676 -0.0031512031271739294 -0.0031323521733280907 -0.00335610801843336 -0.00331082302381025 -0.0031508961114612936
          -0.0031318553094432265 -0.0033552421164119166 -0.00331003352052374 -0.0031505890957486578 -0.003131358445558362 -0.003354376214390473
          -0.0032361547312843592 -0.003071445811566187 -0.003236547849410304 -0.003073800492438594 -0.003236940967536249 -0.0030761551733110015
          -0.0027848159411488034 -0.002783835302356974 -0.0027828546635651438 -0.003694692892795671 -0.0036655586521537396 -0.003695227724850235
          -0.0036653034335069395 -0.0036957625569048 -0.003665048214860139 -0.003472884603647277 -0.0034879810019534654 -0.003409976382627781
          -0.0034747019006910137 -0.0034906218125452817 -0.003412244564754554 -0.003476519197734751 -0.003493262623137097 -0.0034145127468813265
          -0.0030039705538678434 -0.0031405815790130796 -0.0025529991994435886 -0.0030030660694780912 -0.00314038192057052 -0.0025509721014897544
          -0.0030021615850883386 -0.00314018226212796 -0.00254894500353592 -0.0031382005856605364 -0.0031416520954525686 -0.0031451036052446008
          -0.0030584928728333107 -0.003054940275013862 -0.0030513876771944125 -0.004356912017905715 -0.004409447223415402 -0.0043584207740926546
          -0.004410853177846573 -0.004359929530279595 -0.004412259132277743 -0.003280712488250635 -0.003281302677505181 -0.003281892866759728
          -0.0030786863328328366 -0.003269360671243893 -0.003510244265675801 -0.003079197091100306 -0.003269479379079409 -0.0035100771900359417
          -0.003079707849367776 -0.0032695980869149248 -0.0035099101143960827 -0.0046862025007850545 -0.004851438044850147 -0.004688590552409029
          -0.004853891514257447 -0.004690978604033004 -0.004856344983664747 -0.0021036878942111504 -0.0018727644743435547 -0.0018877549160576418
          -0.002193459926437191 -0.0021027378917196924 -0.0018715855853088687 -0.0018864896958912256 -0.002192306751403308 -0.0021017878892282335
          -0.0018704066962741829 -0.0018852244757248098 -0.002191153576369425 -0.0030051378533665083 -0.002610223760889499 -0.002701758065458362
          -0.0030737391972328306 -0.003005596937963149 -0.0026096381966976955 -0.0027008520511980004 -0.003073628075312638 -0.0030060560225597895
          -0.002609052632505891 -0.0026999460369376387 -0.0030735169533924454 -0.004209040020334455 -0.003992463464186718 -0.004240070959129906
          -0.004209432366225204 -0.003993032141864874 -0.004241431433332606 -0.0042098247121159504 -0.00399360081954303 -0.004242791907535307
          -0.0035043546970863542 -0.003505513649852657 -0.00350667260261896 -0.003331518287090081 -0.003333040091790121 -0.003334561896490161
          -0.001659813082048005 -0.001568086797362239 -0.0016592256229541473 -0.0015674164053708073 -0.00165863816386029 -0.0015667460133793755
          -0.0022448144410914363 -0.0025380926319749225 -0.0022432145325257313 -0.0025376268383806217 -0.0022416146239600263 -0.0025371610447863205
          -0.00343515985044957 -0.003434859953523359 -0.0034345600565971477 -0.003481141300894941 -0.0036837047145767215 -0.003659911182469811
          -0.003394754545611265 -0.0034812287157873862 -0.0036840972114173492 -0.0036602266825846463 -0.003395165522556582 -0.0034813161306798323
          -0.0036844897082579774 -0.0036605421826994824 -0.003395576499501898 -0.003933782966594667 -0.003934391522009489 -0.003935000077424312
          -0.0034567671427247447 -0.003456440020296349 -0.0034561128978679544 -0.003618968717883982 -0.0032937189147239005 -0.0036183901135419774
          -0.0032936081334328567 -0.003617811509199973 -0.003293497352141813 -0.0028717366365387533 -0.0028725993810829035 -0.0028734621256270533
          -0.003162081786250143 -0.0034279424929797193 -0.003161634967085958 -0.00342764048027084 -0.0031611881479217735 -0.003427338467561961
          -0.002822084973844792 -0.0028239954909579437 -0.0028259060080710954 -0.0035515708763285024 -0.003609090753084178 -0.003550773070501084
          -0.003608280011912293 -0.003549975264673666 -0.0036074692707404065 -0.0035046429067752674 -0.003503948785347436 -0.003503254663919606
          -0.003364877110624714 -0.0033659173596070607 -0.0033669576085894083 -0.0036969955222643258 -0.0036966772881136555 -0.0036963590539629857
          -0.0026172927108386304 -0.002851122655953017 -0.0026177628917045414 -0.00285368673069922 -0.002618233072570453 -0.0028562508054454237
          -0.003897134531003722 -0.003896477453095107 -0.0038958203751864916 -0.004355703578824001 -0.004298102269979001 -0.004356432213057491
          -0.004298339001534648 -0.004357160847290981 -0.004298575733090297 -0.0048491024654982945 -0.005083831805269218 -0.004869975605664653
          -0.004850612687047354 -0.005085352783519242 -0.004871498836690366 -0.004852122908596412 -0.005086873761769265 -0.004873022067716078
          -0.005579276579895202 -0.0055659061116132185 -0.005462121881522863 -0.005582383617603977 -0.005569598580795936 -0.005465290627788476
          -0.005585490655312752 -0.005573291049978654 -0.005468459374054089 -0.002620224794463985 -0.003020361071960962 -0.002620817077951119
          -0.003023417466031442 -0.0026214093614382534 -0.003026473860101922 -0.00434979017034918 -0.004267996831125091 -0.004258030703375969
          -0.004350309893587485 -0.004268043304898345 -0.004257948932096808 -0.00435082961682579 -0.0042680897786716 -0.004257867160817648
          -0.00451665391531075 -0.004393067067402525 -0.004516497198248778 -0.0043928585936810075 -0.004516340481186805 -0.00439265011995949
          -0.002784408778850742 -0.0027836636335599164 -0.0027829184882690906 -0.005608022956344569 -0.005644889485579577 -0.0056121603155671485
          -0.005648380451502597 -0.0056162976747897286 -0.0056518714174256185 -0.005504282214664861 -0.005216285483514311 -0.0055070161768079
          -0.005218585392386083 -0.005509750138950938 -0.005220885301257855 -0.004888029477850595 -0.005090347365132903 -0.004890608729085137
          -0.005093193050599286 -0.004893187980319679 -0.0050960387360656665 -0.004507103724497526 -0.004509636105819489 -0.004512168487141452
          -0.0054427581550753005 -0.005395209115073985 -0.005446362472180267 -0.005398668420280897 -0.005449966789285235 -0.00540212772548781
          -0.005148142499745518 -0.00514947126112142 -0.005150800022497322 -0.003827621366907208 -0.003827683869868851 -0.003827746372830495
          -0.004798717240709999 -0.004796383759080034 -0.004794050277450068 -0.0037585228741949164 -0.003758243686412779 -0.003757964498630643
          -0.003779361321178288 -0.00377923389320706 -0.0037791064652358316 -0.004477506952365596 -0.004445755957125945 -0.004477430847266268
          -0.00444213657712895 -0.0044773547421669375 -0.004438517197131954 -0.003957528446293792 -0.00386499535688451 -0.003957493156631795
          -0.0038650274361374222 -0.003957457866969797 -0.0038650595153903343 -0.0029389491682419167 -0.0029383773927569995 -0.002937805617272083
          -0.0029247978380551216 -0.0029250373329266135 -0.0029252768277981053 -0.0038099185715993705 -0.003810105981633985 -0.0038102933916685988
          -0.0036508140038406687 -0.003652430526480884 -0.003654047049121099 -0.0024786165578625937 -0.0024779516053957057 -0.002477286652928817
          -0.0022208044817448656 -0.002219718023047646 -0.0022186315643504266 -0.00469907820434058 -0.004393687373822748 -0.004699831201728992
          -0.004393496316614949 -0.004700584199117401 -0.0043933052594071495 -0.004981225711488588 -0.004983369866785194 -0.004985514022081799
          -0.005227391481573038 -0.005007928719929728 -0.0052295397280731366 -0.005009936777122208 -0.005231687974573236 -0.0050119448343146885
          -0.0032988642879046397 -0.0035568803710672395 -0.003216352825780323 -0.0032997933873222373 -0.0035583602068332033 -0.0032167907733289232
          -0.003300722486739834 -0.003559840042599167 -0.0032172287208775234 -0.0031325595116261607 -0.003132378176919934 -0.003132196842213707
          -0.005229418909540063 -0.0052322180283761646 -0.0052350171472122665 -0.00403590661668415 -0.004036344563534128 -0.004036411763641717
          -0.004036628431097983 -0.004036916910599285 -0.0040369122986618385 -0.005272602293503906 -0.005033540406021016 -0.005275522447145997
          -0.005035368488332026 -0.005278442600788088 -0.005037196570643035 -0.0047859515202497 -0.004786136449586112 -0.004786321378922525
          -0.004993224117802234 -0.0047826161285168195 -0.00499470379265455 -0.004782274428653773 -0.004996183467506866 -0.004781932728790726
          -0.0018007949788568164 -0.0020434409053026446 -0.0019487810085658357 -0.0017016682528517486 -0.0018002652007564168 -0.002041632799853444
          -0.001946550103569908 -0.0017007702043626716 -0.001799735422656017 -0.002039824694404244 -0.0019443191985739807 -0.0016998721558735947
          -0.0023512287857534566 -0.0023493745786671667 -0.002347520371580877 -0.002691701030948896 -0.002691277315246876 -0.002690853599544856
          -0.0035937299256708338 -0.0036460586551806512 -0.0035942691331826977 -0.0036470412318696864 -0.0035948083406945612 -0.0036480238085587215
          -0.00412440463625921 -0.004124212086190068 -0.004124019536120925 -0.004396269482535298 -0.0043045473971338325 -0.004397260367804707
          -0.004305595706225506 -0.004398251253074116 -0.004306644015317179 -0.002854102608843332 -0.0023287617671586634 -0.0028532990936380883
          -0.002325470460096209 -0.002852495578432844 -0.0023221791530337547 -0.0034794294010917683 -0.0034803004305183913 -0.0034811714599450143
          -0.004540399921429451 -0.004625660086194863 -0.004539941301759348 -0.004624601646301838 -0.004539482682089244 -0.004623543206408814
          -0.002593425943108911 -0.0027289474909435274 -0.0025200340501288065 -0.0023192823016255637 -0.0025911298902110778 -0.0027277301799253275
          -0.00251840037590805 -0.0023165213018771186 -0.0025888338373132435 -0.002726512868907127 -0.0025167667016872926 -0.0023137603021286743
          -0.003547076029580471 -0.003547302198617157 -0.003547528367653843 -0.002013158314645322 -0.0017337535384077663 -0.0020107793223556472
          -0.0017322225996081076 -0.0020084003300659724 -0.0017306916608084493 -0.003934529045908373 -0.004408095413530368 -0.0039354679063757355
          -0.00440939249341282 -0.0039364067668430985 -0.004410689573295272 -0.004410482221414476 -0.004412322175618895 -0.0044141621298233145
          -0.004111822820207163 -0.004111835560171477 -0.004111848300135792 -0.003499753698299973 -0.0034999904502761373 -0.003500227202252302
          -0.0022680934444835577 -0.002264698340306337 -0.0022613032361291155 -0.001604655739873062 -0.00160342056254277 -0.0016021853852124777
          -0.003409683235472704 -0.003968855126744515 -0.0034103878712172 -0.003969844790958356 -0.003411092506961694 -0.003970834455172198
          -0.0019216501510918057 -0.0019198053333144385 -0.0019179605155370712 -0.002248866933286227 -0.0022472146616526185 -0.0022455623900190097
          -0.004243434082787876 -0.0042441032461058275 -0.004244772409423778 -0.005390846241724584 -0.005393665049346973 -0.005396483856969363
          -0.0015589215682489494 -0.001557761146938274 -0.0015566007256275986 -0.004328677753528853 -0.0043285279224986265 -0.0043283780914684005
          -0.004868502592610411 -0.004862597599430729 -0.0044113359019652115 -0.004871073458514155 -0.004864647136025832 -0.00441358927718311
          -0.004873644324417899 -0.004866696672620936 -0.004415842652401009 -0.002352081154277227 -0.002349786401800684 -0.0023474916493241406
          -0.0043367126561221665 -0.004247319506069464 -0.004337680234426815 -0.004247931627191756 -0.004338647812731464 -0.0042485437483140475
          -0.002587586851051418 -0.002585258905795548 -0.002582930960539678 -0.0029343505026894813 -0.0029336228058558234 -0.002932895109022165
          -0.003790435256932471 -0.003789958665325796 -0.0037894820737191214 -0.0016755479100295351 -0.0016744469443788358 -0.0016733459787281364
          -0.0024879224198283544 -0.002846019068423581 -0.002487291787114806 -0.002845574577941626 -0.0024866611544012585 -0.0028451300874596706
          -0.0028839220378928834 -0.0028826736822071585 -0.002881425326521433 -0.0014036327781353978 -0.0014019896568663922 -0.0014003465355973868
          -0.00457100375297298 -0.004573950895835368 -0.004576898038697757 -0.0044276965267654005 -0.004428871340073579 -0.004430046153381756
          -0.005467623469421219 -0.005470283362359087 -0.005472943255296954 -0.004038578580090497 -0.004038155159451584 -0.004037731738812672
          -0.004205513670117357 -0.004186985697822105 -0.0042063672397799215 -0.004187255263036403 -0.0042072208094424855 -0.0041875248282507
          -0.0046212752823226715 -0.0046214541042457315 -0.0046216329261687915 -0.004259261029903571 -0.00424209035234324 -0.00426068322891471
          -0.0042430093284730715 -0.004262105427925846 -0.004243928304602903 -0.004304908330167185 -0.004305410282468627 -0.004305912234770068
          -0.004245976184686838 -0.0042466348925991075 -0.004247293600511376 -0.004350451921271224 -0.004350041544137235 -0.004349631167003245
          -0.004114315280632334 -0.0041038348836642 -0.0041127317013252935 -0.004104152026698861 -0.0041111481220182525 -0.004104469169733524
          -0.004265525174528717 -0.004266171747536897 -0.004266818320545077 -0.004374897553231361 -0.00437592920235543 -0.004376960851479499
        </DataArray>
        <DataArray type="Float64" Name="pe33" format="ascii" RangeMin="-0.005329513234135897" RangeMax="-0.0013386863820911447">
          -0.003221412736142455 -0.003170422897559676 -0.0028452330864891986 -0.002953289600915849 -0.0032212148950064297 -0.0031700507803577556
          -0.002845540919220719 -0.0029535155895265147 -0.0032210170538704026 -0.0031696786631558362 -0.002845848751952239 -0.0029537415781371802
          -0.0040207864684196236 -0.0038662442234153795 -0.003827853618801094 -0.0039638785449346275 -0.004019259605787496 -0.0038659871743824408
          -0.0038283852417331544 -0.003963527048824989 -0.00401773274315537 -0.0038657301253495016 -0.003828916864665215 -0.003963175552715352
          -0.00220682897404175 -0.0025232191299515124 -0.002206757385950127 -0.0025237649164629905 -0.002206685797858504 -0.0025243107029744687
          -0.00445399625315301 -0.004500775183980867 -0.0042570554179641 -0.004286197686431908 -0.004451192779284857 -0.004497628470336507
          -0.0042546535374011945 -0.004280944829103857 -0.004448389305416705 -0.004494481756692146 -0.004252251656838291 -0.004275691971775805
          -0.0038259092530789044 -0.0039614216537682875 -0.003827929070575491 -0.003962870665071103 -0.0038299488880720774 -0.003964319676373918
          -0.003106059283287401 -0.0029305091748308824 -0.0029987013066497723 -0.0032268170868850737 -0.00310269622986109 -0.0029307397030891246
          -0.002993246656843063 -0.0032162671221112006 -0.00309933317643478 -0.002930970231347366 -0.002987792007036354 -0.0032057171573373284
          -0.004552197707209976 -0.004811302583028371 -0.004598811807165367 -0.004354057970768434 -0.004548354655362279 -0.004803491707128012
          -0.004592599826970113 -0.004350929030643139 -0.004544511603514581 -0.0047956808312276545 -0.0045863878467748585 -0.004347800090517843
          -0.003059981974061289 -0.0032608352827938297 -0.0030605439841848675 -0.0032611799541155317 -0.003061105994308445 -0.0032615246254372324
          -0.0036437100614310058 -0.0034925310844189737 -0.004109888371408203 -0.004140667703182798 -0.0036359793730984915 -0.0034874461569344996
          -0.004104851027163356 -0.004136068129806308 -0.0036282486847659763 -0.0034823612294500256 -0.004099813682918511 -0.004131468556429818
          -0.0036823328921842913 -0.0037225850863878895 -0.003984525249347898 -0.0036794613302932816 -0.003720349879098079 -0.003983607938210511
          -0.0036765897684022716 -0.0037181146718082677 -0.003982690627073123 -0.005243689472325364 -0.005304321468087464 -0.005229627158283478
          -0.005158116284407286 -0.005232754576992901 -0.005294760108624577 -0.005219261159795976 -0.0051470385607112175 -0.005221819681660438
          -0.005285198749161691 -0.005208895161308473 -0.00513596083701515 -0.003808575515510829 -0.003960603361056938 -0.0036717625485929227
          -0.003612506425113191 -0.0038052293739353556 -0.003957138581130835 -0.0036701939253254608 -0.0036103688142759384 -0.003801883232359881
          -0.003953673801204732 -0.003668625302058 -0.003608231203438686 -0.004340128090432972 -0.0043388910256172445 -0.004337653960801516
          -0.0031369119123420973 -0.003014990922527013 -0.0028741914682372926 -0.0031351166940852167 -0.0030153239416458783 -0.0028746156318709415
          -0.003133321475828335 -0.003015656960764744 -0.0028750397955045904 -0.003960877568390278 -0.004182324017238862 -0.003956543521912087
          -0.004178618098442118 -0.003952209475433895 -0.004174912179645372 -0.004650176033511911 -0.004491780454479863 -0.004652749839273971
          -0.0048541840849679295 -0.00464847675769501 -0.004492054263763768 -0.004651902065664995 -0.004850929415714188 -0.004646777481878111
          -0.0044923280730476715 -0.0046510542920560165 -0.004847674746460448 -0.0027700516212799124 -0.003058075312263755 -0.0024388975219445026
          -0.0019353073720870088 -0.002764718839368931 -0.0030486789572951732 -0.002433450712363586 -0.0019375097991475632 -0.00275938605745795
          -0.0030392826023265913 -0.0024280039027826696 -0.0019397122262081168 -0.004126044770861057 -0.004077546606685557 -0.003984709025387677
          -0.0041298591872138595 -0.004079038690067657 -0.003989049170902377 -0.004133673603566662 -0.004080530773449756 -0.0039933893164170765
          -0.0014838257280227326 -0.0025939250877969047 -0.0014925826585413789 -0.0025920837337845377 -0.0015013395890600256 -0.0025902423797721703
          -0.0037388018991132746 -0.003727986477297128 -0.0041052345495198005 -0.004228182873172233 -0.0037355913290218964 -0.0037253729501996037
          -0.004099382638425367 -0.004220059655733563 -0.0037323807589305182 -0.0037227594231020794 -0.004093530727330933 -0.004211936438294893
          -0.004304385072253041 -0.004204017892896338 -0.004306678684208397 -0.004204718261005254 -0.004308972296163754 -0.00420541862911417
          -0.003106595377411244 -0.003204777576540777 -0.0031003359616902674 -0.003195974053029585 -0.003094076545969291 -0.003187170529518392
          -0.004294473767383112 -0.0039180672669470624 -0.0042882177190161335 -0.003917178372027405 -0.004281961670649154 -0.003916289477107747
          -0.003275412050874324 -0.0031360071267632485 -0.003089469160158525 -0.0032728862329853324 -0.0032771393024725605 -0.003137453403223281
          -0.0030914988753209813 -0.0032757207251543586 -0.0032788665540707963 -0.0031388996796833124 -0.0030935285904834377 -0.003278555217323385
          -0.0028385040435329923 -0.002693058523787326 -0.0028397512623952507 -0.002690524492666827 -0.00284099848125751 -0.0026879904615463284
          -0.002974563363608518 -0.002969091226684733 -0.0029636190897609485 -0.0033529178272716457 -0.0033197490627650643 -0.0033544194806608522
          -0.003321050186209723 -0.0033559211340500597 -0.0033223513096543806 -0.0033654833553003138 -0.0032470350167729924 -0.0032619719368268277
          -0.0033623771305007467 -0.0032433838991047367 -0.003253503768380286 -0.0033592709057011796 -0.003239732781436481 -0.003245035599933745
          -0.003274654276410369 -0.0033129187388044627 -0.002820050758813763 -0.0032696811172192243 -0.0033100096404074368 -0.002814747340658744
          -0.0032647079580280804 -0.00330710054201041 -0.0028094439225037253 -0.0027155579729372143 -0.0027171910965093325 -0.0027188242200814504
          -0.003394004109021476 -0.003390927983603767 -0.0033878518581860586 -0.004430742427772069 -0.0044786902809628906 -0.004424884564830211
          -0.0044718775883869945 -0.004419026701888353 -0.004465064895811098 -0.0033423075000408534 -0.0033400397385300023 -0.003337771977019151
          -0.0028445208011432135 -0.0029250178697409236 -0.0032695573602573853 -0.0028470693515316326 -0.0029289646027666474 -0.0032687794603512964
          -0.002849617901920052 -0.0029329113357923708 -0.0032680015604452076 -0.004575870155058572 -0.004655132169834131 -0.0045643948149466556
          -0.004643940583776722 -0.004552919474834738 -0.004632748997719315 -0.0021625831887770387 -0.0019128091054342572 -0.0019227653526166487
          -0.002270957756059072 -0.002162402988600242 -0.001914001250177413 -0.0019250581867519662 -0.0022713351031655375 -0.002162222788423445
          -0.0019151933949205693 -0.0019273510208872838 -0.0022717124502720024 -0.0030523226377354913 -0.002682340817051597 -0.002754644638361274
          -0.003114269377897231 -0.0030514791851557724 -0.0026828406974892145 -0.002754974960264948 -0.0031134191680284016 -0.0030506357325760535
          -0.0026833405779268307 -0.0027553052821686214 -0.0031125689581595725 -0.004297212059977311 -0.004075795925754832 -0.004293642303308133
          -0.004294326519637466 -0.004073225422332079 -0.004288364793840634 -0.004291440979297621 -0.004070654918909327 -0.004283087284373133
          -0.0031776995584167638 -0.003178192039808411 -0.003178684521200058 -0.003251815453483201 -0.003240213667739419 -0.003228611881995637
          -0.0016836221484086442 -0.0015510376941581475 -0.0016874514056627518 -0.0015561338411201053 -0.0016912806629168589 -0.0015612299880820633
          -0.0023147709474475907 -0.0026143894042003415 -0.002316313378423178 -0.002615229700189318 -0.0023178558093987648 -0.0026160699961782943
          -0.003052789164661676 -0.0030561456387022514 -0.0030595021127428285 -0.0035214351196276848 -0.0037513744336047567 -0.0037411235777979777
          -0.003432341588115272 -0.003522714073579338 -0.0037517190510861207 -0.0037401774490488145 -0.0034318323828942546 -0.003523993027530992
          -0.003752063668567484 -0.003739231320299651 -0.003431323177673237 -0.003972413016591421 -0.003970639982809374 -0.003968866949027325
          -0.003468764846115022 -0.003470702940100722 -0.003472641034086422 -0.0034597769612636628 -0.0031727888179824207 -0.003459534106437987
          -0.0031716793162665314 -0.003459291251612312 -0.003170569814550642 -0.002547581604327839 -0.0025523106381190133 -0.002557039671910187
          -0.0030918310751532467 -0.0033160582049610674 -0.0030927129822348218 -0.0033181505277612984 -0.0030935948893163956 -0.00332024285056153
          -0.0025263368570515197 -0.0025249243233274863 -0.0025235117896034534 -0.003458867089500531 -0.003459872596395029 -0.003461119987598645
          -0.003462732705158693 -0.003463372885696759 -0.0034655928139223566 -0.0034633801374413676 -0.003465285790410389 -0.00346719144337941
          -0.003401304714455885 -0.0033991461660320037 -0.003396987617608123 -0.00350320726398042 -0.003506432973856916 -0.0035096586837334125
          -0.0022785230518503037 -0.0024769864974526663 -0.00227878487451665 -0.002475443739000326 -0.0022790466971829956 -0.0024739009805479855
          -0.0036411544529538777 -0.003643584769558294 -0.00364601508616271 -0.00403921066178238 -0.004038726101513726 -0.004035750132918969
          -0.0040362153398595686 -0.004032289604055557 -0.00403370457820541 -0.004918540587895766 -0.005016359907083377 -0.004868367569162004
          -0.004910704392443868 -0.005006056363676689 -0.004861086636908696 -0.004902868196991972 -0.0049957528202699995 -0.004853805704655389
          -0.005192743352809083 -0.004989520717225398 -0.005019808949846531 -0.00518518857638593 -0.004984217925459701 -0.0050135363292840565
          -0.005177633799962778 -0.004978915133694005 -0.005007263708721583 -0.002192682281154194 -0.0025673152366444026 -0.0021964217881478548
          -0.0025695399976989044 -0.002200161295141516 -0.0025717647587534054 -0.004286011724327242 -0.004214730113875869 -0.004110828240097132
          -0.004283306172104465 -0.004211053528495877 -0.004108981988479696 -0.004280600619881688 -0.004207376943115885 -0.00410713573686226
          -0.004126526201757643 -0.004053725622706858 -0.004123914018311922 -0.004052490285440243 -0.0041213018348662 -0.004051254948173629
          -0.0028513356658516884 -0.0028521602650044627 -0.002852984864157237 -0.005031696876374586 -0.005225894332015 -0.005025617684734408
          -0.005218524750861567 -0.00501953849309423 -0.005211155169708135 -0.005329513234135897 -0.005280560008647342 -0.005320116350026856
          -0.0052695481437376075 -0.005310719465917815 -0.005258536278827872 -0.004815039468181638 -0.004924102158829889 -0.004802723487857495
          -0.00491096863895057 -0.004790407507533351 -0.004897835119071251 -0.004388575604015298 -0.004382002703702184 -0.004375429803389068
          -0.004771916486341642 -0.004745586245180929 -0.004767462999209957 -0.004742001168667737 -0.0047630095120782725 -0.004738416092154545
          -0.004497678727056646 -0.004494694672571224 -0.004491710618085801 -0.0038256856472837913 -0.003826919589842437 -0.003828153532401083
          -0.0041931881084183616 -0.004193596455714902 -0.004194004803011443 -0.0037167708552230654 -0.003719784745248034 -0.003722798635273003
          -0.0036822488465578554 -0.003684563352634342 -0.003686877858710828 -0.003965867536039919 -0.0038508867656104895 -0.003966597010419321
          -0.0038562370353878404 -0.003967326484798724 -0.0038615873051651914 -0.0036712500517320315 -0.003649184776539547 -0.003674235660718589
          -0.0036510771489889 -0.0036772212697051467 -0.0036529695214382535 -0.002810840080754284 -0.00281207932490278 -0.002813318569051276
          -0.0029822955518836918 -0.0029823563977103345 -0.0029824172435369764 -0.003662258746171639 -0.0036638312494321917 -0.003665403752692744
          -0.0033889285094021193 -0.00338832906922796 -0.0033877296290538007 -0.002122691392439209 -0.002131458469661315 -0.0021402255468834213
          -0.0018766852763456936 -0.0018816748935533809 -0.001886664510761068 -0.004289493629403867 -0.00397720001280499 -0.004288549597523257
          -0.003980287096045037 -0.004287605565642646 -0.003983374179285085 -0.004617548696737896 -0.004612156590972387 -0.004606764485206879
          -0.005088501558701481 -0.004947429203604404 -0.0050765423820426075 -0.004935444823419867 -0.005064583205383734 -0.004923460443235331
          -0.0033501078578735285 -0.0036140444502540574 -0.003268797689188847 -0.0033479804915327697 -0.0036115186930279334 -0.003267974239039757
          -0.0033458531251920115 -0.0036089929358018094 -0.0032671507888906667 -0.0031751452788540456 -0.003176145287454706 -0.003177145296055367
          -0.0049002477285459735 -0.0048918406353685795 -0.004883433542191186 -0.003914140915625751 -0.003972136452021984 -0.003913886204785701
          -0.003971742938086871 -0.00391363149394565 -0.003971349424151757 -0.004796085026169947 -0.0045286477174660816 -0.004792417868914542
          -0.004528530833741926 -0.0047887507116591375 -0.00452841395001777 -0.004245348934344776 -0.004249143643194196 -0.004252938352043617
          -0.0044213004762530764 -0.004187758136162117 -0.004423291854382626 -0.00419286862013108 -0.004425283232512175 -0.004197979104100043
          -0.0016271905259982965 -0.0017992969932349445 -0.001845924533379284 -0.0016329141638254082 -0.0016351937340239322 -0.0018111397415225862
          -0.001854999224707263 -0.0016414124318515487 -0.0016431969420495683 -0.0018229824898102279 -0.0018640739160352417 -0.0016499106998776895
          -0.002388819567549214 -0.002390993001850753 -0.002393166436152292 -0.002427866894172508 -0.002435612533218933 -0.002443358172265358
          -0.003599577594658546 -0.0035427179595736206 -0.003596948444848659 -0.003540471865318159 -0.0035943192950387733 -0.0035382257710626975
          -0.003764756814261587 -0.003768945342658671 -0.003773133871055754 -0.00438974032030328 -0.004323601771186635 -0.004385406738372957
          -0.004316850045790342 -0.004381073156442635 -0.00431009832039405 -0.0032090444189266077 -0.002657296095256793 -0.0032009744743880463
          -0.0026518452988682577 -0.003192904529849485 -0.0026463945024797235 -0.0035106918891327733 -0.0035105874435724512 -0.003510482998012129
          -0.0040075933989107615 -0.0040321000636166894 -0.004013480430418978 -0.004038533708523743 -0.004019367461927196 -0.004044967353430796
          -0.002542999490331232 -0.0027122830399487195 -0.0025298914996381796 -0.0022839175810413673 -0.002545365738740302 -0.0027139156732035557
          -0.002531901968575987 -0.002287135375387284 -0.002547731987149372 -0.0027155483064583924 -0.0025339124375137944 -0.0022903531697332003
          -0.003662389101284695 -0.0036585923733405334 -0.0036547956453963706 -0.002013227185274034 -0.0017251449313477538 -0.0020176637847807775
          -0.00173190779399684 -0.0020221003842875213 -0.0017386706566459263 -0.004134158558712922 -0.004550364150763238 -0.004129560421118477
          -0.004546270297823777 -0.004124962283524032 -0.004542176444884316 -0.004596561201947189 -0.004590221908362063 -0.004583882614776937
          -0.004088401697363177 -0.0040857226539818565 -0.004083043610600535 -0.003711490709371284 -0.0037057379437458867 -0.0036999851781204887
          -0.0021186380722170244 -0.002126376282088282 -0.0021341144919595394 -0.0014485747109585947 -0.0014548673570069616 -0.0014611600030553285
          -0.003712372065435244 -0.004075848157867721 -0.003704783198510171 -0.004070993193157446 -0.003697194331585099 -0.004066138228447172
          -0.001959839356724563 -0.0019631267072150503 -0.0019664140577055375 -0.0018798159500413398 -0.0018890889250454373 -0.0018983619000495346
          -0.004270572076588335 -0.004264981412069388 -0.00425939074755044 -0.005108330804197225 -0.005098862283757206 -0.005089393763317188
          -0.0014770685835434072 -0.0014838005236987252 -0.001490532463854043 -0.0038732481065714237 -0.003877758881725095 -0.003882269656878766
          -0.0050324474424012205 -0.00499075306377958 -0.004623086996561502 -0.005022687960768454 -0.004981744444389527 -0.004615412278471401
          -0.0050129284791356876 -0.004972735824999472 -0.004607737560381301 -0.002056586294181023 -0.00206911085054433 -0.0020816354069076374
          -0.004365820254790821 -0.004250917149813849 -0.004358068810395559 -0.004244103158779267 -0.004350317366000297 -0.0042372891677446844
          -0.0024431168101149638 -0.002448000160042719 -0.002452883509970474 -0.002903389690072091 -0.002904863539207137 -0.002906337388342184
          -0.0040836665417548716 -0.004078491818988705 -0.0040733170962225385 -0.0016540804453330955 -0.0016600135297824485 -0.0016659466142318006
          -0.0025548437557788442 -0.0029097403696355874 -0.002555869449481469 -0.0029106999198784673 -0.002556895143184093 -0.0029116594701213477
          -0.002823000188290479 -0.002824306153746604 -0.002825612119202729 -0.0013386863820911447 -0.001343901416895044 -0.0013491164516989435
          -0.00411512364905167 -0.004110307109488912 -0.004105490569926155 -0.004458997860237235 -0.004453012961115502 -0.004447028061993772
          -0.00521811372924164 -0.005208981658113409 -0.005199849586985179 -0.004165106769173486 -0.004164490430764251 -0.0041638740923550166
          -0.0041891203055101625 -0.004099108940870208 -0.004183528983223191 -0.004095913096326418 -0.004177937660936219 -0.004092717251782628
          -0.004161127947373206 -0.004157586755832793 -0.00415404556429238 -0.003916502149468492 -0.003994327727755724 -0.003916550488332294
          -0.003993528303244402 -0.003916598827196097 -0.00399272887873308 -0.004169386534318063 -0.004167827618341599 -0.0041662687023651356
          -0.0040469250524334584 -0.004046957275851433 -0.004046989499269406 -0.003964529807240538 -0.0039640411147039405 -0.003963552422167342
          -0.003594217399018065 -0.0036681564930187856 -0.003601301528830057 -0.0036733207860623384 -0.003608385658642049 -0.0036784850791058907
          -0.003862397341509292 -0.003864804610163417 -0.0038672118788175415 -0.003946481868191052 -0.003945775306982866 -0.003945068745774679
        </DataArray>
        <DataArray type="Float64" Name="disp_x" format="ascii" RangeMin="0.000008325744826365807" RangeMax="0.00008426856919737402">
          0.000058497988407970344 0.00005903217341279209 0.00005549797942098676 0.000055125638319961814 0.000058503423804284796 0.00005903906729541315
          0.00005550509312976971 0.000055131772417367194 0.00005851986185281312 0.000059058630390655884 0.00005552817790211997 0.000055152078737365575
          0.00007138769723909121 0.00006635212707503759 0.00006343360235050959 0.00006623773656636596 0.00007138942817419147 0.00006635586425677502
          0.0000634362357700575 0.00006623919602545649 0.00007139483589371463 0.00006636794585799417 0.00006344419966252184 0.00006624400333335375
          0.00005711763972774817 0.00005994738173102878 0.00005712501643084253 0.00005995439586159503 0.00005714524930710137 0.000059975042985128567
          0.00006476575753519948 0.00006512485852988554 0.00007032814063171073 0.00006966801114577064 0.00006476225223692136 0.00006511906842592354
          0.00007032129670691264 0.00006966180193715347 0.00006474952931493181 0.00006510372649802521 0.00007030159214355915 0.0000696496323811603
          0.000059856768575184816 0.00006228684099766041 0.000059858544045853705 0.0000622883248888099 0.00005986339915175237 0.00006229139521959215
          0.000026670788787857673 0.00002974272748240534 0.00002918039020836351 0.00002513062609485543 0.00002666631542876892 0.000029736787792731512
          0.000029172058531664153 0.000025127322711710797 0.000026650480405002045 0.000029716544652932064 0.000029145915096510357 0.000025115353533302408
          0.000027101900948363592 0.000032291314308311155 0.0000325554052557716 0.00002801459478234497 0.000027110152431441855 0.00003229783357235302
          0.00003256154085593355 0.00002802189638745049 0.000027137143003007877 0.00003232028081513471 0.00003258346337795906 0.00002804033211802714
          0.00005482406567247492 0.0000577048058933471 0.00005482911403350702 0.0000577095886155792 0.00005484481964120389 0.00005772383613094806
          0.000016584440807657143 0.000015391872279699994 0.000019488523019397503 0.000020531053082223787 0.000016596758893887773 0.000015406445364678084
          0.000019501433586619477 0.00002054181519054099 0.00001663607101847145 0.000015454411001932132 0.00001953858605974837 0.000020572057776684908
          0.00006824850314477361 0.00006765575704297764 0.00007182778993543576 0.00006825552854654444 0.00006766250156885385 0.00007183472452383523
          0.00006827669774853646 0.00006768225695911895 0.00007184898374876433 0.00003442456908629108 0.00004004012751903035 0.000038771961409108634
          0.00003383403092810301 0.00003442850795731423 0.0000400394597533498 0.000038772550655095585 0.000033838870297460214 0.00003443904941203461
          0.00004003788459448868 0.00003877378550748948 0.0000338525936821764 0.000026793487686858798 0.00003086648501563293 0.00003212429353738716
          0.000028089932206310098 0.000026799715972083143 0.00003087154359597826 0.000032127341598428817 0.000028094069829795018 0.00002681632684660556
          0.000030886383208959325 0.000032137948126321677 0.00002810345611424203 0.000064731764092375 0.00006472909613597904 0.0000647208426631745
          0.00002812568824227169 0.00003089512101790242 0.00003169634038922341 0.000028122661154469818 0.00003089289479017638 0.00003169308288967848
          0.000028114186992767386 0.000030884905246120866 0.000031684045856316415 0.00002510319443651133 0.000029353484445301018 0.00002511061247145548
          0.000029359823077449995 0.000025132555308240437 0.000029378625347312235 0.000059501744551019625 0.000059530332559549995 0.000054720686577595075
          0.00005397712122274903 0.00005949701109896895 0.00005952687312164189 0.000054715766023165676 0.000053971513532095105 0.00005948232708936266
          0.000059515798837435323 0.000054701330368603944 0.0000539546674966836 0.000012066607184439823 0.000013408964054880787 0.000011155145321135114
          0.000009512664925334299 0.00001208593941147552 0.000013427192043873334 0.000011176846907755533 0.00000953681743214601 0.000012139755470259776
          0.000013476870713018033 0.00001124552873850786 0.00000961048155752225 0.00005958070775830768 0.00006370392752079241 0.00005861950755742851
          0.00005957957369548156 0.00006370406903926917 0.00005861926636872309 0.00005957701630948614 0.0000637042887632317 0.00005862029253652715
          0.000008325744826365807 0.000010991581086381224 0.000008348291733676234 0.000011013613981903902 0.000008419728464228299 0.000011072695088294697
          0.00004265959231980616 0.00003675656269850804 0.00003547019963421396 0.00004020310515983118 0.000042659912382209774 0.00003675941695952996
          0.00003547405236421882 0.000040203540551018525 0.00004266081216349695 0.00003676833062244247 0.000035486915046744484 0.000040204990197417574
          0.000059719878848800926 0.00006440333874168483 0.00005971755243144125 0.00006440256387192364 0.00005970826758384928 0.0000643990559281281
          0.000017941284870425727 0.00002026992208695689 0.00001794820903868305 0.000020273167528032978 0.000017965966918368362 0.000020282916934510853
          0.00004461899636166275 0.00004713281968797742 0.00004461580200265758 0.00004713027703679816 0.00004460452146673295 0.00004712147871498892
          0.00005641167900875242 0.000054576289607345315 0.00005257062114999 0.00005415862219131548 0.00005641570278741127 0.000054580428588688115
          0.00005257364175261723 0.000054161144408255806 0.00005642743914635602 0.00005459306745095633 0.0000525836808489612 0.00005416972959046645
          0.000034697630347163596 0.000035332493750540894 0.000034695179270368385 0.00003532897696501789 0.00003468672631862551 0.00003532252652140166
          0.000015785074427144385 0.000015795797946822892 0.0000158280748743076 0.0000331209138144241 0.000037506098503869507 0.00003312253591649523
          0.00003750845144486272 0.00003312634107928922 0.00003751466132512432 0.00002424417199653245 0.00002655081270963088 0.000023912588044575176
          0.000024246455378900625 0.000026549377101940087 0.000023911751772988193 0.000024255070534309554 0.00002654316638738385 0.00002390994345243335
          0.00001633942310634358 0.000018238587733041757 0.000013962432120843251 0.000016352720011539497 0.000018248567904401113 0.00001397710612792222
          0.000016392492729486883 0.000018278033834173876 0.000014021566512805595 0.00003274297540353165 0.00003273881454958348 0.000032727939288798386
          0.000014509125076102771 0.000014525163957167374 0.0000145777766277795 0.00007812209842611141 0.00007941500355485197 0.00007812667280654041
          0.00007941803586392297 0.00007813847904871988 0.00007942707178041509 0.000020602180640246797 0.000020608916037763814 0.00002062988331237489
          0.00004213646780702574 0.00003811900214076905 0.00004194103538899506 0.00004213912744888342 0.00003811987000489088 0.000041943549062065726
          0.00004214658606466773 0.000038124715328945135 0.000041951855519405514 0.000038355850694318124 0.0000427034390743796 0.000038358046092013074
          0.00004270092611277251 0.000038364571928137296 0.00004269278351205954 0.00005503485385731984 0.00005269562161965938 0.00005196177125648524
          0.00005449137602890079 0.00005504250783983074 0.00005270451085258084 0.0000519706159890872 0.00005449967478365279 0.00005506602079467303
          0.000052730941369449614 0.00005199949179933927 0.00005452394482491502 0.00005999188036960578 0.00005665016894196642 0.000055969075565890045
          0.000059445075579888753 0.00006000030217890563 0.0000566584370084055 0.000055977221658567236 0.0000594528113646129 0.00006002558610705122
          0.00005668450685673888 0.00005600407062259536 0.00005947477664365169 0.00007633100414807808 0.00007181040896012788 0.00007481050009416443
          0.00007633623877000105 0.00007181675954367877 0.00007481629124569368 0.00007635465345135751 0.00007183782825099686 0.00007483255398823875
          0.000029997252144242562 0.000029995903435926008 0.000029990906829175335 0.00002206578551498202 0.00002206680920347869 0.000022072563756978307
          0.00005164257513147953 0.000049640083296830634 0.000051651199728471985 0.00004964681035971108 0.00005167743578234499 0.00004966777162259259
          0.000053622075282679785 0.0000574815859237756 0.00005363086999729647 0.0000574898191072913 0.000053656372284318386 0.00005751292436193229
          0.00003396295437219872 0.00003396255941332991 0.000033961547428093025 0.00006363117070551312 0.00006685071633787371 0.00006706811548518674
          0.00006321182842544035 0.00006363770468388479 0.00006685824542885316 0.00006707564338221673 0.00006321925740393377 0.0000636584385573362
          0.00006688077805227927 0.00006709910558940869 0.00006323978769040411 0.00006964740490021482 0.00006965593678101707 0.0000696780245897582
          0.00006227968472326786 0.00006228514061217574 0.00006229879854851332 0.00004755964344695783 0.00004606215861642461 0.00004755923800596013
          0.00004606413795481109 0.000047557006552405136 0.000046069883082209824 0.000039141256344193915 0.000039139364676552294 0.00003913045362358532
          0.00004967739772948075 0.00005114133036131775 0.00004967959395744731 0.000051142475669121624 0.00004968488228658014 0.000051144626738834906
          0.00003788030769980493 0.00003787692536876428 0.00003786384822367886 0.00005940062818641579 0.00005690022138242561 0.00005940439907019052
          0.00005690293667996547 0.00005941487404160811 0.00005691054262225739 0.00006110366574692298 0.000061108370518434 0.00006112118364493394
          0.00006362974291109756 0.00006363784414588782 0.00006366234400179652 0.00005374771762443397 0.00005374896822373888 0.00005375269179771585
          0.00003926067043504766 0.00003637049377758772 0.00003925584653392767 0.00003636678661517702 0.00003923715355183152 0.000036359672368504205
          0.000050326275854416355 0.00005032509624889138 0.00005032096631704807 0.0000736267638192283 0.00007300791703909603 0.00007362393462504586
          0.00007300748964877728 0.00007361523355030585 0.00007300594606641051 0.00002922379563450971 0.00003306417510703372 0.000029842798085861358
          0.000029231423492619833 0.000033070742298577945 0.00002985093296751421 0.000029259740796319102 0.00003308607296569573 0.00002987557874881615
          0.00004644341890365615 0.00005363468532116407 0.00004868669775579899 0.000046439968309633275 0.000053629375654770654 0.00004868232206125654
          0.000046429835313019606 0.000053613882724818516 0.000048666762336987 0.00003772233801317246 0.0000338535084497538 0.00003771735395378646
          0.00003384622970394845 0.00003770463900929183 0.00003382224050083425 0.00008172552358372562 0.00007717675011444424 0.00007764687862820453
          0.00008172600457872268 0.00007717857582286226 0.00007764785792485511 0.00008172780013931221 0.00007718350743755352 0.00007765019227126943
          0.00006906407488445876 0.00006814066864415551 0.00006906281352686183 0.00006814158300138378 0.0000690605193561342 0.00006814268743933954
          0.00006317205551745131 0.0000631795414784376 0.00006320240210953272 0.00005429769577310274 0.00004803043229158281 0.00005429242212468636
          0.000048026685520543716 0.00005427632903079484 0.00004801523544815327 0.00004172072439504524 0.00003550076923049667 0.000041719632805054964
          0.00003550361261528746 0.00004171425490658199 0.00003551254721549021 0.00003677397301686716 0.00004090736341908577 0.00003677778387940995
          0.00004090688061094859 0.00003679130229064434 0.00004090276084112321 0.00003390040314553765 0.00003390587485272274 0.000033922374285023464
          0.00006037400701780101 0.000059656568246050054 0.000060368780879344655 0.000059651501027385564 0.00006034964390400965 0.000059634288045553235
          0.00006617155519333976 0.0000661646714265528 0.00006614488813856071 0.00006764454307569316 0.0000676524588226652 0.00006767552625121272
          0.00007161385101049643 0.0000716069188737704 0.00007158114950181386 0.00006606048528687651 0.00006606698602519728 0.00006608573554723104
          0.00006467284904457669 0.00006467812194537766 0.00006469346794711006 0.00007486884427672689 0.00007665986609007471 0.00007486192034806027
          0.00007665345325215961 0.00007483577783185928 0.00007663263363951588 0.00005691183359642052 0.0000601711407898152 0.00005691353985022383
          0.00006017421800373991 0.00005691786256291292 0.00006018212495516637 0.00004579246901892638 0.00004579597470906053 0.000045806057488218573
          0.00006078272073324958 0.00006079130040063668 0.00006081756996663601 0.00006270607230545815 0.00006271048007777656 0.00006272297226305891
          0.000028950771768311916 0.000028952407002308724 0.000028957333092310838 0.00004151548786558294 0.0000415123249643957 0.00004149873742828246
          0.00004152132502420585 0.000041518785898434497 0.00004150996398927951 0.00004863594957361918 0.00005082757030943827 0.000048630954911412245
          0.000050824041796346034 0.00004861419608251093 0.00005081352067544751 0.000046905309927086334 0.00004690009215641151 0.00004688345864665078
          0.000038226928611165796 0.00003562186624408605 0.000038227980304931135 0.0000356264217466876 0.00003823188938402097 0.00003563864901701849
          0.0000643611651299287 0.000069049004627666 0.00006530728550234798 0.00006436976993581837 0.00006905678822758947 0.00006531551869890579
          0.0000643941132954676 0.0000690807310801895 0.00006533993046616464 0.0000665336918888389 0.00006654126636309036 0.00006656370665445432
          0.000045313993979160025 0.00004530952415139567 0.000045294369335019054 0.00006844148588199426 0.00006965476469809194 0.00006844710558545298
          0.00006966208843319189 0.0000684625666854716 0.00006968415725420725 0.000049924560541125105 0.00005109644721742889 0.0000499192264481937
          0.00005109119406517991 0.000049903001990518766 0.000051074867756190484 0.00005235012500006882 0.000052345650459554425 0.000052330923263131104
          0.000055329292650172 0.000055896101821001014 0.00005532546527028244 0.00005589373025958496 0.000055312709707198176 0.00005588491007364806
          0.00004462609062163921 0.0000444436903230857 0.0000468035525042579 0.000046891660961134154 0.000044626491709381846 0.000044444862456923895
          0.0000468097525768678 0.00004689660028886189 0.000044626691267309876 0.00004445126423897964 0.00004682937185093064 0.000046908210369583114
          0.00005282721779199028 0.000052835851834703616 0.000052859859719374064 0.00004295288657376497 0.0000429546656235568 0.00004296120448348751
          0.000023409356990752507 0.000025220418485184774 0.000023416105149620863 0.00002522508661947246 0.00002344030262213865 0.000025238880964745612
          0.00005368494094723918 0.00005368440502636122 0.00005368210415887051 0.0000812118716747534 0.0000769912303076674 0.00008121245575327038
          0.00007699438760101957 0.00008121451890014842 0.00007700152123231739 0.000014773588140158827 0.000012480312457703892 0.000014788887140586164
          0.000012498832462947908 0.0000148348983180356 0.000012554452526059406 0.0000700750535186285 0.00007008296748920752 0.0000701069084076189
          0.00005409289251388249 0.00005622952488205007 0.0000540912207193995 0.00005622834970839584 0.00005408277017780623 0.00005622387499188643
          0.00004908633322502332 0.000052053631346461226 0.000052334708574421344 0.00004937200638867977 0.000049092025791276263 0.000052059877218887506
          0.000052342153494617015 0.00004937903595660734 0.000049109265980160775 0.0000520782486640915 0.0000523634298732994 0.00004939921905147651
          0.000021332728593635563 0.0000213418672489571 0.000021369224061126472 0.00004959621551090363 0.00004844166095575942 0.00004960414907042187
          0.000048448367455255115 0.00004962827224278138 0.00004847097858072676 0.000021868267318453117 0.000024866934967235403 0.000021878142719423376
          0.0000248770774333968 0.00002190525162128891 0.000024905860760326022 0.00002411522696077679 0.00002412561281341821 0.00002415591411775484
          0.00007113614894732763 0.0000711438199950822 0.000071167391156133 0.00001945058258157984 0.000019461350598946084 0.000019495693707516576
          0.000046560996831798605 0.00004656778904476103 0.000046588387525831495 0.00004495008141293779 0.000044951839257154126 0.00004495711936643496
          0.000017937873196350365 0.00002341641541146279 0.000017949539260119 0.000023424589241850403 0.000017985550872248074 0.000023448354488656406
          0.000051045181465824684 0.0000510538327562983 0.000051078611221444525 0.00004262317693725452 0.00004262195286623072 0.000042613636656071056
          0.00007413884414647872 0.00007414511480075949 0.00007416461732783114 0.00004377081151888804 0.00004376804296474486 0.00004376013928173051
          0.00004702749634038204 0.00004703169506233188 0.000047044909359607084 0.000056599108041509514 0.00005659953986299127 0.00005659991196954446
          0.000029516453974895477 0.000029163695341193883 0.000023913302455577225 0.00002952401489819219 0.000029171676514090447 0.000023924343432604258
          0.000029548015282408472 0.000029195444710277315 0.000023957269416704693 0.00004387338955236128 0.00004387551330250409 0.000043884840508181096
          0.00007625963910811194 0.00007351177574648507 0.00007626417793044243 0.00007351775755386616 0.00007627423674570032 0.0000735366317650416
          0.00004611672447592649 0.00004612222805461304 0.00004613788975364967 0.0000520698057113006 0.000052074926955760844 0.0000520889708641181
          0.00001885392657082615 0.000018868126575530113 0.000018910415576603325 0.0000489518781644813 0.000048959307430782535 0.00004898088922852668
          0.00005852268345611357 0.00006182193996418842 0.000058530471824384356 0.00006183001521396928 0.000058552536895847474 0.00006185460378538925
          0.00004910688804506907 0.0000491111202691028 0.00004912303729082076 0.00004715111300592761 0.00004715561357710066 0.00004716669669098013
          0.00007342306540718564 0.00007341673922026385 0.00007339649485954505 0.00008046674446587607 0.00008046855176530749 0.00008047145692097056
          0.000042714979327427134 0.00004271320289669993 0.00004270727880783575 0.00007507043937003203 0.00007507639368436642 0.00007509524508064771
          0.0000731683292541955 0.0000726015005639132 0.00007317446858058257 0.00007260591712987415 0.00007319258610899122 0.00007261694548040818
          0.00007070548121940334 0.00007070073799024138 0.00007068745541225189 0.00007780041503956415 0.00007920615847278524 0.00007779733391356774
          0.00007920466249010623 0.00007778603317873784 0.00007920072947194547 0.00008253232913048827 0.00008253277682524937 0.00008253368855688545
          0.00008426856919737402 0.00008426841134375126 0.00008426669907022048 0.00007495511516171921 0.00007494998919499003 0.00007493241257069117
          0.00008134479237374703 0.00007997284186517971 0.00008133802735955853 0.00007996652881844967 0.00008132847515196141 0.00007994843031307712
          0.00007752604853342049 0.00007752248718043088 0.00007750871368605962 0.00007550133632295444 0.00007549580185557552 0.00007547142588055254
        </DataArray>
        <DataArray type="Float64" Name="disp_y" format="ascii" RangeMin="-0.000037428489942310736" RangeMax="0">
          -0.000026113583323180204 -0.000027793087230629834 -0.00002787644167359933 -0.000026423682848704397 -0.000026115786859919395 -0.000027795112322540623
          -0.000027879452487230324 -0.0000264271949348563 -0.000026122636343975575 -0.000027801311621066754 -0.000027888656125059826 -0.00002643828449757481
          -0.00001640745949919182 -0.000018955595801087317 -0.00001780900625975527 -0.00001554860692384864 -0.000016407634743573943 -0.00001895710981749107
          -0.000017811265477367472 -0.000015550630017614062 -0.00001640761439901113 -0.000018961603027683083 -0.000017818427645183454 -0.000015556545702389646
          -0.00003478560408136917 -0.00003557738450382379 -0.00003478735992637944 -0.00003557901410118336 -0.000034791975873049605 -0.000035583356940162575
          -0.000005054866188354825 -0.000002499992304526766 -0.000002293682167202553 -0.000004556801278591324 -0.000005056708968084689 -0.0000025008583744715454
          -0.0000022934198868458974 -0.000004556912200428152 -0.00000506210241890475 -0.0000025019843274659883 -0.0000022904270106244997 -0.000004560360318253977
          -0.0000170968480414918 -0.00001505358802636935 -0.000017099998016249307 -0.00001505614798002732 -0.000017109865101134316 -0.000015064417977994227
          -0.000015560785500698232 -0.000017818374204169246 -0.00001770669943426455 -0.000014812119693966049 -0.00001556349669189347 -0.00001782253039012304
          -0.000017710484078070043 -0.000014813540639097996 -0.000015574541904491587 -0.00001783480755313343 -0.000017721255365408834 -0.000014818138387161847
          -0.000007040577599528782 -0.000008761826793902847 -0.00001080630696571944 -0.00000955392430555579 -0.000007043295725335348 -0.000008765995229123712
          -0.000010811356566611093 -0.000009557686120180899 -0.000007051854567684837 -0.000008779903726633286 -0.000010826812733860096 -0.000009568742981548456
          -0.000025065642399575847 -0.000024616794525737926 -0.00002506941292200441 -0.000024619493706993967 -0.000025081066359975172 -0.000024626434392089246
          -0.0000033034239541720873 -0.0000015739627520567697 -0.0000018967146289483344 -0.000003874571930948237 -0.000003302550755246158 -0.0000015725446376331019
          -0.000001897399021212352 -0.000003875541010261149 -0.000003301884940041463 -0.0000015677404042234876 -0.0000018978410730546807 -0.0000038792550156777935
          -0.00003338922591425171 -0.000031428153021810444 -0.00003138393826858989 -0.00003339104136754147 -0.00003142992842896373 -0.00003138575651419393
          -0.00003339812211908425 -0.00003143345752284253 -0.0000313903989890434 -0.0000024551075596584745 -0.000002717115603074 -0.0000052549564477981276
          -0.000004828813226286966 -0.0000024564780919938804 -0.0000027182292836593403 -0.000005257234710281893 -0.0000048312532125697685 -0.000002460631741611117
          -0.000002723275164194383 -0.000005264255406390298 -0.000004838312098399154 -0.000012373903740007734 -0.00001393346088314135 -0.000015839407052167745
          -0.000014025052328761833 -0.000012378598986198204 -0.000013939743780979205 -0.0000158471591392624 -0.000014030420454998198 -0.000012393058820385603
          -0.000013959332842763723 -0.00001586963194778001 -0.000014047952336134197 -0.000007695788761920316 -0.00000769866101539363 -0.000007707735003272378
          -0.00001608945586068685 -0.000017770480922322637 -0.000018754276934548254 -0.000016093079131423263 -0.00001777639480465875 -0.000018759559922216175
          -0.00001610577570880832 -0.0000177921528326802 -0.000018776716301946466 -0.00001039651952349498 -0.000011822901293564156 -0.000010400443755290906
          -0.000011827859153668568 -0.000010412524873547817 -0.000011841871091503036 -0.000005386282926197414 -0.000007978416050332714 -0.000008472172451715906
          -0.00000576349969593745 -0.000005389025369086826 -0.000007982682946923819 -0.000008476960162408904 -0.000005767099992057529 -0.000005398344977748673
          -0.000007994880952467975 -0.000008491035897352533 -0.0000057781668820413224 -0.0000013645766057598707 -0.0000028434847053628196 -0.0000025726535262881184
          -0.0000013396879646381968 -0.0000013632658306210628 -0.0000028426168304336016 -0.000002570913584631268 -0.000001337092503066478 -0.0000013518821586639165
          -0.000002838730722465414 -0.0000025708561214154567 -0.0000013319644624783874 -0.000012753208107709996 -0.000012815143830416834 -0.000014673856185855537
          -0.000012757534249752671 -0.000012818114337969297 -0.000014677829518799674 -0.00001277080957016784 -0.000012825396868653058 -0.00001468908161325165
          0 0 0 0 0 0
          -0.00001910540439621698 -0.00001755884826844714 -0.000015377614670936717 -0.000016081265547459653 -0.00001911438802974428 -0.00001756813626283736
          -0.000015385500084699297 -0.00001608988825754048 -0.000019141588668878517 -0.00001759785814688549 -0.00001540986052181048 -0.000016117047233710468
          -0.000010474536797491702 -0.00001036483875965701 -0.000010479268373046892 -0.000010367813498051883 -0.000010493670615280525 -0.000010377378391342422
          -0.000008683085981422153 -0.000010797806565020964 -0.000008680964706271955 -0.000010796318247591501 -0.000008674378864343215 -0.000010791170022611267
          -0.000015883577682694974 -0.000018044768486090243 -0.00001589209111023993 -0.00001805249269925974 -0.000015918176720634226 -0.000018076774260827504
          -0.00002347758676309725 -0.000024156469064455375 -0.000023834513357184537 -0.000022667670803951548 -0.000023480800011028115 -0.000024160368338324592
          -0.000023839595449990123 -0.0000226719273327781 -0.000023489472157881916 -0.000024172029133116053 -0.000023854179752425495 -0.00002268429373548441
          -0.00001998850718588198 -0.000020913128577322347 -0.000019994418542053102 -0.000020919425135358918 -0.00002001003331982905 -0.00002093489738231568
          -0.000006814561674848807 -0.000006812396008909542 -0.0000068063909030434065 -0.000017481332406866542 -0.000019411698204492775 -0.000017489363176923415
          -0.0000194211516421254 -0.000017514251227487542 -0.00001944942085341533 -0.000012736297646340097 -0.000014787088905887361 -0.000013481583119465759
          -0.000012738406189473531 -0.000014790041248787725 -0.000013483410134835132 -0.000012743534747612076 -0.000014799717619120057 -0.000013488316327731655
          -0.000005990246949747281 -0.00000781406022542269 -0.000005178659005175116 -0.00000599100598603393 -0.000007814439790988109 -0.000005176847385792914
          -0.000005992647731829546 -0.000007817325941847336 -0.000005170773130856856 -0.000019787720788803913 -0.00001979313372443131 -0.000019808675936129135
          0 0 0 -0.000027943562694130775 -0.000025736539906803095 -0.000027944685307783444
          -0.00002573647756832457 -0.00002794849704866583 -0.00002573552001082205 -0.000009910920709716133 -0.000009911642492391889 -0.000009914175882038262
          -0.000022617669175349783 -0.000020962183343663917 -0.000021082809321138548 -0.000022627368664539203 -0.000020970199136462292 -0.000021091855901218164
          -0.000022656963215879054 -0.000020994885857709862 -0.000021118120067209308 -0.00001365709339904202 -0.00001347765441027654 -0.000013664467114595656
          -0.000013485053161086875 -0.000013687015813514944 -0.000013507117235459114 -0.00003297015841145032 -0.000031773884819001836 -0.00003097629933392728
          -0.00003161448036750652 -0.00003297156841876367 -0.000031775456795941194 -0.00003097789035048063 -0.000031615962886473606 -0.000032976097425167317
          -0.000031779362800264415 -0.00003098309384714039 -0.00003162032984305076 -0.000031268829597405054 -0.00003087969579594481 -0.000029392577323219933
          -0.000029587106392713504 -0.00003127104144597988 -0.000030881985268477344 -0.000029395259905885478 -0.000029589101304720147 -0.0000312784081339453
          -0.00003088968210464566 -0.000029402991312504676 -0.00002959475463906785 -0.00002996676879682229 -0.000029097343786246405 -0.000027542806413295825
          -0.000029968073531989974 -0.000029098735269722174 -0.00002754365458297028 -0.000029975222688926117 -0.000029104481299255866 -0.000027546700387397733
          -0.00001667627607907318 -0.00001668203987969953 -0.000016700017761948717 -0.000012600380757317151 -0.000012600582079813426 -0.000012597695703451335
          -0.000031686851876233665 -0.00003033028419653647 -0.00003168777021453982 -0.00003033191920635811 -0.000031689795566857836 -0.000030337600007164936
          -0.00003034178777369023 -0.00003236636427375097 -0.0000303441932905744 -0.000032368865206262963 -0.00003034894462317087 -0.00003237601225317302
          -0.000018857056653467422 -0.00001886412051101478 -0.00001888655029969613 -0.000027290714724808388 -0.00002802415232426178 -0.000029499092511468484
          -0.000029576271936242455 -0.000027291847911509126 -0.000028024980215565943 -0.000029500004112133227 -0.00002957731845027188 -0.000027294863423647487
          -0.000028027829948643208 -0.00002950302360106736 -0.000029579785826412066 -0.000027107564331518998 -0.000027108561887738613 -0.000027109693773146585
          -0.000025206885851611414 -0.000025208393885253166 -0.00002521219108489913 -0.000020985036911955073 -0.000022375772015063997 -0.000020992143378709294
          -0.000022383790437974333 -0.000021012699797088886 -0.000022409089949120314 -0.000022524887609914432 -0.00002253368868647816 -0.000022557715933467862
          -0.000023269261484932736 -0.000021950526319384283 -0.000023275965777550607 -0.000021956140797604188 -0.00002329529790817161 -0.00002197371959051243
          -0.000022292631631347377 -0.00002230112112114441 -0.000022321570656387086 -0.000022257799417997095 -0.000021309201950396078 -0.00002226088376644391
          -0.00002131295243977001 -0.000022269057455665134 -0.000021324190975954236 -0.00002354943618551142 -0.000023551822181554408 -0.00002355829258842379
          -0.00003143138157691802 -0.000031433193651195 -0.000031437062536348235 -0.000020535804109831264 -0.000020540638944870567 -0.000020554815875438037
          -0.00002340714464664866 -0.000021978865655726922 -0.00002341476121783104 -0.000021986619998222286 -0.000023442780926859603 -0.000022011973873654503
          -0.000019592396437035375 -0.000019598526214070074 -0.00001961530073996127 -0.000010445012762466591 -0.000013036668638220233 -0.000010444244961334796
          -0.000013036682301734213 -0.000010442332808969788 -0.000013037590071049811 -0.000004519304556507226 -0.000006935585619050769 -0.000006120349716139739
          -0.0000045222389903806836 -0.000006938797547568266 -0.000006123392323943211 -0.0000045283029904605364 -0.00000694977792158805 -0.0000061326637611341276
          -0.000003566517072710325 -0.000002886764950705074 -0.0000065588284014700124 -0.000003568466864970183 -0.000002888917724046571 -0.000006562514536123765
          -0.0000035734926241008135 -0.0000028964939957002507 -0.0000065735243201595725 -0.00002312160576474805 -0.000020757880110552282 -0.000023129727793130214
          -0.000020764684824212336 -0.000023158535539333495 -0.000020782611857234358 -0.000018665313029900488 -0.000018594558821669787 -0.0000159799341565251
          -0.000018662613767337313 -0.000018592371548242555 -0.000015977773171758523 -0.00001865461354542931 -0.000018585007891052584 -0.000015971788785368057
          -0.000010398391329054979 -0.000012992795761364242 -0.00001039975398094774 -0.000012994543621506576 -0.000010404217278358304 -0.000012999663500647916
          -0.00003640826497577053 -0.00003641056953271393 -0.00003641682002180209 0 0 0
          0 0 0 0 0 0
          0 0 0 -0.000011365353015491038 -0.000010989722940656555 -0.000011370444514288054
          -0.00001099520567225131 -0.000011387407205715908 -0.000011010113441995792 -0.0000130856475786092 -0.00001309216453355525 -0.000013109223833248905
          0 -0.0000026759057943821086 0 -0.000002677383993837989 0 -0.00000268215654330095
          0 0 0 -0.000025467336452829307 -0.00002546805874083983 -0.000025468933940201326
          0 0 0 -0.000023788876022381666 -0.000023790094919782626 -0.000023793253278374593
          -0.00002211213373722925 -0.00002211413213445298 -0.000022120589604478303 -0.000002312530912836421 0 -0.000002311633826708006
          0 -0.0000023008428056255192 0 -0.000018915643055666592 -0.000019696586397793972 -0.000018919849326342962
          -0.000019699844517583475 -0.00001893185456552142 -0.000019709367198733114 -0.000023796336766651 -0.000023805354954100377 -0.000023833589157456003
          -0.00003292232343523083 -0.0000329251816190348 -0.000032933354323821434 -0.000020751752002586058 -0.000020754634509279507 -0.000020762476303626594
          -0.00001538197613701294 -0.000015387961145086663 -0.000015406040346915914 -0.0000243596721459104 -0.000024367467372819434 -0.000024396096974938637
          -0.000025206342084218803 -0.000025214336696236802 -0.000025235572347743596 -0.000014855041942982788 -0.00001674427772263365 -0.000014862040744399451
          -0.00001675056095639203 -0.000014882899540836512 -0.000016769516306590792 -0.000012564942210440012 -0.000012571674663970046 -0.000012591474835582729
          -0.00000818599109404392 -0.000009607850953748456 -0.000008189646563952564 -0.000009612209587898107 -0.000008198810160731003 -0.000009623308172363322
          -0.000033249324802793724 -0.000035365601988070243 -0.00003511556830510116 -0.00003325178192585044 -0.00003536868154267732 -0.00003511867670923439
          -0.000033259440826491834 -0.00003537733216021223 -0.00003512788079938803 -0.000037047533329078925 -0.00003705095811349682 -0.0000370612099504583
          -0.00001009068193282339 -0.000010096144272308684 -0.000010112148349767428 -0.00002054416384832679 -0.00002233808962299978 -0.000020545285679225736
          -0.000022338921744373274 -0.000020549430308459908 -0.00002234192399066436 -0.000009122991364872689 -0.000011556548204936067 -0.000009128218844150124
          -0.00001156289747435905 -0.00000914435398064794 -0.000011581830381926202 -0.000013719760540457547 -0.000013725867542481943 -0.00001374521871626729
          -0.000010837443782595475 -0.000012964575226825819 -0.000010843200728868768 -0.000012969881569316847 -0.000010860789589964334 -0.00001298811994673053
          -0.000026871539387125213 -0.00002624754004744332 -0.00002726087101122301 -0.000027897675128620703 -0.000026876481169026614 -0.00002625345721908308
          -0.000027265916436934803 -0.00002790181513729766 -0.000026890359131642087 -0.000026267148530360572 -0.000027282084928537694 -0.00002791416449101965
          -0.000029011303405521245 -0.0000290145744888778 -0.00002902434332089192 -0.000024060280340939803 -0.000024070178137542784 -0.000024102480288838547
          -0.000011020244872568103 -0.0000125492102871809 -0.00001102352139707366 -0.000012552534220557395 -0.000011031566602946756 -0.000012563607715462375
          -0.000018016095277133054 -0.000018021258090449524 -0.000018036190557120283 -0.000021028329312302958 -0.00002090385989981161 -0.00002102610866391388
          -0.000020902470061366866 -0.000021019649149769837 -0.0000208956212613515 -0.000004356839031630284 -0.0000037936981927743596 -0.00000435707691982048
          -0.0000037922152353095793 -0.000004359434521849454 -0.000003789888331093711 -0.0000374120322371037 -0.00003741554164343601 -0.000037428489942310736
          -0.00001535744001143871 -0.000014376710709833357 -0.00001536306045549546 -0.00001438178748037741 -0.000015378234444015516 -0.00001439649608171694
          -0.000025874393356581916 -0.000026335034383826618 -0.000027676766318312504 -0.000027124168762429988 -0.000025880747046811045 -0.00002634018150475314
          -0.000027681220766706665 -0.000027129618675484253 -0.000025900040580474344 -0.000026355312929984908 -0.00002769475711378352 -0.000027145725954659784
          -0.000009014134568955551 -0.000009016516719673027 -0.000009023960604647885 -0.000028442640138102993 -0.000028562664662616045 -0.000028446684708891756
          -0.000028566448635699632 -0.000028459342750325663 -0.000028577153972211548 -0.000006041017621923057 -0.000004375149974875722 -0.000006043102239088793
          -0.00000437705058311259 -0.000006047531403324887 -0.000004383659124356127 -0.000002162912583300999 -0.0000021640757934791533 -0.0000021695394633422164
          -0.000023948374414530882 -0.000023948653717582143 -0.000023949942129908963 -0.000006992287393480456 -0.000006994116136190924 -0.0000070005050731032984
          -0.000026320919655284718 -0.000026327762877843234 -0.00002634915545687706 -0.000027510762788619245 -0.000027515630984023 -0.000027532384849955106
          -0.000005119193207660219 -0.000008247550111901779 -0.00000512034144493719 -0.000008250367517868654 -0.000005123457930293466 -0.000008258990273405684
          -0.000029857724427106344 -0.000029860319064271052 -0.000029868019468354615 -0.000025315944104015093 -0.000025323996448038575 -0.00002534332218284573
          -0.000025559743487160465 -0.000025560269818056054 -0.000025561155661223238 -0.000007501944106411306 -0.000007505716390676691 -0.0000075181006148808134
          -0.000028509271826527488 -0.000028512366947874583 -0.00002852040915527955 -0.000016378062679923868 -0.000016382439312765738 -0.000016394067750587515
          0 -0.000002309172927431679 0 0 -0.0000023103408920171815 0
          0 -0.000002314781246496395 0 -0.000025345914788818472 -0.00002535364237639569 -0.000025378806975240947
          -0.00002302986151737997 -0.00002278800667295535 -0.000023029353884639592 -0.000022788238600523924 -0.000023028822002492194 -0.00002278810554540592
          -0.000025131430365721678 -0.000025140200321311154 -0.000025165529780167693 -0.000025014345539532393 -0.00002501961899598859 -0.000025035495225269013
          0 0 0 -0.000029265438183413194 -0.00002926868596112402 -0.00002927738021480007
          -0.000033936541070203244 -0.00003463188530596061 -0.000033938726685515316 -0.00003463445908406566 -0.00003394475195566372 -0.00003464274570873811
          -0.000024578250401966835 -0.00002458516033236155 -0.00002460603507807161 -0.000029075261736666166 -0.000029077173617300156 -0.000029083328806317113
          -0.000003999820650529354 -0.000003998741044983173 -0.000003997622398396122 -0.00002338701297370532 -0.000023386146392775095 -0.000023382050678688982
          -0.000005575404593212846 -0.000005578504957691979 -0.00000558561711335588 -0.00003137362790788367 -0.00003137541506848287 -0.00003138000939574795
          -0.000021325680650531234 -0.000019246385951298425 -0.00002132561569190418 -0.000019245752839967974 -0.000021323077721420363 -0.00001924300855939983
          -0.000007262734347911697 -0.000007264544150946386 -0.000007268575409670653 -0.000010040295564340355 -0.000012660201773101906 -0.000010038573217435685
          -0.000012658122121757737 -0.000010031984526958922 -0.000012651641573505371 -0.000016269781853757118 -0.00001626696894476152 -0.00001625834489588173
          -0.000013945813327366006 -0.00001394334397140305 -0.000013934691793247984 -0.000008194174014964781 -0.000008192993289139313 -0.000008187903976397174
          0 -0.0000028034723806306356 0 -0.0000028023592043584155 0 -0.0000027994238920616857
          -0.000008559021782870186 -0.000008557681572829252 -0.000008551903599244955 -0.000005042517055367282 -0.000005042252285706357 -0.00000504442371378376
        </DataArray>
        <DataArray type="Float64" Name="disp_z" format="ascii" RangeMin="-0.0000017287744419221112" RangeMax="0">
          0 0 0 0 -5.455119067308093e-7 -5.33574015480774e-7
          -4.825105633236536e-7 -4.986130328954779e-7 -0.0000010906521831553681 -0.0000010669679668501862 -9.64937910547998e-7 -9.972112039905327e-7
          0 0 0 0 -6.592960625878652e-7 -6.379943351221047e-7
          -6.279724722569298e-7 -6.478945333661561e-7 -0.0000013183658655177 -0.000001275497084080225 -0.0000012561389582467947 -0.0000012957144923658543
          0 0 -3.9298924960374365e-7 -4.338710221343916e-7 -7.856777725723765e-7 -8.680007321192914e-7
          0 0 0 0 -7.192313796075156e-7 -7.334208835903548e-7
          -7.075787193921181e-7 -6.985868955461929e-7 -0.0000014379319119280532 -0.0000014660149858473077 -0.0000014142694357139869 -0.000001394466999976824
          0 0 -6.279583763618216e-7 -6.490144906680232e-7 -0.000001256476624751972 -0.0000012979766574161825
          0 0 0 0 -5.251231272675522e-7 -4.788830319404391e-7
          -5.070538096359563e-7 -5.57143331504659e-7 -0.0000010493799862911376 -9.58654667965868e-7 -0.000001012222781224696 -0.0000011102819660438602
          0 0 0 0 -7.354204634099969e-7 -7.843726927877756e-7
          -7.383602316866204e-7 -7.059563995665521e-7 -0.000001470142336057515 -0.000001566674142065205 -0.0000014755488487047372 -0.0000014114916231283214
          0 0 -5.159900575866199e-7 -5.478387554719145e-7 -0.000001031833996463087 -0.0000010954707714619102
          0 0 0 0 -6.123470558765316e-7 -5.923328180990572e-7
          -6.843663280564712e-7 -6.850370293185684e-7 -0.0000012216758753425828 -0.000001184306251503671 -0.0000013668937530860553 -0.0000013690621395697088
          0 0 0 -6.10416541017283e-7 -6.241834381683952e-7 -6.514169202760631e-7
          -0.0000012196318885807669 -0.0000012472840042454965 -0.0000013036656576847645 0 0 0
          0 -8.474391059766538e-7 -8.536575486824414e-7 -8.422640329036848e-7 -8.413637201363304e-7 -0.000001690880237150789
          -0.0000017043462631659004 -0.0000016815959672221706 -0.0000016792548134500676 0 0 0
          0 -6.342609107140435e-7 -6.503727623722001e-7 -6.055569418549564e-7 -5.960639286907094e-7 -0.0000012674975480340172
          -0.0000012996892462435427 -0.0000012108175039300722 -0.0000011905998319207178 0 -7.086326133366751e-7 -0.0000014169487207278406
          0 0 0 -5.21248698577169e-7 -5.044347927584636e-7 -4.842244199303701e-7
          -0.000001042200344952501 -0.000001008952498299171 -9.70419540884326e-7 0 0 -6.53641003421802e-7
          -6.854228801087543e-7 -0.000001305604212906651 -0.0000013697499127131568 0 0 0
          0 -7.507084361652045e-7 -7.271502035338021e-7 -7.522346628985538e-7 -7.80340469190526e-7 -0.00000150101919037308
          -0.0000014546618948994165 -0.0000015043610893072948 -0.0000015599206427651511 0 0 0
          0 -4.803141835340799e-7 -5.334790317336718e-7 -4.458963237167586e-7 -3.7499619065731277e-7 -9.571995341244248e-7
          -0.0000010615534113912716 -8.904955841705031e-7 -7.503414523564966e-7 0 0 0
          -6.672350179981189e-7 -6.647869677407175e-7 -6.483164242729265e-7 -0.0000013358084423739489 -0.0000013302702502592917 -0.0000012983627292870418
          0 0 -2.8407784816562704e-7 -4.193805837177944e-7 -5.734846132316984e-7 -8.366854499226203e-7
          0 0 0 0 -6.187294556070204e-7 -6.162648510690807e-7
          -6.795059184406195e-7 -7.008437146253136e-7 -0.000001236254374546301 -0.0000012315504554395895 -0.0000013567447223835608 -0.0000013986072315099726
          0 0 -6.971682051060277e-7 -6.764517663396722e-7 -0.0000013952626492943756 -0.0000013534381299140987
          0 0 -5.250086080011447e-7 -5.430041063603661e-7 -0.0000010489303048813031 -0.0000010836968898487392
          0 0 -7.065774447495628e-7 -6.368898146615676e-7 -0.0000014110884550391057 -0.0000012735279188968156
          0 0 0 0 -5.487155216910594e-7 -5.28255695813961e-7
          -5.196564620227039e-7 -5.444842167370936e-7 -0.0000010978932839138467 -0.0000010571414347545096 -0.0000010400495567243495 -0.000001090041942079242
          0 0 -4.7518837975277883e-7 -4.618772209579041e-7 -9.507306706396697e-7 -9.207183866817934e-7
          0 -5.081402950582635e-7 -0.000001014604836493841 0 0 -5.581566517055027e-7
          -5.467944675383876e-7 -0.0000011169649707884621 -0.0000010944200633483816 0 0 0
          -5.626169597781307e-7 -5.465940762105314e-7 -5.537007878223497e-7 -0.0000011240672718456975 -0.000001091990264282975 -0.000001103973614656163
          0 0 0 -5.522918110212884e-7 -5.577765577069378e-7 -4.845908657166778e-7
          -0.0000011033355276561396 -0.0000011151538333387444 -9.679989462203813e-7 0 -4.527691680861344e-7 -9.07218269421938e-7
          0 -5.527918904886491e-7 -0.0000011056831851732584 0 0 -7.220340030392183e-7
          -7.370533548382612e-7 -0.000001441277777703012 -0.0000014716389359625095 0 -5.508916193129134e-7 -0.0000011015469550541806
          0 0 0 -4.858955898119992e-7 -4.90697998585995e-7 -5.446198396840986e-7
          -9.720066338154198e-7 -9.833027142025417e-7 -0.0000010887691820682718 0 0 -7.497669670865075e-7
          -7.603984575247475e-7 -0.0000014952205259373812 -0.000001516508673663766 0 0 0
          0 -3.862905912763106e-7 -3.441728962578522e-7 -3.4603894383238613e-7 -4.0630878552294817e-7 -7.72198142324836e-7
          -6.873988455514323e-7 -6.927471052680964e-7 -8.12596072436981e-7 0 0 0
          0 -5.163220021468496e-7 -4.599123395411371e-7 -4.698605971248209e-7 -5.293084134060339e-7 -0.0000010322820296654077
          -9.199646678671416e-7 -9.39724805462114e-7 -0.0000010580821985419091 0 0 0
          -7.045212434606165e-7 -6.719456160919495e-7 -7.123673580972352e-7 -0.000001408810652773423 -0.000001342652310823888 -0.0000014239962583712594
          0 -5.285026235111026e-7 -0.0000010574933210158186 0 -5.469153831216598e-7 -0.0000010897849801222337
          0 0 -3.111592921842561e-7 -2.8111986848333274e-7 -6.250279475506687e-7 -5.645272424543799e-7
          0 0 -4.030022839930565e-7 -4.468921839986561e-7 -8.063918753320855e-7 -8.93945515812766e-7
          0 -5.044716611505892e-7 -0.0000010111304838493766 0 0 0
          0 -5.804491714592715e-7 -6.280952051512557e-7 -6.144376086091358e-7 -5.644348042231978e-7 -0.0000011613277806955273
          -0.0000012578863598199802 -0.0000012284291712397326 -0.0000011287120413997562 0 -6.51324631983164e-7 -0.0000013011434469890033
          0 -5.730248479700728e-7 -0.0000011466774887583315 0 0 -5.787525782815225e-7
          -5.373094503521806e-7 -0.0000011572495501607557 -0.0000010732358055749693 0 -4.299999904530904e-7 -8.608086481308845e-7
          0 0 -5.19382893666975e-7 -5.488921624974631e-7 -0.0000010388156675564129 -0.000001098656038039305
          0 -4.5484506305685943e-7 -9.109450925490659e-7 0 0 -5.733574170093341e-7
          -5.742976320352001e-7 -0.000001147510681501113 -0.0000011495350197992324 0 -5.75574222065975e-7 -0.0000011518214714437752
          0 -5.69082047181878e-7 -0.0000011372220928409917 0 -5.785482442949401e-7 -0.0000011581855475615294
          0 0 -4.063315237629433e-7 -4.309125012959126e-7 -8.118015000187854e-7 -8.592520570316557e-7
          0 -5.950422470486457e-7 -0.0000011913171700259372 0 0 -6.695371656722825e-7
          -6.621349068255577e-7 -0.0000013370741031827608 -0.000001323247195703703 0 0 0
          -7.95827741954756e-7 -8.099684973207922e-7 -8.002829279126254e-7 -0.0000015888431118876369 -0.0000016152829972083742 -0.0000015995269347403635
          0 0 0 -8.374636287012582e-7 -8.091504459671589e-7 -8.120478068364585e-7
          -0.0000016726436035430269 -0.0000016165241349875485 -0.000001621960860695479 0 0 -3.69613996399801e-7
          -4.3800222078869973e-7 -7.411025504932954e-7 -8.776309575292748e-7 0 0 0
          -6.984370079487795e-7 -6.87965043630167e-7 -6.717855701236209e-7 -0.0000013963128379168562 -0.0000013748048795251716 -0.0000013430584194282244
          0 0 -6.756227283332864e-7 -6.619254656853599e-7 -0.0000013502489216059095 -0.0000013233692197286262
          0 -4.839419111193993e-7 -9.683139141600039e-7 0 0 -8.13697985510722e-7
          -8.387603873862247e-7 -0.0000016251971682923674 -0.0000016756533399275298 0 0 -8.656864009322927e-7
          -8.639735927863083e-7 -0.0000017287744419221112 -0.000001724388999499866 0 0 -7.906250089710088e-7
          -8.061996155534648e-7 -0.0000015765410250812266 -0.0000016075193053669204 0 -7.188827473281571e-7 -0.0000014360204447547
          0 0 -7.651544707351287e-7 -7.703378856076278e-7 -0.0000015290609498201704 -0.0000015398623631637023
          0 -7.174626326374763e-7 -0.0000014334728597863128 0 -6.299950366033831e-7 -0.0000012610999754054055
          0 -6.694597315277242e-7 -0.0000013403514533128058 0 -6.071196236195308e-7 -0.0000012159947253618113
          0 -6.082767734296292e-7 -0.0000012176741167898842 0 0 -6.530751928144249e-7
          -5.918847217676214e-7 -0.0000013061275918658543 -0.0000011850128878842147 0 0 -6.031245136440813e-7
          -6.009879910804787e-7 -0.0000012070626288833493 -0.0000012026104023164619 0 -4.7640749308325e-7 -9.531124377722667e-7
          0 -5.058944690318139e-7 -0.0000010121707827013595 0 -6.022576105554684e-7 -0.0000012050060230744752
          0 -5.65885318911251e-7 -0.0000011316614362198834 0 -3.5656691407556105e-7 -7.17526339991696e-7
          0 -3.331045160665423e-7 -6.680595429085477e-7 0 0 -6.953453072600511e-7
          -6.470474736345711e-7 -0.0000013903707422833503 -0.0000012953309770589314 0 -7.495172628055915e-7 -0.000001497487139054396
          0 0 -8.214120220776669e-7 -8.054015383048194e-7 -0.0000016392894496057322 -0.0000016069390382793821
          0 0 0 -5.614763545415631e-7 -6.004476552780319e-7 -5.480634475087868e-7
          -0.0000011217311757884275 -0.0000011998566805177825 -0.0000010958337950008928 0 -5.343569044474108e-7 -0.000001068937722393054
          0 -7.91082821805996e-7 -0.0000015796094149958856 0 0 -6.460052392151474e-7
          -6.478431638800893e-7 -0.0000012919358758989828 -0.0000012958909449853582 0 0 -7.733355852625442e-7
          -7.330310969111513e-7 -0.0000015457836331859103 -0.0000014663992967540747 0 -6.858532491284217e-7 -0.000001373381901869019
          0 0 -7.163765902845249e-7 -6.757172513038098e-7 -0.000001433053963314579 -0.0000013538170313463057
          0 0 0 0 -3.0131992617151925e-7 -3.1259776290600795e-7
          -3.232780156308031e-7 -2.953951062255206e-7 -6.055485231859171e-7 -6.307927177086937e-7 -6.488278561357084e-7 -5.946275686973378e-7
          0 -4.0986093675127407e-7 -8.205254541833063e-7 0 -4.111505490912518e-7 -8.252996060879223e-7
          0 0 -6.018944715871005e-7 -5.963874512788364e-7 -0.0000012028226223137326 -0.000001193728287843668
          0 -6.144922366623378e-7 -0.0000012307567863249389 0 0 -7.167007857044923e-7
          -7.116113765890392e-7 -0.0000014321162512332104 -0.0000014205040925910266 0 0 -5.456243496546526e-7
          -4.61664197918552e-7 -0.0000010881318799077128 -9.214345272971613e-7 0 -5.828749506106406e-7 -0.0000011659153830319744
          0 0 -6.480657177324717e-7 -6.467999746260384e-7 -0.0000012988672610075042 -0.0000012951700741248541
          0 0 0 0 -4.3572439756496447e-7 -4.6102590701481505e-7
          -4.333975800129884e-7 -4.0075111580536e-7 -8.718996948232818e-7 -9.226294209611759e-7 -8.676464649740823e-7 -8.02054202075802e-7
          0 -6.083681736744785e-7 -0.0000012157716785332223 0 0 -3.595135725577765e-7
          -3.121724307298443e-7 -7.204239459116253e-7 -6.259792879936968e-7 0 0 -6.813544014136705e-7
          -7.287249076621542e-7 -0.0000013615606578796815 -0.0000014566366435792816 0 -7.491283649460364e-7 -0.0000014964545665647534
          0 -6.687681245018552e-7 -0.0000013369614378554426 0 -6.19658146815632e-7 -0.0000012370837757094476
          0 -3.70387077858195e-7 -7.430081667293798e-7 0 -2.6460163593519185e-7 -5.299678337677154e-7
          0 0 -6.229613127630565e-7 -6.796679239773683e-7 -0.000001243252702475121 -0.0000013574255415818108
          0 -3.510411783970451e-7 -7.030211260442915e-7 0 -3.1097267423462696e-7 -6.216969932112448e-7
          0 -7.011195521683314e-7 -0.0000014001853336262547 0 -8.308960146013114e-7 -0.000001658571132669075
          0 -2.738187215681607e-7 -5.500920058405279e-7 0 -6.309946846548362e-7 -0.0000012633060032313877
          0 0 0 -8.227463626928247e-7 -8.106711697370224e-7 -7.54046861899945e-7
          -0.000001642255862199459 -0.0000016188476463992338 -0.0000015050967062852071 0 -3.4932416638661244e-7 -7.05173432486308e-7
          0 0 -7.213346496479836e-7 -7.03679659320393e-7 -0.0000014395637203113018 -0.0000014050791039802446
          0 -4.17147557929968e-7 -8.355990077394814e-7 0 -4.918817459160074e-7 -9.841273212633888e-7
          0 -6.681630768079044e-7 -0.0000013342658408562112 0 -3.0396489530882583e-7 -6.10066322186509e-7
          0 0 -4.385384061974878e-7 -4.932661380735378e-7 -8.775923436410032e-7 -9.87194569401178e-7
          0 -4.808373526460225e-7 -9.621631437824705e-7 0 -2.5576344753707306e-7 -5.129394804137894e-7
          0 -6.990552996624352e-7 -0.0000013950555994197118 0 -7.265507259369233e-7 -0.0000014514238196897634
          0 -8.449971985696742e-7 -0.0000016874294025530766 0 -6.634062292317715e-7 -0.000001325882549845867
          0 0 -6.899143333182133e-7 -6.729025702502414e-7 -0.0000013773485290998608 -0.0000013447480642354731
          0 -6.852633518059368e-7 -0.0000013692792960097003 0 0 -6.404376688335966e-7
          -6.549467180581375e-7 -0.0000012809743931613992 -0.0000013095714139173448 0 -6.833678281980124e-7 -0.0000013663988291078076
          0 -6.609148235281792e-7 -0.000001321994204430636 0 -6.526714788827462e-7 -0.0000013045132554013698
          0 0 -5.815146788832429e-7 -5.93267753734813e-7 -0.0000011686584724586822 -0.000001188369050690859
          0 -6.318227732470948e-7 -0.0000012651363942191588 0 -6.492776281203554e-7 -0.0000012976817368714805
        </DataArray>
      </PointData>
      <CellData>
        <DataArray type="Int32" Name="libmesh_elem_id" format="ascii" RangeMin="1392" RangeMax="3231">
          1392 1393 1402 1403 1418 1419
          1434 1435 1442 1443 1448 1449
          1454 1455 1478 1479 1500 1501
          1512 1513 1522 1523 1546 1547
          1572 1573 1582 1583 1590 1591
          1608 1609 1614 1615 1616 1617
          1630 1631 1638 1639 1650 1651
          1654 1655 1656 1657 1678 1679
          1682 1683 1684 1685 1704 1705
          1714 1715 1718 1719 1746 1747
          1760 1761 1762 1763 1772 1773
          1790 1791 1794 1795 1802 1803
          1816 1817 1824 1825 1832 1833
          1838 1839 1840 1841 1846 1847
          1848 1849 1852 1853 1856 1857
          1858 1859 1862 1863 1864 1865
          1874 1875 1876 1877 1878 1879
          1882 1883 1888 1889 1904 1905
          1906 1907 1910 1911 1916 1917
          1924 1925 1926 1927 1930 1931
          1936 1937 1946 1947 1950 1951
          1956 1957 1960 1961 1982 1983
          1996 1997 1998 1999 2026 2027
          2028 2029 2038 2039 2046 2047
          2048 2049 2052 2053 2054 2055
          2058 2059 2060 2061 2084 2085
          2088 2089 2096 2097 2102 2103
          2106 2107 2110 2111 2126 2127
          2136 2137 2138 2139 2144 2145
          2148 2149 2154 2155 2158 2159
          2162 2163 2164 2165 2170 2171
          2176 2177 2178 2179 2196 2197
          2200 2201 2202 2203 2204 2205
          2212 2213 2220 2221 2222 2223
          2224 2225 2226 2227 2228 2229
          2232 2233 2236 2237 2246 2247
          2250 2251 2252 2253 2254 2255
          2260 2261 2264 2265 2266 2267
          2274 2275 2282 2283 2308 2309
          2310 2311 2312 2313 2318 2319
          2324 2325 2328 2329 2346 2347
          2350 2351 2364 2365 2368 2369
          2370 2371 2402 2403 2416 2417
          2420 2421 2444 2445 2458 2459
          2462 2463 2466 2467 2468 2469
          2470 2471 2478 2479 2484 2485
          2488 2489 2490 2491 2502 2503
          2504 2505 2510 2511 2512 2513
          2524 2525 2550 2551 2566 2567
          2570 2571 2580 2581 2582 2583
          2602 2603 2608 2609 2616 2617
          2628 2629 2634 2635 2636 2637
          2640 2641 2642 2643 2644 2645
          2650 2651 2666 2667 2668 2669
          2684 2685 2690 2691 2696 2697
          2700 2701 2710 2711 2714 2715
          2716 2717 2726 2727 2750 2751
          2760 2761 2766 2767 2772 2773
          2782 2783 2798 2799 2802 2803
          2810 2811 2826 2827 2830 2831
          2838 2839 2860 2861 2868 2869
          2874 2875 2884 2885 2922 2923
          2928 2929 2934 2935 2938 2939
          2946 2947 2948 2949 2960 2961
          2962 2963 2964 2965 2974 2975
          2978 2979 2994 2995 2998 2999
          3004 3005 3008 3009 3020 3021
          3028 3029 3034 3035 3038 3039
          3040 3041 3042 3043 3050 3051
          3052 3053 3054 3055 3060 3061
          3066 3067 3072 3073 3076 3077
          3082 3083 3086 3087 3096 3097
          3100 3101 3102 3103 3112 3113
          3116 3117 3148 3149 3154 3155
          3158 3159 3166 3167 3182 3183
          3230 3231
        </DataArray>
        <DataArray type="Int32" Name="subdomain_id" format="ascii" RangeMin="107" RangeMax="107">
          107 107 107 107 107 107
          107 107 107 107 107 107
          107 107 107 107 107 107
          107 107 107 107 107 107
          107 107 107 107 107 107
          107 107 107 107 107 107
          107 107 107 107 107 107
          107 107 107 107 107 107
          107 107 107 107 107 107
          107 107 107 107 107 107
          107 107 107 107 107 107
          107 107 107 107 107 107
          107 107 107 107 107 107
          107 107 107 107 107 107
          107 107 107 107 107 107
          107 107 107 107 107 107
          107 107 107 107 107 107
          107 107 107 107 107 107
          107 107 107 107 107 107
          107 107 107 107 107 107
          107 107 107 107 107 107
          107 107 107 107 107 107
          107 107 107 107 107 107
          107 107 107 107 107 107
          107 107 107 107 107 107
          107 107 107 107 107 107
          107 107 107 107 107 107
          107 107 107 107 107 107
          107 107 107 107 107 107
          107 107 107 107 107 107
          107 107 107 107 107 107
          107 107 107 107 107 107
          107 107 107 107 107 107
          107 107 107 107 107 107
          107 107 107 107 107 107
          107 107 107 107 107 107
          107 107 107 107 107 107
          107 107 107 107 107 107
          107 107 107 107 107 107
          107 107 107 107 107 107
          107 107 107 107 107 107
          107 107 107 107 107 107
          107 107 107 107 107 107
          107 107 107 107 107 107
          107 107 107 107 107 107
          107 107 107 107 107 107
          107 107 107 107 107 107
          107 107 107 107 107 107
          107 107 107 107 107 107
          107 107 107 107 107 107
          107 107 107 107 107 107
          107 107 107 107 107 107
          107 107 107 107 107 107
          107 107 107 107 107 107
          107 107 107 107 107 107
          107 107 107 107 107 107
          107 107 107 107 107 107
          107 107 107 107 107 107
          107 107 107 107 107 107
          107 107 107 107 107 107
          107 107 107 107 107 107
          107 107 107 107 107 107
          107 107 107 107 107 107
          107 107 107 107 107 107
          107 107 107 107 107 107
          107 107 107 107 107 107
          107 107 107 107 107 107
          107 107 107 107 107 107
          107 107 107 107 107 107
          107 107 107 107 107 107
          107 107 107 107 107 107
          107 107 107 107 107 107
          107 107 107 107 107 107
          107 107 107 107 107 107
          107 107 107 107 107 107
          107 107
        </DataArray>
        <DataArray type="Int32" Name="processor_id" format="ascii" RangeMin="2" RangeMax="2">
          2 2 2 2 2 2
          2 2 2 2 2 2
          2 2 2 2 2 2
          2 2 2 2 2 2
          2 2 2 2 2 2
          2 2 2 2 2 2
          2 2 2 2 2 2
          2 2 2 2 2 2
          2 2 2 2 2 2
          2 2 2 2 2 2
          2 2 2 2 2 2
          2 2 2 2 2 2
          2 2 2 2 2 2
          2 2 2 2 2 2
          2 2 2 2 2 2
          2 2 2 2 2 2
          2 2 2 2 2 2
          2 2 2 2 2 2
          2 2 2 2 2 2
          2 2 2 2 2 2
          2 2 2 2 2 2
          2 2 2 2 2 2
          2 2 2 2 2 2
          2 2 2 2 2 2
          2 2 2 2 2 2
          2 2 2 2 2 2
          2 2 2 2 2 2
          2 2 2 2 2 2
          2 2 2 2 2 2
          2 2 2 2 2 2
          2 2 2 2 2 2
          2 2 2 2 2 2
          2 2 2 2 2 2
          2 2 2 2 2 2
          2 2 2 2 2 2
          2 2 2 2 2 2
          2 2 2 2 2 2
          2 2 2 2 2 2
          2 2 2 2 2 2
          2 2 2 2 2 2
          2 2 2 2 2 2
          2 2 2 2 2 2
          2 2 2 2 2 2
          2 2 2 2 2 2
          2 2 2 2 2 2
          2 2 2 2 2 2
          2 2 2 2 2 2
          2 2 2 2 2 2
          2 2 2 2 2 2
          2 2 2 2 2 2
          2 2 2 2 2 2
          2 2 2 2 2 2
          2 2 2 2 2 2
          2 2 2 2 2 2
          2 2 2 2 2 2
          2 2 2 2 2 2
          2 2 2 2 2 2
          2 2 2 2 2 2
          2 2 2 2 2 2
          2 2 2 2 2 2
          2 2 2 2 2 2
          2 2 2 2 2 2
          2 2 2 2 2 2
          2 2 2 2 2 2
          2 2 2 2 2 2
          2 2 2 2 2 2
          2 2 2 2 2 2
          2 2 2 2 2 2
          2 2 2 2 2 2
          2 2 2 2 2 2
          2 2 2 2 2 2
          2 2 2 2 2 2
          2 2 2 2 2 2
          2 2 2 2 2 2
          2 2 2 2 2 2
          2 2
        </DataArray>
      </CellData>
      <Points>
        <DataArray type="Float64" Name="Points" NumberOfComponents="3" format="ascii" RangeMin="0.0055128205128194" RangeMax="0.014586579917196396">
          0.010655961336451 0.0054415469453289 0 0.010738296327413 0.0059250363170334 0
          0.010252884061106 0.0059462536680524 0 0.010205117478458 0.0054994523140404 0
          0.010655961336451 0.0054415469453289 0.00015 0.010738296327413 0.0059250363170334 0.00015
          0.010252884061106 0.0059462536680524 0.00015 0.010205117478458 0.0054994523140404 0.00015
          0.010655961336451 0.0054415469453289 0.0003 0.010738296327413 0.0059250363170334 0.0003
          0.010252884061106 0.0059462536680524 0.0003 0.010205117478458 0.0054994523140404 0.0003
          0.011940440807394 0.0034141066074527 0 0.011459595517011 0.003824326979063 0
          0.011102612382238 0.0034627190197861 0 0.011355953963772 0.0030463545109029 0
          0.011940440807394 0.0034141066074527 0.00015 0.011459595517011 0.003824326979063 0.00015
          0.011102612382238 0.0034627190197861 0.00015 0.011355953963772 0.0030463545109029 0.00015
          0.011940440807394 0.0034141066074527 0.0003 0.011459595517011 0.003824326979063 0.0003
          0.011102612382238 0.0034627190197861 0.0003 0.011355953963772 0.0030463545109029 0.0003
          0.010057653370411 0.0084974472595183 0 0.01054988842507 0.0084422245958245 0
          0.010057653370411 0.0084974472595183 0.00015 0.01054988842507 0.0084422245958245 0.00015
          0.010057653370411 0.0084974472595183 0.0003 0.01054988842507 0.0084422245958245 0.0003
          0.011046194733105 0.00090743319272295 0 0.011064186406242 0.00044456569898216 0
          0.011549090679959 0.00043919238601916 0 0.011507246232172 0.00087204304167501 0
          0.011046194733105 0.00090743319272295 0.00015 0.011064186406242 0.00044456569898216 0.00015
          0.011549090679959 0.00043919238601916 0.00015 0.011507246232172 0.00087204304167501 0.00015
          0.011046194733105 0.00090743319272295 0.0003 0.011064186406242 0.00044456569898216 0.0003
          0.011549090679959 0.00043919238601916 0.0003 0.011507246232172 0.00087204304167501 0.0003
          0.010695724673322 0.003201084864495 0 0.010922769205465 0.002821493997395 0
          0.010695724673322 0.003201084864495 0.00015 0.010922769205465 0.002821493997395 0.00015
          0.010695724673322 0.003201084864495 0.0003 0.010922769205465 0.002821493997395 0.0003
          0.0063972422249218 0.0045440807567198 0 0.0065062213292024 0.0050164807168814 0
          0.0062389906493372 0.0053128670028646 0 0.0060512178389602 0.0047929387822649 0
          0.0063972422249218 0.0045440807567198 0.00015 0.0065062213292024 0.0050164807168814 0.00015
          0.0062389906493372 0.0053128670028646 0.00015 0.0060512178389602 0.0047929387822649 0.00015
          0.0063972422249218 0.0045440807567198 0.0003 0.0065062213292024 0.0050164807168814 0.0003
          0.0062389906493372 0.0053128670028646 0.0003 0.0060512178389602 0.0047929387822649 0.0003
          0.0077450758336629 0.0014176167893871 0 0.0081853433575 0.0016343392489207 0
          0.0081296210030831 0.0020475545417094 0 0.0077097822266787 0.0019577759081516 0
          0.0077450758336629 0.0014176167893871 0.00015 0.0081853433575 0.0016343392489207 0.00015
          0.0081296210030831 0.0020475545417094 0.00015 0.0077097822266787 0.0019577759081516 0.00015
          0.0077450758336629 0.0014176167893871 0.0003 0.0081853433575 0.0016343392489207 0.0003
          0.0081296210030831 0.0020475545417094 0.0003 0.0077097822266787 0.0019577759081516 0.0003
          0.010163700921554 0.0050965322104848 0 0.010539876174215 0.0050107335132671 0
          0.010163700921554 0.0050965322104848 0.00015 0.010539876174215 0.0050107335132671 0.00015
          0.010163700921554 0.0050965322104848 0.0003 0.010539876174215 0.0050107335132671 0.0003
          0.0067145785472978 0.00092067788586619 0 0.0066311284750677 0.00045344715700039 0
          0.0071039644964018 0.00045254776362746 0 0.0071622170579096 0.00091220258976311 0
          0.0067145785472978 0.00092067788586619 0.00015 0.0066311284750677 0.00045344715700039 0.00015
          0.0071039644964018 0.00045254776362746 0.00015 0.0071622170579096 0.00091220258976311 0.00015
          0.0067145785472978 0.00092067788586619 0.0003 0.0066311284750677 0.00045344715700039 0.0003
          0.0071039644964018 0.00045254776362746 0.0003 0.0071622170579096 0.00091220258976311 0.0003
          0.011832021157187 0.0073476785459853 0 0.011779780861271 0.0068646395959748 0
          0.012243708910156 0.0068324173193727 0 0.011832021157187 0.0073476785459853 0.00015
          0.011779780861271 0.0068646395959748 0.00015 0.012243708910156 0.0068324173193727 0.00015
          0.011832021157187 0.0073476785459853 0.0003 0.011779780861271 0.0068646395959748 0.0003
          0.012243708910156 0.0068324173193727 0.0003 0.0084907788898463 0.00044286110481525 0
          0.0089555217282148 0.00046389179151574 0 0.0088246864415892 0.00090448805343066 0
          0.0084146790711037 0.00087434414493667 0 0.0084907788898463 0.00044286110481525 0.00015
          0.0089555217282148 0.00046389179151574 0.00015 0.0088246864415892 0.00090448805343066 0.00015
          0.0084146790711037 0.00087434414493667 0.00015 0.0084907788898463 0.00044286110481525 0.0003
          0.0089555217282148 0.00046389179151574 0.0003 0.0088246864415892 0.00090448805343066 0.0003
          0.0084146790711037 0.00087434414493667 0.0003 0.0073198391209489 0.002802975731369 0
          0.007729981097025 0.0028801564362105 0 0.0077015154526268 0.0033237594367458 0
          0.0072927827923603 0.0032114269239825 0 0.0073198391209489 0.002802975731369 0.00015
          0.007729981097025 0.0028801564362105 0.00015 0.0077015154526268 0.0033237594367458 0.00015
          0.0072927827923603 0.0032114269239825 0.00015 0.0073198391209489 0.002802975731369 0.0003
          0.007729981097025 0.0028801564362105 0.0003 0.0077015154526268 0.0033237594367458 0.0003
          0.0072927827923603 0.0032114269239825 0.0003 0.011061956134478 0.0014022262787872 0
          0.011061956134478 0.0014022262787872 0.00015 0.011061956134478 0.0014022262787872 0.0003
          0.0067262777673885 0.0043003855308917 0 0.0070184374453973 0.0044097475846897 0
          0.0069143452336461 0.0047780273607631 0 0.0067262777673885 0.0043003855308917 0.00015
          0.0070184374453973 0.0044097475846897 0.00015 0.0069143452336461 0.0047780273607631 0.00015
          0.0067262777673885 0.0043003855308917 0.0003 0.0070184374453973 0.0044097475846897 0.0003
          0.0069143452336461 0.0047780273607631 0.0003 0.0072966772765568 0.0023596996909359 0
          0.0077191611848381 0.0024307703640478 0 0.0072966772765568 0.0023596996909359 0.00015
          0.0077191611848381 0.0024307703640478 0.00015 0.0072966772765568 0.0023596996909359 0.0003
          0.0077191611848381 0.0024307703640478 0.0003 0.010569749843509 0.00092230265866691 0
          0.010578573679683 0.0013844170604281 0 0.010145320905195 0.0014335884987508 0
          0.01008894187929 0.00096115561381429 0 0.010569749843509 0.00092230265866691 0.00015
          0.010578573679683 0.0013844170604281 0.00015 0.010145320905195 0.0014335884987508 0.00015
          0.01008894187929 0.00096115561381429 0.00015 0.010569749843509 0.00092230265866691 0.0003
          0.010578573679683 0.0013844170604281 0.0003 0.010145320905195 0.0014335884987508 0.0003
          0.01008894187929 0.00096115561381429 0.0003 0.0061669869081239 0.00049673093518566 0
          0.0062913293509889 0.00097410606592609 0 0.0059245902968253 0.0010856763727913 0
          0.0057061681768373 0.00065177476244477 0 0.0061669869081239 0.00049673093518566 0.00015
          0.0062913293509889 0.00097410606592609 0.00015 0.0059245902968253 0.0010856763727913 0.00015
          0.0057061681768373 0.00065177476244477 0.00015 0.0061669869081239 0.00049673093518566 0.0003
          0.0062913293509889 0.00097410606592609 0.0003 0.0059245902968253 0.0010856763727913 0.0003
          0.0057061681768373 0.00065177476244477 0.0003 0.010613957240618 0.0022894151744625 0
          0.011031068838334 0.0023895404946521 0 0.01053554486979 0.0026566023779455 0
          0.010613957240618 0.0022894151744625 0.00015 0.011031068838334 0.0023895404946521 0.00015
          0.01053554486979 0.0026566023779455 0.00015 0.010613957240618 0.0022894151744625 0.0003
          0.011031068838334 0.0023895404946521 0.0003 0.01053554486979 0.0026566023779455 0.0003
          0.0055128205128194 0 0 0.0060256410256386 0 0
          0.0055128205128194 0 0.00015 0.0060256410256386 0 0.00015
          0.0055128205128194 0 0.0003 0.0060256410256386 0 0.0003
          0.0087932726011055 0.003543484648519 0 0.0081725565838686 0.0034418576035907 0
          0.0081844882448281 0.0029554535172717 0 0.0086653225286358 0.0029358056411338 0
          0.0087932726011055 0.003543484648519 0.00015 0.0081725565838686 0.0034418576035907 0.00015
          0.0081844882448281 0.0029554535172717 0.00015 0.0086653225286358 0.0029358056411338 0.00015
          0.0087932726011055 0.003543484648519 0.0003 0.0081725565838686 0.0034418576035907 0.0003
          0.0081844882448281 0.0029554535172717 0.0003 0.0086653225286358 0.0029358056411338 0.0003
          0.010609256891376 0.0018508518753275 0 0.011063963632424 0.0019108783312894 0
          0.010609256891376 0.0018508518753275 0.00015 0.011063963632424 0.0019108783312894 0.00015
          0.010609256891376 0.0018508518753275 0.0003 0.011063963632424 0.0019108783312894 0.0003
          0.0061614658010566 0.0029736343202522 0 0.0061372854142827 0.0036106222238676 0
          0.0061614658010566 0.0029736343202522 0.00015 0.0061372854142827 0.0036106222238676 0.00015
          0.0061614658010566 0.0029736343202522 0.0003 0.0061372854142827 0.0036106222238676 0.0003
          0.0091223832784702 0.0028108558594978 0 0.0093224708097351 0.0032450014434347 0
          0.0091223832784702 0.0028108558594978 0.00015 0.0093224708097351 0.0032450014434347 0.00015
          0.0091223832784702 0.0028108558594978 0.0003 0.0093224708097351 0.0032450014434347 0.0003
          0.010365654248251 0.0046741943492533 0 0.010130092133721 0.0048347586786618 0
          0.0098673679311407 0.0047157860708196 0 0.010078628200493 0.0044157313734999 0
          0.010365654248251 0.0046741943492533 0.00015 0.010130092133721 0.0048347586786618 0.00015
          0.0098673679311407 0.0047157860708196 0.00015 0.010078628200493 0.0044157313734999 0.00015
          0.010365654248251 0.0046741943492533 0.0003 0.010130092133721 0.0048347586786618 0.0003
          0.0098673679311407 0.0047157860708196 0.0003 0.010078628200493 0.0044157313734999 0.0003
          0.0074225055052033 0.0045889494028562 0 0.0073125071067115 0.0049521547682488 0
          0.0074225055052033 0.0045889494028562 0.00015 0.0073125071067115 0.0049521547682488 0.00015
          0.0074225055052033 0.0045889494028562 0.0003 0.0073125071067115 0.0049521547682488 0.0003
          0.0061231952422177 0.002444135475079 0 0.0061231952422177 0.002444135475079 0.00015
          0.0061231952422177 0.002444135475079 0.0003 0.007634491258567 0.0037589111207536 0
          0.0080978935956725 0.0039120786728548 0 0.007634491258567 0.0037589111207536 0.00015
          0.0080978935956725 0.0039120786728548 0.00015 0.007634491258567 0.0037589111207536 0.0003
          0.0080978935956725 0.0039120786728548 0.0003 0.0067400809843091 0.0034207975388345 0
          0.0067100713183769 0.0039836679330495 0 0.0063054236008776 0.0041223407032968 0
          0.0067400809843091 0.0034207975388345 0.00015 0.0067100713183769 0.0039836679330495 0.00015
          0.0063054236008776 0.0041223407032968 0.00015 0.0067400809843091 0.0034207975388345 0.0003
          0.0067100713183769 0.0039836679330495 0.0003 0.0063054236008776 0.0041223407032968 0.0003
          0.0064429727892239 0.0018594619814901 0 0.0065003657821779 0.0023397297588745 0
          0.0060722038988066 0.0019538017587265 0 0.0064429727892239 0.0018594619814901 0.00015
          0.0065003657821779 0.0023397297588745 0.00015 0.0060722038988066 0.0019538017587265 0.00015
          0.0064429727892239 0.0018594619814901 0.0003 0.0065003657821779 0.0023397297588745 0.0003
          0.0060722038988066 0.0019538017587265 0.0003 0.0068255396015086 0.0051581133306003 0
          0.0068255396015086 0.0051581133306003 0.00015 0.0068255396015086 0.0051581133306003 0.0003
          0.0065384615384579 0 0 0.0065384615384579 0 0.00015
          0.0065384615384579 0 0.0003 0.012879713087233 0.0060908484912964 0
          0.012982043505355 0.0056371881930815 0 0.012879713087233 0.0060908484912964 0.00015
          0.012982043505355 0.0056371881930815 0.00015 0.012879713087233 0.0060908484912964 0.0003
          0.012982043505355 0.0056371881930815 0.0003 0.0065699942646101 0.0028542668018424 0
          0.0065699942646101 0.0028542668018424 0.00015 0.0065699942646101 0.0028542668018424 0.0003
          0.0084683943974961 0.0045583446766593 0 0.0079943718437571 0.0043747262241866 0
          0.0085823759797054 0.0040943119694046 0 0.0084683943974961 0.0045583446766593 0.00015
          0.0079943718437571 0.0043747262241866 0.00015 0.0085823759797054 0.0040943119694046 0.00015
          0.0084683943974961 0.0045583446766593 0.0003 0.0079943718437571 0.0043747262241866 0.0003
          0.0085823759797054 0.0040943119694046 0.0003 0.0085830886495109 0.0024681574500846 0
          0.0090044137010858 0.0023542069269131 0 0.0085830886495109 0.0024681574500846 0.00015
          0.0090044137010858 0.0023542069269131 0.00015 0.0085830886495109 0.0024681574500846 0.0003
          0.0090044137010858 0.0023542069269131 0.0003 0.0098857235699117 0.0079055319030787 0
          0.0095144479526816 0.0076594245921199 0 0.0094715724969347 0.0073263583858313 0
          0.0099283521138692 0.0073475677072736 0 0.0098857235699117 0.0079055319030787 0.00015
          0.0095144479526816 0.0076594245921199 0.00015 0.0094715724969347 0.0073263583858313 0.00015
          0.0099283521138692 0.0073475677072736 0.00015 0.0098857235699117 0.0079055319030787 0.0003
          0.0095144479526816 0.0076594245921199 0.0003 0.0094715724969347 0.0073263583858313 0.0003
          0.0099283521138692 0.0073475677072736 0.0003 0.010833716827414 0.0069257207373803 0
          0.010357413059119 0.0069077241183533 0 0.010300982556592 0.0064274708783385 0
          0.010786080808085 0.0064391381968206 0 0.010833716827414 0.0069257207373803 0.00015
          0.010357413059119 0.0069077241183533 0.00015 0.010300982556592 0.0064274708783385 0.00015
          0.010786080808085 0.0064391381968206 0.00015 0.010833716827414 0.0069257207373803 0.0003
          0.010357413059119 0.0069077241183533 0.0003 0.010300982556592 0.0064274708783385 0.0003
          0.010786080808085 0.0064391381968206 0.0003 0.012723582323863 0.006509831652106 0
          0.012251440655851 0.0062918667587536 0 0.012542392069256 0.0059723735377719 0
          0.012723582323863 0.006509831652106 0.00015 0.012251440655851 0.0062918667587536 0.00015
          0.012542392069256 0.0059723735377719 0.00015 0.012723582323863 0.006509831652106 0.0003
          0.012251440655851 0.0062918667587536 0.0003 0.012542392069256 0.0059723735377719 0.0003
          0.0071151184692216 0.0040272738406853 0 0.0071151184692216 0.0040272738406853 0.00015
          0.0071151184692216 0.0040272738406853 0.0003 0.005927800859391 0.0043689372395662 0
          0.005927800859391 0.0043689372395662 0.00015 0.005927800859391 0.0043689372395662 0.0003
          0.0092411258002763 0.0078319639415625 0 0.0089588909882048 0.0073942383853577 0
          0.0092411258002763 0.0078319639415625 0.00015 0.0089588909882048 0.0073942383853577 0.00015
          0.0092411258002763 0.0078319639415625 0.0003 0.0089588909882048 0.0073942383853577 0.0003
          0.009874674666521 0.0068715373563056 0 0.010410157305432 0.007394545582291 0
          0.009874674666521 0.0068715373563056 0.00015 0.010410157305432 0.007394545582291 0.00015
          0.009874674666521 0.0068715373563056 0.0003 0.010410157305432 0.007394545582291 0.0003
          0.0075354000991736 0.004186248288406 0 0.0075354000991736 0.004186248288406 0.00015
          0.0075354000991736 0.004186248288406 0.0003 0.01131847387487 0.0058224977902188 0
          0.011696082283392 0.0060272916092408 0 0.011725204011411 0.0063910302275778 0
          0.011265055974573 0.0064250601080915 0 0.01131847387487 0.0058224977902188 0.00015
          0.011696082283392 0.0060272916092408 0.00015 0.011725204011411 0.0063910302275778 0.00015
          0.011265055974573 0.0064250601080915 0.00015 0.01131847387487 0.0058224977902188 0.0003
          0.011696082283392 0.0060272916092408 0.0003 0.011725204011411 0.0063910302275778 0.0003
          0.011265055974573 0.0064250601080915 0.0003 0.012000241143886 0.0058170880130831 0
          0.012000241143886 0.0058170880130831 0.00015 0.012000241143886 0.0058170880130831 0.0003
          0.011120492592586 0.0052514705902296 0 0.011120492592586 0.0052514705902296 0.00015
          0.011120492592586 0.0052514705902296 0.0003 0.0092910901193945 0.0039260363263486 0
          0.0090503465409481 0.0043132092761106 0 0.0092910901193945 0.0039260363263486 0.00015
          0.0090503465409481 0.0043132092761106 0.00015 0.0092910901193945 0.0039260363263486 0.0003
          0.0090503465409481 0.0043132092761106 0.0003 0.007889027184575 0.0048982243533992 0
          0.007889027184575 0.0048982243533992 0.00015 0.007889027184575 0.0048982243533992 0.0003
          0.0094935553236164 0.004533528646427 0 0.0097061514105808 0.0041851036755216 0
          0.0094935553236164 0.004533528646427 0.00015 0.0097061514105808 0.0041851036755216 0.00015
          0.0094935553236164 0.004533528646427 0.0003 0.0097061514105808 0.0041851036755216 0.0003
          0.007602124101561 0.0050930903063015 0 0.007602124101561 0.0050930903063015 0.00015
          0.007602124101561 0.0050930903063015 0.0003 0.010723762445737 0.0044202706845482 0
          0.010410164583979 0.0041181159817359 0 0.010723762445737 0.0044202706845482 0.00015
          0.010410164583979 0.0041181159817359 0.00015 0.010723762445737 0.0044202706845482 0.0003
          0.010410164583979 0.0041181159817359 0.0003 0.01095205032792 0.0047963590452232 0
          0.01095205032792 0.0047963590452232 0.00015 0.01095205032792 0.0047963590452232 0.0003
          0.011303178752756 0.0069106117689346 0 0.011303178752756 0.0069106117689346 0.00015
          0.011303178752756 0.0069106117689346 0.0003 0.01003253261535 0.0038623502872685 0
          0.01003253261535 0.0038623502872685 0.00015 0.01003253261535 0.0038623502872685 0.0003
          0.0076528923620256 0.0053996878686031 0 0.0072494384034052 0.005322441352826 0
          0.0076528923620256 0.0053996878686031 0.00015 0.0072494384034052 0.005322441352826 0.00015
          0.0076528923620256 0.0053996878686031 0.0003 0.0072494384034052 0.005322441352826 0.0003
          0.0096442187720765 0.0035928190702974 0 0.0096442187720765 0.0035928190702974 0.00015
          0.0096442187720765 0.0035928190702974 0.0003 0.012013949131265 0.002158444108951 0
          0.012018063243501 0.0027123142038817 0 0.012013949131265 0.002158444108951 0.00015
          0.012018063243501 0.0027123142038817 0.00015 0.012013949131265 0.002158444108951 0.0003
          0.012018063243501 0.0027123142038817 0.0003 0.0080144547016537 0.00086684480617367 0
          0.008304219624614 0.0012703006012415 0 0.0080327132462595 0.0011721512048422 0
          0.0080144547016537 0.00086684480617367 0.00015 0.008304219624614 0.0012703006012415 0.00015
          0.0080327132462595 0.0011721512048422 0.00015 0.0080144547016537 0.00086684480617367 0.0003
          0.008304219624614 0.0012703006012415 0.0003 0.0080327132462595 0.0011721512048422 0.0003
          0.0094736490244467 0.0005865877812969 0 0.010068957850501 0.00047856930843549 0
          0.0096358530086744 0.0010887425154837 0 0.0094736490244467 0.0005865877812969 0.00015
          0.010068957850501 0.00047856930843549 0.00015 0.0096358530086744 0.0010887425154837 0.00015
          0.0094736490244467 0.0005865877812969 0.0003 0.010068957850501 0.00047856930843549 0.0003
          0.0096358530086744 0.0010887425154837 0.0003 0.0071984303565192 0.0057392272964834 0
          0.0067200519522164 0.0055550541115669 0 0.0071984303565192 0.0057392272964834 0.00015
          0.0067200519522164 0.0055550541115669 0.00015 0.0071984303565192 0.0057392272964834 0.0003
          0.0067200519522164 0.0055550541115669 0.0003 0.013091675611077 0.0041736873632184 0
          0.012621380555602 0.004071395146678 0 0.012601464682814 0.0035037767307713 0
          0.013091675611077 0.0041736873632184 0.00015 0.012621380555602 0.004071395146678 0.00015
          0.012601464682814 0.0035037767307713 0.00015 0.013091675611077 0.0041736873632184 0.0003
          0.012621380555602 0.004071395146678 0.0003 0.012601464682814 0.0035037767307713 0.0003
          0.01153639784925 0.0020208067996516 0 0.011496246026306 0.0025480504488598 0
          0.01153639784925 0.0020208067996516 0.00015 0.011496246026306 0.0025480504488598 0.00015
          0.01153639784925 0.0020208067996516 0.0003 0.011496246026306 0.0025480504488598 0.0003
          0.011043213382792 0.0084269911709333 0 0.011043213382792 0.0084269911709333 0.00015
          0.011043213382792 0.0084269911709333 0.0003 0.010128205128191 0 0
          0.0096153846153732 0 0 0.010128205128191 0 0.00015
          0.0096153846153732 0 0.00015 0.010128205128191 0 0.0003
          0.0096153846153732 0 0.0003 0.0091025641025551 0 0
          0.0085897435897353 0 0 0.0091025641025551 0 0.00015
          0.0085897435897353 0 0.00015 0.0091025641025551 0 0.0003
          0.0085897435897353 0 0.0003 0.0085182476127008 0.0020437661198126 0
          0.0089029205554566 0.0019047336662455 0 0.0085182476127008 0.0020437661198126 0.00015
          0.0089029205554566 0.0019047336662455 0.00015 0.0085182476127008 0.0020437661198126 0.0003
          0.0089029205554566 0.0019047336662455 0.0003 0.0081522818828449 0.0024947087352937 0
          0.0081522818828449 0.0024947087352937 0.00015 0.0081522818828449 0.0024947087352937 0.0003
          0.010641025641009 0 0 0.010579843756946 0.00045349299099366 0
          0.010641025641009 0 0.00015 0.010579843756946 0.00045349299099366 0.00015
          0.010641025641009 0 0.0003 0.010579843756946 0.00045349299099366 0.0003
          0.011153846153828 0 0 0.011153846153828 0 0.00015
          0.011153846153828 0 0.0003 0.011760912133753 0.0054122119446059 0
          0.011760912133753 0.0054122119446059 0.00015 0.011760912133753 0.0054122119446059 0.0003
          0.011666666666648 0 0 0.011666666666648 0 0.00015
          0.011666666666648 0 0.0003 0.011547825504055 0.0049713459697514 0
          0.011547825504055 0.0049713459697514 0.00015 0.011547825504055 0.0049713459697514 0.0003
          0.011349632014182 0.0045239710214715 0 0.011349632014182 0.0045239710214715 0.00015
          0.011349632014182 0.0045239710214715 0.0003 0.011997463288521 0.00046572766410539 0
          0.012179487179468 0 0 0.011997463288521 0.00046572766410539 0.00015
          0.012179487179468 0 0.00015 0.011997463288521 0.00046572766410539 0.0003
          0.012179487179468 0 0.0003 0.01039056673058 0.0035410773695937 0
          0.010772622187787 0.0038062315725381 0 0.01039056673058 0.0035410773695937 0.00015
          0.010772622187787 0.0038062315725381 0.00015 0.01039056673058 0.0035410773695937 0.0003
          0.010772622187787 0.0038062315725381 0.0003 0.0089323359070786 0.0047421281357296 0
          0.0089323359070786 0.0047421281357296 0.00015 0.0089323359070786 0.0047421281357296 0.0003
          0.010891746765568 0.007407252260552 0 0.010891746765568 0.007407252260552 0.00015
          0.010891746765568 0.007407252260552 0.0003 0.011089383238376 0.0041358143249023 0
          0.011089383238376 0.0041358143249023 0.00015 0.011089383238376 0.0041358143249023 0.0003
          0.007205317033861 0.0036141963404016 0 0.007205317033861 0.0036141963404016 0.00015
          0.007205317033861 0.0036141963404016 0.0003 0.0080269839945158 0.0054023282425744 0
          0.0080269839945158 0.0054023282425744 0.00015 0.0080269839945158 0.0054023282425744 0.0003
          0.0077721363879251 0.0058968168784219 0 0.0077721363879251 0.0058968168784219 0.00015
          0.0077721363879251 0.0058968168784219 0.0003 0.0095370253310475 0.0025850582106885 0
          0.009732219723835 0.0029713438236062 0 0.0095370253310475 0.0025850582106885 0.00015
          0.009732219723835 0.0029713438236062 0.00015 0.0095370253310475 0.0025850582106885 0.0003
          0.009732219723835 0.0029713438236062 0.0003 0.0094100372761059 0.0021522308351028 0
          0.0094100372761059 0.0021522308351028 0.00015 0.0094100372761059 0.0021522308351028 0.0003
          0.0087313387484914 0.001424359608332 0 0.0084651319029022 0.0017289788972556 0
          0.0087313387484914 0.001424359608332 0.00015 0.0084651319029022 0.0017289788972556 0.00015
          0.0087313387484914 0.001424359608332 0.0003 0.0084651319029022 0.0017289788972556 0.0003
          0.011363196701121 0.0073867521895413 0 0.011894488312007 0.0078344841271679 0
          0.011431801070778 0.0078815011129823 0 0.011363196701121 0.0073867521895413 0.00015
          0.011894488312007 0.0078344841271679 0.00015 0.011431801070778 0.0078815011129823 0.00015
          0.011363196701121 0.0073867521895413 0.0003 0.011894488312007 0.0078344841271679 0.0003
          0.011431801070778 0.0078815011129823 0.0003 0.011511795106494 0.0083968566041475 0
          0.011511795106494 0.0083968566041475 0.00015 0.011511795106494 0.0083968566041475 0.0003
          0.0093066157528448 0.0017085494075796 0 0.0093066157528448 0.0017085494075796 0.00015
          0.0093066157528448 0.0017085494075796 0.0003 0.011737204813157 0.0042624504192267 0
          0.011920232844873 0.0047153506313134 0 0.011737204813157 0.0042624504192267 0.00015
          0.011920232844873 0.0047153506313134 0.00015 0.011737204813157 0.0042624504192267 0.0003
          0.011920232844873 0.0047153506313134 0.0003 0.0097199155871303 0.0015315099671301 0
          0.0098040259351994 0.0019696894002764 0 0.0097199155871303 0.0015315099671301 0.00015
          0.0098040259351994 0.0019696894002764 0.00015 0.0097199155871303 0.0015315099671301 0.0003
          0.0098040259351994 0.0019696894002764 0.0003 0.0099068743951204 0.0023814903757239 0
          0.0099068743951204 0.0023814903757239 0.00015 0.0099068743951204 0.0023814903757239 0.0003
          0.010196799496301 0.0018655242590307 0 0.010252080701677 0.0022738797315184 0
          0.010196799496301 0.0018655242590307 0.00015 0.010252080701677 0.0022738797315184 0.00015
          0.010196799496301 0.0018655242590307 0.0003 0.010252080701677 0.0022738797315184 0.0003
          0.0082479601882269 0.0062087007836213 0 0.0083721174281176 0.0058457654542534 0
          0.0087793359412623 0.006030240425184 0 0.0086690881028679 0.0063945203238097 0
          0.0082479601882269 0.0062087007836213 0.00015 0.0083721174281176 0.0058457654542534 0.00015
          0.0087793359412623 0.006030240425184 0.00015 0.0086690881028679 0.0063945203238097 0.00015
          0.0082479601882269 0.0062087007836213 0.0003 0.0083721174281176 0.0058457654542534 0.0003
          0.0087793359412623 0.006030240425184 0.0003 0.0086690881028679 0.0063945203238097 0.0003
          0.0098103305116681 0.0063862496116293 0 0.0098103305116681 0.0063862496116293 0.00015
          0.0098103305116681 0.0063862496116293 0.0003 0.0084248193747317 0.0050261658136402 0
          0.0084248193747317 0.0050261658136402 0.00015 0.0084248193747317 0.0050261658136402 0.0003
          0.0069463016830039 0.0027787422025108 0 0.0070048409545821 0.0031125297586922 0
          0.0069463016830039 0.0027787422025108 0.00015 0.0070048409545821 0.0031125297586922 0.00015
          0.0069463016830039 0.0027787422025108 0.0003 0.0070048409545821 0.0031125297586922 0.0003
          0.010028456835002 0.0032748409090605 0 0.010028456835002 0.0032748409090605 0.00015
          0.010028456835002 0.0032748409090605 0.0003 0.013084530633285 0.0046685927017207 0
          0.012657407202949 0.0045740785705039 0 0.013084530633285 0.0046685927017207 0.00015
          0.012657407202949 0.0045740785705039 0.00015 0.013084530633285 0.0046685927017207 0.0003
          0.012657407202949 0.0045740785705039 0.0003 0.0063788755008874 0.0014091508241809 0
          0.0060137569775388 0.0015029488511318 0 0.0063788755008874 0.0014091508241809 0.00015
          0.0060137569775388 0.0015029488511318 0.00015 0.0063788755008874 0.0014091508241809 0.0003
          0.0060137569775388 0.0015029488511318 0.0003 0.01196380743939 0.0083394019710021 0
          0.01196380743939 0.0083394019710021 0.00015 0.01196380743939 0.0083394019710021 0.0003
          0.010073855840534 0.0027196155419985 0 0.010289681297386 0.0025561678844121 0
          0.010073855840534 0.0027196155419985 0.00015 0.010289681297386 0.0025561678844121 0.00015
          0.010073855840534 0.0027196155419985 0.0003 0.010289681297386 0.0025561678844121 0.0003
          0.0093223919318803 0.0053434698815888 0 0.009764317340127 0.0054658727348424 0
          0.0097769212248058 0.0059119658621614 0 0.0093027527337708 0.0057939169389015 0
          0.0093223919318803 0.0053434698815888 0.00015 0.009764317340127 0.0054658727348424 0.00015
          0.0097769212248058 0.0059119658621614 0.00015 0.0093027527337708 0.0057939169389015 0.00015
          0.0093223919318803 0.0053434698815888 0.0003 0.009764317340127 0.0054658727348424 0.0003
          0.0097769212248058 0.0059119658621614 0.0003 0.0093027527337708 0.0057939169389015 0.0003
          0.0068882925124701 0.0023177669638962 0 0.0068882925124701 0.0023177669638962 0.00015
          0.0068882925124701 0.0023177669638962 0.0003 0.0092499592325966 0.0063238181416562 0
          0.0089620052424248 0.0065330227489775 0 0.0092499592325966 0.0063238181416562 0.00015
          0.0089620052424248 0.0065330227489775 0.00015 0.0092499592325966 0.0063238181416562 0.0003
          0.0089620052424248 0.0065330227489775 0.0003 0.0072168253422346 0.001397514094839 0
          0.0076041066380058 0.00089936619415626 0 0.0072168253422346 0.001397514094839 0.00015
          0.0076041066380058 0.00089936619415626 0.00015 0.0072168253422346 0.001397514094839 0.0003
          0.0076041066380058 0.00089936619415626 0.0003 0.0075718226613923 0.00044755222139025 0
          0.0075718226613923 0.00044755222139025 0.00015 0.0075718226613923 0.00044755222139025 0.0003
          0.012116660000204 0.0051206445675074 0 0.012116660000204 0.0051206445675074 0.00015
          0.012116660000204 0.0051206445675074 0.0003 0.0068338524094732 0.0018398489073113 0
          0.0068338524094732 0.0018398489073113 0.00015 0.0068338524094732 0.0018398489073113 0.0003
          0.0088473960481577 0.0056214227923259 0 0.0088473960481577 0.0056214227923259 0.00015
          0.0088473960481577 0.0056214227923259 0.0003 0.0081402125110085 0.0066115625704341 0
          0.0081402125110085 0.0066115625704341 0.00015 0.0081402125110085 0.0066115625704341 0.0003
          0.0067824993802385 0.0013824026215467 0 0.0072591856110724 0.0018865642034293 0
          0.0067824993802385 0.0013824026215467 0.00015 0.0072591856110724 0.0018865642034293 0.00015
          0.0067824993802385 0.0013824026215467 0.0003 0.0072591856110724 0.0018865642034293 0.0003
          0.0094035295411974 0.0068662830960629 0 0.0094035295411974 0.0068662830960629 0.00015
          0.0094035295411974 0.0068662830960629 0.0003 0.0080770297303238 0.0057078658228848 0
          0.0080770297303238 0.0057078658228848 0.00015 0.0080770297303238 0.0057078658228848 0.0003
          0.012455160230445 0.0055307966461266 0 0.012455160230445 0.0055307966461266 0.00015
          0.012455160230445 0.0055307966461266 0.0003 0.0092134396095011 0.0012639463069257 0
          0.0092134396095011 0.0012639463069257 0.00015 0.0092134396095011 0.0012639463069257 0.0003
          0.0085681017610313 0.0067725899286886 0 0.0085681017610313 0.0067725899286886 0.00015
          0.0085681017610313 0.0067725899286886 0.0003 0.010337781301114 0.0029713007827362 0
          0.010337781301114 0.0029713007827362 0.00015 0.010337781301114 0.0029713007827362 0.0003
          0.0080769230769162 0 0 0.0080362994401078 0.00044130282391618 0
          0.0075641025640979 0 0 0.0080769230769162 0 0.00015
          0.0080362994401078 0.00044130282391618 0.00015 0.0075641025640979 0 0.00015
          0.0080769230769162 0 0.0003 0.0080362994401078 0.00044130282391618 0.0003
          0.0075641025640979 0 0.0003 0.0084157309119158 0.0054663429893237 0
          0.0084157309119158 0.0054663429893237 0.00015 0.0084157309119158 0.0054663429893237 0.0003
          0.012625060394875 0.0050215313919928 0 0.012340535819996 0.0049145470001145 0
          0.012625060394875 0.0050215313919928 0.00015 0.012340535819996 0.0049145470001145 0.00015
          0.012625060394875 0.0050215313919928 0.0003 0.012340535819996 0.0049145470001145 0.0003
          0.0088807280393962 0.0051824777758032 0 0.0088807280393962 0.0051824777758032 0.00015
          0.0088807280393962 0.0051824777758032 0.0003 0.00978640191627 0.0050564284414982 0
          0.00978640191627 0.0050564284414982 0.00015 0.00978640191627 0.0050564284414982 0.0003
          0.007051282051278 0 0 0.007051282051278 0 0.00015
          0.007051282051278 0 0.0003 0.0089738769927721 0.0068608682916542 0
          0.0089738769927721 0.0068608682916542 0.00015 0.0089738769927721 0.0068608682916542 0.0003
          0.010464396561549 0.007914442793445 0 0.010959162019398 0.0079079830093058 0
          0.010464396561549 0.007914442793445 0.00015 0.010959162019398 0.0079079830093058 0.00015
          0.010464396561549 0.007914442793445 0.0003 0.010959162019398 0.0079079830093058 0.0003
          0.0093768424757788 0.0049206652486621 0 0.0093768424757788 0.0049206652486621 0.00015
          0.0093768424757788 0.0049206652486621 0.0003 0.0084364690699339 0.0071912877673881 0
          0.0084364690699339 0.0071912877673881 0.00015 0.0084364690699339 0.0071912877673881 0.0003
          0.011870414872976 0.00080294526771027 0 0.011870414872976 0.00080294526771027 0.00015
          0.011870414872976 0.00080294526771027 0.0003 0.013048655853798 0.0051555709380823 0
          0.013048655853798 0.0051555709380823 0.00015 0.013048655853798 0.0051555709380823 0.0003
          0.0091480378790118 0.00093783666102615 0 0.0091480378790118 0.00093783666102615 0.00015
          0.0091480378790118 0.00093783666102615 0.0003 0.012592651705639 0.0068198098450163 0
          0.012592651705639 0.0068198098450163 0.00015 0.012592651705639 0.0068198098450163 0.0003
          0.012272070002081 0.0045810549534562 0 0.012153081904124 0.0040944528080542 0
          0.012272070002081 0.0045810549534562 0.00015 0.012153081904124 0.0040944528080542 0.00015
          0.012272070002081 0.0045810549534562 0.0003 0.012153081904124 0.0040944528080542 0.0003
          0.011634800364854 0.0014122839921498 0 0.011634800364854 0.0014122839921498 0.00015
          0.011634800364854 0.0014122839921498 0.0003 0.012451479243686 0.0021914486022899 0
          0.012674188674928 0.0028095410694266 0 0.012451479243686 0.0021914486022899 0.00015
          0.012674188674928 0.0028095410694266 0.00015 0.012451479243686 0.0021914486022899 0.0003
          0.012674188674928 0.0028095410694266 0.0003 0.013121586466294 0.0036708577033715 0
          0.013121586466294 0.0036708577033715 0.00015 0.013121586466294 0.0036708577033715 0.0003
          0.013248150362312 0.0031919567697963 0 0.013248150362312 0.0031919567697963 0.00015
          0.013248150362312 0.0031919567697963 0.0003 0.012096711335481 0.0017058387426491 0
          0.012096711335481 0.0017058387426491 0.00015 0.012096711335481 0.0017058387426491 0.0003
          0.012692307692288 0 0 0.012542896420733 0.00061304595643839 0
          0.012692307692288 0 0.00015 0.012542896420733 0.00061304595643839 0.00015
          0.012692307692288 0 0.0003 0.012542896420733 0.00061304595643839 0.0003
          0.012384518900215 0.0018567382086698 0 0.012384518900215 0.0018567382086698 0.00015
          0.012384518900215 0.0018567382086698 0.0003 0.012087580163866 0.0010424427844857 0
          0.012087580163866 0.0010424427844857 0.00015 0.012087580163866 0.0010424427844857 0.0003
          <InformationKey name="L2_NORM_RANGE" location="vtkDataArray" length="2">
            <Value index="0">
              0.0055128205128
            </Value>
            <Value index="1">
              0.014586579917
            </Value>
          </InformationKey>
        </DataArray>
      </Points>
      <Cells>
        <DataArray type="Int64" Name="connectivity" format="ascii" RangeMin="0" RangeMax="773">
          0 1 2 3 4 5
          6 7 4 5 6 7
          8 9 10 11 12 13
          14 15 16 17 18 19
          16 17 18 19 20 21
          22 23 30 31 32 33
          34 35 36 37 34 35
          36 37 38 39 40 41
          15 14 42 43 19 18
          44 45 19 18 44 45
          23 22 46 47 48 49
          50 51 52 53 54 55
          52 53 54 55 56 57
          58 59 60 61 62 63
          64 65 66 67 64 65
          66 67 68 69 70 71
          3 72 73 0 7 74
          75 4 7 74 75 4
          11 76 77 8 78 79
          80 81 82 83 84 85
          82 83 84 85 86 87
          88 89 99 100 101 102
          103 104 105 106 103 104
          105 106 107 108 109 110
          111 112 113 114 115 116
          117 118 115 116 117 118
          119 120 121 122 744 123
          30 33 745 124 34 37
          745 124 34 37 746 125
          38 41 48 126 127 128
          52 129 130 131 52 129
          130 131 56 132 133 134
          135 136 112 111 137 138
          116 115 137 138 116 115
          139 140 120 119 141 142
          143 144 145 146 147 148
          145 146 147 148 149 150
          151 152 153 154 155 156
          157 158 159 160 157 158
          159 160 161 162 163 164
          165 166 43 167 168 169
          45 170 168 169 45 170
          171 172 47 173 174 175
          153 156 176 177 157 160
          176 177 157 160 178 179
          161 164 180 181 182 183
          184 185 186 187 184 185
          186 187 188 189 190 191
          166 165 192 193 169 168
          194 195 169 168 194 195
          172 171 196 197 112 182
          181 113 116 186 185 117
          116 186 185 117 120 190
          189 121 204 205 180 183
          206 207 184 187 206 207
          184 187 208 209 188 191
          210 211 212 213 214 215
          216 217 214 215 216 217
          218 219 220 221 222 223
          128 127 224 225 131 130
          224 225 131 130 226 227
          134 133 154 153 79 78
          158 157 83 82 158 157
          83 82 162 161 87 86
          231 113 181 232 233 117
          185 234 233 117 185 234
          235 121 189 236 237 238
          239 199 240 241 242 201
          240 241 242 201 243 244
          245 203 246 247 228 248
          249 250 229 251 249 250
          229 251 252 253 230 254
          255 49 48 128 256 53
          52 131 256 53 52 131
          257 57 56 134 175 258
          79 153 177 259 83 157
          177 259 83 157 179 260
          87 161 267 237 199 198
          268 240 201 200 268 240
          201 200 269 243 203 202
          270 271 232 272 273 274
          234 275 273 274 234 275
          276 277 236 278 267 198
          228 247 268 200 229 250
          268 200 229 250 269 202
          230 253 183 279 280 204
          187 281 282 206 187 281
          282 206 191 283 284 208
          285 286 287 288 289 290
          291 292 289 290 291 292
          293 294 295 296 297 298
          299 300 301 302 303 304
          301 302 303 304 305 306
          307 308 261 309 310 311
          263 312 313 314 263 312
          313 314 265 315 316 317
          238 318 127 126 241 319
          130 129 241 319 130 129
          244 320 133 132 324 325
          287 286 326 327 291 290
          326 327 291 290 328 329
          295 294 330 298 331 288
          332 302 333 292 332 302
          333 292 334 306 335 296
          318 336 222 127 319 337
          224 130 319 337 224 130
          320 338 226 133 339 340
          341 342 343 344 345 346
          343 344 345 346 347 348
          349 350 300 1 339 342
          304 5 343 346 304 5
          343 346 308 9 347 350
          351 310 341 340 352 313
          345 344 352 313 345 344
          353 316 349 348 354 339
          1 0 355 343 5 4
          355 343 5 4 356 347
          9 8 357 358 272 180
          359 360 275 184 359 360
          275 184 361 362 278 188
          48 239 238 126 52 242
          241 129 52 242 241 129
          56 245 244 132 336 271
          363 222 337 274 364 224
          337 274 364 224 338 277
          365 226 51 321 239 48
          55 322 242 52 55 322
          242 52 59 323 245 56
          366 367 213 212 368 369
          217 216 368 369 217 216
          370 371 221 220 223 222
          363 372 225 224 364 373
          225 224 364 373 227 226
          365 374 375 210 213 376
          377 214 217 378 377 214
          217 378 379 218 221 380
          375 381 73 210 377 382
          75 214 377 382 75 214
          379 383 77 218 381 354
          0 73 382 355 4 75
          382 355 4 75 383 356
          8 77 297 300 342 384
          301 304 346 385 301 304
          346 385 305 308 350 386
          376 213 367 387 378 217
          369 388 378 217 369 388
          380 221 371 389 223 372
          390 391 225 373 392 393
          225 373 392 393 227 374
          394 395 396 357 180 205
          397 359 184 207 397 359
          184 207 398 361 188 209
          387 367 357 396 388 369
          359 397 388 369 359 397
          389 371 361 398 399 747
          748 400 401 749 750 402
          401 749 750 402 403 751
          752 404 405 102 406 407
          408 106 409 410 408 106
          409 410 411 110 412 413
          180 272 232 181 184 275
          234 185 184 275 234 185
          188 278 236 189 414 415
          144 416 417 418 148 419
          417 418 148 419 420 421
          152 422 423 424 255 391
          425 426 256 393 425 426
          256 393 427 428 257 395
          429 430 431 753 432 433
          434 754 432 433 434 754
          435 436 437 755 438 399
          400 439 440 401 402 441
          440 401 402 441 442 403
          404 443 447 415 414 448
          449 418 417 450 449 418
          417 450 451 421 420 452
          453 100 99 454 455 104
          103 456 455 104 103 456
          457 108 107 458 279 459
          460 280 281 461 462 282
          281 461 462 282 283 463
          464 284 279 465 62 459
          281 466 66 461 281 466
          66 461 283 467 70 463
          448 414 100 453 450 417
          104 455 450 417 104 455
          452 420 108 457 468 469
          415 447 470 471 418 449
          470 471 418 449 472 473
          421 451 753 431 748 756
          754 434 750 757 754 434
          750 757 755 437 752 758
          400 748 431 12 402 750
          434 16 402 750 434 16
          404 752 437 20 474 31
          469 468 475 35 471 470
          475 35 471 470 476 39
          473 472 399 438 744 759
          401 440 745 760 401 440
          745 760 403 442 746 761
          339 477 351 340 343 478
          352 344 343 478 352 344
          347 479 353 348 367 366
          358 357 369 368 360 359
          369 368 360 359 371 370
          362 361 480 32 31 474
          481 36 35 475 481 36
          35 475 482 40 39 476
          483 477 339 354 484 478
          343 355 484 478 343 355
          485 479 347 356 486 483
          354 381 487 484 355 382
          487 484 355 382 488 485
          356 383 183 182 465 279
          187 186 466 281 187 186
          466 281 191 190 467 283
          762 763 489 490 764 765
          491 492 764 765 491 492
          766 767 493 494 490 489
          32 480 492 491 36 481
          492 491 36 481 494 493
          40 482 387 495 496 376
          388 497 498 378 388 497
          498 378 389 499 500 380
          501 270 272 358 502 273
          275 360 502 273 275 360
          503 276 278 362 504 331
          298 297 505 333 302 301
          505 333 302 301 506 335
          306 305 507 486 381 375
          508 487 382 377 508 487
          382 377 509 488 383 379
          318 238 237 510 319 241
          240 511 319 241 240 511
          320 244 243 512 50 49
          255 424 54 53 256 426
          54 53 256 426 58 57
          257 428 363 513 390 372
          364 514 392 373 364 514
          392 373 365 515 394 374
          516 423 391 390 517 425
          393 392 517 425 393 392
          518 427 395 394 519 520
          205 204 521 522 207 206
          521 522 207 206 523 524
          209 208 525 519 204 280
          526 521 206 282 526 521
          206 282 527 523 208 284
          528 460 459 529 530 462
          461 531 530 462 461 531
          532 464 463 533 534 90
          535 536 537 93 538 539
          537 93 538 539 540 96
          541 542 546 525 280 460
          547 526 282 462 547 526
          282 462 548 527 284 464
          759 768 747 399 760 769
          749 401 760 769 749 401
          761 770 751 403 507 375
          376 496 508 377 378 498
          508 377 378 498 509 379
          380 500 483 486 549 550
          484 487 551 552 484 487
          551 552 485 488 553 554
          231 232 271 336 233 234
          274 337 233 234 274 337
          235 236 277 338 391 255
          128 223 393 256 131 225
          393 256 131 225 395 257
          134 227 525 546 555 556
          526 547 557 558 526 547
          557 558 527 548 559 560
          519 525 556 561 521 526
          558 562 521 526 558 562
          523 527 560 563 561 556
          564 565 562 558 566 567
          562 558 566 567 563 560
          568 569 570 571 572 573
          574 575 576 577 574 575
          576 577 578 579 580 581
          2 1 300 299 6 5
          304 303 6 5 304 303
          10 9 308 307 582 299
          298 330 583 303 302 332
          583 303 302 332 584 307
          306 334 585 363 271 270
          586 364 274 273 586 364
          274 273 587 365 277 276
          555 416 144 143 557 419
          148 147 557 419 148 147
          559 422 152 151 588 589
          237 267 590 591 240 268
          590 591 240 268 592 593
          243 269 396 594 495 387
          397 595 497 388 397 595
          497 388 398 596 499 389
          594 396 205 520 595 397
          207 522 595 397 207 522
          596 398 209 524 597 598
          430 429 599 600 433 432
          599 600 433 432 601 602
          436 435 603 246 248 604
          605 249 251 606 605 249
          251 606 607 252 254 608
          72 211 210 73 74 215
          214 75 74 215 214 75
          76 219 218 77 536 535
          609 543 539 538 610 544
          539 538 610 544 542 541
          611 545 612 561 565 613
          614 562 567 615 614 562
          567 615 616 563 569 617
          618 619 620 621 622 623
          624 625 622 623 624 625
          626 627 628 629 630 588
          267 247 631 590 268 250
          631 590 268 250 632 592
          269 253 633 634 573 572
          635 636 577 576 635 636
          577 576 637 638 581 580
          60 639 81 640 64 641
          85 642 64 641 85 642
          68 643 89 644 561 612
          520 519 562 614 522 521
          562 614 522 521 563 616
          524 523 510 231 336 318
          511 233 337 319 511 233
          337 319 512 235 338 320
          640 81 80 645 642 85
          84 646 642 85 84 646
          644 89 88 647 550 648
          477 483 552 649 478 484
          552 649 478 484 554 650
          479 485 630 247 246 651
          631 250 249 652 631 250
          249 652 632 253 252 653
          633 572 654 621 635 576
          655 625 635 576 655 625
          637 580 656 629 15 43
          166 439 19 45 169 441
          19 45 169 441 23 47
          172 443 660 639 661 651
          662 641 663 652 662 641
          663 652 664 643 665 653
          666 330 288 287 667 332
          292 291 667 332 292 291
          668 334 296 295 603 660
          651 246 605 662 652 249
          605 662 652 249 607 664
          653 252 571 570 516 669
          575 574 517 670 575 574
          517 670 579 578 518 671
          672 262 261 311 673 264
          263 314 673 264 263 314
          674 266 265 317 416 555
          546 675 419 557 547 676
          419 557 547 676 422 559
          548 677 570 573 678 657
          574 577 679 658 574 577
          679 658 578 581 680 659
          495 42 14 496 497 44
          18 498 497 44 18 498
          499 46 22 500 61 529
          459 62 65 531 461 66
          65 531 461 66 69 533
          463 70 13 507 496 14
          17 508 498 18 17 508
          498 18 21 509 500 22
          114 510 237 589 118 511
          240 591 118 511 240 591
          122 512 243 593 513 669
          516 390 514 670 517 392
          514 670 517 392 515 671
          518 394 594 681 42 495
          595 682 44 497 595 682
          44 497 596 683 46 499
          114 589 588 111 118 591
          590 115 118 591 590 115
          122 593 592 119 510 114
          113 231 511 118 117 233
          511 118 117 233 512 122
          121 235 681 594 520 612
          682 595 522 614 682 595
          522 614 683 596 524 616
          684 685 645 686 687 688
          646 689 687 688 646 689
          690 691 647 692 693 654
          572 571 694 655 576 575
          694 655 576 575 695 656
          580 579 675 546 460 528
          676 547 462 530 676 547
          462 530 677 548 464 532
          439 400 12 15 441 402
          16 19 441 402 16 19
          443 404 20 23 696 672
          648 697 698 673 649 699
          698 673 649 699 700 674
          650 701 702 618 621 654
          703 622 625 655 703 622
          625 655 704 626 629 656
          72 705 212 211 74 706
          216 215 74 706 216 215
          76 707 220 219 182 112
          136 465 186 116 138 466
          186 116 138 466 190 120
          140 467 708 686 645 80
          709 689 646 84 709 689
          646 84 710 692 647 88
          91 341 310 92 94 345
          313 95 94 345 313 95
          97 349 316 98 135 630
          651 661 137 631 652 663
          137 631 652 663 139 632
          653 665 666 287 325 711
          667 291 327 712 667 291
          327 712 668 295 329 713
          444 25 714 715 445 27
          716 717 445 27 716 717
          446 29 718 719 705 720
          366 212 706 721 368 216
          706 721 368 216 707 722
          370 220 331 504 715 714
          333 505 717 716 333 505
          717 716 335 506 719 718
          13 549 486 507 17 551
          487 508 17 551 487 508
          21 553 488 509 571 669
          513 693 575 670 514 694
          575 670 514 694 579 671
          515 695 102 405 685 99
          106 408 688 103 106 408
          688 103 110 411 691 107
          672 351 477 648 673 352
          478 649 673 352 478 649
          674 353 479 650 693 513
          363 585 694 514 364 586
          694 514 364 586 695 515
          365 587 285 714 25 24
          289 716 27 26 289 716
          27 26 293 718 29 28
          143 142 192 564 147 146
          194 566 147 146 194 566
          151 150 196 568 726 489
          763 771 727 491 765 772
          727 491 765 772 728 493
          767 773 534 536 715 504
          537 539 717 505 537 539
          717 505 540 542 719 506
          165 565 564 192 168 567
          566 194 168 567 566 194
          171 569 568 196 78 81
          639 660 82 85 641 662
          82 85 641 662 86 89
          643 664 136 135 661 63
          138 137 663 67 138 137
          663 67 140 139 665 71
          729 262 672 696 730 264
          673 698 730 264 673 698
          731 266 674 700 630 135
          111 588 631 137 115 590
          631 137 115 590 632 139
          119 592 702 585 270 501
          703 586 273 502 703 586
          273 502 704 587 276 503
          585 702 654 693 586 703
          655 694 586 703 655 694
          587 704 656 695 61 406
          528 529 65 409 530 531
          65 409 530 531 69 412
          532 533 414 732 101 100
          417 733 105 104 417 733
          105 104 420 734 109 108
          63 62 465 136 67 66
          466 138 67 66 466 138
          71 70 467 140 501 720
          618 702 502 721 622 703
          502 721 622 703 503 722
          626 704 720 501 358 366
          721 502 360 368 721 502
          360 368 722 503 362 370
          685 684 454 99 688 687
          456 103 688 687 456 103
          691 690 458 107 685 405
          640 645 688 408 642 646
          688 408 642 646 691 411
          644 647 30 141 469 31
          34 145 471 35 34 145
          471 35 38 149 473 39
          598 738 739 430 600 740
          741 433 600 740 741 433
          602 742 743 436 43 42
          681 167 45 44 682 170
          45 44 682 170 47 46
          683 173 678 711 325 723
          679 712 327 724 679 712
          327 724 680 713 329 725
          619 618 720 705 623 622
          721 706 623 622 721 706
          627 626 722 707 102 101
          528 406 106 105 530 409
          106 105 530 409 110 109
          532 412 549 13 12 739
          551 17 16 741 551 17
          16 741 553 21 20 743
          711 678 573 634 712 679
          577 636 712 679 577 636
          713 680 581 638 80 79
          258 708 84 83 259 709
          84 83 259 709 88 87
          260 710 738 598 696 697
          740 600 698 699 740 600
          698 699 742 602 700 701
          714 285 288 331 716 289
          292 333 716 289 292 333
          718 293 296 335 672 311
          310 351 673 314 313 352
          673 314 313 352 674 317
          316 353 430 739 12 431
          433 741 16 434 433 741
          16 434 436 743 20 437
          193 438 439 166 195 440
          441 169 195 440 441 169
          197 442 443 172 489 726
          33 32 491 727 37 36
          491 727 37 36 493 728
          41 40 444 715 536 543
          445 717 539 544 445 717
          539 544 446 719 542 545
          3 619 705 72 7 623
          706 74 7 623 706 74
          11 627 707 76 633 666
          711 634 635 667 712 636
          635 667 712 636 637 668
          713 638 384 534 504 297
          385 537 505 301 385 537
          505 301 386 540 506 305
          726 771 744 33 727 772
          745 37 727 772 745 37
          728 773 746 41 167 613
          565 165 170 615 567 168
          170 615 567 168 173 617
          569 171 675 732 414 416
          676 733 417 419 676 733
          417 419 677 734 420 422
          550 549 739 738 552 551
          741 740 552 551 741 740
          554 553 743 742 732 675
          528 101 733 676 530 105
          733 676 530 105 734 677
          532 109 63 661 639 60
          67 663 641 64 67 663
          641 64 71 665 643 68
          384 91 90 534 385 94
          93 537 385 94 93 537
          386 97 96 540 123 744
          438 193 124 745 440 195
          124 745 440 195 125 746
          442 197 406 61 60 407
          409 65 64 410 409 65
          64 410 412 69 68 413
          154 78 660 603 158 82
          662 605 158 82 662 605
          162 86 664 607 91 384
          342 341 94 385 346 345
          94 385 346 345 97 386
          350 349 405 407 60 640
          408 410 64 642 408 410
          64 642 411 413 68 644
          648 550 738 697 649 552
          740 699 649 552 740 699
          650 554 742 701 735 92
          310 309 736 95 313 312
          736 95 313 312 737 98
          316 315 633 582 330 666
          635 583 332 667 635 583
          332 667 637 584 334 668
          167 681 612 613 170 682
          614 615 170 682 614 615
          173 683 616 617 620 2
          299 582 624 6 303 583
          624 6 303 583 628 10
          307 584 582 633 621 620
          583 635 625 624 583 635
          625 624 584 637 629 628
          141 144 415 469 145 148
          418 471 145 148 418 471
          149 152 421 473 143 564
          556 555 147 566 558 557
          147 566 558 557 151 568
          560 559 2 620 619 3
          6 624 623 7 6 624
          623 7 10 628 627 11
          729 696 598 597 730 698
          600 599 730 698 600 599
          731 700 602 601 141 30
          123 142 145 34 124 146
          145 34 124 146 149 38
          125 150 154 603 604 155
          158 605 606 159 158 605
          606 159 162 607 608 163
          193 192 142 123 195 194
          146 124 195 194 146 124
          197 196 150 125
        </DataArray>
        <DataArray type="Int64" Name="offsets" format="ascii" RangeMin="8" RangeMax="3616">
          8 16 24 32 40 48
          56 64 72 80 88 96
          104 112 120 128 136 144
          152 160 168 176 184 192
          200 208 216 224 232 240
          248 256 264 272 280 288
          296 304 312 320 328 336
          344 352 360 368 376 384
          392 400 408 416 424 432
          440 448 456 464 472 480
          488 496 504 512 520 528
          536 544 552 560 568 576
          584 592 600 608 616 624
          632 640 648 656 664 672
          680 688 696 704 712 720
          728 736 744 752 760 768
          776 784 792 800 808 816
          824 832 840 848 856 864
          872 880 888 896 904 912
          920 928 936 944 952 960
          968 976 984 992 1000 1008
          1016 1024 1032 1040 1048 1056
          1064 1072 1080 1088 1096 1104
          1112 1120 1128 1136 1144 1152
          1160 1168 1176 1184 1192 1200
          1208 1216 1224 1232 1240 1248
          1256 1264 1272 1280 1288 1296
          1304 1312 1320 1328 1336 1344
          1352 1360 1368 1376 1384 1392
          1400 1408 1416 1424 1432 1440
          1448 1456 1464 1472 1480 1488
          1496 1504 1512 1520 1528 1536
          1544 1552 1560 1568 1576 1584
          1592 1600 1608 1616 1624 1632
          1640 1648 1656 1664 1672 1680
          1688 1696 1704 1712 1720 1728
          1736 1744 1752 1760 1768 1776
          1784 1792 1800 1808 1816 1824
          1832 1840 1848 1856 1864 1872
          1880 1888 1896 1904 1912 1920
          1928 1936 1944 1952 1960 1968
          1976 1984 1992 2000 2008 2016
          2024 2032 2040 2048 2056 2064
          2072 2080 2088 2096 2104 2112
          2120 2128 2136 2144 2152 2160
          2168 2176 2184 2192 2200 2208
          2216 2224 2232 2240 2248 2256
          2264 2272 2280 2288 2296 2304
          2312 2320 2328 2336 2344 2352
          2360 2368 2376 2384 2392 2400
          2408 2416 2424 2432 2440 2448
          2456 2464 2472 2480 2488 2496
          2504 2512 2520 2528 2536 2544
          2552 2560 2568 2576 2584 2592
          2600 2608 2616 2624 2632 2640
          2648 2656 2664 2672 2680 2688
          2696 2704 2712 2720 2728 2736
          2744 2752 2760 2768 2776 2784
          2792 2800 2808 2816 2824 2832
          2840 2848 2856 2864 2872 2880
          2888 2896 2904 2912 2920 2928
          2936 2944 2952 2960 2968 2976
          2984 2992 3000 3008 3016 3024
          3032 3040 3048 3056 3064 3072
          3080 3088 3096 3104 3112 3120
          3128 3136 3144 3152 3160 3168
          3176 3184 3192 3200 3208 3216
          3224 3232 3240 3248 3256 3264
          3272 3280 3288 3296 3304 3312
          3320 3328 3336 3344 3352 3360
          3368 3376 3384 3392 3400 3408
          3416 3424 3432 3440 3448 3456
          3464 3472 3480 3488 3496 3504
          3512 3520 3528 3536 3544 3552
          3560 3568 3576 3584 3592 3600
          3608 3616
        </DataArray>
        <DataArray type="UInt8" Name="types" format="ascii" RangeMin="12" RangeMax="12">
          12 12 12 12 12 12
          12 12 12 12 12 12
          12 12 12 12 12 12
          12 12 12 12 12 12
          12 12 12 12 12 12
          12 12 12 12 12 12
          12 12 12 12 12 12
          12 12 12 12 12 12
          12 12 12 12 12 12
          12 12 12 12 12 12
          12 12 12 12 12 12
          12 12 12 12 12 12
          12 12 12 12 12 12
          12 12 12 12 12 12
          12 12 12 12 12 12
          12 12 12 12 12 12
          12 12 12 12 12 12
          12 12 12 12 12 12
          12 12 12 12 12 12
          12 12 12 12 12 12
          12 12 12 12 12 12
          12 12 12 12 12 12
          12 12 12 12 12 12
          12 12 12 12 12 12
          12 12 12 12 12 12
          12 12 12 12 12 12
          12 12 12 12 12 12
          12 12 12 12 12 12
          12 12 12 12 12 12
          12 12 12 12 12 12
          12 12 12 12 12 12
          12 12 12 12 12 12
          12 12 12 12 12 12
          12 12 12 12 12 12
          12 12 12 12 12 12
          12 12 12 12 12 12
          12 12 12 12 12 12
          12 12 12 12 12 12
          12 12 12 12 12 12
          12 12 12 12 12 12
          12 12 12 12 12 12
          12 12 12 12 12 12
          12 12 12 12 12 12
          12 12 12 12 12 12
          12 12 12 12 12 12
          12 12 12 12 12 12
          12 12 12 12 12 12
          12 12 12 12 12 12
          12 12 12 12 12 12
          12 12 12 12 12 12
          12 12 12 12 12 12
          12 12 12 12 12 12
          12 12 12 12 12 12
          12 12 12 12 12 12
          12 12 12 12 12 12
          12 12 12 12 12 12
          12 12 12 12 12 12
          12 12 12 12 12 12
          12 12 12 12 12 12
          12 12 12 12 12 12
          12 12 12 12 12 12
          12 12 12 12 12 12
          12 12 12 12 12 12
          12 12 12 12 12 12
          12 12 12 12 12 12
          12 12 12 12 12 12
          12 12 12 12 12 12
          12 12 12 12 12 12
          12 12 12 12 12 12
          12 12 12 12 12 12
          12 12 12 12 12 12
          12 12 12 12 12 12
          12 12 12 12 12 12
          12 12 12 12 12 12
          12 12 12 12 12 12
          12 12
        </DataArray>
      </Cells>
    </Piece>
  </UnstructuredGrid>
</VTKFile>
