<?xml version="1.0"?>
<VTKFile type="UnstructuredGrid" version="0.1" byte_order="LittleEndian" header_type="UInt32" compressor="vtkZLibDataCompressor">
  <UnstructuredGrid>
    <Piece NumberOfPoints="756" NumberOfCells="468">
      <PointData>
        <DataArray type="Int32" Name="libmesh_node_id" format="ascii" RangeMin="120" RangeMax="2168">
          120 121 122 123 124 125
          126 127 128 129 130 131
          132 133 134 135 136 137
          138 139 140 141 142 143
          144 145 146 147 148 149
          150 151 152 153 154 155
          156 157 158 159 160 161
          162 163 164 165 166 167
          168 169 170 171 172 173
          174 175 176 177 178 179
          240 241 242 243 244 245
          246 247 248 249 250 251
          252 253 254 255 256 257
          258 259 260 261 262 263
          264 265 266 267 268 269
          330 331 332 333 334 335
          336 337 338 339 340 341
          342 343 344 345 346 347
          348 349 350 351 352 353
          354 355 356 357 358 359
          420 421 422 423 424 425
          426 427 428 429 430 431
          432 433 434 435 436 437
          438 439 440 441 442 443
          444 445 446 447 448 449
          510 511 512 513 514 515
          516 517 518 519 520 521
          522 523 524 525 526 527
          528 529 530 531 532 533
          534 535 536 537 538 539
          600 601 602 603 604 605
          606 607 608 609 610 611
          612 613 614 615 616 617
          618 619 620 621 622 623
          624 625 626 627 628 629
          690 691 692 693 694 695
          696 697 698 699 700 701
          702 703 704 705 706 707
          708 709 710 711 712 713
          714 715 716 717 718 719
          780 781 782 783 784 785
          786 787 788 789 790 791
          792 793 794 795 796 797
          798 799 800 801 802 803
          804 805 806 807 808 809
          876 877 878 879 880 881
          882 883 884 885 886 887
          888 889 890 891 892 893
          894 895 896 897 898 899
          900 901 902 903 904 905
          906 907 908 909 910 911
          912 913 914 915 916 917
          918 919 920 921 922 923
          924 925 926 927 928 929
          930 931 932 933 934 935
          936 937 938 939 940 941
          942 943 944 945 946 947
          948 949 950 951 952 953
          954 955 956 957 958 959
          960 961 962 963 964 965
          966 967 968 969 970 971
          972 973 974 975 976 977
          978 979 980 981 982 983
          984 985 986 987 988 989
          990 991 992 993 994 995
          996 997 998 999 1000 1001
          1002 1003 1004 1005 1006 1007
          1008 1009 1010 1011 1012 1013
          1014 1015 1016 1017 1018 1019
          1020 1021 1022 1023 1024 1025
          1026 1027 1028 1029 1030 1031
          1032 1033 1034 1035 1036 1037
          1038 1039 1040 1041 1042 1043
          1044 1045 1046 1047 1048 1049
          1050 1051 1052 1053 1054 1055
          1056 1057 1058 1059 1060 1061
          1062 1063 1064 1065 1066 1067
          1068 1069 1070 1071 1072 1073
          1074 1075 1076 1077 1078 1079
          1080 1081 1082 1083 1084 1085
          1086 1087 1088 1089 1090 1091
          1092 1093 1094 1095 1096 1097
          1098 1099 1100 1101 1102 1103
          1104 1105 1106 1107 1108 1109
          1110 1111 1112 1113 1114 1115
          1116 1117 1118 1119 1120 1121
          1122 1123 1124 1125 1126 1127
          1128 1129 1130 1131 1132 1133
          1134 1135 1136 1137 1138 1139
          1140 1141 1142 1143 1144 1145
          1146 1147 1148 1149 1150 1151
          1152 1153 1154 1155 1156 1157
          1158 1159 1160 1161 1162 1163
          1164 1165 1166 1167 1168 1169
          1170 1171 1172 1173 1174 1175
          1176 1177 1178 1179 1180 1181
          1182 1183 1184 1185 1186 1187
          1188 1189 1190 1191 1192 1193
          1194 1195 1196 1197 1198 1199
          1200 1201 1202 1203 1204 1205
          1206 1207 1208 1209 1210 1211
          1212 1213 1214 1215 1216 1217
          1218 1219 1220 1221 1222 1223
          1224 1225 1226 1227 1228 1229
          1230 1231 1232 1233 1234 1235
          1236 1237 1238 1239 1240 1241
          1242 1243 1244 1245 1246 1247
          1248 1249 1250 1251 1252 1253
          1254 1255 1256 1257 1258 1259
          1260 1261 1262 1263 1264 1265
          1266 1267 1268 1269 1270 1271
          1893 1894 1895 1896 1897 1898
          1920 1921 1922 1923 1924 1925
          1947 1948 1949 1974 1975 1976
          2001 2002 2003 2028 2029 2030
          2055 2056 2057 2112 2113 2114
          2115 2116 2117 2124 2125 2126
          2127 2128 2129 2130 2131 2132
          2133 2134 2135 2148 2149 2150
          2151 2152 2153 2164 2166 2168
          1926 1899 1927 1900 1928 1901
          1950 1951 1952 1953 1954 1955
          1977 1978 1979 2004 2005 2006
          2031 2032 2033 2058 2059 2060
          2142 2144 2146 2163 2143 2096
          2165 2145 2100 2167 2147 2104
        </DataArray>
        <DataArray type="Float64" Name="resid_x" format="ascii" RangeMin="-20.04006580882242" RangeMax="0.2552904759954764">
          0.000022474662865867856 -8.27376167162069 0.009919717086088298 -16.56612950311713 0.015095676205064024 -8.332525073912077
          0.0703602911841461 -8.255338223425971 0.11703375681301686 -16.597026128731557 0.06305447077934101 -8.47476920221268
          0.0015622399856294322 -8.207628649911584 -0.03928229311103415 -16.63926738008648 -0.04701962304122986 -8.75426419822275
          -0.02865574560182882 -8.477754342702198 -0.06019108256177397 -17.22745425124662 -0.03083069137359562 -9.263500251069114
          -0.00005167985312937162 -8.794504902470557 -0.00009818693140406509 -17.76612825576478 -0.0024752832698231586 -9.59289767170379
          0.0002696665319525948 -9.040678866372911 0.0006324125217656018 -18.154614542488076 -0.0018923155891590326 -9.705001054132047
          0.0007491916256734399 -9.260233571025777 0.001348980939806843 -18.52037282104857 -0.0006606184947992588 -9.615199780337434
          0.0008188632106795879 -9.549115585689623 0.0015304307221235547 -19.006689231978 0.0018550454193473342 -9.327447081340601
          0.0013606153053062897 -10.111002753697939 0.0022989240761113194 -20.04006580882242 0.00849637494060751 -8.84058871777595
          0.004913917505455945 -6.2970712879994455 0.008337073114429161 -12.418381623263327 0.016385193517964025 -4.813897431013975
          0.07894245893551677 0.2552904759954764 0.17015394766245517 0.12041728839579857 0.1731305382214936 0.01301248079230266
          -0.06365688021326932 -0.13591144552192969 -0.07940042916847467 -0.030553493690084643 -0.042458711946176564 -0.015909082107490313
          0.0006839212039322362 0.0007218780951037118 -0.004587862636881823 0.001534492840403523 0.0021338241485162612 -0.0035084598610382045
          0.0025857816669301315 0.003517484269278448 -0.000993903128079232 0.0030459601348375998 0.0042086456257939275 0.004108534388153728
          0.0034247673158835923 0.004300411420334882 0.017089129021021332 0.004437367227644318 0.006692954487981906 0.029359353272296773
          0.17750698692903866 0.20088816066341675 0.0029012411030473473 -0.022295063061943843 -0.07887166028004078 -0.06039714956174791
          -0.0795179688062051 -0.1384664260434203 -0.056383674003408046 -0.007373228665689346 -0.010030299776543572 -0.007522837720272513
          0.00030566183196967245 0.00014839232642405165 -0.006341368359985111 0.0010212206739135254 0.0013512572090084163 -0.00473183105926811
          0.0018211412620328105 0.0025459542053276607 -0.0008294753286630652 0.0023524845155709073 0.003084722484818947 0.0063201642170098715
          0.0037388706300882646 0.006140141945255806 0.023500569673287508 0.004253398449626619 0.011376356346909769 0.04010558735367857
          0.011227809006926659 -0.02584848260367245 -0.04284871702694648 -0.08321764905354812 -0.1663286686200678 -0.0799986745718142
          -0.02732784301132707 -0.03868062559703933 -0.015613980471463229 0.0002329014707225241 0.00003071052402781049 -0.007397880295886061
          0.0003888838016656848 0.0003368859466155172 -0.007533331282614242 0.0008879456898718274 0.0012170302881742145 -0.005315592186824425
          0.0014422663042887862 0.0021913939931721416 -0.00017133465681506976 0.0018678384064898523 0.0026191668626900366 0.00876031155548418
          0.0036313556877889397 0.006172299923198565 0.026717409577253104 0.009166611586949092 0.01847498739462128 0.039503265131837884
          -0.08264422734247745 -0.1575202728624303 -0.07813307250256862 -0.0820332185135415 -0.12008321792842924 -0.03852231697012165
          -0.0045702840479036055 -0.004354955507592351 -0.007548665395037624 0.00024752396617166994 0.00011749469007860114 -0.008640076135503882
          0.00041429102090262404 0.00039256597088765943 -0.008256732201292749 0.0006656976437202644 0.0009053862586068107 -0.005324796544830868
          0.0010242559041602206 0.0016177681674101052 0.0008618198928997955 0.001493270321904383 0.0022543451893231037 0.010997220923377071
          0.002208367740221817 0.0033284883897986006 0.027750500171253023 0.00835928870173186 0.011345087726874592 0.033240041772746975
          -0.1366641906103756 -0.22267372496943771 -0.08289624922020167 -0.01646544820825291 -0.02199094126347756 -0.012438884134858164
          -0.000018524533419217448 -0.00020078295239400745 -0.008961973331341078 0.0001766682897583749 0.00004906023723982855 -0.009535193006953158
          0.0003638175880862349 0.0002728663054876179 -0.00845512038029117 0.0005002067982751157 0.0005704374166883852 -0.004773288833982647
          0.0007676671540002289 0.0011505497746391313 0.0023217228167515813 0.0012479394483735362 0.0020342530550374605 0.013106479293470308
          0.0007731467263720759 0.0014707427226312575 0.028033521182691423 0.005230797631241235 0.004615866459612206 0.02833640308829022
          -0.03728096738485753 -0.05069161990643334 -0.015800849557906282 0.00016373279661863194 0.000019838551232886914 -0.008811765275563488
          -0.00027504885039864035 -0.0004908957618461329 -0.009979045124329566 -0.00004160384763718383 -0.00026049420146101454 -0.009859550833335007
          0.00021540462052005438 -0.00003464918821194374 -0.008065288083027422 0.0004028284010741956 0.0002514131825313015 -0.0037586562475295793
          0.0007771846351021239 0.0010800486144333377 0.004014160136347478 0.0012601445097608632 0.002252053100201934 0.014933141591129129
          0.0021362442628447553 0.004260705518857044 0.028814595693533285 0.0024561020124650446 -0.0017325948889106435 0.020469580360008233
          0.00316327405591732 0.006218549269210172 -0.005316451294779867 0.0032553752782185086 0.006755516450954957 -0.005975470471115685
          0.0002894896707159589 0.0008420456289783829 -0.009542506278940266 -0.0003649408021049183 -0.0008506106906258637 -0.009843125290579735
          -0.00006077656926262165 -0.0005705868457184238 -0.007439299664139476 0.0002832926695859328 -0.00002766307231993892 -0.002492220414584967
          0.0008252846498537636 0.0011453884980712203 0.005904253924408742 0.0016207727420445295 0.0033298204809799614 0.01770241138547135
          0.0029537608153464845 0.006712931337450989 0.029568224716786773 0.005289681402656843 0.012081724128898408 0.02326010743122353
          0.0007711847799143356 0.0001193297386645753 -0.006852390602054559 0.0012520077924058626 0.0011415763578099813 -0.0036561850698326737
          0.0009146306990897024 0.00018350396035415883 -0.0003661505861325409 0.0004741531637693086 -0.0001828840634345852 0.00467124442335054
          -0.0003738962277681779 -0.0012942139067888547 0.011605690324148377 -0.0009526312133871784 -0.00299530376592827 0.021836427758420207
          0.00012113182891759777 -0.0015590051613081357 0.03531331144233629 0.0006552991074415537 0.0007323805133587769 0.02557941182557144
          -0.002492226151384471 0.00007058019569572416 -0.001682700658186348 -0.004094145413849004 -0.004617879387455628 0.023720144352015526
          -0.0018443941000125252 -0.008453397552970143 -0.0013059446902364477 -0.0005290882411990716 -0.0027658316700157892 -0.0030177432333763354
          -0.0019017730356262474 -0.003281648827684788 -0.004177392082258202 -0.006657582402920692 -0.0030890036749542105 -0.0035096384494068614
          -0.003575987660250926 -0.0017568121530770718 -0.0028821152362835806 -0.006785638799611846 -0.003586166319306313 -0.006348029097401439
          -0.0016323336513287545 -0.0014085526368334926 -0.003816973399435958 0.0001513508945276687 0.003630642566814335 -0.006627905660965716
          0.0011538241130776283 0.00019030615203097234 0.007004152692064558 -0.007901945245632369 0.00394224153161804 0.009100722793866312
          0.019484013260773758 0.006897824095139171 0.007320418046540433 0.05795687803857508 -0.010761893577848736 -0.010030800091531455
          -0.012755002201014165 0.057916038904373246 -0.035725705755414006 -0.03237959837226423 -0.015480088945951808 0.006376564339366064
          0.0006052781170359234 0.012158501743097627 0.003149161157121161 0.0005651743395043152 -0.001525369310367175 -0.0009453313516764039
          -0.0021626284093356762 -0.006965056000636682 0.00011410839622083557 0.0006387953864530616 -0.005721558638261959 0.008682558077131697
          0.011472099022411086 0.015894136560885896 0.011988014672806191 0.0009967487738244962 0.003564142250657487 0.0007744816430754753
          -0.0012080477148753155 -0.014719096291700484 0.001647393022837007 0.0009769477269684912 -0.006439019478856389 -0.0036060590778143053
          0.0071023378421427585 0.011896657748508177 0.005634148149442519 -0.003039785786239424 -0.00003483611035459688 -0.006599339294347528
          0.0024870068248057375 -0.001521249660969115 0.01215109084274868 0.003703751202419725 -0.005945280044799106 0.007158961709384459
          -0.0023513152605368903 0.00848439175767024 0.023871838431795966 -0.0035014266510397588 -0.0009239840398812781 0.001012591574822766
          -0.0015577683178434887 -0.010262820503517178 -0.0025006202626319737 0.0007095557787904147 -0.0097868006353716 -0.010777623805989095
          -0.0017024692582126716 -0.0008884174998932542 -0.022357335913623044 0.0007715629379653199 0.0034766524673710553 0.0006662785684440342
          -1.7556733816308256 0.0018640068423039224 0.006573402432600739 0.0010497000524338773 -3.3593156171888876 0.002296722536455298
          0.008391583220993204 0.004191160899314927 -1.2327403049911831 0.004755614517497175 -0.0074987434789017815 0.012554421525780901
          -0.0015285048925333111 0.01885643762356115 0.02295375236927938 -0.0011285010682902108 0.0021255099818204837 -0.0019713991912226336
          -0.005467499913271112 -0.0037453216050292726 0.002415816745834909 0.00017327379077136662 -0.011353885515620332 -0.0004322332356141434
          0.0015849080377012825 0.0012203108109180016 -0.004853339588242189 0.0027527916435605704 -0.013551653473415803 0.024538673924520665
          0.03214144611281006 0.0012989991164762404 -0.03279236247876527 0.034228827754659685 0.04597421255358941 -0.0024183761652455393
          -0.01721464670554429 0.019073198964255966 0.031499965186335854 0.00023226337899287693 -0.00024649744510944066 -0.002732862155065005
          -0.0009062749064578657 0.0002586959277654788 -0.000030680937586909096 -0.0059794938175256745 -0.00199722161825458 -0.0005663181001409334
          0.0016069324241217292 -0.0029832865521232654 -0.0010852805558526982 -0.00625586842980308 0.012692570989107699 0.0014853951510587216
          -0.005425589573151091 0.005568510040135699 0.0032531745100200515 0.002311688869687023 0.0073004977074258015 0.021157811243632807
          -0.006787739648089708 -0.008412481585013287 -0.025855473966092446 -0.03498662457309493 -0.009004377056515578 -0.004172784493705312
          -0.023155616995309103 -0.004460493267912424 -0.0034363277450630836 0.00022442515634035765 -0.008431071081394348 -0.0082551701629755
          0.0004698080695311191 -0.003597550940556693 -0.0004260072550378302 0.013827679326132547 -0.0076397928054106334 -0.008230564088738568
          -0.006549152605312233 -0.025317583945714484 -0.005802253802552518 -0.017041325085183967 0.05177068053502546 -0.013078900773379754
          0.02334026760183089 0.033962983257953994 0.06629130888358338 -1.2467435459983016 0.0020024538403988767 -1.5482855180986075
          -2.5196522987068013 0.004691216467285653 -2.9629085471673666 -0.988371488137548 0.004954511297587949 -1.140830450284951
          -0.005800918300262345 0.006383126356089508 -0.009572343990341485 0.01356613281217034 0.007222664636385492 0.020677709243985598
          0.0019689197423163607 -0.00728956109279022 -0.00004761931841601452 -0.015982778214555404 0.0026039619017736992 -0.0038920616496574967
          0.0047303781097481346 0.0006251935946714488 0.0008285614795483232 -0.0037324258297573853 -0.00041075144400770647 0.005414157742643727
          -1.3502295605240706 0.0016046492999667317 0.0019474954919865908 -1.6101635123206686 -2.6285584370999326 0.002000744412658184
          0.004672892089411469 -3.1208622837398172 -1.2463462963108847 0.002008623172526036 0.005067157792285754 -1.3707792216703387
          0.015034088711807891 0.008354514672775704 -0.0038520018336110073 -0.0008893644347237606 -0.015058978048629656 0.046192620934528916
          -0.002831623641510239 -0.017742258404714217 0.04205433902611433 0.000357596607273844 -0.003444408398995069 0.0001228580679891178
          -0.0063627704074635805 0.002665029084406856 -0.0018487398298816515 0.010999928784301005 0.01412649169508895 0.012899715879013507
          0.01636671448592164 0.021517865390557223 0.017458910534534633 0.010221645569352346 -0.00023181373112368675 -0.019340690257124708
          -0.00626890955256415 -0.008504190052632483 0.009174218509938492 -0.00010695694395890243 0.00016436062321500966 -0.005478825129188847
          -0.0014619397499118225 0.00160189009306122 0.004886866242273635 -0.000005935399325335267 -0.0035490256356901125 -0.0005448590789304403
          -0.00032889327911127947 -0.006869445768093133 -0.0011820599233817522 -0.00016964025779174496 -0.0031325725344843753 -0.0005188989672201896
          0.00007931478698730565 -0.0015174366701443953 -0.004781752248715243 0.0008592601015655621 -0.003855819797266402 -0.010723228048810762
          0.006070039142638262 0.002163756244415893 0.0009549571795635092 -0.0012618332216142725 -0.0008103233115606123 -1.35073198298047
          -0.001423889830887426 -0.001471980157274011 -2.6241549401786686 0.0008557993455072799 0.0015126745257348362 -1.073764964086386
          -1.2615126784403747 -2.505492964088177 -1.1705090176534108 -0.000047177219096649486 -0.0005809495544581988 -0.004369525367092536
          -0.0020252040049168873 -0.000291581150689349 -0.001388641784968364 -0.008892407674596009 -0.004110102344404934 -0.00016131295117127395
          -0.0006184140444388947 -0.004582610162571998 -0.0020727306553234483 0.0015426521913524116 0.00744668702037532 0.0009548948902817767
          0.01160113646688607 0.004961582852566426 0.011610379238641833 -0.002582769196188106 -0.0021036799612908913 -0.005077053462965782
          -0.0041978509024617194 -0.0023454243331991753 -0.001956294070973398 0.005263828646995261 0.00030615367784342373 0.010787262189958291
          0.004516910154188092 0.009638787186341147 0.015556922189097613 0.026410741241599478 -0.030984491775351897 0.05591730971539599
          -0.041488124599601495 0.050542567518345294 0.014208043076639365 -0.0029841557286081066 -0.0056937044667321884 -0.0027094147188988227
          -0.002506714167656021 -0.005477463481146527 0.002089686336762542 -0.0415539577471975 0.013885019798232312 -0.0587391946952841
          0.014219091885732005 0.015023142925680855 0.014144061345606529 -0.0027941857380496815 -0.0061736504908239676 0.0010467336503374725
          -0.011428012415235667 0.003148830999660013 0.020370722230509772 -0.0016970691699111223 -0.003378974922807379 -0.0013656919603842951
          -0.0014850772213788055 -0.005241133733392633 -0.0011643584352751812 -0.003260814716967708 -0.007563064666577413 -0.004032825300978704
          -0.0012297999152734041 -0.004417890213810449 0.0006600964936625819 0.022539127485992072 0.04559352328910826 0.03355031392427277
          -1.264838771046914 -2.3861747824411688 -1.0390875016751104 -1.6473741826507176 -3.1840793850591655 -1.1470271385755564
          -0.005640958832572457 -0.010901159646393613 -0.0052535141652736705 -0.0019632993264155256 -0.004000615294015353 -0.0019729494616388676
          0.00202164726935683 0.0015515059753976601 0.002433618899217116 -0.0004343051093833594 -0.0009701111461000167 0.0028526394970027624
          0.0015072462752527827 0.0006235574665671706 0.006418543589963299 -0.000641391372238509 -0.0013046601938677682 0.0065636234244568215
          0.002034047115871296 0.0021105500301628055 0.01157076050168282 0.001713223795827723 0.002848394376230523 0.016869458568540274
          0.0015073780536374315 0.004503340198470873 0.022347953626541184 -0.0005399421046616837 0.003159978783877193 0.026392542703392863
          -0.007397295016929872 -0.01209395061186469 0.01154661298426407 -0.0037892456731296598 -0.0011230952333291522 -0.0065018200809827675
          -0.0018542870555064428 0.0005602906090613757 0.0030077648146694114 0.001249832895740155 -0.01997877965323802 0.007059722229268539
          -0.0008764185745107067 0.0010225463829395542 -0.03708134327348267 0.011375064418180925 -0.0017099687374881878 0.00009096532657229539
          -0.015193439788767638 0.0037860372249267638 0.00041306996965984055 -0.002426415721174635 -0.004315197841454066 -0.0033084033009518343
          -0.003129004255934653 -0.004946347510266902 0.00037715581573638524 -0.017254957393457504 -0.0339382689027839 -0.017688513980883835
          0.0005081162184250587 -0.00046066760977847565 0.00041840258670333697 -0.0012155699252556218 0.007830262369438401 0.004082861346114797
          0.0009916760172750116 0.0028056531635165527 0.012314743777920967 0.0011076495477100323 0.0018530919917871813 0.01099378211766755
          0.0027231874562136937 0.004733576310695042 0.015794781692864746 0.0025797704798584675 0.004457138434901253 0.017586217153851003
          -0.001595508041697613 -0.004403060744053278 0.012975530186920992 -0.005736758384728091 -0.011995123979701816 0.0014918130945336117
          -0.009842233545313661 -0.014487922689966126 -0.004767837663330887 -0.01327876664094818 -0.0089057017640779 -0.003594592069067648
          -0.024936601475500808 -0.015994890684634555 -0.007881099743299202 -0.01362794680471735 -0.010340610159131014 -0.0057576265442844665
        </DataArray>
        <DataArray type="Float64" Name="resid_y" format="ascii" RangeMin="-0.06403433844569816" RangeMax="0.05737552819311764">
          0.00003814430319059106 0.000008454459070317971 -0.0020762445687478696 -0.00005628063926427056 -0.0048313181464497215 -0.00007711191144809358
          -0.022770442130719402 -0.007357084678557559 -0.04602037675080583 -0.01950808804816502 -0.022369717261974405 -0.01306376492533072
          -0.0018538400406142783 -0.005710689462161925 0.005244402498982087 -0.004635018990664375 0.006834595986289799 0.0009383878131476731
          0.01784523333877369 0.00900051163803417 0.028509797041405216 0.014525972495859518 0.00967382729424493 0.005096129538855687
          0.0012782818170594679 0.0003288939244383837 0.0027482670560966815 0.0004825717081962111 -0.0002508057542461861 -0.0007679503150118672
          0.00140008160244115 0.0002762547260045656 0.0031872642971674248 0.0003955494476683974 -0.00152465930247353 -0.001659984590010044
          0.0011976086621620086 0.00005345606902279476 0.002846458111126493 -0.0001558995751272385 -0.003521455079391167 -0.002929654386747471
          0.0010808682861127572 -0.00006760753947848697 0.0025827807046551743 -0.00027095804496668485 -0.005911998592819878 -0.004086927638299487
          0.000859207057867295 -0.0005900527151773138 0.0025827865778328962 -0.000866183456879277 -0.01113177847709107 -0.007310088744407028
          0.0003507440090270153 -0.0015238796311713987 0.0027758367048917876 -0.002481188222479891 -0.011429438631941624 -0.0069889152634950436
          -0.014998592080414944 -0.02409453471280789 -0.007451330074528362 -0.02146314089113295 -0.02778369545516743 -0.006623835503241873
          0.017368078342308177 0.032507683877753275 0.013615791708147973 0.011564697372053807 0.016154937422868165 0.003791220588403338
          0.0003615951605547285 0.0013602641529742443 -0.0007379761554410225 0.0002149898256361138 0.0013279896641622546 -0.00207756963763156
          -0.00016578866592337205 0.0007298038797970974 -0.004071493188433195 -0.0005878852508962584 -0.00009849822017760079 -0.00663428548298306
          -0.0010949392300764749 -0.0012235046505678082 -0.010065091010797556 0.0018258785613485956 0.004916364526086459 -0.00644589735469106
          -0.019347896916546814 -0.01993606741024473 0.00019006641155638881 0.009434883008101191 0.021788712785321768 0.01043159667266691
          0.024474981846472912 0.039470091334682406 0.012491130303324396 0.0028892112073966155 0.004321576823323758 0.000557633126287288
          0.0006037540160425958 0.001909722821829718 -0.00020617696254465745 0.000645018404727693 0.002190662112941194 -0.001196004539916029
          0.0004534314364784686 0.001927696000506518 -0.0028279478723321483 0.000035267842159569796 0.0012421183822708404 -0.004913734161912597
          0.0011842557123295794 0.003140341655262252 -0.005879321980791108 0.005606612864854699 0.011522120827439475 -0.0031369887096606153
          0.007472204729623233 0.015521845490363478 0.0071791137555750895 0.02693219676652453 0.04609109737684885 0.015569798366843343
          0.011313631213253475 0.015031923635052683 0.0031882943564518137 0.0002788531346018669 0.0011487588732124396 0.0003238443166964228
          0.00037494932215360877 0.0014810826557076148 -0.00001755869597552806 0.0004833218415709606 0.0018270356486368156 -0.0007635110037333692
          0.00039318875052735125 0.0017385981564594921 -0.0020969641735479605 0.0004201643360606244 0.0018832313173700044 -0.003367776433679165
          0.002019080408517282 0.004365232255273271 -0.0033317690428451285 0.005292681817676503 0.009197099136663112 -0.0010594129469818636
          0.023650909776198686 0.03960046693869587 0.013616665775174008 0.025330525959365857 0.037138694538228045 0.009381594735147054
          0.0018037200241267648 0.002201941790888645 0.00037439823528359964 0.0001166887839949976 0.0008564085946107525 0.0003941741086888051
          0.00022273241315351466 0.0011291036818931559 0.00021115209460519785 0.00046415723120765695 0.001646233232220129 -0.000300206535780001
          0.0006194891042488604 0.0020178244760656883 -0.0012281095315375412 0.001012498941717177 0.00271527092400764 -0.0018487031386383024
          0.002786380687353762 0.0066577838682877755 -0.00006947874393341269 0.0011984600405648138 0.00571743021488999 0.0006726935754308716
          0.028072560016200065 0.04318366918151301 0.012159788853172593 0.0059890180582401475 0.008319251490957968 0.001828688892946996
          0.000012915694267631728 0.0005661755831342097 0.00043128298565669326 -0.000073958832507417 0.0004897313457734656 0.0004978138416929928
          0.00006668089515506764 0.0007493047891064626 0.0003923873336917627 0.00045545950037692573 0.0014597611908051256 0.000042606313314354216
          0.000980034490232068 0.002460992943445872 -0.0004712403286630529 0.0014151663738125042 0.0032759841844384047 -0.0008269180156496025
          0.0036022331164825006 0.00759548604576242 0.002228424443378757 0.005291160061714928 0.00944869983388813 0.004693139036466565
          0.008434224912209076 0.011807503950458487 0.00226573540746261 -0.00006806177501909871 0.00039182787214213366 0.0004202542603454623
          -0.00023933426737656957 0.00018132067814864705 0.0005666129442912643 -0.00029925970129765327 0.00006358390552196544 0.0006149138855140873
          -0.000137636992505831 0.0002948928250026319 0.00047208633963743973 0.00037039611645042075 0.0011378384630984228 0.00015205804959901592
          0.0013176869275355885 0.0028298966543875773 -0.000046916331809900014 0.00207155742918258 0.004229469826585133 -0.0003649075489550735
          0.004255194479122926 0.008750558490717916 0.002800095471926986 0.007921765658226165 0.014790969421496603 0.008233432818179565
          -0.0008599564615430211 -0.0013905856379181625 -0.0004044020627290146 -0.0016048234722355614 -0.002741291507354804 -0.0006694568436391712
          -0.000994547854218042 -0.001517930650013266 0.00023660402008240933 -0.0005451970900027699 -0.0005379771360996058 0.0007430939705117545
          -0.0003516121970637033 -0.00025833298823615264 0.00047227364927886206 0.00018641861890433993 0.0007041529333828497 0.000013384245158773456
          0.0014056094415018164 0.0029296544218815473 -0.0002491296105178453 0.00327842706978829 0.0062482317349006125 -0.00014499279320819014
          0.002215111112761209 0.005573709242384733 0.00033973249819985174 -0.009808490108335843 -0.013049839252211426 -0.004522421908182417
          -0.000473553123017334 -0.0010321186043480424 -0.0021710175712357227 -0.0006040482368501188 -0.0011507603760616547 -0.0024797302455423775
          -0.0006245922628885237 -0.000524643613630249 -0.0024671466162710654 -0.0006525781942391118 -0.0006476229203110639 -0.002280013965327038
          -0.00027368508132286085 0.000012958875557259053 -0.0010672285817308336 0.001452588901934726 0.003120517684029489 0.00243014935056296
          0.00517047989892605 0.010731831594518515 0.009755881756986717 0.004560600862451913 0.009157161054562879 0.009516025757368096
          -0.0006318387757108545 0.00048596733960577787 0.0004959787074804434 -0.0005150057957913623 -0.0001796243585800994 -0.0019660265060673365
          0.0010991592319856691 -0.00027484622992311747 -0.000025510813568857538 -0.004770841619726282 0.0008000601101011418 0.00006567336102696053
          0.0004532766452961662 0.0000749798151466162 0.000547777732106125 0.00020639627594446625 -0.00041479594648288765 0.00019024526433473327
          0.0005258944901078196 0.00004484858433387827 -0.00003114742789130445 0.0013522839177989715 -0.00006348019469512578 -0.00038305421184386956
          0.002533461335225591 -0.0002636955717849887 -0.000520120860377421 -0.0007172765558609573 -0.001215508337984228 0.01136740090101454
          -0.004658972881118495 -0.001031808885193941 -0.0009502777733069179 0.020575525326358896 -0.007906579047021689 -0.0026728289676478667
          -0.002580442427161711 0.006302138826946857 -0.0056210349082230215 0.04161136610469929 -0.028121050445153173 0.009251347943303533
          0.012389356395403672 0.05737552819311764 -0.02748951432040514 0.007277523288811719 0.019521063163105562 -0.008713059496021858
          -0.012268474275023922 0.010665857182301397 0.0029058873205376756 0.004465964434156977 0.0009023907815215448 0.0026733694730964874
          -0.0014072280729614944 0.006655231419158358 -0.008348772734894094 0.00870634548271898 0.0006061247009658821 0.0006399013128404463
          0.0004921056855511918 0.004208825161961416 0.002851028124047611 -0.00027341891798432494 0.000420004229393256 0.00057600263416685
          -0.0016398741252205973 -0.0032259485510963137 0.0025861522713043206 0.00317367468786256 -0.003580560628506868 -0.0011070278976254566
          0.0014651256234164967 0.003353462907279399 0.0008742963086360023 -0.004639971190398273 0.01386774676102423 -0.012326483890345324
          0.021807375252762273 -0.006919636127567214 0.00659258181713418 -0.0009410880237959163 0.0018600874118817057 0.0023286204354845547
          0.009278210202636833 -0.00027952243194191706 0.008802403729188682 -0.002303871073250722 -0.0007582960138015765 0.0019313629501001572
          0.0013973268000478378 -0.00819502179229202 -0.0015953396747471205 0.001725466986246607 0.0026764362002758557 -0.01868059960420082
          -0.0009218169612838778 -0.0011439909047937513 -0.014534760314018014 -0.0020064817389872135 -0.005522523759570741 -0.003771559546720861
          -0.0022042007586592915 -0.0036565496880628648 -0.00994674849060817 -0.006703964270257429 -0.003604911551867651 -0.004063717355989305
          -0.00654433259849635 -0.005002244955687079 -0.0028126551349710108 -0.0037924728490988935 -0.0069898540702969525 -0.005712064736480116
          -0.008047156285991341 -0.0016285036678906906 -0.0004042273119359563 0.0008576870416667215 0.0012132696712483515 -0.0015063983049309337
          0.0008268392404118391 0.0007744413069667444 0.002455538248060815 -0.0026775313213656393 0.0021276094343067875 0.0020898295161396185
          0.0022598833539357877 -0.000039845478422784186 0.00176344485232105 -0.034791920241293184 -0.014659308689209949 -0.007288821007896407
          0.0046900563541433914 -0.06256007420953913 -0.02937262599602497 -0.015354578203082031 0.015001879546312127 -0.0235630175399677
          -0.012058893363199319 -0.0018309823377510026 0.012293660538947773 0.00003082392944593615 -0.00017651023544285396 0.0007570002799835891
          0.00013637591281789353 -0.00009454095477819113 -0.00007155965074676952 0.002285294791686151 -0.00023934950490982904 -0.00019124894887262434
          0.000820236899615856 0.0023428875884538326 -0.0010691388530299842 -0.004448079194607879 0.0010781220340350117 -0.00182181205921772
          -0.01731618757494352 0.004630282874790892 -0.00029419681230243716 -0.002684971717287432 -0.0034934693083206736 -0.004676623677532965
          -0.0008283626842188474 0.0007174908183795736 -0.007156351366318425 -0.023450277678652154 -0.006400885663777611 0.000009663563454220814
          -0.005854964626669457 -0.013234079989773884 -0.004477331762098864 -0.00915768205409502 -0.011408041410142178 0.015903046520032965
          0.0024384169383363796 -0.002691781261389914 0.0027677051884098525 0.00654513587223704 0.01932860242269821 0.014455410763997811
          -0.0033635073234728474 0.043896533237925306 0.044468563516462445 0.054227087945973196 0.02320309726911467 0.028140732831165444
          0.01201276217986233 0.0345827476069025 0.02058864252756829 -0.0014416463007277946 -0.0032552180457395274 -0.0027916342588684834
          -0.0026353788212315488 -0.005585763329829824 -0.004839009641552608 -0.0014579508534578456 -0.004008699192942822 -0.0023646864775356408
          0.006246963581361576 0.0011868974135296195 0.009835751531622807 0.0034968176117391447 0.0035818921221589806 0.0022397177569872806
          -0.000852347151799826 -0.00030483784846269124 -0.004628058244075306 -0.007214301294651337 0.0011818586356290295 -0.004090352958140309
          0.007981918888183781 -0.0025621243838097607 0.013687200973703684 -0.006677244033139518 0.0009651680911934024 -0.0020602507785314576
          -0.004916825782703915 -0.0010336817238839058 -0.0034419695856678922 -0.0055933944829799735 -0.005494247081569689 -0.0006839868645515113
          -0.005808074515443629 -0.007298357770012129 -0.0016255806572618922 -0.0009676036609046479 -0.0035364927579927263 -0.0025808853710045203
          -0.007644226033999793 -0.00222364425038718 -0.020613683743611083 -0.02335860565466376 0.01806754903108937 -0.06403433844569816
          0.001450196045829133 0.01872883712714954 -0.026330715669233493 -0.00017626638601486722 0.0002995805920475991 -0.0005805502745627744
          0.0007499531845747143 0.002376998126727037 0.0022002055857951452 -0.010582061759610073 -0.00019576405736776437 -0.00747946014582368
          0.0037188618114333827 0.006903422877256982 0.0026499666992320092 0.008460314470086383 0.02706466260651108 -0.009609177901004462
          0.01637180246653064 -0.017694201197847592 -0.031194775650871115 -0.0013399124673102725 0.000003132712337317045 -0.003963312342592895
          -0.001989454793149825 -0.0011198388877182996 -0.0004275194999857901 -0.0003053826464350026 0.0010669671725482069 -0.0002866961852183176
          -0.00065786227992081 0.0020222262725954447 -0.000587765853659411 -0.00031882229129500186 0.0008022025408314301 -0.00022962108584267255
          -0.00001022442053477679 0.0005240951912055536 -0.00038942067144143167 -0.00007791864022432815 -0.0006757799076047011 -0.0019613036064862754
          0.0019872902708288342 -0.0002338407728939007 0.000035516761717646617 0.00017935433600918538 0.0015142282207322583 -0.002480275451922788
          0.0006507736989814772 0.001472218829901395 -0.004640309977396485 -0.0004101211153805101 -0.0017941567110862505 -0.001887042474813463
          -0.004134169380263342 -0.006216653297384998 -0.0029181131350341227 0.000027517535147531663 -0.00013673681380196867 0.0011212075132901664
          -0.00030972923005545897 0.00011923453106730056 -0.00018608353427956165 0.002158429527230797 -0.0007068936617163259 -0.000012048946603650246
          0.000003832124613148413 0.0010294440572923003 -0.0003724003759952854 -0.004922490482018017 0.0006648675263437598 -0.009461836602761467
          -0.0006253924685326595 -0.00561339343394586 -0.003856992784122326 0.00022767695921077635 0.0017107791878998389 0.0004420185420323519
          0.0033534870566639848 0.00018595821983113936 0.0016289004616879717 -0.00155714523146111 -0.0111302688750472 -0.005224686326953609
          -0.02020938606321654 -0.005970814746430797 -0.0075404463727474225 -0.024354889405136027 0.017745504174494164 -0.03602412681242806
          0.0271312953813429 -0.009983082935737908 0.01384907691446069 0.0006870861573368345 0.0011979887608247293 0.0005471831583807457
          0.0013414927110741992 0.0029189822424868783 0.0035666094581841 -0.007377509895389545 -0.0025551773217458162 -0.012228068196776909
          -0.0014005383438868146 -0.0032862486493774323 0.0018924164182338998 -0.00027264802072890504 -0.0006715892863007333 -0.0005032879962492132
          -0.0025355335922854494 0.005909089537756177 0.006811583574328678 0.0005123628449747951 0.0008907863329329982 0.0003264397131299279
          0.0010863000657703736 0.0003139025177749666 0.001146639709748709 -0.000888411037912637 -0.0003863213226142706 0.00017296857032378377
          0.0016670989167880679 0.0012050920817610056 0.01049113134028351 0.001437016922278378 -0.012025761997678575 -0.0064132414157301865
          -0.012847049420543762 -0.0240029878999964 -0.010292122442418509 -0.0029973199312457732 -0.005752530586896065 -0.0035456081757615915
          -0.0007791508313703954 -0.00190043433607881 -0.000928977308062906 0.0011743118487799013 0.0020624913895630186 0.000327392404551298
          -0.0019047340932446533 -0.0038073495739183727 -0.0038413750787358314 -0.002906834333589417 -0.00560418605841545 -0.0024139727725215887
          -0.00021674342647740041 -0.00037678545495281254 -0.0024143865578255264 -0.0007259571697901257 -0.0011831386849709968 -0.0007482455283903677
          -0.00036797701233232116 0.00014019048528324252 -0.0014510931883342515 0.0013648331906270794 0.003344049712469821 0.0017168406884069398
          0.0032734697852833117 0.0073746373185130665 0.0059993773103259596 0.004910830451977155 0.01080482038763253 0.009421628887982703
          -0.000059309494130355134 -0.0009458734698416515 -0.0015767873753883554 0.000293245592469904 -0.0001261960741634205 0.0006688483788745425
          -0.0012044983228427508 0.0010160216466226363 -0.0004900656147985849 -0.004823658787430574 -0.0016168836718819246 -0.0016008783563249418
          -0.0007168394434463321 -0.008303490392873758 -0.0018223962747548061 -0.003207937230630342 -0.0014009926795826577 -0.003989775148465491
          0.0009677267825635161 -0.00027127910821878043 -0.0004060902012368306 0.005237342320545013 0.009254492226502084 0.004430379076176938
          0.0019664863983163694 0.0018273654618597562 0.0006913410297424427 0.004679897178680947 0.00885095405579961 0.0038101642289976867
          -0.0002621326593362505 -0.0013624350627159387 -0.0002621286653128746 -0.0026715596441262424 0.00038149048962832915 -0.0008289586181549069
          0.00011741884924987289 0.00007604027960916859 0.0006189250107820898 0.0011118786298929817 0.0017923229638759919 0.0013791749256648889
          0.002447604697388611 0.004283374131728412 0.0026780676788721036 0.004276293964365685 0.007183138751413409 0.004297334076086123
          0.003241850413437941 0.003315512800543985 0.002122499773687725 -0.0009399024667473554 -0.0060567404010227754 -0.00437747982149328
          -0.00040444067435285724 -0.0022689770657975394 0.00021588597152844002 0.002816211732084517 0.0008797505136920875 -0.0006882535139492996
          0.0009498811634037763 0.00073146198547476 -0.0007023084311235106 -0.00008598719727204163 0.0004829457360151952 0.0013248703490137403
        </DataArray>
        <DataArray type="Float64" Name="resid_z" format="ascii" RangeMin="0" RangeMax="0">
          0 0 0 0 0 0
          0 0 0 0 0 0
          0 0 0 0 0 0
          0 0 0 0 0 0
          0 0 0 0 0 0
          0 0 0 0 0 0
          0 0 0 0 0 0
          0 0 0 0 0 0
          0 0 0 0 0 0
          0 0 0 0 0 0
          0 0 0 0 0 0
          0 0 0 0 0 0
          0 0 0 0 0 0
          0 0 0 0 0 0
          0 0 0 0 0 0
          0 0 0 0 0 0
          0 0 0 0 0 0
          0 0 0 0 0 0
          0 0 0 0 0 0
          0 0 0 0 0 0
          0 0 0 0 0 0
          0 0 0 0 0 0
          0 0 0 0 0 0
          0 0 0 0 0 0
          0 0 0 0 0 0
          0 0 0 0 0 0
          0 0 0 0 0 0
          0 0 0 0 0 0
          0 0 0 0 0 0
          0 0 0 0 0 0
          0 0 0 0 0 0
          0 0 0 0 0 0
          0 0 0 0 0 0
          0 0 0 0 0 0
          0 0 0 0 0 0
          0 0 0 0 0 0
          0 0 0 0 0 0
          0 0 0 0 0 0
          0 0 0 0 0 0
          0 0 0 0 0 0
          0 0 0 0 0 0
          0 0 0 0 0 0
          0 0 0 0 0 0
          0 0 0 0 0 0
          0 0 0 0 0 0
          0 0 0 0 0 0
          0 0 0 0 0 0
          0 0 0 0 0 0
          0 0 0 0 0 0
          0 0 0 0 0 0
          0 0 0 0 0 0
          0 0 0 0 0 0
          0 0 0 0 0 0
          0 0 0 0 0 0
          0 0 0 0 0 0
          0 0 0 0 0 0
          0 0 0 0 0 0
          0 0 0 0 0 0
          0 0 0 0 0 0
          0 0 0 0 0 0
          0 0 0 0 0 0
          0 0 0 0 0 0
          0 0 0 0 0 0
          0 0 0 0 0 0
          0 0 0 0 0 0
          0 0 0 0 0 0
          0 0 0 0 0 0
          0 0 0 0 0 0
          0 0 0 0 0 0
          0 0 0 0 0 0
          0 0 0 0 0 0
          0 0 0 0 0 0
          0 0 0 0 0 0
          0 0 0 0 0 0
          0 0 0 0 0 0
          0 0 0 0 0 0
          0 0 0 0 0 0
          0 0 0 0 0 0
          0 0 0 0 0 0
          0 0 0 0 0 0
          0 0 0 0 0 0
          0 0 0 0 0 0
          0 0 0 0 0 0
          0 0 0 0 0 0
          0 0 0 0 0 0
          0 0 0 0 0 0
          0 0 0 0 0 0
          0 0 0 0 0 0
          0 0 0 0 0 0
          0 0 0 0 0 0
          0 0 0 0 0 0
          0 0 0 0 0 0
          0 0 0 0 0 0
          0 0 0 0 0 0
          0 0 0 0 0 0
          0 0 0 0 0 0
          0 0 0 0 0 0
          0 0 0 0 0 0
          0 0 0 0 0 0
          0 0 0 0 0 0
          0 0 0 0 0 0
          0 0 0 0 0 0
          0 0 0 0 0 0
          0 0 0 0 0 0
          0 0 0 0 0 0
          0 0 0 0 0 0
          0 0 0 0 0 0
          0 0 0 0 0 0
          0 0 0 0 0 0
          0 0 0 0 0 0
          0 0 0 0 0 0
          0 0 0 0 0 0
          0 0 0 0 0 0
          0 0 0 0 0 0
          0 0 0 0 0 0
          0 0 0 0 0 0
          0 0 0 0 0 0
          0 0 0 0 0 0
          0 0 0 0 0 0
          0 0 0 0 0 0
          0 0 0 0 0 0
          0 0 0 0 0 0
          0 0 0 0 0 0
          0 0 0 0 0 0
          0 0 0 0 0 0
          0 0 0 0 0 0
        </DataArray>
        <DataArray type="Float64" Name="stress_zz" format="ascii" RangeMin="-114363753.9367636" RangeMax="176040858.19476914">
          1795568.6722584574 1515486.2362830685 1219843.4619482844 793600.0054077192 644118.2516381114 71713.77453236998
          2355948.7861950067 2348423.4560007653 1934852.78269138 1904555.2334403277 1513756.7791877529 1460687.0108798905
          1014018.9375235606 1339862.2621749241 875394.1306714255 1231582.5026932757 736769.3238192903 1123302.7432116272
          -2132636.042548502 -2108490.5177677525 -1793086.1482690994 -1726145.1047208938 -1453536.2539896974 -1343799.6916740348
          -3147319.3127310025 -3421136.5596730476 -2384122.9878650694 -2617228.9963215967 -1620926.6629991366 -1813321.4329701453
          -1943830.6766974062 -2220620.7273488864 -1245090.1139444332 -1477528.9254626695 -546349.5511914603 -734437.123576452
          -56758.80429427547 -460592.8229058699 227081.97161629196 -184395.21775097557 510922.74752685934 91802.38740391881
          2870430.51481081 1626824.9264620866 2454587.1388258412 935505.6304092952 2038743.7628408733 244186.33435650374
          6633810.577217256 6206962.929341356 4666613.903409462 4161754.5308491187 2699417.2296016687 2116546.132356881
          35241203.780754775 13651899.602635775 28479448.836191464 8988428.77961586 21717693.891628154 4324957.956595943
          2207723.7939551286 1807608.2017024972 1407492.6094498658 1948662.1909672497 1638654.7283608885 1328647.2657545265
          163455.75896637165 42749.14768571145 -77957.4635949487 -2152793.008441868 -1845442.825767757 -1538092.6430936463
          -2499608.178402674 -1822899.9600957497 -1146191.7417888257 -1126946.8569930806 -547249.7171931103 32447.422606860113
          1297548.9072371481 1614209.2834634895 1930869.659689831 4569804.341777921 4708898.491072472 4847992.6403670255
          6742912.11341707 5217910.229732068 3692908.346047066 -805135.511728324 -3680426.5822007665 -6555717.652673212
          2054142.597917419 1861998.2311409065 1669853.864364394 884624.5184685547 744260.0886735269 603895.6588784992
          -990321.4975079619 -911119.7068803526 -831917.9162527432 -2126869.8522391114 -1697263.6194973052 -1267657.3867554988
          -1706879.6704455481 -1120977.3324906987 -535074.9945358494 215050.1793604531 621304.9150420085 1027559.650723564
          3258236.0739674196 3597430.853736144 3936625.6335048694 5194200.468295669 5866376.5459983535 6538552.623701036
          2119660.1832299954 1437420.9121365994 755181.6410432039 -2869042.5690895272 -3961713.1106241904 -5054383.652158852
          998339.7198240694 1068113.9830307653 1137888.2462374615 -1086473.1976433918 -796389.3190628414 -506305.4404822906
          -2385543.2484739143 -1811647.4280287006 -1237751.6075834865 -2064928.2642427022 -1406854.8062764423 -748781.3483101823
          -816594.0034845407 -320504.8934419942 175584.21660055226 1801114.036976058 2000733.8556210543 2200353.67426605
          5139090.69625408 5414420.388888981 5689750.081523882 5208613.15115107 6233045.257181983 7257477.3632128965
          -2029244.1547727147 -2335348.2193031856 -2641452.2838336546 -6241402.639985099 -8054009.056918311 -9866615.473851524
          -2248415.1825426035 -1315575.4925970032 -382735.80265140266 -4313869.320658004 -2944579.0362286884 -1575288.7517993727
          -3880501.296088192 -2540261.2526502227 -1200021.2092122529 -2043768.9390392515 -1138454.3642816455 -233139.78952403925
          98233.32522500199 505629.95855628484 913026.5918875677 3239076.20597444 3217160.2880224455 3195244.3700704505
          6506169.170653806 6568658.530456598 6631147.890259389 5460722.038790413 6273263.987329066 7085805.935867718
          -2456252.47781768 -3141755.988901898 -3827259.499986114 -19365179.573272567 -21959792.661261626 -24554405.749250695
          -7817715.139322445 -5060154.912436329 -2302594.6855502133 -7822478.226106953 -5042951.313425094 -2263424.4007432354
          -5202466.4664966455 -3133496.8620365947 -1064527.2575765436 -2111567.111055766 -974321.3275275816 162924.45600060304
          898747.0112446779 1224910.4335764 1551073.855908122 4292944.133525305 4014423.5445228675 3735902.9555204296
          7442728.703642162 7058902.742524985 6675076.781407811 6247480.9431970585 6143165.827519519 6038850.71184198
          -2132001.7326299837 -3705901.4832472093 -5279801.233864434 -7439640.763693519 -11782902.389600305 -16126164.015507089
          -12230636.477198705 -8317744.948316341 -4404853.419433977 -9694980.437859772 -6437227.870931173 -3179475.3040025723
          -5855798.856334698 -3708424.9850980924 -1561051.113861486 -2063098.9527857273 -1011853.996259592 39390.96026654322
          1555896.4479653633 1685056.598735384 1814216.7495054048 5000650.230705273 4399348.484935018 3798046.7391647636
          7955577.917918192 6974910.392011079 5994242.866103966 7922892.444443319 6588021.010260157 5253149.5760769965
          2221433.1024229797 -323432.39218186133 -2868297.886786701 -1536042.5027485248 -4612555.243824143 -7689067.984899764
          -9825578.689358544 -10102290.468383383 -10379002.247408224 -6303455.180230216 -7426003.945492573 -8548552.71075493
          -2814230.2890840196 -4525959.129596283 -6237687.970108546 430005.67624604946 -1524677.6866949939 -3479361.0496360376
          3469545.8167262767 1634056.2708851434 -201433.27495599008 6018396.932042523 4712105.079165483 3405813.2262884416
          7201845.995287365 6956059.789891809 6710273.584496253 7657713.12544027 8645150.26084054 9632587.39624081
          5892432.471143496 8208059.645937935 10523686.820732376 -2461671.8831615634 2361292.592555603 7184257.068272769
          109648.09441721166 -3829799.936377569 -7769247.96717235 2335987.0481686974 -1103304.157251393 -4542595.362671483
          4361432.32965772 1797414.5689576184 -766603.1917424838 5777058.37749141 4565902.317419047 3354746.257346683
          5626994.3886864595 6359062.519590018 7091130.650493575 4914330.335983034 7605306.046538145 10296281.757093258
          9391763.909629613 14643173.251523573 19894582.59341753 6643826.0451420685 12665579.917023065 18687333.788904063
          882416.8056239024 -32736110.32405385 -21591539.082121804 -1531495.4730149065 -3877492.9499640516 -31298727.54477675
          -18305333.45486597 -4276410.009950418 -8637402.705552004 -29861344.765499644 -15019127.827610135 -7021324.546885931
          25442865.68949949 19354691.29346056 15540486.756209115 13640022.445647936 5638107.822918741 7925353.597835314
          27290950.866915382 44931012.37116164 56936228.84040244 18089617.139329992 29536773.132602207 43637180.27081264
          8888283.411744598 14142533.894042775 30338131.70122283 27549661.99468831 14453712.350069474 78498491.73487815
          29728368.780276973 23180160.127957817 11500556.501337785 68892860.3148814 24119814.558461994 18810658.261227325
          8547400.652606096 59287228.89488463 18511260.33664702 -18665736.601010546 -42143662.1735336 -57779215.53378243
          -56164271.04608376 -8930744.593915151 -29779246.85915506 -36607333.69046309 -32736501.75582252 804247.4131802414
          -17414831.544776518 -15435451.84714375 -9308732.465561278 7041452.246913271 1157090.4018796775 40302871.43741388
          9823417.956246063 8315544.534405362 359702.79010873195 37222260.881887935 9159904.010905856 9589636.82189745
          -437684.8216622146 34141650.326361984 8496390.06556565 -21634276.89654246 23362966.308297217 -8860664.147446934
          -19556989.74354 -16858256.930280507 29678573.35452947 -5173365.730074362 -15138207.708036354 -12082236.964018552
          35994180.40076173 -1486067.312701787 -10719425.67253271 2240763.444110986 137176.82202672074 8402494.710790116
          -1479294.9603623156 14564225.977469247 -3095766.7427513506 33019047.116105184 5032283.683043938 31410435.22679795
          187089.55706648808 29801823.337490704 -4658104.568910961 -9734284.282455312 24214014.571925577 32493050.5317694
          -68466640.42298613 -4602432.169066014 15288302.059242137 6444999.879977103 -51293034.32595024 529419.9443232855
          6362589.546558696 -19603050.771815196 -34119428.22891434 41328856.311049454 54616695.57465893 26903854.36758671
          11324666.434605693 30445641.094189156 46943893.752789594 21907846.489620715 5034304.133311584 19562425.877328854
          39271091.93092024 16911838.61165473 -1256058.1679825261 -74960707.15115878 -42351293.74102883 -70847052.78048168
          -41932163.29669672 -66733398.409804545 -41513032.85236463 -18038010.545073483 -8258059.20794476 -809467.8258533892
          -1527307.566445778 -16894319.62346608 -6233026.040304955 -554012.5009730214 -3036294.246934098 -15750628.701858673
          -4207992.872665149 -298557.17609265354 -4545280.927422417 95851118.09308243 176040858.19476914 34240789.51924864
          35601513.60058851 70880021.25609332 151775985.26548004 33300668.959611088 27643264.70658963 45908924.41910422
          127511112.33619091 32360548.399973538 19685015.81259075 79750582.10367349 67626742.7472421 64475843.5331123
          85181170.46911535 40602914.48568835 30018866.58928315 41518844.04477471 55832333.51308927 1455246.8677032068
          -7589009.5686757965 18561844.556437124 26483496.557063203 23570907.732356768 -13472046.394103399 32586737.683785975
          -6788704.524574086 41602567.63521519 -105362.65504477732 7132579.677242072 5941745.318724239 4750910.960206407
          -33833982.52844018 -51356647.83623867 -21618594.870235134 -44314068.06450514 -9403207.212030081 -37271488.292771615
          -58316889.58773835 -64688953.365447745 -51019301.48879009 -40297914.95288633 -50440197.23856535 -45969984.2157345
          -22278940.31803431 -36191441.11168296 -40920666.94267889 -12508245.072199577 20046.317894835956 49168846.30522331
          31996188.868194673 -34282517.50738521 -29085411.09849996 44861142.98694928 24525133.478069242 -56056789.942570835
          -58190868.51489477 40553439.66867526 17054078.087943804 23700910.51014683 10960733.151161872 23342966.285301533
          18815824.74221773 4835991.868623745 16220874.884570234 13930738.974288631 -1288749.413914386 9098783.483838936
          7881603.663736554 -11256261.347743351 13412022.823193807 -14771904.841095762 18942441.982651062 -18287548.334448174
          -80551140.90736409 -44217447.48566023 -50836418.45560252 -31549668.254442304 -21121696.003840927 -18881889.023224358
          -44700099.91723796 -41347112.733940475 -23054159.033224124 -32919044.155839548 -1408218.1492102921 -24490975.577738624
          62323069.856921606 78137562.31550923 62676321.59345408 46984211.529361725 60924520.454322636 73789331.0737693
          58018583.14911924 44660660.221456885 59525971.05172367 69441099.83202934 53360844.7047844 42337108.913552046
          -10330692.523614328 17361463.7590912 8852758.113355044 -7646535.622289837 11799586.516826015 3572478.5312952893
          -4962378.720965346 6237709.2745608315 -1707801.0507644657 -25979656.376590807 -25570870.129496347 -22262719.616790727
          -17993638.612158563 -18545782.856990643 -10416407.094820773 -440220.8858076498 2112579.739813351 1855882.7347888998
          2986504.8561230935 4151986.3553854516 3860429.972432835 -27534072.65693356 -31794026.435007222 -23928671.49980675
          -47381380.521843486 -20323270.342679944 -62968734.60867976 -21143935.187354434 -17198763.68461965 -19065894.460128974
          -8728376.569239767 -16987853.732903518 -257989.45385988336 54509845.771604225 34524546.832739964 41269485.48719746
          34645830.076687835 22426811.06918257 26652759.54665761 14781814.381771442 10329075.305625185 12036033.606117766
          -6868545.057143858 -7584578.562252362 9729089.966850745 -4667841.321689635 -2643311.7113207392 22535991.41984738
          -2467137.5862354096 2297955.139610884 35342892.87284401 1261844.9936374363 113283.03592312857 -31237591.322799638
          767852.7170629067 5851579.056086192 -26234639.53751424 273860.44048837945 11589875.076249257 -21231687.75222884
          5322937.46594204 11392682.728455387 17462427.990968727 21239778.08550875 18125850.708839785 11460572.957054354
          11006101.758072525 12638091.495012658 11207445.328694815 6217227.590759699 4341811.027646672 4036404.904516569
          4289039.948549847 973882.2244650442 -2322479.702779184 44683224.23290081 -11339507.450905308 42997885.463045165
          -11887070.835845614 41312546.693189524 -12434634.220785934 26411163.32889273 31136049.67345389 17109370.5396809
          19393739.148449555 7807577.750469065 7651428.623445218 52577088.083598256 -46879395.98462327 46378021.14946323
          -39337384.7694293 40178954.215328194 -31795373.554235328 98167815.68707953 -77894731.35260403 89770966.31009766
          -71000030.28885408 81374116.93311578 -64105329.22510412 13240861.56345321 9042981.015976837 4845100.468500464
          -5101633.449470219 -2363396.6354167107 374840.1786367961 42911861.51669565 83938378.82005386 53729754.57242614
          89665935.21440351 64547647.62815665 95393491.60875316 -5965016.267395914 6697556.360056497 19360128.98750891
          -80031707.32576206 -51929365.89297618 -23827024.460190292 71723421.62616678 49757081.5017236 27790741.37728042
          -23741347.388070233 -17514751.028982744 -11288154.66989525 6247610.253649811 3103797.1908430913 -40015.8719636295
          -114363753.9367636 -90649520.81179126 -66935287.686818905 67569394.88279106 65094090.895834 62618786.90887693
          108231224.72483158 94481331.88765307 80731439.05047455 -7649009.222400468 -15643918.695833657 -23638828.169266846
          7984286.943746898 3344458.8532915874 -1295369.2371637234 69648217.86127423 29964778.862705246 -9718660.135863736
          2411811.741643782 2443352.558006497 2474893.374369213 4554139.863546561 5594198.73202198 6634257.600497399
          3569325.806977748 3673134.5243021464 3776943.241626545 4092026.0966979205 4917758.451367838 5743490.806037757
          4082493.5649548727 4248867.684607411 4415241.804259949 3303069.2665799474 3562869.587349264 3822669.9081185805
          2255253.9672908187 1785272.4508752825 1315290.9344597461 4161464.130379603 3622897.266410884 3084330.4024421666
          6270271.159250018 5705201.909693902 5140132.6601377865 -2083270.5242727662 -7367388.421902088 -5375369.284115534
          -9956420.176220808 -8667468.0439583 -12545451.930539528 -745543.2027017495 1469641.464963304 2137573.228466397
          -3805532.631548262 -1327048.8194726128 711270.4321897202 2700708.03714165 -4012185.8636337304 -1908554.4362434759
          -47100.60058386368 3263842.8458169037 -4218839.095719198 3335649.774167364 2095245.7724089473 854841.7706505313
          4465617.59330296 4180401.848818561 3895186.104334162 4044491.349461135 3052681.3850036752 2060871.420546216
          3583209.402164393 5409268.744894399 3430111.3118831427 5227996.494764904 3277013.2216018923 5046724.244635409
          2663770.32786234 3105958.6102216872 3548146.8925810345 597932.2396617841 470125.5816261171 342318.9235904501
          -159155.99184187152 -281283.1648835384 -403410.3379252048 -3945945.0126712215 -5301954.4788706135 -6657963.945070006
          -6641928.709135495 -8555776.443873499 -10469624.1786115 2979131.0649741525 2728286.2925527785 2477441.520131405
          8521703.473168302 8612911.148858413 8704118.824548528 1199182.0605888134 4725925.472381331 1485335.7120479795
          1131626.8405106543 3780046.6941323923 1264595.9562112787 1064071.620432496 2834167.9158834545 1043856.2003745781
        </DataArray>
        <DataArray type="Float64" Name="peeq" format="ascii" RangeMin="0" RangeMax="0.09245919637714703">
          0.00006760662903306219 0.00005775877735767854 0.00008339221813426296 0.00007153600504215181 0.00009917780723546371 0.00008531323272662508
          0.00006225244339964674 0.0000368375334929626 0.00009330852520176333 0.000065899527685569 0.0001243646070038799 0.00009496152187817537
          0.0001949817905104671 0.00014525227147561552 0.0002489305845886766 0.00019744852617312723 0.0003028793786668861 0.0002496447808706389
          0.000686956071143523 0.0006043919553648802 0.0007732504953595387 0.000690079181118786 0.0008595449195755542 0.0007757664068726918
          0.0018869031748845006 0.0017760822602619379 0.0019993480762661364 0.0018908269494999912 0.002111792977647772 0.002005571638738044
          0.0041770023569201505 0.00405929629005869 0.004278460770376495 0.004165700540259938 0.00437991918383284 0.004272104790461186
          0.007935167048352346 0.007842077784458404 0.007961549966710288 0.007872048909752719 0.007987932885068232 0.007902020035047032
          0.013663515530025948 0.013648372363541206 0.013524126775121372 0.013504758548262476 0.0133847380202168 0.013361144732983745
          0.02298601029488446 0.023313535987048516 0.022542606179404966 0.022840860532479423 0.022099202063925464 0.02236818507791033
          0.03540244660179502 0.03468536321303582 0.03451065595662726 0.03384580679253896 0.033618865311459495 0.03300625037204209
          0.00010001199146799424 0.00012224516354660082 0.0001444783356252074 0.0001417631455091556 0.00017964651942752567 0.00021752989334589574
          0.00034881835368202955 0.00040919469233032825 0.00046957103097862695 0.0009373606016378297 0.001025756323711829 0.001114152045785828
          0.0022165672479338328 0.0023218251683430205 0.002427083088752208 0.004523237096229585 0.004610356027898776 0.004697474959567966
          0.008206754169752946 0.008222524256930635 0.008238294344108324 0.013694173820684516 0.01356722150493665 0.013440269189188787
          0.022053102664200155 0.021687931288973707 0.021322759913747262 0.03146856028279116 0.03081400520250812 0.030159450122225085
          0.00016490368722312632 0.0001987066402159341 0.00023250959320874189 0.0002871490630529347 0.0003376779365501297 0.0003882068100473246
          0.0006216248903843005 0.0006930270266251539 0.0007644291628660075 0.0013637547788611965 0.001453633947010478 0.0015435131151597596
          0.0027566219715849933 0.0028484096977561546 0.0029401974239273154 0.005077000816035307 0.005141455323872338 0.0052059098317093705
          0.008624998208120266 0.008624514071780266 0.008624029935440265 0.013704403417650316 0.013595664102788032 0.01348692478792575
          0.020634242737053922 0.020382489294756355 0.02013073585245878 0.027840722611425152 0.027507130884547197 0.027173539157669242
          0.00028204520373669014 0.00033205136575750776 0.00038205752777832527 0.0005244597994197028 0.0005917245268679465 0.0006589892543161902
          0.0010372753154350486 0.0011191787434061448 0.001201082171377241 0.0019718398929044288 0.0020565413389488267 0.0021412427849932247
          0.0034898562719949456 0.0035596073589990616 0.003629358446003177 0.005799716762060616 0.005834555924369663 0.0058693950866787106
          0.009129980662030147 0.009110948071109412 0.009091915480188678 0.013631759218800728 0.013544447452090786 0.013457135685380843
          0.018947670833526425 0.018820709200164848 0.018693747566803275 0.022522448503396915 0.022471040861503193 0.02241963321960946
          0.0004847121046038142 0.0005502385214835887 0.0006157649383633631 0.0008943989831044158 0.0009733396058592092 0.0010522802286140026
          0.0016227637929247351 0.0017031628511758596 0.001783561909426984 0.0027579128607391184 0.002822875430869347 0.002887838000999576
          0.00438593311781927 0.004422423704986997 0.0044589142921547245 0.0066338001359402925 0.0066343625805731785 0.006634925025206066
          0.009640515486337238 0.009605258128034288 0.00957000076973134 0.013407303615872807 0.013347091564723254 0.013286879513573702
          0.017154244358833583 0.01714142617515395 0.017128607991474323 0.018822941967306012 0.018980591724530996 0.019138241481755986
          0.0008259988797120351 0.0008884600421710509 0.0009509212046300668 0.0014468346846330167 0.0015108600744775313 0.0015748854643220457
          0.002399597627598929 0.002448573676907634 0.002497549726216338 0.0037102979167987172 0.003731130972828473 0.0037519640288582283
          0.0054001143223730156 0.00538954344041806 0.005378972558463102 0.0075064280373474505 0.007471828648206532 0.007437229259065614
          0.010067511372422037 0.01002552786877176 0.009983544365121486 0.012971739142161307 0.012952904842922192 0.012934070543683077
          0.015264273245065258 0.015362298979761425 0.015460324714457591 0.015616602598887556 0.015938998784112486 0.016261394969337414
          0.00136679261856393 0.00138276860964078 0.00139874460071763 0.002219128907944487 0.002219164176720866 0.0022191994454972457
          0.003371603872522051 0.0033458562406396514 0.003320108608757252 0.004802438919315158 0.004749509407856124 0.004696579896397091
          0.006472885383544125 0.006403129420013665 0.006333373456483207 0.008336626985701786 0.008272111430499374 0.008207595875296965
          0.01033041805551677 0.010301244629787733 0.010272071204058696 0.012273938100521915 0.012322992815232222 0.012372047529942528
          0.013300639731762261 0.01351674994276912 0.013732860153775976 0.012693995381014712 0.013130773471720422 0.013567551562426134
          0.002107941778693627 0.0020678675264646576 0.0020277932742356884 0.003179417704483594 0.0031131009227555444 0.003046784141027495
          0.0044868860768115535 0.004394801100489028 0.004302716124166502 0.00596377739585495 0.005855128742363551 0.005746480088872152
          0.007518775022208061 0.007413160835300919 0.007307546648393777 0.009038933356259516 0.008965766358863897 0.008892599361468278
          0.010378482779063945 0.01037364404408188 0.010368805309099815 0.011321916073740107 0.011429754470074846 0.011537592866409586
          0.011311254573714784 0.011584999829576252 0.011858745085437718 0.010178107263162437 0.010597215602989212 0.01101632394281599
          0.005543649359043367 0.005458971185920156 0.005374293012796946 0.006952056404366415 0.006860143299148145 0.006768230193929873
          0.008296410048144067 0.008213275725199247 0.008130141402254428 0.009424933033884317 0.00937230951206525 0.009319685990246181
          0.010150488809364193 0.010153874253413879 0.010157259697463566 0.010238688854470126 0.010327200233586277 0.010415711612702428
          0.009392000062123195 0.009582264145200022 0.009772528228276851 0.008060599866215896 0.008330121633547637 0.00859964340087938
          3.8591012194023245e-9 0.0001441234221427659 0.00019122477129741616 0 0.0004931589118987819 0.0015319457341325714
          0.00032638270321752843 3.2719862658758984e-7 0.0009863139646963442 0.0029197680461223773 0.00046154063513764075 6.543972531751797e-7
          0 0 0.00012114051787522787 0 0.00024228103575045574 0
          0 0 0 0.00028028501774866475 0.00003733473050451098 0.00012099967038415829
          0.0005605700354973294 0.00007466946100902196 0.00024199934076831657 0.04708562683195275 0.043219811333278305 0.05464905448169976
          0.054910006307919645 0.04579685997523401 0.042373813531009795 0.05315499218137301 0.05318027767516771 0.04450809311851525
          0.041527815728741285 0.05166092988104627 0.05145054904241577 0.01601686437633671 0.009914372469519163 0.007591668797705146
          0.01029703223337544 0.01916402943185423 0.012179968070376534 0.010056462021999005 0.01312406242930618 0.022311194487371747
          0.014445563671233902 0.012521255246292861 0.01595109262523692 0.027906452933451644 0.02793022335923893 0.03352042055940882
          0.03247725331286417 0.027797454838611953 0.02800688962788723 0.033203271182402176 0.0320726109029858 0.02768845674377226
          0.02808355589653553 0.03288612180539554 0.03166796849310744 0.01368419341849132 0.01485500992425773 0.010617957165400305
          0.008980798811132881 0.014504076262042054 0.01549321719166186 0.011286777716094364 0.00977032165192217 0.015323959105592783
          0.01613142445906599 0.011955598266788423 0.010559844492711457 0.008657649432145142 0.01092416022320349 0.009119293534924858
          0.0114859671845165 0.009580937637704576 0.012047774145829512 0.038158226383081584 0.03514085739638507 0.037482655365567795
          0.03485356133889857 0.03680708434805399 0.03456626528141207 0.000007264178620147327 0 0
          0.0003565083120988177 0.0006750533301787019 0.00047844781729246906 0.0005565711305669099 0.002090377901126513 0.0013428424817372563
          0.0009568956345849381 0.0011131422611338198 0.0038242474901542083 0.0432617591667137 0.0425310136277244 0.05066615957970218
          0.04817866465028522 0.04207966530478791 0.041312315576688546 0.04897874844412945 0.04670326503903727 0.040897571442862116
          0.0400936175256527 0.047291337308556725 0.04522786542778932 0.044954179895964445 0.05936464019267018 0.04403815166712971
          0.05765360712877882 0.04312212343829497 0.05594257406488747 0.0003825214687403684 0.0007145128724351143 0.00014894778368461375
          0.00004291224813423728 0.0004880577571578451 0.0008112466916665225 0.0001620780067980914 0.00004911726560136288 0.0005935940455753219
          0.0009079805108979311 0.00017520822991156905 0.00005532228306848849 0.08078018482188606 0.09245919637714703 0.08677425819864973
          0.07256517474032878 0.078899180806772 0.08947165976616175 0.08375332970460675 0.07075989934340529 0.07701817679165794
          0.08648412315517649 0.08073240121056378 0.06895462394648182 0 0 0
          0 0.0007713887970630779 0.0007973612367663793 0.0005517357550557048 0.000511488572265624 0.0015427775941261558
          0.0015947224735327586 0.0011034715101114097 0.001022977144531248 0.0178549710194328 0.018080546969667283 0.018424796031190724
          0.018799679968192293 0.018994621042948644 0.019518812966717303 0.038661504175248315 0.037786665646412296 0.03691182711757626
          0.00014602764241615664 0.0005517325556400045 0.002385044048065092 0.004259875305209354 0.0046240604537140274 0.007968018054778704
          0.0037596500483194207 0.00388206266745157 0.001012033334638246 0.007466167602350785 0.006488468026259779 0.002975585006888783
          0.011172685156382147 0.009094873385067986 0.00493913667913932 0.024549079482250685 0.022839287011845934 0.040327980673396754
          0.03559649471205673 0.02565169257044035 0.024907762814194337 0.04137026295507447 0.03554436769405692 0.026754305658630018
          0.02697623861654274 0.04241254523675218 0.03549224067605712 0.05449662386376291 0.05740571781758702 0.06123029978244554
          0.05251715276363979 0.055334125644252205 0.05878482921309824 0.05053768166351666 0.05326253347091739 0.05633935864375093
          0.007746228853298088 0.013749063922110297 0.008246162464025679 0.01428441891580589 0.00874609607475327 0.014819773909501482
          0.006346665386966027 0.007771485615145713 0.007745506508801768 0.009608745905562337 0.00914434763063751 0.011446006195978964
          0.008626338465186187 0.0044453012086107585 0.009870128110212989 0.005334398198753969 0.01111391775523979 0.006223495188897176
          0.0772300875417031 0.07465518417553695 0.0818221681256392 0.08351727273097251 0.07353640788835841 0.07134116068548793
          0.07836669922717378 0.07975714397952714 0.06984272823501372 0.06802713719543893 0.07491123032870839 0.07599701522808176
          0.022583933031632385 0.02324042643090026 0.02900887383604842 0.023012189187291743 0.02397958414860294 0.02929744493597851
          0.023440445342951102 0.02471874186630562 0.029586016035908602 0.001333321813905799 0.0007576601858530731 0.0017245061765849541
          0.0011425355777497463 0.002115690539264109 0.0015274109696464195 0.021872254555991462 0.017260012637899183 0.022106239292434472
          0.0176615501198573 0.022340224028877476 0.018063087601815415 0.014555258744779948 0.017574796959868348 0.015614770997648469
          0.01911825478114557 0.016674283250516994 0.020661712602422784 0.00859667304682807 0.004854964557791948 0.009569479378384533
          0.005467122112044138 0.010542285709940995 0.00607927966629633 0 0 0
          0.000005681076951731729 0 0 0.000011362153903463459 0 0
          0.004864068964274364 0.0027014386994949433 0.005618430549084033 0.0051683278517930175 0.002943361014731757 0.006107032133440312
          0.005472586739311672 0.003185283329968569 0.006595633717796593 0.06324353305276917 0.06905798695370205 0.06917160065881761
          0.060742335841686534 0.0660881948518298 0.06608490837002293 0.05824113863060389 0.06311840274995754 0.06299821608122826
          0.0722931217384795 0.06896817300063657 0.06564322426279365 0 0 0
          0 0 0 0 0 0
          0 0 0 0.06289999703978481 0.06949140338144852 0.060640870226726526
          0.06684295434494714 0.05838174341366823 0.06419450530844578 0 0 0
          0 0 0 0.08919961006972647 0.07540270758926626 0.0858880042357375
          0.07263884543268398 0.08257639840174856 0.0698749832761017 0.052216146136192625 0.06100893346111919 0.05129988623955567
          0.06089129906464119 0.0503836263429187 0.060773664668163196 0 0 0
          0.006633097575535072 0.006943106185834032 0.007253114796132993 0.03187726303957249 0.019620078723795772 0.03499841393292756
          0.023100504234798636 0.03811956482628263 0.026580929745801507 0.007664546307518291 0.008314198444930103 0.008963850582341915
          0.0026041591224227915 0.005099319894196407 0.00759448066597002 0 0.000005681076951731729 0.000011362153903463459
          0.002013762467196642 0.0023478925037586263 0.002682022540320611 0 0 0
          0.003084672543455914 0.005153949657576694 0.007223226771697475 0.05440636733162523 0.05567685511255862 0.05694734289349199
          0.0919200847991242 0.08847341475548073 0.08502674471183727 0.04258445857680776 0.041506490445181024 0.04042852231355429
          0 0 0 0 0.0005198004495949076 0.0010396008991898152
          0.007588674186647428 0.007551478909511404 0.0075142836323753796 0.007918368780664015 0.00791371942518274 0.007909070069701462
          0.008619769072227085 0.00858675853160466 0.008553747990982234 0.008530349901105823 0.008526704924359205 0.008523059947612589
          0.009333937957641035 0.009313332033417708 0.009292726109194377 0.009532769263963152 0.009534150471412092 0.009535531678861033
          0.008986801617146746 0.009021296119292834 0.00905579062143892 0.00746629429422116 0.007535293037538563 0.007604291780855966
          0.00505237796238465 0.005149580947677515 0.005246783932970382 0.004906615243670243 0.003200176397640252 0.0050962909305976795
          0.0033436020937437374 0.005285966617525114 0.003487027789847221 0.001162960957985171 0.00042794479329301627 0.0004419159651903609
          0.0015776310892509175 0.001177579554050136 0.0004284690768428274 0.0004591076163952794 0.0016464489483967912 0.0011921981501151016
          0.0004289933603926386 0.0004762992676001978 0.0017152668075426656 0.00001911310681519629 0.00001908659128764305 0.000019060075760089815
          0.0023021395173358577 0.002341861375836969 0.0023815832343380802 0.00009142727248994415 0.00008934115811037603 0.00008725504373080792
          0.008019489062025861 0.007886681321252776 0.008018521650863164 0.007883815158692223 0.008017554239700467 0.00788094899613167
          0.008760833252040513 0.008759521730334667 0.008758210208628818 0.0077339683434627824 0.007735600640595507 0.0077372329377282285
          0.008428578713950934 0.008432025367599898 0.00843547202124886 0.007351548152411959 0.007363702577301843 0.007375857002191726
          0.00544622391925528 0.005464599626129547 0.005482975333003815 0.0031909696572972263 0.0032033598303451063 0.0032157500033929863
          0.0014050646131720337 0.0014097341313031387 0.0014144036494342436 0.000027529063073061158 0.00039770360083354515 0.0002938937642791003
          0.00002890714442321275 0.00039643258145118316 0.00029671449372550254 0.00003028522577336435 0.0003951615620688212 0.00029953522317190486
        </DataArray>
        <DataArray type="Float64" Name="pe11" format="ascii" RangeMin="-0.0009646036878875889" RangeMax="0.09017131699427788">
          0.0000675696185235637 0.00005773095481572768 0.00008336173116799928 0.00007151318641598662 0.00009915384381243485 0.00008529541801624556
          0.00006218239272434974 0.00003682426960418184 0.00009317108598667059 0.00006583567131404036 0.00012415977924899147 0.00009484707302389891
          0.00019405054577643915 0.00014479133995629816 0.0002471067530783931 0.00019618590235177054 0.00030016296038034706 0.000247580464747243
          0.0006782780068509667 0.0005972944555315044 0.0007597479235354373 0.0006782201322713963 0.000841217840219908 0.0007591458090112883
          0.001844551684895345 0.0017361370605951726 0.001943634024907388 0.0018372085745797626 0.0020427163649194315 0.0019382800885643526
          0.004040400237080131 0.003923357287110819 0.004119965620174663 0.004007093419336959 0.004199531003269195 0.0040908295515631
          0.007601157859046763 0.007501325130321244 0.007604270153958866 0.0075072306853286325 0.0076073824488709675 0.007513136240336021
          0.01297544301362951 0.012932782550588839 0.012820426660198609 0.01277241840233189 0.012665410306767707 0.012612054254074941
          0.021567581908133425 0.021792519818577095 0.021114836930601528 0.021310256898114943 0.02066209195306963 0.020827993977652788
          0.03307605218678941 0.032190645739806484 0.03215495787358408 0.031308487944269645 0.03123386356037875 0.0304263301487328
          0.00009992390335250932 0.00012216366373223064 0.00014440342411195197 0.0001413304509825929 0.0001790854789501668 0.0002168405069177407
          0.00034591651426374524 0.0004051821271390449 0.0004644477400143446 0.000923373039408968 0.0010068586696691832 0.0010903442999293982
          0.002166792803878447 0.0022595945135389216 0.0023523962231993957 0.004384517676963686 0.004451847547650905 0.0045191774183381255
          0.00789231323339199 0.007886996769305845 0.007881680305219699 0.013081281116039577 0.01294098484006474 0.012800688564089904
          0.020881498868231735 0.020511844751029573 0.02014219063382741 0.02960640210429349 0.028971638794690262 0.028336875485087037
          0.00016461010111666965 0.0001983918671341516 0.00023217363315163362 0.0002854752989641046 0.0003357360865993538 0.000385996874234603
          0.0006140405014941166 0.0006840607614819077 0.000754081021469699 0.0013396597936278618 0.0014246795064974547 0.001509699219367048
          0.0026941632219816044 0.002774888094508498 0.002855612967035392 0.004934618485013405 0.004982174527994808 0.005029730570976212
          0.008340541055383842 0.008321910692233762 0.008303280329083684 0.013197548342109934 0.013077758309456195 0.012957968276802454
          0.01975216850360844 0.019504228795354135 0.01925628908709983 0.02641790060395687 0.026128159651643938 0.02583841869933101
          0.00028107430128278103 0.00033093450112387966 0.0003807947009649783 0.0005196973313239541 0.000586392451452841 0.0006530875715817278
          0.0010210239602050654 0.0011011907851639813 0.001181357610122897 0.0019323060980486735 0.0020123559300026573 0.002092405761956641
          0.003410095912746428 0.003470448866795629 0.0035308018208448306 0.005652949641079416 0.005673959991068287 0.005694970341057157
          0.008881961516256403 0.008847752014997247 0.00881354251373809 0.01324295305670838 0.013146917069596586 0.013050881082484795
          0.01834707779236861 0.018229265787093545 0.018111453781818474 0.02162644993080412 0.021618142195371694 0.021609834459939276
          0.0004817931351600536 0.0005468809973176531 0.0006119688594752525 0.0008830824020321072 0.000961045870650824 0.0010390093392695404
          0.0015924154830255562 0.0016708514416705106 0.0017492874003154652 0.002697639724524706 0.0027585128323786502 0.0028193859402325947
          0.004286001064105292 0.004314982821654412 0.004343964579203533 0.006483863689131275 0.006473452014400399 0.006463040339669523
          0.009432328586252613 0.009384579908450699 0.009336831230648787 0.013132226392840556 0.01306534887987846 0.01299847136691636
          0.016785569737133115 0.016783823830691966 0.01678207792425082 0.018251329277237768 0.018441689957406877 0.01863205063757599
          0.0008176136697265661 0.0008795985965526222 0.0009415835233786784 0.0014224827351239152 0.0014858343187662013 0.0015491859024084876
          0.0023478282363054493 0.0023956922690931085 0.002443556301880768 0.003624367058710928 0.0036427240138558227 0.003661080969000718
          0.005279706541732128 0.005264035305836111 0.005248364069940094 0.0073570749256637626 0.00731409894204956 0.007271122958435357
          0.009901189315386198 0.009848934441203204 0.00979667956702021 0.01279541257560135 0.012771036757449235 0.012746660939297117
          0.015050087516249613 0.015157685151537956 0.015265282786826298 0.01522607896072883 0.015571065982364355 0.015916053003999883
          0.001344825711262983 0.0013617191629005181 0.0013786126145380535 0.002171055296179605 0.0021727108953356255 0.002174366494491645
          0.00328930358682558 0.003265297844727231 0.0032412921026288835 0.004686965435974972 0.0046346529217526225 0.004582340407530274
          0.006334783626406258 0.006262936334344858 0.006191089042283461 0.00819436650689212 0.00812382435169733 0.008053282196502538
          0.010206795232315075 0.01016868475066135 0.010130574269007627 0.012174604341732558 0.012217776797425752 0.012260949253118946
          0.01317236373647259 0.01339391064489018 0.013615457553307772 0.012391519023878477 0.012839848093089398 0.01328817716230032
          0.0020627043633396147 0.002022157216728353 0.001981610070117091 0.003098483613454342 0.0030320304737686842 0.0029655773340830256
          0.0043690891520345694 0.00427715717852612 0.004185225205017671 0.005820187831424093 0.005711451315429704 0.005602714799435316
          0.007370545637722213 0.007263369923917134 0.007156194210112058 0.008912714094855261 0.008834883217734967 0.008757052340614671
          0.01029627462689283 0.010283204248596921 0.01027013387030101 0.01127321550807448 0.01137233712982 0.01147145875156552
          0.011192041985912459 0.011464489624723857 0.011736937263535257 0.009815829905080516 0.01023831769518577 0.010660805485291027
          0.005429186155079472 0.00534272083618398 0.005256255517288488 0.006829385840320206 0.006736041371949919 0.006642696903579631
          0.008187607104028237 0.008103002205961506 0.008018397307894776 0.009350135390522847 0.009295191554454907 0.009240247718386968
          0.010112466301283759 0.010112194605298714 0.010111922909313672 0.010198230014168927 0.01028253554318154 0.010366841072194152
          0.009227490761454649 0.009416661010939405 0.009605831260424158 0.0076153765092611975 0.007884951627241675 0.008154526745222152
          3.0669025195191184e-9 0.0001340354333572422 0.00017779340000400869 0 0.000019867494708776834 -0.00007618901470157021
          0.0002536837515747508 2.8573498188157285e-7 0.00003973192251503415 -0.00028641346276038265 0.0003295741031454929 5.714699637631457e-7
          0 0 -0.000021875725614702584 0 -0.00004375145122940517 0
          0 0 0 0.00009348330257166484 -0.00000930433854194213 0.000013118352002598863
          0.00018696660514332968 -0.00001860867708388426 0.000026236704005197726 0.044939553128469895 0.040666081880776805 0.0522672245006518
          0.05291801657403096 0.04357119259641158 0.03990638738757224 0.05073248270754204 0.051075776378787165 0.04220283206435327
          0.03914669289436767 0.049197740914432284 0.049233536183543355 0.010910124218601325 0.006388834351851946 0.0017861438345972468
          0.005284778018749294 0.012414229622385465 0.006960781382776654 0.0027377050898347625 0.006890256594502605 0.013918335026169607
          0.007532728413701362 0.003689266345072278 0.008495735170255916 0.026542887734005545 0.02639810044505523 0.03148476823796689
          0.030639975755561037 0.026510269990389725 0.026585235885429298 0.03131171024011925 0.030323151274376424 0.026477652246773904
          0.02677237132580337 0.03113865224227162 0.030006326793191814 0.012541937859921366 0.014033578883806939 0.009752775662991748
          0.007862261370212986 0.013347203235636507 0.0146784643960062 0.010396338287546348 0.008594787202361709 0.014152468611351644
          0.015323349908205462 0.011039900912100945 0.009327313034510433 0.008075829228647847 0.010433662212565205 0.008529027115068272
          0.011000266945304779 0.008982225001488696 0.011566871678044356 0.03589573493294853 0.03270532798729189 0.03536106039661099
          0.03266507399717944 0.03482638586027345 0.032624820007067 0.00000210066686107136 0 0
          0.000012015263693816932 0.00006498458233226374 0.0002251895803019945 0.00012150480578166495 -0.00047629421209688594 0.00012786849780345612
          0.000450379160603989 0.0002430096115633299 -0.0009646036878875889 0.04077330837608729 0.0402002966976442 0.04888669605399025
          0.04619476270502718 0.039484349997141566 0.03892455087294522 0.04704738563990932 0.04455650789183881 0.03819539161819584
          0.037648805048246234 0.045208075225828405 0.04291825307865044 0.04141017417907626 0.05614381861041379 0.040740139302208385
          0.054641887270411894 0.04007010442534051 0.05313995593041 0.0003503714600009316 0.0006721471845698225 0.00013932384562224606
          0.00004021940844166962 0.0004207012290294284 0.0007448238956697312 0.0001490518626973219 0.000044781010076692726 0.0004910309980579251
          0.0008175006067696403 0.00015877987977239773 0.00004934261171171582 0.06891759723108994 0.0877543916683167 0.08332835560512607
          0.06504498328829952 0.06783424401714537 0.08484467328156421 0.08028373134294033 0.06386587318903239 0.06675089080320082
          0.08193495489481173 0.07723910708075458 0.06268676308976527 0 0 0
          0 -0.00021269798800757582 -0.000017981977454942662 0.00003179417457739196 -0.0001669820537594599 -0.00042539597601515164
          -0.000035963954909885324 0.00006358834915478392 -0.0003339641075189198 0.01704113399259301 0.016963121557717863 0.017652076463209154
          0.017713091700001564 0.0182630189338253 0.01846306184228526 0.03647605425627137 0.03564179736104345 0.03480754046581552
          0.000036020830508713075 0.0002976132625865689 0.00004368988373121797 -0.00023190219430676122 0.00005135893695372288 -0.0007614176512000913
          0.00044204822881848945 0.0020404454622990516 0.0008065595466551955 0.0003564136416775088 0.0018957790083609376 0.0006071739247986756
          0.0002707790545365281 0.0017511125544228236 0.00040778830294215565 0.021912999079011817 0.01858611645140447 0.03174472430882387
          0.031667162397662825 0.02309237904426612 0.019965885695570486 0.03288736525999942 0.032064844330644056 0.024271759009520433
          0.021345654939736506 0.03403000621117495 0.03246252626362529 0.053106238004047485 0.055905527987997326 0.06006750552372828
          0.05092847462965655 0.05362281651375757 0.05738182798489363 0.048750711255265616 0.0513401050395178 0.054696150446058966
          0.007098016444869637 0.013154495940954488 0.007568510798191942 0.0137061357215386 0.008039005151514246 0.014257775502122715
          0.00004743376042015509 0.0023468941106616096 0.0017516438447831028 0.003893469510147624 0.0034558539291460514 0.005440044909633638
          0.006892313050742946 0.0036469989303052966 0.007831910918830983 0.004317205752822332 0.008771508786919019 0.004987412575339369
          0.07615207317045 0.07345707353773068 0.0803894610596625 0.08216162120946487 0.07224250123128585 0.06997827363107184
          0.0766657540658823 0.07816041091945337 0.0683329292921217 0.06649947372441302 0.07294204707210211 0.07415920062944188
          0.021328198062551505 0.021405120296168877 0.027025575672156008 0.021864809220108236 0.022279462351169437 0.02750819100988517
          0.022401420377664967 0.02315380440617001 0.02799080634761434 0.0011623022630459772 0.0006752834863793961 0.0014361420666228755
          0.0009140995106040557 0.0017099818701997733 0.0011529155348287154 0.02091086090335902 0.016547290363434 0.021218498257814578
          0.016983312221424088 0.021526135612270143 0.017419334079414175 0.012831663266071948 0.014774661916965331 0.01379966068703165
          0.01593688907121107 0.014767658107991353 0.01709911622545681 0.0072167251866799955 0.004142401083136666 0.008063783459543936
          0.004647841778199543 0.008910841732407875 0.005153282473262419 0 0 0
          0.0000024771752414814608 0 0 0.0000049543504829629216 0 0
          0.004294500920002487 0.0023588811856284633 0.004947198708976986 0.004563320142858889 0.002551373682611551 0.005366359494700508
          0.004832139365715289 0.002743866179594639 0.005785520280424032 0.06211998456386478 0.06818264424232441 0.06843880498058846
          0.05938604941728459 0.06497588657286542 0.06506696050139563 0.056652114270704414 0.061769128903406426 0.06169511602220279
          0.07141000997091268 0.06780504242304028 0.06420007487516788 0 0 0
          0 0 0 0 0 0
          0 0 0 0.06131884177441292 0.06761332965490677 0.058965922002068405
          0.06498281479234323 0.056613002229723895 0.0623522999297797 0 0 0
          0 0 0 0.08755295704692774 0.07294622635812775 0.08385254089464535
          0.07024683696466628 0.08015212474236298 0.0675474475712048 0.046289532747837106 0.04732596658500573 0.04609161086183484
          0.047881652633869475 0.04589368897583257 0.0484373386827332 0 0 0
          0.005993537236977207 0.006290449172779262 0.006587361108581314 0.01982529773619632 0.01023511738285446 0.021853038569990636
          0.012235712226011731 0.02388077940378494 0.014236307069168999 0.006821290909114038 0.007409500640128272 0.007997710371142502
          -0.000264761856107575 0.000025771245766425827 0.0003163043476404266 0 0.0000024771752414814608 0.0000049543504829629216
          0.0017237760889170397 0.001972967429489204 0.002222158770061369 0 0 0
          -0.0003882204060509809 -0.0003998328383281525 -0.00041144527060532404 0.0368172696884384 0.03809159741528683 0.03936592514213525
          0.09017131699427788 0.0863996428913794 0.08262796878848092 0.039966025552339135 0.038770843141337344 0.03757566073033556
          0 0 0 0 -0.00009143186849623185 -0.0001828637369924637
          0.007535216610327627 0.007497850866128672 0.0074604851219297165 0.007908119202421682 0.007903286543940515 0.007898453885459348
          0.008582961567267493 0.00854975172411707 0.00851654188096665 0.008522625170098962 0.008518927194302871 0.008515229218506785
          0.009313761929722303 0.009293020450818465 0.009272278971914627 0.009508845337251135 0.0095105292486315 0.009512213160011863
          0.008909928828852045 0.00894555487824751 0.008981180927642982 0.007268062762675987 0.007337538660899122 0.007407014559122257
          0.004762219845338234 0.00485561422128235 0.0049490085972264675 0.0044814403116117734 0.0029350270274548975 0.004660479649988846
          0.003062389319037224 0.004839518988365919 0.00318975161061955 0.0011143984105539326 0.00041772494789717244 0.0004228091165592554
          0.0014698998105154813 0.0011250154350662778 0.0004172666885097606 0.00043615610125290254 0.001526115918825518 0.001135632459578623
          0.0004168084291223487 0.00044950308594654965 0.0015823320271355552 0.000018986673784222993 0.000018937969316788336 0.000018889264849353676
          0.0021820035936815922 0.0022153743529205513 0.0022487451121595108 0.00008966261014402097 0.00008754562246521693 0.0000854286347864129
          0.008000620465079803 0.007879736209908676 0.007999704810521237 0.00787677677426532 0.00799878915596267 0.007873817338621966
          0.008742514215177365 0.0087412308007563 0.008739947386335238 0.0076911092616942945 0.007692817787413793 0.007694526313133292
          0.008376636737191792 0.008379980892144891 0.008383325047097993 0.007241880512841908 0.0072531766065469854 0.007264472700252064
          0.005285873380984992 0.005301503169550177 0.005317132958115361 0.0030700143397118873 0.0030793575193416058 0.003088700698971325
          0.0013609086534082913 0.0013636985252594633 0.0013664883971106353 0.00002685348389447389 0.0003916164069876646 0.00029055102919065847
          0.000028162390714897846 0.0003899335838131304 0.00029309793976622884 0.000029471297535321806 0.0003882507606385962 0.0002956448503417993
        </DataArray>
        <DataArray type="Float64" Name="pe22" format="ascii" RangeMin="-0.03942541613461861" RangeMax="0.0006053467398489164">
          -0.000035420295491427655 -0.000030347285148801597 -0.00004290597304494045 -0.00003700896766723869 -0.00005039165059845326 -0.00004367065018567579
          -0.0000312334336845473 -0.00001871729658028655 -0.000044763718292883673 -0.000031828869109274885 -0.000058294002901220044 -0.00004494044163826322
          -0.00008642463853889901 -0.00006456581233279261 -0.00010345250856026704 -0.00008201984144235658 -0.00012048037858163507 -0.00009947387055192051
          -0.00025845173735080794 -0.00022634817870404404 -0.0002690453428200795 -0.00023806425477590506 -0.0002796389482893511 -0.0002497803308477661
          -0.0006011765040104779 -0.0005598169359904363 -0.0005891862723180511 -0.0005486355485322777 -0.0005771960406256239 -0.000537454161074119
          -0.00113564024763689 -0.0010859021251029505 -0.0010929007976094394 -0.0010428250948334372 -0.0010501613475819883 -0.0009997480645639238
          -0.0018697074676531482 -0.0018057040465747501 -0.0018002776186180835 -0.001734754427719416 -0.0017308477695830186 -0.0016638048088640817
          -0.002832910945595872 -0.0027331421727533993 -0.0027365358690949067 -0.0026303394449439486 -0.002640160792593941 -0.002527536717134498
          -0.003994931796839708 -0.003805710940891872 -0.00385271263412221 -0.0036485289428787194 -0.003710493471404711 -0.0034913469448655666
          -0.005903379765682254 -0.005055982896202502 -0.005585592487571166 -0.00475744652353835 -0.0052678052094600756 -0.0044589101508741985
          -0.00005183680662375957 -0.00006181664850039225 -0.00007179649037702496 -0.00006936156240922413 -0.00008422862129451453 -0.00009909568017980496
          -0.00015230012097313173 -0.00016853855834547498 -0.00018477699571781825 -0.00035488228341446106 -0.0003627729230216793 -0.0003706635626288975
          -0.0007244304691902063 -0.0007104208802304935 -0.0006964112912707807 -0.0012830646158112182 -0.001241555574723887 -0.0012000465336365561
          -0.002059977790981501 -0.001995275126246564 -0.0019305724615116273 -0.003110791579443796 -0.0030307092963021073 -0.002950627013160419
          -0.004427337306455027 -0.00432719461146882 -0.004227051916482613 -0.006052390103988804 -0.005886353766774788 -0.005720317429560772
          -0.00008362697642164562 -0.00009748045719314281 -0.00011133393796463998 -0.00013579310079156237 -0.00015261275095772466 -0.00016943240112388694
          -0.0002646226297524576 -0.0002797332249452339 -0.00029484382013801017 -0.0005166019291608156 -0.000520741404922216 -0.0005248808806836164
          -0.0009267147326116717 -0.0009103544022948654 -0.0008939940719780592 -0.0015228119904696909 -0.001483923922961026 -0.0014450358554523612
          -0.0023626837926694843 -0.002305887015994549 -0.0022490902393196136 -0.0035109084294456653 -0.003452496686138303 -0.0033940849428309404
          -0.004879184101131002 -0.0048396472412646765 -0.004800110381398351 -0.006532550053790889 -0.0065549742554225745 -0.006577398457054259
          -0.00013780807936833531 -0.00015572884026386922 -0.00017364960115940313 -0.00023705016142822193 -0.0002551850250711728 -0.0002733198887141237
          -0.00042723352736498757 -0.00043975638790379136 -0.00045227924844259515 -0.0007416384780034901 -0.000741044643825028 -0.0007404508096465659
          -0.0012019733208832404 -0.0011839667310032539 -0.0011659601411232673 -0.001844609084377649 -0.001810068491742637 -0.001775527899107625
          -0.002745379258462823 -0.002699348788849405 -0.0026533183192359883 -0.003954865591760846 -0.003920897212732772 -0.0038869288337046986
          -0.0052918872604626405 -0.005308950816098576 -0.005326014371734513 -0.006385954752301836 -0.006496383905466181 -0.006606813058630527
          -0.00022320313574639259 -0.00024303125664418363 -0.00026285937754197473 -0.0003809681070957267 -0.00039760931296825005 -0.0004142505188407735
          -0.0006409618233552453 -0.0006485192427716386 -0.0006560766621880319 -0.0010222510777338286 -0.0010168401896005158 -0.0010114293014672027
          -0.001539997537899433 -0.001521836604697414 -0.0015036756714953952 -0.0022309054840655576 -0.0022024654276103155 -0.0021740253711550737
          -0.0031662754189638776 -0.003133429709172299 -0.003100583999380721 -0.004367469907679207 -0.004356917774739856 -0.004346365641800506
          -0.005611010397828751 -0.005663689372083633 -0.0057163683463385155 -0.006436927119534181 -0.006574816270295002 -0.006712705421055824
          -0.0003492212982793674 -0.00036505558886283955 -0.0003808898794463118 -0.0005714881148815048 -0.0005815911339998613 -0.0005916941531182179
          -0.000900322383690119 -0.0009008517391410267 -0.0009013810945919344 -0.0013475750075712361 -0.0013385206590518955 -0.0013294663105325546
          -0.0019253416166937066 -0.0019090435765684098 -0.001892745536443113 -0.0026568013575770126 -0.0026362074053824687 -0.0026156134531879253
          -0.003584991215883606 -0.0035665870334357077 -0.00354818285098781 -0.004695193800435818 -0.004703692402385239 -0.004712191004334662
          -0.005730648117644168 -0.0058018227323963865 -0.005872997347148603 -0.006297709325437976 -0.006439916092350779 -0.0065821228592635814
          -0.0005210386964611858 -0.0005247228816957696 -0.0005284070669303533 -0.0008048375742004859 -0.0008033786769516074 -0.000801919779702729
          -0.0011954301302196614 -0.0011883884808430434 -0.0011813468314664252 -0.0017044556971891468 -0.0016936875025619473 -0.0016829193079347482
          -0.002336874773580203 -0.002324766840214449 -0.0023126589068486955 -0.0030929934334366165 -0.0030820429030283076 -0.0030710923726199996
          -0.003967897841242312 -0.003964284115590322 -0.0039606703899383346 -0.00490527360255453 -0.004928556116537282 -0.0049518386305200356
          -0.005666734542021438 -0.005743823515823831 -0.005820912489626224 -0.005907866866648236 -0.006045115894767521 -0.006182364922886805
          -0.0007329823352884776 -0.000720300939672522 -0.0007076195440565661 -0.0010726998937612923 -0.0010568743467735781 -0.001041048799785864
          -0.001518735718211418 -0.0015025252908249097 -0.0014863148634384014 -0.0020802557874140047 -0.0020665447181110763 -0.002052833648808148
          -0.002751637756257783 -0.0027428127842773443 -0.0027339878122969044 -0.0035086116300249966 -0.0035071328500624354 -0.003505654070099874
          -0.004292507150016461 -0.004304501351952955 -0.004316495553889449 -0.004992415903713424 -0.0050314404507606604 -0.005070464997807898
          -0.005428413988288025 -0.00550838775520033 -0.005588361522112636 -0.00535934573975265 -0.005481263506304023 -0.005603181272855396
          -0.001992972656147973 -0.001977576554096846 -0.001962180452045719 -0.0026019440302083177 -0.0025920802373607674 -0.002582216444513216
          -0.0032833831561802176 -0.003281140507995307 -0.0032788978598103963 -0.003982885707411591 -0.003990376307496278 -0.0039978669075809645
          -0.0045957839084184 -0.004618404804620724 -0.004641025700823047 -0.004958393457405769 -0.005002608695028446 -0.0050468239326511245
          -0.004929440108646534 -0.004994297787196336 -0.005059155465746139 -0.004598573672405852 -0.004676408777740969 -0.004754243883076085
          -1.7030631491336926e-9 -0.00007680451729051205 -0.00009653755739764044 0 -0.00011638746203469958 -0.0001161731633780575
          -0.00009451828252523187 -1.1265783487770592e-7 -0.00023277322100625003 -0.00015554180946560293 -0.00009249900765282329 -2.2531566975541185e-7
          0 0 0.000013176427866581404 0 0.000026352855733162808 0
          0 0 0 -0.00009166658019686417 0.00000968206874859851 -0.000014541198634622292
          -0.00018333316039372834 0.00001936413749719702 -0.000029082397269244587 -0.012036610521357892 -0.010876434097243034 -0.016474232745704198
          -0.01635332623297638 -0.011252421376401069 -0.010553594102842085 -0.015375826116156925 -0.015059697550140893 -0.010468232231444243
          -0.01023075410844114 -0.014277419486609655 -0.013766068867305404 -0.002414949703234212 -0.0022570180065413217 -0.0006768082964789311
          -0.0010604946537795996 -0.0031229503150836894 -0.002088327067209823 -0.000709539631166187 -0.0014799929011116509 -0.003830950926933166
          -0.0019196361278783227 -0.0007422709658534431 -0.0018994911484437028 -0.0075588158573396905 -0.007808967262372171 -0.007935901461369153
          -0.00749207175297818 -0.007741523680459364 -0.008093663939303546 -0.008077315466954135 -0.007552422148801403 -0.007924231503579038
          -0.00837836061623492 -0.008218729472539116 -0.0076127725446246235 -0.006257099358571428 -0.006447134100297356 -0.0052158624671863624
          -0.004317216923230093 -0.006561434881937079 -0.006740234468544357 -0.005386261229219322 -0.004476671142237705 -0.00686577040530273
          -0.007033334836791357 -0.005556659991252282 -0.004636125361245316 -0.004788054784059853 -0.00558607265631205 -0.004911385913285332
          -0.005740521861833659 -0.00503471704251081 -0.005894971067355268 -0.00878079387696614 -0.008702144039226891 -0.008713624227748098
          -0.008910159865086803 -0.008646454578530055 -0.009118175690946716 -7.983353258150008e-7 0 0
          0.00003895595238491822 -0.00011870978600197078 -0.00023263815324218865 -0.0001061229912498142 0.000007669922561126515 -0.00023662123667812654
          -0.0004652763064843773 -0.0002122459824996284 -0.000023616107262665196 -0.008194378832405522 -0.00870018780145734 -0.01376335722348906
          -0.011636613281699806 -0.007578246342266994 -0.00811931321726285 -0.012597010170319 -0.010660203180943151 -0.006962113852128467
          -0.007538438633068359 -0.011430663117148937 -0.0096837930801865 -0.01199708969312977 -0.02074777652353551 -0.011668398433823723
          -0.019518550003372694 -0.011339707174517677 -0.01828932348320988 -0.0001964002179700682 -0.000384465286808035 -0.00007960854085268293
          -0.000023248748210080676 -0.00019923971993866617 -0.0003868768853442523 -0.0000796481028357674 -0.00002374773550117217 -0.00020207922190726413
          -0.0003892884838804696 -0.00007968766481885188 -0.000024246722792263658 -0.02956747136996383 -0.03942541613461861 -0.03719047316950258
          -0.027555754611428278 -0.02840303716974405 -0.036626331175917154 -0.03438707201763953 -0.026520306431684876 -0.027238602969524267
          -0.033827246217215695 -0.03158367086577648 -0.025484858251941477 0 0 0
          0 0.0003026733699244582 0.000039028573078565844 -0.00004442039955710828 0.00020373624595883445 0.0006053467398489164
          0.00007805714615713169 -0.00008884079911421655 0.0004074724919176689 -0.006992936461109134 -0.0074569936119636355 -0.007364321396826175
          -0.007860317194561098 -0.0077357063325432145 -0.008263640777158562 -0.008391759144983696 -0.008109823901535858 -0.007827888658088023
          -0.00003523495655303056 -0.00018343350488471774 -0.0005634976890814559 -0.00037847980805410706 -0.0010917604216098811 -0.0005735261112234962
          -0.0002990158592503497 -0.0009225864603767632 -0.00038914510764877713 -0.00041842569391562694 -0.00040272464969913805 -0.0001677252412109081
          -0.0005378355285809043 0.00011713716097848712 0.00005369462522696099 -0.006957714175666263 -0.00522273275197661 -0.009543220488148027
          -0.00837862898496274 -0.007529571740094363 -0.005854473102083862 -0.010583931040601752 -0.00884225017730777 -0.008101429304522463
          -0.0064862134521911155 -0.011624641593055476 -0.009305871369652797 -0.01632626686306378 -0.01805210604286828 -0.02099785593455525
          -0.014855144835295623 -0.01636313904191617 -0.01890197408625684 -0.013384022807527467 -0.014674172040964066 -0.016806092237958436
          -0.0041742703760566475 -0.006175107638991255 -0.004276220259019062 -0.006354186947928905 -0.004378170141981475 -0.006533266256866555
          0.00013122839675549375 -0.00042407151853222225 -0.001023378303439803 -0.0010853293218213678 -0.0021779850036351 -0.0017465871251105137
          -0.0028824881612106467 -0.0018130809008168102 -0.003239770373589333 -0.0019351866980617137 -0.00359705258596802 -0.002057292495306617
          -0.031149248800282945 -0.02950209638910624 -0.032984034254595035 -0.03267414172633915 -0.02773664965464773 -0.0264950535481554
          -0.02959964405451951 -0.02898773539577714 -0.024324050509012516 -0.023488010707204566 -0.026215253854443978 -0.025301329065215136
          -0.007646437177841764 -0.007432613621596341 -0.007680712640591227 -0.0080255245410565 -0.008004850872375213 -0.008168165234133818
          -0.008404611904271237 -0.008577088123154084 -0.008655617827676407 -0.0006267311427355531 -0.00034554694733691694 -0.000652156120588202
          -0.00035672759892805455 -0.000677581098440851 -0.00036790825051919227 -0.007129156438422124 -0.006542953971521107 -0.007398175918963726
          -0.0067727828161019245 -0.007667195399505326 -0.007002611660682741 -0.005597252429299308 -0.005440969316584169 -0.0060087963346473405
          -0.0058224564445225405 -0.006420340239995368 -0.00620394357246091 -0.003604469788578094 -0.00249883748859663 -0.003776867719352699
          -0.0025714015771412238 -0.003949265650127304 -0.0026439656656858175 0 0 0
          -0.00000215818429757288 0 0 -0.00000431636859514576 0 0
          -0.002727483203175566 -0.001473477238329377 -0.0030299305418852738 -0.002768815037592128 -0.001493708981590683 -0.003103742786017347
          -0.0028101468720086904 -0.0015139407248519882 -0.0031775550301494206 -0.022542159127289685 -0.026890150268448487 -0.02757160742018239
          -0.020387848703327358 -0.02421165745051245 -0.024679881366826844 -0.018233538279365028 -0.021533164632576412 -0.021788155313471294
          -0.029156207367680424 -0.026015806288800777 -0.02287540520992113 0 0 0
          0 0 0 0 0 0
          0 0 0 -0.022009558677826252 -0.02665344795051262 -0.020178859869925972
          -0.024348574377412505 -0.018348161062025692 -0.022043700804312387 0 0 0
          0 0 0 -0.037383765320217956 -0.031210171655872976 -0.03391048012913523
          -0.028805065533102157 -0.030437194938052498 -0.026399959410331342 -0.015803784067032353 -0.01848664123435051 -0.01587713456788948
          -0.019050553920397634 -0.015950485068746603 -0.019614466606444763 0 0 0
          -0.003838859708642577 -0.003904689306969686 -0.003970518905296795 -0.004599891719696054 -0.0006319923644863818 -0.006284289222514435
          -0.0019338053004552668 -0.007968686725332817 -0.0032356182364241515 -0.0040429181532618255 -0.004166431238871979 -0.004289944324482132
          0.00023934958423423724 -0.0006398052416151397 -0.0015189600674645166 0 -0.00000215818429757288 -0.00000431636859514576
          -0.001018786551328259 -0.0010435097347461836 -0.001068232918164108 0 0 0
          0.00060012954487732 -0.00014426910843900342 -0.0008886677617553269 -0.012598976008945226 -0.013769251387969805 -0.014939526766994385
          -0.03805019819680103 -0.03444920670815516 -0.030848215219509298 -0.007495048015799749 -0.006911068259730752 -0.0063270885036617545
          0 0 0 0 0.0001978742479312475 0.000395748495862495
          -0.00331271852855727 -0.0033164735644993304 -0.0033202286004413908 -0.0038821403154521874 -0.0038920837203938246 -0.0039020271253354622
          -0.003929379232285578 -0.003938430895242861 -0.003947482558200144 -0.0043172578396319695 -0.004330297631576685 -0.004343337423521403
          -0.00445692525064904 -0.004471833694130816 -0.004486742137612592 -0.004761031443240259 -0.004784258115166688 -0.004807484787093117
          -0.004671656090699736 -0.004702518649688231 -0.004733381208676727 -0.004066983094086798 -0.0040942549044142105 -0.004121526714741623
          -0.002909890968475208 -0.002919273091163694 -0.0029286552138521786 -0.0029046159495694415 -0.0018363773927029094 -0.0029220330216149296
          -0.0018404319620815499 -0.002939450093660418 -0.00184448653146019 -0.000637047711726465 -0.00022932962143078927 -0.0002432232143168303
          -0.0008896867298278373 -0.0006270361574679302 -0.0002235668343678336 -0.00023927091134111662 -0.0008856902171416695 -0.0006170246032093953
          -0.000217804047304878 -0.0002353186083654029 -0.0008816937044555017 -0.00000999049244152719 -0.000009780285547299454 -0.00000957007865307172
          -0.0012924058145632642 -0.0012782898857707885 -0.001264173956978313 -0.000050358455377397365 -0.000048685602014897255 -0.00004701274865239715
          -0.0042498971260493245 -0.004076165041279014 -0.004260499841180224 -0.00408476498971088 -0.004271102556311124 -0.004093364938142748
          -0.004565405361171679 -0.004581153337733551 -0.004596901314295423 -0.0041875147325399825 -0.004199238053900094 -0.004210961375260204
          -0.004497253762051076 -0.004515263935738999 -0.004533274109426921 -0.003983839160949925 -0.003999966062223574 -0.004016092963497222
          -0.002987162933481978 -0.0029908447206809068 -0.0029945265078798354 -0.001767507501870924 -0.0017569572782547482 -0.001746407054638573
          -0.0007655068063071016 -0.0007547029734863793 -0.0007438991406656569 -0.000012233477175347404 -0.00020359007716018598 -0.00014559520785025244
          -0.00001272182154126759 -0.00019958798022323612 -0.0001454704598169449 -0.000013210165907187779 -0.0001955858832862863 -0.00014534571178363739
        </DataArray>
        <DataArray type="Float64" Name="pe33" format="ascii" RangeMin="-0.05212111879747669" RangeMax="0.0013349437624279158">
          -0.00003214932303213603 -0.00002738366966692607 -0.0000404557581230588 -0.00003450421874874792 -0.000048762193213981576 -0.00004162476783056977
          -0.00003094895903980243 -0.00001810697302389528 -0.000048407367693786916 -0.00003400680220476548 -0.00006586577634777141 -0.00004990663138563568
          -0.00010762590723754017 -0.0000802255276235056 -0.0001436542445181261 -0.00011416606090941406 -0.00017968258179871204 -0.0001481065941953225
          -0.00041982626950015867 -0.00037094627682746035 -0.0004907025807153577 -0.0004401558774954912 -0.0005615788919305568 -0.0005093654781635221
          -0.0012433751808848665 -0.0011763201246047356 -0.0013544477525893367 -0.0012885730260474846 -0.0014655203242938068 -0.0014008259274902331
          -0.0029047599894432407 -0.002837455162007868 -0.003027064822565223 -0.002964268324503521 -0.003149369655687205 -0.003091081486999175
          -0.0057314503913936145 -0.005695621083746492 -0.005803992535340781 -0.0057724762576092156 -0.005876534679287949 -0.005849331431471939
          -0.010142532068033635 -0.010199640377835438 -0.0100838907911037 -0.010142078957387939 -0.010025249514173766 -0.01008451753694044
          -0.017572650111293713 -0.01798680887768522 -0.01726212429647931 -0.01766172795523622 -0.016951598481664915 -0.017336647032787218
          -0.02717267242110713 -0.027134662843603975 -0.02656936538601289 -0.026551041420731288 -0.025966058350918652 -0.025967419997858607
          -0.00004808709672874974 -0.000060347015231838364 -0.00007260693373492699 -0.00007196888857336877 -0.00009485685765565226 -0.00011774482673793574
          -0.00019361639329061348 -0.0002366435687935699 -0.0002796707442965264 -0.0005684907559945069 -0.0006440857466475038 -0.0007196807373005005
          -0.0014423623346882406 -0.0015491736333084272 -0.0016559849319286142 -0.0031014530611524673 -0.003210291972927017 -0.0033191308847015663
          -0.005832335442410488 -0.00589172164305928 -0.005951107843708072 -0.009970489536595777 -0.00991027554376263 -0.009850061550929483
          -0.016454161561776693 -0.016184650139560736 -0.015915138717344783 -0.0235540120003046 -0.02308528502791537 -0.02261655805552613
          -0.00008098312469502403 -0.0001009114099410088 -0.00012083969518699358 -0.0001496821981725422 -0.00018312333564162912 -0.000216564473110716
          -0.00034941787174165887 -0.0004043275365366738 -0.00045923720133168877 -0.0008230578644670461 -0.0009039381015752389 -0.0009848183386834315
          -0.0017674484893699326 -0.0018645336922136321 -0.0019616188950573317 -0.0034118064945437136 -0.0034982506050337814 -0.0035846947155238488
          -0.005977857262714357 -0.006016023676239212 -0.006054190089764068 -0.009686639912664267 -0.00962526162331789 -0.00956388333397151
          -0.014872984402477422 -0.014664581554089435 -0.014456178705701449 -0.019885350550165805 -0.019573185396221122 -0.01926102024227644
          -0.0001432662219144457 -0.0001752056608600104 -0.00020714509980557512 -0.0002826471698957321 -0.0003312074263816681 -0.0003797676828676042
          -0.0005937904328400779 -0.0006614343972601898 -0.0007290783616803017 -0.0011906676200451835 -0.0012713112861776291 -0.001351954952310075
          -0.0022081225918631877 -0.002286482135792375 -0.002364841679721563 -0.003808340556701766 -0.003863891499325649 -0.003919442441949531
          -0.006136582257793579 -0.006148403226147841 -0.006160224194502104 -0.009288087464947529 -0.009226019856863811 -0.009163952248780093
          -0.01305519053190594 -0.012920314970994929 -0.012785439410083919 -0.015240495178502123 -0.015121758289905312 -0.015003021401308504
          -0.0002585899994136609 -0.0003038497406734693 -0.0003491094819332777 -0.0005021142949363803 -0.0005634365576825737 -0.000624758820428767
          -0.0009514536596703107 -0.0010223321988988721 -0.0010932107381274336 -0.0016753886467908768 -0.0017416726427781342 -0.001807956638765392
          -0.002746003526205857 -0.002793146216956997 -0.002840288907708137 -0.004252958205065717 -0.004270986586790082 -0.004289014968514447
          -0.006266053167288733 -0.006251150199278398 -0.006236247231268063 -0.008764756485161338 -0.008708431105138591 -0.008652105725115848
          -0.011174559339304327 -0.01112013445860829 -0.011065709577912258 -0.01181440215770348 -0.011866873687111746 -0.011919345216520012
          -0.0004683923714471985 -0.0005145430076897825 -0.0005606936439323665 -0.0008509946202424099 -0.0009042431847663398 -0.0009574917492902698
          -0.0014475058526153299 -0.0014948405299520819 -0.0015421752072888341 -0.002276792051139691 -0.002304203354803927 -0.002331614658468163
          -0.003354364925038421 -0.0033549917292677004 -0.0033556185334969804 -0.004700273568086748 -0.004677891536667089 -0.004655509505247431
          -0.006316198099502585 -0.0062823474077674905 -0.006248496716032394 -0.008100218775165518 -0.00806734435506398 -0.008034469934962443
          -0.009319439398605413 -0.009355862419141535 -0.009392285439677656 -0.008928369635290801 -0.00913114989001351 -0.00933393014473622
          -0.000823787014801797 -0.0008369962812047485 -0.0008502055476077 -0.001366217721979119 -0.001369332218384018 -0.0013724467147889165
          -0.002093873456605917 -0.002076909363884188 -0.0020599452711624585 -0.002982509738785825 -0.0029409654191906755 -0.002899421099595525
          -0.003997908852826054 -0.0039381694941304085 -0.0038784301354347645 -0.005101373073455501 -0.005041781448669019 -0.0049821898238825366
          -0.00623889739107276 -0.006204400635071022 -0.006169903879069285 -0.007269330739178012 -0.007289220680888453 -0.007309110622598897
          -0.007505629194451125 -0.007650087129066322 -0.007794545063681517 -0.006483652157230213 -0.006794732198321843 -0.007105812239413473
          -0.0013297220280511367 -0.0013018562770558309 -0.0012739905260605246 -0.0020257837196930493 -0.0019751561269951055 -0.0019245285342971616
          -0.002850353433823151 -0.0027746318877012103 -0.0026989103415792698 -0.0037399320440100864 -0.003644906597318627 -0.0035498811506271674
          -0.004618907881464429 -0.004520557139639791 -0.004422206397815152 -0.005404102464830263 -0.005327750367672529 -0.0052513982705147955
          -0.006003767476876362 -0.0059787028966439585 -0.0059536383164115565 -0.006280799604361042 -0.006340896679059325 -0.00640099375375761
          -0.005763627997624416 -0.005956101869523508 -0.006148575741422602 -0.0044564841653278505 -0.004757054188881731 -0.005057624212435612
          -0.003436213498931499 -0.003365144282087133 -0.003294075065242768 -0.0042274418101118875 -0.00414396113458915 -0.004060480459066414
          -0.004904223947848016 -0.004821861697966198 -0.00473949944808438 -0.005367249683111253 -0.005304815246958626 -0.005242380810806001
          -0.005516682392865353 -0.0054937898006779855 -0.0054708972084906195 -0.005239836556763149 -0.005279926848153085 -0.005320017139543021
          -0.0042980506528081065 -0.004422363223743059 -0.004546675794678011 -0.0030168028368553397 -0.0032085428495006994 -0.0034002828621460604
          -1.3638393703854263e-9 -0.00005723091606673013 -0.00008125584260636822 0 0.00009651996732468559 0.0001923621780703663
          -0.00015916546904951886 -1.7307714700386693e-7 0.00019304129848874156 0.0004419552722074627 -0.00023707509549266952 -3.4615429400773386e-7
          0 0 0.000008699297748121178 0 0.000017398595496242356 0
          0 0 0 -0.0000018167223748021918 -3.7773020665637445e-7 0.000001422846632023308
          -0.000003633444749604385 -7.554604133127489e-7 0.0000028456932640466154 -0.032902942607111844 -0.02978964778353333 -0.03579299175494739
          -0.03656469034105454 -0.0323187712200103 -0.029352793284729183 -0.035356656591384664 -0.03601607882864625 -0.03173459983290875
          -0.028915938785925032 -0.03492032142782194 -0.03546746731623795 -0.00849517451536417 -0.004131816345310213 -0.0011093355381164539
          -0.004224283364968434 -0.009291279307289511 -0.004872454315554486 -0.002028165458647624 -0.005410263693381303 -0.010087384099214855
          -0.00561309228579876 -0.0029469953791787943 -0.0065962440217941735 -0.01898407187666552 -0.01858913318268246 -0.023548866776597132
          -0.023147904002582487 -0.018768746309929873 -0.018491571946124837 -0.023234394773164177 -0.02277072912557451 -0.018553420743194226
          -0.01839401070956721 -0.022919922769731222 -0.022393554248566528 -0.006284838501349843 -0.007586444783509492 -0.004536913195805363
          -0.0035450444469828798 -0.006785768353699267 -0.007938229927461706 -0.0050100770583269925 -0.004118116060123983 -0.007286698206048693
          -0.00829001507141392 -0.0054832409208486225 -0.004691187673265086 -0.003287774444587983 -0.004847589556253133 -0.003617641201782927
          -0.005259745083471091 -0.003947507958977872 -0.0056719006106890485 -0.027114941055981934 -0.02400318394806397 -0.02664743616886217
          -0.023754914132091014 -0.026179931281742407 -0.023506644316118052 -0.0000013023315352563532 0 0
          -0.00005097121607873412 0.00005372520366983121 0.000007448572940192308 -0.000015381814531850755 0.00046862428953614506 0.00010875273887491875
          0.000014897145880384614 -0.00003076362906370152 0.0009882197951510243 -0.03257892954368175 -0.031500108896186804 -0.03512333883050115
          -0.034558149423327376 -0.03190610365487457 -0.030805237655682313 -0.03445037546959033 -0.03389630471089567 -0.031233277766067387
          -0.03011036641517783 -0.0337774121086795 -0.033234459998463965 -0.02941308448594548 -0.03539604208687779 -0.029071740868381973
          -0.035123337267037855 -0.028730397250818464 -0.034850632447197924 -0.00015397124203086338 -0.00028768189776178746 -0.00005971530476956315
          -0.000016970660231588946 -0.0002214615090907621 -0.0003579470103254791 -0.0000694037598615545 -0.000021033274575520557 -0.0002889517761506609
          -0.0004282121228891706 -0.00007909221495354586 -0.00002509588891945217 -0.03935012586112398 -0.048328975533697804 -0.04613788243562328
          -0.03748922867687018 -0.03943120684740156 -0.04821834210567418 -0.04589665932531514 -0.03734556675734678 -0.039512287833679154
          -0.04810770867765056 -0.045655436215007 -0.03720190483782339 0 0 0
          0 -0.000089975381916884 -0.0000210465956236241 0.00001262622497971582 -0.00003675419219937558 -0.000179950763833768
          -0.00004209319124724819 0.000025252449959431634 -0.00007350838439875115 -0.010048197531483742 -0.009506127945754055 -0.010287755066382761
          -0.009852774505440162 -0.010527312601281784 -0.010199421065126271 -0.028084295111287412 -0.027531973459507232 -0.026979651807727045
          -7.858739556832577e-7 -0.00011417975770185184 0.0005198078053464414 0.0006103820023630318 0.0010404014846485661 0.0013349437624279158
          -0.00014303236956732455 -0.0011178590019228919 -0.00041741443900641825 0.0000620120522612387 -0.001493054358640442 -0.00043944868358289835
          0.0002670564740898019 -0.001868249715357992 -0.0004614829281593785 -0.014955284903344426 -0.013363383699425392 -0.022201503820673495
          -0.023288533412698764 -0.015562807304169484 -0.014111412593480747 -0.022303434219382492 -0.02322259415333307 -0.016170329704994543
          -0.014859441487536106 -0.022405364618091485 -0.02315665489396739 -0.03677997114098369 -0.03785342194512903 -0.03906964958917303
          -0.03607332979436095 -0.03725967747184144 -0.03847985389863683 -0.03536668844773822 -0.03666593299855384 -0.037890058208100645
          -0.00292374606881298 -0.006979388301963187 -0.0032922905391728685 -0.007351948773609632 -0.003660835009532757 -0.007724509245256077
          -0.00017866215717365206 -0.0019228225921292831 -0.0007282655413355501 -0.002808140188324051 -0.0012778689254974481 -0.003693457784518818
          -0.004009824889532276 -0.0018339180294884825 -0.004592140545241593 -0.0023820190547606123 -0.00517445620095091 -0.002930120080032742
          -0.04500282437016706 -0.043954977148624445 -0.04740542680506749 -0.04948747948312576 -0.04450585157664148 -0.04348322008291858
          -0.04706611001137178 -0.049172675523691756 -0.04400887878311589 -0.043011463017212696 -0.04672679321767607 -0.04885787156425775
          -0.013681760884709421 -0.013972506674571988 -0.01934486303156365 -0.013839284679051208 -0.014274611478793246 -0.01934002577574965
          -0.013996808473392996 -0.014576716283014508 -0.019335188519935653 -0.0005355711203104239 -0.00032973653904247923 -0.0007839859460346731
          -0.0005573719116760009 -0.0010324007717589221 -0.0007850072843095228 -0.013781704464936668 -0.010004336391912772 -0.013820322338850532
          -0.010210529405321998 -0.0138589402127644 -0.010416722418731225 -0.007234410836772468 -0.009333692600380764 -0.0077908643523839916
          -0.01011443262668753 -0.008347317867995517 -0.010895172652994292 -0.0036122553981018887 -0.001643563594540034 -0.0042869157401912135
          -0.0020764402010583155 -0.004961576082280538 -0.002509316807576597 0 0 0
          -3.1899094390858e-7 0 0 -6.3798188781716e-7 0 0
          -0.001567017716826921 -0.0008854039472990865 -0.0019172681670917091 -0.0017945051052667593 -0.0010576647010208681 -0.0022626167086831576
          -0.0020219924937065975 -0.00122992545474265 -0.0026079652502746056 -0.03957782543657508 -0.04129249397387592 -0.04086719756040608
          -0.038998200713957286 -0.04076422912235313 -0.04038707913456885 -0.03841857599133949 -0.04023596427083035 -0.03990696070873162
          -0.04225380260323226 -0.04178923613423974 -0.041324669665247206 0 0 0
          0 0 0 0 0 0
          0 0 0 -0.039309283096586656 -0.040959881704394144 -0.038787062132142544
          -0.040634240414931355 -0.038264841167698446 -0.04030859912546855 0 0 0
          0 0 0 -0.050169191726709673 -0.04173605470225472 -0.049942060765530615
          -0.04144177143156501 -0.04971492980435155 -0.04114748816087529 -0.030485748680804035 -0.02883932535065301 -0.030214476293942107
          -0.028831098713448026 -0.029943203907080176 -0.028822872076243043 0 0 0
          -0.002154677528334628 -0.0023857598658095724 -0.0026168422032845167 -0.015225406016497576 -0.009603125018367254 -0.015568749347455293
          -0.010301906925549907 -0.01591209267841301 -0.01100068883273256 -0.0027783727558522062 -0.0032430694012562824 -0.003707766046660358
          0.000025412271874537382 0.0006140339958503869 0.0012026557198262366 0 -3.1899094390858e-7 -6.3798188781716e-7
          -0.0007049895375887806 -0.0009294576947430206 -0.0011539258518972605 0 0 0
          -0.00021190913882618027 0.0005441019467675566 0.0013001130323612934 -0.02421829367949067 -0.024322346027288264 -0.02442639837508585
          -0.05212111879747669 -0.051950436183253304 -0.051779753569029904 -0.032470977536539374 -0.0318597748816066 -0.031248572226673828
          0 0 0 0 -0.00010644237943501683 -0.00021288475887003367
          -0.004222498081770356 -0.00418137730162934 -0.004140256521488324 -0.00402597888696949 -0.004011202823546688 -0.003996426760123885
          -0.004653582334981913 -0.004611320828874209 -0.004569059322766505 -0.0042053673304669895 -0.004188629562726184 -0.00417189179498538
          -0.00485683667907326 -0.0048211867566876464 -0.004785536834302033 -0.004747813894010876 -0.004726271133464809 -0.004704728372918742
          -0.004238272738152307 -0.0042430362285592795 -0.004247799718966252 -0.0032010796685891874 -0.00324328375648491 -0.0032854878443806324
          -0.0018523288768630252 -0.0019363411301186561 -0.0020203533833742875 -0.0015768243620423311 -0.0010986496347519883 -0.0017384466283739157
          -0.0012219573569556743 -0.0019000688947055002 -0.00134526507915936 -0.00047735069882746766 -0.00018839532646638317 -0.00017958590224242504
          -0.000580213080687644 -0.0004979792775983477 -0.00019369985414192692 -0.00019688518991178584 -0.0006404257016838486 -0.0005186078563692276
          -0.0001990043818174707 -0.00021418447758114666 -0.0007006383226800532 -0.000008996181342695802 -0.00000915768376948888 -0.00000931918619628196
          -0.0008895977791183282 -0.000937084467149763 -0.0009845711551811978 -0.000039304154766623604 -0.00003886002045031967 -0.00003841588613401574
          -0.0037507233390304756 -0.00380357116862966 -0.0037392049693410105 -0.003792011784554438 -0.0037276865996515455 -0.003780452400479215
          -0.0041771088540056844 -0.004160077463022749 -0.004143046072039813 -0.003503594529154312 -0.003493579733513699 -0.0034835649378730862
          -0.003879382975140714 -0.0038647169564058914 -0.003850050937671068 -0.0032580413518919827 -0.0032532105443234113 -0.0032483797367548395
          -0.002298710447503014 -0.00231065844886927 -0.0023226064502355256 -0.001302506837840963 -0.0013224002410868573 -0.0013422936443327517
          -0.0005954018471011896 -0.0006089955517730838 -0.0006225892564449783 -0.00001462000671912649 -0.00018802632982747863 -0.000144955821340406
          -0.00001544056917363026 -0.0001903456035898942 -0.00014762747994928393 -0.000016261131628134027 -0.00019266487735230983 -0.00015029913855816186
        </DataArray>
        <DataArray type="Float64" Name="disp_x" format="ascii" RangeMin="0" RangeMax="0.00003160059235547846">
          1.4687000348304084e-7 0 1.485701947914836e-7 0 1.5226119121194463e-7 0
          1.409714800124151e-7 0 1.4379890006401606e-7 0 1.5252447952719832e-7 0
          1.4282363833909777e-7 0 1.4889647721952492e-7 0 1.6823753043436648e-7 0
          1.8602141681702212e-7 0 1.9523301389186577e-7 0 2.25916796740204e-7 0
          3.0418187682482527e-7 0 3.1617150521830565e-7 0 3.5420490088343294e-7 0
          5.392742553182162e-7 0 5.499689604511843e-7 0 5.836353938883154e-7 0
          9.330239387323606e-7 0 9.356162380441601e-7 0 9.455018266466251e-7 0
          0.0000015313384644979739 0 0.000001515044153962235 0 0.0000014726241741662672 0
          0.0000024225274293721363 0 0.0000023770958631127727 0 0.000002234690587190363 0
          0.000004129833178635058 0 0.000004025777461563141 0 0.000003675181485183572 0
          2.952732306475535e-7 2.9905443701943646e-7 3.0801210681747206e-7 2.847656744835822e-7 2.912121752565604e-7 3.108113547982456e-7
          2.962944436522531e-7 3.0914798788697986e-7 3.503317563738347e-7 3.9065179593364913e-7 4.095954630144729e-7 4.7144892784879915e-7
          6.335792133854751e-7 6.570393469809912e-7 7.316028161629067e-7 0.0000011066092271924487 0.0000011269507472213978 0.0000011910077350817282
          0.0000018913306624445683 0.0000018952519016943546 0.0000019116369603998456 0.0000030748381420741834 0.0000030440337065078476 0.0000029610239813725515
          0.0000048330349392586135 0.000004744159468954932 0.000004476319559572769 0.000008054454223670178 0.000007857847169245509 0.000007213289625024293
          4.456874435838971e-7 4.5166838357184907e-7 4.6890559347900596e-7 4.3582618286214166e-7 4.479844322677874e-7 4.859786589958785e-7
          4.732949176202741e-7 4.938799937940749e-7 5.597955544401643e-7 6.327075027278026e-7 6.620084097538545e-7 7.560700543521434e-7
          0.0000010128428218858839 0.0000010468879783291613 0.0000011543998066340677 0.0000017285013050568107 0.0000017563182171819797 0.0000018441937726604112
          0.0000028973485109539664 0.0000029006859754478315 0.0000029177546345089595 0.000004643094611631364 0.000004599278699049557 0.000004478232352868298
          0.0000071977463605557715 0.000007073133211799547 0.00000670803790987281 0.000011595926088908633 0.000011333821604872447 0.000010492282656889906
          5.993933671471727e-7 6.108775490707515e-7 6.453079828745476e-7 6.055802489294865e-7 6.257425520371763e-7 6.88012773269575e-7
          6.869295056665191e-7 7.16931806250673e-7 8.120134233586597e-7 9.322787128400401e-7 9.7219679307501e-7 0.0000010976080782156766
          0.0000014656477686346272 0.0000015085241474484428 0.0000016428203961510614 0.0000024280798843474825 0.000002460205209317409 0.0000025623596830325208
          0.000003968674029616849 0.0000039691005888274045 0.000003979402269523739 0.00000623727799686255 0.00000618156294419131 0.000006025943545462015
          0.000009484617829190665 0.000009336112872100082 0.000008904940980304021 0.000014613128918988346 0.000014322865711376027 0.000013409191831392386
          7.66136976535592e-7 7.863932017908373e-7 8.461055052262476e-7 8.066048741429478e-7 8.369363324512571e-7 9.29480180870337e-7
          9.540071119780069e-7 9.948156158259837e-7 0.0000011216305366411595 0.0000013101501767612495 0.0000013594006901250598 0.0000015121165629925636
          0.0000020135827482567096 0.000002062052213225546 0.0000022135166710877726 0.0000032236243375981484 0.0000032561682092901766 0.000003360858355808195
          0.000005113109295949871 0.000005108044542207722 0.000005103898610238092 0.000007847184617138278 0.000007782268836530598 0.000007596721871519666
          0.000011649500791302607 0.000011487084543770507 0.000011022058667200034 0.000017155769365895134 0.00001687177993360871 0.00001598450403267736
          9.60655239833396e-7 9.909959165623267e-7 0.0000010809317662954334 0.0000010570395702334533 0.0000010977149631960712 0.0000012223539112116756
          0.0000012959984669977878 0.0000013457558055132623 0.0000015007058451795388 0.0000017873350680878536 0.0000018416875956914416 0.000002011920511168196
          0.000002674557038341522 0.000002723423879349282 0.000002878471459106928 0.000004125886557634957 0.000004154480382730736 0.00000424892658569629
          0.000006327848887682543 0.000006315892445301975 0.000006291308825403242 0.000009448296909699128 0.000009377624411868121 0.000009169522503444836
          0.000013655476063864512 0.000013492758198038054 0.0000130239178832952 0.00001924467026788961 0.000018991710031915135 0.000018202197467050906
          0.0000012053581535895911 0.0000012413085725504508 0.0000013567925959822372 0.000001382570989881488 0.0000014272231182537104 0.0000015740274555724128
          0.0000017382358785962636 0.0000017888094787322475 0.0000019565186202588893 0.0000023839672802823405 0.0000024348728666673123 0.000002603982863841319
          0.000003460746393035016 0.000003502841999711684 0.0000036436074126719664 0.000005136531288536518 0.000005157119761062137 0.0000052290656921339355
          0.000007598217601903366 0.000007580492653994545 0.000007533873760058965 0.000011007036482149505 0.000010937061035976422 0.000010719706902513996
          0.000015459740573253196 0.000015314457804118002 0.00001487490417736032 0.000020920221077355762 0.000020722673801014843 0.000020080769146266843
          0.0000015281451013609765 0.0000015572002175762017 0.0000016758384795592343 0.0000018117294280477944 0.0000018466662396123365 0.000001986805178101224
          0.0000023049303475232366 0.000002342850605825051 0.0000024917682343953253 0.0000031154231902350414 0.0000031516889992085787 0.0000032907499317957575
          0.000004376189826110661 0.000004404070180264108 0.000004509079636444108 0.000006246642418963006 0.000006256934221448997 0.000006296729725786123
          0.00000890090693200257 0.00000888177590267612 0.000008819162005386243 0.00001248081079422469 0.000012423431854506404 0.000012221339169445605
          0.000017025815927401656 0.000016917342096175664 0.000016550713454007918 0.00002225240756487241 0.000022124215558827027 0.000021663933118673827
          0.0000029997169271890175 0.0000030302927312959152 0.00000312834970122596 0.0000039777969701876585 0.000004004838371051056 0.000004090349177181041
          0.000005408164590365073 0.000005426715183811966 0.000005483492427626973 0.000007434763989922409 0.000007438136742665766 0.000007445634380127645
          0.000010210199989531177 0.000010190074496901077 0.00001012431309221174 0.000013846182669739272 0.000013796307218192914 0.000013634669095509821
          0.00001834108952542621 0.0000182556035780939 0.000017992513004279946 0.000023301334083496933 0.000023208538624192925 0.000022918491103653373
          0.000029825975839524163 0.000029235335491807336 0.000029233227767399562 0.000029824172954571493 0.00002982921073258688 0.000029222242235499243
          0.000029237240695200802 0.000029824592191324394 0.000029797340324585803 0.000029317399580461747 0.00002924196300165174 0.000029827594354139866
          0.000030381790520605356 0.000030418085997455345 0.000030375123363302344 0.00003041742169338024 0.000030404601622739256 0.000030428156281659242
          0.00003034476933899389 0.000030772882526212756 0.000030786839191824985 0.000030326818169486588 0.00003076673917179966 0.000030771558048131875
          0.00003036332010977476 0.000030785587417287105 0.000030812359229944655 0.000007988450449116953 0.000012055057889399265 0.000009640485425409492
          0.000006917498770606048 0.000007675579713872194 0.000011636939376003828 0.000009257322251533781 0.0000066198048929191655 0.000006752889108199843
          0.00001032017853860489 0.000008065976792012011 0.00000575733585639717 0.000026315325452065753 0.000026914090246267138 0.000028089914303159538
          0.00002766028830136889 0.000026122973478285478 0.0000267551124956211 0.00002819799757744187 0.00002763519985555933 0.000025201164521151603
          0.00002593245440757974 0.00002844530653508884 0.000027500186939365247 0.000015218674005035324 0.000016771553139286605 0.00001404017503117294
          0.000012499485261870173 0.000014877909846922438 0.000016362603915911217 0.000013634704687733729 0.000012183611984565466 0.00001377870675924612
          0.000015089129799265729 0.000012381098597671547 0.000011157599978297594 0.000023610400649383362 0.000022048149391084846 0.000023879760851278956
          0.000025329668064120667 0.000023360205872210345 0.000021767572051536715 0.00002369188546567583 0.000025176776173223456 0.000022510072775658292
          0.000020901488501683537 0.000023079749005544846 0.00002457242959880707 0.000023803585257486502 0.00002269017145485661 0.000023683024585398672
          0.000022519139433750664 0.00002327654252599102 0.000021942364157701712 0.000011876578880268218 0.00001530794127751326 0.0000114982861132121
          0.00001486412098776706 0.00001031871197851704 0.000013454160021791606 0.000030060336788253766 0.000030500641413651728 0.00003060159009353688
          0.000030021982034088176 0.00003005533102845689 0.000030487683501453215 0.00003058160002374489 0.0000300149431387905 0.000029975431897127773
          0.00003043354943064135 0.00003050744295175923 0.000029933454022719173 0.0000023083234436877433 0.000005094100337613363 0.000003850707972463471
          0 0.0000022569307057612106 0.000004950594544179281 0.0000036985012222387373 0 0.0000020255675270199694
          0.0000044379065248335895 0.000003240658220659782 0 0.00001421954182984759 0.00001250543861316983 0.000013743379174871553
          0.000012058320972267943 0.00001215943616635344 0.000010475697401234305 0.000029096525388148254 0.000028797418169562375 0.000029619449511479453
          0.000029854318528467124 0.0000291005265127203 0.000028794780696047972 0.000029619564068638625 0.00002985431460583407 0.00002908161051203158
          0.000028772800266308565 0.00002961820785580553 0.000029855046470132834 0.000018009920696816767 0.000009666457686843855 0.000009357375605781775
          0.000015767139505516273 0.000017784516703503658 0.000009494831774688572 0.000009129539538349265 0.00001533219604570071 0.00001594166006427683
          0.000008216003699057168 0.000007722243401980945 0.000013143221194742184 0.00003119416426444555 0.00003090881894687574 0.0000308420089232192
          0.00003116815958826243 0.00003114855147736326 0.00003087307439730121 0.00003081395676062942 0.000031149478386087386 0.00003127127531612354
          0.000030907926792772986 0.00003089070861883865 0.000031099590029163536 0.000020875598708179932 0.000021666536616358823 0.000020560501907344942
          0.000021340706086506526 0.00001954243023774056 0.000020265676576541323 0.00000915864643684137 0.000008876565015978667 0.000007984956913688936
          0.000029540796579189026 0.000028984826707433856 0.00002953487349868175 0.000028992629624751248 0.000029423173071230154 0.00002934959815305976
          0.000028536790436189493 0.000028012027676489375 0.000028603081446508457 0.00002861825433349584 0.000027879594482903743 0.000028574421560951316
          0.00002916593733346287 0.000027475768470947962 0.00002842598768888369 0.00002190728851837008 0.00002380481493581133 0.000021755227079549657
          0.000018186984546052678 0.000021406107629755997 0.000023335948951509395 0.00002117567633163082 0.000017616083345956586 0.000019902402564611322
          0.000021912550183998813 0.000019305332462130328 0.00001580955365882534 0 0.0000037258682383628617 0
          0 0.0000035599531683159773 0 0 0.000003098648898311628 0
          0.0000250263156954152 0.000021558869955007764 0.000024910383464547114 0.000021312113601186274 0.000024514265551343494 0.000020561692786043043
          0.000028715957413322174 0.00002889182514418973 0.000028762645646293235 0.000028738879763465025 0.000028716350296688914 0.000028208086082915002
          0.00002635217532374402 0.000027502086546423408 0.000026173049467015768 0.00002740157147245554 0.000025398924624706586 0.000027013416407324207
          0 0.000003819788484340512 0.000004663248385805268 0 0 0.000003648977104898169
          0.00000450575267285301 0 0 0.000003045950077293054 0.0000036843169411160892 0
          0.000019546666839486582 0.000020958048041419037 0.000018183224307725645 0.000019163044734974855 0.000020557055921614656 0.000017734871176209832
          0.000017946988347960535 0.000019227060254346465 0.000016319079764674426 0.00002843925864487021 0.00002873435315772255 0.000028428151922923046
          0.000028730081794405905 0.000028328707307284083 0.00002865818944686721 0.000018176107463211622 0.00001988192390110775 0.00001783701940778521
          0.000019587431444116813 0.000016759729544405854 0.00001867168681951142 0.00002439287636760628 0.000024665719019244574 0.00002411460153799135
          0.000024299401417415298 0.000023097173636023016 0.000023089221218256453 0.000025848889307235237 0.000027036226580608195 0.000025671782977847423
          0.000026956026801465734 0.000024987609411065522 0.00002664382990937163 0.00003112306364797337 0.000030802853371761935 0.00003110374759006374
          0.00003110873662635792 0.0000307983484385416 0.00003109489347102987 0.00003111105724087401 0.000030815873387815685 0.000031103856368273275
          0.000026584281562909206 0.000027902751065783888 0.000026403118123390726 0.000026524399204147104 0.00002787929116638915 0.00002631382195053499
          0.00002633393227114346 0.000027797923964994652 0.000025993321836715098 0.0000033656548014621764 0.0000027272672802045043 0
          0.000003219683068179853 0.0000026035845155431 0 0.000002726630096765197 0.0000021865142255128776 0
          0 0 0 0.000031080452097679714 0.00003078035883763489 0.00003067258328816182
          0.000031073874360531256 0.000031077392620110395 0.000030779600127174115 0.000030672762813256395 0.0000310722558794243 0.00003108755091256785
          0.00003079208553117947 0.0000306841098757938 0.00003108265458049558 0.000006328065268661955 0.000007355630202012418 0.000006056868457514903
          0.000007056954705251975 0.000005170769476275858 0.000006040143567852727 0.00003080586088064219 0.00003108932564441787 0.000030803880951611305
          0.000031084049540753995 0.000030817528148366756 0.000031094822952460766 0.000005064369419813787 0.000009961280085278517 0.000004945827921130696
          0.000009622598367995017 0.000004141820820987771 0.000007997827555633658 0.000017421932265772943 0.000020572800059777928 0.000016864537827414918
          0.000020166544072342266 0.000014786933742764566 0.000018155717641791104 0.000030413828747171253 0.00003041417297896411 0.00003042465421680387
          0.00002501028429108454 0.000024911646803977066 0.00002464314351276201 0.000025707176501126766 0.00002741350221100389 0.000025475829022649912
          0.000027345732981532447 0.000023964622305661683 0.00002680292263148059 0.000025520772853467827 0.000025408889620237107 0.000024946232714425493
          0.00002915029617584851 0.000029163560351156777 0.000029263794283422916 0.00003114597022809923 0.00003112718467447317 0.000031108914991387156
          0.000028066548741892565 0.000028043505464594177 0.000027922598242201005 0.0000303759551770499 0.00003037796726598235 0.000030385770740140897
          0.000029259587167657895 0.000029440461959047366 0.000029610633935265507 0.000025091229370457107 0.000024920950635834498 0.000023050782753373018
          0 0 0 0 0 0
          0.000031071106379716194 0.00003107100463679549 0.000031081581852122035 0.00003120666381732716 0.00003114012383765945 0.00003131611244558402
          0.000007824639535927529 0.000007825786767493373 0.000007808381324207831 0.000011908325643134747 0.000011897742968867872 0.000011878485201708046
          0.000009826890068689185 0.000009821160199178353 0.00000978654277502786 0.000014310820193008214 0.000014294833475191475 0.000014257511707166278
          0.000012304916463353656 0.00001229113217930314 0.000012239593166883314 0.000015307869724563447 0.000015284963120750993 0.00001521774887918498
          0.000018826780680371662 0.000018794452210645808 0.000018714519148241574 0.000022681875124043874 0.00002264459604731827 0.000022564438902193736
          0.000026468388745400946 0.000026451932491715356 0.000026406739149785507 0.00002648061428766637 0.000027547232604747094 0.000026439019004481022
          0.00002753851458000362 0.000026328466171469495 0.000027476790208047257 0.000029128706918846302 0.000029937432505952048 0.00002957013584471293
          0.000028609217038956364 0.000029126286990896138 0.00002993870307093222 0.000029570232127743672 0.00002860337573531519 0.00002911787614801849
          0.000029942575111692226 0.00002957259359707241 0.000028585745233862906 0.000030350493941107453 0.000030352292261677 0.000030361230245933437
          0.00002816043753262994 0.00002815657738156288 0.000028129259932139016 0.00003124905890030711 0.00003125041479129016 0.000031257242498707024
          0.000018664377033677943 0.000016083249080601805 0.000018651943992725712 0.00001607651828000297 0.00001861433464290754 0.000016055464152573193
          0.000017028882518647276 0.000017008722330968558 0.00001695522260750784 0.000021370397739841842 0.00002135301270552052 0.000021300317690570376
          0.000020012857336155717 0.00001999093667192541 0.000019924947582552996 0.000023133171065342678 0.000023111484624347498 0.00002303998441391848
          0.000026136882088138865 0.000026123630486722845 0.00002606035358258069 0.000028467901220638485 0.00002846229357661606 0.000028436646114469148
          0.00002938767421257767 0.00002938309126568993 0.00002937463230737184 0.00003159815593019004 0.00003037055996882419 0.000030976774210493454
          0.00003159909797969585 0.000030370016288133086 0.000030976604829397743 0.00003160059235547846 0.00003036741342987558 0.000030976471537943006
        </DataArray>
        <DataArray type="Float64" Name="disp_y" format="ascii" RangeMin="-0.000022564271362417325" RangeMax="-0.0000030806510064561954">
          -0.0000030840705573906174 -0.000003083600193771083 -0.0000030830375757205044 -0.0000030828047304850233 -0.0000030823710019776925 -0.0000030825458604362017
          -0.0000032534260597578144 -0.000003250941283064921 -0.000003250339946268804 -0.0000032483137355139405 -0.000003244945665537216 -0.000003244284216450184
          -0.0000034091545564521756 -0.0000034021717011907602 -0.0000034015116752470465 -0.0000033946615217238853 -0.0000033826659654227176 -0.0000033770857551003238
          -0.0000035796196876598323 -0.0000035623604725296672 -0.0000035639819076926326 -0.0000035467915457700463 -0.000003516876721529666 -0.0000035006464443297833
          -0.0000038184147928227765 -0.000003786199676197372 -0.0000037888209666272623 -0.000003756459617289151 -0.0000036935283597083465 -0.0000036611614619791807
          -0.000004198258434168499 -0.0000041462937796147935 -0.000004148315752697669 -0.0000040958408193477 -0.000003983694531418116 -0.000003929613555650877
          -0.000004805684586902317 -0.00000472885664062103 -0.000004729674770414139 -0.000004652197623880291 -0.000004479496194699955 -0.000004398469119449461
          -0.000005736862028273693 -0.00000562721590025163 -0.000005629026322689854 -0.000005517964785958734 -0.000005275805615222332 -0.000005159104378716603
          -0.000007094853926815182 -0.000006929969813980096 -0.000006950378238370134 -0.000006777177721913117 -0.000006448921283806267 -0.000006254505818809194
          -0.000008924965084496886 -0.000008638532507242219 -0.000008731929968532601 -0.000008434627943775373 -0.000007990884462375883 -0.000007625525578819908
          -0.0000030862499569418377 -0.0000030842935668855996 -0.0000030813409876547774 -0.0000032610690041113008 -0.00000325690763284414 -0.0000032481111050322413
          -0.0000034322653389190955 -0.000003424321406464459 -0.000003402105513524854 -0.0000036335492918750886 -0.0000036176129287793764 -0.000003568011537345079
          -0.000003917130842759916 -0.0000038880274332859555 -0.0000037929885509913357 -0.00000435569759343555 -0.000004307189869116164 -0.000004147187517174573
          -0.000005036648301689933 -0.0000049630653910866865 -0.000004723391619217563 -0.0000060664034712455485 -0.000005962904163638194 -0.0000056281123841374146
          -0.00000757956646619012 -0.000007451792099860313 -0.0000070030874985368335 -0.000009735865468933984 -0.00000956523731119562 -0.000008959504908592023
          -0.0000030905788889806725 -0.000003087300497279348 -0.0000030806510064561954 -0.0000032766850109373347 -0.000003271646154125688 -0.0000032580964567185068
          -0.0000034776015071476726 -0.000003468881285535398 -0.0000034412079009192163 -0.0000037299843440826677 -0.0000037138514319402475 -0.00000366063919934933
          -0.00000408825301345243 -0.0000040597641196313915 -0.000003965284650807022 -0.000004622306162538054 -0.00000457625779480979 -0.0000044240825031354315
          -0.000005421440921683675 -0.000005351971081215672 -0.0000051298877775179325 -0.000006613181269100768 -0.000006518100661548021 -0.0000062136765708055375
          -0.000008338242455568386 -0.00000823129531206451 -0.000007853170528803166 -0.00001063806567671068 -0.00001052470162435109 -0.000010132202855316624
          -0.000003099510267645517 -0.000003095356026443919 -0.0000030843065668360615 -0.0000033074350058437673 -0.000003301333170283165 -0.0000032814057991635557
          -0.000003552577886246464 -0.0000035427558768993836 -0.00000350842680044816 -0.0000038775056605266854 -0.000003861080125058988 -0.0000038035998237916063
          -0.000004338869415976724 -0.0000043114195050058 -0.000004218340681607821 -0.000005002488783277882 -0.000004959711964972409 -0.000004818911581591021
          -0.000005959421170161991 -0.000005896351590692159 -0.000005698246196197614 -0.0000073473786807866885 -0.000007263016212513498 -0.000006999516853880173
          -0.00000929333743164637 -0.000009212106160989212 -0.000008919947188249433 -0.000011765485096258373 -0.000011710434566716133 -0.000011526601784848498
          -0.0000031197867798679256 -0.0000031144559975705025 -0.000003097302436843205 -0.0000033606435707187663 -0.000003353162040802532 -0.0000033258469127570902
          -0.0000036660740093186237 -0.0000036552607985706675 -0.0000036140413171605296 -0.000004084895414541636 -0.000004068278824985095 -0.0000040072044585012455
          -0.0000046749826720602765 -0.000004648767566526539 -0.000004559237603158372 -0.000005498107365603555 -0.000005459262560117308 -0.000005333305325062409
          -0.000006641647501670997 -0.000006586445053636483 -0.00000641729141218894 -0.000008231776115866867 -0.000008162143246057996 -0.000007949523212845135
          -0.000010363070464214339 -0.000010308605761734985 -0.000010108576533311958 -0.000013002270664088461 -0.000012974729458621672 -0.000012924053806163117
          -0.0000031577729140607575 -0.0000031508326695340913 -0.000003126298451423071 -0.0000034449232307994263 -0.0000034359215380244924 -0.00000340082330570868
          -0.000003828160696207646 -0.000003816074916751248 -0.000003768406391454369 -0.000004360884534764405 -0.0000043436320314670345 -0.000004280047564937906
          -0.000005100313014406036 -0.000005075347616181744 -0.000004991556413895148 -0.0000061051763489103315 -0.0000060705506261619216 -0.000005962264737517657
          -0.000007448677228732023 -0.000007402612866459583 -0.00000726650134204829 -0.00000922676824133954 -0.000009174216629826926 -0.000009017444466293638
          -0.000011492829305566296 -0.000011458630541918996 -0.000011340782218972568 -0.000014123512105602019 -0.000014132339472025473 -0.000014187957244446583
          -0.00000322131238242511 -0.0000032123651339298452 -0.0000031795621188538414 -0.0000035703050975855193 -0.0000035590362089755064 -0.0000035158334453904144
          -0.000004048481689855126 -0.000004034076861632112 -0.000003980205266556958 -0.000004710861467395937 -0.000004692144054391013 -0.000004627357368207259
          -0.000005613390378272717 -0.000005589366592953562 -0.000005513080371481819 -0.0000068105037013012185 -0.000006780429701943052 -0.00000669175383216856
          -0.000008353565699597307 -0.000008317712318782494 -0.000008216994542622333 -0.000010288790143341298 -0.000010253775386423739 -0.00001015259176864452
          -0.000012619047313662605 -0.000012605348636846948 -0.000012561256522163216 -0.000015184698641883588 -0.000015208927233233263 -0.000015319293490148054
          -0.0000033204722282937157 -0.0000033081958329576737 -0.0000032659864084148475 -0.000003747033085119018 -0.0000037316825508403463 -0.0000036792496653358942
          -0.0000043338744377730205 -0.000004315607537073892 -0.000004255109009659494 -0.000005135604707725985 -0.000005114845504212343 -0.000005049189131598041
          -0.000006205529489133703 -0.000006182999828510312 -0.000006115011800554023 -0.0000075898513014327045 -0.000007566481886591604 -0.000007498846166350343
          -0.000009317967342309659 -0.000009295961009333336 -0.000009232298302022344 -0.000011376993235404146 -0.000011363240703850523 -0.000011317144757860779
          -0.000013702613209741765 -0.000013706909058566874 -0.000013722129529516577 -0.000016196761979952448 -0.000016222737605529103 -0.000016361878289086127
          -0.000004685445863547886 -0.000004664467195401339 -0.000004598950786298945 -0.000005629354147985262 -0.000005607184556835408 -0.000005543400894800075
          -0.000006860423846290129 -0.000006838858570940544 -0.000006782862832871734 -0.000008414644698207969 -0.000008395315071150798 -0.000008353304052000189
          -0.00001029918680684143 -0.000010284785078331946 -0.000010263214045908705 -0.000012461281599502336 -0.000012458953501321436 -0.000012472511525100384
          -0.000014753777958681947 -0.000014765776223611836 -0.00001483890319616149 -0.000016983036030492774 -0.000017024129079643656 -0.00001714499558133864
          -0.000017163823395140656 -0.000017171655619037618 -0.000017642316004110118 -0.000017772933152302796 -0.000017225877651206534 -0.000017236500595648937
          -0.000017694231407308497 -0.0000178194456860832 -0.000017368072524952986 -0.000017417168987326946 -0.000017853865175206044 -0.000017919907386055405
          -0.00001736963575079827 -0.00001784367896101952 -0.000017425547554028845 -0.000017882180179411283 -0.000017515594903668148 -0.000017971190550532257
          -0.000016858160695616915 -0.000017386067396854827 -0.000016983069102679965 -0.000016920460753450368 -0.00001743874262477586 -0.000017047424783901004
          -0.0000171446807251486 -0.000017532019020156592 -0.000017208669985539384 -0.00001074129167493464 -0.00001163754962580204 -0.000011825310865265925
          -0.000011428769237112701 -0.00001047563487797338 -0.00001144148778353386 -0.000011527437069603164 -0.00001108510403026812 -0.000009461078611012963
          -0.00001058664812255136 -0.000010313154528826268 -0.00000978692314838132 -0.000014938548186666194 -0.000015643081716690397 -0.000015609562529046394
          -0.000014984843994047786 -0.00001501276644470795 -0.000015916544572146452 -0.00001580491239552567 -0.00001505593391475847 -0.000015327954482191185
          -0.0000164278326564901 -0.00001593996776799262 -0.00001556575172182741 -0.00001187792321212276 -0.000012510710026183541 -0.000011626602908303848
          -0.000011127741111872448 -0.000011815103801652469 -0.000012476833926128195 -0.00001153467172145235 -0.000011009893021690383 -0.00001157624565172422
          -0.00001227109671239927 -0.000011129181709482132 -0.000010556541073768094 -0.00001565092893834832 -0.00001514857140674403 -0.000016240179059076293
          -0.00001655337161753414 -0.000015713918174332375 -0.000015179893103479174 -0.00001627967441645456 -0.000016616466223884784 -0.000015963418565119924
          -0.000015357637950876992 -0.00001649466048304996 -0.000016889516768614232 -0.000016927178427851303 -0.000015992745251117103 -0.000016967488624173192
          -0.000016022793774578158 -0.000017155877720975142 -0.000016188991127468317 -0.000011178888628208148 -0.000012028515184185159 -0.000011014154980843629
          -0.00001195269502970967 -0.000010357801254834482 -0.000011593744871879514 -0.000016355503877969546 -0.000016389044444743616 -0.00001586734683429207
          -0.00001564246523848136 -0.000016456125807901162 -0.000016465001280785898 -0.00001596198464298914 -0.000015736766187095977 -0.000016629791552995844
          -0.00001670592498834832 -0.00001627146920257053 -0.000016285327642649117 -0.000009148078388875495 -0.000009581505910942544 -0.000010107407073070597
          -0.00000948140096101028 -0.000008934451513827931 -0.000009358488183239882 -0.000009841148558378453 -0.000009230506136449561 -0.000008065073941133867
          -0.000008490598397235983 -0.000008759938056544753 -0.000008210525747975651 -0.000012511116359368419 -0.000012878948856836606 -0.000012330923840834128
          -0.000012565821375189214 -0.000011508201865889753 -0.000011264776020160369 -0.00001814436528764874 -0.000018810165238775778 -0.00001890849115863874
          -0.00001839224662578309 -0.000018188885510576065 -0.000018843614128923163 -0.000018937706839237015 -0.00001842552422323294 -0.00001832156420588721
          -0.000018941676474919467 -0.000019008512816425065 -0.000018508689088209114 -0.00001850748358855996 -0.000019955824617809574 -0.00001791287878570495
          -0.000015942394961833818 -0.000017888623432349326 -0.000019147398930140547 -0.000017180270024754914 -0.000015500054752449594 -0.000015858036819947336
          -0.00001554309264447267 -0.000014194703114489306 -0.000013994403377836923 -0.000016335632300050055 -0.000016289385591275278 -0.000016577580092412942
          -0.00001672549140851243 -0.000016412230200631857 -0.000016366698831321934 -0.000016637870378115352 -0.000016790267647790412 -0.000016635722192416572
          -0.00001669204221105163 -0.000016933024751223798 -0.000017023862570034875 -0.000014299185550566578 -0.000014521241221885291 -0.00001432040795826729
          -0.000014568998051355806 -0.000014435423571691286 -0.000014748095407152639 -0.000010304581063129041 -0.000010099503885978001 -0.000009369956125486916
          -0.00001652725215672861 -0.00001668686425002064 -0.000016637387757333743 -0.000016754327785036885 -0.000016838044423684692 -0.00001677995209466919
          -0.00001625051459912962 -0.000016394497880995278 -0.00001700186955870155 -0.00001616657568395281 -0.000016459132655012974 -0.000017040414825353575
          -0.000016231363168814626 -0.00001695343349698414 -0.000017376904093736827 -0.00001404502466405191 -0.000014446072626999374 -0.000013399729179728713
          -0.00001285713612986514 -0.000014164002033438627 -0.000014535322343963053 -0.000013417746545693923 -0.000012827758031745171 -0.000014347641806331767
          -0.000014783121419874806 -0.000013714905927292562 -0.000012641962216045653 -0.000010381031641044864 -0.00001118981778345246 -0.000011353949357720315
          -0.000010059777712572725 -0.000010821966657411162 -0.000010951608292914034 -0.000008809397122612594 -0.000009444361351396132 -0.000009437764764721446
          -0.000017240937422989854 -0.00001520215621292638 -0.000017288248639520195 -0.000015231739247923471 -0.000017509372436636227 -0.00001538071349248852
          -0.00001550602296327131 -0.0000148333155059943 -0.000015675033428405895 -0.0000148403426475376 -0.000016032912435207734 -0.000015735838708420793
          -0.0000160298122927496 -0.000016924188057810307 -0.000016131162598106083 -0.00001696578005506717 -0.000016548431588914053 -0.000017317536813442555
          -0.000016427785130816742 -0.00001489990628307991 -0.000016665654302782196 -0.000018268041501665293 -0.000015597314480404892 -0.000014232229085820633
          -0.000015910425530069587 -0.000017315636460685332 -0.00001241667360919688 -0.000011778139293509061 -0.000012888919508304282 -0.000013432545214719002
          -0.000013680531108126136 -0.000013957755751906957 -0.000012960640222932772 -0.000013695330580059917 -0.000014021910375635627 -0.00001294139293639314
          -0.000013697230306893368 -0.000014109877458336394 -0.000012745374586466894 -0.000017706310335182522 -0.000017465770347060718 -0.00001776119573172812
          -0.000017518844819633027 -0.000017968674121048623 -0.000017741332291690886 -0.00001315038835275469 -0.000014173373689351835 -0.000013128344054282098
          -0.000014168135741482948 -0.000013082601254783 -0.000014237246821617663 -0.00001553897718632381 -0.000015080107434252598 -0.00001563440566345521
          -0.000015228638237556796 -0.000015958229803228755 -0.000015584906208255546 -0.000016372139607825173 -0.000017427083295370046 -0.00001643657624512925
          -0.000017481249994536805 -0.000016760657637136956 -0.000017729041044048205 -0.000017456269993433874 -0.000017732094573617233 -0.00001779589940742361
          -0.00001750438259822232 -0.00001777264072968499 -0.00001783340667753182 -0.000017591936044116402 -0.000017852213655548526 -0.000017909947783948876
          -0.000018229855217908756 -0.00001864539940731815 -0.000017593253614604238 -0.000018271679081578044 -0.00001868521335719745 -0.00001764542531915466
          -0.000018424259834241354 -0.00001882630209987804 -0.000017875809808747784 -0.000012058084306404465 -0.00001339640857099902 -0.000012972068386276353
          -0.000011598345374962251 -0.00001283345668228126 -0.00001242944583127633 -0.000009951912480561122 -0.000010779699463717194 -0.000010412632385878815
          -0.00001464966051255956 -0.000013961384882003735 -0.00001140396555440314 -0.00001842551285912622 -0.000018310103131423817 -0.00001859321973473098
          -0.000018721748327249057 -0.00001845243019364262 -0.000018339812953193755 -0.000018619709572458268 -0.000018744998017542705 -0.000018516330930797563
          -0.000018408170908238788 -0.000018682738803712657 -0.000018801299020173655 -0.000012629889666251734 -0.00001394973009393773 -0.000012166937742720162
          -0.00001342094359008326 -0.000010522767867062347 -0.000011518474476555633 -0.00001804058496907414 -0.00001811741368863915 -0.0000180740467726086
          -0.000018148691326607197 -0.00001814910743956973 -0.000018218754960167936 -0.000017925603173556117 -0.000015489473101653275 -0.000017107187837824268
          -0.000014901280534603077 -0.000013696145560181034 -0.000012704462701979366 -0.000013627117884288067 -0.000014875838224705477 -0.00001341209984585074
          -0.00001466370575056557 -0.00001254613349003644 -0.000014363068860870976 -0.000018286140536344386 -0.000018318149194342637 -0.00001838998372148183
          -0.000017664354589715818 -0.000017715527941870633 -0.000017848621072357798 -0.000013894443988148368 -0.000013949945683283177 -0.000014042399584657512
          -0.000014093486681053168 -0.000014944212568748427 -0.000015755272588526784 -0.000016927236974102 -0.000016971315666046685 -0.00001720342645536048
          -0.00001586675114402294 -0.000015955997658453228 -0.00001651936401170287 -0.000017099073637620266 -0.000017158335116089034 -0.000017289262607792835
          -0.000018047488054614984 -0.000018100572189280884 -0.00001828630137999776 -0.000018975220864285046 -0.000018999021333147792 -0.000019053774892020937
          -0.00001518780825300007 -0.000015445902635731156 -0.00001617327721397397 -0.000015966591698980722 -0.000015759465614623835 -0.000015977583935982003
          -0.000020055248256823654 -0.00001900979320247483 -0.00001440095513265006 -0.000008952104612863094 -0.000008731582071170079 -0.000007849414862298119
          -0.000019005167733705023 -0.000019025537865485 -0.000019074707629929375 -0.000015946643387630793 -0.000016035184031180026 -0.000016276161828944672
          -0.000007849322323831543 -0.000007836092494559579 -0.000007795992347828607 -0.000010341260337532564 -0.000010334468073177099 -0.00001031398750051253
          -0.000009536857286876192 -0.0000095285711631045 -0.000009502404940971258 -0.000012260939872081668 -0.000012258727527564321 -0.000012252328788681786
          -0.000011500395087070815 -0.000011498861638344105 -0.000011492277889852352 -0.00001367314255950859 -0.000013680391115733744 -0.000013699484034570375
          -0.00001591268561131927 -0.000015934415483708294 -0.00001599007435995486 -0.000018008900425179057 -0.000018038905448485224 -0.000018145364575204217
          -0.000019746101099773264 -0.000019777699498146506 -0.00001989683831388166 -0.00001883975274714608 -0.000019330335010318687 -0.000018876369826524585
          -0.000019358495343937224 -0.00001900525628988471 -0.000019478806835859855 -0.000020472120015355567 -0.000020630315010617615 -0.000019700968638577582
          -0.000019586681656309952 -0.00002049320901378229 -0.00002064565111701874 -0.000019723206498610753 -0.00001961499806027851 -0.000020550237273015568
          -0.000020689137425639876 -0.000019784390724995675 -0.000019707411286061844 -0.000019775044320139514 -0.000019793369370059755 -0.00001983879000001539
          -0.00002026610482526029 -0.000020294017754085375 -0.000020370343068885383 -0.00002095135817474763 -0.000020963016241058444 -0.00002099285289054279
          -0.000014839921713991269 -0.000012881673152004272 -0.000014844062758624077 -0.000012880985354903676 -0.000014855982421120848 -0.00001287885090334027
          -0.000014348790527570726 -0.000014352806521737442 -0.000014365397508656676 -0.000016837845911086632 -0.000016847759834428463 -0.000016876749920071993
          -0.000016495673006859024 -0.000016507334896484838 -0.00001654399615881471 -0.00001853062623564325 -0.000018552633130739545 -0.000018617858220601374
          -0.00002023266677239146 -0.000020260172360191247 -0.000020352861713596733 -0.00002136726326317051 -0.000021390534484616658 -0.000021465467058316077
          -0.00002148578838156846 -0.000021504147720247797 -0.000021553417717112095 -0.000022222706823097466 -0.00002158180476044909 -0.00002252430271476125
          -0.000022232901221400095 -0.000021593857418318618 -0.000022534269439491407 -0.000022261869932796822 -0.00002163141034218708 -0.000022564271362417325
        </DataArray>
        <DataArray type="Float64" Name="disp_z" format="ascii" RangeMin="-0.00001714219601267816" RangeMax="5.726021611782272e-7">
          0 0 -5.961228599045825e-8 -5.933560393998554e-8 -1.23455508504639e-7 -1.2203016111813922e-7
          0 0 -5.7681466419889216e-8 -5.635337464169775e-8 -1.22490684443473e-7 -1.19389386425662e-7
          0 0 -6.521855983329186e-8 -6.09559081383908e-8 -1.4533657215331088e-7 -1.360863144934787e-7
          0 0 -1.0928562083325572e-7 -1.0171397650135908e-7 -2.447645291313133e-7 -2.2876207271769066e-7
          0 0 -2.2673075570345062e-7 -2.1618731298444037e-7 -4.930873571666507e-7 -4.726276667284059e-7
          0 0 -4.6815131460945696e-7 -4.5721274554797966e-7 -9.80301457804738e-7 -9.600582278046547e-7
          0 0 -8.841822567254041e-7 -8.768860370693972e-7 -0.000001796858924750061 -0.0000017840978938097282
          0 0 -0.0000015206156345980051 -0.0000015263118536741247 -0.0000030318893031609722 -0.0000030432424454202046
          0 0 -0.0000024900268237014795 -0.0000025203298330953657 -0.0000049045387436888045 -0.000004966971533516856
          0 0 -0.000004398597849080362 -0.000004601955308006585 -0.000008600285956978517 -0.000008982731409273702
          0 -6.095177414071772e-8 -1.2680580641830742e-7 0 -6.212817361510976e-8 -1.338395679763533e-7
          0 -7.882661606704117e-8 -1.7494341805794432e-7 0 -1.322995450802262e-7 -2.926592426563532e-7
          0 -2.579490748571877e-7 -5.53840430002543e-7 0 -5.005147613250052e-7 -0.0000010399729159154045
          0 -9.038389957470488e-7 -0.00000183081519784995 0 -0.0000015072511142725261 -0.0000030050414750004153
          0 -0.000002384171815897131 -0.000004693463210982404 0 -0.000003911003323353726 -0.000007668976182668037
          0 -6.366555548281175e-8 -1.3518167757527912e-7 0 -7.26279127867985e-8 -1.5981202726261798e-7
          0 -1.0331617162372533e-7 -2.2757425929123273e-7 0 -1.7181899420302778e-7 -3.7340561038468405e-7
          0 -3.092724084655064e-7 -6.529726222898462e-7 0 -5.516665393727156e-7 -0.0000011338212909228515
          0 -9.332741744616824e-7 -0.0000018819360892808722 0 -0.0000014785832179393533 -0.0000029441802240165785
          0 -0.0000022382524670610286 -0.0000044152786629120315 0 -0.0000032760254030551135 -0.00000644734970201165
          0 -7.105338403822109e-8 -1.5637381518875818e-7 0 -9.336189361254569e-8 -2.063394888346879e-7
          0 -1.4116987011000535e-7 -3.077729895313197e-7 0 -2.2932589449404463e-7 -4.877132519302591e-7
          0 -3.793706161574784e-7 -7.864371210307638e-7 0 -6.173308973928506e-7 -0.0000012538711177933534
          0 -9.660814510593566e-7 -0.0000019376976439238484 0 -0.0000014370344555733262 -0.000002859470089147804
          0 -0.0000020435749379832806 -0.000004033606068739807 0 -0.0000025976652286958996 -0.000005158667404152443
          0 -8.946896687662385e-8 -1.9821285074536826e-7 0 -1.2819266368431555e-7 -2.804221799706373e-7
          0 -1.9661512190674253e-7 -4.1980207279868466e-7 0 -3.0520591291688125e-7 -6.345206666145322e-7
          0 -4.6531798773687276e-7 -9.4736849500591e-7 0 -6.913702853151684e-7 -0.000001388804260379559
          0 -9.949692995782217e-7 -0.0000019854620931093197 0 -0.000001378347094202187 -0.000002740939691027024
          0 -0.0000018105532820939372 -0.0000035836830306703 0 -0.0000019799951740865174 -0.000003990865973040877
          0 -1.248125390222924e-7 -2.690046828338738e-7 0 -1.8377659876043295e-7 -3.8892134397940087e-7
          0 -2.7397834144515116e-7 -5.670486410251164e-7 0 -3.998268253384707e-7 -8.108067497367608e-7
          0 -5.627351733434323e-7 -0.0000011264501447708594 0 -7.664017557226837e-7 -0.000001525014503535063
          0 -0.000001012388694313705 -0.000002012963797149255 0 -0.0000012926944528823675 -0.0000025726634137918057
          0 -0.0000015597692220619724 -0.0000031103590137402333 0 -0.0000014500317086225323 -0.0000029712412611118288
          0 -1.840564674905029e-7 -3.746809945410653e-7 0 -2.660680622109274e-7 -5.357778741814654e-7
          0 -3.762020422109836e-7 -7.491647536824679e-7 0 -5.116790122318442e-7 -0.0000010108288756112685
          0 -6.661865863959774e-7 -0.0000013128347753956516 0 -8.345528677462155e-7 -0.0000016485098588095263
          0 -0.0000010095010914991695 -0.000002006360607535473 0 -0.000001176607105139112 -0.0000023541401174244844
          0 -0.000001284310787576889 -0.0000025981309261462427 0 -0.00000101294073204991 -0.000002148871189890204
          0 -2.686000591211875e-7 -5.176337091024081e-7 0 -3.745053992798619e-7 -7.20482543355731e-7
          0 -4.998720217924826e-7 -9.624766587950564e-7 0 -6.351712468717645e-7 -0.0000012278400011396879
          0 -7.687243102082592e-7 -0.00000149653969699151 0 -8.882032213471846e-7 -0.0000017468655237725014
          0 -9.795943677059606e-7 -0.0000019533179185910075 0 -0.0000010264977079250187 -0.0000020809516794553914
          0 -9.852076565408603e-7 -0.0000020515956244001627 0 -6.523326956270611e-7 -0.0000014471348692170387
          0 -6.198794396270549e-7 -0.0000012247253821851812 0 -7.479653410769941e-7 -0.00000147545218198541
          0 -8.528088515769266e-7 -0.0000016834165972814066 0 -9.171206441970555e-7 -0.0000018156145424490806
          0 -9.230800888877392e-7 -0.0000018362146644458145 0 -8.598905501384354e-7 -0.0000017211138787452144
          0 -7.019008016865936e-7 -0.0000014283073024948512 0 -4.0300833098082734e-7 -8.449208677795389e-7
          0 0 0 0 -1.670832218438888e-8 -6.107290271588536e-8
          -6.461553013969162e-8 -2.643650006118889e-8 -6.317734452708022e-8 -1.2502968605806027e-7 -1.4416070289287563e-7 -6.383858327533799e-8
          0 0 6.9280794133488395e-9 6.272897908730751e-10 6.987029334177294e-9 -1.0680736947864277e-8
          0 0 0 1.3861046626037954e-8 2.901433309441891e-8 4.2560232864289536e-8
          2.192870359290538e-8 4.2475630198040886e-8 4.5414108453341013e-8 0 0 0
          0 -0.000004977742967544025 -0.0000044556862450708225 -0.0000054360872779358205 -0.000005551742311598762 -0.000009776192636670895
          -0.00000879944318129078 -0.000010806678903626236 -0.000010987033715119121 0 0 0
          0 -0.000001119214261896299 -6.827695052099376e-7 2.2493463892478976e-7 -7.932379457674754e-7 -0.0000024256550546270192
          -0.0000013477332941119427 -3.2794869501732955e-7 -0.000001898282070194711 0 0 0
          0 -0.0000028569739854615676 -0.0000027959638091794807 -0.0000035922147427281176 -0.0000035875668099839282 -0.000005629786672820641
          -0.000005561467278528536 -0.000007107993637784053 -0.000007078360143617389 0 0 0
          0 -9.254265061501279e-7 -0.0000011246412866653285 -6.994172986765244e-7 -5.45455919453693e-7 -0.000001944480093999665
          -0.000002320916683399769 -0.0000016032841954757891 -0.000001334976560941057 0 0 -5.012829526702572e-7
          -7.712728388953144e-7 -0.0000010619077800762607 -0.0000017020756164644714 0 0 -0.000004009373650623984
          -0.0000037318076892300065 -0.000007827028424619734 -0.000007436092865138334 0 0 0
          0 -5.831233002516193e-9 2.8191948847700977e-8 2.2522732586711562e-8 5.842623949040682e-9 -9.99516154719572e-8
          6.966718828177892e-8 5.0404336446304374e-8 -9.596071635777643e-8 0 0 0
          0 -0.0000049283182925587594 -0.000004730173917718934 -0.000005313263403431839 -0.000005304434191716674 -0.000009680451991038898
          -0.000009215703884474154 -0.000010439610701755545 -0.000010457437438114855 0 0 -0.000004391085025299345
          -0.000005394969009936998 -0.000008606614919748032 -0.000010861852031406239 0 0 0
          0 -7.103657042785967e-8 -8.337398265949802e-8 -5.0788825684206295e-8 -3.308196797054372e-8 -1.5989588296546548e-7
          -1.7728145585021172e-7 -1.1078496806516231e-7 -7.46578350844965e-8 0 0 0
          0 -0.000006380203940102772 -0.000007587691218681894 -0.000006728408541372684 -0.000005647732990070709 -0.00001310889708160229
          -0.00001529596935408244 -0.000013162778925737824 -0.000011320109708102927 0 0 0
          0 7.994766936594403e-8 3.988377618078922e-8 5.4007734447018605e-8 8.198155310543655e-8 -5.484675904315995e-8
          2.8702510944520955e-8 9.793299352780822e-8 1.550741306063117e-7 0 0 -0.00000154691885150846
          -0.000001511443238745644 -0.0000031508249080560076 -0.0000031715969424969466 0 -0.0000042534154674238274 -0.00000838034746142421
          0 0 -3.12833146192488e-8 -5.752743313219217e-8 -1.3550813593647318e-7 5.726021611782272e-7
          0 0 0 -2.2236656320922915e-8 -2.5047008380223976e-7 -1.0196177800703001e-7
          1.9570537148787058e-7 -8.196776057468791e-7 -3.3605635142508243e-7 0 0 0
          0 -0.0000023570221454952155 -0.000002039120728997756 -0.0000033470837783985857 -0.000003484106786834744 -0.000004901300239482118
          -0.000004682843311194747 -0.000006709483149744126 -0.000006930775354216384 0 0 0
          -0.0000054952293902405044 -0.000005741614230946221 -0.000005859563372322199 -0.000010714520117667322 -0.000011395057622869723 -0.000011550954960923955
          0 0 -4.134537439033806e-7 -0.000001090615874339541 -9.535979323390336e-7 -0.0000023125462304638133
          0 0 -2.5039835585713587e-8 -2.3192928106293608e-7 -4.1669729681848916e-7 -9.389217932711379e-7
          0 0 -5.910228781157183e-7 -2.713321050700396e-7 -0.0000012567274762643428 -7.244281627633213e-7
          0 0 0 0 -0.00000662916116960804 -0.0000064582251224202085
          -0.000007127655474286871 -0.00000747503726273053 -0.000013106336283473393 -0.00001279185220850767 -0.000014196006144346278 -0.000014881715705986704
          0 0 0 -0.000002118981736774732 -0.00000214230358491298 -0.000002879492769318094
          -0.000004294481599220272 -0.0000043516148896699456 -0.000005787542283298752 0 0 -1.0838754136956321e-7
          -9.488719611227716e-8 -2.989522286416588e-7 -2.6394411914742363e-7 0 0 -0.0000021035040881922297
          -0.0000015210189473347147 -0.000004225701700514703 -0.0000030972738505802038 0 0 -0.0000010494232958728645
          -0.0000014016258278462806 -0.0000022814596316973032 -0.000003164088773301911 0 0 -5.568479457523122e-7
          -2.5051898345611735e-7 -0.0000014535632340768862 -6.118044646419584e-7 0 0 0
          5.461740154086055e-8 2.2681934127821106e-8 4.050911434034949e-8 7.266403596170009e-8 2.9743065820101685e-8 5.614470912573409e-8
          0 0 0 -2.468241675107042e-7 -1.379024896848689e-7 -2.640533336636262e-7
          -5.846507039111808e-7 -3.2292658298250595e-7 -6.091179506317844e-7 0 0 0
          -0.000005910226324018553 -0.000006170623207033353 -0.0000060763565064003784 -0.000011641343102755882 -0.00001220704038782745 -0.000012055528198438844
          0 -0.000006234297301614925 -0.000012325747562605922 0 0 0
          0 2.1452455420841668e-8 7.66588242297074e-9 -3.2641165034248295e-9 1.3297740094834197e-8 2.9271029636746623e-8
          6.500860047832491e-9 -1.3927815682888336e-8 1.742621895066391e-8 0 0 -0.0000058243128827458415
          -0.000006207780195679413 -0.000011400786545489626 -0.00001237764791654495 0 0 1.562304374972908e-8
          3.013949734157167e-8 1.858110346966041e-8 4.1885225278641014e-8 0 0 -0.000007453038262625068
          -0.000006303611421683701 -0.000015108790152353974 -0.000012522729763322923 0 0 -0.000004502901145494091
          -0.000004645778782345742 -0.000008886128643172025 -0.000009358937981333532 0 -8.401981106961051e-9 -2.3518316258408792e-8
          0 -3.508332590084015e-7 -7.664632947050999e-7 0 0 -0.0000021032105958548634
          -0.0000012569888157268474 -0.000004177098590520759 -0.0000027922687029565942 0 -4.302747975090606e-7 -9.125657746844202e-7
          0 -1.0734429447082876e-7 3.6392974609007114e-7 0 7.348116464118681e-8 1.085138863394056e-7
          0 -1.350125724407431e-7 -3.6302511451822995e-7 0 -2.2141419039812075e-8 -5.2509671490039876e-8
          0 -1.1783823758550045e-7 2.8891537769651327e-7 0 -0.0000037290234045232643 -0.000007616466130610573
          0 -0.000008583663867869095 -0.00001714219601267816 0 -0.000004962306207197527 -0.00000980815593268772
          0 6.056809144287874e-9 2.351187247420106e-9 0 7.080265344770022e-8 9.139674799407496e-9
          0 -6.948155303175187e-7 -0.0000013733824737963974 0 -6.643435409447637e-7 -0.0000013283467071913418
          0 -7.585570313350942e-7 -0.0000015015091078020623 0 -6.916132164190798e-7 -0.0000013813976617172596
          0 -7.89699041967884e-7 -0.0000015670679677765195 0 -7.766212442348838e-7 -0.0000015469894726209502
          0 -7.06784835629194e-7 -0.0000014140202085499192 0 -5.585004772354987e-7 -0.000001138283883564178
          0 -2.659438804153149e-7 -5.57847446757128e-7 0 0 -2.743571101425206e-7
          -1.978362309578812e-7 -6.498618123118842e-7 -4.3549375467592626e-7 0 0 0
          0 -1.1469533718881937e-7 -7.353091564702914e-8 -6.468999137971109e-8 -1.1548459206366861e-7 -2.4306221917803575e-7
          -1.4510066403314633e-7 -1.4061493988839898e-7 -2.4730657517189663e-7 0 -3.5596757201916e-8 -6.643920429994424e-8
          0 -1.5036334490524615e-7 -2.9894835980731064e-7 0 -2.5125411823492562e-8 -5.4225832426235805e-8
          0 0 -6.246912474620473e-7 -6.3378822310902e-7 -0.0000012450829462707377 -0.0000012633014695055541
          0 -6.887294511759489e-7 -0.0000013738658268106883 0 -5.857577038018135e-7 -0.0000011675895117811397
          0 -6.456720116203599e-7 -0.0000012860295576646062 0 -5.51827436043242e-7 -0.0000010964300737450522
          0 -3.9883994736566493e-7 -7.979588663758499e-7 0 -2.0231718839983618e-7 -4.0670829696592083e-7
          0 -1.319908274174025e-7 -2.7427392992565565e-7 0 0 0
          -3.175398931992362e-8 -7.850840415560435e-8 -7.098284969823613e-8 -6.394545081367578e-8 -1.5663941209523918e-7 -1.4308009576386996e-7
        </DataArray>
      </PointData>
      <CellData>
        <DataArray type="Int32" Name="libmesh_elem_id" format="ascii" RangeMin="40" RangeMax="1373">
          40 41 42 43 44 45
          46 47 48 49 50 51
          52 53 54 55 56 57
          98 99 100 101 102 103
          104 105 106 107 108 109
          110 111 112 113 114 115
          156 157 158 159 160 161
          162 163 164 165 166 167
          168 169 170 171 172 173
          214 215 216 217 218 219
          220 221 222 223 224 225
          226 227 228 229 230 231
          272 273 274 275 276 277
          278 279 280 281 282 283
          284 285 286 287 288 289
          330 331 332 333 334 335
          336 337 338 339 340 341
          342 343 344 345 346 347
          388 389 390 391 392 393
          394 395 396 397 398 399
          400 401 402 403 404 405
          446 447 448 449 450 451
          452 453 454 455 456 457
          458 459 460 461 462 463
          508 509 510 511 512 513
          514 515 516 517 518 519
          520 521 522 523 524 525
          526 527 528 529 530 531
          532 533 534 535 536 537
          538 539 540 541 542 543
          544 545 546 547 548 549
          550 551 552 553 554 555
          556 557 558 559 560 561
          562 563 564 565 566 567
          568 569 570 571 572 573
          574 575 576 577 578 579
          580 581 582 583 584 585
          586 587 588 589 590 591
          592 593 594 595 596 597
          598 599 600 601 602 603
          604 605 606 607 608 609
          610 611 612 613 614 615
          616 617 618 619 620 621
          622 623 624 625 626 627
          628 629 630 631 632 633
          634 635 636 637 638 639
          640 641 642 643 644 645
          646 647 648 649 650 651
          652 653 654 655 656 657
          658 659 660 661 662 663
          664 665 666 667 668 669
          670 671 672 673 674 675
          676 677 678 679 680 681
          682 683 684 685 686 687
          688 689 690 691 692 693
          694 695 696 697 698 699
          700 701 702 703 704 705
          706 707 708 709 710 711
          712 713 714 715 716 717
          718 719 720 721 722 723
          724 725 726 727 728 729
          730 731 732 733 734 735
          736 737 738 739 740 741
          742 743 744 745 746 747
          748 749 750 751 752 753
          754 755 756 757 758 759
          760 761 762 763 764 765
          766 767 768 769 770 771
          1186 1187 1188 1189 1190 1191
          1204 1205 1206 1207 1208 1209
          1222 1223 1224 1225 1240 1241
          1242 1243 1258 1259 1260 1261
          1276 1277 1278 1279 1300 1301
          1304 1305 1306 1307 1314 1315
          1316 1317 1326 1327 1328 1329
          1330 1331 1338 1339 1344 1345
          1348 1349 1356 1357 1358 1359
          1360 1361 1366 1367 1372 1373
        </DataArray>
        <DataArray type="Int32" Name="subdomain_id" format="ascii" RangeMin="103" RangeMax="143">
          103 103 103 103 103 103
          103 103 103 103 103 103
          103 103 103 103 103 103
          103 103 103 103 103 103
          103 103 103 103 103 103
          103 103 103 103 103 103
          103 103 103 103 103 103
          103 103 103 103 103 103
          103 103 103 103 103 103
          103 103 103 103 103 103
          103 103 103 103 103 103
          103 103 103 103 103 103
          103 103 103 103 103 103
          103 103 103 103 103 103
          103 103 103 103 103 103
          103 103 103 103 103 103
          103 103 103 103 103 103
          103 103 103 103 103 103
          103 103 103 103 103 103
          103 103 103 103 103 103
          103 103 103 103 103 103
          103 103 103 103 103 103
          103 103 103 103 103 103
          103 103 103 103 103 103
          103 103 103 103 103 103
          103 103 103 103 103 103
          103 103 104 104 104 104
          104 104 104 104 104 104
          104 104 104 104 104 104
          104 104 104 104 104 104
          104 104 104 104 104 104
          104 104 104 104 104 104
          104 104 104 104 104 104
          104 104 104 104 104 104
          104 104 104 104 104 104
          104 104 104 104 104 104
          104 104 104 104 104 104
          104 104 104 104 104 104
          104 104 104 104 104 104
          104 104 104 104 104 104
          104 104 104 104 104 104
          104 104 104 104 104 104
          104 104 104 104 104 104
          104 104 104 104 104 104
          104 104 104 104 104 104
          104 104 104 104 104 104
          104 104 104 104 104 104
          104 104 104 104 104 104
          104 104 104 104 104 104
          104 104 104 104 104 104
          104 104 104 104 104 104
          104 104 104 104 104 104
          104 104 104 104 104 104
          104 104 104 104 104 104
          104 104 104 104 104 104
          104 104 104 104 104 104
          104 104 104 104 104 104
          104 104 104 104 104 104
          104 104 104 104 104 104
          141 141 141 141 141 141
          141 141 141 141 141 141
          141 141 141 141 141 141
          141 141 141 141 141 141
          141 141 141 141 141 141
          141 141 141 141 141 141
          141 141 141 141 141 141
          141 141 141 141 141 141
          141 141 141 141 141 141
          105 105 105 105 105 105
          105 105 105 105 105 105
          105 105 105 105 105 105
          105 105 105 105 105 105
          105 105 105 105 106 106
          106 106 106 106 106 106
          106 106 106 106 106 106
          106 106 106 106 106 106
          106 106 106 106 106 106
          143 143 143 143 143 143
        </DataArray>
        <DataArray type="Int32" Name="processor_id" format="ascii" RangeMin="5" RangeMax="5">
          5 5 5 5 5 5
          5 5 5 5 5 5
          5 5 5 5 5 5
          5 5 5 5 5 5
          5 5 5 5 5 5
          5 5 5 5 5 5
          5 5 5 5 5 5
          5 5 5 5 5 5
          5 5 5 5 5 5
          5 5 5 5 5 5
          5 5 5 5 5 5
          5 5 5 5 5 5
          5 5 5 5 5 5
          5 5 5 5 5 5
          5 5 5 5 5 5
          5 5 5 5 5 5
          5 5 5 5 5 5
          5 5 5 5 5 5
          5 5 5 5 5 5
          5 5 5 5 5 5
          5 5 5 5 5 5
          5 5 5 5 5 5
          5 5 5 5 5 5
          5 5 5 5 5 5
          5 5 5 5 5 5
          5 5 5 5 5 5
          5 5 5 5 5 5
          5 5 5 5 5 5
          5 5 5 5 5 5
          5 5 5 5 5 5
          5 5 5 5 5 5
          5 5 5 5 5 5
          5 5 5 5 5 5
          5 5 5 5 5 5
          5 5 5 5 5 5
          5 5 5 5 5 5
          5 5 5 5 5 5
          5 5 5 5 5 5
          5 5 5 5 5 5
          5 5 5 5 5 5
          5 5 5 5 5 5
          5 5 5 5 5 5
          5 5 5 5 5 5
          5 5 5 5 5 5
          5 5 5 5 5 5
          5 5 5 5 5 5
          5 5 5 5 5 5
          5 5 5 5 5 5
          5 5 5 5 5 5
          5 5 5 5 5 5
          5 5 5 5 5 5
          5 5 5 5 5 5
          5 5 5 5 5 5
          5 5 5 5 5 5
          5 5 5 5 5 5
          5 5 5 5 5 5
          5 5 5 5 5 5
          5 5 5 5 5 5
          5 5 5 5 5 5
          5 5 5 5 5 5
          5 5 5 5 5 5
          5 5 5 5 5 5
          5 5 5 5 5 5
          5 5 5 5 5 5
          5 5 5 5 5 5
          5 5 5 5 5 5
          5 5 5 5 5 5
          5 5 5 5 5 5
          5 5 5 5 5 5
          5 5 5 5 5 5
          5 5 5 5 5 5
          5 5 5 5 5 5
          5 5 5 5 5 5
          5 5 5 5 5 5
          5 5 5 5 5 5
          5 5 5 5 5 5
          5 5 5 5 5 5
          5 5 5 5 5 5
        </DataArray>
      </CellData>
      <Points>
        <DataArray type="Float64" Name="Points" NumberOfComponents="3" format="ascii" RangeMin="0.0082758620689774" RangeMax="0.013139935358843113">
          0.00011111111111123 0.0082758620689751 0 0 0.0082758620689774 0
          0.00011111111111123 0.0082758620689751 0.00015 0 0.0082758620689774 0.00015
          0.00011111111111123 0.0082758620689751 0.0003 0 0.0082758620689774 0.0003
          0.00011111111111125 0.0086896551724226 0 0 0.0086896551724246 0
          0.00011111111111125 0.0086896551724226 0.00015 0 0.0086896551724246 0.00015
          0.00011111111111125 0.0086896551724226 0.0003 0 0.0086896551724246 0.0003
          0.00011111111111126 0.0091034482758696 0 0 0.0091034482758716 0
          0.00011111111111126 0.0091034482758696 0.00015 0 0.0091034482758716 0.00015
          0.00011111111111126 0.0091034482758696 0.0003 0 0.0091034482758716 0.0003
          0.00011111111111128 0.0095172413793168 0 0 0.0095172413793185 0
          0.00011111111111128 0.0095172413793168 0.00015 0 0.0095172413793185 0.00015
          0.00011111111111128 0.0095172413793168 0.0003 0 0.0095172413793185 0.0003
          0.00011111111111129 0.0099310344827632 0 0 0.0099310344827645 0
          0.00011111111111129 0.0099310344827632 0.00015 0 0.0099310344827645 0.00015
          0.00011111111111129 0.0099310344827632 0.0003 0 0.0099310344827645 0.0003
          0.00011111111111131 0.01034482758621 0 0 0.01034482758621 0
          0.00011111111111131 0.01034482758621 0.00015 0 0.01034482758621 0.00015
          0.00011111111111131 0.01034482758621 0.0003 0 0.01034482758621 0.0003
          0.00011111111111132 0.010758620689657 0 0 0.010758620689657 0
          0.00011111111111132 0.010758620689657 0.00015 0 0.010758620689657 0.00015
          0.00011111111111132 0.010758620689657 0.0003 0 0.010758620689657 0.0003
          0.00011111111111134 0.011172413793104 0 0 0.011172413793104 0
          0.00011111111111134 0.011172413793104 0.00015 0 0.011172413793104 0.00015
          0.00011111111111134 0.011172413793104 0.0003 0 0.011172413793104 0.0003
          0.00011111111111135 0.011586206896551 0 0 0.011586206896551 0
          0.00011111111111135 0.011586206896551 0.00015 0 0.011586206896551 0.00015
          0.00011111111111135 0.011586206896551 0.0003 0 0.011586206896551 0.0003
          0.00011111111111137 0.012 0 0 0.012 0
          0.00011111111111137 0.012 0.00015 0 0.012 0.00015
          0.00011111111111137 0.012 0.0003 0 0.012 0.0003
          0.00022222222222243 0.0082758620689727 0 0.00022222222222243 0.0082758620689727 0.00015
          0.00022222222222243 0.0082758620689727 0.0003 0.00022222222222246 0.0086896551724206 0
          0.00022222222222246 0.0086896551724206 0.00015 0.00022222222222246 0.0086896551724206 0.0003
          0.00022222222222249 0.0091034482758676 0 0.00022222222222249 0.0091034482758676 0.00015
          0.00022222222222249 0.0091034482758676 0.0003 0.00022222222222253 0.0095172413793151 0
          0.00022222222222253 0.0095172413793151 0.00015 0.00022222222222253 0.0095172413793151 0.0003
          0.00022222222222256 0.0099310344827619 0 0.00022222222222256 0.0099310344827619 0.00015
          0.00022222222222256 0.0099310344827619 0.0003 0.0002222222222226 0.010344827586209 0
          0.0002222222222226 0.010344827586209 0.00015 0.0002222222222226 0.010344827586209 0.0003
          0.00022222222222263 0.010758620689656 0 0.00022222222222263 0.010758620689656 0.00015
          0.00022222222222263 0.010758620689656 0.0003 0.00022222222222266 0.011172413793103 0
          0.00022222222222266 0.011172413793103 0.00015 0.00022222222222266 0.011172413793103 0.0003
          0.0002222222222227 0.011586206896551 0 0.0002222222222227 0.011586206896551 0.00015
          0.0002222222222227 0.011586206896551 0.0003 0.00022222222222273 0.012 0
          0.00022222222222273 0.012 0.00015 0.00022222222222273 0.012 0.0003
          0.00033333333333363 0.0082758620689704 0 0.00033333333333363 0.0082758620689704 0.00015
          0.00033333333333363 0.0082758620689704 0.0003 0.00033333333333368 0.0086896551724185 0
          0.00033333333333368 0.0086896551724185 0.00015 0.00033333333333368 0.0086896551724185 0.0003
          0.00033333333333373 0.0091034482758657 0 0.00033333333333373 0.0091034482758657 0.00015
          0.00033333333333373 0.0091034482758657 0.0003 0.00033333333333379 0.0095172413793133 0
          0.00033333333333379 0.0095172413793133 0.00015 0.00033333333333379 0.0095172413793133 0.0003
          0.00033333333333384 0.0099310344827607 0 0.00033333333333384 0.0099310344827607 0.00015
          0.00033333333333384 0.0099310344827607 0.0003 0.00033333333333389 0.010344827586208 0
          0.00033333333333389 0.010344827586208 0.00015 0.00033333333333389 0.010344827586208 0.0003
          0.00033333333333394 0.010758620689656 0 0.00033333333333394 0.010758620689656 0.00015
          0.00033333333333394 0.010758620689656 0.0003 0.000333333333334 0.011172413793103 0
          0.000333333333334 0.011172413793103 0.00015 0.000333333333334 0.011172413793103 0.0003
          0.00033333333333405 0.011586206896551 0 0.00033333333333405 0.011586206896551 0.00015
          0.00033333333333405 0.011586206896551 0.0003 0.0003333333333341 0.012 0
          0.0003333333333341 0.012 0.00015 0.0003333333333341 0.012 0.0003
          0.00044444444444486 0.0082758620689681 0 0.00044444444444486 0.0082758620689681 0.00015
          0.00044444444444486 0.0082758620689681 0.0003 0.00044444444444493 0.0086896551724165 0
          0.00044444444444493 0.0086896551724165 0.00015 0.00044444444444493 0.0086896551724165 0.0003
          0.00044444444444501 0.0091034482758637 0 0.00044444444444501 0.0091034482758637 0.00015
          0.00044444444444501 0.0091034482758637 0.0003 0.00044444444444508 0.0095172413793116 0
          0.00044444444444508 0.0095172413793116 0.00015 0.00044444444444508 0.0095172413793116 0.0003
          0.00044444444444516 0.0099310344827594 0 0.00044444444444516 0.0099310344827594 0.00015
          0.00044444444444516 0.0099310344827594 0.0003 0.00044444444444523 0.010344827586207 0
          0.00044444444444523 0.010344827586207 0.00015 0.00044444444444523 0.010344827586207 0.0003
          0.00044444444444531 0.010758620689655 0 0.00044444444444531 0.010758620689655 0.00015
          0.00044444444444531 0.010758620689655 0.0003 0.00044444444444538 0.011172413793103 0
          0.00044444444444538 0.011172413793103 0.00015 0.00044444444444538 0.011172413793103 0.0003
          0.00044444444444546 0.011586206896551 0 0.00044444444444546 0.011586206896551 0.00015
          0.00044444444444546 0.011586206896551 0.0003 0.00044444444444553 0.012 0
          0.00044444444444553 0.012 0.00015 0.00044444444444553 0.012 0.0003
          0.00055555555555597 0.0082758620689657 0 0.00055555555555597 0.0082758620689657 0.00015
          0.00055555555555597 0.0082758620689657 0.0003 0.00055555555555605 0.0086896551724145 0
          0.00055555555555605 0.0086896551724145 0.00015 0.00055555555555605 0.0086896551724145 0.0003
          0.00055555555555613 0.0091034482758618 0 0.00055555555555613 0.0091034482758618 0.00015
          0.00055555555555613 0.0091034482758618 0.0003 0.00055555555555621 0.0095172413793099 0
          0.00055555555555621 0.0095172413793099 0.00015 0.00055555555555621 0.0095172413793099 0.0003
          0.00055555555555629 0.0099310344827581 0 0.00055555555555629 0.0099310344827581 0.00015
          0.00055555555555629 0.0099310344827581 0.0003 0.00055555555555636 0.010344827586206 0
          0.00055555555555636 0.010344827586206 0.00015 0.00055555555555636 0.010344827586206 0.0003
          0.00055555555555644 0.010758620689655 0 0.00055555555555644 0.010758620689655 0.00015
          0.00055555555555644 0.010758620689655 0.0003 0.00055555555555652 0.011172413793102 0
          0.00055555555555652 0.011172413793102 0.00015 0.00055555555555652 0.011172413793102 0.0003
          0.0005555555555566 0.011586206896551 0 0.0005555555555566 0.011586206896551 0.00015
          0.0005555555555566 0.011586206896551 0.0003 0.00055555555555667 0.012 0
          0.00055555555555667 0.012 0.00015 0.00055555555555667 0.012 0.0003
          0.00066666666666675 0.0082758620689634 0 0.00066666666666675 0.0082758620689634 0.00015
          0.00066666666666675 0.0082758620689634 0.0003 0.00066666666666679 0.0086896551724125 0
          0.00066666666666679 0.0086896551724125 0.00015 0.00066666666666679 0.0086896551724125 0.0003
          0.00066666666666684 0.0091034482758598 0 0.00066666666666684 0.0091034482758598 0.00015
          0.00066666666666684 0.0091034482758598 0.0003 0.00066666666666688 0.0095172413793081 0
          0.00066666666666688 0.0095172413793081 0.00015 0.00066666666666688 0.0095172413793081 0.0003
          0.00066666666666693 0.0099310344827568 0 0.00066666666666693 0.0099310344827568 0.00015
          0.00066666666666693 0.0099310344827568 0.0003 0.00066666666666697 0.010344827586205 0
          0.00066666666666697 0.010344827586205 0.00015 0.00066666666666697 0.010344827586205 0.0003
          0.00066666666666701 0.010758620689654 0 0.00066666666666701 0.010758620689654 0.00015
          0.00066666666666701 0.010758620689654 0.0003 0.00066666666666706 0.011172413793102 0
          0.00066666666666706 0.011172413793102 0.00015 0.00066666666666706 0.011172413793102 0.0003
          0.0006666666666671 0.01158620689655 0 0.0006666666666671 0.01158620689655 0.00015
          0.0006666666666671 0.01158620689655 0.0003 0.00066666666666715 0.012 0
          0.00066666666666715 0.012 0.00015 0.00066666666666715 0.012 0.0003
          0.00077777777777787 0.0082758620689611 0 0.00077777777777787 0.0082758620689611 0.00015
          0.00077777777777787 0.0082758620689611 0.0003 0.00077777777777791 0.0086896551724104 0
          0.00077777777777791 0.0086896551724104 0.00015 0.00077777777777791 0.0086896551724104 0.0003
          0.00077777777777794 0.0091034482758578 0 0.00077777777777794 0.0091034482758578 0.00015
          0.00077777777777794 0.0091034482758578 0.0003 0.00077777777777797 0.0095172413793064 0
          0.00077777777777797 0.0095172413793064 0.00015 0.00077777777777797 0.0095172413793064 0.0003
          0.000777777777778 0.0099310344827555 0 0.000777777777778 0.0099310344827555 0.00015
          0.000777777777778 0.0099310344827555 0.0003 0.00077777777777803 0.010344827586205 0
          0.00077777777777803 0.010344827586205 0.00015 0.00077777777777803 0.010344827586205 0.0003
          0.00077777777777806 0.010758620689654 0 0.00077777777777806 0.010758620689654 0.00015
          0.00077777777777806 0.010758620689654 0.0003 0.00077777777777809 0.011172413793101 0
          0.00077777777777809 0.011172413793101 0.00015 0.00077777777777809 0.011172413793101 0.0003
          0.00077777777777813 0.01158620689655 0 0.00077777777777813 0.01158620689655 0.00015
          0.00077777777777813 0.01158620689655 0.0003 0.00077777777777816 0.012 0
          0.00077777777777816 0.012 0.00015 0.00077777777777816 0.012 0.0003
          0.0008888888888888 0.0082758620689588 0 0.0008888888888888 0.0082758620689588 0.00015
          0.0008888888888888 0.0082758620689588 0.0003 0.00088888888888881 0.0086896551724084 0
          0.00088888888888881 0.0086896551724084 0.00015 0.00088888888888881 0.0086896551724084 0.0003
          0.00088888888888882 0.0091034482758559 0 0.00088888888888882 0.0091034482758559 0.00015
          0.00088888888888882 0.0091034482758559 0.0003 0.00088888888888883 0.0095172413793047 0
          0.00088888888888883 0.0095172413793047 0.00015 0.00088888888888883 0.0095172413793047 0.0003
          0.00088888888888884 0.0099310344827542 0 0.00088888888888884 0.0099310344827542 0.00015
          0.00088888888888884 0.0099310344827542 0.0003 0.00088888888888885 0.010344827586204 0
          0.00088888888888885 0.010344827586204 0.00015 0.00088888888888885 0.010344827586204 0.0003
          0.00088888888888885 0.010758620689653 0 0.00088888888888885 0.010758620689653 0.00015
          0.00088888888888885 0.010758620689653 0.0003 0.00088888888888886 0.011172413793101 0
          0.00088888888888886 0.011172413793101 0.00015 0.00088888888888886 0.011172413793101 0.0003
          0.00088888888888887 0.01158620689655 0 0.00088888888888887 0.01158620689655 0.00015
          0.00088888888888887 0.01158620689655 0.0003 0.00088888888888888 0.012 0
          0.00088888888888888 0.012 0.00015 0.00088888888888888 0.012 0.0003
          0.001 0.0091034482758539 0 0.001 0.0091034482758539 0.00015
          0.001 0.0091034482758539 0.0003 0.001 0.0095172413793029 0
          0.001 0.0095172413793029 0.00015 0.001 0.0095172413793029 0.0003
          0.001 0.0099310344827529 0 0.001 0.0099310344827529 0.00015
          0.001 0.0099310344827529 0.0003 0.001 0.010344827586203 0
          0.001 0.010344827586203 0.00015 0.001 0.010344827586203 0.0003
          0.001 0.010758620689653 0 0.001 0.010758620689653 0.00015
          0.001 0.010758620689653 0.0003 0.001 0.0111724137931 0
          0.001 0.0111724137931 0.00015 0.001 0.0111724137931 0.0003
          0.001 0.01158620689655 0 0.001 0.01158620689655 0.00015
          0.001 0.01158620689655 0.0003 0.001 0.012 0
          0.001 0.012 0.00015 0.001 0.012 0.0003
          0.00067947077571632 0.012798245728111 0 0.00068678568032061 0.012710429785181 0
          0.00076344362314339 0.012698069087358 0 0.00078000626700894 0.012788238676479 0
          0.00067947077571632 0.012798245728111 0.00015 0.00068678568032061 0.012710429785181 0.00015
          0.00076344362314339 0.012698069087358 0.00015 0.00078000626700894 0.012788238676479 0.00015
          0.00067947077571632 0.012798245728111 0.0003 0.00068678568032061 0.012710429785181 0.0003
          0.00076344362314339 0.012698069087358 0.0003 0.00078000626700894 0.012788238676479 0.0003
          0.0007101811699723 0.012881232243155 0 0.00078737528777453 0.012884598822829 0
          0.0007101811699723 0.012881232243155 0.00015 0.00078737528777453 0.012884598822829 0.00015
          0.0007101811699723 0.012881232243155 0.0003 0.00078737528777453 0.012884598822829 0.0003
          0.00063149088332091 0.012876508075697 0 0.00071156048039536 0.012943694476106 0
          0.00064992343237843 0.012944046337553 0 0.00063149088332091 0.012876508075697 0.00015
          0.00071156048039536 0.012943694476106 0.00015 0.00064992343237843 0.012944046337553 0.00015
          0.00063149088332091 0.012876508075697 0.0003 0.00071156048039536 0.012943694476106 0.0003
          0.00064992343237843 0.012944046337553 0.0003 0.00014271480927744 0.012184528409521 0
          0.00021074182908597 0.012239195039162 0 0.00014617236906556 0.012274772666576 0
          0.00010836971036758 0.0122326927564 0 0.00014271480927744 0.012184528409521 0.00015
          0.00021074182908597 0.012239195039162 0.00015 0.00014617236906556 0.012274772666576 0.00015
          0.00010836971036758 0.0122326927564 0.00015 0.00014271480927744 0.012184528409521 0.0003
          0.00021074182908597 0.012239195039162 0.0003 0.00014617236906556 0.012274772666576 0.0003
          0.00010836971036758 0.0122326927564 0.0003 0.00040316247653445 0.012523054457121 0
          0.00050524235438491 0.012516470580574 0 0.00047556583290331 0.012611926172403 0
          0.00040677839563254 0.01259579728731 0 0.00040316247653445 0.012523054457121 0.00015
          0.00050524235438491 0.012516470580574 0.00015 0.00047556583290331 0.012611926172403 0.00015
          0.00040677839563254 0.01259579728731 0.00015 0.00040316247653445 0.012523054457121 0.0003
          0.00050524235438491 0.012516470580574 0.0003 0.00047556583290331 0.012611926172403 0.0003
          0.00040677839563254 0.01259579728731 0.0003 0.00038389728538556 0.012111104172094 0
          0.00037958632650406 0.012195366170904 0 0.00029855370140418 0.012181148574691 0
          0.00029802321336891 0.012105931916082 0 0.00038389728538556 0.012111104172094 0.00015
          0.00037958632650406 0.012195366170904 0.00015 0.00029855370140418 0.012181148574691 0.00015
          0.00029802321336891 0.012105931916082 0.00015 0.00038389728538556 0.012111104172094 0.0003
          0.00037958632650406 0.012195366170904 0.0003 0.00029855370140418 0.012181148574691 0.0003
          0.00029802321336891 0.012105931916082 0.0003 0.00062435778703091 0.012280526392523 0
          0.00063694887874418 0.012191685157308 0 0.00075163746499696 0.012211869018538 0
          0.0007101306235237 0.012330652999586 0 0.00062435778703091 0.012280526392523 0.00015
          0.00063694887874418 0.012191685157308 0.00015 0.00075163746499696 0.012211869018538 0.00015
          0.0007101306235237 0.012330652999586 0.00015 0.00062435778703091 0.012280526392523 0.0003
          0.00063694887874418 0.012191685157308 0.0003 0.00075163746499696 0.012211869018538 0.0003
          0.0007101306235237 0.012330652999586 0.0003 0.00090036231429234 0.012108977226849 0
          0.00080269198720626 0.012096984730608 0 0.00090036231429234 0.012108977226849 0.00015
          0.00080269198720626 0.012096984730608 0.00015 0.00090036231429234 0.012108977226849 0.0003
          0.00080269198720626 0.012096984730608 0.0003 0.00023865656240352 0.012177237347116 0
          0.00029061852669854 0.01224857812735 0 0.00023865656240352 0.012177237347116 0.00015
          0.00029061852669854 0.01224857812735 0.00015 0.00023865656240352 0.012177237347116 0.0003
          0.00029061852669854 0.01224857812735 0.0003 0.00056164385173704 0.012835416164401 0
          0.00056508360468666 0.012898794448667 0 0.00049240387645224 0.012913175910861 0
          0.00046984631090009 0.012828989929731 0 0.00056164385173704 0.012835416164401 0.00015
          0.00056508360468666 0.012898794448667 0.00015 0.00049240387645224 0.012913175910861 0.00015
          0.00046984631090009 0.012828989929731 0.00015 0.00056164385173704 0.012835416164401 0.0003
          0.00056508360468666 0.012898794448667 0.0003 0.00049240387645224 0.012913175910861 0.0003
          0.00046984631090009 0.012828989929731 0.0003 0.000050495613361417 0.012066083920595 0
          0.00011131843390441 0.012086989142678 0 0.000069577205110887 0.012153607960951 0
          0 0.012111111111109 0 0.000050495613361417 0.012066083920595 0.00015
          0.00011131843390441 0.012086989142678 0.00015 0.000069577205110887 0.012153607960951 0.00015
          0 0.012111111111109 0.00015 0.000050495613361417 0.012066083920595 0.0003
          0.00011131843390441 0.012086989142678 0.0003 0.000069577205110887 0.012153607960951 0.0003
          0 0.012111111111109 0.0003 0.00022470825547396 0.012306913365418 0
          0.00017103954025546 0.012340304715306 0 0.00022470825547396 0.012306913365418 0.00015
          0.00017103954025546 0.012340304715306 0.00015 0.00022470825547396 0.012306913365418 0.0003
          0.00017103954025546 0.012340304715306 0.0003 0.00085640575367095 0.012657655614724 0
          0.001 0.012571428571438 0 0.001 0.012714285714292 0
          0.00089085524488654 0.012778191533234 0 0.00085640575367095 0.012657655614724 0.00015
          0.001 0.012571428571438 0.00015 0.001 0.012714285714292 0.00015
          0.00089085524488654 0.012778191533234 0.00015 0.00085640575367095 0.012657655614724 0.0003
          0.001 0.012571428571438 0.0003 0.001 0.012714285714292 0.0003
          0.00089085524488654 0.012778191533234 0.0003 0.00017101007138246 0.012530153689505 0
          0.000086824088695593 0.01250759612347 0 0.00010015626416536 0.012463076177022 0
          0.00018026894988108 0.012457509098897 0 0.00017101007138246 0.012530153689505 0.00015
          0.000086824088695593 0.01250759612347 0.00015 0.00010015626416536 0.012463076177022 0.00015
          0.00018026894988108 0.012457509098897 0.00015 0.00017101007138246 0.012530153689505 0.0003
          0.000086824088695593 0.01250759612347 0.0003 0.00010015626416536 0.012463076177022 0.0003
          0.00018026894988108 0.012457509098897 0.0003 0.00055555555555552 0.013 0
          0.00054972466987376 0.012958523613261 0 0.00059017772624368 0.012950117696029 0
          0.00061111111111072 0.013 0 0.00055555555555552 0.013 0.00015
          0.00054972466987376 0.012958523613261 0.00015 0.00059017772624368 0.012950117696029 0.00015
          0.00061111111111072 0.013 0.00015 0.00055555555555552 0.013 0.0003
          0.00054972466987376 0.012958523613261 0.0003 0.00059017772624368 0.012950117696029 0.0003
          0.00061111111111072 0.013 0.0003 0.00056012017374448 0.012193168747791 0
          0.00054338833040714 0.012250054231166 0 0.00056012017374448 0.012193168747791 0.00015
          0.00054338833040714 0.012250054231166 0.00015 0.00056012017374448 0.012193168747791 0.0003
          0.00054338833040714 0.012250054231166 0.0003 0.00020164702899907 0.012111009853496 0
          0.00020164702899907 0.012111009853496 0.00015 0.00020164702899907 0.012111009853496 0.0003
          0.00058698867508036 0.01276393301723 0 0.00061242021253103 0.012689969395149 0
          0.00058698867508036 0.01276393301723 0.00015 0.00061242021253103 0.012689969395149 0.00015
          0.00058698867508036 0.01276393301723 0.0003 0.00061242021253103 0.012689969395149 0.0003
          0.00054704952286259 0.01264760123259 0 0.00058547756026548 0.012574831423214 0
          0.00066845126455385 0.012625352450745 0 0.00054704952286259 0.01264760123259 0.00015
          0.00058547756026548 0.012574831423214 0.00015 0.00066845126455385 0.012625352450745 0.00015
          0.00054704952286259 0.01264760123259 0.0003 0.00058547756026548 0.012574831423214 0.0003
          0.00066845126455385 0.012625352450745 0.0003 0.00040316497174951 0.012375710115571 0
          0.00038996592658543 0.012448925709731 0 0.00030251984068288 0.012451026681152 0
          0.00030273327950676 0.012339921797294 0 0.00040316497174951 0.012375710115571 0.00015
          0.00038996592658543 0.012448925709731 0.00015 0.00030251984068288 0.012451026681152 0.00015
          0.00030273327950676 0.012339921797294 0.00015 0.00040316497174951 0.012375710115571 0.0003
          0.00038996592658543 0.012448925709731 0.0003 0.00030251984068288 0.012451026681152 0.0003
          0.00030273327950676 0.012339921797294 0.0003 0 0.012166666666663 0
          0.000060257043043922 0.012213388328671 0 0 0.012222222222217 0
          0 0.012166666666663 0.00015 0.000060257043043922 0.012213388328671 0.00015
          0 0.012222222222217 0.00015 0 0.012166666666663 0.0003
          0.000060257043043922 0.012213388328671 0.0003 0 0.012222222222217 0.0003
          0.00086766031505541 0.012218873949421 0 0.00070802748250363 0.01210226547145 0
          0.00086766031505541 0.012218873949421 0.00015 0.00070802748250363 0.01210226547145 0.00015
          0.00086766031505541 0.012218873949421 0.0003 0.00070802748250363 0.01210226547145 0.0003
          0.00045681564832724 0.012667985356076 0 0.00038302222240927 0.012678606196169 0
          0.00045681564832724 0.012667985356076 0.00015 0.00038302222240927 0.012678606196169 0.00015
          0.00045681564832724 0.012667985356076 0.0003 0.00038302222240927 0.012678606196169 0.0003
          0.00057343997443155 0.012462111372123 0 0.00067467937701806 0.012497336760124 0
          0.00057343997443155 0.012462111372123 0.00015 0.00067467937701806 0.012497336760124 0.00015
          0.00057343997443155 0.012462111372123 0.0003 0.00067467937701806 0.012497336760124 0.0003
          0 0.012388888888886 0 0.00004805763346656 0.012364070531781 0
          0.000052775834931525 0.012418323433379 0 0 0.012444444444443 0
          0 0.012388888888886 0.00015 0.00004805763346656 0.012364070531781 0.00015
          0.000052775834931525 0.012418323433379 0.00015 0 0.012444444444443 0.00015
          0 0.012388888888886 0.0003 0.00004805763346656 0.012364070531781 0.0003
          0.000052775834931525 0.012418323433379 0.0003 0 0.012444444444443 0.0003
          0.0004655657017567 0.012222981448331 0 0.0004403524252846 0.012306679111378 0
          0.00036518397892919 0.012268658791136 0 0.0004655657017567 0.012222981448331 0.00015
          0.0004403524252846 0.012306679111378 0.00015 0.00036518397892919 0.012268658791136 0.00015
          0.0004655657017567 0.012222981448331 0.0003 0.0004403524252846 0.012306679111378 0.0003
          0.00036518397892919 0.012268658791136 0.0003 0.00079059026611164 0.012574208252283 0
          0.00074033738884001 0.012629472897336 0 0.00079059026611164 0.012574208252283 0.00015
          0.00074033738884001 0.012629472897336 0.00015 0.00079059026611164 0.012574208252283 0.0003
          0.00074033738884001 0.012629472897336 0.0003 0.00049134001885305 0.012124425854677 0
          0.00060162315338905 0.012101782274206 0 0.00049134001885305 0.012124425854677 0.00015
          0.00060162315338905 0.012101782274206 0.00015 0.00049134001885305 0.012124425854677 0.0003
          0.00060162315338905 0.012101782274206 0.0003 0.00055165526617401 0.012365152711649 0
          0.00046621557592763 0.012427373679685 0 0.00055165526617401 0.012365152711649 0.00015
          0.00046621557592763 0.012427373679685 0.00015 0.00055165526617401 0.012365152711649 0.0003
          0.00046621557592763 0.012427373679685 0.0003 0.00065175768920993 0.012395993188634 0
          0.00078658012555766 0.01242031863996 0 0.00065175768920993 0.012395993188634 0.00015
          0.00078658012555766 0.01242031863996 0.00015 0.00065175768920993 0.012395993188634 0.0003
          0.00078658012555766 0.01242031863996 0.0003 0.00072222222222142 0.013 0
          0.00076767785213736 0.012949407633443 0 0.00077777777777722 0.013 0
          0.00072222222222142 0.013 0.00015 0.00076767785213736 0.012949407633443 0.00015
          0.00077777777777722 0.013 0.00015 0.00072222222222142 0.013 0.0003
          0.00076767785213736 0.012949407633443 0.0003 0.00077777777777722 0.013 0.0003
          0.001 0.01228571428572 0 0.001 0.012428571428581 0
          0.00085243404696798 0.012340254950119 0 0.001 0.01228571428572 0.00015
          0.001 0.012428571428581 0.00015 0.00085243404696798 0.012340254950119 0.00015
          0.001 0.01228571428572 0.0003 0.001 0.012428571428581 0.0003
          0.00085243404696798 0.012340254950119 0.0003 0.000047305708530005 0.012255757186949 0
          0.000035989657241992 0.012305788523607 0 0 0.012277777777773 0
          0.000047305708530005 0.012255757186949 0.00015 0.000035989657241992 0.012305788523607 0.00015
          0 0.012277777777773 0.00015 0.000047305708530005 0.012255757186949 0.0003
          0.000035989657241992 0.012305788523607 0.0003 0 0.012277777777773 0.0003
          0 0.01233333333333 0 0 0.01233333333333 0.00015
          0 0.01233333333333 0.0003 0.00088888888888861 0.013 0
          0.00086852226729803 0.012945143609779 0 0.00092105077811413 0.012923509600428 0
          0.0009444444444442 0.013 0 0.00088888888888861 0.013 0.00015
          0.00086852226729803 0.012945143609779 0.00015 0.00092105077811413 0.012923509600428 0.00015
          0.0009444444444442 0.013 0.00015 0.00088888888888861 0.013 0.0003
          0.00086852226729803 0.012945143609779 0.0003 0.00092105077811413 0.012923509600428 0.0003
          0.0009444444444442 0.013 0.0003 0.000088322519872331 0.012287262323421 0
          0.000098057359918883 0.01234321954228 0 0.000088322519872331 0.012287262323421 0.00015
          0.000098057359918883 0.01234321954228 0.00015 0.000088322519872331 0.012287262323421 0.0003
          0.000098057359918883 0.01234321954228 0.0003 0.00082037799021753 0.012949927278989 0
          0.00083333333333302 0.013 0 0.00082037799021753 0.012949927278989 0.00015
          0.00083333333333302 0.013 0.00015 0.00082037799021753 0.012949927278989 0.0003
          0.00083333333333302 0.013 0.0003 0.000055423585756317 0.01245648439217 0
          0.00011750487062481 0.01240389197138 0 0.000055423585756317 0.01245648439217 0.00015
          0.00011750487062481 0.01240389197138 0.00015 0.000055423585756317 0.01245648439217 0.0003
          0.00011750487062481 0.01240389197138 0.0003 0.00022703795328819 0.012397087263253 0
          0.00024412512388832 0.012487409031957 0 0.00022703795328819 0.012397087263253 0.00015
          0.00024412512388832 0.012487409031957 0.00015 0.00022703795328819 0.012397087263253 0.0003
          0.00024412512388832 0.012487409031957 0.0003 0.00086622784349606 0.012879340816766 0
          0.00086622784349606 0.012879340816766 0.00015 0.00086622784349606 0.012879340816766 0.0003
          0.001 0.01214285714286 0 0.001 0.01214285714286 0.00015
          0.001 0.01214285714286 0.0003 0.00032807036377433 0.012530514194312 0
          0.00032139380548758 0.012616977778981 0 0.00032807036377433 0.012530514194312 0.00015
          0.00032139380548758 0.012616977778981 0.00015 0.00032807036377433 0.012530514194312 0.0003
          0.00032139380548758 0.012616977778981 0.0003 0.00078653837511981 0.012300730611142 0
          0.00078653837511981 0.012300730611142 0.00015 0.00078653837511981 0.012300730611142 0.0003
          0.00050187285486533 0.012723776617989 0 0.00050187285486533 0.012723776617989 0.00015
          0.00050187285486533 0.012723776617989 0.0003 0.00066666666666612 0.013 0
          0.00066666666666612 0.013 0.00015 0.00066666666666612 0.013 0.0003
          0.00086640285866826 0.012499721374928 0 0.00086640285866826 0.012499721374928 0.00015
          0.00086640285866826 0.012499721374928 0.0003 0.001 0.012857142857146 0
          0.001 0.012857142857146 0.00015 0.001 0.012857142857146 0.0003
          0.00043301270230906 0.012750000000722 0 0.00043301270230906 0.012750000000722 0.00015
          0.00043301270230906 0.012750000000722 0.0003 0.00025000000019401 0.01256698729822 0
          0.00025000000019401 0.01256698729822 0.00015 0.00025000000019401 0.01256698729822 0.0003
          0 0.0125 0 0 0.0125 0.00015
          0 0.0125 0.0003 0 0.012055555555554 0
          0 0.012055555555554 0.00015 0 0.012055555555554 0.0003
          0.001 0.013 0 0.001 0.013 0.00015
          0.001 0.013 0.0003 0.0005 0.013 0
          0.0005 0.013 0.00015 0.0005 0.013 0.0003
          0.0014444444444451 0.0095172413793029 0 0.0014444444444451 0.0095172413793029 0.00015
          0.0014444444444451 0.0095172413793029 0.0003 0.0018888888888902 0.0095172413793029 0
          0.0018888888888902 0.0095172413793029 0.00015 0.0018888888888902 0.0095172413793029 0.0003
          0.0014444444444452 0.0099310344827529 0 0.0014444444444452 0.0099310344827529 0.00015
          0.0014444444444452 0.0099310344827529 0.0003 0.0018888888888903 0.0099310344827529 0
          0.0018888888888903 0.0099310344827529 0.00015 0.0018888888888903 0.0099310344827529 0.0003
          0.0014444444444452 0.010344827586203 0 0.0014444444444452 0.010344827586203 0.00015
          0.0014444444444452 0.010344827586203 0.0003 0.0014444444444453 0.010758620689653 0
          0.0014444444444453 0.010758620689653 0.00015 0.0014444444444453 0.010758620689653 0.0003
          0.0014444444444453 0.0111724137931 0 0.0014444444444453 0.0111724137931 0.00015
          0.0014444444444453 0.0111724137931 0.0003 0.0014444444444454 0.01158620689655 0
          0.0014444444444454 0.01158620689655 0.00015 0.0014444444444454 0.01158620689655 0.0003
          0.0014444444444455 0.012 0 0.0014444444444455 0.012 0.00015
          0.0014444444444455 0.012 0.0003 0.0011659770658264 0.012184916069452 0
          0.0011978981211319 0.012291694091132 0 0.0011659770658264 0.012184916069452 0.00015
          0.0011978981211319 0.012291694091132 0.00015 0.0011659770658264 0.012184916069452 0.0003
          0.0011978981211319 0.012291694091132 0.0003 0.0014134281085546 0.012468353283698 0
          0.001412897365997 0.01265802692797 0 0.0011710921098332 0.012660749606473 0
          0.0011928404820732 0.012464476127519 0 0.0014134281085546 0.012468353283698 0.00015
          0.001412897365997 0.01265802692797 0.00015 0.0011710921098332 0.012660749606473 0.00015
          0.0011928404820732 0.012464476127519 0.00015 0.0014134281085546 0.012468353283698 0.0003
          0.001412897365997 0.01265802692797 0.0003 0.0011710921098332 0.012660749606473 0.0003
          0.0011928404820732 0.012464476127519 0.0003 0.0011801499871676 0.012824831216028 0
          0.0011801499871676 0.012824831216028 0.00015 0.0011801499871676 0.012824831216028 0.0003
          0.0014335559245349 0.012265987585326 0 0.0014335559245349 0.012265987585326 0.00015
          0.0014335559245349 0.012265987585326 0.0003 0.0014444444444455 0.013 0
          0.0014444444444455 0.013 0.00015 0.0014444444444455 0.013 0.0003
          0.0023333333333355 0.0099310344827529 0 0.0023333333333353 0.0095172413793029 0
          0.0023333333333355 0.0099310344827529 0.00015 0.0023333333333353 0.0095172413793029 0.00015
          0.0023333333333355 0.0099310344827529 0.0003 0.0023333333333353 0.0095172413793029 0.0003
          0.0018888888888904 0.010344827586203 0 0.0018888888888904 0.010344827586203 0.00015
          0.0018888888888904 0.010344827586203 0.0003 0.0023333333333357 0.010344827586203 0
          0.0023333333333357 0.010344827586203 0.00015 0.0023333333333357 0.010344827586203 0.0003
          0.0018888888888905 0.010758620689653 0 0.0018888888888905 0.010758620689653 0.00015
          0.0018888888888905 0.010758620689653 0.0003 0.0018888888888907 0.0111724137931 0
          0.0018888888888907 0.0111724137931 0.00015 0.0018888888888907 0.0111724137931 0.0003
          0.0018888888888908 0.01158620689655 0 0.0018888888888908 0.01158620689655 0.00015
          0.0018888888888908 0.01158620689655 0.0003 0.0018888888888909 0.012 0
          0.0018888888888909 0.012 0.00015 0.0018888888888909 0.012 0.0003
          0.0017386847932316 0.012348636106575 0 0.0017386847932316 0.012348636106575 0.00015
          0.0017386847932316 0.012348636106575 0.0003 0.0018888888888909 0.013 0
          0.001702980389272 0.012655949584096 0 0.0020604062010233 0.012679406151259 0
          0.0018888888888909 0.013 0.00015 0.001702980389272 0.012655949584096 0.00015
          0.0020604062010233 0.012679406151259 0.00015 0.0018888888888909 0.013 0.0003
          0.001702980389272 0.012655949584096 0.0003 0.0020604062010233 0.012679406151259 0.0003
          <InformationKey name="L2_NORM_RANGE" location="vtkDataArray" length="2">
            <Value index="0">
              0.008275862069
            </Value>
            <Value index="1">
              0.013139935359
            </Value>
          </InformationKey>
        </DataArray>
      </Points>
      <Cells>
        <DataArray type="Int64" Name="connectivity" format="ascii" RangeMin="0" RangeMax="755">
          1 0 6 7 3 2
          8 9 3 2 8 9
          5 4 10 11 7 6
          12 13 9 8 14 15
          9 8 14 15 11 10
          16 17 13 12 18 19
          15 14 20 21 15 14
          20 21 17 16 22 23
          19 18 24 25 21 20
          26 27 21 20 26 27
          23 22 28 29 25 24
          30 31 27 26 32 33
          27 26 32 33 29 28
          34 35 31 30 36 37
          33 32 38 39 33 32
          38 39 35 34 40 41
          37 36 42 43 39 38
          44 45 39 38 44 45
          41 40 46 47 43 42
          48 49 45 44 50 51
          45 44 50 51 47 46
          52 53 49 48 54 55
          51 50 56 57 51 50
          56 57 53 52 58 59
          0 60 63 6 2 61
          64 8 2 61 64 8
          4 62 65 10 6 63
          66 12 8 64 67 14
          8 64 67 14 10 65
          68 16 12 66 69 18
          14 67 70 20 14 67
          70 20 16 68 71 22
          18 69 72 24 20 70
          73 26 20 70 73 26
          22 71 74 28 24 72
          75 30 26 73 76 32
          26 73 76 32 28 74
          77 34 30 75 78 36
          32 76 79 38 32 76
          79 38 34 77 80 40
          36 78 81 42 38 79
          82 44 38 79 82 44
          40 80 83 46 42 81
          84 48 44 82 85 50
          44 82 85 50 46 83
          86 52 48 84 87 54
          50 85 88 56 50 85
          88 56 52 86 89 58
          60 90 93 63 61 91
          94 64 61 91 94 64
          62 92 95 65 63 93
          96 66 64 94 97 67
          64 94 97 67 65 95
          98 68 66 96 99 69
          67 97 100 70 67 97
          100 70 68 98 101 71
          69 99 102 72 70 100
          103 73 70 100 103 73
          71 101 104 74 72 102
          105 75 73 103 106 76
          73 103 106 76 74 104
          107 77 75 105 108 78
          76 106 109 79 76 106
          109 79 77 107 110 80
          78 108 111 81 79 109
          112 82 79 109 112 82
          80 110 113 83 81 111
          114 84 82 112 115 85
          82 112 115 85 83 113
          116 86 84 114 117 87
          85 115 118 88 85 115
          118 88 86 116 119 89
          90 120 123 93 91 121
          124 94 91 121 124 94
          92 122 125 95 93 123
          126 96 94 124 127 97
          94 124 127 97 95 125
          128 98 96 126 129 99
          97 127 130 100 97 127
          130 100 98 128 131 101
          99 129 132 102 100 130
          133 103 100 130 133 103
          101 131 134 104 102 132
          135 105 103 133 136 106
          103 133 136 106 104 134
          137 107 105 135 138 108
          106 136 139 109 106 136
          139 109 107 137 140 110
          108 138 141 111 109 139
          142 112 109 139 142 112
          110 140 143 113 111 141
          144 114 112 142 145 115
          112 142 145 115 113 143
          146 116 114 144 147 117
          115 145 148 118 115 145
          148 118 116 146 149 119
          120 150 153 123 121 151
          154 124 121 151 154 124
          122 152 155 125 123 153
          156 126 124 154 157 127
          124 154 157 127 125 155
          158 128 126 156 159 129
          127 157 160 130 127 157
          160 130 128 158 161 131
          129 159 162 132 130 160
          163 133 130 160 163 133
          131 161 164 134 132 162
          165 135 133 163 166 136
          133 163 166 136 134 164
          167 137 135 165 168 138
          136 166 169 139 136 166
          169 139 137 167 170 140
          138 168 171 141 139 169
          172 142 139 169 172 142
          140 170 173 143 141 171
          174 144 142 172 175 145
          142 172 175 145 143 173
          176 146 144 174 177 147
          145 175 178 148 145 175
          178 148 146 176 179 149
          150 180 183 153 151 181
          184 154 151 181 184 154
          152 182 185 155 153 183
          186 156 154 184 187 157
          154 184 187 157 155 185
          188 158 156 186 189 159
          157 187 190 160 157 187
          190 160 158 188 191 161
          159 189 192 162 160 190
          193 163 160 190 193 163
          161 191 194 164 162 192
          195 165 163 193 196 166
          163 193 196 166 164 194
          197 167 165 195 198 168
          166 196 199 169 166 196
          199 169 167 197 200 170
          168 198 201 171 169 199
          202 172 169 199 202 172
          170 200 203 173 171 201
          204 174 172 202 205 175
          172 202 205 175 173 203
          206 176 174 204 207 177
          175 205 208 178 175 205
          208 178 176 206 209 179
          180 210 213 183 181 211
          214 184 181 211 214 184
          182 212 215 185 183 213
          216 186 184 214 217 187
          184 214 217 187 185 215
          218 188 186 216 219 189
          187 217 220 190 187 217
          220 190 188 218 221 191
          189 219 222 192 190 220
          223 193 190 220 223 193
          191 221 224 194 192 222
          225 195 193 223 226 196
          193 223 226 196 194 224
          227 197 195 225 228 198
          196 226 229 199 196 226
          229 199 197 227 230 200
          198 228 231 201 199 229
          232 202 199 229 232 202
          200 230 233 203 201 231
          234 204 202 232 235 205
          202 232 235 205 203 233
          236 206 204 234 237 207
          205 235 238 208 205 235
          238 208 206 236 239 209
          210 240 243 213 211 241
          244 214 211 241 244 214
          212 242 245 215 213 243
          246 216 214 244 247 217
          214 244 247 217 215 245
          248 218 216 246 249 219
          217 247 250 220 217 247
          250 220 218 248 251 221
          219 249 252 222 220 250
          253 223 220 250 253 223
          221 251 254 224 222 252
          255 225 223 253 256 226
          223 253 256 226 224 254
          257 227 225 255 258 228
          226 256 259 229 226 256
          259 229 227 257 260 230
          228 258 261 231 229 259
          262 232 229 259 262 232
          230 260 263 233 231 261
          264 234 232 262 265 235
          232 262 265 235 233 263
          266 236 234 264 267 237
          235 265 268 238 235 265
          268 238 236 266 269 239
          246 270 273 249 247 271
          274 250 247 271 274 250
          248 272 275 251 249 273
          276 252 250 274 277 253
          250 274 277 253 251 275
          278 254 252 276 279 255
          253 277 280 256 253 277
          280 256 254 278 281 257
          255 279 282 258 256 280
          283 259 256 280 283 259
          257 281 284 260 258 282
          285 261 259 283 286 262
          259 283 286 262 260 284
          287 263 261 285 288 264
          262 286 289 265 262 286
          289 265 263 287 290 266
          264 288 291 267 265 289
          292 268 265 289 292 268
          266 290 293 269 294 295
          296 297 298 299 300 301
          298 299 300 301 302 303
          304 305 306 294 297 307
          308 298 301 309 308 298
          301 309 310 302 305 311
          312 306 313 314 315 308
          316 317 315 308 316 317
          318 310 319 320 321 322
          323 324 325 326 327 328
          325 326 327 328 329 330
          331 332 333 334 335 336
          337 338 339 340 337 338
          339 340 341 342 343 344
          345 346 347 348 349 350
          351 352 349 350 351 352
          353 354 355 356 357 358
          359 360 361 362 363 364
          361 362 363 364 365 366
          367 368 267 369 370 237
          268 371 372 238 268 371
          372 238 269 373 374 239
          375 347 376 322 377 351
          378 326 377 351 378 326
          379 355 380 330 381 382
          383 384 385 386 387 388
          385 386 387 388 389 390
          391 392 393 394 395 396
          397 398 399 400 397 398
          399 400 401 402 403 404
          323 322 405 406 327 326
          407 408 327 326 407 408
          331 330 409 410 411 412
          413 414 415 416 417 418
          415 416 417 418 419 420
          421 422 423 424 425 426
          427 428 429 430 427 428
          429 430 431 432 433 434
          435 436 437 438 439 440
          441 442 439 440 441 442
          443 444 445 446 447 358
          357 448 449 362 361 450
          449 362 361 450 451 366
          365 452 54 87 453 394
          56 88 454 398 56 88
          454 398 58 89 455 402
          456 457 295 294 458 459
          299 298 458 459 299 298
          460 461 303 302 457 462
          463 464 459 465 466 467
          459 465 466 467 461 468
          469 470 456 294 312 381
          458 298 315 385 458 298
          315 385 460 302 318 389
          471 472 473 474 475 476
          477 478 475 476 477 478
          479 480 481 482 483 395
          484 485 486 399 487 488
          486 399 487 488 489 403
          490 491 370 492 359 493
          372 494 363 495 372 494
          363 495 374 496 367 497
          237 370 493 207 238 372
          495 208 238 372 495 208
          239 374 497 209 336 335
          498 499 340 339 500 501
          340 339 500 501 344 343
          502 503 463 334 504 505
          466 338 506 507 466 338
          506 507 469 342 508 509
          510 511 512 513 514 515
          516 517 514 515 516 517
          518 519 520 521 522 523
          524 346 525 526 527 350
          525 526 527 350 528 529
          530 354 531 532 464 505
          533 534 467 507 533 534
          467 507 535 536 470 509
          537 147 177 538 539 148
          178 540 539 148 178 540
          541 149 179 542 523 543
          544 471 526 545 546 475
          526 545 546 475 529 547
          548 479 549 360 550 505
          551 364 552 507 551 364
          552 507 553 368 554 509
          555 313 556 557 558 316
          559 560 558 316 559 560
          561 319 562 563 564 565
          566 492 567 568 569 494
          567 568 569 494 570 571
          572 496 573 574 575 485
          576 577 578 488 576 577
          578 488 579 580 581 491
          582 574 511 510 583 577
          515 514 583 577 515 514
          584 580 519 518 87 117
          348 453 88 118 352 454
          88 118 352 454 89 119
          356 455 504 334 544 543
          506 338 546 545 506 338
          546 545 508 342 548 547
          585 586 587 588 589 590
          591 592 589 590 591 592
          593 594 595 596 574 597
          598 511 577 599 600 515
          577 599 600 515 580 601
          602 519 375 322 321 453
          377 326 325 454 377 326
          325 454 379 330 329 455
          557 556 603 604 560 559
          605 606 560 559 605 606
          563 562 607 608 425 609
          512 610 429 611 516 612
          429 611 516 612 433 613
          520 614 207 493 538 177
          208 495 540 178 208 495
          540 178 209 497 542 179
          615 473 616 426 617 477
          618 430 617 477 618 430
          619 481 620 434 297 414
          621 307 301 418 622 309
          301 418 622 309 305 422
          623 311 492 369 624 564
          494 371 625 567 494 371
          625 567 496 373 626 570
          627 333 336 628 629 337
          340 630 629 337 340 630
          631 341 344 632 360 633
          566 550 364 634 569 552
          364 634 569 552 368 635
          572 554 457 456 636 462
          459 458 637 465 459 458
          637 465 461 460 638 468
          357 360 549 543 361 364
          551 545 361 364 551 545
          365 368 553 547 295 464
          532 296 299 467 534 300
          299 467 534 300 303 470
          536 304 639 314 313 555
          640 317 316 558 640 317
          316 558 641 320 319 561
          471 474 524 523 475 478
          527 526 475 478 527 526
          479 482 530 529 426 610
          406 615 430 612 408 617
          430 612 408 617 434 614
          410 619 504 543 549 505
          506 545 551 507 506 545
          551 507 508 547 553 509
          566 565 642 550 569 568
          643 552 569 568 643 552
          572 571 644 554 610 512
          511 598 612 516 515 600
          612 516 515 600 614 520
          519 602 621 414 645 587
          622 418 646 591 622 418
          646 591 623 422 647 595
          405 474 615 406 407 478
          617 408 407 478 617 408
          409 482 619 410 381 384
          636 456 385 388 637 458
          385 388 637 458 389 392
          638 460 648 499 498 636
          649 501 500 637 649 501
          500 637 650 503 502 638
          616 651 423 426 618 652
          427 430 618 652 427 430
          620 653 431 434 324 597
          573 484 328 599 576 487
          328 599 576 487 332 601
          579 490 642 412 411 531
          643 416 415 533 643 416
          415 533 644 420 419 535
          538 358 447 537 540 362
          449 539 540 362 449 539
          542 366 451 541 524 376
          347 346 527 378 351 350
          527 378 351 350 530 380
          355 354 627 651 616 473
          629 652 618 477 629 652
          618 477 631 653 620 481
          405 322 376 474 407 326
          378 478 407 326 378 478
          409 330 380 482 306 307
          556 313 308 309 559 316
          308 309 559 316 310 311
          562 319 345 117 147 537
          349 118 148 539 349 118
          148 539 353 119 149 541
          414 297 296 411 418 301
          300 415 418 301 300 415
          422 305 304 419 621 586
          603 307 622 590 605 309
          622 590 605 309 623 594
          607 311 544 334 333 472
          546 338 337 476 546 338
          337 476 548 342 341 480
          348 347 375 453 352 351
          377 454 352 351 377 454
          356 355 379 455 531 505
          550 642 533 507 552 643
          533 507 552 643 535 509
          554 644 321 324 484 395
          325 328 487 399 325 328
          487 399 329 332 490 403
          598 597 323 406 600 599
          327 408 600 599 327 408
          602 601 331 410 447 448
          522 537 449 450 525 539
          449 450 525 539 451 452
          528 541 513 512 609 654
          517 516 611 655 517 516
          611 655 521 520 613 656
          604 603 586 585 606 605
          590 589 606 605 590 589
          608 607 594 593 463 462
          335 334 466 465 339 338
          466 465 339 338 469 468
          343 342 438 437 314 639
          442 441 317 640 442 441
          317 640 446 445 320 641
          436 383 382 437 440 387
          386 441 440 387 386 441
          444 391 390 445 393 657
          55 54 397 658 57 56
          397 658 57 56 401 659
          59 58 312 314 437 382
          315 317 441 386 315 317
          441 386 318 320 445 390
          346 345 537 522 350 349
          539 525 350 349 539 525
          354 353 541 528 498 335
          462 636 500 339 465 637
          500 339 465 637 502 343
          468 638 369 267 291 624
          371 268 292 625 371 268
          292 625 373 269 293 626
          358 538 493 359 362 540
          495 363 362 540 495 363
          366 542 497 367 394 453
          321 395 398 454 325 399
          398 454 325 399 402 455
          329 403 587 645 660 588
          591 646 661 592 591 646
          661 592 595 647 662 596
          448 543 523 522 450 545
          526 525 450 545 526 525
          452 547 529 528 472 333
          627 473 476 337 629 477
          476 337 629 477 480 341
          631 481 436 435 663 383
          440 439 664 387 440 439
          664 387 444 443 665 391
          411 296 532 531 415 300
          534 533 415 300 534 533
          419 304 536 535 609 425
          424 654 611 429 428 655
          611 429 428 655 613 433
          432 656 492 566 633 359
          494 569 634 363 494 569
          634 363 496 572 635 367
          393 394 54 397 398 56
          397 398 56 401 402 58
          413 414 645 417 418 646
          417 418 646 421 422 647
          628 627 651 630 629 652
          630 629 652 632 631 653
          117 348 345 118 352 349
          118 352 349 119 356 353
          565 642 412 568 643 416
          568 643 416 571 644 420
          457 295 464 459 299 467
          459 299 467 461 303 470
          463 464 505 466 467 507
          466 467 507 469 470 509
          499 336 628 501 340 630
          501 340 630 503 344 632
          384 636 648 388 637 649
          388 637 649 392 638 650
          492 369 370 494 371 372
          494 371 372 496 373 374
          473 474 615 477 478 617
          477 478 617 481 482 619
          381 382 312 385 386 315
          385 386 315 389 390 318
          471 472 544 475 476 546
          475 476 546 479 480 548
          582 574 575 583 577 578
          583 577 578 584 580 581
          312 306 294 315 308 298
          315 308 298 318 310 302
          524 376 474 527 378 478
          527 378 478 530 380 482
          396 393 657 400 397 658
          400 397 658 404 401 659
          483 395 396 486 399 400
          486 399 400 489 403 404
          357 448 543 361 450 545
          361 450 545 365 452 547
          485 573 484 488 576 487
          488 576 487 491 579 490
          621 586 587 622 590 591
          622 590 591 623 594 595
          324 597 323 328 599 327
          328 599 327 332 601 331
          603 307 556 605 309 559
          605 309 559 607 311 562
          610 425 426 612 429 430
          612 429 430 614 433 434
          360 633 359 364 634 363
          364 634 363 368 635 367
          598 610 406 600 612 408
          600 612 408 602 614 410
          574 597 573 577 599 576
          577 599 576 580 601 579
          672 276 273 666 673 277
          274 667 673 277 274 667
          674 278 275 668 675 672
          666 669 676 673 667 670
          676 673 667 670 677 674
          668 671 720 675 669 721
          722 676 670 723 722 676
          670 723 724 677 671 725
          678 279 276 672 679 280
          277 673 679 280 277 673
          680 281 278 674 726 678
          672 675 727 679 673 676
          727 679 673 676 728 680
          674 677 729 726 675 720
          730 727 676 722 730 727
          676 722 731 728 677 724
          681 282 279 678 682 283
          280 679 682 283 280 679
          683 284 281 680 732 681
          678 726 733 682 679 727
          733 682 679 727 734 683
          680 728 684 285 282 681
          685 286 283 682 685 286
          283 682 686 287 284 683
          735 684 681 732 736 685
          682 733 736 685 682 733
          737 686 683 734 687 288
          285 684 688 289 286 685
          688 289 286 685 689 290
          287 686 738 687 684 735
          739 688 685 736 739 688
          685 736 740 689 686 737
          690 291 288 687 691 292
          289 688 691 292 289 688
          692 293 290 689 741 690
          687 738 742 691 688 739
          742 691 688 739 743 692
          689 740 693 694 564 624
          695 696 567 625 695 696
          567 625 697 698 570 626
          699 700 701 702 703 704
          705 706 703 704 705 706
          707 708 709 710 702 701
          412 565 706 705 416 568
          706 705 416 568 710 709
          420 571 413 701 711 645
          417 705 712 646 417 705
          712 646 421 709 713 647
          690 741 744 714 691 742
          745 715 691 742 745 715
          692 743 746 716 714 699
          702 694 715 703 706 696
          715 703 706 696 716 707
          710 698 694 702 565 564
          696 706 568 567 696 706
          568 567 698 710 571 570
          747 717 748 749 750 718
          751 752 750 718 751 752
          753 719 754 755 699 744
          748 700 703 745 751 704
          703 745 751 704 707 746
          754 708 711 701 700 717
          712 705 704 718 712 705
          704 718 713 709 708 719
          714 694 693 690 715 696
          695 691 715 696 695 691
          716 698 697 692 291 690
          693 624 292 691 695 625
          292 691 695 625 293 692
          697 626 711 717 660 645
          712 718 661 646 712 718
          661 646 713 719 662 647
          714 699 744 715 703 745
          715 703 745 716 707 746
          748 700 717 751 704 718
          751 704 718 754 708 719
          413 701 412 417 705 416
          417 705 416 421 709 420
        </DataArray>
        <DataArray type="Int64" Name="offsets" format="ascii" RangeMin="8" RangeMax="3624">
          8 16 24 32 40 48
          56 64 72 80 88 96
          104 112 120 128 136 144
          152 160 168 176 184 192
          200 208 216 224 232 240
          248 256 264 272 280 288
          296 304 312 320 328 336
          344 352 360 368 376 384
          392 400 408 416 424 432
          440 448 456 464 472 480
          488 496 504 512 520 528
          536 544 552 560 568 576
          584 592 600 608 616 624
          632 640 648 656 664 672
          680 688 696 704 712 720
          728 736 744 752 760 768
          776 784 792 800 808 816
          824 832 840 848 856 864
          872 880 888 896 904 912
          920 928 936 944 952 960
          968 976 984 992 1000 1008
          1016 1024 1032 1040 1048 1056
          1064 1072 1080 1088 1096 1104
          1112 1120 1128 1136 1144 1152
          1160 1168 1176 1184 1192 1200
          1208 1216 1224 1232 1240 1248
          1256 1264 1272 1280 1288 1296
          1304 1312 1320 1328 1336 1344
          1352 1360 1368 1376 1384 1392
          1400 1408 1416 1424 1432 1440
          1448 1456 1464 1472 1480 1488
          1496 1504 1512 1520 1528 1536
          1544 1552 1560 1568 1576 1584
          1592 1600 1608 1616 1624 1632
          1640 1648 1656 1664 1672 1680
          1688 1696 1704 1712 1720 1728
          1736 1744 1752 1760 1768 1776
          1784 1792 1800 1808 1816 1824
          1832 1840 1848 1856 1864 1872
          1880 1888 1896 1904 1912 1920
          1928 1936 1944 1952 1960 1968
          1976 1984 1992 2000 2008 2016
          2024 2032 2040 2048 2056 2064
          2072 2080 2088 2096 2104 2112
          2120 2128 2136 2144 2152 2160
          2168 2176 2184 2192 2200 2208
          2216 2224 2232 2240 2248 2256
          2264 2272 2280 2288 2296 2304
          2312 2320 2328 2336 2344 2352
          2360 2368 2376 2384 2392 2400
          2408 2416 2424 2432 2440 2448
          2456 2464 2472 2480 2488 2496
          2504 2512 2520 2528 2536 2544
          2552 2560 2568 2576 2584 2592
          2600 2608 2616 2624 2632 2640
          2648 2656 2664 2672 2680 2688
          2696 2704 2712 2720 2728 2736
          2744 2752 2760 2768 2776 2784
          2792 2800 2808 2816 2824 2832
          2838 2844 2850 2856 2862 2868
          2874 2880 2886 2892 2898 2904
          2910 2916 2922 2928 2934 2940
          2946 2952 2958 2964 2970 2976
          2982 2988 2994 3000 3006 3012
          3018 3024 3030 3036 3042 3048
          3054 3060 3066 3072 3078 3084
          3090 3096 3102 3108 3114 3120
          3126 3132 3138 3144 3150 3156
          3164 3172 3180 3188 3196 3204
          3212 3220 3228 3236 3244 3252
          3260 3268 3276 3284 3292 3300
          3308 3316 3324 3332 3340 3348
          3356 3364 3372 3380 3388 3396
          3404 3412 3420 3428 3436 3444
          3452 3460 3468 3476 3484 3492
          3500 3508 3516 3524 3532 3540
          3548 3556 3564 3572 3580 3588
          3594 3600 3606 3612 3618 3624
        </DataArray>
        <DataArray type="UInt8" Name="types" format="ascii" RangeMin="12" RangeMax="13">
          12 12 12 12 12 12
          12 12 12 12 12 12
          12 12 12 12 12 12
          12 12 12 12 12 12
          12 12 12 12 12 12
          12 12 12 12 12 12
          12 12 12 12 12 12
          12 12 12 12 12 12
          12 12 12 12 12 12
          12 12 12 12 12 12
          12 12 12 12 12 12
          12 12 12 12 12 12
          12 12 12 12 12 12
          12 12 12 12 12 12
          12 12 12 12 12 12
          12 12 12 12 12 12
          12 12 12 12 12 12
          12 12 12 12 12 12
          12 12 12 12 12 12
          12 12 12 12 12 12
          12 12 12 12 12 12
          12 12 12 12 12 12
          12 12 12 12 12 12
          12 12 12 12 12 12
          12 12 12 12 12 12
          12 12 12 12 12 12
          12 12 12 12 12 12
          12 12 12 12 12 12
          12 12 12 12 12 12
          12 12 12 12 12 12
          12 12 12 12 12 12
          12 12 12 12 12 12
          12 12 12 12 12 12
          12 12 12 12 12 12
          12 12 12 12 12 12
          12 12 12 12 12 12
          12 12 12 12 12 12
          12 12 12 12 12 12
          12 12 12 12 12 12
          12 12 12 12 12 12
          12 12 12 12 12 12
          12 12 12 12 12 12
          12 12 12 12 12 12
          12 12 12 12 12 12
          12 12 12 12 12 12
          12 12 12 12 12 12
          12 12 12 12 12 12
          12 12 12 12 12 12
          12 12 12 12 12 12
          12 12 12 12 12 12
          12 12 12 12 12 12
          12 12 12 12 12 12
          12 12 12 12 12 12
          12 12 12 12 12 12
          12 12 12 12 12 12
          12 12 12 12 12 12
          12 12 12 12 12 12
          12 12 12 12 12 12
          12 12 12 12 12 12
          13 13 13 13 13 13
          13 13 13 13 13 13
          13 13 13 13 13 13
          13 13 13 13 13 13
          13 13 13 13 13 13
          13 13 13 13 13 13
          13 13 13 13 13 13
          13 13 13 13 13 13
          13 13 13 13 13 13
          12 12 12 12 12 12
          12 12 12 12 12 12
          12 12 12 12 12 12
          12 12 12 12 12 12
          12 12 12 12 12 12
          12 12 12 12 12 12
          12 12 12 12 12 12
          12 12 12 12 12 12
          12 12 12 12 12 12
          13 13 13 13 13 13
        </DataArray>
      </Cells>
    </Piece>
  </UnstructuredGrid>
</VTKFile>
