<?xml version="1.0"?>
<VTKFile type="UnstructuredGrid" version="0.1" byte_order="LittleEndian" header_type="UInt32" compressor="vtkZLibDataCompressor">
  <UnstructuredGrid>
    <Piece NumberOfPoints="795" NumberOfCells="454">
      <PointData>
        <DataArray type="Int32" Name="libmesh_node_id" format="ascii" RangeMin="2220" RangeMax="4979">
          2220 2221 2222 2223 2224 2225
          2226 2227 2228 2229 2230 2231
          2388 2389 2390 2391 2392 2393
          2394 2395 2396 2397 2398 2399
          2402 2405 2408 2409 2410 2411
          2463 2464 2465 2466 2467 2468
          2469 2470 2471 2472 2473 2474
          2475 2476 2477 2478 2479 2480
          2499 2500 2501 2502 2503 2504
          2505 2506 2507 2508 2509 2510
          2511 2512 2513 2514 2515 2516
          2517 2518 2519 2520 2521 2522
          2613 2614 2616 2617 2618 2620
          2621 2622 2624 2652 2653 2654
          2655 2656 2657 2658 2659 2660
          2661 2662 2663 2697 2701 2705
          2721 2722 2723 2724 2725 2726
          2736 2737 2738 2739 2740 2741
          2742 2743 2744 2745 2746 2747
          2748 2749 2750 2751 2752 2753
          2754 2755 2756 2757 2758 2759
          2760 2761 2762 2763 2764 2765
          2778 2779 2780 2781 2782 2783
          2784 2785 2786 2862 2863 2864
          2865 2866 2867 2868 2869 2870
          2871 2872 2873 2922 2923 2924
          2925 2926 2927 2940 2941 2942
          2943 2944 2945 2946 2947 2948
          2958 2959 2960 2961 2962 2963
          2964 2965 2966 2967 2968 2969
          2992 2993 2996 2997 3000 3001
          3018 3019 3020 3021 3022 3023
          3036 3039 3040 3043 3044 3047
          3060 3061 3062 3063 3064 3065
          3066 3067 3068 3069 3070 3071
          3072 3073 3074 3075 3076 3077
          3180 3181 3182 3183 3184 3185
          3204 3205 3206 3207 3208 3209
          3240 3242 3244 3258 3260 3262
          3273 3274 3275 3276 3277 3278
          3279 3280 3281 3282 3283 3284
          3285 3286 3287 3288 3289 3290
          3291 3292 3293 3294 3295 3296
          3297 3298 3299 3348 3349 3350
          3351 3352 3353 3354 3355 3356
          3357 3358 3359 3360 3361 3362
          3363 3364 3365 3369 3370 3371
          3372 3373 3374 3399 3400 3401
          3402 3403 3404 3405 3406 3407
          3408 3409 3410 3411 3412 3413
          3414 3415 3416 3417 3418 3419
          3420 3421 3422 3462 3463 3464
          3486 3487 3488 3489 3490 3491
          3507 3508 3509 3510 3511 3512
          3527 3530 3533 3534 3535 3536
          3555 3556 3557 3558 3559 3560
          3561 3562 3563 3579 3580 3581
          3594 3595 3596 3597 3598 3599
          3603 3604 3605 3606 3607 3608
          3621 3622 3623 3624 3625 3626
          3627 3628 3629 3642 3643 3644
          3645 3646 3647 3648 3649 3650
          3651 3652 3653 3669 3670 3671
          3672 3673 3674 3675 3676 3677
          3678 3679 3680 3681 3682 3683
          3750 3751 3752 3753 3754 3755
          3756 3757 3758 3759 3760 3761
          3780 3781 3782 3783 3784 3785
          3909 3910 3911 3912 3913 3914
          3915 3916 3917 3918 3919 3920
          3951 3952 3953 3966 3967 3968
          3975 3976 3977 3978 3979 3980
          3981 3982 3983 3984 3985 3986
          3987 3988 3989 3990 3991 3992
          4008 4009 4010 4011 4012 4013
          4014 4015 4016 4017 4018 4019
          4020 4021 4022 4023 4024 4025
          4026 4027 4028 4029 4030 4031
          4041 4042 4043 4044 4045 4046
          4047 4048 4049 4050 4051 4052
          4068 4069 4070 4080 4081 4082
          4092 4093 4094 4095 4096 4097
          4098 4099 4100 4101 4102 4103
          4122 4123 4124 4125 4126 4127
          4146 4147 4148 4149 4150 4151
          4152 4153 4154 4155 4156 4157
          4158 4159 4160 4173 4174 4175
          4176 4177 4178 4179 4180 4181
          4182 4183 4184 4188 4189 4190
          4194 4195 4196 4197 4198 4199
          4200 4201 4202 4203 4204 4205
          4218 4219 4220 4221 4222 4223
          4230 4231 4232 4266 4267 4268
          4281 4282 4283 4299 4300 4301
          4305 4306 4307 4308 4309 4310
          4311 4312 4313 4335 4336 4337
          4341 4342 4343 4395 4396 4397
          4455 4456 4457 4473 4474 4475
          4476 4477 4478 4515 4516 4517
          4578 4579 4580 4581 4582 4583
          4614 4615 4616 4704 4705 4706
          4707 4708 4709 4710 4711 4712
          4713 4714 4715 4737 4738 4739
          4740 4741 4742 4821 4822 4823
          4842 4843 4844 4845 4846 4847
          4854 4855 4856 4857 4858 4859
          4860 4861 4862 4863 4864 4865
          4866 4867 4868 4875 4876 4877
          4878 4879 4880 4908 4909 4910
          4914 4915 4916 4932 4933 4934
          4941 4942 4943 4977 4978 4979
          2400 2401 2403 2404 2406 2407
          2615 2619 2623 2698 2699 2700
          2702 2703 2704 2706 2707 2708
          2991 2994 2995 2998 2999 3002
          2331 2330 2335 2334 2339 2338
          3241 3243 3245 3259 3186 3188
          3261 3189 3191 3263 3192 3194
          3448 3450 3452 3525 3526 3528
          3529 3531 3532 3537 3538 3539
          3540 3541 3542 3654 3657 3660
          2328 2332 2336 3852 3853 3854
          3993 3994 3995 4338 4339 4340
          3513 3514 3515 4458 4321 4459
          4324 4460 4327 4584 4585 4586
          4587 4588 4589 4791 4792 4793
          4794 4795 4796 4797 4798 4799
          4431 4432 4433 3495 3187 3499
          3190 3503 3193 3954 3957 3958
          3961 3962 3965 4899 4900 4901
          4968 4969 4970 4911 4912 4913
          3498 3502 3506 4902 4903 4904
          4434 4436 4438
        </DataArray>
        <DataArray type="Float64" Name="resid_x" format="ascii" RangeMin="-0.8709555692222324" RangeMax="0.8341738869866546">
          0.004245629336109502 0.00584720966736807 0.000722104984217431 0.009660182129309192 0.0025911040224810833 0.006864447331909496
          -0.004918737420802621 0.012495862641785038 -0.019951962287708902 -0.010601376464307144 -0.01570717116716125 -0.013928777297115502
          0.0007505588016236686 -0.0037176188267142862 -0.0020574727255509018 -0.0003453644557556146 0.0004837529250369954 -0.012782944508296978
          -0.006448167838161822 -0.0059165581835616265 -0.016880854398469758 -0.018812327504557302 -0.014604180780823484 -0.018258518573818883
          -0.015900164323992882 -0.023545949918592157 -0.018718723867632292 -0.0174708786970017 -0.02212625045055816 -0.016821490648489146
          -0.010057836187862823 -0.01932937257476597 -0.0033653080822384496 -0.02351007177748865 -0.015964399908234506 -0.028254402913084675
          0.002426563841148699 0.006774832452001611 0.007678611999449636 0.003392173929896325 0.00022916723236110492 0.006414588960891532
          -0.0006248419111782866 -0.0035214667079037643 -0.024319559290194803 -0.024138536003312616 -0.024584879492208778 -0.014792827739644965
          0.00004176243933429191 0.0013610548452849258 0.000942943546831998 0.0030224951871939965 -0.004777136728780107 -0.0014951402701690597
          -0.00908328313875284 -0.0028804918995519735 -0.02168103898579332 -0.018948964477286445 -0.019227104858778432 -0.016537914577844592
          0.0004496401534885841 -0.00033455923566094725 0.0020167072483427972 0.002442302281253639 -0.0031323277453019216 -0.007861359944216773
          -0.0009816118641143845 -0.005372481959946995 -0.018293166696181196 -0.023447723112068886 -0.01968304592162262 -0.021886476983610237
          -0.006922911840009149 -0.009914197292716587 -0.0072609166661763425 -0.019363245959136854 -0.020328836394130967 -0.017364034055436406
          -0.027393891781102298 -0.02075782204745824 -0.03731664597722162 -0.0002534810458918457 0.0008671401233888432 0.0033512070940925343
          0.004195715231721131 -0.000007275590608202265 -0.003136898459658255 0.004129978965442982 -0.0015308363409687331 -0.016529673152771984
          -0.014129885693954236 -0.02105253865661938 -0.023362868614535515 -0.01856804935727041 -0.02716013160016839 -0.022236310132028425
          -0.0017307203320855447 -0.0000476504578283965 0.0031722810251326727 0.006367395996846881 -0.012476753432036025 -0.014754323346055642
          -0.006196044741624718 -0.007546080693797919 -0.006994876620185053 -0.007323852182391732 -0.0015343439660666647 -0.00981617398934631
          -0.01570515441278353 -0.013888775714795187 -0.024260256577481876 0.004832756547232253 0.005565036936204137 0.003953692639452555
          0.003315932527662213 0.0033347234936970116 0.0044461747339337165 -0.00046447584958286825 -0.00498694495678792 -0.016375713436420636
          -0.01767936313999474 -0.02416229235688583 -0.024992340411592262 -0.003164936341502944 -0.008487904096782461 -0.0023441351085500273
          -0.004566005461524192 -0.005436367429459299 -0.007722296040350685 -0.01673244931528295 -0.011850180924648956 -0.02075709936186687
          -0.010905343464801653 -0.011233898848494572 -0.005771947900693242 -0.006022364671897762 -0.004469529258821492 -0.0031673540496086616
          -0.008114339832011375 -0.010389795076552133 -0.02113034107737377 -0.010912301406363234 -0.0022302036302104256 0.0024659869965918957
          -0.011592926874576914 -0.001822947315599066 -0.0008098343279687725 0.0033966157997415425 -0.0069950903317801405 -0.026504696908267178
          -0.0151689469161429 -0.015449392048652255 -0.03382428130097059 0.001919019546225087 -0.0008297779716253117 0.004325160666294181
          -0.00574472538176618 -0.018065509110019917 -0.02302903854331717 0.00673128454656613 0.017466622030621437 -0.005652213202893108
          0.014428487909267318 0.045933393058500194 0.01887247892199806 -0.021809035344955596 -0.0013813543796459271 -0.01477233943382572
          -0.013866323660617574 0.004680197415114051 -0.008860062846989258 -0.019029714390737418 -0.03074220988149401 -0.0015924858120257568
          -0.016614209587673123 -0.009809652337358976 -0.039507439184661486 -0.02461530199216 -0.02797314906779569 -0.028137600017997144
          -0.008338761692381347 0.0037638119258467384 -0.013192455247001966 0.007078284390123368 -0.005378449040307487 -0.008462638063555517
          -0.01859837488056204 -0.016619148792553773 -0.01214121849250116 -0.01960933960474076 -0.008106340881845142 -0.01658333803900991
          -0.020294760456057048 -0.015444283821466342 -0.02582957333799385 -0.020154530700803974 -0.012972260987954343 -0.01215270307966776
          -0.019494450057737644 -0.02453540184134706 -0.03045389685075417 -0.007801054316350697 -0.03813727995352245 -0.047638977977639385
          -0.031492413183968004 0.011665631208355398 -0.018359744889425933 -0.01511386390206404 -0.008708106758136935 0.002432521707050883
          -0.0023993977145870815 -0.014353978250130517 0.012530869435924075 -0.030648790738749376 -0.017751708002754718 -0.05024040109178518
          -0.009066535953757227 -0.008572993714080823 -0.0027481308944830585 -0.012589688538054311 -0.015818885691156526 -0.018533115455386273
          -0.00939818772845058 -0.007792834053316433 0.00370043144809884 -0.011701202487845563 -0.012910988898040987 -0.017082851443332103
          -0.02134546500494139 -0.018769791684055903 -0.008913299599440094 0.0822301556947469 0.12540369982227162 -0.04142453372028854
          -0.05033229258267102 -0.017253075734264378 -0.041437250422021066 -0.0653582971708131 -0.05356054527294507 -0.07307443595839658
          -0.09198005638848805 -0.024119057787688192 -0.03906941596978086 -0.04932299842947785 -0.06080895993250479 0.010995677096930834
          -0.01231939433981799 -0.005791953100565905 -0.01406138966204562 -0.009081589895303721 -0.0022454026538447636 -0.007968138512194578
          -0.015565487322227178 -0.01725023480959198 -0.024048692605920685 -0.008129717363138889 -0.005485808988572316 -0.0038224981202094332
          0.0013256793808116285 -0.012774099080289592 -0.016522091647880544 -0.06314662934122417 -0.009352934439665006 0.04099319126660195
          0.0005741760938846596 0.000990894518857921 -0.006670889009129155 -0.009352076989058489 -0.00028539564600649214 -0.00040333094439581885
          -0.012745572576610797 -0.009806399981186154 -0.01204443532613464 -0.015746013552718097 -0.025074906780979234 -0.022385383802252967
          -0.021074002764445154 0.01721917320231814 -0.0009007033661632136 -0.09649502601354598 0.09915124065506475 0.16400003689137943
          -0.02456734494323154 -0.037695907367615966 -0.04464702605911253 -0.024294012657707142 -0.0002518575466812223 0.0062843392297304845
          0.016077263907058992 0.0031566128285724915 -0.0010529678421997701 -0.015497523497595367 0.194976410576837 0.006290961319216137
          0.09686592622962564 -0.013174679265171463 -0.019484701695200002 -0.009266561072750257 -0.01340127554265269 0.0008829683592175286
          0.0017152921937837462 -0.015307664389936804 -0.015599879106991565 -0.011619055724113814 -0.010939441638114111 0.0005597801892713861
          -0.005902479126855376 -0.011670431469772424 -0.019788774661745556 -0.01570672878114454 -0.004119678436596663 -0.023218434116227815
          -0.01983368668247376 -0.022884501288402692 0.012396248968359558 0.007787278456388824 -0.009207619945874157 -0.008588160017689805
          -0.011736174300587043 -0.007936174401275142 0.002143903696430527 0.0005538337517467795 -0.010998694340877746 -0.009148972343677286
          -0.010052398284150499 -0.015970116215507257 -0.019160867883675436 -0.01609060499495918 0.00577646543143473 -0.026538542566545864
          -0.013714202013541232 -0.00652860798455368 0.00047959051779988826 -0.0020448500060821218 -0.008579216315464322 -0.004607130234038692
          -0.013278389740026597 0.000598900719734452 -0.017248436252724986 0.4399023748457136 0.13610561707739421 -0.1815873246632851
          -0.03359441170097632 -0.03382254416192865 0.0090260512262752 0.0034415936601712716 -0.017350792481151345 -0.016920623330900497
          -0.02034916262144071 -0.007242029628941715 -0.0015872140517609878 0.0007839533726796688 -0.017285179109384874 -0.01730803260624736
          -0.010520471660245612 -0.013650720188389087 -0.01187340172936402 0.0013581289285555798 -0.005000204725602586 -0.002612918552959975
          -0.006381371472731878 -0.008522339449772431 -0.008256369057581203 -0.0029969143274559684 0.001673513034727847 -0.0017132072938590426
          -0.009680870430973876 0.0011800162637225498 0.0010087202273738605 0.0003857455152109779 -0.01001391053965861 -0.018652385144774186
          -0.010771912180956189 -0.013225645564560295 -0.024383491699838444 0.0010070249048252933 0.0016052788412572738 -0.0027337267946565547
          0.0018993095876007615 -0.001374484183795488 0.0028623085442305296 -0.0144958919064333 -0.00552570802761565 -0.02229417253941879
          -0.026531063181458592 -0.027021502636502603 -0.024791501009666206 -0.025297662672321586 -0.0011074182509567265 -0.018431358499238826
          -0.004106100876195118 -0.006677572400021425 0.002573555485271495 -0.002674139941649223 -0.021220260798023638 -0.019484992572071924
          -0.008636189054832322 -0.011766526849841696 -0.010739005126014334 -0.028966936557154987 -0.0193162846287791 -0.02146843361241846
          -0.004746363957306432 -0.009586923657380342 0.0012120204571175464 -0.0036552886980406873 -0.021761382255338635 -0.024435494016292525
          -0.01176285731757254 -0.022311690656401595 -0.005012028609833408 -0.011697432045200351 -0.020942252928156435 -0.024728780406666928
          -0.008974208871584288 -0.006016522075850794 -0.004040009739354922 -0.0030023951951116956 -0.01890807297226882 -0.01525267060628055
          -0.0331718421545979 -0.009753178192847045 -0.023373701034569372 -0.023030154190881724 -0.0021505349970243337 -0.027483420442098172
          -0.002653224161667911 -0.009754145233113576 -0.014015527472854838 -0.008574348514404306 -0.0005345859654370955 -0.010839435840297007
          -0.014937272411978064 -0.004499482398673038 -0.021243262459668788 -0.014059666739480114 -0.025006630315461464 -0.02306186520416098
          -0.013877768986203964 -0.007260451318109595 -0.026719759342887173 0.0004909677764901588 -0.03083145994911618 -0.01471243420525603
          -0.016062349244900354 -0.015366754271546768 0.0003561178697166767 -0.006087280236443782 -0.031044277900495132 -0.030243809596125715
          0.0029982627483153834 -0.010714347924253964 -0.016481004066632998 -0.01784226406195799 -0.00504531601272884 -0.008972116698116928
          -0.018640754522503578 -0.01347535292311619 -0.014539405235907132 -0.020817198646305712 -0.022136568530415346 -0.017945670500667532
          -0.016778688534248687 -0.01362027006350619 -0.01348358515159287 -0.019247798201021293 -0.005976481507454778 -0.02734473870996501
          -0.02941647353195176 -0.024872197521556727 -0.021685249459624245 -0.01188299249921132 -0.02357852387370496 -0.017157029526046197
          -0.025956979181231077 -0.019645100345643485 0.001134996372270436 -0.0006793637897164473 -0.025921008448689165 -0.01914337771766128
          -0.02067762054962685 -0.0019915336773879133 -0.02363462316236209 -0.037459013196152746 0.0024071510194101364 -0.01269280410650353
          -0.01217733914930541 -0.006693077330186981 -0.0010662566300401188 -0.004277173972299764 -0.011614358212769904 -0.007647597283939156
          -0.02000073777593503 -0.01988378784485967 -0.005041213016810708 -0.026120665299568913 -0.017597911789903442 -0.021287263628583908
          -0.016275945839670847 -0.01398603435495005 -0.022475739650972493 -0.022531784178412728 -0.01835071925924936 -0.01914346411274792
          -0.012686360662275575 -0.014207111188753174 -0.007347128085130272 -0.017779151236968715 -0.00729653683483189 -0.011608177230672645
          -0.017965036984681326 -0.019227240711153115 -0.012608375387300086 -0.031031701454226734 -0.024663992909375487 -0.018135545911821538
          -0.010766055242233286 -0.02483811960001514 -0.022871426884224277 -0.015756861908709396 -0.010269308270151711 -0.00850497824874008
          -0.006245968934978308 -0.021445839361128094 -0.016300203693288218 -0.021715485867314754 -0.010092299496001544 -0.004211981100785245
          -0.005906870717367063 -0.016231590471915247 -0.008482156782271488 -0.02032083038164867 -0.023757860121158103 -0.02194898428529246
          0.000029063751679991867 0.002300596557977208 0.008681088346401467 0.010423235957773613 0.0012882142476695613 0.0037168953639801217
          0.01634965278514411 0.018992533827352887 0.00159638944689533 -0.007449042791018101 0.011745654604957245 0.0067730973674100525
          0.00949922350663801 0.00268920139818718 0.021223225479007013 0.008356873418234656 0.004555577137614897 -0.00428662154425119
          -0.00629434204657997 0.0007606825531194517 -0.0012614671815152079 -0.005060176709424269 -0.00044561520010510947 -0.008903208753510583
          -0.013891837021809295 0.0016061979348380717 -0.021004768376275074 -0.014509203260839598 -0.008504857894287454 -0.01827902818338334
          -0.024800806372951012 -0.004321596093543434 -0.02059981707688152 -0.015790849700464626 -0.013983413471417183 -0.001476227537631658
          -0.006535132694804879 -0.01463030574067492 -0.014080622962865608 -0.02135357633177737 -0.0032935309432540194 -0.01382533698888544
          -0.04997039967426886 -0.021218604599333446 -0.012456192284425072 -0.021589010084809956 -0.02904525731338481 -0.022283559099435024
          -0.024482469935108497 -0.0034833925885333628 -0.010835342287364824 -0.021883437479927714 -0.01802761411748488 -0.02644468749228235
          -0.020576494539906065 -0.022391032387799825 -0.01954842664034473 -0.0385818472897812 -0.0036318161470263455 -0.013285945860472381
          -0.00947947285731221 -0.0009471030317573792 -0.011640947056910989 -0.019252794218044933 -0.005950823612073997 -0.008289815852284832
          -0.01000485781606475 0.00544770350970758 -0.0050888033000600075 -0.7381155683581238 -0.541548566183482 -0.09789639532516059
          -0.1493762641878753 0.009644621198454217 0.03760498115631261 0.42251260039620053 0.19254515909243697 0.8341738869866546
          0.4127799769081886 0.4667868500190355 0.236579485050477 -0.013807808272517264 -0.00015734328815408816 -0.011096662080490649
          0.002166258268663235 -0.017795833654438376 -0.005250522879391539 -0.01623629520366965 0.0015277938979778583 0.004533216088581149
          -0.020289823837049248 -0.022321432635693306 -0.016496983691122402 -0.016557729712456393 -0.017998431323894337 -0.014099570775664816
          0.18057796200607257 -0.004519249211728749 0.1621924133928676 0.003861196931512545 0.08531348108862158 -0.002129114746345806
          0.00284922379216912 -0.010373607040730093 0.00698895856794568 0.011469474245936695 -0.004068982122360509 0.019763484268226605
          0.0024327308262943603 -0.008845163310744475 0.01036096979474177 -0.0004390752152052535 -0.024790847352702094 0.014468457869730056
          -0.019588782885124445 0.00797092209754613 -0.0034553534039218903 -0.003121601685840414 0.01668190783482615 -0.0075828256458629895
          -0.015095718405308212 -0.01019176934487609 -0.01332685761743102 -0.0042392587080248845 0.006576215974327226 0.0013064596724907673
          -0.02597588824774899 -0.023038145263244214 -0.023206654246296754 -0.016385430491085096 -0.0027453143131506152 -0.003808599499200316
          -0.014291299225210885 -0.0015549324159582767 -0.019368781040943972 -0.0016886486866614092 -0.018151249440994555 -0.007540890200056438
          -0.03222279387439464 -0.027388035811064526 -0.04143432587645268 -0.006859419042134718 -0.008913008965245162 -0.0037546976891169592
          -0.014178685502340471 -0.004250114677773809 0.0008773374754307284 -0.01677772716445247 -0.014739236549937473 -0.008501327728402508
          -0.012617421880058544 -0.008819953550245785 -0.01885988918815329 -0.013110825991637043 -0.013865036489855598 0.010763736009553604
          -0.016846196216822484 -0.006584655901035408 -0.04642903643038254 -0.018450584900954414 -0.036908415691043306 -0.0332271890429634
          -0.025574506588716517 -0.05226603639848193 -0.012778214811780764 -0.050253136275291155 -0.017091171934175087 0.004925755845986757
          -0.08300377101686962 0.027457404624103177 0.010993091269728694 -0.048154407728421056 0.005607403802651234 -0.021410912703647256
          0.002326954856186614 -0.02080563087988807 -0.056284812379783666 -0.007451981002844832 -0.01701858040229709 -0.019013850825185585
          -0.022784101927815215 -0.01885987935181177 -0.01582829334681435 0.008562853948765436 -0.04842319815451912 -0.012402418485200073
          -0.03469141159367517 -0.03871611844738787 -0.020293950036301744 -0.003995054322251335 -0.011157012157687163 -0.015293728290313169
          -0.004842749996275764 -0.02678784776849419 -0.03377310716985882 0.004074824351398831 0.012922204102295609 -0.012476406541987117
          -0.01022823817814178 -0.00829026232421981 -0.012345373905684909 -0.004091863309025001 -0.0038468253846346556 -0.012990075931282874
          -0.01778178085555915 0.011156111699301974 -0.013644680575024992 -0.014235376467726546 -0.01140858369716824 -0.02828924626465401
          -0.024722990499569164 -0.02401981211223081 -0.02377094160778981 -0.021443385137139614 -0.01793583480186456 -0.028509222373848786
          -0.03425249987672352 -0.014681132501522143 -0.013700576960676614 -0.03202382280009264 -0.045230307122302804 -0.03568925474620421
          -0.1771229692267262 -0.45301338296022564 -0.3758124007568675 -0.8709555692222324 -0.20512356155913558 -0.4556593234515418
          -0.025676234959903788 -0.024507039679229514 -0.019774561410958125 -0.06395604041320269 -0.03264858984640018 -0.1400581467222004
          -0.05268681379060958 -0.12454646528764712 -0.04873833131352434 -0.00983604729738552 -0.022481029303041744 -0.02135492767782665
          -0.025618279920285758 -0.015272451376652896 -0.00958533460086608 -0.2124203098175137 -0.17211860046646876 -0.032676027083658354
          -0.015848618787723368 -0.02060937158634424 -0.014573200162099287 -0.03227804897084674 -0.02226536873173046 -0.025067838033173473
          -0.00631387795512417 -0.03487137940675922 -0.04436196322557606 -0.023174175262312247 -0.024422216366442484 -0.01134661204833698
          -0.012641270133125104 -0.030593909439140532 -0.023900208993213212
        </DataArray>
        <DataArray type="Float64" Name="resid_y" format="ascii" RangeMin="-0.24778115604529685" RangeMax="0.3073149884551106">
          0.00345668541682154 -0.0003827585976061837 0.0026612571063905285 -0.009700427520264593 0.0065023454226599536 0.003223130903413182
          0.01325491789153457 -0.007791348329507508 0.01934319851517031 0.013995902435328712 0.02041853312714501 0.014638617739196568
          -0.00043301840376991363 0.003373487588955615 0.005830305861831919 0.005233977705017101 -0.0011991594792600535 0.007434135911579903
          0.014043106505456315 0.01741109432810739 0.006670631155173995 0.007956375063163726 0.01169446292543963 0.01576520192037345
          0.010650140477014264 0.020147461029226293 0.01270863593010238 0.011855758075452305 0.01541417669380829 0.008527546548663667
          0.011603428219356707 0.00510208327348409 0.005404470879944025 -0.0030895757723278933 0.00992640924429617 0.009161710831095293
          -0.0002571864929193021 -0.00011632260547164708 0.0009917228203466244 -0.00028723008444046447 0.0029277736823483495 0.0027067915906064804
          0.008309822404714451 0.006815822845879308 0.014499362244600692 0.013452064215241144 0.012685588745280335 0.012307778978523079
          -0.0003057335694042346 -0.0007629009084386545 -0.00026608729629939987 -0.002047256595953534 0.004477927838328566 0.0032273248113176
          0.0052097319608660625 0.0012023237043647175 0.014440778564106846 0.012251048171880885 0.010994493231773303 0.011277836325926188
          -0.0000057023063794459095 -0.0003525473602204454 -0.001449088005293725 -0.0012240366003818393 0.0029665340472276036 0.0034560793802843603
          0.0023620506763451787 0.006817200541242768 0.011714025749943902 0.014372431309195105 0.013576578266050882 0.015237176136323471
          0.008536926315388667 0.0016472124853013637 0.009842541881088407 0.015370150687805315 0.0035053221628161546 0.025705361324742333
          0.008743610659342899 0.009760094402866543 0.019210378514929863 0.0021057704457809745 -0.0011105742057663723 -0.0013421939766004032
          -0.0017200019890012685 0.0051909709092182385 -0.0005114808486318678 0.00012796448580137953 0.003646892530565049 0.012237186844249445
          0.0065137184846612295 0.014071759713871118 0.014447123097696885 0.014534824421631093 0.02738036007142386 0.018103291716978914
          0.008123093110317323 0.007242133015483945 0.011417708416494601 0.007901736669641488 0.015587023257848012 0.012444845983472771
          0.005754647053587053 0.004795917712240701 0.011284588728536965 0.006776738034752025 0.012593374982078756 0.006680155244566555
          0.015357309049206583 0.020562228188834398 0.019932417308199987 0.0005812946644831382 -0.0012502358644648631 -0.001972350942850906
          -0.002392145437821541 0.001836201432638171 0.006073540982578365 -0.001186694773444033 0.0014283529000477524 0.012796609323836736
          0.019376612226416377 0.01699858425296663 0.014308816012518988 0.003533175535569602 0.0038302017102913866 0.008864178477936066
          0.003701263849967197 0.006250915669803472 0.00679395544181316 0.010800109556921164 0.011278860333282278 0.010720566423316799
          0.010125232508591611 0.005434526363704794 0.0030278732008361536 0.009222328135508079 0.005270387330808161 0.003272920547381389
          0.009234422109453091 0.011743022368507473 0.018049904987519086 0.02412663537248548 0.0029436310297480256 -0.0013904523915604441
          0.008549595325116552 0.012715129639234584 -0.000929595175939657 -0.0011636426818308655 0.009136529185615916 0.01754733687110338
          0.005923760210104406 0.010065628637593744 0.02216993866927959 0.0057974356621255385 0.008847397682673869 0.0032017604504787286
          0.003582327993957607 0.012142550539843797 0.01051417138420771 0.0021617290615997264 0.004263112949229153 0.0036500953951943554
          -0.006715377586218846 0.006077788675116019 0.0019801897730019197 0.0030157310942077464 0.004849984225828885 0.009371728955526737
          -0.003654638191845791 0.0025622359726836658 -0.007227710612619856 0.001545898427088993 -0.0014215547338383983 0.016324300953661677
          -0.014332896007216003 0.002291902396165557 0.010525238330848632 0.020838769993595713 -0.00015435854965423212 0.010823447989475071
          0.019465518099524903 0.0262843736441907 0.039711810769063244 0.05376537530543429 0.03930260618379569 0.04424977489393134
          0.005798347809163329 0.015988170502556256 0.002823437317520716 0.020562520832546307 0.01565813068638107 0.01800834782020462
          0.0007359536593107147 -0.000930639468408944 -0.011962122729922163 -0.008064859284115492 -0.002492542184797414 0.00024409273615063026
          0.0013064350689070414 -0.006330268374965919 0.006019036864245542 0.008320784925915398 0.00119925339260038 -0.01707518518951376
          -0.0014703141747378773 0.0011971878930250035 -0.004419485515724464 -0.011042944102791677 -0.001930988941554801 0.0033859654294368935
          0.005615952189901137 -0.0023372129843565737 -0.005389131460539632 -0.007908427621920316 0.0021151325364844667 0.009139001828221
          0.009451660753076949 0.009513705751996528 0.005326338402305869 0.006698879828889441 0.010961504176736497 0.008818816010261282
          0.008640141580037397 0.005025860579658058 0.0003829770076769906 -0.0026334238811394424 0.010031972400397743 0.0045148768408680325
          -0.0017839520480322363 0.0017886318703803916 0.0023246965986363777 0.036672415911596645 0.09259007732484764 0.09876821470266589
          0.0016915932172795328 0.009997212337573431 0.03198798919150553 0.006799773760087835 0.0006175158376458441 0.015356979722732225
          0.04248806304396985 0.0037780792347997805 0.011661809270284797 0.007873595852468378 0.03018820585062959 0.006888885080917451
          0.01375255241878629 0.010064645373080511 0.008284896860724075 0.008352758746834929 0.005637098710881936 0.0044350810530408985
          0.008234350798050606 0.009668367079594222 0.012824024699480963 0.005046828393369493 0.0018849534648128705 0.008014748245891157
          0.0024278704538206394 0.010294358938434826 0.012119156348916124 0.012370567405238536 0.00949484565981798 0.011643036682748409
          -0.00047381904610781234 -0.0006102245294176828 -0.0010768124794978962 0.0021813372007047083 0.00099252000713064 0.005733249481607024
          0.002699970690858436 0.005754772707565692 0.010265957481982474 0.01566683444875444 0.014164109263552188 0.015877639572317026
          -0.008657124053166237 -0.030043658729646344 -0.005446973473552774 -0.011176637483153562 -0.030425022210142372 -0.00911268162414175
          0.015072444508032412 0.02009740348541411 0.012362011698604347 -0.005519182171641261 0.0004534459078228692 -0.020618474132197962
          -0.0075935984871300655 -0.0010592822778235367 0.0003130099731769864 -0.020473736862285458 0.21785413719581753 -0.03257058437444579
          0.06551166935150421 -0.0075553250953846185 -0.0031854897092616907 0.007752696938996481 0.00491290473753013 0.00699562216290818
          0.004696833201235581 0.01326119324729709 0.014467542895318028 0.0024406659825768114 0.004815498041392545 0.004235812420646579
          0.0036983490864599183 0.014347218237621725 0.011117288112351006 0.015094216962479774 0.006503535558968794 0.01638390549914591
          0.013298327364220985 0.008000214145909451 0.003217865553276855 -0.0012631908873972243 0.008903309696329742 0.006938975868939365
          0.010070819822396493 0.010625386991876054 0.009133853611330144 0.00779244254450806 0.015306974754206528 0.011692237584691657
          0.005126362464570329 0.0009347315924528657 0.006358628133283223 0.012669522773091524 0.009318837169213084 0.01297499929683138
          0.013481344358084343 0.004708968524824485 0.0033567738992922626 0.0003297059955946753 0.009178960913922792 0.0036678780781019566
          0.01056262446162437 0.0015874988930892203 0.007321359294879676 -0.24205424584618618 -0.1177228681708159 -0.05243230694527912
          0.012142529338570462 0.004728661771312799 0.003536700321146169 -0.005984163723343186 0.01195973469247752 0.003529347599844964
          0.01431490846940886 0.008820363496757758 0.0042245639035960805 0.006646945816325189 0.01349628007906823 0.016401488040563822
          0.01007070089305136 0.009900148277815476 0.013560231857061185 0.009427335067461391 0.001755578162499792 0.007250687927253245
          0.010028048116033916 0.0057700753040907694 0.01079226922872295 0.004628375494427628 0.00004131461566628247 0.007902197580352849
          0.008282544390847857 0.0008731663886686614 -0.0013526728893726442 0.008318293528874476 0.01254044080067894 0.007222951518078058
          0.0036188232861750075 0.011119059430609202 0.019740621284888127 0.00174731625473451 0.0068875517743767 -0.00209731002453601
          -0.0026012645310175136 0.0041499035233797665 0.013117462164405878 -0.0008543537255976952 0.00020641373703610133 0.013016252309475562
          0.024502406085866874 0.010323909057617781 0.011061304243482256 0.016741178276504454 0.003907512556992482 0.009782507777547092
          0.011336255084437946 0.008971017942182538 0.004930522867278547 0.003443954250768877 0.0140472619370072 0.010607417985860422
          0.010141309649262645 0.007438397955464804 0.02163672545715274 0.01508555115644522 0.008579795802150555 0.009908482895535142
          0.010940599362583181 0.01038242405567219 0.003386209995277445 0.0008204087341324301 0.012263571934547746 0.010962214673415585
          0.013028444148888596 0.024023203096553702 0.004775622364196791 0.00942294549388542 0.011060839553096391 0.011645906845183601
          0.009084475640504797 0.0024237639658922366 0.005557610467029142 0.00439838936589132 0.012311283586693297 0.008325460062865386
          0.014510958381182432 0.009506578167202582 0.016501294455670428 0.014661641775600476 0.00541111245008799 0.012670868908293748
          0.010175224230095703 0.0073650680071975505 0.010145831107012226 0.0013210702177130218 0.00758729692131839 0.01018308516419815
          0.010345451679957096 -0.001465876115813225 0.015948056326073184 0.012552852905688361 0.016164201965206362 0.007437372224755878
          0.0076857561559405055 0.009438380858304944 0.0031740993128383035 -0.00018189285518969978 0.006711505870185222 0.0030356716395887606
          -0.00553574122367801 -0.008464539342791351 0.005403208014426786 0.004283908507382923 -0.008859836702550743 -0.017312489599520475
          0.00990373969439351 0.013597049578098049 0.0003342278554650871 -0.0030848096506252906 0.009405020450413526 0.012503448577158273
          0.013674636512890331 0.010605850638648981 -0.0013827278509347951 0.02082310196932785 0.020867312139590338 -0.0042721960866541064
          0.01453713571524011 0.01228867677042976 0.00033430207349111063 0.00936279776411908 0.0011614005548709616 0.014572625056109567
          0.01838975901764947 0.02513692019414108 0.005138313759508281 0.023851628364766647 0.009883134625744139 0.021616051098610353
          0.01878649180959095 0.0033557132669781026 0.007699631655200377 0.0006111834274191985 0.019565219270635162 0.011513991295786646
          0.023036557144768044 0.006745715190200563 0.011866617550899017 0.02211312757391626 0.010973688747725335 0.011917486961097436
          0.007714612723207254 0.004506736146153351 0.004333384592539957 0.0033431605321924407 0.0089603669746261 0.004063753553525229
          0.0065960852057678765 0.0029213336545662882 0.004721751492489296 0.00591801758150011 0.007215477873760395 0.007035099360992156
          0.009468514748851742 0.010879116511685022 0.004262493563219838 0.006470887394859071 0.004653646425531857 0.006285129699719977
          0.007793011649190995 0.005057665482119389 -0.00024821189441107117 0.003751627974870053 0.002038062900687254 0.0017373439694116366
          0.006845975400179449 0.009050986595133217 0.005993749961248462 0.01562529375103114 0.006950464786609822 0.012238164346409786
          0.0012697160503837013 0.017671367967328794 0.010970348313516787 0.013870150316017814 0.009997386267298555 0.010497530876353175
          0.0078019612417737985 0.009518784520409301 0.01014168944215766 0.01594819285546993 0.0039405300406898935 0.010598419784992555
          0.0022757211282303236 0.013088012545559663 0.0035685558621027236 0.003022752305327052 -0.006021065214308993 0.002894771116657171
          -0.009472253114511983 -0.0002150519530722539 -0.0005737633361400513 -0.0038373788567273998 -0.020450074479045746 0.0021288647317423692
          0.0013162996287013617 -0.00351579210695481 -0.007087574838400293 0.005345176709057278 0.0006869063062387992 -0.0019357093160522337
          0.0014067585617641987 -0.0019013814275557622 0.0029784147253069937 -0.00451855981842772 0.003949457556996827 -0.0024056466092796658
          0.006050106583701947 0.005436809756451971 0.004823015601914692 0.008718619439007758 0.0007663961799078134 0.005195455831169593
          0.014833779505316877 0.004170426432784161 0.012013083588962026 0.014970314045548383 0.018619206269062355 0.014945983325693468
          0.017968400071946625 0.0009205517848925177 0.007955255034303818 0.00999116382892401 0.013089241499630824 0.0023653431901432542
          0.0060123277138189185 0.010285365146395102 0.009787240689644858 0.018914866333535466 0.006441371940882998 0.009120794608193959
          0.0001922199636798516 -0.004820857357593744 0.0039606451128079145 0.0127543667179299 0.011645462163460102 0.0085851893647097
          0.0010421847434195775 -0.003698987403627868 -0.001044253965704206 0.010177318773400279 0.004258004802289883 0.012326497396388914
          0.0005350737869881383 0.011772647680586168 0.004998473749685928 0.0018907600685783392 -0.013015980413090072 -0.0020904893690657927
          0.010454006617765799 0.0015122947609315651 0.005536110774487402 0.0147158614048514 0.006184357394521403 0.006056420416109112
          0.013072959494333514 0.00650010991681732 0.005823457906894425 -0.014658308243839707 0.022124383047145924 -0.008442189986087228
          0.11971345818508297 0.09255425721470334 0.0069319892263424165 0.12759323654182797 0.14288980016675426 0.13308119572279511
          0.3073149884551106 0.04710744117159149 0.17350896732782356 0.01569779500010804 0.0026108396280351276 0.009394115048981577
          -0.0003611906837098777 0.013178614086574864 0.0023968324068745217 0.0020978664147695003 -0.006650638563601624 0.004062296085663164
          0.010202907905174224 0.005055543178967656 0.006071738330581333 0.006100746906675031 0.01428711964273191 0.0088428446606778
          -0.10529820435905185 0.009137224934459856 -0.11799261295441088 0.019360163295668836 -0.07783604514852638 0.004053549314895759
          0.0027571470233492545 0.007155708435280406 0.0031146349605523736 -0.0005341887962098946 0.0011785719287218388 -0.0033279190578818993
          0.003083674137014117 0.006631928551635413 0.0036115871989283793 0.006870050516080924 0.01110729652971304 0.017873068301809063
          0.010433489272258815 0.01115196795887747 0.009153188145606526 0.004039205876230495 -0.0006683936013471281 0.003770578310520245
          0.01703500301965752 0.004631974010912504 0.011172204341518735 0.00837865819200169 -0.001859544253506984 0.0013300776353797894
          0.004276007075074556 -0.002354477002878372 0.00011773866368168517 0.017498305883941162 0.015095728149250781 0.009297208532268009
          0.010084917471466198 0.004954550665590252 0.01165183430768063 0.01006496065505752 0.007582960070283473 0.006513332416179851
          0.004404552119266714 0.020598282596500317 0.010718440664713641 -0.0013440585216597523 0.01460586978392947 0.012749557121866692
          -0.0009446660359313241 0.009026828872938375 0.012793893651622534 0.007892868180520679 0.010380962356930562 0.009499293013228827
          -0.009057371846793828 -0.025336898692134825 -0.014207926051894415 -0.056499264148628686 0.004465426410651341 -0.03539398166061883
          0.005139908768567852 0.0003224683876358464 0.008641205484451315 -0.005036570501225329 0.003719368337243338 -0.004933127654070085
          0.000584855604791934 0.00007879115546038928 -0.012332854974678287 0.02601114011191759 0.010103947596665663 -0.043238257656756915
          0.03488369114229022 0.0025229836182596443 -0.07410838028105926 0.008122686862468975 -0.006119985466478128 -0.004751618478236741
          -0.00721031089901536 0.007809453308291969 0.0115830508544906 -0.0010397702732088884 0.007558986307298017 0.00124473208097034
          0.003960435125917983 0.007226477875402065 0.006027839154245679 0.020834332201312013 -0.0016070150733960564 0.038958729747101586
          0.018046054924284183 0.016826522254953905 0.024092449908324765 -0.0006110821614836032 0.0022981517566865867 0.006876311891618997
          0.008196514173815728 0.021442702149496895 0.013790353061925512 -0.017353103977928885 -0.0425817315299431 -0.02529523565908713
          0.011039940321131314 0.015091265810973226 0.00939406209592053 0.01468423391572346 0.017779968225398624 0.011454970052646979
          0.003963678059757336 0.0030489876343864353 0.004408278825586698 0.015385133892811875 0.0025003555291349677 0.02552938328911436
          0.009672782961973242 0.014674868190622858 0.013213109000956014 0.005346095937203671 0.000753576396881589 0.004980079574662705
          0.006113676102079274 0.0032903784237959255 0.008577036925724146 -0.022698446666930057 -0.035150920839393036 -0.026335214458682095
          0.08095530961956175 -0.09125086182061558 0.1744171119311276 -0.2172847002092765 0.09310885133457733 -0.13952888655035406
          0.002742354670047978 0.0070058697420220944 0.0063022868240571045 0.00017187250486060124 0.0503584227267857 -0.0009130162958178312
          0.06079867626285629 -0.004141991220452529 0.05964855645706357 0.0060565433158338705 0.007829845280534611 0.012775654368534395
          0.008943688213876248 0.0073456398704887516 0.006023906632194431 -0.163917767454467 -0.24778115604529685 -0.1409332754427522
          0.014170460311936098 0.019285088100825187 0.011159953479337015 0.004022840219955637 -0.0013769552596180068 -0.005806139371942631
          -0.004820315130949604 -0.002553911082985222 0.00412383560113086 0.007464340573192979 -0.004043674645159284 0.0021258936998743566
          0.000048190403134362736 -0.00048815296986576273 0.004498021697156879
        </DataArray>
        <DataArray type="Float64" Name="resid_z" format="ascii" RangeMin="0" RangeMax="0">
          0 0 0 0 0 0
          0 0 0 0 0 0
          0 0 0 0 0 0
          0 0 0 0 0 0
          0 0 0 0 0 0
          0 0 0 0 0 0
          0 0 0 0 0 0
          0 0 0 0 0 0
          0 0 0 0 0 0
          0 0 0 0 0 0
          0 0 0 0 0 0
          0 0 0 0 0 0
          0 0 0 0 0 0
          0 0 0 0 0 0
          0 0 0 0 0 0
          0 0 0 0 0 0
          0 0 0 0 0 0
          0 0 0 0 0 0
          0 0 0 0 0 0
          0 0 0 0 0 0
          0 0 0 0 0 0
          0 0 0 0 0 0
          0 0 0 0 0 0
          0 0 0 0 0 0
          0 0 0 0 0 0
          0 0 0 0 0 0
          0 0 0 0 0 0
          0 0 0 0 0 0
          0 0 0 0 0 0
          0 0 0 0 0 0
          0 0 0 0 0 0
          0 0 0 0 0 0
          0 0 0 0 0 0
          0 0 0 0 0 0
          0 0 0 0 0 0
          0 0 0 0 0 0
          0 0 0 0 0 0
          0 0 0 0 0 0
          0 0 0 0 0 0
          0 0 0 0 0 0
          0 0 0 0 0 0
          0 0 0 0 0 0
          0 0 0 0 0 0
          0 0 0 0 0 0
          0 0 0 0 0 0
          0 0 0 0 0 0
          0 0 0 0 0 0
          0 0 0 0 0 0
          0 0 0 0 0 0
          0 0 0 0 0 0
          0 0 0 0 0 0
          0 0 0 0 0 0
          0 0 0 0 0 0
          0 0 0 0 0 0
          0 0 0 0 0 0
          0 0 0 0 0 0
          0 0 0 0 0 0
          0 0 0 0 0 0
          0 0 0 0 0 0
          0 0 0 0 0 0
          0 0 0 0 0 0
          0 0 0 0 0 0
          0 0 0 0 0 0
          0 0 0 0 0 0
          0 0 0 0 0 0
          0 0 0 0 0 0
          0 0 0 0 0 0
          0 0 0 0 0 0
          0 0 0 0 0 0
          0 0 0 0 0 0
          0 0 0 0 0 0
          0 0 0 0 0 0
          0 0 0 0 0 0
          0 0 0 0 0 0
          0 0 0 0 0 0
          0 0 0 0 0 0
          0 0 0 0 0 0
          0 0 0 0 0 0
          0 0 0 0 0 0
          0 0 0 0 0 0
          0 0 0 0 0 0
          0 0 0 0 0 0
          0 0 0 0 0 0
          0 0 0 0 0 0
          0 0 0 0 0 0
          0 0 0 0 0 0
          0 0 0 0 0 0
          0 0 0 0 0 0
          0 0 0 0 0 0
          0 0 0 0 0 0
          0 0 0 0 0 0
          0 0 0 0 0 0
          0 0 0 0 0 0
          0 0 0 0 0 0
          0 0 0 0 0 0
          0 0 0 0 0 0
          0 0 0 0 0 0
          0 0 0 0 0 0
          0 0 0 0 0 0
          0 0 0 0 0 0
          0 0 0 0 0 0
          0 0 0 0 0 0
          0 0 0 0 0 0
          0 0 0 0 0 0
          0 0 0 0 0 0
          0 0 0 0 0 0
          0 0 0 0 0 0
          0 0 0 0 0 0
          0 0 0 0 0 0
          0 0 0 0 0 0
          0 0 0 0 0 0
          0 0 0 0 0 0
          0 0 0 0 0 0
          0 0 0 0 0 0
          0 0 0 0 0 0
          0 0 0 0 0 0
          0 0 0 0 0 0
          0 0 0 0 0 0
          0 0 0 0 0 0
          0 0 0 0 0 0
          0 0 0 0 0 0
          0 0 0 0 0 0
          0 0 0 0 0 0
          0 0 0 0 0 0
          0 0 0 0 0 0
          0 0 0 0 0 0
          0 0 0 0 0 0
          0 0 0 0 0 0
          0 0 0 0 0 0
          0 0 0 0 0 0
          0 0 0 0 0 0
          0 0 0 0 0 0
          0 0 0
        </DataArray>
        <DataArray type="Float64" Name="stress_zz" format="ascii" RangeMin="-3359610.7521085045" RangeMax="5478835.776288077">
          4638.052930856403 -299384.9886281128 1161057.8184866356 1324770.0734247442 49941.82369294409 -357293.9574565488
          1162755.930548035 1316843.3615074551 95245.59445503177 -415202.92628498486 1164454.0426094343 1308916.6495901663
          -1419005.2645933887 -1113908.2199138238 -1206626.3965416641 -667973.3701554398 -1490709.7231628299 -1167097.9596062005
          -1226023.0921820602 -749633.7543780762 -1562414.1817322713 -1220287.6992985772 -1245419.7878224556 -831294.1386007126
          -884546.7740453477 -876139.4788654076 -867732.1836854676 -1125010.837716936 -1068128.5808459758 -1011246.3239750154
          301162.9754095481 458770.2154216929 305834.2447646978 481112.76851638313 310505.51411984756 503455.32161107345
          1664485.1705078026 1383600.233500578 1430786.3815789113 1854419.4925444194 1628853.5936028198 1361077.6869744402
          1410878.9179697114 1891992.833921261 1593222.0166978366 1338555.1404483025 1390971.4543605116 1929566.1752981022
          235350.25054367003 454698.9194112476 1416199.5205711126 1928212.257302767 194877.95281694585 495483.73991781846
          1544206.5761561352 2077966.1346585718 154405.6550902217 536268.5604243894 1672213.631741158 2227720.0120143765
          -2053950.190337385 -1090838.1330242818 116685.12230013107 147458.60807859 -2080667.3652764598 -1158082.3210096795
          92249.2075390697 105477.92533135414 -2107384.5402155337 -1225326.508995077 67813.29277800827 63497.242584118154
          1170196.381527039 1256228.8847651072 -34483.400016197935 1213337.4937249182 1292772.977887136 -6819.508972368814
          1256478.6059227977 1329317.071009165 20844.382071460364 1296478.9167719993 1950280.1821303542 1267999.0619643056
          545762.4569400663 1352627.1324535278 2040504.471161479 1326217.6880320376 538669.1659095068 1408775.3481350564
          2130728.7601926033 1384436.31409977 531575.8748789472 971073.3358513918 975353.1942312568 979633.0526111219
          807145.1795702984 330323.87750304415 758904.2008698337 285517.40245187347 710663.222169369 240710.92740070264
          -239558.2419324489 51804.326901105116 61879.106914280244 -249117.24985379874 84215.55327546236 89049.15082079574
          -258676.25777514855 116626.77964981938 116219.19472731132 320271.0656727529 128031.08913636085 1053888.6117734974
          1038626.583251342 310838.92575172294 154126.0421424144 1053772.3018484768 1020656.7353205136 301406.78583069297
          180220.99514846771 1053655.9919234558 1002686.8873896853 783593.8259072816 2094252.1696156156 69099.03732196498
          848941.7818997421 2226450.1406496204 -71368.80729325564 914289.7378922027 2358648.1116836257 -211836.6519084763
          3679251.704682017 1650304.3566666476 1976032.966284426 3895779.3888305617 1618366.1038753847 1919807.0668184315
          4112307.0729791075 1586427.8510841222 1863581.1673524387 -130756.71069834451 -1031087.2716508734 -497812.69558472186
          185012.60456814567 -77412.66210255309 -1222610.2612857637 -560787.1346064727 176714.39065069612 -24068.61350676163
          -1414133.2509206543 -623761.5736282236 168416.17673324657 353136.3144831845 824741.3783896865 452112.5370250238
          760154.8252941632 551088.7595668631 695568.2721986398 987958.9997065127 924782.7294635358 2033626.293871137
          926307.7845485692 1086482.0093894205 2141058.373218287 864656.5693906257 1248181.2893153057 2248490.452565437
          1966265.9230871426 368776.36463156686 1208012.6448257857 2108714.3393456987 1942639.851799313 381612.4399372225
          1171592.4222531551 2146114.339496962 1919013.7805114826 394448.51524287794 1135172.1996805246 2183514.3396482253
          -3201953.0190769415 -1025505.5962035565 -3280781.8855927233 -1038140.2838394189 -3359610.7521085045 -1050774.9714752815
          623929.3776682647 -171709.57692920137 633333.1350170178 -157953.5132543412 642736.8923657709 -144197.44957948112
          30107.690591301638 -90228.56489800918 93674.07139076083 -21064.706070189248 157240.45219022 48099.15275763068
          957821.8882028284 978566.5424985605 -390581.9832733561 -662696.404836099 1014087.9842584962 999237.3854946629
          -358826.0947536411 -597225.1096932814 1070354.0803141645 1019908.2284907654 -327070.20623392623 -531753.8145504637
          547988.9940331685 -137418.5189712941 541531.1541846303 -121444.89455367922 535073.3143360919 -105471.27013606433
          1190969.1452955354 1303793.0053432845 1183558.2656665123 1257826.1476674085 1176147.3860374896 1211859.2899915327
          899617.5940263441 804319.0110084458 863305.1720349443 756067.7586709302 826992.7500435447 707816.5063334147
          -80281.5847330105 -68675.32253220209 -57069.060331393775 686819.2346763537 537252.5590935545 387685.8835107551
          -136908.6806887244 289663.2419010656 722207.1374078073 228315.31468284075 -141799.95692813545 291868.02282915445
          698200.8113215733 328546.1522314278 -146691.2331675465 294072.80375724315 674194.4852353393 428776.98978001485
          1573390.1910626672 2009706.5447101104 2123277.051177323 1531227.7126838174 2037054.832937387 2158855.081066763
          1489065.2343049676 2064403.1211646642 2194433.110956203 773199.9525267003 687793.0506740232 540822.2965669584
          602974.0619973643 308444.64060721657 518155.0733207054 2963294.6572564626 2757405.785000491 2551516.9127445193
          -111720.75553339838 -301547.9912610631 -868581.1004935317 -127212.02900271147 -98048.69351593932 -301874.3471793162
          -728227.5240082678 -99694.3361318397 -84376.63149848027 -302200.70309756935 -587873.9475230037 -72176.64326096792
          257588.78607025824 238154.60957398452 218720.43307771074 2106816.605627024 1863262.4824631857 1619708.3592993473
          -494979.4043646386 -553326.7408912118 -611674.0774177851 634513.7896219704 780471.4263042053 548499.1748542999
          659939.6323390253 462484.5600866295 539407.8383738451 1366520.5212905987 2259115.227538123 1384657.5719929796
          1971789.9025355347 1402794.6226953603 1684464.5775329461 1031720.9684855773 1069483.2923847323 869206.9332515706
          994856.3688739802 706692.8980175639 920229.445363228 503514.4474002017 -302308.2739989732 486808.50667193823
          -312799.0678000927 470102.56594367494 -323289.8616012122 1466215.229642284 1494334.3778995993 1522453.5261569144
          -352282.4035937704 -715898.4281221447 -378532.8432395912 -736427.6979744779 -404783.282885412 -756956.9678268114
          -316507.55911582 -80355.15684995303 -340053.5546339512 -201255.32147476508 -363599.5501520826 -322155.48609957704
          490852.43070779525 489265.29652960703 487678.1623514188 485709.5278850411 471964.8072600144 458220.0866349877
          -969731.8672977604 -1354498.6339375658 -956917.2405583179 -1518149.3127832443 -944102.6138188755 -1681799.9916289232
          1138276.8116503917 1140997.9367562686 1143719.0618621453 1772606.3198964256 1247496.9435019149 722387.5671074042
          1157144.614329505 1179973.2780026165 1166275.1024728678 1207678.010851537 1175405.5906162304 1235382.743700458
          1519458.5712449157 -369128.8842411426 1553169.3385915998 -344206.86791340535 1586880.1059382842 -319284.85158566793
          1242766.677203961 116091.79114435671 -1185719.6498727158 1215651.445256549 128820.08397744742 -1297278.5747881278
          1188536.2133091367 141548.37681053823 -1408837.4997035395 -919552.0412842679 -23525.233515896136 831831.4533556297
          -786740.2153312045 -928074.1768127002 -219158.7736102988 649631.922126761 -777139.2685826926 -936596.3123411327
          -414792.3137047015 467432.39089789276 -767538.3218341803 193513.67803618294 316325.7537607067 454337.65006974514
          290766.3192950761 242141.0347616951 273209.39368349686 436143.5884728011 294371.4429131523 290768.39148720726
          230093.03360628727 417949.52687585715 297976.56653122854 1448594.4053247983 1393680.6476645423 1338766.8900042858
          670287.9073255546 -229894.69160638005 648871.4917837488 -366560.11921837326 627455.076241943 -503225.5468303665
          1096285.2890572867 294354.6897045829 1070995.0166216365 233152.89581379193 1045704.7441859863 171951.101923001
          1457754.0988168186 418260.3315662392 1354829.4652117074 363435.305587588 1251904.8316065962 308610.27960893675
          -113795.84275098261 529034.7071552032 -47974.79132540448 600831.1164984838 17846.260100173648 672627.5258417645
          -826422.2810320565 -415546.2590355714 -873046.6977645629 -440719.5695254481 -919671.1144970693 -465892.8800153248
          1492594.7041654973 1555413.839527488 1618232.9748894782 998881.2841466023 1004594.1263314245 1010306.9685162465
          -128164.6482283397 -1462266.7972592178 88421.438026961 362925.67871392367 -138623.48006916913 -1438665.6700034458
          202701.59591868657 410975.84106944554 -149082.31190999845 -1415064.5427476729 316981.7538104122 459026.00342496735
          584755.5375948979 1208360.6446590896 603140.4272899892 1204709.7737985984 621525.3169850803 1201058.9029381077
          225949.25473434041 150587.44009880634 9234.249201135546 392748.4607977368 194099.09102353617 152094.56301455572
          7134.7642049034675 360116.5564166356 162248.92731273192 153601.68593030504 5035.279208671385 327484.6520355343
          -419763.1152094804 -597875.42745096 -954492.5383750933 -409385.81637364696 -618086.1206848111 -1014401.0570667053
          -399008.5175378136 -638296.813918662 -1074309.575758317 -493718.7618010381 -407789.06042563525 -321859.35905023257
          845888.0101401124 -156500.85258670934 780877.583166535 -161722.41414560814 715867.1561929578 -166943.9757045069
          210250.2714903319 717867.3107074291 241372.38644720087 777547.1193865716 272494.50140406995 837226.9280657142
          742427.9998868266 699589.0604601501 656750.1210334739 1453711.0892268931 1515808.199988107 1577905.3107493205
          1381630.1491635018 2264210.999620748 1455254.8175726167 2111469.3722367864 1528879.4859817314 1958727.7448528248
          -66499.10450703424 87498.58232817665 -92251.26349596189 82658.21393306224 -118003.42248488952 77817.84553794784
          1107279.8144871402 1241397.6010939335 1062727.770115065 1211693.471480949 1018175.7257429902 1181989.3418679647
          1234905.6438559266 492970.00041264395 1477372.9764621921 1265242.240785469 470683.67575446295 1516316.9815190728
          1295578.8377150116 448397.351096282 1555260.9865759537 221146.19728113586 426853.9444280261 231165.09910387106
          516617.54746127676 241184.00092660633 606381.1504945275 -1033124.4085644081 -876963.0994680654 -1154058.2626025507
          -987067.7730344003 -1274992.1166406935 -1097172.4466007354 957073.7330918009 2059578.7451385022 849073.5866794249
          2026339.5435551503 741073.440267049 1993100.341971798 140008.77168504393 165705.32894504294 191401.88620504196
          1554066.2462410033 1793649.9164626056 2610150.0178179396 1882986.9421818596 1657135.8307968318 1756260.1740992866
          2529048.533304696 2009906.439927175 1760205.4153526598 1718870.4317359678 2447947.0487914523 2136825.93767249
          5478835.776288077 4593598.902406236 5211397.463438329 4315860.559717657 4943959.15058858 4038122.2170290807
          -999537.0767767808 -991280.8192739543 -983024.5617711275 3563717.516280871 3540604.519127421 3517491.5219739713
          76137.95673677704 89547.98491251866 102958.01308826027 431599.0709522351 515980.2440278762 600361.4171035173
          425517.44357443426 467225.88692763 508934.3302808257 -805563.1604132613 -907884.0692485506 -717078.9418844442
          -1031121.4007287573 -628594.7233556272 -1154358.732208964 -1015086.1300761059 -1017676.415123223 -1020266.7001703401
          104109.78947506161 136061.90454079502 168014.01960652843 -1279788.2322504004 -1351596.112476014 -1423403.9927016278
          1825884.7358924083 1836754.184856913 1847623.6338214176 245528.5228827433 1393947.4552806253 140967.86262539047
          1317024.6228970094 36407.20236803772 1240101.7905133932 1655541.802983681 1674934.7247164352 1694327.6464491894
          2248382.121480541 2170813.735792069 2093245.3501035976 -1822015.6479597215 -2059444.391298346 -2296873.1346369702
          1971557.7524916078 2204595.691252345 2437633.630013083 1119026.635692629 861024.3232260909 603022.0107595525
          448924.30174496514 338169.199109908 227414.0964748509 -1022494.8868607408 -861226.0844992842 -773862.3160690318
          -477109.06555142323 -525229.7452773228 -92992.04660356231 1780067.6382814248 4625843.342207929 1756316.3133688224
          4695669.578968275 1732564.9884562201 4765495.815728623 819184.5646760549 829410.3772494973 839636.1898229397
          370095.97009636584 355733.3772210814 341370.78434579686 510780.0780108606 519722.6002343545 528665.1224578483
          -2395309.0028756494 1595800.5571981645 -2403407.7995299143 1422919.2609328094 -2411506.596184179 1250037.964667454
          2271446.1035663076 1821734.5074808889 1246579.9561330252 2210537.745358671 1717182.9849544484 1294673.555666341
          2149629.3871510345 1612631.4624280084 1342767.1551996567 1173943.8563293363 1274000.7746830124 1131782.1994112767
          1235612.9511769281 1089620.5424932167 1197225.1276708439 1105047.766775558 1063002.5303599066 1020957.2939442554
          1943333.534388401 1865169.3252051645 1787005.116021928 3722046.5790259135 3661946.2636735034 3601845.948321093
          515720.0531871831 557735.4066913603 599750.7601955374 -733401.6662870947 -714140.691339955 -694879.716392815
          -1291150.0842107967 -628999.7260830458 -1354751.4378394461 -585209.5922508572 -1418352.7914680953 -541419.4584186688
          235710.71081140166 255162.30482704268 274613.89884268376 1247378.5468164869 1339431.285900597 2585790.636189927
          1213338.9589315876 1276893.5692642159 2700321.8113959404 1179299.3710466884 1214355.8526278348 2814852.9866019534
          -1465790.065991076 -1150360.443437154 -1502963.7793197355 -1072448.2079779662 -1540137.492648395 -994535.9725187779
          434697.6466465695 -330016.5194392429 408755.2620301846 -323172.6678971892 382812.8774137998 -316328.8163551356
          -633884.2621967173 -564550.8014735932 -495217.34075046924 564831.9369303168 372684.1400199774 947220.3098042447
          613997.8394117735 387693.18102780124 843151.3635249757 663163.7418932302 402702.22203562513 739082.4172457065
          75532.4860696044 62506.61677372985 49480.747477855184 -111806.23041501566 195652.12956395934 -183366.64462697826
          202005.06678858458 -254927.05883894084 208358.0040132098 -38854.16434921694 -130545.94875600451 -117120.90127687613
          -177871.33476268227 -195387.63820453535 -225196.72076936002 1209768.7008813387 1252755.090817986 1295741.480754633
          310778.16353986243 272163.8149569904 233549.46637411852 218669.51945472744 198553.93475271214 178438.3500506968
          245917.59670497623 229228.3354412081 212539.07417743994 491924.8570269762 465706.3225598673 439487.7880927584
          462979.8844749042 404409.2601190171 345838.63576313003 653663.509282433 601898.8503875002 729357.1765386473
          604693.7970628403 805050.8437948617 607488.7437381803 2507246.4994706903 2502239.7973735086 2521904.7653678497
          2522731.38372714 2536563.031265009 2543222.9700807715 1545610.1893057078 1502448.6425622175 1459287.095818727
          -2327305.4101351416 -2241828.1446051537 -1761393.3855873728 -1790033.120686268 -1195481.3610396045 -1338238.0967673813
          531359.1066566326 520802.56600886007 510246.0253610876 632486.237956488 1743166.0483825018 537753.8583215819
          1693461.8705084408 443021.47868667555 1643757.6926343795 616233.7992376576 352434.130118905 688054.9981790785
          332039.17207435775 759876.1971204993 311644.21402981045 -2117131.9394428767 -1993641.4660288803 -1870150.9926148835
          2770723.0410636775 3015892.288764754 3261061.536465831 386610.34178637975 378466.5168994321 370322.6920124845
          -711497.3950696931 -791403.9180248443 -871310.4409799953 -101111.93939529502 -76990.01711795194 -52868.09484060883
          -47951.1012143135 15542.705232344495 79036.51167900252
        </DataArray>
        <DataArray type="Float64" Name="peeq" format="ascii" RangeMin="0.002587410967613471" RangeMax="0.00659833461946676">
          0.004934465959980828 0.005348982542510778 0.005299773790576341 0.004955594454757081 0.004932814134199956 0.00534583830125912
          0.005297626287793758 0.004954102243565976 0.004931162308419084 0.005342694060007462 0.005295478785011177 0.0049526100323748715
          0.003375511280478984 0.0029826908281803217 0.003056357709105209 0.003511764817549043 0.0033756950363104227 0.0029823111187518713
          0.0030564706492620256 0.0035118441360283276 0.0033758787921418618 0.002981931409323421 0.0030565835894188435 0.0035119234545076114
          0.0026298361021169876 0.002630585715113089 0.0026313353281091894 0.0026104144264500785 0.0026114287880763115 0.002612443149702545
          0.005081644404473172 0.00473750429553693 0.005080599235776684 0.004736923011492024 0.005079554067080197 0.004736341727447116
          0.006380509522047294 0.0064556270856853835 0.006293059544079518 0.006287927249105326 0.0063779824573754985 0.006453607462235445
          0.0062910152541363566 0.0062855183895046025 0.006375455392703702 0.006451587838785505 0.006288970964193195 0.006283109529903881
          0.004188828631776603 0.004520492859437698 0.004768803477987648 0.004474789570205404 0.00418777508847755 0.004518590460045957
          0.004767703943520461 0.0044743247888011164 0.004186721545178497 0.0045166880606542165 0.004766604409053277 0.004473860007396828
          0.003329365652876238 0.003625399892356843 0.0033148843685487034 0.003099984287893606 0.0033304991862173655 0.003625217658684332
          0.0033156164821214838 0.003101098784449337 0.0033316327195584933 0.003625035425011821 0.0033163485956942637 0.0031022132810050685
          0.00620869331704278 0.006110317199619778 0.006043221435384084 0.0062087398883322025 0.006110629232387142 0.00604306472904619
          0.0062087864596216255 0.006110941265154505 0.006042908022708294 0.005889788625085657 0.00619244128508674 0.006190955529348823
          0.0057615267996490895 0.0058884055948848855 0.00619043136600646 0.006188346904878082 0.005760017196950536 0.005887022564684113
          0.006188421446926179 0.006185738280407343 0.005758507594251983 0.005431428373878224 0.005430349661059676 0.005429270948241127
          0.005637460222939077 0.0054651110265952416 0.005634218678687885 0.005462960718158062 0.005630977134436692 0.005460810409720883
          0.004632579896400654 0.005017188933848889 0.0045493487181159 0.004630888476696179 0.005014748419639592 0.004548568160043931
          0.004629197056991704 0.005012307905430293 0.00454778760197196 0.006073697519289456 0.005909300449552963 0.006027040179556489
          0.006216473665367663 0.006070835466367059 0.005907750133247808 0.006025736804334243 0.006214295217063166 0.0060679734134446595
          0.005906199816942653 0.006024433429111998 0.00621211676875867 0.0052390782909716715 0.0049494694969808494 0.00507118471773456
          0.005238693303364621 0.004948846840133667 0.005069014662153569 0.005238308315757571 0.004948224183286486 0.00506684460657258
          0.004718479109507476 0.0046865154691788265 0.004165078641390754 0.004717764009141964 0.004684795767348157 0.004164536177614384
          0.004717048908776453 0.004683076065517487 0.004163993713838014 0.005570234186274737 0.005287595127008469 0.00534600689077548
          0.005717749755644409 0.0055692915017381845 0.0052846914597876595 0.00534371259696792 0.005715975006630766 0.005568348817201631
          0.00528178779256685 0.005341418303160359 0.005714200257617122 0.005975339556980517 0.005648295983666382 0.0059730410616274645
          0.005645463681441853 0.005970742566274413 0.005642631379217325 0.006284714795045828 0.006018992874052184 0.006049294454890665
          0.006283199927767559 0.006018193953824229 0.006048002916446734 0.00628168506048929 0.0060173950335962725 0.006046711378002801
          0.005805992340450284 0.00593788220329689 0.006206099228107775 0.006112811192595255 0.005804668101994358 0.0059357114612425075
          0.006203292985548533 0.006110862703931844 0.005803343863538434 0.005933540719188127 0.006200486742989293 0.006108914215268433
          0.0036901643035407855 0.004021571914364646 0.003692666647525577 0.004021766066535433 0.0036951689915103673 0.00402196021870622
          0.004342297715179776 0.0046829849443951735 0.004341883279279328 0.004681854658260664 0.004341468843378883 0.004680724372126155
          0.002587410967613471 0.0026333124818231583 0.0025884395978460835 0.0026344898512859734 0.002589468228078696 0.0026356672207487886
          0.0044453301097897415 0.004164709584519431 0.0044302293294594145 0.004761077925288727 0.004446934219618102 0.004166613266505545
          0.0044312057967385065 0.004761722153391511 0.0044485383294464624 0.004168516948491659 0.0044321822640175975 0.004762366381494294
          0.006353463733849707 0.006172672582373608 0.006352838508937974 0.0061720817106723285 0.006352213284026239 0.006171490838971047
          0.0064329785924232405 0.006258161004256315 0.006429788606233637 0.006255298420512415 0.006426598620044032 0.006252435836768516
          0.006556405368950353 0.006433870248688403 0.006553218677819144 0.006430234080380406 0.006550031986687936 0.006426597912072411
          0.004391009548964471 0.004390689530763128 0.0043903695125617846 0.005450752026089738 0.005452615392351006 0.005454478758612274
          0.005960999874505033 0.005735992669381515 0.005724304349468093 0.005993761077333609 0.005960495630656449 0.005736349636264587
          0.005724482197321783 0.00599319768591243 0.005959991386807865 0.005736706603147658 0.005724660045175475 0.00599263429449125
          0.00636636008266724 0.006315251317770099 0.006410524490878542 0.006363658783899437 0.006313570247132824 0.006409178667326371
          0.006360957485131636 0.006311889176495548 0.0064078328437742 0.006393809145563794 0.006243533992426979 0.006389225390418747
          0.006240268229227874 0.006384641635273698 0.006237002466028769 0.005721161238889508 0.005720331844214298 0.005719502449539085
          0.002812508294787774 0.002959190391759815 0.003112849717055436 0.0029311760435604046 0.002813186063426603 0.0029597670292590287
          0.0031149988659890417 0.0029326176904559396 0.0028138638320654324 0.0029603436667582426 0.0031171480149226475 0.002934059337351474
          0.006250099302775338 0.006249111352610045 0.0062481234024447515 0.0057055528357965405 0.005705141001011223 0.005704729166225906
          0.005884488481177913 0.005884201773059256 0.005883915064940599 0.004584361117800039 0.004311001907792491 0.004582916985466092
          0.004309470997819438 0.004581472853132141 0.004307940087846386 0.005400235004321563 0.005317457448577313 0.005400499353719054
          0.005319924235519426 0.005400763703116543 0.00532239102246154 0.006564954964085431 0.0064438171779513265 0.006561009685069289
          0.006441309224505135 0.006557064406053148 0.006438801271058944 0.00589504858768749 0.00580000907865981 0.005891558233857121
          0.005797265662150717 0.005888067880026752 0.005794522245641627 0.0061273755970155325 0.006126117721126067 0.006124859845236602
          0.0055968563324736535 0.0051730473785820755 0.005595437579644654 0.005172776320617695 0.005594018826815657 0.005172505262653314
          0.005797196449259158 0.005634515750392912 0.005794249864220156 0.005630539701289806 0.005791303279181155 0.0056265636521867
          0.006445919409978282 0.0064427038849931405 0.0064394883600079975 0.006457045592234032 0.006455947658953611 0.00645484972567319
          0.005568637355121201 0.005542449463456045 0.005567072121700224 0.0055388641838663875 0.0055655068882792475 0.005535278904276731
          0.0064992543375436 0.006497232417597891 0.006495210497652181 0.005364545535323525 0.005367862850384334 0.0053711801654451425
          0.006589745102970444 0.006467418805650281 0.006587595620404641 0.006466427227232892 0.006585446137838837 0.006465435648815503
          0.006268424152738158 0.006040483846879433 0.0062669501561039495 0.006038360749802694 0.006265476159469738 0.006036237652725956
          0.005027468560447019 0.0053083259069325 0.0053269551924381 0.0050254594596486615 0.005307124269900634 0.005323862130046257
          0.005023450358850304 0.005305922632868768 0.005320769067654413 0.005506067085552583 0.005240390460647534 0.005493422387144349
          0.005794650925977581 0.005502861893912746 0.005235733548653621 0.005489032927376096 0.005791591211322744 0.0054996567022729086
          0.005231076636659708 0.005484643467607844 0.005788531496667907 0.003470438459610493 0.003124761837160067 0.0029766180503956285
          0.003234983759886876 0.0034722652452136953 0.0031253322529942395 0.0029764024477858327 0.0032355848293444075 0.003474092030816897
          0.0031259026688284118 0.0029761868451760364 0.0032361858988019386 0.006549442368608288 0.0065454136070530605 0.006541384845497832
          0.005079698386756292 0.004805294076693259 0.0050767778312630985 0.004802647339255062 0.005073857275769905 0.004800000601816864
          0.00626138777326839 0.006162875559863157 0.006260133284984625 0.006161524744184166 0.006258878796700858 0.006160173928505174
          0.004584741676124968 0.004278079452328583 0.004582687311422723 0.004278222755122896 0.0045806329467204775 0.004278366057917209
          0.003511726697604741 0.003831172562242092 0.0035135527812878197 0.003832900134971881 0.0035153788649708965 0.00383462770770167
          0.003197392582804917 0.0029889567183679793 0.0031973978837666374 0.0029887270149599513 0.0031974031847283577 0.0029884973115519246
          0.006516473410627685 0.006515306271940566 0.006514139133253448 0.0064825795442738435 0.006481035997913043 0.006479492451552242
          0.0038857625867125185 0.0034853675236812647 0.003346614947127905 0.0036942374796247964 0.0038853836263437608 0.0034865834120230495
          0.003348795540204661 0.003695495372521938 0.003885004665975003 0.003487799300364834 0.0033509761332814166 0.0036967532654190783
          0.006381906846412913 0.0064042488286142705 0.006379708317496393 0.006402745530756941 0.006377509788579873 0.006401242232899612
          0.002602314382495775 0.002591599713531099 0.002663445693022054 0.002649741569172634 0.002602171750098319 0.0025918492244247334
          0.0026636044880864983 0.002649909679520175 0.0026020291177008617 0.002592098735318368 0.002663763283150942 0.0026500777898677153
          0.0027736109763909374 0.0025892579589399324 0.0027624322373215582 0.0027738311517199517 0.0025901989713588234 0.0027625768238264707
          0.0027740513270489665 0.002591139983777714 0.0027627214103313827 0.003900438287701931 0.0039028161036075886 0.003905193919513246
          0.006264938008994795 0.006057739620631946 0.006261834075256602 0.006054791193987859 0.00625873014151841 0.006051842767343771
          0.005761378321943504 0.005266216618554435 0.00575960497454701 0.005264564779567537 0.005757831627150516 0.005262912940580638
          0.0041234804376031435 0.004123010919580947 0.004122541401558749 0.00659833461946676 0.006596726926197347 0.006595119232927931
          0.004562160288975984 0.004993067109082341 0.004562857779631339 0.004990167885905033 0.0045635552702866945 0.004987268662727724
          0.002731525461086881 0.0026851221750334685 0.0027314545891889293 0.002685507837103798 0.002731383717290977 0.0026858934991741265
          0.002846639446104994 0.0029774280968662956 0.002847637650519162 0.0029785016764485306 0.0028486358549333303 0.002979575256030765
          0.0031507795978503836 0.0035725614454132646 0.0033868782129710846 0.003151865455032211 0.003572684607018691 0.0033872327140905953
          0.0031529513122140382 0.003572807768624118 0.003387587215210106 0.003928899738530963 0.004252097471755919 0.003928183820987732
          0.004250867961924165 0.003927467903444499 0.004249638452092412 0.0028204658112382167 0.002850656767265995 0.0028196501098403334
          0.002849989240699981 0.0028188344084424497 0.002849321714133967 0.0038358083644247955 0.0036536735909715934 0.0038351982773012494
          0.0036529293490993255 0.0038345881901777038 0.003652185107227058 0.0027610558665666558 0.002761345460966861 0.0027616350553670657
          0.0042212528095785405 0.004135064533794788 0.004087796616504333 0.004133911769755685 0.004219812807762479 0.004131960976097622
          0.004084315524644783 0.004132416101400391 0.004218372805946418 0.004128857418400455 0.004080834432785233 0.004130920433045098
          0.0038824814056322926 0.003907406851879553 0.0038806891580778057 0.0039054963980547194 0.003878896910523319 0.0039035859442298855
          0.002720734097981835 0.002720981078540505 0.0027212280590991757 0.003854972666795911 0.0038546476058676335 0.0038543225449393565
          0.004358216816470904 0.004357236295436525 0.004356255774402145 0.003993615120134612 0.003995518926620953 0.003997422733107294
          0.004797194516348978 0.00479603888337577 0.004794883250402564 0.00457669942390817 0.004822687509009914 0.004575872986526454
          0.004820276363980206 0.004575046549144738 0.004817865218950497 0.004951343071439892 0.004949994173120884 0.004948645274801877
          0.004840768093422858 0.0048421845274539774 0.004843600961485097 0.002890129079074895 0.0028897788598878918 0.002889428640700888
          0.0062652645130042055 0.006264721804959555 0.006264179096914905 0.005362661225871521 0.005224185324521722 0.005360984652681564
          0.005222374967492671 0.005359308079491608 0.0052205646104636185 0.006349021526669309 0.00634840533947774 0.006347789152286173
          0.005078288935164712 0.005076285322752222 0.005074281710339731 0.005041239348054127 0.005038286379523396 0.005035333410992664
          0.004538947893435313 0.004541032507167936 0.004543117120900558 0.00505837267102199 0.005060919543338285 0.00506346641565458
          0.004936025239027648 0.004938569171552941 0.004941113104078234 0.0035370537968057465 0.0035066200567521505 0.0035397597075330486
          0.0035090939117601626 0.0035424656182603516 0.0035115677667681743 0.0041800863270749404 0.003951070444010157 0.004179437839713281
          0.003950951616494121 0.004178789352351621 0.003950832788978084 0.0043971155853843955 0.004395672695356428 0.00439422980532846
          0.0027461813043682527 0.0027468888304492704 0.0027475963565302885 0.00615858817205381 0.00615736171860404 0.00615613526515427
          0.003618065108414775 0.00395688980761949 0.0036209511266730382 0.0039556498113900605 0.0036238371449313017 0.003954409815160631
          0.0040357191780581 0.004138279470234418 0.0040770211815337335 0.004035321012131046 0.0041380741138336286 0.00407702731701753
          0.004034922846203992 0.004137868757432841 0.004077033452501326 0.004103885441645953 0.004185687870185538 0.0041039387043990475
          0.00418552237514729 0.004103991967152143 0.0041853568801090415 0.004231012100359997 0.004228812665012203 0.004226613229664408
          0.004175820498359975 0.0041752828523965516 0.004174745206433128 0.003988706322787789 0.0039880128584746126 0.0039873193941614374
          0.00627896371237463 0.006277486696616323 0.006276009680858017 0.002694787992091375 0.002694929242674354 0.0026950704932573333
          0.0026490164232822718 0.0031121039256286377 0.00264918569613667 0.003112740506477093 0.002649354968991068 0.0031133770873255488
          0.005858417571896077 0.005858788701202411 0.005859159830508745 0.005003908075172527 0.005095856301298825 0.00548251667640793
          0.005002395101904595 0.005094394572064027 0.005481716514554279 0.005000882128636662 0.00509293284282923 0.005480916352700629
          0.0035430171041773524 0.00379478320097559 0.003545258445665586 0.0037965642311940636 0.0035474997871538204 0.0037983452614125373
          0.006055403035306037 0.005798179392109706 0.006055336683940222 0.005798859888602993 0.006055270332574407 0.005799540385096283
          0.004097907657950602 0.00409938052628303 0.004100853394615458 0.00550210864004985 0.005263255003842719 0.005180341668107374
          0.00550302442111907 0.005263653306711543 0.00518132746699305 0.00550394020218829 0.005264051609580368 0.005182313265878726
          0.0057542892370059315 0.005754432278931165 0.0057545753208564 0.006225496646918325 0.00630815708255127 0.006222260739921333
          0.006304148937008355 0.0062190248329243416 0.006300140791465442 0.005713963166926076 0.005653050876016391 0.005714400227543655
          0.005653243442914953 0.005714837288161232 0.005653436009813515 0.0060017243415084465 0.0059998898733868745 0.005998055405265303
          0.005978090122147403 0.00597760819690626 0.005977126271665117 0.0038873352201672755 0.0038895011219998435 0.0038916670238324106
          0.0036198923271240748 0.0036202632667689614 0.003620634206413848 0.004155085709503414 0.0041556858535506695 0.004156285997597926
          0.0055335013695912115 0.005534146538530446 0.005534791707469681 0.004704271306685326 0.004875311447906942 0.004704845060972976
          0.004874413063055581 0.004705418815260628 0.004873514678204219 0.00415689385800171 0.0040161222497780286 0.004158353952241213
          0.0040181534580335816 0.004159814046480715 0.004020184666289134 0.0038109963819013297 0.003812678054434801 0.003814359726968273
          0.00332836467712314 0.0033555760158071836 0.003332351683129999 0.003359643093516276 0.003336338689136858 0.003363710171225369
          0.0060132146179807475 0.006012490841124602 0.006011767064268456 0.004773654590842995 0.004887653615379854 0.004771908058687158
          0.0048865268442106514 0.004770161526531318 0.004885400073041448 0.006117641845145746 0.006004362268879693 0.006115977217721509
          0.006003062761177137 0.006114312590297273 0.006001763253474582 0.0034323796230357464 0.0034360633576856385 0.0034397470923355307
          0.005761846408236158 0.005761076137723223 0.005760305867210287 0.004373651097959884 0.004374259511689143 0.004374867925418401
          0.004600423206711271 0.004599621653234659 0.004598820099758046 0.006301467095166308 0.006298021519133995 0.006294575943101682
          0.006222050548927354 0.006219735149066073 0.006217419749204792
        </DataArray>
        <DataArray type="Float64" Name="pe11" format="ascii" RangeMin="0.0025873277745174185" RangeMax="0.006598002604351887">
          0.004933945416750092 0.005348568496189906 0.0052994474610476225 0.00495527593214166 0.004932289738327452 0.00534543155834443
          0.005297291018404351 0.004953768003538032 0.004930634059904813 0.005342294620498955 0.00529513457576108 0.0049522600749344016
          0.003375119954609131 0.0029824279693016196 0.0030560444325201264 0.0035113396638941554 0.0033752919249464904 0.0029820397544527847
          0.0030561493431191886 0.0035114048462933883 0.00337546389528385 0.002981651539603949 0.003056254253718251 0.0035114700286926212
          0.002629570366863931 0.00263030982817463 0.0026310492894853284 0.0026102111902247074 0.002611214992667171 0.0026122187951096347
          0.005081325508907852 0.004737193459191147 0.005080272635465315 0.0047366027169054355 0.005079219762022778 0.0047360119746197235
          0.006380131255881575 0.006455198290818065 0.006292310562537266 0.006287303651563255 0.0063776088912184 0.006453181459617871
          0.006290269510792817 0.006284900851883497 0.006375086526555225 0.006451164628417676 0.006288228459048368 0.006282498052203741
          0.004188319166196914 0.004520052475122194 0.004768329623918616 0.004474172796596617 0.0041872677100569 0.00451815149673534
          0.004767229247484526 0.004473703709406994 0.0041862162539168845 0.004516250518348487 0.0047661288710504355 0.00447323462221737
          0.003328970362670303 0.0036248816902379496 0.003314260210425874 0.0030995804273954266 0.003330086905659175 0.0036246921456044665
          0.0033149788686392114 0.003100678735501801 0.0033312034486480463 0.003624502600970984 0.0033156975268525506 0.0031017770436081752
          0.006206568229831835 0.0061075696964368546 0.0060401156905307354 0.006206609654453731 0.006107875757711535 0.006039936930740574
          0.0062066510790756285 0.006108181818986214 0.006039758170950413 0.005889178485282956 0.0061917600919840325 0.006190233279141081
          0.005760944047139231 0.005887791644414621 0.0061897630663782345 0.006187635251607253 0.005759445670881503 0.005886404803546286
          0.006187766040772436 0.006185037224073426 0.0057579472946237735 0.005430936855224737 0.0054298614512570615 0.005428786047289385
          0.005637227600251989 0.005464818602416188 0.005633980683516243 0.00546265926794252 0.005630733766780497 0.005460499933468851
          0.004631775664735646 0.0050166201620045585 0.004548615835592746 0.004630085852892815 0.005014185584406334 0.004547825744239972
          0.004628396041049983 0.00501175100680811 0.004547035652887198 0.006073534416692321 0.005909063420299521 0.0060268214154218635
          0.006216319574579034 0.006070668525560489 0.005907514373885054 0.006025516456658061 0.0062141352058055245 0.006067802634428658
          0.00590596532747059 0.006024211497894261 0.006211950837032013 0.005238687181868909 0.0049490742293821135 0.005070756703807793
          0.005238303128251784 0.004948443533804118 0.0050685979494701884 0.005237919074634658 0.004947812838226122 0.005066439195132584
          0.004717895953338948 0.004685846717386057 0.004163851131104473 0.00471716805615203 0.00468412087055681 0.004163298511334568
          0.004716440158965112 0.004682395023727562 0.00416274589156466 0.005569861153985371 0.005287171006321427 0.005345486151917365
          0.005717367129357012 0.005568924622541523 0.00528428538370351 0.005343206838299354 0.005715598149520793 0.005567988091097674
          0.005281399761085593 0.005340927524681342 0.0057138291696845755 0.005974668091227128 0.005647753805643533 0.005972379114526904
          0.005644939560400993 0.005970090137826678 0.005642125315158452 0.0062836480997260575 0.006017620656017835 0.006048382696574194
          0.006282130148732591 0.006016809324761277 0.0060470859016866435 0.006280612197739123 0.006015997993504718 0.006045789106799093
          0.005805391863797882 0.005937502458794309 0.006205696753279442 0.006112196074803008 0.0058040638934942395 0.005935331439493751
          0.0062028938225761636 0.006110247761368442 0.005802735923190597 0.005933160420193193 0.006200090891872885 0.0061082994479338786
          0.003689894198192437 0.004021260215267683 0.0036923916230788122 0.004021445099798038 0.0036948890479651876 0.004021629984328393
          0.004341838863097475 0.004682601281018722 0.0043414066270429505 0.004681455203688107 0.004340974390988424 0.004680309126357494
          0.0025873277745174185 0.002633168284795444 0.0025883472306033575 0.002634335134014713 0.0025893666866892966 0.0026355019832339822
          0.004444713687268772 0.004164265228114311 0.004429883201365185 0.004760721519594465 0.004446312296012096 0.004166170753797882
          0.004430858511325089 0.004761360427408514 0.004447910904755419 0.004168076279481454 0.004431833821284994 0.004761999335222563
          0.006351969424959238 0.006170630093893261 0.0063513326265564555 0.006170010368890462 0.006350695828153676 0.0061693906438876605
          0.0064323022694285775 0.00625747289184085 0.006429130061235973 0.006254618123748732 0.006425957853043367 0.006251763355656614
          0.0065556245052903 0.006433121261554969 0.006552457245646025 0.0064295107819454635 0.006549289986001746 0.006425900302335957
          0.004390658187759975 0.004390328889251895 0.004389999590743815 0.005448925921833788 0.0054507773541182195 0.005452628786402649
          0.005958746775548595 0.005733881668025881 0.005722362899762339 0.00599186833837448 0.005958211404501127 0.00573421839800569
          0.005722522193670166 0.005991285192203613 0.005957676033453658 0.005734555127985498 0.005722681487577992 0.005990702046032746
          0.006366122758257645 0.006315070857374839 0.006410302133917998 0.006363420248278014 0.0063133861915865555 0.006408956507865605
          0.006360717738298383 0.006311701525798271 0.0064076108818132095 0.0063930270656227485 0.006242822069962439 0.00638846078334597
          0.006239572669387623 0.0063838945010691915 0.006236323268812808 0.005720181584740185 0.005719344427839187 0.00571850727093819
          0.0028123657556460967 0.00295900624264977 0.0031126107962719425 0.0029309607396027495 0.002813038886815814 0.002959576384882461
          0.003114748070318103 0.002932391224891018 0.00281371201798553 0.002960146527115152 0.0031168853443642626 0.0029338217101792866
          0.006248561004710974 0.006247557468432888 0.0062465539321548 0.005704041235143343 0.005703614588380282 0.00570318794161722
          0.005881530315109716 0.005881207761310226 0.005880885207510737 0.004584066828468149 0.004310723700739256 0.0045826040414145355
          0.004309173054513544 0.00458114125436092 0.004307622408287832 0.005399593514940023 0.005316462520618994 0.00539985400878369
          0.005318924818094028 0.005400114502627356 0.005321387115569062 0.006564469973234118 0.006443370911990871 0.006560535994774729
          0.006440877222558545 0.006556602016315339 0.006438383533126219 0.005894882198690504 0.005799785761402329 0.005891386031340007
          0.0057970347347449346 0.0058878898639895105 0.005794283708087542 0.006127116907154236 0.006125859220799965 0.006124601534445694
          0.005596421602366372 0.0051726076122298546 0.0055949990821529995 0.005172329504276107 0.005593576561939626 0.005172051396322359
          0.005796970296952861 0.005634260637198464 0.0057940287662119555 0.005630293971202821 0.005791087235471049 0.005626327305207181
          0.006445146688321588 0.006441948059468671 0.006438749430615753 0.00645607109017729 0.006454965444651531 0.0064538597991257735
          0.005568278705907441 0.0055421551555643244 0.005566723184128204 0.0055385867707203025 0.005565167662348969 0.005535018385876281
          0.00649827368478028 0.006496261586805225 0.006494249488830169 0.005362969369224097 0.005366280313116688 0.005369591257009279
          0.006589117270123433 0.006466313522727768 0.006586969660517708 0.006465323289203485 0.006584822050911982 0.0064643330556792035
          0.006268080021773417 0.006039819438184391 0.006266611426350242 0.006037709482046721 0.0062651428309270655 0.00603559952590905
          0.005027097352015903 0.00530794952178729 0.005326541376553516 0.005025082655447641 0.005306750794738323 0.005323463854374172
          0.005023067958879379 0.005305552067689355 0.005320386332194827 0.005505303412771736 0.005239911015269352 0.005492911651485162
          0.0057939425353442 0.005502116062743311 0.005235268504794849 0.005488545781996695 0.005790902243222881 0.005498928712714886
          0.005230625994320345 0.0054841799125082275 0.00578786195110156 0.0034700202841337394 0.0031245042768085285 0.002976388015480857
          0.003234680249627546 0.0034718279294245324 0.0031250626902628214 0.0029761624383079083 0.003235268342201586 0.003473635574715326
          0.0031256211037171133 0.0029759368611349604 0.0032358564347756266 0.006548878434780776 0.006544860516072806 0.0065408425973648345
          0.005078976880888219 0.00480471148845882 0.005076065549502031 0.0048020705188624255 0.005073154218115842 0.004799429549266032
          0.00625959359097013 0.006160622742359248 0.0062583217288724015 0.006159254021868739 0.0062570498667746735 0.00615788530137823
          0.004584054337861854 0.004277445527075749 0.004582004892880596 0.004277586756933687 0.004579955447899337 0.004277727986791624
          0.0035113490559728344 0.0038306332466371473 0.003513160355605661 0.00383234499158127 0.0035149716552384876 0.003834056736525393
          0.0031971148639087206 0.002988700744090745 0.0031971106148508907 0.00298846184498699 0.0031971063657930607 0.002988222945883235
          0.0065162230410896835 0.006515055940352426 0.006513888839615166 0.00648196954374112 0.006480425960344693 0.006478882376948265
          0.003885254237413799 0.003484962070269474 0.0033462614786332937 0.0036937209376413944 0.003884869256593011 0.0034861628393385046
          0.003348428951854472 0.0036949645265823223 0.0038844842757722237 0.0034873636084075347 0.00335059642507565 0.003696208115523251
          0.0063810475633600105 0.006402967929202334 0.006378850419382411 0.006401459284045099 0.006376653275404812 0.006399950638887863
          0.002602267580252577 0.0025915432248208286 0.002663375753354974 0.0026496895424651667 0.0026021193911660995 0.00259178570962813
          0.0026635242460584375 0.0026498491188667117 0.002601971202079622 0.002592028194435431 0.0026636727387619004 0.0026500086952682567
          0.002773392220705737 0.0025891025037048003 0.002762251796554138 0.0027736026210886584 0.002590032568613487 0.002762386343258454
          0.0027738130214715793 0.0025909626335221736 0.0027625208899627702 0.0038999822501740444 0.003902348971273309 0.0039047156923725733
          0.006264712333663847 0.006057528052235306 0.006261606571350051 0.006054577495706395 0.006258500809036254 0.006051626939177483
          0.00576073412657712 0.00526552902600898 0.005758971289756163 0.005263887998333242 0.005757208452935205 0.005262246970657503
          0.004122862898838101 0.0041223874256875685 0.004121911952537036 0.006598002604351887 0.006596392825915308 0.006594783047478729
          0.004561800071057629 0.004992731021480113 0.0045624912820687495 0.004989832875153074 0.00456318249307987 0.004986934728826035
          0.0027314184883330764 0.0026850399263882796 0.002731340480058401 0.002685419216985004 0.002731262471783725 0.002685798507581728
          0.002846418241611055 0.002977027830432944 0.002847406701114818 0.0029780849341516304 0.0028483951606185815 0.002979142037870317
          0.003150101166085334 0.0035717745678001157 0.0033858836429443598 0.003151167579570366 0.0035718854785172735 0.0033862112260843852
          0.0031522339930553974 0.0035719963892344316 0.0033865388092244107 0.0039283884217145276 0.004251629033452257 0.003927674245573988
          0.0042504000072192735 0.00392696006943345 0.004249170980986289 0.002820319688891475 0.0028504829345819575 0.002819493829154532
          0.002849804308973285 0.002818667969417589 0.0028491256833646115 0.0038349162588324497 0.003652477418317951 0.0038342918703297155
          0.003651698289900918 0.003833667481826981 0.0036509191614838847 0.0027608664713317196 0.002761146011157664 0.002761425550983608
          0.004221026388891873 0.004134864799490322 0.0040876298080212755 0.0041336908022860394 0.004219566173069766 0.004131744465868435
          0.004084132839423016 0.004132170161045089 0.00421810595724766 0.004128624132246547 0.004080635870824755 0.004130649519804137
          0.003882272033128973 0.003907170585820027 0.0038804670500276585 0.0039052487428066296 0.003878662066926343 0.0039033268997932333
          0.002720578654124686 0.0027208142641793123 0.002721049874233939 0.0038531331082829637 0.003852780353389315 0.0038524275984956656
          0.004357632518898702 0.004356652836389361 0.00435567315388002 0.003993222484262825 0.0039951129607350986 0.003997003437207371
          0.004796572924844169 0.00479542464855294 0.004794276372261712 0.004576195855376698 0.004822221606210923 0.004575372141571688
          0.004819822091015209 0.004574548427766679 0.004817422575819494 0.004950817157403297 0.004949480483651479 0.004948143809899662
          0.004840090497940363 0.004841500428988248 0.004842910360036133 0.002889920987280053 0.002889561715003211 0.002889202442726369
          0.006263399853652571 0.00626284756512761 0.006262295276602651 0.005362222748813731 0.005223764746135428 0.005360559434432476
          0.005221967653296431 0.005358896120051221 0.0052201705604574345 0.006347461392088166 0.0063468422034861005 0.006346223014884033
          0.005077920981659045 0.005075923823065491 0.005073926664471937 0.005040758733270911 0.005037826206598351 0.005034893679925792
          0.004538657503147423 0.0045407326122003195 0.004542807721253218 0.005057013863426804 0.005059565910690282 0.0050621179579537585
          0.004935184120447267 0.00493772515929636 0.004940266198145453 0.003536850161740609 0.0035064563265218953 0.0035395486060787826
          0.003508924394141053 0.0035422470504169567 0.003511392461760211 0.0041785443461800735 0.00394897147563938 0.004177883577806469
          0.003948822445215655 0.004177222809432865 0.0039486734147919315 0.004396852108246949 0.004395390062886434 0.0043939280175259166
          0.002746052551700709 0.002746755810387986 0.0027474590690752636 0.00615685194163143 0.006155613957339334 0.006154375973047238
          0.0036178402239949265 0.003956656231706676 0.0036207206236946294 0.003955406604625733 0.0036236010233943318 0.00395415697754479
          0.0040350026673973 0.004137574218064102 0.004076529526514302 0.004034577291688419 0.004137340306703426 0.004076522014429491
          0.004034151915979539 0.004137106395342752 0.0040765145023446804 0.004103506180342616 0.004185370600356216 0.004103533202222983
          0.004185181969957535 0.004103560224103349 0.004184993339558854 0.004230768389067482 0.004228549167138134 0.0042263299452087845
          0.004174736687795038 0.004174170586165175 0.004173604484535314 0.003987352597934772 0.003986617672274354 0.003985882746613937
          0.0062779259099371145 0.00627643677670507 0.0062749476434730235 0.002694680554321139 0.002694809777537342 0.002694939000753545
          0.002648712649336666 0.0031117850070617936 0.002648873099170011 0.0031124125381789486 0.002649033549003356 0.0031130400692961045
          0.005854632098474159 0.005854986365478564 0.005855340632482969 0.005003442236127851 0.005095358133845391 0.005481868371911414
          0.005001939971344348 0.0050939034455086945 0.005481066031501884 0.005000437706560845 0.005092448757171998 0.005480263691092355
          0.0035426848055833708 0.0037943399858666443 0.0035449226765983883 0.003796117394522477 0.0035471605476134053 0.0037978948031783108
          0.006052371863863305 0.005794465386399173 0.006052285117546246 0.005795118632516459 0.00605219837122919 0.005795771878633745
          0.004097492104483758 0.004098965138502256 0.004100438172520756 0.0055002785335811 0.005261883741583916 0.005178829479287396
          0.005501182291559551 0.005262273662309086 0.00517981625415947 0.005502086049538 0.005262663583034255 0.005180803029031542
          0.005751165499507151 0.005751274867190804 0.005751384234874457 0.006224874708627283 0.006307578352515425 0.0062216543749011284
          0.006303582215024914 0.006218434041174975 0.006299586077534404 0.005711953589269564 0.005651146641235113 0.005712357375036413
          0.0056513015406963575 0.005712761160803262 0.005651456440157601 0.00600099409466983 0.0059991584115542005 0.005997322728438573
          0.005974990527753234 0.005974484060128542 0.005973977592503852 0.0038869265839723134 0.0038890947452716006 0.0038912629065708873
          0.0036195122055168267 0.0036198689609784934 0.0036202257164401606 0.004154686853730428 0.004155278070702888 0.004155869287675348
          0.005531924710427214 0.0055325512337904125 0.005533177757153609 0.0047039022629338945 0.004874892324827151 0.004704476831801998
          0.004874003263700731 0.004705051400670103 0.004873114202574313 0.0041561471571414325 0.004015608546506565 0.004157608394711223
          0.0040176442319502514 0.004159069632281014 0.004019679917393938 0.0038105983967996328 0.0038122837547054644 0.0038139691126112957
          0.003328252617579475 0.0033554232275709722 0.0033322275127530363 0.0033594786703275226 0.0033362024079265974 0.0033635341130840734
          0.006010694660856658 0.006009968905533784 0.006009243150210911 0.0047726552979623135 0.004886565484432845 0.004770914990319686
          0.004885441145335649 0.004769174682677059 0.0048843168062384515 0.006116553548803982 0.006002592869992185 0.006114880991218795
          0.006001297909097985 0.006113208433633608 0.0060000029482037845 0.0034321636303755523 0.0034358401570098217 0.003439516683644091
          0.00576113597006464 0.005760346913831207 0.0057595578575977725 0.004372821287188601 0.0043734274811490495 0.004374033675109499
          0.004599643725512005 0.004598841980579527 0.004598040235647048 0.006300863375853074 0.006297424532488146 0.006293985689123219
          0.006221333930033763 0.006219015791053984 0.006216697652074204
        </DataArray>
        <DataArray type="Float64" Name="pe22" format="ascii" RangeMin="-0.0033001871673063988" RangeMax="-0.001289779407083819">
          -0.0024594444922652605 -0.002658230545272483 -0.0026504428130511974 -0.0024829866760972354 -0.0024598446727742973 -0.0026588875614514938
          -0.0026510202598538863 -0.002483323839489305 -0.002460244853283334 -0.0026595445776305044 -0.0026515977066565747 -0.002483661002881374
          -0.0016711461953133379 -0.001476166685919595 -0.0015115844075672107 -0.0017366210291944472 -0.0016708756328823059 -0.0014758334328630299
          -0.001511356156954644 -0.0017361638129176596 -0.001670605070451274 -0.0014755001798064647 -0.0015111279063420775 -0.0017357065966408717
          -0.0013034201171763645 -0.0013032496781490912 -0.001303079239121818 -0.001296932822295884 -0.0012968349247340423 -0.0012967370271722008
          -0.0025472857230120073 -0.00238364545886653 -0.002547649276718311 -0.002383861380301887 -0.0025480128304246133 -0.0023840773017372433
          -0.0031866861196907883 -0.003222670308363171 -0.0031398526881010348 -0.0031368858256336563 -0.003187502427344062 -0.003223358446002175
          -0.0031403626257486016 -0.003137505211244748 -0.0031883187349973363 -0.003224046583641179 -0.0031408725633961677 -0.0031381245968558394
          -0.0020797215198327126 -0.0022452909150706096 -0.002381160113772145 -0.0022370856862471583 -0.002080090412189577 -0.002244548767618089
          -0.0023808550091569585 -0.0022375814761221714 -0.002080459304546441 -0.0022438066201655687 -0.002380549904541772 -0.0022380772659971846
          -0.0016572464035607428 -0.0018021420896125746 -0.0016589158387556983 -0.0015526564347250133 -0.0016574194189550218 -0.0018024457960890377
          -0.001660034537193024 -0.0015533212822165883 -0.0016575924343493003 -0.001802749502565501 -0.0016611532356303495 -0.0015539861297081633
          -0.003136894936649175 -0.0030992872316428326 -0.0030418996229868533 -0.003137064388279879 -0.00309946039000123 -0.003042102387432621
          -0.0031372338399105826 -0.0030996335483596286 -0.0030423051518783883 -0.0029018563242098226 -0.003047612709159779 -0.003042832512549003
          -0.0028338751144520004 -0.002901887059516845 -0.0030481641718409134 -0.0030433902635967494 -0.002834162660715571 -0.0029019177948238686
          -0.003048715634522048 -0.0030439480146444947 -0.002834450206979142 -0.0026809012760684965 -0.0026811946507383473 -0.0026814880254081986
          -0.002818834202047411 -0.002739020535498194 -0.0028195529608700813 -0.002739610224058439 -0.0028202717196927516 -0.0027401999126186833
          -0.002307748891564478 -0.002497952842266185 -0.0022645804563764162 -0.0023086031227456108 -0.0024980709477967523 -0.002265481318557091
          -0.002309457353926743 -0.0024981890533273187 -0.0022663821807377663 -0.0030377611687164782 -0.0029479290293327153 -0.0030149149766853294
          -0.0031161711677487247 -0.003038328086717274 -0.002948679544424274 -0.003015402415216437 -0.003116789477800184 -0.0030388950047180695
          -0.002949430059515832 -0.0030158898537475448 -0.003117407787851644 -0.002607649469894091 -0.00247793597522975 -0.0025146208816359075
          -0.002608738215400647 -0.002478289277115366 -0.0025152491809943426 -0.002609826960907203 -0.002478642579000982 -0.002515877480352778
          -0.002370919202105333 -0.002344436374115909 -0.0020833311619882612 -0.0023713972147423085 -0.0023452303974504244 -0.0020854355943659294
          -0.0023718752273792845 -0.0023460244207849403 -0.0020875400267435984 -0.002764823084925803 -0.0026107511920608825 -0.0026413693432445675
          -0.002841506833027741 -0.0027659429636583436 -0.002611663541167237 -0.0026418343154366152 -0.0028418591551532305 -0.0027670628423908847
          -0.0026125758902735908 -0.002642299287628663 -0.00284221147727872 -0.0029371553978835515 -0.002780405981541295 -0.0029379742001914635
          -0.002780813193798203 -0.0029387930024993747 -0.002781220406055112 -0.003139429067147115 -0.003016044447120199 -0.003027819583993234
          -0.0031399242861320556 -0.003016228452584452 -0.0030281680704431118 -0.0031404195051169953 -0.0030164124580487057 -0.0030285165568929907
          -0.0029093302447230434 -0.0029678390226533123 -0.0031014163836297405 -0.0030557158856412414 -0.0029096812960527196 -0.0029687465253725493
          -0.0031022157168812824 -0.003056289173748961 -0.002910032347382396 -0.0029696540280917854 -0.003103015050132824 -0.003056862461856681
          -0.0018473243692007483 -0.0020148874066956927 -0.0018485523059923088 -0.0020154022071812486 -0.0018497802427838697 -0.0020159170076668046
          -0.002166161836545555 -0.0023365413057597328 -0.0021676094669306222 -0.0023372412711574852 -0.0021690570973156905 -0.002337941236555238
          -0.0012952844929426909 -0.0013144558528265435 -0.0012956106810951217 -0.0013148021852505691 -0.0012959368692475528 -0.001315148517674595
          -0.0022287807937550748 -0.0020929245170648388 -0.002231601353690508 -0.002390171226271213 -0.0022287871419229576 -0.0020929300667565168
          -0.0022318623657288806 -0.002390481797908887 -0.0022287934900908414 -0.0020929356164481943 -0.002232123377767253 -0.0023907923695465605
          -0.003193443064753311 -0.003098456501080502 -0.0031942804305400804 -0.003099089622437593 -0.00319511779632685 -0.003099722743794683
          -0.00318487999797736 -0.0031014413599262237 -0.0031857440195391246 -0.0031018772239827107 -0.003186608041100888 -0.0031023130880391972
          -0.003258989256637251 -0.003194635679115691 -0.0032600527740103314 -0.0031957679582124312 -0.0032611162913834123 -0.0031969002373091705
          -0.0022090127055756324 -0.002209233827769696 -0.0022094549499637587 -0.0027492720744899763 -0.0027496063948667573 -0.002749940715243538
          -0.0029870652083102724 -0.0028779599118992664 -0.002879747571462193 -0.0030045992525672693 -0.002987362260355319 -0.0028780762184510084
          -0.0028795592473173327 -0.0030046703838767213 -0.0029876593124003653 -0.0028781925250027504 -0.0028793709231724725 -0.003004741515186173
          -0.003188823640203866 -0.00316434097826646 -0.0032038750828669335 -0.003189621191757154 -0.003164969323303909 -0.003204814676679825
          -0.0031904187433104427 -0.003165597668341358 -0.0032057542704927162 -0.0031413838235652323 -0.0030693519671505225 -0.003142292296834022
          -0.003070302203418247 -0.0031432007701028115 -0.0030712524396859717 -0.0028772960121451504 -0.0028769372156789734 -0.002876578419212796
          -0.0014070826765824587 -0.0014768475809441978 -0.0015564101018238244 -0.0014693051575765084 -0.001407413411941802 -0.0014769237004132753
          -0.0015567769715664657 -0.0014699023202999581 -0.0014077441473011455 -0.001476999819882353 -0.001557143841309107 -0.001470499483023408
          -0.003129091535813364 -0.0031297489088834038 -0.0031304062819534424 -0.0028742166736137782 -0.0028736845203419566 -0.002873152367070136
          -0.002949661041735286 -0.0029500514479521562 -0.002950441854169027 -0.002294012753841347 -0.002153744805742552 -0.0022944746158976947
          -0.00215416409584237 -0.0022949364779540423 -0.0021545833859421886 -0.0027150208357589753 -0.002684891693676998 -0.002715493086673812
          -0.0026851380607547343 -0.0027159653375886496 -0.0026853844278324707 -0.0032546948506909723 -0.00319343923262364 -0.003255891231585818
          -0.003194761087096702 -0.003257087612480665 -0.0031960829415697634 -0.002948845209780908 -0.0029041729863666784 -0.0029494241015978486
          -0.0029050196853964588 -0.00295000299341479 -0.00290586638442624 -0.0030584158453317127 -0.003058635199028477 -0.0030588545527252416
          -0.002806131573983613 -0.0025965676440365014 -0.002807060027049825 -0.0025972256010999544 -0.002807988480116038 -0.0025978835581634083
          -0.002883768929389018 -0.0027986207398885575 -0.0028845054822843517 -0.0027994174907487964 -0.0028852420351796844 -0.002800214241609035
          -0.0032043570622720613 -0.003205547516028572 -0.0032067379697850824 -0.003232272591067501 -0.003233441795212357 -0.003234610999357213
          -0.0027592410629524353 -0.002741132106304624 -0.002760331406234446 -0.0027420414918980104 -0.0027614217495164554 -0.002742950877491396
          -0.003238571137410831 -0.0032395891021319884 -0.003240607066853145 -0.002714342389968049 -0.002714783821191624 -0.0027152252524151985
          -0.0032886572655719793 -0.003239146827893819 -0.003289876990252289 -0.0032401046701412794 -0.0032910967149325982 -0.0032410625123887385
          -0.0031162423207274663 -0.0029841561371949698 -0.003116730356997377 -0.0029845920832117234 -0.0031172183932672865 -0.002985028029228477
          -0.0025093889114406786 -0.002637471433166612 -0.0026371063388550484 -0.002509576663107227 -0.002638314963498695 -0.0026377591850615446
          -0.002509764414773777 -0.002639158493830778 -0.00263841203126804 -0.002725723846999271 -0.0025954915022283996 -0.002706345826131817
          -0.002857324601863304 -0.0027262718921452376 -0.0025956095960496402 -0.0027068961150583997 -0.0028582491503700144 -0.0027268199372912044
          -0.002595727689870881 -0.0027074464039849823 -0.002859173698876725 -0.0017366399898481625 -0.0015598602436715711 -0.0014839583715465941
          -0.0016160119356291049 -0.0017366460817094056 -0.0015597472793205682 -0.0014835463999655985 -0.0016157276635479431 -0.0017366521735706485
          -0.0015596343149695655 -0.0014831344283846026 -0.0016154433914667807 -0.003245970204926899 -0.003246739885063581 -0.003247509565200263
          -0.0025160738337891447 -0.00238725290495905 -0.002515988991784594 -0.002387186744409247 -0.002515904149780043 -0.002387120583859443
          -0.003164535087571107 -0.0031194907861123605 -0.0031652824881352416 -0.0031205389762012075 -0.003166029888699376 -0.0031215871662900537
          -0.002264483942615478 -0.002121143664191601 -0.002264131705184492 -0.0021213223075427804 -0.0022637794677535066 -0.0021215009508939596
          -0.0017483129035127396 -0.0019078983106837464 -0.001748363099840429 -0.0019079414668164746 -0.0017484132961681181 -0.0019079846229492024
          -0.0015867488376301157 -0.0014861919492148246 -0.001586453078594637 -0.001485819058480488 -0.0015861573195591581 -0.001485446167746151
          -0.0032548212789839433 -0.003256154493518273 -0.0032574877080526017 -0.003239353836064153 -0.0032401793725918954 -0.0032410049091196377
          -0.0019278048357899546 -0.00172886157642872 -0.0016677256969468569 -0.0018390109554791796 -0.0019273430743210103 -0.0017286232612766942
          -0.0016678141331188034 -0.0018387684207482142 -0.0019268813128520668 -0.0017283849461246679 -0.0016679025692907501 -0.0018385258860172493
          -0.0031899207736865464 -0.003211398135061693 -0.0031908147080662256 -0.003212200149323799 -0.0031917086424459043 -0.0032130021635859048
          -0.001302517516608914 -0.0012979178061092059 -0.001332980181106824 -0.0013273100728657325 -0.0013024256959337254 -0.001297957076350219
          -0.001333118467069778 -0.001327458561406035 -0.0013023338752585368 -0.0012979963465912323 -0.0013332567530327316 -0.0013276070499463376
          -0.0013801540570817954 -0.001289779407083819 -0.0013732500063078966 -0.0013798850242621094 -0.0012898573622878722 -0.0013731200301696574
          -0.0013796159914424237 -0.0012899353174919252 -0.0013729900540314182 -0.0019372359897409837 -0.0019375933961914525 -0.0019379508026419214
          -0.0031362626010099544 -0.0030273807789162276 -0.0031370376950987577 -0.0030282661911273023 -0.003137812789187562 -0.0030291516033383774
          -0.0028581651065592638 -0.0026074053629474734 -0.002858321241504382 -0.002607636778864667 -0.0028584773764495017 -0.0026078681947818605
          -0.002045882188339866 -0.0020454164102033487 -0.0020449506320668314 -0.0032974356399074456 -0.003298811403606922 -0.0033001871673063988
          -0.002275116012222025 -0.002483290600016307 -0.0022752357219886776 -0.0024829310191602796 -0.002275355431755331 -0.002482571438304252
          -0.0013651035645814832 -0.0013446856584377017 -0.0013652089064888863 -0.0013449745781262648 -0.0013653142483962893 -0.0013452634978148277
          -0.0014303493273706022 -0.0014981663882122267 -0.0014310483773021714 -0.0014989901921986864 -0.0014317474272337405 -0.001499813996185146
          -0.0015869686273350715 -0.0017892589691878168 -0.0017104232523914241 -0.0015882855362220564 -0.0017908781728431314 -0.0017122247193263444
          -0.0015896024451090415 -0.0017924973764984458 -0.0017140261862612647 -0.0019550834021569833 -0.0021116165402872197 -0.001955651139018856
          -0.0021112336293811727 -0.0019562188758807286 -0.0021108507184751267 -0.001404445263069218 -0.0014175282944583795 -0.0014043193648276405
          -0.0014173719474587078 -0.0014041934665860625 -0.001417215600459036 -0.0019179529550541882 -0.001846843166023588 -0.001919720187931842
          -0.001848782076060275 -0.0019214874208094955 -0.001850720986096962 -0.0013744011428948415 -0.0013742832283295259 -0.0013741653137642105
          -0.0021142688764622915 -0.002068266656639772 -0.00204661399746371 -0.0020705255172291923 -0.0021155738890271795 -0.002068143858710638
          -0.0020462281217583345 -0.002072097219893594 -0.002116878901592067 -0.0020680210607815037 -0.0020458422460529592 -0.002073668922557996
          -0.001945142475243258 -0.001955569087965158 -0.001944903232817553 -0.0019553202072847367 -0.001944663990391848 -0.0019550713266043153
          -0.0013553743057314641 -0.0013556419612582918 -0.0013559096167851193 -0.0019427452022906578 -0.0019454296375128843 -0.0019481140727351108
          -0.002155575821343095 -0.002155235448272658 -0.0021548950752022216 -0.0019836472876644876 -0.00198344140986575 -0.0019832355320670136
          -0.0023688243884537495 -0.002369025291973718 -0.0023692261954936875 -0.0022615491926506444 -0.002382405379746085 -0.0022616774130033916
          -0.002382561087603517 -0.0022618056333561388 -0.002382716795460949 -0.0024428897789695743 -0.0024435845121046924 -0.002444279245239811
          -0.002432046295924654 -0.00243241839249458 -0.002432790489064505 -0.0014326073311807784 -0.00143232588369207 -0.0014320444362033616
          -0.0031749545847483012 -0.003175304450281922 -0.0031756543158155425 -0.0026491637099959574 -0.0025848090733293335 -0.0026499338643537268
          -0.002585377191388268 -0.0026507040187114966 -0.0025859453094472015 -0.0032007094731655696 -0.003201217260152201 -0.0032017250471388327
          -0.0025179895766265625 -0.0025180722409026282 -0.002518154905178694 -0.0024822092185829737 -0.0024830208654454764 -0.002483832512307979
          -0.002264272894987034 -0.0022644324146649498 -0.002264591934342865 -0.002552859088496882 -0.0025532764574733723 -0.0025536938264498626
          -0.002489733413886638 -0.0024901533909368907 -0.0024905733679871428 -0.0017698974408537481 -0.0017560362178435165 -0.0017713226331363208
          -0.0017574277028674144 -0.0017727478254188933 -0.0017588191878913123 -0.002085599635890366 -0.0019854540255801988 -0.0020878864319770142
          -0.0019882486728402663 -0.0020901732280636624 -0.0019910433201003335 -0.0021986142566696285 -0.002199586997359076 -0.0022005597380485233
          -0.0013766861010954604 -0.001377192097264903 -0.0013776980934343454 -0.003111454444468412 -0.003112457599606364 -0.0031134607547443167
          -0.0018092996561464025 -0.0019780594140661597 -0.0018107258460590243 -0.001978196131034527 -0.001812152035971646 -0.0019783328480028946
          -0.002015336110949377 -0.002063439977726317 -0.0020278795018426167 -0.002017513863070612 -0.0020653508278645704 -0.0020299472452485375
          -0.0020196916151918464 -0.0020672616780028235 -0.002032014988654459 -0.0020462571267682206 -0.00209204341248456 -0.0020489948375502225
          -0.0020944007026511245 -0.002051732548332224 -0.002096757992817689 -0.0021121045171706657 -0.0021124862850905495 -0.002112868053010433
          -0.0020820090493713994 -0.0020839551189275477 -0.002085901188483695 -0.0019992854063491244 -0.0020016727778899668 -0.0020040601494308087
          -0.003156743836199901 -0.0031575901579451757 -0.00315843647969045 -0.001345315401511225 -0.001345512542127859 -0.001345709682744493
          -0.0013123238245165356 -0.0015392239072631634 -0.0013119618793437655 -0.0015388926103712733 -0.0013115999341709954 -0.0015385613134793834
          -0.0029514314795318487 -0.0029513438068690936 -0.0029512561342063385 -0.002479893833985878 -0.0025258161829346463 -0.0027055315371476213
          -0.002480555524872209 -0.0025260630076913747 -0.002705429581666147 -0.0024812172157585395 -0.0025263098324481027 -0.0027053276261846735
          -0.0017754237526277003 -0.0019050418604395478 -0.0017761354083279078 -0.0019055516843367926 -0.0017768470640281149 -0.0019060615082340374
          -0.0030729214511859863 -0.0029257824735006324 -0.003073655166847277 -0.0029261012397958394 -0.003074388882508567 -0.0029264200060910455
          -0.002062253712133662 -0.0020626567250475723 -0.0020630597379614826 -0.0027617300135766173 -0.0026289609153452988 -0.0026024402648859167
          -0.0027617819464399646 -0.0026289444889295664 -0.0026025906873812284 -0.0027618338793033125 -0.0026289280625138335 -0.00260274110987654
          -0.0028865121170615175 -0.0028864845593722568 -0.0028864570016829964 -0.0030918814513513776 -0.0031355853330453176 -0.0030931360907736237
          -0.0031367250915588073 -0.003094390730195869 -0.0031378648500722966 -0.002860416956515087 -0.0028279057316146676 -0.0028607853821210833
          -0.0028280440216276255 -0.00286115380772708 -0.002828182311640583 -0.0029746558908641746 -0.0029750986157080503 -0.0029755413405519256
          -0.0030347064837088654 -0.0030355412877435557 -0.003036376091778246 -0.0019510795719649714 -0.0019512761733303653 -0.001951472774695759
          -0.0017903871184758637 -0.0017898032514334764 -0.0017892193843910887 -0.0020635449528563755 -0.0020633446460100423 -0.0020631443391637087
          -0.0027682949388108218 -0.0027682986102075266 -0.002768302281604232 -0.002341453743282609 -0.002418783718348448 -0.0023421051083980793
          -0.0024197895549582724 -0.002342756473513549 -0.0024207953915680973 -0.0020866188870563157 -0.0020166062586529257 -0.00208603733585044
          -0.002016237935229527 -0.0020854557846445654 -0.0020158696118061283 -0.001913438331307782 -0.0019131550009050232 -0.0019128716705022638
          -0.0016659039755383184 -0.0016801463965525473 -0.0016673797516596855 -0.001681914830282277 -0.0016688555277810525 -0.0016836832640120065
          -0.003055498102189464 -0.00305643662218011 -0.0030573751421707563 -0.002387349810653228 -0.0024320252461173184 -0.0023867597353973685
          -0.0024314631622754284 -0.002386169660141508 -0.0024309010784335384 -0.003084616356853956 -0.00305290414155939 -0.0030852278387936724
          -0.00305342565164703 -0.003085839320733389 -0.0030539471617346704 -0.0017196669563468913 -0.001721328060553127 -0.001722989164759363
          -0.00284138824516408 -0.0028411925001627226 -0.0028409967551613654 -0.002192171954922216 -0.00219173835245093 -0.0021913047499796433
          -0.002302827797057553 -0.0023025494937594726 -0.002302271190461392 -0.0031451944101252302 -0.0031461633674592804 -0.00314713232479333
          -0.003118382878422432 -0.003119232317175897 -0.003120081755929362
        </DataArray>
        <DataArray type="Float64" Name="pe33" format="ascii" RangeMin="-0.0033097751225431454" RangeMax="-0.0012920432815747274">
          -0.002474500924484831 -0.0026903379509174217 -0.0026490046479964243 -0.0024722892560444247 -0.0024724450655531547 -0.002686543996892936
          -0.002646270758550465 -0.0024704441640487265 -0.002470389206621479 -0.0026827500428684503 -0.0026435368691045047 -0.0024685990720530277
          -0.0017039737592957928 -0.0015062612833820243 -0.0015444600249529155 -0.0017747186346997075 -0.001704416292064184 -0.001506206321589754
          -0.001544793186164544 -0.0017752410333757283 -0.0017048588248325751 -0.0015061513597974838 -0.001545126347376173 -0.0017757634320517493
          -0.0013261502496875665 -0.0013270601500255386 -0.0013279700503635104 -0.0013132783679288234 -0.0013143800679331287 -0.001315481767937434
          -0.002534039785895844 -0.002353548000324616 -0.0025326233587470047 -0.0023527413366035478 -0.0025312069315981643 -0.0023519346728824797
          -0.003193445136190786 -0.0032325279824548937 -0.0031524578744362287 -0.003150417825929598 -0.0031901064638743372 -0.0032298230136156947
          -0.003149906885044214 -0.00314739564063875 -0.0031867677915578875 -0.003227118044776496 -0.0031473558956521992 -0.003144373455347902
          -0.0021085976463642007 -0.0022747615600515834 -0.00238716951014647 -0.0022370871103494575 -0.002107177297867322 -0.0022736027291172505
          -0.0023863742383275666 -0.0022361222332848213 -0.002105756949370443 -0.0022724438981829172 -0.002385578966508663 -0.002235157356220185
          -0.0016717239591095604 -0.0018227396006253746 -0.0016553443716701755 -0.0015469239926704124 -0.0016726674867041532 -0.0018222463495154288
          -0.0016549443314461884 -0.0015473574532852126 -0.001673611014298746 -0.0018217530984054832 -0.0016545442912222008 -0.0015477909139000122
          -0.003069673293182659 -0.003008282464794022 -0.0029982160675438817 -0.0030695452661738524 -0.003008415367710303 -0.002997834543307953
          -0.0030694172391650468 -0.0030085482706265834 -0.002997453019072024 -0.002987322161073133 -0.003144147382824253 -0.003147400766592077
          -0.002927068932687232 -0.0029859045848977745 -0.0031415988945373203 -0.0031442449880105033 -0.0029252830101659313 -0.002984487008722417
          -0.003139050406250388 -0.0031410892094289296 -0.0029234970876446313 -0.002750035579156242 -0.0027486668005187133 -0.002747298021881185
          -0.0028183933982045763 -0.0027257980669179926 -0.002814427722646161 -0.0027230490438840812 -0.002810462047087746 -0.00272030002085017
          -0.002324026773171167 -0.0025186673197383734 -0.0022840353792163287 -0.0023214827301472033 -0.0025161146366095817 -0.0022823444256828795
          -0.002318938687123239 -0.00251356195348079 -0.0022806534721494308 -0.003035773247975841 -0.0029611343909668048 -0.0030119064387365336
          -0.0031001484068303086 -0.0030323404388432145 -0.0029588348294607805 -0.003010114041441625 -0.0030973457280053392 -0.0030289076297105874
          -0.0029565352679547558 -0.003008321644146715 -0.00309454304918037 -0.002631037711974819 -0.0024711382541523635 -0.0025561358221718854
          -0.002629564912851137 -0.002470154256688752 -0.002553348768475846 -0.0026280921137274557 -0.00246917025922514 -0.0025505617147798063
          -0.0023469767512336146 -0.0023414103432701483 -0.002080519969116212 -0.002345770841409721 -0.0023388904731063854 -0.002077862916968637
          -0.0023445649315858266 -0.0023363706029426216 -0.0020752058648210612 -0.002805038069059568 -0.002676419814260544 -0.0027041168086727975
          -0.0028758602963292706 -0.0028029816588831784 -0.002672621842536273 -0.0027013725228627375 -0.002873738994367563 -0.002800925248706789
          -0.0026688238708120014 -0.0026986282370526785 -0.002871617692405855 -0.0030375126933435753 -0.002867347824102238 -0.0030344049143354395
          -0.002864126366602789 -0.0030312971353273037 -0.0028609049091033404 -0.00314421903257894 -0.003001576208897635 -0.0030205631125809593
          -0.0031422058626005343 -0.003000580872176824 -0.0030189178312435305 -0.003140192692622128 -0.002999585535456013 -0.0030172725499061017
          -0.002896061619074838 -0.0029696634361409957 -0.0031042803696497007 -0.0030564801891617656 -0.0028943825974415195 -0.0029665849141212015
          -0.003100678105694881 -0.003053958587619481 -0.0028927035758082005 -0.0029635063921014076 -0.0030970758417400604 -0.003051436986077197
          -0.001842569828991688 -0.0020063728085719904 -0.001843839317086503 -0.002006042892616789 -0.0018451088051813181 -0.002005712976661588
          -0.0021756770265519195 -0.0023460599752589887 -0.0021737971601123265 -0.002344213932530622 -0.002171917293672734 -0.0023423678898022563
          -0.0012920432815747274 -0.0013187124319689002 -0.0012927365495082354 -0.0013195329487641434 -0.0012934298174417439 -0.001320353465559387
          -0.002215932893513696 -0.0020713407110494715 -0.002198281847674677 -0.0023705502933232523 -0.002217525154089137 -0.0020732406870413657
          -0.0021989961455962086 -0.002370878629499627 -0.002219117414664578 -0.0020751406630332594 -0.0021997104435177404 -0.002371206965676002
          -0.003158526360205926 -0.0030721735928127577 -0.0031570521960163755 -0.003070920746452868 -0.003155578031826825 -0.0030696679000929766
          -0.003247422271451216 -0.0031560315319146257 -0.0032433860416968474 -0.0031527408997660206 -0.003239349811942478 -0.0031494502676174155
          -0.0032966352486530496 -0.003238485582439278 -0.0032924044716356915 -0.0032337428237330327 -0.0032881736946183326 -0.003229000065026786
          -0.0021816454821843414 -0.0021810950614821988 -0.002180544640780056 -0.0026996538473438116 -0.0027011709592514605 -0.0027026880711591107
          -0.0029716815672383226 -0.002855921756126613 -0.002842615328300144 -0.0029872690858072097 -0.002970849144145806 -0.002856142179554679
          -0.0028429629463528313 -0.0029866148083268905 -0.0029700167210532907 -0.002856362602982746 -0.0028433105644055184 -0.002985960530846572
          -0.003177299118053778 -0.0031507298791083787 -0.003206427051051064 -0.0031737990565208585 -0.0031484168682826452 -0.0032041418311857775
          -0.003170298994987938 -0.0031461038574569114 -0.003201856611320491 -0.0032516432420575153 -0.0031734701028119172 -0.0032461684865119477
          -0.0031692704659693764 -0.0032406937309663792 -0.003165070829126836 -0.0028428855725950346 -0.0028424072121602142 -0.002841928851725394
          -0.0014052830790636382 -0.001482158661705572 -0.0015562006944481181 -0.0014616555820262409 -0.0014056254748740114 -0.0014826526844691854
          -0.0015579710987516367 -0.0014624889045910597 -0.0014059678706843843 -0.001483146707232799 -0.0015597415030551556 -0.0014633222271558783
          -0.003119469468897609 -0.003117808559549483 -0.003116147650201356 -0.002829824561529565 -0.0028299300680383246 -0.0028300355745470842
          -0.0029318692733744304 -0.0029311563133580694 -0.0029304433533417083 -0.0022900540746268014 -0.002156978894996703 -0.0022881294255168395
          -0.0021550089586711728 -0.0022862047764068776 -0.002153039022345643 -0.0026845726791810483 -0.0026315708269419964 -0.002684360922109877
          -0.002633786757339293 -0.002684149165038706 -0.002636002687736591 -0.0033097751225431454 -0.0032499316793672315 -0.003304644763188908
          -0.003246116135461843 -0.0032995144038346722 -0.0032423005915564553 -0.002946036988909595 -0.0028956127750356508 -0.0029419619297421573
          -0.0028920150493484758 -0.00293788687057472 -0.0028884173236613008 -0.0030687010618225233 -0.0030672240217714873 -0.003065746981720452
          -0.0027902900283827575 -0.0025760399681933528 -0.0027879390551031735 -0.0025751039031761515 -0.002785588081823588 -0.0025741678381589507
          -0.0029132013675638425 -0.0028356398973099057 -0.0029095232839276034 -0.002830876480454025 -0.002905845200291364 -0.002826113063598145
          -0.0032407896260495265 -0.003236400543440098 -0.00323201146083067 -0.003223798499109789 -0.003221523649439174 -0.0032192487997685587
          -0.0028090376429550055 -0.0028010230492597 -0.002806391777893759 -0.0027965452788222913 -0.002803745912832513 -0.0027920675083848833
          -0.0032597025473694477 -0.003256672484673235 -0.0032536424219770225 -0.0026486269792560476 -0.002651496491925064 -0.0026543660045940808
          -0.0033004600045514546 -0.0032271666948339474 -0.0032970926702654184 -0.0032252186190622058 -0.0032937253359793827 -0.003223270543290464
          -0.0031518377010459502 -0.003055663300989422 -0.003149881069352864 -0.0030531173988349973 -0.003147924437659778 -0.003050571496680573
          -0.0025177084405752243 -0.002670478088620677 -0.002689435037698467 -0.0025155059923404133 -0.002668435831239627 -0.0026857046693126267
          -0.0025133035441056014 -0.0026663935738585765 -0.0026819743009267863 -0.002779579565772465 -0.002644419513040953 -0.0027865658253533442
          -0.0029366179334808958 -0.002775844170598073 -0.002639658908745208 -0.0027816496669382943 -0.002932653092852865 -0.0027721087754236824
          -0.002634898304449463 -0.0027767335085232448 -0.002928688252224835 -0.001733380294285576 -0.0015646440331369576 -0.001492429643934263
          -0.00161866831399844 -0.0017351818477151267 -0.0015653154109422523 -0.0014926160383423102 -0.0016195406786536427 -0.001736983401144677
          -0.0015659867887475472 -0.001492802432750357 -0.0016204130433088448 -0.0033029082298538766 -0.0032981206310092235 -0.0032933330321645703
          -0.002562903047099074 -0.0024174585834997693 -0.002560076557717436 -0.0024148837744531787 -0.0025572500683357985 -0.0024123089654065877
          -0.0030950585033990216 -0.003041131956246886 -0.0030930392407371586 -0.003038715045667531 -0.003091019978075296 -0.0030362981350881752
          -0.0023195703952463747 -0.002156301862884147 -0.002317873187696103 -0.0021562644493909053 -0.0023161759801458306 -0.002156227035897664
          -0.0017630361524600944 -0.0019227349359533998 -0.0017647972557652317 -0.0019244035247647949 -0.0017665583590703688 -0.0019260721135761901
          -0.0016103660262786045 -0.00150250879487592 -0.001610657536256253 -0.0015026427865065016 -0.001610949046233902 -0.0015027767781370836
          -0.00326140176210574 -0.0032589014468341515 -0.003256401131562563 -0.0032426157076769655 -0.003240246587752796 -0.0032378774678286266
          -0.001957449401623843 -0.001756100493840754 -0.0016785357816864366 -0.0018547099821622137 -0.001957526182272 -0.00175753957806181
          -0.001680614818735668 -0.0018561961058341076 -0.001957602962920156 -0.0017589786622828664 -0.0016826938557849 -0.0018576822295060017
          -0.003191126789673462 -0.0031915697941406387 -0.003188035711316185 -0.003189259134721298 -0.003184944632958907 -0.0031869484753019577
          -0.0012997500636436625 -0.0012936254187116227 -0.001330395572248149 -0.0013223794695994343 -0.0012996936952323736 -0.0012938286332779105
          -0.001330405778988659 -0.0013223905574606767 -0.0012996373268210845 -0.0012940318478441982 -0.001330415985729169 -0.0013224016453219187
          -0.0013932381636239419 -0.001299323096620981 -0.0013890017902462408 -0.0013937175968265485 -0.0013001752063256143 -0.0013892663130887959
          -0.0013941970300291552 -0.0013010273160302475 -0.0013895308359313512 -0.0019627462604330606 -0.0019647555750818566 -0.0019667648897306518
          -0.0031284497326538917 -0.0030301472733190783 -0.0031245688762512923 -0.003026311304579092 -0.0031206880198486925 -0.0030224753358391054
          -0.002902569020017857 -0.002658123663061506 -0.00290065004825178 -0.0026562512194685736 -0.0028987310764857035 -0.0026543787758756417
          -0.0020769807104982344 -0.0020769710154842193 -0.0020769613204702046 -0.003300566964444441 -0.003297581422308386 -0.003294595880172331
          -0.0022866840588356046 -0.002509440421463807 -0.0022872555600800715 -0.002506901855992794 -0.0022878270613245384 -0.0025043632905217823
          -0.0013663149237515932 -0.0013403542679505777 -0.0013661315735695142 -0.0013404446388587392 -0.0013659482233874354 -0.0013405350097669005
          -0.001416068914240452 -0.0014788614422207164 -0.0014163583238126461 -0.0014790947419529433 -0.0014166477333848405 -0.0014793280416851707
          -0.0015631325387502623 -0.0017825155986122988 -0.0016754603905529356 -0.0015628820433483091 -0.001781007305674142 -0.0016739865067580406
          -0.001562631547946356 -0.0017794990127359858 -0.001672512622963146 -0.0019733050195575442 -0.002140012493165037 -0.001972023106555132
          -0.0021391663778380994 -0.0019707411935527205 -0.002138320262511162 -0.001415874425822257 -0.0014329546401235784 -0.0014151744643268916
          -0.0014324323615145767 -0.0014144745028315262 -0.0014319100829055754 -0.0019169633037782606 -0.001805634252294362 -0.0019145716823978727
          -0.0018029162138406421 -0.0019121800610174843 -0.0018001981753869222 -0.001386465328436878 -0.0013868627828281378 -0.0013872602372193975
          -0.00210675751242958 -0.0020665981428505498 -0.002041015810557565 -0.0020631652850568467 -0.002103992284042587 -0.0020636006071577968
          -0.0020379047176646804 -0.0020600729411514944 -0.0021012270556555936 -0.0020606030714650438 -0.0020347936247717955 -0.002056980597246142
          -0.0019371295578857147 -0.001951601497854868 -0.001935563817210105 -0.0019499285355218932 -0.0019339980765344952 -0.0019482555731889183
          -0.0013652043483932212 -0.0013651723029210203 -0.0013651402574488194 -0.0019103879059923043 -0.0019073507158764295 -0.0019043135257605548
          -0.002202056697555606 -0.002201417388116702 -0.0022007780786777987 -0.0020095751965983374 -0.0020116715508693476 -0.0020137679051403577
          -0.0024277485363904186 -0.002426399356579221 -0.002425050176768024 -0.002314646662726053 -0.0024398162264648374 -0.0023136947285682962
          -0.0024372610034116907 -0.00231274279441054 -0.0024347057803585435 -0.0025079273784337206 -0.002505895971546786 -0.002503864564659851
          -0.0024080442020157074 -0.002409082036493667 -0.002410119870971627 -0.0014573136560992743 -0.0014572358313111409 -0.0014571580065230075
          -0.0030884452689042678 -0.003087543114845688 -0.0030866409607871073 -0.0027130590388177753 -0.0026389556728060944 -0.0027106255700787493
          -0.002636590461908163 -0.0027081921013397234 -0.0026342252510102317 -0.0031467519189225975 -0.003145624943333899 -0.0031444979677452004
          -0.0025599314050324816 -0.0025578515821628616 -0.002555771759293242 -0.002558549514687936 -0.002554805341152874 -0.0025510611676178127
          -0.002274384608160388 -0.00227630019753537 -0.0022782157869103525 -0.002504154774929923 -0.0025062894532169094 -0.002508424131503896
          -0.002445450706560628 -0.002447571768359469 -0.0024496928301583096 -0.0017669527208868602 -0.0017504201086783785 -0.0017682259729424618
          -0.0017514966912736385 -0.0017694992249980635 -0.0017525732738688988 -0.0020929447102897066 -0.001963517450059181 -0.002089997145829454
          -0.0019605737723753895 -0.0020870495813692016 -0.0019576300946915984 -0.00219823785157732 -0.0021958030655273566 -0.0021933682794773933
          -0.0013693664506052492 -0.0013695637131230834 -0.0013697609756409177 -0.0030453974971630165 -0.0030431563577329687 -0.0030409152183029217
          -0.0018085405678485238 -0.001978596817640515 -0.0018099947776356047 -0.0019772104735912054 -0.0018114489874226855 -0.001975824129541896
          -0.0020196665564479227 -0.0020741342403377853 -0.0020486500246716852 -0.0020170634286178074 -0.0020719894788388564 -0.002046574769180953
          -0.0020144603007876917 -0.002069844717339928 -0.0020444995136902205 -0.0020572490535743946 -0.002093327187871655 -0.0020545383646727593
          -0.00209078126730641 -0.002051827675771124 -0.0020882353467411648 -0.002118663871896816 -0.0021160628820475836 -0.0021134618921983513
          -0.002092727638423638 -0.0020902154672376274 -0.0020877032960516166 -0.001988067191585647 -0.0019849448943843875 -0.001981822597183128
          -0.003121182073737212 -0.003118846618759893 -0.003116511163782573 -0.0013493651528099133 -0.0013492972354094829 -0.0013492293180090522
          -0.0013363888248201306 -0.00157256109979863 -0.0013369112198262454 -0.0015735199278076755 -0.0013374336148323602 -0.001574478755816721
          -0.0029032006189423087 -0.0029036425586094696 -0.0029040844982766295 -0.002523548402141973 -0.002569541950910744 -0.002776336834763792
          -0.0025213844464721394 -0.0025678404378173198 -0.002775636449835736 -0.0025192204908023054 -0.0025661389247238955 -0.0027749360649076803
          -0.0017672610529556702 -0.0018892981254270958 -0.0017687872682704802 -0.0018905657101856842 -0.00177031348358529 -0.0018918332949442727
          -0.0029794504126773166 -0.0028686829128985393 -0.002978629950698969 -0.002869017392720619 -0.002977809488720621 -0.002869351872542698
          -0.0020352383923500942 -0.002036308413454684 -0.002037378434559273 -0.0027385485200044826 -0.0026329228262386172 -0.00257638921440148
          -0.0027394003451195843 -0.0026333291733795193 -0.0025772255667782414 -0.002740252170234686 -0.002633735520520421 -0.002578061919155002
          -0.0028646533824456333 -0.0028647903078185466 -0.00286492723319146 -0.003132993257275905 -0.0031719930194701058 -0.0031285182841275056
          -0.0031668571234661057 -0.003124043310979106 -0.0031617212274621057 -0.002851536632754477 -0.0028232409096204457 -0.0028515719929153296
          -0.0028232575190687316 -0.002851607353076182 -0.002823274128517018 -0.003026338203805655 -0.0030240597958461506 -0.003021781387886646
          -0.0029402840440443667 -0.0029389427723849858 -0.0029376015007256053 -0.0019358470120073412 -0.0019378185719412342 -0.0019397901318751272
          -0.0018291250870409628 -0.0018300657095450172 -0.0018310063320490719 -0.0020911419008740506 -0.0020919334246928454 -0.0020927249485116397
          -0.0027636297716163915 -0.0027642526235828846 -0.0027648754755493768 -0.0023624485196512847 -0.0024561086064787034 -0.0023623717234039186
          -0.0024542137087424586 -0.002362294927156553 -0.0024523188110062146 -0.0020695282700851168 -0.00199900228785364 -0.002071571058860782
          -0.002001406296720725 -0.0020736138476364478 -0.00200381030558781 -0.0018971600654918513 -0.001899128753800441 -0.0019010974421090313
          -0.0016623486420411556 -0.0016752768310184245 -0.00166484776109335 -0.0016775638400452456 -0.0016673468801455442 -0.0016798508490720664
          -0.0029551965586671934 -0.0029535322833536735 -0.0029518680080401535 -0.002385305487309085 -0.002454540238315528 -0.002384155254922318
          -0.00245397798306022 -0.002383005022535551 -0.002453415727804912 -0.003031937191950024 -0.0029496887284327948 -0.0030296531524251213
          -0.0029478722574509553 -0.003027369112900218 -0.002946055786469114 -0.001712496674028661 -0.0017145120964566943 -0.0017165275188847275
          -0.00291974772490056 -0.0029191544136684833 -0.0029185611024364067 -0.0021806493322663843 -0.0021816891286981195 -0.0021827289251298548
          -0.002296815928454452 -0.002296292486820054 -0.002295769045185656 -0.0031556689657278414 -0.0031512611650288637 -0.0031468533643298872
          -0.0031029510516113294 -0.003099783473878086 -0.003096615896144842
        </DataArray>
        <DataArray type="Float64" Name="disp_x" format="ascii" RangeMin="0.00004542813409977629" RangeMax="0.00010408372339812782">
          0.00008394941711379736 0.00008345279029498256 0.00008698197377965756 0.00008829609739461135 0.0000839479943604475 0.00008345087991706942
          0.0000869782566580602 0.00008829299213674956 0.00008394517618598949 0.00008344420140242314 0.00008696728017933447 0.00008828374077869577
          0.00005154922447799484 0.000049256320743579934 0.00004836059346352523 0.0000506455962856878 0.00005155331347584558 0.00004926092784087136
          0.000048365981557636794 0.00005065022482016826 0.000051565688897636634 0.0000492752916184077 0.00004838229886847601 0.00005066501273475553
          0.0000464301673664361 0.000046435109086539855 0.00004645013483547152 0.000047416870716683584 0.00004742169742384708 0.00004743582238653678
          0.00009067203486432687 0.00009197368916275369 0.00009066733649606172 0.0000919691794147811 0.00009065255092940039 0.0000919557749020708
          0.00008064999474721507 0.00007967756882571769 0.0000835845626189608 0.00008357054674961919 0.00008064861895661623 0.00007967576083087223
          0.00008358177045665769 0.00008356775675881614 0.00008064463959627172 0.00007967173209658427 0.00008357322946840151 0.00008355928198568845
          0.00007002788252417535 0.00006942919425292036 0.00007195014297027303 0.00007262652411707684 0.0000700299203195933 0.00006943164264383008
          0.00007195211123696507 0.00007262865031138747 0.00007003675035735492 0.00006943966002538185 0.00007195762625204111 0.00007263372569088891
          0.0000626370658480612 0.00006486101996857202 0.00006562491580118518 0.00006337390501060888 0.00006264043722375572 0.00006486432763910495
          0.00006562732633471744 0.00006337584319727887 0.00006265171122372876 0.00006487349978349387 0.00006563515318215083 0.00006338229539103075
          0.00007904310443380323 0.00007818851980818816 0.00008334941953132731 0.00007904156540969089 0.0000781870023895193 0.00008334814204590632
          0.00007903736938734917 0.00007818242892706923 0.00008334572418148998 0.00006074220324061762 0.00006400437864753438 0.00006501022264810232
          0.00006074715892079607 0.000060746541868994815 0.00006400817435611315 0.00006501385581111689 0.00006075151428738976 0.00006076054941146756
          0.00006401803623824291 0.00006502763446934582 0.00006076252233536312 0.00005692611810309585 0.00005693113740397673 0.000056946304278318504
          0.00008557698918632776 0.00008916064739573738 0.00008557398184317048 0.00008915604990299806 0.00008556485363571556 0.00008914263640422302
          0.00007864421341755075 0.00007983956759073458 0.00008165301622981167 0.00007864469277592181 0.000079839743324623 0.00008165276644073755
          0.00007864421962468206 0.0000798392549812063 0.00008165233649091923 0.00008104323539849347 0.00007777679432260798 0.00007508095651998248
          0.00007857749283189146 0.00008104245612297141 0.00007777757995164771 0.00007508164173514744 0.00007857738150677405 0.00008104058786845588
          0.00007778034136194298 0.0000750839440698569 0.00007857812667663711 0.0000744179567777021 0.00007437041131016805 0.00007153764746905991
          0.00007441920107640133 0.00007437234797628025 0.00007153942485068758 0.00007442229670660911 0.00007437840584888787 0.0000715440211617854
          0.00007427980756872897 0.00007594897098044761 0.00007385576860473527 0.0000742818643708772 0.00007595052192842927 0.00007385730993286107
          0.00007428948289187672 0.00007595594564381096 0.00007386287601746699 0.00007446794158426442 0.00007067306370357182 0.00006863040712646213
          0.00007154743040040505 0.00007446900384877583 0.00007067527002683085 0.00006863335395137039 0.00007154901203789851 0.0000744713707744364
          0.00007068065706498766 0.00006864331082046618 0.00007155347085866031 0.00006427695115258365 0.00006077716358161597 0.00006428062790937792
          0.000060781850353972336 0.00006429082381671437 0.00006079486032502217 0.00008361953825352759 0.00008767729695907184 0.00008728259925139914
          0.00008361668709533032 0.00008767374259756788 0.00008727927561308355 0.0000836082789427514 0.00008766370765351436 0.00008726847777321902
          0.00008962095269498113 0.00008717662750510472 0.0000840997370567312 0.00008610093921595794 0.00008961647769077 0.00008717281514494452
          0.00008409699222619876 0.00008609778340314512 0.00008960384030315927 0.00008716208234140982 0.0000840881625990984 0.00008608767497691125
          0.00009761248120338416 0.00009514559904336636 0.0000976098222723351 0.00009514154489759054 0.00009760128577838239 0.0000951292696066715
          0.00008484785298381061 0.00008621694410529126 0.00008484779656642471 0.00008621583773239432 0.00008484739001166532 0.00008621159837742503
          0.00005321998706012298 0.00005322472690241472 0.00005322167097997955 0.00005322702532375175 0.000053225689531062605 0.000053233432044526074
          0.00009759913302050943 0.00009831483480744493 0.00009539667516989556 0.00009422345504061159 0.00009759489843241573 0.00009831100519009753
          0.00009539233157035888 0.00009421844877571188 0.00009758331421649389 0.00009829967026611327 0.00009537889888040515 0.00009420260227460049
          0.00007909160166420115 0.00008346097473811412 0.00007909023377869755 0.00008345894261172518 0.00007908622238038472 0.00008345308819528574
          0.00006608905550589744 0.00006309966153632276 0.00006609191800651427 0.0000631037069462388 0.00006610080472331315 0.00006311506039320367
          0.00006876153795221239 0.00006508321081609407 0.00006876226587149892 0.00006508507669559506 0.00006876339439001168 0.0000650916549766113
          0.00009348011640078828 0.00009347583470241131 0.0000934622138451421 0.00009589963621183042 0.00009589841007254897 0.00009589169891361814
          0.00008765666593911555 0.00009177336649667587 0.00009184955101523483 0.00008775174208000796 0.00008765466849390179 0.0000917707277533114
          0.0000918462459164083 0.00008774961350690972 0.00008764770544879126 0.00009176348374855868 0.00009183734230381711 0.00008774147135921205
          0.00007959169619004512 0.00007682644896997079 0.00007598334790471228 0.00007959131601036468 0.00007682701778346692 0.00007598350065418632
          0.00007959020648147375 0.00007682839873298968 0.00007598398952082874 0.00006785942491620586 0.00006780039721394455 0.00006786177629832772
          0.00006780262476358975 0.00006787060029157784 0.00006781040439708601 0.00009110135531794483 0.00009109744523707815 0.00009108417273669564
          0.000059236746789768466 0.00005848626535590639 0.000060586620997218694 0.00006129450282654245 0.00005923736395789285 0.000058487481062682125
          0.00006058890055160998 0.00006129605747794332 0.00005924002418165542 0.000058490115677960806 0.00006059615719071329 0.00006130044642583174
          0.00008356877917461416 0.00008356705572576657 0.0000835595324697084 0.0000917453044997652 0.00009174349998766023 0.00009173241590922485
          0.00008774780101232842 0.00008774671608241642 0.00008774246283092905 0.0000897635839579695 0.0000922920101189546 0.00008976119701817136
          0.00009228861304338 0.0000897532787695974 0.00009227732453476966 0.00009309197946740704 0.00009477870126966649 0.00009308757025616278
          0.00009477372386371121 0.00009307220662990635 0.00009476072387762687 0.00007058059339935994 0.00007141298809996769 0.00007058100221986503
          0.00007141374130174858 0.00007057909794188166 0.00007141400523110734 0.00008352607949642527 0.00008695905984395316 0.00008352448099417069
          0.00008695563307522829 0.00008351879023509814 0.00008694543076687184 0.0000730584431059764 0.00007305966326638392 0.000073063013710948
          0.0000903377276224994 0.00009278735054137524 0.00009033342411590433 0.0000927823567189725 0.00009032044364587121 0.00009276534607542961
          0.000080390568377664 0.000082366525945342 0.00008039096688614109 0.00008236563030111244 0.00008039162563740752 0.0000823618936553856
          0.00006654562767546348 0.00006654612164048708 0.0000665471803051583 0.00007908138977389443 0.00007907961980009122 0.00007907442561976867
          0.00007826112208873726 0.00008029427008658434 0.0000782623670492964 0.00008029478406080172 0.00007826632117835315 0.00008029597124366476
          0.00007040495185868208 0.00007040454526438377 0.00007040194988604428 0.00009558705059551963 0.00009557808522633176 0.00009556398031098322
          0.00007334661614400847 0.0000746665890230493 0.00007334591546464706 0.00007466605237922099 0.00007334252182584988 0.00007466289573835133
          0.0000719497967121367 0.0000679377460399819 0.00007195100392036738 0.00006793935451694942 0.00007195291854659903 0.0000679437071899202
          0.00007691222905307296 0.000077373709218717 0.0000802779744909689 0.00007691371740241456 0.00007737515594436704 0.00008027842085526266
          0.00007691723796909694 0.00007737987002133139 0.00008027921379614075 0.00006337558615580091 0.00006016098984892046 0.00006065275608333072
          0.00006403795234968677 0.00006337898396777929 0.00006016660997726102 0.00006065856121406894 0.00006404091675586591 0.00006338868511539901
          0.000060182939025985286 0.000060674514753786636 0.00006404986091874073 0.00005741135315586183 0.00005712277853848073 0.000054203808692422336
          0.00005463194914539149 0.000057414850473531534 0.00005712481839034762 0.00005420661008906132 0.00005463496092242716 0.000057424730316121825
          0.00005713097192118088 0.000054215762315457065 0.00005464466242223328 0.00006878810746759188 0.0000687903510511443 0.00006879568495208734
          0.00006216801686171629 0.0000591367296659502 0.00006217239514426182 0.00005914338168664422 0.00006218469793177928 0.000059163185881237895
          0.00007245345312763678 0.00007138747181237897 0.00007245226416407793 0.00007138655938276412 0.00007244861168802924 0.00007138410176395515
          0.00006114297812468168 0.00005814584250979629 0.00006114809770094416 0.00005815242599740935 0.00006116278224202186 0.000058172807694476295
          0.00005479028239629505 0.0000576597724664251 0.00005479438769004845 0.00005766533538389462 0.000054805947475236656 0.00005768177034432059
          0.00005214698848025675 0.00005222790414304899 0.00005215086757519951 0.00005223150593125616 0.000052161732641987304 0.0000522420749794748
          0.00007544901523237676 0.00007544883594731311 0.00007544665781350219 0.00007924264194984063 0.0000792416397833312 0.00007923764393965969
          0.00006339756342775217 0.00006199754373975791 0.000060157385688980055 0.00006022962742953553 0.00006340175959018269 0.00006200152068696744
          0.000060160614953859604 0.00006023420939167376 0.00006341463907450837 0.00006201438459732639 0.000060169346532874376 0.00006024807243426891
          0.00006757609571521825 0.00007131875661795747 0.00006757584334816178 0.00007131788077547757 0.00006757592224635989 0.0000713151118281799
          0.000053801101994172584 0.000053514246102837914 0.00005544027216949495 0.000055818030083145915 0.000053801385259195363 0.00005351485965275254
          0.00005544090848915665 0.000055818270738149605 0.000053802048947517085 0.000053516918556329625 0.0000554433946049216 0.00005581811471655932
          0.0000519011840902077 0.00004990708298635782 0.000050196243139519686 0.00005190476659906087 0.00004991036522764377 0.00005020033773631904
          0.000051914470743064136 0.0000499205433994304 0.0000502117833004013 0.00005472503217814407 0.0000547306205300136 0.000054746559435050646
          0.00008158500686824214 0.00008428106140878898 0.00008158426641485677 0.00008427908043282401 0.00008158039067836401 0.0000842712419318707
          0.00006814497085990362 0.00006554806263342966 0.00006814754446663323 0.00006555188705692528 0.00006815446810544676 0.00006556258846622743
          0.00006058985995732336 0.00006059552378377181 0.00006061228811250674 0.00007474508410661328 0.00007474463292618949 0.00007474139641728093
          0.000056861593201058116 0.000058225662005021926 0.00005686926290434008 0.000058232905527033376 0.00005689327306184982 0.00005825639242805258
          0.00005735507725920423 0.00005783420425010368 0.000057356255520977374 0.00005783462640505205 0.00005735873714298454 0.00005783496697690938
          0.00006191528879601201 0.00006402046130121585 0.00006191635674434595 0.00006402188360780185 0.00006191893431313065 0.0000640249075262293
          0.00006617702412043074 0.00006797209510621813 0.00006841224044811122 0.0000661791242904694 0.00006797482610755195 0.00006841468891162619
          0.0000661836097969693 0.00006798345724346097 0.00006842151721387142 0.00006734477370791342 0.00006670791278403595 0.00006734805858376592
          0.0000667116234065461 0.00006735702808049705 0.00006672159506423244 0.00005659519655126419 0.000055403344673578515 0.00005659683455898076
          0.000055405842362606753 0.000056601047339912056 0.00005541317268594687 0.00007059989616101495 0.00007077166346200862 0.000070602705404743
          0.00007077371013033334 0.0000706096502419239 0.00007078005104368265 0.00005360937759391647 0.00005361239391268407 0.00005362106347260706
          0.0000888616066484296 0.00009185040697333564 0.0000919142876177082 0.0000891493644302137 0.00008886186751719294 0.0000918486124108618
          0.00009191267210728729 0.00008914951088008603 0.00008886054298590888 0.00009184489168149742 0.0000919094834050486 0.00008915147164416627
          0.00009462660907066468 0.00009461246407442954 0.00009462240992511094 0.00009460876209972907 0.00009461018880212076 0.0000945965172373602
          0.00005457746232596882 0.000054579930784641115 0.00005458781227685684 0.00007325162759714485 0.0000732530865140024 0.00007325577528493073
          0.00006355546173121438 0.0000635598593481229 0.00006357170682330378 0.00005309912891925863 0.00005310441962283766 0.00005311784221259722
          0.000064189326356112 0.00006419368521350978 0.00006420519901950673 0.00006640799741539194 0.0000689760261356026 0.00006641217532340652
          0.000068979406295111 0.0000664240499799437 0.0000689900190604996 0.00006694487276516488 0.00006694920601088248 0.00006696218723604302
          0.00009687745031926819 0.0000968734028127435 0.0000968609130773564 0.00004994491276945194 0.000049949396195702486 0.000049962552074851275
          0.00007532519116100219 0.00007532453549649003 0.00007531912167471314 0.00005724129051996436 0.00005752346259558751 0.00005724668864961228
          0.00005752959891501704 0.00005726244648217949 0.00005754871948535241 0.00007510135022438385 0.00007510069649723437 0.00007509514263334963
          0.00005790019327405382 0.00005790785029102943 0.00005793180776098415 0.00006876979243818894 0.0000687736375959483 0.0000687848059507075
          0.00005548512952175031 0.000055492455947887014 0.00005551319425000217 0.00009929045257506977 0.00009929596342331577 0.00009929594505561703
          0.00009837435897294134 0.00009837257526901492 0.00009836635020512899 0.0000972272309141145 0.00009720432993448254 0.00009722352097540282
          0.00009720185297883579 0.00009721074534441975 0.00009719133734054383 0.00007712462107841774 0.00007578217238965969 0.00007712624249988459
          0.00007578380312869888 0.00007712988079567122 0.00007578899956464063 0.00008900971579107158 0.00008900855303778008 0.00008900535336919317
          0.00005985663861265231 0.00005985774027208294 0.000059859451860780086 0.00006882107426955777 0.00006882059902444715 0.00006881996110727691
          0.00009740710629455043 0.00009477365020817338 0.00009740074557035846 0.00009476995322329453 0.00009738798886470352 0.00009475848752306481
          0.00008103463803695665 0.00008173781594135426 0.00008371477410172103 0.00008103531979256324 0.0000817386197660082 0.0000837152526528551
          0.00008103781607958534 0.00008173875077603643 0.00008371698544079949 0.0000864090188384056 0.00008689290429696104 0.00008640941629870813
          0.00008689320436232545 0.00008641135272335631 0.00008689371157602694 0.00009204481497590964 0.00009204280610970306 0.000092035397575613
          0.00008011665881027716 0.00008011689069725444 0.00008011844020860978 0.00007837853722126975 0.00007838026140163843 0.00007838537903091809
          0.00006827592231299047 0.00006827603771357707 0.00006827500138971023 0.00005493846243622414 0.00005494075498975211 0.00005494693032871367
          0.00004542813409977629 0.000047415067468271495 0.00004543340271995302 0.00004742042147323266 0.000045448006892223584 0.000047436308345047965
          0.00008319085140739735 0.00008319023293852155 0.00008318779544009959 0.00005377802590783097 0.00005357250160920184 0.00005666680543224089
          0.000053783565380682704 0.000053577762653524133 0.000056672144468004415 0.00005380036397005826 0.00005359321046613989 0.000056683437281793436
          0.00010028586148692655 0.00009846229432642961 0.00010028365522908463 0.00009845963763201547 0.00010027803466144376 0.00009845185479145532
          0.00007616247543813537 0.00007968070143543049 0.00007616072823096349 0.00007967955526252526 0.00007615578683281046 0.00007967611503259941
          0.00009673458871695993 0.00009673056150814525 0.0000967185374312082 0.0000959196894859345 0.000100217043213883 0.00009990446437645152
          0.00009591785636989584 0.00010021643882797628 0.00009990107722221758 0.00009591239451777022 0.0001002122474138984 0.00009989475352958023
          0.00008850697381199302 0.00008850562719609884 0.00008850164699317616 0.00006174456062155825 0.00006296562085448613 0.00006174820897487357
          0.00006296797677528393 0.00006175797247830354 0.0000629750205310233 0.00009180272915586345 0.00009236577306816161 0.00009180064011463953
          0.00009236555572470031 0.00009179406877976323 0.00009236326737691286 0.00006018623248533659 0.00006019041162316249 0.000060205024240921747
          0.00007342668177726917 0.0000734251509838458 0.00007342125970706725 0.00009962590259910137 0.00009962310030026181 0.00009961447528652457
          0.00004969015788358319 0.000049696217394678946 0.000049714552466375794 0.00005209279108403488 0.00005209889028939468 0.000052117085404614474
          0.000095662068120327 0.00009566053432847104 0.00009565448487874007 0.00005466298160104416 0.000054138825461603885 0.00005466934389654336
          0.000054145046384978 0.000054688491268922504 0.00005416418191808393 0.0001007227484162326 0.00010032325171498004 0.00010071977211318113
          0.00010032053789986777 0.00010071044089847741 0.00010031130174965025 0.00010201657609390967 0.0001020146555188649 0.00010200906322324492
          0.0000995361265253775 0.0000995617139557312 0.00009953314371644029 0.0000995611665154417 0.00009953485645847551 0.00009956035205993165
          0.0000696334235299351 0.0000696329376427621 0.00006962997504157354 0.00010316979712290249 0.00010408372339812782 0.00010316709279113422
          0.0001040821491626327 0.00010316207896465917 0.00010407625763264487 0.0000655243340288225 0.00006641429325564145 0.0000655243270591389
          0.00006641398710454355 0.00006552426215910178 0.00006641291577473857 0.00009972781253921853 0.00009972966122042967 0.00009972768837532938
          0.00005907675981330396 0.0000590814937861967 0.00005909664040144041 0.00010133215945453691 0.00010132935888397543 0.00010131979041870886
          0.0001021166165837227 0.00010211429682793687 0.00010210803205399019 0.00006402158738396817 0.00006402286317523468 0.00006402490115046478
          0.00006485814267851113 0.00006485813080911545 0.00006485832020790142
        </DataArray>
        <DataArray type="Float64" Name="disp_y" format="ascii" RangeMin="-0.00004148087036806635" RangeMax="-0.000011765630777219452">
          -0.000036615107782192935 -0.00003516003914659432 -0.00003371227856686791 -0.00003450248544602044 -0.00003661892783962602 -0.0000351632914935867
          -0.00003371439522533358 -0.00003450450839562484 -0.00003663012134776995 -0.00003517359365378315 -0.000033721884721112314 -0.000034510368948736315
          -0.000029878309970698734 -0.000029079103031398314 -0.000028071938652203367 -0.00002867039814975369 -0.000029880234430267847 -0.000029080396144214074
          -0.000028073366238438567 -0.00002867210259599148 -0.00002988628527131767 -0.000029084400644752103 -0.000028077480975146974 -0.000028677619883750172
          -0.000027503885905394312 -0.00002750510849377752 -0.00002750925646296145 -0.000028419278233971622 -0.000028420325573111164 -0.000028423263209728863
          -0.000031967020743836276 -0.00003265526961820548 -0.00003196856982364459 -0.00003265664262406735 -0.00003197263096695071 -0.000032660221993693456
          -0.00002698622133173653 -0.000025087399546963354 -0.000024336960157356216 -0.00002568399380671691 -0.000026986761443347945 -0.000025087381264644346
          -0.000024336654927114167 -0.000025683938423057423 -0.00002698822510333948 -0.000025087488307816497 -0.0000243361751616319 -0.000025684148228893627
          -0.00003901592822197678 -0.000037854214972574966 -0.00003782333947046042 -0.00003894643906348024 -0.00003902040603601558 -0.00003785858313344181
          -0.00003782783294482171 -0.00003895127250051531 -0.00003903294811156455 -0.000037872279065078235 -0.000037843290817584515 -0.00003896361909230697
          -0.0000376430563989447 -0.00003828535572396982 -0.0000393139856350645 -0.00003853930435450667 -0.00003764620696170444 -0.00003828924851774755
          -0.000039318762708638345 -0.00003854270011963563 -0.0000376556280183339 -0.000038300990933487395 -0.000039333649346026315 -0.00003855333384113586
          -0.00001644173580189974 -0.000014676166473471384 -0.000015982460637425095 -0.000016439899508117086 -0.000014674622116281856 -0.000015980775008462418
          -0.000016434050408408884 -0.000014670141414929282 -0.00001597569459598145 -0.000024215332564630644 -0.000024389354790224363 -0.000025854977617234907
          -0.00002612266807813501 -0.00002421679969496961 -0.000024390274369613077 -0.00002585630742706323 -0.000026123766509849533 -0.000024220140063855464
          -0.000024395153058229024 -0.000025860248190094595 -0.00002612764616604263 -0.000024764625279621634 -0.000024765994417242263 -0.000024768682143754193
          -0.000032801186710584046 -0.00003114042080355269 -0.000032803253653139926 -0.00003114172164898947 -0.00003280936503740476 -0.00003114612796041286
          -0.00003878110847866247 -0.00003734785276965458 -0.000038522864666650476 -0.000038785922006389174 -0.000037351937461092155 -0.0000385273673393891
          -0.000038799159025017187 -0.000037366158411726554 -0.00003854010912846215 -0.00003134134162488702 -0.00003290542972169303 -0.00003195058938559701
          -0.00003055504860415054 -0.000031343138749307096 -0.000032907601525848495 -0.00003195269073459927 -0.0000305567217506278 -0.00003134900115640013
          -0.000032914853308837236 -0.00003195937025580655 -0.00003056197659569043 -0.00003640438497333407 -0.00003765758741271838 -0.00003663724832332692
          -0.000036408390802714253 -0.000037661846822718885 -0.00003664193377988755 -0.000036420156175952996 -0.000037675753969476446 -0.0000366564609794729
          -0.0000385064992039865 -0.00003877231189233476 -0.000040072542180731204 -0.00003851120551277088 -0.00003877703742167648 -0.00004007814584903308
          -0.00003852469742747684 -0.000038790348327136814 -0.00004009466914427897 -0.000034698209685473167 -0.00003546463529154344 -0.00003438318934761099
          -0.000033266203604799215 -0.000034701473160627844 -0.00003546845877945598 -0.000034386324307866666 -0.000033268926647000486 -0.00003471092017542597
          -0.00003547866345029479 -0.00003439557968960965 -0.00003327651340583367 -0.00002787427826404979 -0.00002777672565937132 -0.000027876100018323134
          -0.000027778517416244437 -0.000027880127857879585 -0.00002778260352499574 -0.000022357017628088506 -0.00002223093874000194 -0.00002417203119299126
          -0.00002235662143011522 -0.00002223040758585052 -0.000024172025980361995 -0.000022354875741541028 -0.00002222918770884519 -0.000024171466839993244
          -0.00002629263703685138 -0.000028068542489940247 -0.000027571992937551165 -0.00002593914756602929 -0.000026292714491960773 -0.00002806872629905716
          -0.000027572421591094978 -0.00002593913103402155 -0.000026293148508032583 -0.0000280697894873486 -0.00002757350259346564 -0.00002593844405277219
          -0.00003231845923041063 -0.00003297828432740316 -0.000032318993982661944 -0.0000329783037806504 -0.000032320080173889414 -0.000032977689745946766
          -0.00003824323373717069 -0.000036670731107710504 -0.000038247443512268315 -0.00003667367876184187 -0.00003825944241052191 -0.00003668402916219721
          -0.00003322918333275283 -0.000033035953242818655 -0.00003322912720559606 -0.00003303622407942779 -0.00003322837671954195 -0.000033036785589318065
          -0.00002869102457808672 -0.000029481246010671318 -0.00003091516023744795 -0.00003022056835335349 -0.00002869240720834008 -0.000029482466859085326
          -0.00003091619103123324 -0.00003022199739983734 -0.000028696722717453897 -0.00002948553363371841 -0.000030918674350109476 -0.00003022601805913424
          -0.00001850822952441494 -0.00001813138896034732 -0.00001850659883684472 -0.000018130007529169875 -0.000018500595644370313 -0.000018125942039086244
          -0.000023146783425806244 -0.000022493356613743204 -0.000023147214761516615 -0.000022494510749424076 -0.0000231490832172021 -0.000022498002954826214
          -0.0000211690862002196 -0.000020744536074244213 -0.000021168887004231734 -0.000020744963451146998 -0.000021167481583387947 -0.000020745114162784395
          -0.000032991377020559435 -0.00003299183862395258 -0.000032993671357757684 -0.00002043938606192134 -0.000020440766623495358 -0.00002044371850595403
          -0.000017984993789314746 -0.00001815108711426331 -0.000020249300865120793 -0.000020071307039414443 -0.00001798446782817039 -0.00001815095596214853
          -0.000020249561725731995 -0.000020070941669676506 -0.000017983449285216212 -0.000018151043318120012 -0.000020249946586256375 -0.000020069612286339645
          -0.000028616001441975142 -0.000029482575445896947 -0.000028006117226338943 -0.00002861738448957461 -0.00002948430117972607 -0.000028007438650043356
          -0.00002862088550092143 -0.000029489171320538334 -0.000028011770118249868 -0.000026521608310356875 -0.00002788482147421717 -0.000026522726727941447
          -0.00002788675055934585 -0.000026526398001023912 -0.00002789479824009941 -0.000024408867860272756 -0.000024408536910314515 -0.000024408445514824723
          -0.00003670778787380362 -0.000035934179915573025 -0.0000368521602007042 -0.0000376683917090771 -0.00003670951399143032 -0.000035935829646812365
          -0.00003685442213453848 -0.000037670753392985534 -0.00003671469829866979 -0.00003594120260366529 -0.00003686095083229234 -0.000037676994672334146
          -0.00002020777429842887 -0.000020206995434105627 -0.000020204327207893022 -0.000022387521249032267 -0.000022388309832480608 -0.00002238882132266604
          -0.00001597214508778379 -0.000015971130012031377 -0.00001596763257737885 -0.000035159979625341885 -0.0000344955062640736 -0.00003516160549908318
          -0.000034496127009457845 -0.00003516571144505184 -0.00003449728332813972 -0.000026691888196272724 -0.00002466419957401584 -0.000026691646493805117
          -0.000024666055082358167 -0.00002669161849570153 -0.000024666280796717703 -0.000025621597089944434 -0.000027307093606717658 -0.00002562263825473633
          -0.000027309221285356777 -0.000025624928625105147 -0.000027315992381935733 -0.00003203500239229528 -0.00003037938787233242 -0.000032036817122384346
          -0.0000303805604911794 -0.0000320417652334519 -0.00003038424439987781 -0.00003059819810615682 -0.00003060067417801372 -0.000030607091730537005
          -0.00002859955369095179 -0.000029350081446526747 -0.000028600397325086204 -0.000029351264580060827 -0.00002860174866026353 -0.000029355246103450687
          -0.000033549812080237935 -0.00003420840582823931 -0.000033552325953971096 -0.00003421134123275403 -0.00003355907917047682 -0.000034219476371722815
          -0.000018883110982007433 -0.000018882320864800885 -0.000018879683226702756 -0.00002078819534653512 -0.000020787185415801398 -0.000020784436564157383
          -0.000034919450960182136 -0.000035061511661256694 -0.00003492287093401895 -0.000035064924032941385 -0.00003493283043578906 -0.000035074166223064376
          -0.000019038536371996195 -0.00001903752834347848 -0.00001903372469704473 -0.000022581038071142074 -0.00002257976640595657 -0.000022582745078978012
          -0.00002181342912509573 -0.000018974288614037348 -0.000021812859742904192 -0.00001897279015264711 -0.00002181074935691353 -0.000018968162906880624
          -0.00002904513812682667 -0.00002962052990717351 -0.00002904768693486832 -0.000029623380811456744 -0.00002905506055997739 -0.000029631690668917977
          -0.00003757218093293855 -0.00003627074002389526 -0.000036009745397513916 -0.000037576724062295405 -0.000036274829295727343 -0.000036013829452342574
          -0.00003758907869959356 -0.000036286176695601115 -0.00003602651012487156 -0.000031156722458145545 -0.0000305460016666934 -0.00002928136321245402
          -0.00002959699988828817 -0.000031160014287991376 -0.000030549119790584355 -0.000029283687451393866 -0.00002959941798345349 -0.00003117102749266786
          -0.000030558745491965476 -0.000029290228867876283 -0.00002960597861188664 -0.000034045022112467826 -0.00003471846537652054 -0.00003300774787531087
          -0.0000326816766885427 -0.00003404724535591996 -0.000034720073073223504 -0.00003300882124442093 -0.000032683298085096244 -0.0000340536155199593
          -0.00003472493190524061 -0.000033012270320703344 -0.00003268800447397628 -0.000024159628693355863 -0.000024160740503549185 -0.00002416224404752349
          -0.000032480321143365855 -0.00003153801150435669 -0.00003248415197342675 -0.00003154151572343415 -0.00003249546001061115 -0.00003155173409049822
          -0.000014840251667553025 -0.000013457602010612244 -0.000014838215186142132 -0.000013455450380666732 -0.000014832789941870327 -0.000013449343127772663
          -0.00003355030608704825 -0.000032413295408744385 -0.000033554172699623636 -0.000032416887299845146 -0.000033565496147387444 -0.00003242770344727344
          -0.000032007734854390406 -0.00003328292120284765 -0.00003200986449574386 -0.000033286216273653364 -0.00003201596739181662 -0.00003329530611800502
          -0.00003086175994195329 -0.00003146258288613034 -0.000030863618202787205 -0.000031464011393003134 -0.00003086892336182434 -0.0000314685065218902
          -0.00002619411864422339 -0.000026195115970093384 -0.000026197038225324585 -0.000023057403288849923 -0.000023057371502631544 -0.000023056980646757558
          -0.00003685163233952702 -0.00003688304225356881 -0.00003606813219162884 -0.000035363436992114295 -0.00003685523453022316 -0.0000368862767812492
          -0.000036070924769726865 -0.00003536683471166247 -0.000036865859397496845 -0.00003689537753274635 -0.00003607936897464293 -0.000035377131907364714
          -0.00001699343161153462 -0.000017012602587094815 -0.000016992039949413345 -0.000017011169866109802 -0.000016987333105402367 -0.000017006372306380667
          -0.00003398834718628011 -0.00003360690194434978 -0.000034699405922234364 -0.000035121358771810876 -0.000033987307185532414 -0.00003360628484600599
          -0.00003469965052604133 -0.00003512114245213409 -0.0000339841021364285 -0.00003360422850646699 -0.00003470022257852333 -0.00003512114357531016
          -0.000031707118708393416 -0.000030566785102418256 -0.000030415421653092402 -0.000031708189815839535 -0.00003056733253754682 -0.00003041648145958545
          -0.00003171124122151448 -0.00003056925408967302 -0.000030419955782577335 -0.00003085837105799163 -0.00003086084551174259 -0.00003086783302024612
          -0.000029101045867685977 -0.00002975384975074088 -0.000029102390623151162 -0.000029755037436294067 -0.000029105714198608867 -0.00002975801948123151
          -0.00003174225342417424 -0.000033392544210817315 -0.000031745297605815285 -0.000033395974597750615 -0.00003175386653773464 -0.00003340610260547432
          -0.00003452195789641074 -0.00003452596944505839 -0.00003453774135560779 -0.000024202019463575204 -0.00002420229699896773 -0.00002420292329051265
          -0.00003044675999188194 -0.000030058550443503555 -0.000030449614380862008 -0.000030061709506139515 -0.000030456523456821608 -0.00003007131193185727
          -0.00003574878798187131 -0.00003625369265972479 -0.00003575023240039523 -0.00003625491197667071 -0.000035754488973884254 -0.00003625874602639642
          -0.00003837974818312204 -0.000039339158117990615 -0.00003838232253248041 -0.00003934316195924091 -0.000038390105993769436 -0.00003935460275309458
          -0.000040175774319034436 -0.000039873275524330824 -0.00004083474417481514 -0.00004018155732456069 -0.000039878790281749255 -0.00004084122357083695
          -0.000040198718613248385 -0.00003989529003932988 -0.00004086227593140193 -0.00003875975603967962 -0.000037554094020673395 -0.00003876435333596628
          -0.000037558311443523 -0.00003877679711602113 -0.00003757093513178938 -0.000035064189727788684 -0.000034168089139524906 -0.000035065413768641295
          -0.00003416908432495844 -0.00003506927896390606 -0.000034171074284692874 -0.00004019088537300846 -0.000041276020401418 -0.00004019678208064379
          -0.00004128292372515524 -0.000040214270717605923 -0.00004130530567125042 -0.0000330249835021157 -0.00003302573570971006 -0.000033027217179976925
          -0.000037156047967868645 -0.00003589797327445224 -0.00003644728931219534 -0.00003765595319217321 -0.000037158941206632034 -0.00003589891643480831
          -0.000036447467182676495 -0.0000376580527330672 -0.00003716604261471435 -0.00003590218274305107 -0.000036450552490159706 -0.000037665193281469916
          -0.00003518510618143928 -0.000034675253430519344 -0.000035184413360869494 -0.00003467445889375142 -0.00003518229850396745 -0.0000346716990365036
          -0.00003383720559154483 -0.000033837914115643465 -0.00003383967960543731 -0.000041450588153530197 -0.00004145804928890207 -0.00004148087036806635
          -0.00003559440787928345 -0.00003559832680396181 -0.000035609843890181067 -0.000029122387521646293 -0.000029125213015213985 -0.00002913320925812638
          -0.00003452148660555471 -0.00003452556065602951 -0.00003453720809740654 -0.00003635670654517631 -0.000036693608422103385 -0.00003636122056875903
          -0.000036698156959043276 -0.00003637411026776191 -0.000036712532671508136 -0.000035325571118206036 -0.00003532977100898835 -0.000035341479731650014
          -0.00002716475027070088 -0.000027165821484279094 -0.00002716921255589132 -0.00002990241736450684 -0.000029903921886942278 -0.00002990741992469217
          -0.000015493491719523483 -0.000015492052289711084 -0.00001548657317303741 -0.00002626771485531969 -0.00002777743378941514 -0.000026269603999939384
          -0.000027780021483073084 -0.000026275138059549316 -0.000027787882917822512 -0.000016880540661183027 -0.000016878979354718348 -0.000016873852151095523
          -0.000029130964079508338 -0.00002913438491931623 -0.00002914285292342349 -0.000035827766461706516 -0.000035832085568262774 -0.00003584391860810908
          -0.000029197946995564873 -0.0000292009188335294 -0.00002921041945913516 -0.000022544869966625346 -0.000022546298992548246 -0.000022550460735176515
          -0.000024650211495749136 -0.000024651705219514118 -0.00002465520495888684 -0.000033455159727466995 -0.00003391745789140188 -0.000033455910258214416
          -0.00003391659715337067 -0.00003345489174070218 -0.00003391382690277549 -0.000040129336107764736 -0.00004137790225556204 -0.000040135734818162116
          -0.00004138615753932634 -0.000040155639383828486 -0.00004141403733646057 -0.000036445292233694994 -0.00003644758957524469 -0.00003645490061271944
          -0.000037346502840819355 -0.000037348703230989996 -0.00003735470137015292 -0.00001348850922302034 -0.000013486360098594958 -0.000013480357947603315
          -0.00003286227272398429 -0.00003399151725669686 -0.000032862242450315295 -0.000033990984405075865 -0.00003286419664014386 -0.00003398837055893918
          -0.00004049711071227619 -0.00003964988597264638 -0.00003970506195111615 -0.000040503019861625496 -0.000039655411766271124 -0.00003971042837477789
          -0.00004052648175103914 -0.00003967232352721262 -0.00003972477803775418 -0.000038777141131800614 -0.000038058302047255765 -0.00003878141842166954
          -0.000038062135676862326 -0.000038799714923556464 -0.00003807389659776951 -0.00003517237014476076 -0.00003517309920631228 -0.00003517604001179289
          -0.00003982977516324663 -0.0000398358048638102 -0.00003985172194797559 -0.000041018288238513474 -0.00004102555116180629 -0.000041047258141162595
          -0.000015165004072420596 -0.000015163563997664156 -0.000015158366888281845 -0.00003420620365527804 -0.000034206974017804086 -0.00003420814236163535
          -0.000026546872298757714 -0.000026986573077607655 -0.00002654834985839802 -0.000026988067124616087 -0.000026552431147383396 -0.000026992241243456806
          -0.000013569132962087531 -0.000013567443982772697 -0.000013562757926370477 -0.000025005616785936756 -0.0000236225462735095 -0.00002334798716439452
          -0.00002500735362043745 -0.000023624313002306985 -0.000023349630499057924 -0.000025013813946650412 -0.00002362817288573843 -0.000023353885475730867
          -0.000030934898295021374 -0.00003118112132560087 -0.00003093552165438852 -0.000031181680623104756 -0.000030937483808070265 -0.00003118283959283526
          -0.000013276477770659557 -0.000011957579802117112 -0.000013274624459585097 -0.000011955713050930103 -0.000013269413796451312 -0.000011949799660689135
          -0.00003126610404290112 -0.00003126659751988074 -0.00003126857734342554 -0.000018302537926888477 -0.00001829963841276879 -0.000020458244762864114
          -0.000018302923563624353 -0.00001830031076618823 -0.000020459412757320448 -0.000018303847856186047 -0.000018301856954660723 -0.000020463351717537538
          -0.000014104150593023888 -0.000014102672789737714 -0.000014098145939536227 -0.000020480098460132947 -0.000018797132756491187 -0.000020481037241192795
          -0.000018797032039797884 -0.00002048399096257638 -0.000018796227008036122 -0.00001625028587558138 -0.000014626949081070355 -0.00001624995919833759
          -0.000014626169427783047 -0.000016248836981580937 -0.000014624040528974886 -0.000022049638618856014 -0.000022050867067990124 -0.000022056857597316936
          -0.000011975773775228747 -0.000011973211942345398 -0.000011964951702122523 -0.000029694817149557042 -0.00002969570816568151 -0.000029698592602548937
          -0.00002742869161049401 -0.00002743081149731363 -0.000027436699826104306 -0.000027721869487940344 -0.00002772491034250175 -0.000027733893776856044
          -0.00001634316022407772 -0.000016343241968030972 -0.00001634415231354591 -0.000027804589535284292 -0.000026386347927684006 -0.000027807762288378724
          -0.000026389040514481192 -0.000027818949531444717 -0.000026396764605301456 -0.000027601038048708632 -0.000028486675235130787 -0.000027602826832423737
          -0.00002848774614875525 -0.0000276084362593053 -0.000028491797457169332 -0.000028195086812443875 -0.000028195956369422295 -0.000028198474655959922
          -0.00003281567590031626 -0.000032370697725450404 -0.00003281733096456197 -0.000032371011361854 -0.0000328179503530214 -0.00003237242891609617
          -0.000011911350497572038 -0.000011908881300754962 -0.000011900973491968833 -0.0000222986768609992 -0.000020254671566131707 -0.000022299826817445464
          -0.000020255900489856033 -0.00002230298209817748 -0.000020259372876540924 -0.0000135478367776543 -0.000011774005623933296 -0.000013545995540110383
          -0.000011771895884947285 -0.000013540763112947539 -0.000011765630777219452 -0.000031830527180195926 -0.00003183022074253932 -0.00003183336712869186
          -0.000023151447298650673 -0.000023153073354251303 -0.000023157289419631865 -0.000026103112285030284 -0.00002610527330704671 -0.00002611198025853961
          -0.00002428612252500849 -0.000024287668152169083 -0.000024292924575880606 -0.00001703208250520057 -0.0000170313819233068 -0.000017028130542028396
          -0.0000152815826234818 -0.00001527998890623845 -0.000015275209385517217
        </DataArray>
        <DataArray type="Float64" Name="disp_z" format="ascii" RangeMin="-0.000001128149918034019" RangeMax="0">
          0 0 0 0 -4.3247248407102977e-7 -4.658493858999798e-7
          -4.581536414810063e-7 -4.2928102523481225e-7 -8.642533600470611e-7 -9.303855309001321e-7 -9.156425175338723e-7 -8.578820332010797e-7
          0 0 0 0 -3.141516268497246e-7 -2.84898838430504e-7
          -2.907370238665509e-7 -3.278701620945279e-7 -6.283377956612611e-7 -5.694098737268769e-7 -5.814737449612269e-7 -6.55517786481509e-7
          0 -2.565252316137737e-7 -5.135735224635529e-7 0 -2.539845542405181e-7 -5.087196727519757e-7
          0 0 -4.394406806796047e-7 -4.132607393095133e-7 -8.782926156182621e-7 -8.264771040683051e-7
          0 0 0 0 -5.406399803264561e-7 -5.453299241021809e-7
          -5.330551847468553e-7 -5.303766861499573e-7 -0.000001080016253521138 -0.0000010899289467753036 -0.0000010652769093363678 -0.00000105960196587927
          0 0 0 0 -3.769598409225602e-7 -3.9997406514833763e-7
          -4.1453284747029207e-7 -3.886740415508775e-7 -7.531742082002533e-7 -7.999093764158913e-7 -8.291865647666128e-7 -7.772614942548464e-7
          0 0 0 0 -3.0984807226145803e-7 -3.34323161294398e-7
          -3.070195638837753e-7 -2.894996473582162e-7 -6.199275907176901e-7 -6.683253552382434e-7 -6.138800697655067e-7 -5.791234072123449e-7
          0 0 0 -5.126346364810585e-7 -5.048779920482783e-7 -5.078309181582733e-7
          -0.000001025712191391087 -0.0000010101339350039864 -0.0000010156155346556718 0 0 0
          0 -5.097782614901097e-7 -5.280341592846634e-7 -5.267217761853864e-7 -4.969726859221693e-7 -0.0000010195332447979606
          -0.00000105489984739091 -0.0000010530241591329914 -9.937805564222475e-7 0 -4.7172292132899665e-7 -9.431776140209538e-7
          0 0 -4.85535335674005e-7 -4.7052702109010145e-7 -9.697567046498639e-7 -9.400339667771168e-7
          0 0 0 -4.0819922241981086e-7 -4.3572415589581773e-7 -3.9645266877607035e-7
          -8.15088148049096e-7 -8.710364334572048e-7 -7.925818181572259e-7 0 0 0
          0 -5.179433321819848e-7 -5.024467238365676e-7 -5.103771157331401e-7 -5.25683591520202e-7 -0.0000010346443044567576
          -0.0000010044131171014442 -0.0000010203519040636637 -0.0000010505757596452496 0 0 0
          -4.5138196427264565e-7 -4.275743945633662e-7 -4.459335111004402e-7 -9.02488952914762e-7 -8.551589898838468e-7 -8.904250649829299e-7
          0 0 0 -4.034790340228474e-7 -4.129646718969794e-7 -3.749516944749347e-7
          -8.060514111583318e-7 -8.249899646048089e-7 -7.488860551167474e-7 0 0 0
          0 -4.794844360737901e-7 -4.655010907883038e-7 -4.6649915708611346e-7 -4.936906730731946e-7 -9.585493421133017e-7
          -9.292072674164638e-7 -9.317989432715374e-7 -9.86590889034834e-7 0 0 -5.11122105172803e-7
          -4.92868785676965e-7 -0.0000010216201407930794 -9.847834327772104e-7 0 0 0
          -5.313961184821912e-7 -5.077043199554746e-7 -5.098565791481514e-7 -0.000001061701929363088 -0.0000010161602543885958 -0.0000010192118195373699
          0 0 0 0 -4.937449246273584e-7 -5.03699206189232e-7
          -5.266439359923845e-7 -5.159411028949243e-7 -9.868770326110419e-7 -0.0000010065858614091604 -0.0000010520659113994975 -0.0000010312889986446652
          0 0 -3.3634991970406034e-7 -3.5807581679935775e-7 -6.731246293234858e-7 -7.16317688466261e-7
          0 0 -3.852156884141757e-7 -4.1910359674733104e-7 -7.691056041729462e-7 -8.384422667837927e-7
          0 0 -2.499504669818299e-7 -2.5397461548524654e-7 -5.003974383825039e-7 -5.083839187204525e-7
          0 0 0 0 -3.8377620624572533e-7 -3.662592846739708e-7
          -3.8563913295826773e-7 -4.0859040786062034e-7 -7.678992391380005e-7 -7.33349946393899e-7 -7.715275358869257e-7 -8.176524224863138e-7
          0 0 -5.327599456277844e-7 -5.203261653834566e-7 -0.000001064838193908404 -0.0000010401851180214666
          0 0 -5.474771800553377e-7 -5.368442723860226e-7 -0.0000010935887734225428 -0.0000010728664173229436
          0 0 -5.585982456477054e-7 -5.487513023890913e-7 -0.0000011155960296702704 -0.000001095895379084805
          0 -3.8653786795922353e-7 -7.729188066582106e-7 0 -4.6327394123849313e-7 -9.261421588534558e-7
          0 0 0 0 -5.041937539937187e-7 -4.860148049398024e-7
          -4.838655623991069e-7 -5.047003569918243e-7 -0.000001008090316646914 -9.72015775996e-7 -9.679798221525506e-7 -0.0000010090807805227855
          0 0 0 -5.357577690633225e-7 -5.295767449329818e-7 -5.40004715414051e-7
          -0.0000010704401693878929 -0.000001058467330336365 -0.0000010793320972702485 0 0 -5.593405909849884e-7
          -5.367242841892351e-7 -0.00000111650947703774 -0.0000010715839923710957 0 -4.835301813052086e-7 -9.668471215964208e-7
          0 0 0 0 -2.682678849741622e-7 -2.789357420745141e-7
          -2.8691771474641274e-7 -2.764605316188838e-7 -5.36676775495393e-7 -5.580386114942267e-7 -5.745486960466106e-7 -5.533656827864519e-7
          0 -5.269640194885317e-7 -0.0000010535392070597554 0 -4.829039682045163e-7 -9.633188220194793e-7
          0 -5.023471400410762e-7 -0.0000010038352158677513 0 0 -4.054923337481103e-7
          -3.89073283158111e-7 -8.098981980228136e-7 -7.785712911208488e-7 0 0 -4.5861094025038683e-7
          -4.4492942562220264e-7 -9.171032527570212e-7 -8.908437336245635e-7 0 0 -5.609212227850069e-7
          -5.502559397934184e-7 -0.0000011196628961922806 -0.0000010992875271417249 0 0 -5.039848291180078e-7
          -4.946960778104066e-7 -0.0000010066113160899886 -9.88213691408364e-7 0 -5.189294166639651e-7 -0.000001037563074653632
          0 0 -4.805981804928696e-7 -4.4686851070698523e-7 -9.600427160074703e-7 -8.935760200937913e-7
          0 0 -4.990167530250906e-7 -4.881858309412945e-7 -9.966486242670025e-7 -9.74218036288931e-7
          0 -5.480912325083835e-7 -0.000001094704452537214 0 -5.450874427534694e-7 -0.000001089470092362343
          0 0 -4.80748500068464e-7 -4.828597780702704e-7 -9.609567781665158e-7 -9.641537690669856e-7
          0 -5.474571385416059e-7 -0.0000010942771034328208 0 -4.444753828368593e-7 -8.947017375416309e-7
          0 0 -5.57022240263019e-7 -5.407949019451702e-7 -0.000001113003238838185 -0.0000010813192428907405
          0 0 -5.290659244245508e-7 -5.195456275087533e-7 -0.0000010577962436695284 -0.0000010387119390331468
          0 0 0 -4.3835426075133183e-7 -4.57516064548036e-7 -4.6807243480856375e-7
          -8.758683703347668e-7 -9.145233801743765e-7 -9.343476149516166e-7 0 0 0
          0 -4.775502554205892e-7 -4.595985634768722e-7 -4.81254084987868e-7 -5.044327617133369e-7 -9.540387418283577e-7
          -9.169169875946918e-7 -9.601011907118154e-7 -0.0000010073012849737468 0 0 0
          0 -3.1635594497527957e-7 -2.935793461056951e-7 -2.811745204698074e-7 -3.0113313950934797e-7 -6.336911377006002e-7
          -5.872189225337485e-7 -5.620534534608808e-7 -6.02591949453741e-7 0 -5.650464601746795e-7 -0.000001128149918034019
          0 0 -4.4361532290489315e-7 -4.254200478823683e-7 -8.863013458888866e-7 -8.493518810798167e-7
          0 0 -5.226791445219376e-7 -5.164571133810303e-7 -0.0000010445819882920157 -0.0000010320283287252828
          0 0 -4.0869590667602385e-7 -3.82813423668226e-7 -8.162410403791156e-7 -7.657656720948924e-7
          0 0 -3.189235852539505e-7 -3.4227444683428377e-7 -6.384604294528573e-7 -6.855551221388701e-7
          0 0 -3.011872901368757e-7 -2.831483608901876e-7 -6.024780702169323e-7 -5.660694444699396e-7
          0 -5.472703356185648e-7 -0.0000010939350722255994 0 -5.460537678958512e-7 -0.000001091414505932994
          0 0 0 0 -3.5400717941740276e-7 -3.211840193188683e-7
          -3.0686681383747013e-7 -3.319847593851561e-7 -7.078759585997182e-7 -6.430246997395477e-7 -6.14916252481036e-7 -6.645948646266529e-7
          0 0 -5.372629183702719e-7 -5.384793231848384e-7 -0.0000010738651869947427 -0.000001076238131965929
          0 0 0 0 -2.5543727221290106e-7 -2.5077625038215996e-7
          -2.564799328372907e-7 -2.5500495659004545e-7 -5.109353848205842e-7 -5.015341853196097e-7 -5.13187676934484e-7 -5.099230530562493e-7
          0 0 0 -2.663839862259974e-7 -2.5191503438665183e-7 -2.6723196424552163e-7
          -5.331024799458964e-7 -5.042377083209666e-7 -5.34627553011232e-7 0 -3.4754741107783094e-7 -6.9630464065994e-7
          0 0 -5.315194728860586e-7 -5.165126750246787e-7 -0.0000010615519374928368 -0.0000010317784830361245
          0 0 -4.943012904117563e-7 -4.568144702664081e-7 -9.880324279248576e-7 -9.133355970995903e-7
          0 -3.722794603284304e-7 -7.442853227835996e-7 0 -5.508075741283402e-7 -0.000001101214502153527
          0 0 -3.9605872557101826e-7 -4.372445715660018e-7 -7.926979865933429e-7 -8.739683194542769e-7
          0 0 -2.625598902725721e-7 -2.5381150237239975e-7 -5.249395440284574e-7 -5.077586737576562e-7
          0 0 -2.609136645322361e-7 -2.663970621076307e-7 -5.215288045131153e-7 -5.328248389557333e-7
          0 0 0 -2.7287241966724705e-7 -3.280568989079329e-7 -2.856012578118394e-7
          -5.45614747687547e-7 -6.556257652393987e-7 -5.704892781535593e-7 0 0 -3.534982447312275e-7
          -3.786153760577081e-7 -7.06156954504856e-7 -7.569285842805868e-7 0 0 -2.73053320610461e-7
          -2.7594705607490624e-7 -5.45452807715009e-7 -5.516481727769755e-7 0 0 -3.509227049644508e-7
          -3.026981308668571e-7 -7.011405709383637e-7 -6.038088959420697e-7 0 -2.6481146744960395e-7 -5.298558871892947e-7
          0 0 0 0 -3.7456581593178035e-7 -3.7077694313512787e-7
          -3.606891058786714e-7 -3.6069972104558735e-7 -7.48041573958552e-7 -7.407052651979494e-7 -7.189094337851914e-7 -7.20518179640997e-7
          0 0 -3.478216359144544e-7 -3.556142569297958e-7 -6.954176872615636e-7 -7.111211436072499e-7
          0 -2.630157159530668e-7 -5.258891574499636e-7 0 -3.146280498036156e-7 -6.282205662406733e-7
          0 -3.9068100412352413e-7 -7.810846244267612e-7 0 -3.5701018210244283e-7 -7.149643433224487e-7
          0 -4.216666663441527e-7 -8.431396662025565e-7 0 0 -4.041293557686836e-7
          -4.270702734250829e-7 -8.082174724992095e-7 -8.529988984710874e-7 0 -4.338135416784232e-7 -8.670027360774225e-7
          0 -4.1362088124267715e-7 -8.277600314954199e-7 0 -2.782230014633936e-7 -5.562199449969189e-7
          0 -5.207752572818222e-7 -0.000001041336356886699 0 0 -4.7006742212435004e-7
          -4.5545255531543393e-7 -9.38767132960539e-7 -9.09920996361759e-7 0 -5.305079688137501e-7 -0.0000010606385415901022
          0 -4.43906848173695e-7 -8.871773943138287e-7 0 -4.4722705463461886e-7 -8.93222298080842e-7
          0 -3.884574037819359e-7 -7.783739383301585e-7 0 -4.2988765502519797e-7 -8.612635146367356e-7
          0 -4.214195141159695e-7 -8.437328266159873e-7 0 0 -3.1671840045359034e-7
          -3.1210771132502657e-7 -6.334908404659117e-7 -6.25631177170055e-7 0 0 -3.7949279002281925e-7
          -3.1766306709263074e-7 -7.580788016385689e-7 -6.337848726543219e-7 0 -3.868513736314608e-7 -7.725470412278436e-7
          0 -2.55912642531428e-7 -5.117970185248179e-7 0 -5.133626926940771e-7 -0.0000010259912801005419
          0 0 -3.2677467007974985e-7 -3.555412113382804e-7 -6.570938759389961e-7 -7.091652465830544e-7
          0 0 0 -3.4130479160999325e-7 -3.784810105008194e-7 -3.487631587385743e-7
          -6.789970004255018e-7 -7.58458122887447e-7 -6.977439934142646e-7 0 0 -3.50591748828732e-7
          -3.7914908972038716e-7 -6.983048023509927e-7 -7.592639069232711e-7 0 -3.7802036856304763e-7 -7.548574720449484e-7
          0 -3.753813856613213e-7 -7.494453624411916e-7 0 -3.3407656619413277e-7 -6.673233934030618e-7
          0 -5.268413168187786e-7 -0.0000010532175566250287 0 -2.594257579190339e-7 -5.188395222822746e-7
          0 0 -2.6094389506343e-7 -2.923593778795371e-7 -5.219101803883209e-7 -5.851248147684805e-7
          0 -4.91901965370182e-7 -9.838729490865024e-7 0 0 0
          -4.3754552494286526e-7 -4.4933395928253374e-7 -4.7140349995903636e-7 -8.741296453746703e-7 -8.978965386766544e-7 -9.434761747086017e-7
          0 0 -3.208564875419205e-7 -3.363284923453165e-7 -6.42101933549533e-7 -6.733318937356274e-7
          0 0 -5.05303791480925e-7 -4.877500936297305e-7 -0.000001010367091723402 -9.756899803984484e-7
          0 -3.5887023549431296e-7 -7.182408597263513e-7 0 0 0
          -4.669513861113882e-7 -4.544802817515331e-7 -4.4544546192228114e-7 -9.344524807728498e-7 -9.088232236139171e-7 -8.905804078575933e-7
          0 -4.861160865363643e-7 -9.723998338050448e-7 0 0 -5.285725582754432e-7
          -5.395217774908899e-7 -0.0000010549014719787519 -0.000001077265430197424 0 0 -4.872679969465564e-7
          -4.790820467921736e-7 -9.748068451949429e-7 -9.58442243925034e-7 0 -5.139043403594264e-7 -0.0000010277023975234965
          0 -5.001099640699837e-7 -9.99638520658084e-7 0 -3.430706020978498e-7 -6.871254392563667e-7
          0 -3.3154131787346787e-7 -6.635369622697994e-7 0 -3.7222631889936426e-7 -7.446405013408519e-7
          0 -4.719992184857958e-7 -9.442365987007709e-7 0 0 -4.116619265475562e-7
          -4.27482489393353e-7 -8.234357097154976e-7 -8.5416170754803e-7 0 0 -3.66096367526477e-7
          -3.5216948725476454e-7 -7.332071805094092e-7 -7.051596131644548e-7 0 -3.380095988300822e-7 -6.768310455350802e-7
          0 0 -3.005091262579229e-7 -2.999897103344763e-7 -6.016529481890855e-7 -6.000840846847365e-7
          0 -5.02259785513585e-7 -0.0000010039320043188644 0 0 -4.1721597085171986e-7
          -4.278026522966262e-7 -8.326720247950187e-7 -8.556419803104753e-7 0 0 -5.111831019318831e-7
          -5.019801639371026e-7 -0.000001021813270919373 -0.0000010033059658418003 0 -3.0687004408749013e-7 -6.146972998306576e-7
          0 -4.833116937148361e-7 -9.656624277391723e-7 0 -3.834130169961017e-7 -7.671080858925184e-7
          0 -4.0741979906239837e-7 -8.141916929228969e-7 0 -5.316273937501376e-7 -0.0000010617480635791036
          0 -5.239205517671774e-7 -0.0000010472052718192099
        </DataArray>
      </PointData>
      <CellData>
        <DataArray type="Int32" Name="libmesh_elem_id" format="ascii" RangeMin="1380" RangeMax="3259">
          1380 1381 1412 1413 1414 1415
          1416 1417 1428 1429 1430 1431
          1438 1439 1440 1441 1464 1465
          1472 1473 1480 1481 1484 1485
          1488 1489 1490 1491 1492 1493
          1496 1497 1516 1517 1534 1535
          1538 1539 1544 1545 1548 1549
          1556 1557 1562 1563 1568 1569
          1574 1575 1576 1577 1604 1605
          1610 1611 1620 1621 1626 1627
          1632 1633 1640 1641 1642 1643
          1644 1645 1646 1647 1660 1661
          1664 1665 1666 1667 1668 1669
          1670 1671 1674 1675 1676 1677
          1688 1689 1690 1691 1692 1693
          1694 1695 1706 1707 1716 1717
          1720 1721 1724 1725 1732 1733
          1736 1737 1738 1739 1742 1743
          1744 1745 1756 1757 1758 1759
          1768 1769 1776 1777 1780 1781
          1784 1785 1786 1787 1788 1789
          1792 1793 1796 1797 1800 1801
          1806 1807 1808 1809 1812 1813
          1820 1821 1822 1823 1826 1827
          1842 1843 1844 1845 1860 1861
          1870 1871 1886 1887 1898 1899
          1912 1913 1934 1935 1938 1939
          1940 1941 1954 1955 1958 1959
          1962 1963 1964 1965 1966 1967
          1974 1975 1976 1977 1978 1979
          1980 1981 1984 1985 1990 1991
          1992 1993 1994 1995 2002 2003
          2012 2013 2016 2017 2022 2023
          2032 2033 2034 2035 2036 2037
          2042 2043 2056 2057 2066 2067
          2072 2073 2076 2077 2080 2081
          2086 2087 2090 2091 2094 2095
          2098 2099 2104 2105 2108 2109
          2114 2115 2118 2119 2122 2123
          2142 2143 2152 2153 2156 2157
          2168 2169 2172 2173 2174 2175
          2182 2183 2188 2189 2190 2191
          2192 2193 2194 2195 2198 2199
          2210 2211 2240 2241 2272 2273
          2280 2281 2300 2301 2322 2323
          2326 2327 2338 2339 2376 2377
          2378 2379 2380 2381 2384 2385
          2386 2387 2388 2389 2394 2395
          2428 2429 2438 2439 2446 2447
          2454 2455 2492 2493 2508 2509
          2514 2515 2516 2517 2528 2529
          2536 2537 2538 2539 2544 2545
          2548 2549 2552 2553 2576 2577
          2604 2605 2606 2607 2614 2615
          2618 2619 2626 2627 2630 2631
          2632 2633 2652 2653 2654 2655
          2674 2675 2676 2677 2686 2687
          2692 2693 2698 2699 2706 2707
          2712 2713 2718 2719 2728 2729
          2730 2731 2732 2733 2744 2745
          2752 2753 2758 2759 2770 2771
          2784 2785 2786 2787 2792 2793
          2812 2813 2816 2817 2818 2819
          2820 2821 2842 2843 2856 2857
          2866 2867 2882 2883 2894 2895
          2900 2901 2906 2907 2914 2915
          2942 2943 2970 2971 2976 2977
          2992 2993 3010 3011 3012 3013
          3016 3017 3046 3047 3056 3057
          3058 3059 3070 3071 3078 3079
          3084 3085 3094 3095 3098 3099
          3118 3119 3122 3123 3128 3129
          3134 3135 3152 3153 3180 3181
          3192 3193 3196 3197 3200 3201
          3202 3203 3214 3215 3244 3245
          3248 3249 3258 3259
        </DataArray>
        <DataArray type="Int32" Name="subdomain_id" format="ascii" RangeMin="107" RangeMax="107">
          107 107 107 107 107 107
          107 107 107 107 107 107
          107 107 107 107 107 107
          107 107 107 107 107 107
          107 107 107 107 107 107
          107 107 107 107 107 107
          107 107 107 107 107 107
          107 107 107 107 107 107
          107 107 107 107 107 107
          107 107 107 107 107 107
          107 107 107 107 107 107
          107 107 107 107 107 107
          107 107 107 107 107 107
          107 107 107 107 107 107
          107 107 107 107 107 107
          107 107 107 107 107 107
          107 107 107 107 107 107
          107 107 107 107 107 107
          107 107 107 107 107 107
          107 107 107 107 107 107
          107 107 107 107 107 107
          107 107 107 107 107 107
          107 107 107 107 107 107
          107 107 107 107 107 107
          107 107 107 107 107 107
          107 107 107 107 107 107
          107 107 107 107 107 107
          107 107 107 107 107 107
          107 107 107 107 107 107
          107 107 107 107 107 107
          107 107 107 107 107 107
          107 107 107 107 107 107
          107 107 107 107 107 107
          107 107 107 107 107 107
          107 107 107 107 107 107
          107 107 107 107 107 107
          107 107 107 107 107 107
          107 107 107 107 107 107
          107 107 107 107 107 107
          107 107 107 107 107 107
          107 107 107 107 107 107
          107 107 107 107 107 107
          107 107 107 107 107 107
          107 107 107 107 107 107
          107 107 107 107 107 107
          107 107 107 107 107 107
          107 107 107 107 107 107
          107 107 107 107 107 107
          107 107 107 107 107 107
          107 107 107 107 107 107
          107 107 107 107 107 107
          107 107 107 107 107 107
          107 107 107 107 107 107
          107 107 107 107 107 107
          107 107 107 107 107 107
          107 107 107 107 107 107
          107 107 107 107 107 107
          107 107 107 107 107 107
          107 107 107 107 107 107
          107 107 107 107 107 107
          107 107 107 107 107 107
          107 107 107 107 107 107
          107 107 107 107 107 107
          107 107 107 107 107 107
          107 107 107 107 107 107
          107 107 107 107 107 107
          107 107 107 107 107 107
          107 107 107 107 107 107
          107 107 107 107 107 107
          107 107 107 107 107 107
          107 107 107 107 107 107
          107 107 107 107 107 107
          107 107 107 107 107 107
          107 107 107 107 107 107
          107 107 107 107 107 107
          107 107 107 107
        </DataArray>
        <DataArray type="Int32" Name="processor_id" format="ascii" RangeMin="3" RangeMax="3">
          3 3 3 3 3 3
          3 3 3 3 3 3
          3 3 3 3 3 3
          3 3 3 3 3 3
          3 3 3 3 3 3
          3 3 3 3 3 3
          3 3 3 3 3 3
          3 3 3 3 3 3
          3 3 3 3 3 3
          3 3 3 3 3 3
          3 3 3 3 3 3
          3 3 3 3 3 3
          3 3 3 3 3 3
          3 3 3 3 3 3
          3 3 3 3 3 3
          3 3 3 3 3 3
          3 3 3 3 3 3
          3 3 3 3 3 3
          3 3 3 3 3 3
          3 3 3 3 3 3
          3 3 3 3 3 3
          3 3 3 3 3 3
          3 3 3 3 3 3
          3 3 3 3 3 3
          3 3 3 3 3 3
          3 3 3 3 3 3
          3 3 3 3 3 3
          3 3 3 3 3 3
          3 3 3 3 3 3
          3 3 3 3 3 3
          3 3 3 3 3 3
          3 3 3 3 3 3
          3 3 3 3 3 3
          3 3 3 3 3 3
          3 3 3 3 3 3
          3 3 3 3 3 3
          3 3 3 3 3 3
          3 3 3 3 3 3
          3 3 3 3 3 3
          3 3 3 3 3 3
          3 3 3 3 3 3
          3 3 3 3 3 3
          3 3 3 3 3 3
          3 3 3 3 3 3
          3 3 3 3 3 3
          3 3 3 3 3 3
          3 3 3 3 3 3
          3 3 3 3 3 3
          3 3 3 3 3 3
          3 3 3 3 3 3
          3 3 3 3 3 3
          3 3 3 3 3 3
          3 3 3 3 3 3
          3 3 3 3 3 3
          3 3 3 3 3 3
          3 3 3 3 3 3
          3 3 3 3 3 3
          3 3 3 3 3 3
          3 3 3 3 3 3
          3 3 3 3 3 3
          3 3 3 3 3 3
          3 3 3 3 3 3
          3 3 3 3 3 3
          3 3 3 3 3 3
          3 3 3 3 3 3
          3 3 3 3 3 3
          3 3 3 3 3 3
          3 3 3 3 3 3
          3 3 3 3 3 3
          3 3 3 3 3 3
          3 3 3 3 3 3
          3 3 3 3 3 3
          3 3 3 3 3 3
          3 3 3 3 3 3
          3 3 3 3 3 3
          3 3 3 3
        </DataArray>
      </CellData>
      <Points>
        <DataArray type="Float64" Name="Points" NumberOfComponents="3" format="ascii" RangeMin="0.013166738443807365" RangeMax="0.02374822585851783">
          0.016451229180203 0.011589607556601 0 0.016255198485848 0.011015934042219 0
          0.016728572005863 0.010757201031786 0 0.017039955631379 0.011194422572054 0
          0.016451229180203 0.011589607556601 0.00015 0.016255198485848 0.011015934042219 0.00015
          0.016728572005863 0.010757201031786 0.00015 0.017039955631379 0.011194422572054 0.00015
          0.016451229180203 0.011589607556601 0.0003 0.016255198485848 0.011015934042219 0.0003
          0.016728572005863 0.010757201031786 0.0003 0.017039955631379 0.011194422572054 0.0003
          0.011186406523754 0.0095188731742926 0 0.010689703280164 0.0094649590365737 0
          0.010634679710187 0.008964429555675 0 0.011131650337527 0.0089687060727404 0
          0.011186406523754 0.0095188731742926 0.00015 0.010689703280164 0.0094649590365737 0.00015
          0.010634679710187 0.008964429555675 0.00015 0.011131650337527 0.0089687060727404 0.00015
          0.011186406523754 0.0095188731742926 0.0003 0.010689703280164 0.0094649590365737 0.0003
          0.010634679710187 0.008964429555675 0.0003 0.011131650337527 0.0089687060727404 0.0003
          0.010158980545183 0.0089928081418126 0 0.010158980545183 0.0089928081418126 0.00015
          0.010158980545183 0.0089928081418126 0.0003 0.010234809282542 0.0094751596931164 0
          0.010234809282542 0.0094751596931164 0.00015 0.010234809282542 0.0094751596931164 0.0003
          0.017215305681839 0.010421173498473 0 0.017538322616078 0.010852535251392 0
          0.017215305681839 0.010421173498473 0.00015 0.017538322616078 0.010852535251392 0.00015
          0.017215305681839 0.010421173498473 0.0003 0.017538322616078 0.010852535251392 0.0003
          0.015522227276376 0.0083950727535023 0 0.015339273065407 0.0078314073000753 0
          0.015832583415208 0.0077039482324782 0 0.015871156677641 0.0080932538621961 0
          0.015522227276376 0.0083950727535023 0.00015 0.015339273065407 0.0078314073000753 0.00015
          0.015832583415208 0.0077039482324782 0.00015 0.015871156677641 0.0080932538621961 0.00015
          0.015522227276376 0.0083950727535023 0.0003 0.015339273065407 0.0078314073000753 0.0003
          0.015832583415208 0.0077039482324782 0.0003 0.015871156677641 0.0080932538621961 0.0003
          0.014182404182597 0.012030933394166 0 0.014112697634716 0.011586899500601 0
          0.01453762000082 0.011541498939039 0 0.014647727851392 0.011956202120878 0
          0.014182404182597 0.012030933394166 0.00015 0.014112697634716 0.011586899500601 0.00015
          0.01453762000082 0.011541498939039 0.00015 0.014647727851392 0.011956202120878 0.00015
          0.014182404182597 0.012030933394166 0.0003 0.014112697634716 0.011586899500601 0.0003
          0.01453762000082 0.011541498939039 0.0003 0.014647727851392 0.011956202120878 0.0003
          0.012718807262617 0.012100913225318 0 0.01318790653826 0.012081424726463 0
          0.013223560157694 0.012548837560718 0 0.012721969255655 0.012547975923311 0
          0.012718807262617 0.012100913225318 0.00015 0.01318790653826 0.012081424726463 0.00015
          0.013223560157694 0.012548837560718 0.00015 0.012721969255655 0.012547975923311 0.00015
          0.012718807262617 0.012100913225318 0.0003 0.01318790653826 0.012081424726463 0.0003
          0.013223560157694 0.012548837560718 0.0003 0.012721969255655 0.012547975923311 0.0003
          0.015037276113604 0.0053883886132418 0 0.014872829902632 0.0048660088618751 0
          0.015610482342583 0.0052949834846695 0 0.015037276113604 0.0053883886132418 0.00015
          0.014872829902632 0.0048660088618751 0.00015 0.015610482342583 0.0052949834846695 0.00015
          0.015037276113604 0.0053883886132418 0.0003 0.014872829902632 0.0048660088618751 0.0003
          0.015610482342583 0.0052949834846695 0.0003 0.012853333735139 0.0071862564407273 0
          0.013298874998351 0.0073010052974168 0 0.013468505581478 0.0077481198485017 0
          0.012879769579272 0.0077824950988095 0 0.012853333735139 0.0071862564407273 0.00015
          0.013298874998351 0.0073010052974168 0.00015 0.013468505581478 0.0077481198485017 0.00015
          0.012879769579272 0.0077824950988095 0.00015 0.012853333735139 0.0071862564407273 0.0003
          0.013298874998351 0.0073010052974168 0.0003 0.013468505581478 0.0077481198485017 0.0003
          0.012879769579272 0.0077824950988095 0.0003 0.012310751390795 0.0073009210446318 0
          0.012310751390795 0.0073009210446318 0.00015 0.012310751390795 0.0073009210446318 0.0003
          0.016440539131042 0.010340248821358 0 0.016895401758078 0.0099970418145034 0
          0.016440539131042 0.010340248821358 0.00015 0.016895401758078 0.0099970418145034 0.00015
          0.016440539131042 0.010340248821358 0.0003 0.016895401758078 0.0099970418145034 0.0003
          0.015674284513358 0.012057735082989 0 0.015799992883172 0.011590312491375 0
          0.01620648935985 0.012173309797103 0 0.015674284513358 0.012057735082989 0.00015
          0.015799992883172 0.011590312491375 0.00015 0.01620648935985 0.012173309797103 0.00015
          0.015674284513358 0.012057735082989 0.0003 0.015799992883172 0.011590312491375 0.0003
          0.01620648935985 0.012173309797103 0.0003 0.015719396244314 0.0096761034796614 0
          0.015317179218416 0.010039615829248 0 0.014916285335657 0.0096823062625427 0
          0.015356151892906 0.0093633130446295 0 0.015719396244314 0.0096761034796614 0.00015
          0.015317179218416 0.010039615829248 0.00015 0.014916285335657 0.0096823062625427 0.00015
          0.015356151892906 0.0093633130446295 0.00015 0.015719396244314 0.0096761034796614 0.0003
          0.015317179218416 0.010039615829248 0.0003 0.014916285335657 0.0096823062625427 0.0003
          0.015356151892906 0.0093633130446295 0.0003 0.014911939516014 0.011080222539295 0
          0.01492908374418 0.011511002202991 0 0.014470673144967 0.011122308960465 0
          0.014911939516014 0.011080222539295 0.00015 0.01492908374418 0.011511002202991 0.00015
          0.014470673144967 0.011122308960465 0.00015 0.014911939516014 0.011080222539295 0.0003
          0.01492908374418 0.011511002202991 0.0003 0.014470673144967 0.011122308960465 0.0003
          0.014927498433442 0.011816834084778 0 0.015214955739546 0.01195124117686 0
          0.014868481741766 0.012398226678167 0 0.014927498433442 0.011816834084778 0.00015
          0.015214955739546 0.01195124117686 0.00015 0.014868481741766 0.012398226678167 0.00015
          0.014927498433442 0.011816834084778 0.0003 0.015214955739546 0.01195124117686 0.0003
          0.014868481741766 0.012398226678167 0.0003 0.014887382940214 0.010512753679506 0
          0.01433465747601 0.010724165901292 0 0.014030150330029 0.010370439204794 0
          0.01444626395613 0.010022024912649 0 0.014887382940214 0.010512753679506 0.00015
          0.01433465747601 0.010724165901292 0.00015 0.014030150330029 0.010370439204794 0.00015
          0.01444626395613 0.010022024912649 0.00015 0.014887382940214 0.010512753679506 0.0003
          0.01433465747601 0.010724165901292 0.0003 0.014030150330029 0.010370439204794 0.0003
          0.01444626395613 0.010022024912649 0.0003 0.013388886812482 0.0083497293814167 0
          0.012899574253998 0.0083038014764745 0 0.013388886812482 0.0083497293814167 0.00015
          0.012899574253998 0.0083038014764745 0.00015 0.013388886812482 0.0083497293814167 0.0003
          0.012899574253998 0.0083038014764745 0.0003 0.015784016264429 0.0071345425111119 0
          0.016328429431772 0.0071626451349231 0 0.016328043288569 0.0077322573762078 0
          0.015784016264429 0.0071345425111119 0.00015 0.016328429431772 0.0071626451349231 0.00015
          0.016328043288569 0.0077322573762078 0.00015 0.015784016264429 0.0071345425111119 0.0003
          0.016328429431772 0.0071626451349231 0.0003 0.016328043288569 0.0077322573762078 0.0003
          0.016727166785252 0.0084386331054829 0 0.01644772366367 0.0089064975551763 0
          0.016002189190704 0.0086574712541786 0 0.016221340977963 0.0082297464535469 0
          0.016727166785252 0.0084386331054829 0.00015 0.01644772366367 0.0089064975551763 0.00015
          0.016002189190704 0.0086574712541786 0.00015 0.016221340977963 0.0082297464535469 0.00015
          0.016727166785252 0.0084386331054829 0.0003 0.01644772366367 0.0089064975551763 0.0003
          0.016002189190704 0.0086574712541786 0.0003 0.016221340977963 0.0082297464535469 0.0003
          0.018901908985383 0.011783468628847 0 0.018328257152057 0.011560564570719 0
          0.018901908985383 0.011783468628847 0.00015 0.018328257152057 0.011560564570719 0.00015
          0.018901908985383 0.011783468628847 0.0003 0.018328257152057 0.011560564570719 0.0003
          0.016817438697449 0.012401495631919 0 0.016895899239308 0.011880939878953 0
          0.016817438697449 0.012401495631919 0.00015 0.016895899239308 0.011880939878953 0.00015
          0.016817438697449 0.012401495631919 0.0003 0.016895899239308 0.011880939878953 0.0003
          0.010475172867508 0.012102844227475 0 0.010669582432454 0.011743114144408 0
          0.010475172867508 0.012102844227475 0.00015 0.010669582432454 0.011743114144408 0.00015
          0.010475172867508 0.012102844227475 0.0003 0.010669582432454 0.011743114144408 0.0003
          0.018198082784875 0.0097658337520035 0 0.018455934862008 0.010221918525687 0
          0.018019877493881 0.01050989807829 0 0.017698489924893 0.010066971919266 0
          0.018198082784875 0.0097658337520035 0.00015 0.018455934862008 0.010221918525687 0.00015
          0.018019877493881 0.01050989807829 0.00015 0.017698489924893 0.010066971919266 0.00015
          0.018198082784875 0.0097658337520035 0.0003 0.018455934862008 0.010221918525687 0.0003
          0.018019877493881 0.01050989807829 0.0003 0.017698489924893 0.010066971919266 0.0003
          0.015096658749896 0.0059763609132825 0 0.015666288430535 0.0059190759170471 0
          0.015096658749896 0.0059763609132825 0.00015 0.015666288430535 0.0059190759170471 0.00015
          0.015096658749896 0.0059763609132825 0.0003 0.015666288430535 0.0059190759170471 0.0003
          0.013546901289865 0.0069836782833127 0 0.013134929749538 0.0067248500217048 0
          0.013546901289865 0.0069836782833127 0.00015 0.013134929749538 0.0067248500217048 0.00015
          0.013546901289865 0.0069836782833127 0.0003 0.013134929749538 0.0067248500217048 0.0003
          0.013831418153218 0.0064982603089606 0 0.013338214474932 0.0062766362868091 0
          0.013831418153218 0.0064982603089606 0.00015 0.013338214474932 0.0062766362868091 0.00015
          0.013831418153218 0.0064982603089606 0.0003 0.013338214474932 0.0062766362868091 0.0003
          0.017908784385217 0.011229685010797 0 0.017908784385217 0.011229685010797 0.00015
          0.017908784385217 0.011229685010797 0.0003 0.017460830811305 0.0067242961174433 0
          0.017460830811305 0.0067242961174433 0.00015 0.017460830811305 0.0067242961174433 0.0003
          0.016232724398465 0.0059010997942707 0 0.016810957053741 0.0059693958220605 0
          0.016865945400018 0.0066157033945985 0 0.016287343165999 0.0065221003589061 0
          0.016232724398465 0.0059010997942707 0.00015 0.016810957053741 0.0059693958220605 0.00015
          0.016865945400018 0.0066157033945985 0.00015 0.016287343165999 0.0065221003589061 0.00015
          0.016232724398465 0.0059010997942707 0.0003 0.016810957053741 0.0059693958220605 0.0003
          0.016865945400018 0.0066157033945985 0.0003 0.016287343165999 0.0065221003589061 0.0003
          0.015434451036398 0.0088351663483508 0 0.015091649000167 0.0090065479673052 0
          0.0149386527618 0.008562942865766 0 0.015434451036398 0.0088351663483508 0.00015
          0.015091649000167 0.0090065479673052 0.00015 0.0149386527618 0.008562942865766 0.00015
          0.015434451036398 0.0088351663483508 0.0003 0.015091649000167 0.0090065479673052 0.0003
          0.0149386527618 0.008562942865766 0.0003 0.013851103268646 0.0079817773379183 0
          0.013864053371773 0.0083733293390323 0 0.013851103268646 0.0079817773379183 0.00015
          0.013864053371773 0.0083733293390323 0.00015 0.013851103268646 0.0079817773379183 0.0003
          0.013864053371773 0.0083733293390323 0.0003 0.016873832756735 0.0078915607150548 0
          0.016873832756735 0.0078915607150548 0.00015 0.016873832756735 0.0078915607150548 0.0003
          0.011740832768399 0.012550565772382 0 0.011781425344485 0.012080160842703 0
          0.012267797740114 0.012087686226532 0 0.012238354096222 0.012547223275944 0
          0.011740832768399 0.012550565772382 0.00015 0.011781425344485 0.012080160842703 0.00015
          0.012267797740114 0.012087686226532 0.00015 0.012238354096222 0.012547223275944 0.00015
          0.011740832768399 0.012550565772382 0.0003 0.011781425344485 0.012080160842703 0.0003
          0.012267797740114 0.012087686226532 0.0003 0.012238354096222 0.012547223275944 0.0003
          0.015724816214821 0.0065169349202822 0 0.015724816214821 0.0065169349202822 0.00015
          0.015724816214821 0.0065169349202822 0.0003 0.016904663245172 0.0072759580116152 0
          0.016904663245172 0.0072759580116152 0.00015 0.016904663245172 0.0072759580116152 0.0003
          0.016212759806586 0.0053000490100875 0 0.016212759806586 0.0053000490100875 0.00015
          0.016212759806586 0.0053000490100875 0.0003 0.017422284858474 0.011679101640391 0
          0.017908527792884 0.011814582379248 0 0.017422284858474 0.011679101640391 0.00015
          0.017908527792884 0.011814582379248 0.00015 0.017422284858474 0.011679101640391 0.0003
          0.017908527792884 0.011814582379248 0.0003 0.017261702763099 0.0086939606584207 0
          0.017434489396122 0.0080779876667089 0 0.017261702763099 0.0086939606584207 0.00015
          0.017434489396122 0.0080779876667089 0.00015 0.017261702763099 0.0086939606584207 0.0003
          0.017434489396122 0.0080779876667089 0.0003 0.014181033506022 0.0077713348891544 0
          0.014325604474543 0.0082610969383043 0 0.014181033506022 0.0077713348891544 0.00015
          0.014325604474543 0.0082610969383043 0.00015 0.014181033506022 0.0077713348891544 0.0003
          0.014325604474543 0.0082610969383043 0.0003 0.016099115219063 0.0099899847281115 0
          0.016520689982407 0.0096278486407962 0 0.016099115219063 0.0099899847281115 0.00015
          0.016520689982407 0.0096278486407962 0.00015 0.016099115219063 0.0099899847281115 0.0003
          0.016520689982407 0.0096278486407962 0.0003 0.014613026918956 0.0092413149543641 0
          0.014613026918956 0.0092413149543641 0.00015 0.014613026918956 0.0092413149543641 0.0003
          0.016937453954769 0.0092095292918499 0 0.017364558514239 0.0096012653805297 0
          0.016937453954769 0.0092095292918499 0.00015 0.017364558514239 0.0096012653805297 0.00015
          0.016937453954769 0.0092095292918499 0.0003 0.017364558514239 0.0096012653805297 0.0003
          0.015712843676617 0.010331364913168 0 0.016032046384524 0.010629553115583 0
          0.015712843676617 0.010331364913168 0.00015 0.016032046384524 0.010629553115583 0.00015
          0.015712843676617 0.010331364913168 0.0003 0.016032046384524 0.010629553115583 0.0003
          0.01346343572409 0.0057857389411653 0 0.01346343572409 0.0057857389411653 0.00015
          0.01346343572409 0.0057857389411653 0.0003 0.015150761096164 0.0066142159223768 0
          0.015150761096164 0.0066142159223768 0.00015 0.015150761096164 0.0066142159223768 0.0003
          0.015453261139866 0.010697023165802 0 0.015761290368715 0.010819971207646 0
          0.015453261139866 0.010697023165802 0.00015 0.015761290368715 0.010819971207646 0.00015
          0.015453261139866 0.010697023165802 0.0003 0.015761290368715 0.010819971207646 0.0003
          0.013975551316416 0.0059398855735222 0 0.013975551316416 0.0059398855735222 0.00015
          0.013975551316416 0.0059398855735222 0.0003 0.017479032913359 0.0074088673936633 0
          0.017479032913359 0.0074088673936633 0.00015 0.017479032913359 0.0074088673936633 0.0003
          0.014439802315681 0.0067889662935499 0 0.014530319307898 0.006021518089632 0
          0.014439802315681 0.0067889662935499 0.00015 0.014530319307898 0.006021518089632 0.00015
          0.014439802315681 0.0067889662935499 0.0003 0.014530319307898 0.006021518089632 0.0003
          0.014431521900925 0.0087663339265048 0 0.013899975831329 0.0088854517032459 0
          0.014431521900925 0.0087663339265048 0.00015 0.013899975831329 0.0088854517032459 0.00015
          0.014431521900925 0.0087663339265048 0.0003 0.013899975831329 0.0088854517032459 0.0003
          0.015334349753872 0.011547922560075 0 0.015363465895193 0.011114260619116 0
          0.015801980011793 0.011137474992711 0 0.015334349753872 0.011547922560075 0.00015
          0.015363465895193 0.011114260619116 0.00015 0.015801980011793 0.011137474992711 0.00015
          0.015334349753872 0.011547922560075 0.0003 0.015363465895193 0.011114260619116 0.0003
          0.015801980011793 0.011137474992711 0.0003 0.01326617738197 0.0093680808515997 0
          0.012793423392144 0.00921210926252 0 0.012882512800283 0.0087881474090036 0
          0.013365259810227 0.0088714473068585 0 0.01326617738197 0.0093680808515997 0.00015
          0.012793423392144 0.00921210926252 0.00015 0.012882512800283 0.0087881474090036 0.00015
          0.013365259810227 0.0088714473068585 0.00015 0.01326617738197 0.0093680808515997 0.0003
          0.012793423392144 0.00921210926252 0.0003 0.012882512800283 0.0087881474090036 0.0003
          0.013365259810227 0.0088714473068585 0.0003 0.011993243876189 0.010936510200926 0
          0.011726815341297 0.011491075647124 0 0.011222013645511 0.011097826594996 0
          0.011481744371717 0.010688234667639 0 0.011993243876189 0.010936510200926 0.00015
          0.011726815341297 0.011491075647124 0.00015 0.011222013645511 0.011097826594996 0.00015
          0.011481744371717 0.010688234667639 0.00015 0.011993243876189 0.010936510200926 0.0003
          0.011726815341297 0.011491075647124 0.0003 0.011222013645511 0.011097826594996 0.0003
          0.011481744371717 0.010688234667639 0.0003 0.013923252507151 0.0073329122207352 0
          0.013923252507151 0.0073329122207352 0.00015 0.013923252507151 0.0073329122207352 0.0003
          0.013063793506476 0.0098271989985527 0 0.012601634550352 0.009590277262082 0
          0.013063793506476 0.0098271989985527 0.00015 0.012601634550352 0.009590277262082 0.00015
          0.013063793506476 0.0098271989985527 0.0003 0.012601634550352 0.009590277262082 0.0003
          0.014102855237989 0.0047969187863067 0 0.013905759673286 0.0043612537888552 0
          0.014102855237989 0.0047969187863067 0.00015 0.013905759673286 0.0043612537888552 0.00015
          0.014102855237989 0.0047969187863067 0.0003 0.013905759673286 0.0043612537888552 0.0003
          0.012852488428802 0.010265076045094 0 0.012374691983482 0.010000797580735 0
          0.012852488428802 0.010265076045094 0.00015 0.012374691983482 0.010000797580735 0.00015
          0.012852488428802 0.010265076045094 0.0003 0.012374691983482 0.010000797580735 0.0003
          0.011668611956603 0.010219239111219 0 0.012182731119778 0.010462377133106 0
          0.011668611956603 0.010219239111219 0.00015 0.012182731119778 0.010462377133106 0.00015
          0.011668611956603 0.010219239111219 0.0003 0.012182731119778 0.010462377133106 0.0003
          0.011158560753842 0.010029990414111 0 0.011017968815575 0.010465683342369 0
          0.011158560753842 0.010029990414111 0.00015 0.011017968815575 0.010465683342369 0.00015
          0.011158560753842 0.010029990414111 0.0003 0.011017968815575 0.010465683342369 0.0003
          0.014820390261339 0.0080402105998384 0 0.014820390261339 0.0080402105998384 0.00015
          0.014820390261339 0.0080402105998384 0.0003 0.015228397699353 0.0072512250897894 0
          0.015228397699353 0.0072512250897894 0.00015 0.015228397699353 0.0072512250897894 0.0003
          0.0130361735465 0.011522072885309 0 0.012689359184487 0.011761634268536 0
          0.012340499111532 0.011632501505239 0 0.012497431968462 0.011183651982421 0
          0.0130361735465 0.011522072885309 0.00015 0.012689359184487 0.011761634268536 0.00015
          0.012340499111532 0.011632501505239 0.00015 0.012497431968462 0.011183651982421 0.00015
          0.0130361735465 0.011522072885309 0.0003 0.012689359184487 0.011761634268536 0.0003
          0.012340499111532 0.011632501505239 0.0003 0.012497431968462 0.011183651982421 0.0003
          0.013528941600065 0.0052742966774397 0 0.014027103455945 0.0053875982273864 0
          0.013528941600065 0.0052742966774397 0.00015 0.014027103455945 0.0053875982273864 0.00015
          0.013528941600065 0.0052742966774397 0.0003 0.014027103455945 0.0053875982273864 0.0003
          0.010128205128219 0.013 0 0.010310686327751 0.012539165738252 0
          0.010788384596096 0.012564579045747 0 0.01064102564104 0.013 0
          0.010128205128219 0.013 0.00015 0.010310686327751 0.012539165738252 0.00015
          0.010788384596096 0.012564579045747 0.00015 0.01064102564104 0.013 0.00015
          0.010128205128219 0.013 0.0003 0.010310686327751 0.012539165738252 0.0003
          0.010788384596096 0.012564579045747 0.0003 0.01064102564104 0.013 0.0003
          0.010783127360108 0.010836567412064 0 0.010385522435479 0.010608007769118 0
          0.010601303654319 0.010290632654442 0 0.010783127360108 0.010836567412064 0.00015
          0.010385522435479 0.010608007769118 0.00015 0.010601303654319 0.010290632654442 0.00015
          0.010783127360108 0.010836567412064 0.0003 0.010385522435479 0.010608007769118 0.0003
          0.010601303654319 0.010290632654442 0.0003 0.011818930007254 0.009602160287834 0
          0.011818930007254 0.009602160287834 0.00015 0.011818930007254 0.009602160287834 0.0003
          0.015715008716269 0.0090308288850156 0 0.01610853428864 0.0093166480881369 0
          0.015715008716269 0.0090308288850156 0.00015 0.01610853428864 0.0093166480881369 0.00015
          0.015715008716269 0.0090308288850156 0.0003 0.01610853428864 0.0093166480881369 0.0003
          0.013952831965685 0.0095243725467762 0 0.013572358856734 0.010071658883703 0
          0.013952831965685 0.0095243725467762 0.00015 0.013572358856734 0.010071658883703 0.00015
          0.013952831965685 0.0095243725467762 0.0003 0.013572358856734 0.010071658883703 0.0003
          0.012677817340078 0.010719835797972 0 0.012677817340078 0.010719835797972 0.00015
          0.012677817340078 0.010719835797972 0.0003 0.014678664229456 0.0074733115324236 0
          0.014678664229456 0.0074733115324236 0.00015 0.014678664229456 0.0074733115324236 0.0003
          0.012261506677236 0.0092701804285872 0 0.012499922412859 0.0090879994978671 0
          0.012261506677236 0.0092701804285872 0.00015 0.012499922412859 0.0090879994978671 0.00015
          0.012261506677236 0.0092701804285872 0.0003 0.012499922412859 0.0090879994978671 0.0003
          0.011270478587413 0.012561768236337 0 0.011153846153863 0.013 0
          0.011270478587413 0.012561768236337 0.00015 0.011153846153863 0.013 0.00015
          0.011270478587413 0.012561768236337 0.0003 0.011153846153863 0.013 0.0003
          0.012179487179506 0.013 0 0.012692307692328 0.013 0
          0.012179487179506 0.013 0.00015 0.012692307692328 0.013 0.00015
          0.012179487179506 0.013 0.0003 0.012692307692328 0.013 0.0003
          0.013205128205151 0.013 0 0.013721380024409 0.012538570920528 0
          0.013717948717973 0.013 0 0.013205128205151 0.013 0.00015
          0.013721380024409 0.012538570920528 0.00015 0.013717948717973 0.013 0.00015
          0.013205128205151 0.013 0.0003 0.013721380024409 0.012538570920528 0.0003
          0.013717948717973 0.013 0.0003 0.013680323008888 0.01206206640945 0
          0.0136362676363 0.011582155921186 0 0.013680323008888 0.01206206640945 0.00015
          0.0136362676363 0.011582155921186 0.00015 0.013680323008888 0.01206206640945 0.0003
          0.0136362676363 0.011582155921186 0.0003 0.011306940297591 0.012129646322267 0
          0.011212076662234 0.01173976422044 0 0.011306940297591 0.012129646322267 0.00015
          0.011212076662234 0.01173976422044 0.00015 0.011306940297591 0.012129646322267 0.0003
          0.011212076662234 0.01173976422044 0.0003 0.014247558447628 0.012512499343239 0
          0.014230769230793 0.013 0 0.014247558447628 0.012512499343239 0.00015
          0.014230769230793 0.013 0.00015 0.014247558447628 0.012512499343239 0.0003
          0.014230769230793 0.013 0.0003 0.010925822172272 0.011428925131881 0
          0.010925822172272 0.011428925131881 0.00015 0.010925822172272 0.011428925131881 0.0003
          0.017598702187272 0.012594388856786 0 0.018138509806267 0.012585421267124 0
          0.018333333333352 0.013 0 0.017820512820533 0.013 0
          0.017598702187272 0.012594388856786 0.00015 0.018138509806267 0.012585421267124 0.00015
          0.018333333333352 0.013 0.00015 0.017820512820533 0.013 0.00015
          0.017598702187272 0.012594388856786 0.0003 0.018138509806267 0.012585421267124 0.0003
          0.018333333333352 0.013 0.0003 0.017820512820533 0.013 0.0003
          0.01884615384617 0.013 0 0.018647619061649 0.012577247456601 0
          0.01884615384617 0.013 0.00015 0.018647619061649 0.012577247456601 0.00015
          0.01884615384617 0.013 0.0003 0.018647619061649 0.012577247456601 0.0003
          0.010939820280367 0.01187760398484 0 0.010939820280367 0.01187760398484 0.00015
          0.010939820280367 0.01187760398484 0.0003 0.014743589743616 0.013 0
          0.014743589743616 0.013 0.00015 0.014743589743616 0.013 0.0003
          0.013168261777023 0.010955167755454 0 0.013168261777023 0.010955167755454 0.00015
          0.013168261777023 0.010955167755454 0.0003 0.011620435633551 0.0089440866322713 0
          0.011620435633551 0.0089440866322713 0.00015 0.011620435633551 0.0089440866322713 0.0003
          0.01333281098878 0.010501143990949 0 0.01333281098878 0.010501143990949 0.00015
          0.01333281098878 0.010501143990949 0.0003 0.013640766026071 0.011115210745046 0
          0.014063261910082 0.011165191959691 0 0.013640766026071 0.011115210745046 0.00015
          0.014063261910082 0.011165191959691 0.00015 0.013640766026071 0.011115210745046 0.0003
          0.014063261910082 0.011165191959691 0.0003 0.013761635093034 0.010714997264381 0
          0.013761635093034 0.010714997264381 0.00015 0.013761635093034 0.010714997264381 0.0003
          0.01790845301636 0.0090613468730877 0 0.01790845301636 0.0090613468730877 0.00015
          0.01790845301636 0.0090613468730877 0.0003 0.010691300612525 0.0099168298135774 0
          0.010691300612525 0.0099168298135774 0.00015 0.010691300612525 0.0099168298135774 0.0003
          0.014509683505008 0.0050450954358061 0 0.014509683505008 0.0050450954358061 0.00015
          0.014509683505008 0.0050450954358061 0.0003 0.012373637985884 0.0077974643404521 0
          0.012419274731686 0.0083019280664676 0 0.012373637985884 0.0077974643404521 0.00015
          0.012419274731686 0.0083019280664676 0.00015 0.012373637985884 0.0077974643404521 0.0003
          0.012419274731686 0.0083019280664676 0.0003 0.014523119140279 0.0054383897453177 0
          0.014523119140279 0.0054383897453177 0.00015 0.014523119140279 0.0054383897453177 0.0003
          0.012468015808598 0.0087643938641043 0 0.012468015808598 0.0087643938641043 0.00015
          0.012468015808598 0.0087643938641043 0.0003 0.014041697947841 0.010862771985015 0
          0.014041697947841 0.010862771985015 0.00015 0.014041697947841 0.010862771985015 0.0003
          0.012067821946234 0.0088387705315247 0 0.012067821946234 0.0088387705315247 0.00015
          0.012067821946234 0.0088387705315247 0.0003 0.018063704813091 0.0075049932447581 0
          0.018063704813091 0.0075049932447581 0.00015 0.018063704813091 0.0075049932447581 0.0003
          0.01801805728244 0.008218173104411 0 0.01801805728244 0.008218173104411 0.00015
          0.01801805728244 0.008218173104411 0.0003 0.019162849649621 0.012571706415164 0
          0.019358974358988 0.013 0 0.019162849649621 0.012571706415164 0.00015
          0.019358974358988 0.013 0.00015 0.019162849649621 0.012571706415164 0.0003
          0.019358974358988 0.013 0.0003 0.015469042768348 0.012527612124711 0
          0.015256410256436 0.013 0 0.015469042768348 0.012527612124711 0.00015
          0.015256410256436 0.013 0.00015 0.015469042768348 0.012527612124711 0.0003
          0.015256410256436 0.013 0.0003 0.017482035345823 0.012218317378284 0
          0.017482035345823 0.012218317378284 0.00015 0.017482035345823 0.012218317378284 0.0003
          0.011666666666685 0.013 0 0.011666666666685 0.013 0.00015
          0.011666666666685 0.013 0.0003 0.013552812333296 0.0042895499786344 0
          0.013552812333296 0.0042895499786344 0.00015 0.013552812333296 0.0042895499786344 0.0003
          0.019003973493589 0.012129001566083 0 0.018491681451249 0.012137078785851 0
          0.019003973493589 0.012129001566083 0.00015 0.018491681451249 0.012137078785851 0.00015
          0.019003973493589 0.012129001566083 0.0003 0.018491681451249 0.012137078785851 0.0003
          0.016282051282076 0.013 0 0.016335894010033 0.012686725241599 0
          0.016794871794894 0.013 0 0.016282051282076 0.013 0.00015
          0.016335894010033 0.012686725241599 0.00015 0.016794871794894 0.013 0.00015
          0.016282051282076 0.013 0.0003 0.016335894010033 0.012686725241599 0.0003
          0.016794871794894 0.013 0.0003 0.017307692307713 0.013 0
          0.017281329535555 0.012689387511733 0 0.017307692307713 0.013 0.00015
          0.017281329535555 0.012689387511733 0.00015 0.017307692307713 0.013 0.0003
          0.017281329535555 0.012689387511733 0.0003 0.017996855365792 0.012159940978259 0
          0.017996855365792 0.012159940978259 0.00015 0.017996855365792 0.012159940978259 0.0003
          0.016023960213719 0.012601258532672 0 0.016023960213719 0.012601258532672 0.00015
          0.016023960213719 0.012601258532672 0.0003 0.015769230769256 0.013 0
          0.015769230769256 0.013 0.00015 0.015769230769256 0.013 0.0003
          0.013549428097692 0.0047645614477775 0 0.013549428097692 0.0047645614477775 0.00015
          0.013549428097692 0.0047645614477775 0.0003 0.010881954871342 0.01216105032025 0
          0.010881954871342 0.01216105032025 0.00015 0.010881954871342 0.01216105032025 0.0003
          0.010057653370411 0.0084974472595183 0 0.01054988842507 0.0084422245958245 0
          0.010057653370411 0.0084974472595183 0.00015 0.01054988842507 0.0084422245958245 0.00015
          0.010057653370411 0.0084974472595183 0.0003 0.01054988842507 0.0084422245958245 0.0003
          0.015535554193674 0.0045828394817383 0 0.015535554193674 0.0045828394817383 0.00015
          0.015535554193674 0.0045828394817383 0.0003 0.011832021157187 0.0073476785459853 0
          0.011779780861271 0.0068646395959748 0 0.012243708910156 0.0068324173193727 0
          0.011832021157187 0.0073476785459853 0.00015 0.011779780861271 0.0068646395959748 0.00015
          0.012243708910156 0.0068324173193727 0.00015 0.011832021157187 0.0073476785459853 0.0003
          0.011779780861271 0.0068646395959748 0.0003 0.012243708910156 0.0068324173193727 0.0003
          0.019357361519954 0.01157618305141 0 0.01884046117173 0.011223113854601 0
          0.019357361519954 0.01157618305141 0.00015 0.01884046117173 0.011223113854601 0.00015
          0.019357361519954 0.01157618305141 0.0003 0.01884046117173 0.011223113854601 0.0003
          0.014554004584986 0.0044253882271801 0 0.015005639561329 0.0040763460944633 0
          0.014554004584986 0.0044253882271801 0.00015 0.015005639561329 0.0040763460944633 0.00015
          0.014554004584986 0.0044253882271801 0.0003 0.015005639561329 0.0040763460944633 0.0003
          0.018384253973557 0.010894663204421 0 0.018384253973557 0.010894663204421 0.00015
          0.018384253973557 0.010894663204421 0.0003 0.017413401850906 0.0060417176080878 0
          0.018057579772584 0.0060827128421873 0 0.018070157245618 0.0068021820766994 0
          0.017413401850906 0.0060417176080878 0.00015 0.018057579772584 0.0060827128421873 0.00015
          0.018070157245618 0.0068021820766994 0.00015 0.017413401850906 0.0060417176080878 0.0003
          0.018057579772584 0.0060827128421873 0.0003 0.018070157245618 0.0068021820766994 0.0003
          0.016291762387835 0.0047307906783276 0 0.016291762387835 0.0047307906783276 0.00015
          0.016291762387835 0.0047307906783276 0.0003 0.012879713087233 0.0060908484912964 0
          0.012982043505355 0.0056371881930815 0 0.012879713087233 0.0060908484912964 0.00015
          0.012982043505355 0.0056371881930815 0.00015 0.012879713087233 0.0060908484912964 0.0003
          0.012982043505355 0.0056371881930815 0.0003 0.01678493258985 0.0053840721103251 0
          0.016848637368385 0.0048798435935376 0 0.01678493258985 0.0053840721103251 0.00015
          0.016848637368385 0.0048798435935376 0.00015 0.01678493258985 0.0053840721103251 0.0003
          0.016848637368385 0.0048798435935376 0.0003 0.012723582323863 0.006509831652106 0
          0.012723582323863 0.006509831652106 0.00015 0.012723582323863 0.006509831652106 0.0003
          0.014128459199836 0.0039835282877348 0 0.014128459199836 0.0039835282877348 0.00015
          0.014128459199836 0.0039835282877348 0.0003 0.018817000838468 0.010560792840001 0
          0.018817000838468 0.010560792840001 0.00015 0.018817000838468 0.010560792840001 0.0003
          0.011043213382792 0.0084269911709333 0 0.011043213382792 0.0084269911709333 0.00015
          0.011043213382792 0.0084269911709333 0.0003 0.011511795106494 0.0083968566041475 0
          0.011511795106494 0.0083968566041475 0.00015 0.011511795106494 0.0083968566041475 0.0003
          0.017341722495578 0.0054175123203669 0 0.017341722495578 0.0054175123203669 0.00015
          0.017341722495578 0.0054175123203669 0.0003 0.01196380743939 0.0083394019710021 0
          0.011894488312007 0.0078344841271679 0 0.01196380743939 0.0083394019710021 0.00015
          0.011894488312007 0.0078344841271679 0.00015 0.01196380743939 0.0083394019710021 0.0003
          0.011894488312007 0.0078344841271679 0.0003 0.018719100515555 0.0096191331103102 0
          0.018769006148643 0.010016813571171 0 0.018719100515555 0.0096191331103102 0.00015
          0.018769006148643 0.010016813571171 0.00015 0.018719100515555 0.0096191331103102 0.0003
          0.018769006148643 0.010016813571171 0.0003 0.019142781766586 0.010156284019367 0
          0.019142781766586 0.010156284019367 0.00015 0.019142781766586 0.010156284019367 0.0003
          0.019871794871807 0.013 0 0.019671681078705 0.012567114388191 0
          0.019871794871807 0.013 0.00015 0.019671681078705 0.012567114388191 0.00015
          0.019871794871807 0.013 0.0003 0.019671681078705 0.012567114388191 0.0003
          0.013590285783394 0.0038446716816234 0 0.013590285783394 0.0038446716816234 0.00015
          0.013590285783394 0.0038446716816234 0.0003 0.018696511924608 0.0075816988835645 0
          0.018734278863615 0.0068564365277259 0 0.018696511924608 0.0075816988835645 0.00015
          0.018734278863615 0.0068564365277259 0.00015 0.018696511924608 0.0075816988835645 0.0003
          0.018734278863615 0.0068564365277259 0.0003 0.013091675611077 0.0041736873632184 0
          0.013121586466294 0.0036708577033715 0 0.013091675611077 0.0041736873632184 0.00015
          0.013121586466294 0.0036708577033715 0.00015 0.013091675611077 0.0041736873632184 0.0003
          0.013121586466294 0.0036708577033715 0.0003 0.019497075330812 0.012129782091497 0
          0.019497075330812 0.012129782091497 0.00015 0.019497075330812 0.012129782091497 0.0003
          0.012592651705639 0.0068198098450163 0 0.012592651705639 0.0068198098450163 0.00015
          0.012592651705639 0.0068198098450163 0.0003 0.018655444813331 0.0089912542068827 0
          0.018655444813331 0.0089912542068827 0.00015 0.018655444813331 0.0089912542068827 0.0003
          0.018643245907353 0.0082916041839039 0 0.018643245907353 0.0082916041839039 0.00015
          0.018643245907353 0.0082916041839039 0.0003 0.013048655853798 0.0051555709380823 0
          0.013048655853798 0.0051555709380823 0.00015 0.013048655853798 0.0051555709380823 0.0003
          0.013084530633285 0.0046685927017207 0 0.013084530633285 0.0046685927017207 0.00015
          0.013084530633285 0.0046685927017207 0.0003
          <InformationKey name="L2_NORM_RANGE" location="vtkDataArray" length="2">
            <Value index="0">
              0.013166738444
            </Value>
            <Value index="1">
              0.023748225859
            </Value>
          </InformationKey>
        </DataArray>
      </Points>
      <Cells>
        <DataArray type="Int64" Name="connectivity" format="ascii" RangeMin="0" RangeMax="794">
          0 1 2 3 4 5
          6 7 4 5 6 7
          8 9 10 11 12 13
          14 15 16 17 18 19
          16 17 18 19 20 21
          22 23 666 667 14 24
          668 669 18 25 668 669
          18 25 670 671 22 26
          24 14 13 27 25 18
          17 28 25 18 17 28
          26 22 21 29 30 31
          3 2 32 33 7 6
          32 33 7 6 34 35
          11 10 36 37 38 39
          40 41 42 43 40 41
          42 43 44 45 46 47
          48 49 50 51 52 53
          54 55 52 53 54 55
          56 57 58 59 60 61
          62 63 64 65 66 67
          64 65 66 67 68 69
          70 71 72 73 672 74
          75 76 673 77 75 76
          673 77 78 79 674 80
          81 82 83 84 85 86
          87 88 85 86 87 88
          89 90 91 92 93 675
          676 677 94 678 679 680
          94 678 679 680 95 681
          682 683 2 96 97 30
          6 98 99 32 6 98
          99 32 10 100 101 34
          102 103 0 104 105 106
          4 107 105 106 4 107
          108 109 8 110 111 112
          113 114 115 116 117 118
          115 116 117 118 119 120
          121 122 123 124 50 125
          126 127 54 128 126 127
          54 128 129 130 58 131
          132 133 134 51 135 136
          137 55 135 136 137 55
          138 139 140 59 141 142
          143 144 145 146 147 148
          145 146 147 148 149 150
          151 152 112 141 144 113
          116 145 148 117 116 145
          148 117 120 149 152 121
          84 83 153 154 88 87
          155 156 88 87 155 156
          92 91 157 158 159 160
          161 38 162 163 164 42
          162 163 164 42 165 166
          167 46 168 169 170 171
          172 173 174 175 172 173
          174 175 176 177 178 179
          684 180 181 685 686 182
          183 687 686 182 183 687
          688 184 185 689 186 104
          0 187 188 107 4 189
          188 107 4 189 190 110
          8 191 690 691 672 73
          692 693 673 76 692 693
          673 76 694 695 674 79
          198 199 200 201 202 203
          204 205 202 203 204 205
          206 207 208 209 210 72
          74 211 212 75 77 213
          212 75 77 213 214 78
          80 215 216 82 81 217
          218 86 85 219 218 86
          85 219 220 90 89 221
          222 216 217 223 224 218
          219 225 224 218 219 225
          226 220 221 227 171 39
          38 161 175 43 42 164
          175 43 42 164 179 47
          46 167 228 696 685 181
          229 697 687 183 229 697
          687 183 230 698 689 185
          231 699 700 701 232 702
          703 704 232 702 703 704
          233 705 706 707 31 30
          201 200 33 32 205 204
          33 32 205 204 35 34
          209 208 234 235 236 237
          238 239 240 241 238 239
          240 241 242 243 244 245
          36 246 247 248 40 249
          250 251 40 249 250 251
          44 252 253 254 83 255
          256 153 87 257 258 155
          87 257 258 155 91 259
          260 157 235 699 231 236
          239 702 232 240 239 702
          232 240 243 705 233 244
          168 171 161 261 172 175
          164 262 172 175 164 262
          176 179 167 263 171 170
          36 39 175 174 40 43
          175 174 40 43 179 178
          44 47 264 265 266 267
          268 269 270 271 268 269
          270 271 272 273 274 275
          237 276 211 234 241 277
          213 238 241 277 213 238
          245 278 215 242 279 160
          237 236 280 163 241 240
          280 163 241 240 281 166
          245 244 234 211 74 282
          238 213 77 283 238 213
          77 283 242 215 80 284
          285 228 181 286 287 229
          183 288 287 229 183 288
          289 230 185 290 291 168
          261 292 293 172 262 294
          293 172 262 294 295 176
          263 296 297 298 256 255
          299 300 258 257 299 300
          258 257 301 302 260 259
          303 304 97 96 305 306
          99 98 305 306 99 98
          307 308 101 100 309 247
          114 113 310 250 118 117
          310 250 118 117 311 253
          122 121 304 312 313 97
          306 314 315 99 306 314
          315 99 308 316 317 101
          282 74 672 708 283 77
          673 709 283 77 673 709
          284 80 674 710 318 303
          96 319 320 305 98 321
          320 305 98 321 322 307
          100 323 285 187 0 3
          287 189 4 7 287 189
          4 7 289 191 8 11
          223 711 712 324 225 713
          714 325 225 713 714 325
          227 715 716 326 327 210
          211 276 328 212 213 277
          328 212 213 277 329 214
          215 278 717 282 708 718
          719 283 709 720 719 283
          709 720 721 284 710 722
          276 237 160 159 277 241
          163 162 277 241 163 162
          278 245 166 165 330 318
          319 331 332 320 321 333
          332 320 321 333 334 322
          323 335 324 336 222 223
          325 337 224 225 325 337
          224 225 326 338 226 227
          292 261 279 339 294 262
          280 340 294 262 280 340
          296 263 281 341 342 343
          210 327 344 345 212 328
          344 345 212 328 346 347
          214 329 696 228 31 200
          697 229 33 204 697 229
          33 204 698 230 35 208
          298 348 349 256 300 350
          351 258 300 350 351 258
          302 352 353 260 336 343
          342 222 337 345 344 224
          337 345 344 224 338 347
          346 226 96 2 1 319
          98 6 5 321 98 6
          5 321 100 10 9 323
          103 354 355 356 106 357
          358 359 106 357 358 359
          109 360 361 362 339 279
          236 231 340 280 240 232
          340 280 240 232 341 281
          244 233 363 364 365 366
          367 368 369 370 367 368
          369 370 371 372 373 374
          375 376 377 378 379 380
          381 382 379 380 381 382
          383 384 385 386 169 168
          291 312 173 172 293 314
          173 172 293 314 177 176
          295 316 216 222 342 387
          218 224 344 388 218 224
          344 388 220 226 346 389
          223 217 723 711 225 219
          724 713 225 219 724 713
          227 221 725 715 160 279
          261 161 163 280 262 164
          163 280 262 164 166 281
          263 167 356 355 330 331
          359 358 332 333 359 358
          332 333 362 361 334 335
          363 390 391 364 367 392
          393 368 367 392 393 368
          371 394 395 372 396 397
          726 690 398 399 727 692
          398 399 727 692 400 401
          728 694 390 402 403 391
          392 404 405 393 392 404
          405 393 394 406 407 395
          235 234 282 717 239 238
          283 719 239 238 283 719
          243 242 284 721 313 201
          30 97 315 205 32 99
          315 205 32 99 317 209
          34 101 248 247 309 348
          251 250 310 350 251 250
          310 350 254 253 311 352
          200 199 729 696 204 203
          730 697 204 203 730 697
          208 207 731 698 408 409
          375 378 410 411 379 382
          410 411 379 382 412 413
          383 386 153 256 349 366
          155 258 351 370 155 258
          351 370 157 260 353 374
          414 408 378 415 416 410
          382 417 416 410 382 417
          418 412 386 419 420 248
          348 298 421 251 350 300
          421 251 350 300 422 254
          352 302 423 327 276 159
          424 328 277 162 424 328
          277 162 425 329 278 165
          426 427 428 429 430 431
          432 433 430 431 432 433
          434 435 436 437 336 324
          438 439 337 325 440 441
          337 325 440 441 338 326
          442 443 667 732 15 14
          669 733 19 18 669 733
          19 18 671 734 23 22
          444 445 446 447 448 449
          450 451 448 449 450 451
          452 453 454 455 415 456
          457 458 417 459 460 461
          417 459 460 461 419 462
          463 464 12 465 408 414
          16 466 410 416 16 466
          410 416 20 467 412 418
          465 403 409 408 466 405
          411 410 466 405 411 410
          467 407 413 412 376 375
          429 428 380 379 433 432
          380 379 433 432 384 383
          437 436 114 468 469 111
          118 470 471 115 118 470
          471 115 122 472 473 119
          37 423 159 38 41 424
          162 42 41 424 162 42
          45 425 165 46 474 475
          390 363 476 477 392 367
          476 477 392 367 478 479
          394 371 429 375 409 480
          433 379 411 481 433 379
          411 481 437 383 413 482
          342 483 297 387 344 484
          299 388 344 484 299 388
          346 485 301 389 348 309
          474 349 350 310 476 351
          350 310 476 351 352 311
          478 353 480 409 403 402
          481 411 405 404 481 411
          405 404 482 413 407 406
          266 265 376 428 270 269
          380 432 270 269 380 432
          274 273 384 436 486 487
          364 391 488 489 368 393
          488 489 368 393 490 491
          372 395 447 446 492 493
          451 450 494 495 451 450
          494 495 455 454 496 497
          483 420 298 297 484 421
          300 299 484 421 300 299
          485 422 302 301 498 267
          63 499 500 271 67 501
          500 271 67 501 502 275
          71 503 378 377 456 415
          382 381 459 417 382 381
          459 417 386 385 462 419
          504 62 505 506 507 66
          508 509 507 66 508 509
          510 70 511 512 513 61
          426 514 515 65 430 516
          515 65 430 516 517 69
          434 518 499 63 62 504
          501 67 66 507 501 67
          66 507 503 71 70 510
          474 363 366 349 476 367
          370 351 476 367 370 351
          478 371 374 353 519 520
          376 265 521 522 380 269
          521 522 380 269 523 524
          384 273 506 505 525 526
          509 508 527 528 509 508
          527 528 512 511 529 530
          531 377 376 520 532 381
          380 522 532 381 380 522
          533 385 384 524 534 535
          536 537 538 539 540 541
          538 539 540 541 542 543
          544 545 546 536 535 547
          548 540 539 549 548 540
          539 549 550 544 543 551
          141 330 355 123 145 332
          358 126 145 332 358 126
          149 334 361 129 327 423
          483 342 328 424 484 344
          328 424 484 344 329 425
          485 346 193 531 520 552
          195 532 522 553 195 532
          522 553 197 533 524 554
          134 555 526 525 137 556
          528 527 137 556 528 527
          140 557 530 529 480 558
          426 429 481 559 430 433
          481 559 430 433 482 560
          434 437 391 403 465 486
          393 405 466 488 393 405
          466 488 395 407 467 490
          465 12 15 561 466 16
          19 562 466 16 19 562
          467 20 23 563 402 390
          475 564 404 392 477 565
          404 392 477 565 406 394
          479 566 567 568 49 514
          569 570 53 516 569 570
          53 516 571 572 57 518
          558 567 514 426 559 569
          516 430 559 569 516 430
          560 571 518 434 564 475
          143 573 565 477 147 574
          565 477 147 574 566 479
          151 575 561 15 732 735
          562 19 733 736 562 19
          733 736 563 23 734 737
          228 285 3 31 229 287
          7 33 229 287 7 33
          230 289 11 35 576 198
          201 313 577 202 205 315
          577 202 205 315 578 206
          209 317 356 331 319 1
          359 333 321 5 359 333
          321 5 362 335 323 9
          1 0 103 356 5 4
          106 359 5 4 106 359
          9 8 109 362 558 480
          402 564 559 481 404 565
          559 481 404 565 560 482
          406 566 699 235 717 738
          702 239 719 739 702 239
          719 739 705 243 721 740
          73 582 396 690 76 583
          398 692 76 583 398 692
          79 584 400 694 741 742
          585 586 743 744 587 588
          743 744 587 588 745 746
          589 590 72 210 343 591
          75 212 345 592 75 212
          345 592 78 214 347 593
          439 591 343 336 441 592
          345 337 441 592 345 337
          443 593 347 338 576 313
          312 291 577 315 314 293
          577 315 314 293 578 317
          316 295 469 169 312 304
          471 173 314 306 471 173
          314 306 473 177 316 308
          594 365 364 487 595 369
          368 489 595 369 368 489
          596 373 372 491 591 439
          396 582 592 441 398 583
          592 441 398 583 593 443
          400 584 564 573 567 558
          565 574 569 559 565 574
          569 559 566 575 571 560
          573 597 568 567 574 598
          570 569 574 598 570 569
          575 599 572 571 747 748
          199 198 749 750 203 202
          749 750 203 202 751 752
          207 206 420 483 423 37
          421 484 424 41 421 484
          424 41 422 485 425 45
          600 486 465 561 601 488
          466 562 601 488 466 562
          602 490 467 563 561 735
          741 600 562 736 743 601
          562 736 743 601 563 737
          745 602 37 36 248 420
          41 40 251 421 41 40
          251 421 45 44 254 422
          594 487 486 600 595 489
          488 601 595 489 488 601
          596 491 490 602 468 170
          169 469 470 174 173 471
          470 174 173 471 472 178
          177 473 264 492 519 265
          268 494 521 269 268 494
          521 269 272 496 523 273
          414 579 13 12 416 580
          17 16 416 580 17 16
          418 581 21 20 154 153
          366 365 156 155 370 369
          156 155 370 369 158 157
          374 373 339 231 701 603
          340 232 704 604 340 232
          704 604 341 233 707 605
          591 582 73 72 592 583
          76 75 592 583 76 75
          593 584 79 78 606 292
          339 603 607 294 340 604
          607 294 340 604 608 296
          341 605 547 609 610 546
          549 611 612 548 549 611
          612 548 551 613 614 550
          60 427 426 61 64 431
          430 65 64 431 430 65
          68 435 434 69 576 291
          292 606 577 293 294 607
          577 293 294 607 578 295
          296 608 615 616 555 134
          617 618 556 137 617 618
          556 137 619 620 557 140
          586 594 600 741 588 595
          601 743 588 595 601 743
          590 596 602 745 83 387
          297 255 87 388 299 257
          87 388 299 257 91 389
          301 259 144 143 475 474
          148 147 477 476 148 147
          477 476 152 151 479 478
          111 469 304 303 115 471
          306 305 115 471 306 305
          119 473 308 307 753 729
          199 748 754 730 203 750
          754 730 203 750 755 731
          207 752 505 62 61 513
          508 66 65 515 508 66
          65 515 511 70 69 517
          756 610 609 757 758 612
          611 759 758 612 611 759
          760 614 613 761 216 387
          83 82 218 388 87 86
          218 388 87 86 220 389
          91 90 285 621 186 187
          287 622 188 189 287 622
          188 189 289 623 190 191
          264 624 493 492 268 625
          495 494 268 625 495 494
          272 626 497 496 726 397
          627 762 727 399 628 763
          727 399 628 763 728 401
          629 764 630 631 181 180
          632 633 183 182 632 633
          183 182 634 635 185 184
          586 154 365 594 588 156
          369 595 588 156 369 595
          590 158 373 596 765 603
          701 766 767 604 704 768
          767 604 704 768 769 605
          707 770 636 637 186 638
          639 640 188 641 639 640
          188 641 642 643 190 644
          125 50 49 568 128 54
          53 570 128 54 53 570
          131 58 57 572 645 638
          186 646 647 641 188 648
          647 641 188 648 649 644
          190 650 534 646 186 621
          538 648 188 622 538 648
          188 622 542 650 190 623
          93 585 742 675 94 587
          744 678 94 587 744 678
          95 589 746 681 48 51
          134 525 52 55 137 527
          52 55 137 527 56 59
          140 529 627 771 772 762
          628 773 774 763 628 773
          774 763 629 775 776 764
          630 180 684 777 632 182
          686 778 632 182 686 778
          634 184 688 779 154 586
          585 84 156 588 587 88
          156 588 587 88 158 590
          589 92 651 286 181 631
          652 288 183 633 652 288
          183 633 653 290 185 635
          186 637 654 104 188 640
          655 107 188 640 655 107
          190 643 656 110 474 309
          113 144 476 310 117 148
          476 310 117 148 478 311
          121 152 63 267 266 60
          67 271 270 64 67 271
          270 64 71 275 274 68
          616 615 654 657 618 617
          655 658 618 617 655 658
          620 619 656 659 627 397
          396 660 628 399 398 661
          628 399 398 661 629 401
          400 662 579 414 415 458
          580 416 417 461 580 416
          417 461 581 418 419 464
          651 631 547 535 652 633
          549 539 652 633 549 539
          653 635 551 543 723 217
          81 780 724 219 85 781
          724 219 85 781 725 221
          89 782 663 446 445 192
          664 450 449 194 664 450
          449 194 665 454 453 196
          142 597 573 143 146 598
          574 147 146 598 574 147
          150 599 575 151 783 747
          198 576 784 749 202 577
          784 749 202 577 785 751
          206 578 48 513 514 49
          52 515 516 53 52 515
          516 53 56 517 518 57
          318 330 141 112 320 332
          145 116 320 332 145 116
          322 334 149 120 651 621
          285 286 652 622 287 288
          652 622 287 288 653 623
          289 290 60 266 428 427
          64 270 432 431 64 270
          432 431 68 274 436 435
          354 124 123 355 357 127
          126 358 357 127 126 358
          360 130 129 361 303 318
          112 111 305 320 116 115
          305 320 116 115 307 322
          120 119 630 777 757 609
          632 778 759 611 632 778
          759 611 634 779 761 613
          468 246 36 170 470 249
          40 174 470 249 40 174
          472 252 44 178 615 102
          104 654 617 105 107 655
          617 105 107 655 619 108
          110 656 786 783 576 606
          787 784 577 607 787 784
          577 607 788 785 578 608
          519 492 446 663 521 494
          450 664 521 494 450 664
          523 496 454 665 637 636
          657 654 640 639 658 655
          640 639 658 655 643 642
          659 656 663 192 193 552
          664 194 195 553 664 194
          195 553 665 196 197 554
          789 438 324 712 790 440
          325 714 790 440 325 714
          791 442 326 716 102 133
          354 103 105 136 357 106
          105 136 357 106 108 139
          360 109 646 534 537 645
          648 538 541 647 648 538
          541 647 650 542 545 649
          525 505 513 48 527 508
          515 52 527 508 515 52
          529 511 517 56 660 396
          439 438 661 398 441 440
          661 398 441 440 662 400
          443 442 765 786 606 603
          767 787 607 604 767 787
          607 604 769 788 608 605
          624 264 267 498 625 268
          271 500 625 268 271 500
          626 272 275 502 468 114
          247 246 470 118 250 249
          470 118 250 249 472 122
          253 252 535 534 621 651
          539 538 622 652 539 538
          622 652 543 542 623 653
          93 81 84 585 94 85
          88 587 94 85 88 587
          95 89 92 589 438 789
          792 660 440 790 793 661
          440 790 793 661 442 791
          794 662 124 132 51 50
          127 135 55 54 127 135
          55 54 130 138 59 58
          663 552 520 519 664 553
          522 521 664 553 522 521
          665 554 524 523 609 547
          631 630 611 549 633 632
          611 549 633 632 613 551
          635 634 125 142 141 123
          128 146 145 126 128 146
          145 126 131 150 149 129
          102 615 134 133 105 617
          137 136 105 617 137 136
          108 619 140 139 142 125
          568 597 146 128 570 598
          146 128 570 598 150 131
          572 599 124 354 133 132
          127 357 136 135 127 357
          136 135 130 360 139 138
          660 792 771 627 661 793
          773 628 661 793 773 628
          662 794 775 629 81 93
          677 780 85 94 680 781
          85 94 680 781 89 95
          683 782
        </DataArray>
        <DataArray type="Int64" Name="offsets" format="ascii" RangeMin="8" RangeMax="3632">
          8 16 24 32 40 48
          56 64 72 80 88 96
          104 112 120 128 136 144
          152 160 168 176 184 192
          200 208 216 224 232 240
          248 256 264 272 280 288
          296 304 312 320 328 336
          344 352 360 368 376 384
          392 400 408 416 424 432
          440 448 456 464 472 480
          488 496 504 512 520 528
          536 544 552 560 568 576
          584 592 600 608 616 624
          632 640 648 656 664 672
          680 688 696 704 712 720
          728 736 744 752 760 768
          776 784 792 800 808 816
          824 832 840 848 856 864
          872 880 888 896 904 912
          920 928 936 944 952 960
          968 976 984 992 1000 1008
          1016 1024 1032 1040 1048 1056
          1064 1072 1080 1088 1096 1104
          1112 1120 1128 1136 1144 1152
          1160 1168 1176 1184 1192 1200
          1208 1216 1224 1232 1240 1248
          1256 1264 1272 1280 1288 1296
          1304 1312 1320 1328 1336 1344
          1352 1360 1368 1376 1384 1392
          1400 1408 1416 1424 1432 1440
          1448 1456 1464 1472 1480 1488
          1496 1504 1512 1520 1528 1536
          1544 1552 1560 1568 1576 1584
          1592 1600 1608 1616 1624 1632
          1640 1648 1656 1664 1672 1680
          1688 1696 1704 1712 1720 1728
          1736 1744 1752 1760 1768 1776
          1784 1792 1800 1808 1816 1824
          1832 1840 1848 1856 1864 1872
          1880 1888 1896 1904 1912 1920
          1928 1936 1944 1952 1960 1968
          1976 1984 1992 2000 2008 2016
          2024 2032 2040 2048 2056 2064
          2072 2080 2088 2096 2104 2112
          2120 2128 2136 2144 2152 2160
          2168 2176 2184 2192 2200 2208
          2216 2224 2232 2240 2248 2256
          2264 2272 2280 2288 2296 2304
          2312 2320 2328 2336 2344 2352
          2360 2368 2376 2384 2392 2400
          2408 2416 2424 2432 2440 2448
          2456 2464 2472 2480 2488 2496
          2504 2512 2520 2528 2536 2544
          2552 2560 2568 2576 2584 2592
          2600 2608 2616 2624 2632 2640
          2648 2656 2664 2672 2680 2688
          2696 2704 2712 2720 2728 2736
          2744 2752 2760 2768 2776 2784
          2792 2800 2808 2816 2824 2832
          2840 2848 2856 2864 2872 2880
          2888 2896 2904 2912 2920 2928
          2936 2944 2952 2960 2968 2976
          2984 2992 3000 3008 3016 3024
          3032 3040 3048 3056 3064 3072
          3080 3088 3096 3104 3112 3120
          3128 3136 3144 3152 3160 3168
          3176 3184 3192 3200 3208 3216
          3224 3232 3240 3248 3256 3264
          3272 3280 3288 3296 3304 3312
          3320 3328 3336 3344 3352 3360
          3368 3376 3384 3392 3400 3408
          3416 3424 3432 3440 3448 3456
          3464 3472 3480 3488 3496 3504
          3512 3520 3528 3536 3544 3552
          3560 3568 3576 3584 3592 3600
          3608 3616 3624 3632
        </DataArray>
        <DataArray type="UInt8" Name="types" format="ascii" RangeMin="12" RangeMax="12">
          12 12 12 12 12 12
          12 12 12 12 12 12
          12 12 12 12 12 12
          12 12 12 12 12 12
          12 12 12 12 12 12
          12 12 12 12 12 12
          12 12 12 12 12 12
          12 12 12 12 12 12
          12 12 12 12 12 12
          12 12 12 12 12 12
          12 12 12 12 12 12
          12 12 12 12 12 12
          12 12 12 12 12 12
          12 12 12 12 12 12
          12 12 12 12 12 12
          12 12 12 12 12 12
          12 12 12 12 12 12
          12 12 12 12 12 12
          12 12 12 12 12 12
          12 12 12 12 12 12
          12 12 12 12 12 12
          12 12 12 12 12 12
          12 12 12 12 12 12
          12 12 12 12 12 12
          12 12 12 12 12 12
          12 12 12 12 12 12
          12 12 12 12 12 12
          12 12 12 12 12 12
          12 12 12 12 12 12
          12 12 12 12 12 12
          12 12 12 12 12 12
          12 12 12 12 12 12
          12 12 12 12 12 12
          12 12 12 12 12 12
          12 12 12 12 12 12
          12 12 12 12 12 12
          12 12 12 12 12 12
          12 12 12 12 12 12
          12 12 12 12 12 12
          12 12 12 12 12 12
          12 12 12 12 12 12
          12 12 12 12 12 12
          12 12 12 12 12 12
          12 12 12 12 12 12
          12 12 12 12 12 12
          12 12 12 12 12 12
          12 12 12 12 12 12
          12 12 12 12 12 12
          12 12 12 12 12 12
          12 12 12 12 12 12
          12 12 12 12 12 12
          12 12 12 12 12 12
          12 12 12 12 12 12
          12 12 12 12 12 12
          12 12 12 12 12 12
          12 12 12 12 12 12
          12 12 12 12 12 12
          12 12 12 12 12 12
          12 12 12 12 12 12
          12 12 12 12 12 12
          12 12 12 12 12 12
          12 12 12 12 12 12
          12 12 12 12 12 12
          12 12 12 12 12 12
          12 12 12 12 12 12
          12 12 12 12 12 12
          12 12 12 12 12 12
          12 12 12 12 12 12
          12 12 12 12 12 12
          12 12 12 12 12 12
          12 12 12 12 12 12
          12 12 12 12 12 12
          12 12 12 12 12 12
          12 12 12 12 12 12
          12 12 12 12 12 12
          12 12 12 12
        </DataArray>
      </Cells>
    </Piece>
  </UnstructuredGrid>
</VTKFile>
