<?xml version="1.0"?>
<VTKFile type="UnstructuredGrid" version="0.1" byte_order="LittleEndian" header_type="UInt32" compressor="vtkZLibDataCompressor">
  <UnstructuredGrid>
    <Piece NumberOfPoints="756" NumberOfCells="468">
      <PointData>
        <DataArray type="Int32" Name="libmesh_node_id" format="ascii" RangeMin="120" RangeMax="2168">
          120 121 122 123 124 125
          126 127 128 129 130 131
          132 133 134 135 136 137
          138 139 140 141 142 143
          144 145 146 147 148 149
          150 151 152 153 154 155
          156 157 158 159 160 161
          162 163 164 165 166 167
          168 169 170 171 172 173
          174 175 176 177 178 179
          240 241 242 243 244 245
          246 247 248 249 250 251
          252 253 254 255 256 257
          258 259 260 261 262 263
          264 265 266 267 268 269
          330 331 332 333 334 335
          336 337 338 339 340 341
          342 343 344 345 346 347
          348 349 350 351 352 353
          354 355 356 357 358 359
          420 421 422 423 424 425
          426 427 428 429 430 431
          432 433 434 435 436 437
          438 439 440 441 442 443
          444 445 446 447 448 449
          510 511 512 513 514 515
          516 517 518 519 520 521
          522 523 524 525 526 527
          528 529 530 531 532 533
          534 535 536 537 538 539
          600 601 602 603 604 605
          606 607 608 609 610 611
          612 613 614 615 616 617
          618 619 620 621 622 623
          624 625 626 627 628 629
          690 691 692 693 694 695
          696 697 698 699 700 701
          702 703 704 705 706 707
          708 709 710 711 712 713
          714 715 716 717 718 719
          780 781 782 783 784 785
          786 787 788 789 790 791
          792 793 794 795 796 797
          798 799 800 801 802 803
          804 805 806 807 808 809
          876 877 878 879 880 881
          882 883 884 885 886 887
          888 889 890 891 892 893
          894 895 896 897 898 899
          900 901 902 903 904 905
          906 907 908 909 910 911
          912 913 914 915 916 917
          918 919 920 921 922 923
          924 925 926 927 928 929
          930 931 932 933 934 935
          936 937 938 939 940 941
          942 943 944 945 946 947
          948 949 950 951 952 953
          954 955 956 957 958 959
          960 961 962 963 964 965
          966 967 968 969 970 971
          972 973 974 975 976 977
          978 979 980 981 982 983
          984 985 986 987 988 989
          990 991 992 993 994 995
          996 997 998 999 1000 1001
          1002 1003 1004 1005 1006 1007
          1008 1009 1010 1011 1012 1013
          1014 1015 1016 1017 1018 1019
          1020 1021 1022 1023 1024 1025
          1026 1027 1028 1029 1030 1031
          1032 1033 1034 1035 1036 1037
          1038 1039 1040 1041 1042 1043
          1044 1045 1046 1047 1048 1049
          1050 1051 1052 1053 1054 1055
          1056 1057 1058 1059 1060 1061
          1062 1063 1064 1065 1066 1067
          1068 1069 1070 1071 1072 1073
          1074 1075 1076 1077 1078 1079
          1080 1081 1082 1083 1084 1085
          1086 1087 1088 1089 1090 1091
          1092 1093 1094 1095 1096 1097
          1098 1099 1100 1101 1102 1103
          1104 1105 1106 1107 1108 1109
          1110 1111 1112 1113 1114 1115
          1116 1117 1118 1119 1120 1121
          1122 1123 1124 1125 1126 1127
          1128 1129 1130 1131 1132 1133
          1134 1135 1136 1137 1138 1139
          1140 1141 1142 1143 1144 1145
          1146 1147 1148 1149 1150 1151
          1152 1153 1154 1155 1156 1157
          1158 1159 1160 1161 1162 1163
          1164 1165 1166 1167 1168 1169
          1170 1171 1172 1173 1174 1175
          1176 1177 1178 1179 1180 1181
          1182 1183 1184 1185 1186 1187
          1188 1189 1190 1191 1192 1193
          1194 1195 1196 1197 1198 1199
          1200 1201 1202 1203 1204 1205
          1206 1207 1208 1209 1210 1211
          1212 1213 1214 1215 1216 1217
          1218 1219 1220 1221 1222 1223
          1224 1225 1226 1227 1228 1229
          1230 1231 1232 1233 1234 1235
          1236 1237 1238 1239 1240 1241
          1242 1243 1244 1245 1246 1247
          1248 1249 1250 1251 1252 1253
          1254 1255 1256 1257 1258 1259
          1260 1261 1262 1263 1264 1265
          1266 1267 1268 1269 1270 1271
          1893 1894 1895 1896 1897 1898
          1920 1921 1922 1923 1924 1925
          1947 1948 1949 1974 1975 1976
          2001 2002 2003 2028 2029 2030
          2055 2056 2057 2112 2113 2114
          2115 2116 2117 2124 2125 2126
          2127 2128 2129 2130 2131 2132
          2133 2134 2135 2148 2149 2150
          2151 2152 2153 2164 2166 2168
          1926 1899 1927 1900 1928 1901
          1950 1951 1952 1953 1954 1955
          1977 1978 1979 2004 2005 2006
          2031 2032 2033 2058 2059 2060
          2142 2144 2146 2163 2143 2096
          2165 2145 2100 2167 2147 2104
        </DataArray>
        <DataArray type="Float64" Name="resid_x" format="ascii" RangeMin="-20.2708544758848" RangeMax="1.1967507153308725">
          0.010655730176421407 -8.16248233767568 0.02351841591628645 -16.425558477634667 0.01249221766050912 -8.385778646779235
          0.006230548512988321 -8.247624658117276 0.01666810403308272 -16.66359559433848 0.00924045276054919 -8.647416875292311
          0.00885778390641967 -8.357837468436909 0.020082672537792945 -16.97018276056881 0.0067756159282374995 -9.031577978221144
          0.016972727348037786 -8.51402801107664 0.004245173102959576 -17.298564774507263 -0.025373750095170067 -9.429186340961955
          0.0026569036252279687 -8.72835297002893 0.002342774313140339 -17.632869797428047 -0.006958862970989799 -9.663353626432755
          -0.00039562163826634134 -8.973843862961255 -0.0006722283078817171 -18.02002890195919 -0.003277483386005642 -9.705244616485796
          -0.00017409892725162024 -9.251722847903899 -0.00017850133941976765 -18.49628256723626 -0.00011185681853209672 -9.544875483397044
          0.0011632341459142381 -9.61381766500645 0.0024412388279007047 -19.13375564264855 0.003764504637962851 -9.214437915242998
          0.005281670380724357 -10.230266186853527 0.009892240952756204 -20.2708544758848 0.012944902511905276 -8.772905107439616
          0.01396834382334683 -6.350165862477487 0.025570387623300328 -12.530637178061447 0.02189461834044301 -4.80460813158008
          -0.016013911715332618 -0.030982433277294774 -0.013392901679917024 0.014307180431221589 0.039145783122595645 0.021433703314355235
          0.014521968392966933 0.035697735370035844 0.021883168139386733 -0.01166249297056865 -0.006404810197272681 0.0037928606857047242
          -0.0016912054456339476 0.0032214382731048374 -0.002990040692065321 0.0010626788785890184 0.0012547882057125648 -0.0036397336347979703
          0.0014775750843130098 0.0025497443472053405 0.0012325056110471522 0.00380003343447477 0.006723853213085995 0.008801438626889535
          0.010079180433715251 0.01765812139660028 0.02475294886456858 0.016712169514841335 0.03020203068604932 0.036237051431391665
          -0.033528826629150466 -0.0734195221657652 -0.04062034931408487 0.01040115347293824 0.016094700014009256 -0.004477406999001232
          -0.00040222716567139827 0.013473106568561377 -0.00242167860328113 -0.01520821319007748 -0.04415159371063293 -0.027806264726489616
          -0.007330236806158297 -0.023927355615916746 -0.021521337099154714 0.00108091738570959 0.0015361594892517871 -0.004477775779830218
          0.001154889795121683 0.001974531372133548 0.001442091067003659 0.00360501598932661 0.0064582500514269725 0.011584774224163485
          0.01184919419488839 0.021358763111186896 0.03337985325364956 0.021682451726720176 0.03906298151226257 0.0484840140867644
          0.0031633204032255335 -0.014482514009101166 -0.025592673912216313 -0.05263718978305043 -0.10182060514098268 -0.04219533811328802
          -0.016065765644764696 -0.0644373250247341 -0.03414500152248667 0.030411168065079153 -0.04055162401978585 -0.06482008252118643
          0.00005035184475232768 0.000023671512446199472 -0.008626570904402442 0.0015570131720252789 0.002355099631748736 -0.004678544478756486
          0.0014683756510365242 0.0023322849939590995 0.0023958361594589306 0.0037602828296163793 0.00675309568893212 0.01451429864016518
          0.011503430140897386 0.02072581804082052 0.036791868438415865 0.01972822326949797 0.036086020168804245 0.049532598462587396
          -0.04640315659161409 -0.07126547095239655 -0.023972925241573684 -0.0026026122869855506 0.007159599796610294 0.017348339879950103
          0.008541822678816313 0.04758227873640131 0.014212267932107281 -0.06136369196592195 -0.03360933787552556 -0.008202634014052634
          0.00014123355264317183 0.00016311244537092762 -0.009281186317974033 0.0016270552352048995 0.0023674916262965695 -0.004120902015560368
          0.0014835381826827643 0.0023835849478910376 0.003739794998410151 0.0038455502504941563 0.00646379346388315 0.016806853525135335
          0.009339051346295868 0.016485405766441197 0.03746478763647243 0.010693535872517534 0.019764524904646974 0.041938106845811784
          -0.00434045637337821 -0.007974292895578827 0.002699322161666906 0.0693577806370036 0.11414635246181559 0.0536288426000846
          0.044854712296731325 0.007760411750789231 0.007967992890825393 0.0016231701843745228 -0.029539511659885775 -0.027203802627166596
          0.0013756813648830857 0.0024099358577256424 -0.008805890823812668 0.001497543468156337 0.0023821635966578825 -0.003066044280192859
          0.0015093818962936822 0.002321295168022708 0.005101965326816504 0.004116258058908251 0.006699980191624988 0.018546094743694397
          0.007878409329621583 0.01385098160914211 0.03767588920574916 0.004612067367733008 0.008815081637287725 0.03521837958895069
          0.02196341371347632 -0.04434655478502947 0.022373876472593146 0.09730391006689532 0.0919717376905318 0.11404517435539674
          -0.09261101754221812 -0.134214591374195 -0.09420852627627596 -0.015154725357339416 -0.0048534104391544375 -0.010751472278061502
          0.0017565909847583328 0.002887831982427258 -0.00765889921686469 0.0007963900773333421 0.0020412942212182372 -0.0019513506345445464
          0.0015941003735653325 0.002082809723054524 0.005947113322528619 0.004700560388967823 0.007643697317765152 0.019501857445411552
          0.007566066673505567 0.013305318243596265 0.035853861681069965 0.0038857064110181527 0.007518424192915818 0.03076974587872905
          0.6513440211576724 1.1967507153308725 0.11937280173315834 -0.0909329401168808 -0.16674598610787328 -0.20989372809009943
          -0.04141182023596279 -0.07083452165212378 -0.04490648623606219 0.00016606051026624158 -0.00004009395127102522 -0.007118109150447971
          -0.0002636199857759536 0.0023602449925306246 -0.0036372549877321525 0.00022886270550426246 0.0012640671183845598 -0.00043629673274470093
          0.0017916515840301628 0.0028142658391834274 0.006835581415915115 0.0053501617270015345 0.009874058397344676 0.02080654248807523
          0.006915761505528195 0.015184666974561445 0.03483074434423372 0.00035965208771804313 0.00231135611931621 0.02414928483332557
          -0.04842938196096025 -0.07948867868189069 -0.050317651301738486 0.022907094011648255 0.02571201404010459 0.0034828728822517974
          0.006658886409302678 0.01123137920152839 0.004713695520242034 0.0030728764603731307 0.005266005544545038 0.007127124342890312
          0.0008203438700000731 0.000961820768283772 0.017716016452478556 -0.00019061259224439908 -0.001753451284101537 0.03277672105028184
          -0.0013193918874021549 -0.0045492888378459995 0.05000727084260603 -0.0034771000717217504 -0.010088001188447215 0.0314587178799588
          -0.0012909617795627479 0.013591315024079953 0.0013186556876142591 -0.007069582739687275 -0.0034101541279200065 0.017554815886652142
          0.01350283718139722 -0.000791179413772547 -0.0018161537712926938 0.00284833811121854 0.008488847031267122 0.004135733740200875
          -0.0023036315173721456 -0.002696017977691062 -0.004458970966686071 -0.0059341577875896626 -0.0033640468379220745 -0.0032816468285399095
          -0.002194554335839413 -0.0016931758915858172 -0.0014939127149948134 -0.004091576629199373 -0.003581116543316651 -0.004115298461637409
          -0.00006518572405025957 -0.0012748871063970185 -0.0026866445000381656 -0.002886283729111483 0.0030249009491232215 -0.009709464043948679
          0.0008025288259723151 -0.004893370606299463 0.000909966609038082 -0.014057994997586865 0.0016540197418866975 0.005887628074311313
          0.015439177785731395 0.004009480658103914 0.0063537935516753685 -0.009352473934797656 -0.0016864218583531043 -0.0010823524475929158
          -0.002098182421866046 -0.013992414881886184 -0.006619811034271339 -0.0021629350657929036 -0.0033404923291090183 0.022722140315063255
          0.018680210415560783 0.01232801697515673 0.00884488821524454 0.0005492928514851947 0.005828273991012267 0.0002085945872556394
          -0.002880672707630705 -0.00108050986397501 0.010593898688788128 0.0024602542738920707 -0.005237216651837295 0.0132484694179269
          0.01915729308747216 0.013167230001736363 0.00925477884854109 -0.001068006712409253 0.005796014614248168 0.002550509224605757
          -0.0015219502991877243 -0.005585899775780667 0.009547122857247792 0.007080583734292434 -0.0021658959468951466 0.0078007232682517635
          0.017394134568577302 0.02071695329356915 0.01191574470493273 -0.0012889365835195843 0.0022187341854920106 -0.0030689623785662423
          0.003609509622020335 0.006862513114708868 0.012197288149525587 0.004600027706903265 -0.0032647455507784917 0.005921591052249764
          -0.006968242789995527 0.00946541504789944 0.008979301325718114 -0.004322968471470626 -0.001632930815528337 0.0020036210777451408
          -0.002051015379252702 -0.008885970314539332 -0.003705128716306561 0.002485677467589247 -0.005075707020901737 -0.006329815017383139
          -0.0023713080778550444 -0.0002739046275079121 -0.00440618639695689 0.00043335667241672926 0.0025311710075459626 -0.0018276690475125257
          -1.8133906224480656 0.0007821847186119113 0.0027957944590086825 -0.0027001412508457223 -3.4582267617234907 -0.00013368465436192078
          0.004640963246572927 0.0028196417027542275 -1.2730954524263391 0.004596299365093759 -0.008023506765226784 0.0056722952003884775
          -0.011032762194498114 0.013316729679877293 0.013915853634923314 0.001380683488463319 0.000540580112340594 0.027220128154274048
          -0.011753857113051769 0.010138422211822262 -0.0006399038621068831 0.014450870098147495 0.01574837827436082 0.010582451322214359
          -0.0008892751475462202 -0.0324202072623998 0.10327065889344622 0.002383875589770934 -0.020325449494382086 0.02538621827360299
          0.04071898029928095 -0.0013893065599048793 -0.04299771255743301 0.040984206375683396 0.06813710526017576 -0.006772576053168611
          -0.02049071221933285 0.02176561693179352 0.036898151415686364 -0.000017685839852571092 -0.0005242384500137483 -0.0014546857890146148
          -0.00014757163220116554 -0.00015781529131467242 -0.00030968601243604524 -0.003192841313126457 -0.0004896227871260123 -0.0008692121544857656
          0.0018925932824325198 -0.0013154828409682323 -0.00031500366007280317 0.0008013684872805182 0.005828522505687994 0.0014969543917002781
          0.01050223247282428 0.0074125405249554355 0.017279852527944284 0.0020045858639133884 0.0023608380349913194 0.01607776098820546
          -0.006717821434532867 -0.0015432372650709403 -0.009110491991768388 -0.003457430727519306 -0.0036255128472426623 -0.0039004381446039738
          -0.0013208965280063767 -0.0022034067157491455 -0.000016053504386270845 -0.00646439135068122 -0.00630822968300454 0.0015937493613311648
          0.001490019144009036 0.0009177604914130111 0.0037944443582781373 -0.0044778834143918145 -0.001669144943337808 0.003668680550263037
          -0.008161558031460597 -0.004984632567465591 -0.001145228885848143 -0.007246603114431371 -0.010175423689323448 0.01721261158435783
          0.02683606427285097 0.035434913584200256 0.03564457563075768 -1.201244587030788 0.0022233142467029676 -1.5450319396614942
          -2.4463112385977266 0.004448457339031819 -2.9432889535550264 -0.9765201193345368 0.005611090485879655 -1.1518655409336291
          -0.0014404056416467172 -0.00039031041470671823 -0.004610858909096419 -0.0006802239669994048 0.01147807989505082 0.014528284570797467
          -0.0007498089945915387 -0.00975361771150629 0.0015635811278521816 -0.01946243132350578 0.003974583366508411 -0.0029355504926430465
          0.00260640755713399 -0.00301779032990257 0.002021633835902731 -0.0022496989775669385 0.007903153944094021 0.012541087687395173
          -1.3699344899136547 0.002246938264123477 0.003670920551192572 -1.6521495891053268 -2.668752780415865 0.0038482521976894724
          0.00578228107576767 -3.202016843832386 -1.286869246485863 0.004158806487406519 0.002784705661184328 -1.4180872733984846
          0.0006575012938949687 0.002870255554220602 -0.000759453004798627 0.001973353746649531 0.0046494621616559595 -0.00552603278547259
          0.01701652044618962 0.018242385551880513 0.010659209322430585 -0.00038069672073925975 -0.00016963761152055667 -0.004038607805861905
          -0.0009847713613764242 0.0012652855221899628 0.00038232835726659253 0.0038011866463339983 0.0037613302897525625 0.005140154203563618
          0.0059637914173802375 0.02210216988050795 0.019935244863031665 0.0013632054015576232 -0.008370284500627378 0.0013821573022466255
          -0.01241239202475658 0.024916260481328972 0.013901822617334747 -0.001904094092168851 0.0013904662742157958 -0.0006620172158350313
          -0.000018226416131250645 0.010616423278704268 0.0069308294186962716 -0.000007894565766802808 -0.0012656647742459969 -0.0004186578501076399
          -0.0001560933568133943 -0.0024327475980046673 -0.000685943421424931 -0.000014150702878946986 -0.0006128441257827674 -0.0001878724662487119
          -0.0004061354484181656 -0.0038062725317096063 -0.005718627380804975 -0.0008950063086583526 -0.007392674069187893 -0.012805626208611254
          0.008117876344565289 0.0023626981325755025 0.002096147397032344 -0.0020370925971619214 -0.0008860458706287377 -1.31627340112324
          -0.00437756909770648 -0.0009650569886366367 -2.5658615395237288 0.0001197929022249411 0.0015833115896757288 -1.0705796746800704
          -1.265537099172365 -2.520758273401422 -1.199894395651142 -0.000033608806651853895 -0.0009666419851381419 -0.000524808430758944
          -0.001371312306738395 -0.00023586015627076115 -0.0020621445205765143 -0.002003122464701773 -0.0027835172907703307 -0.00009070652103609911
          -0.0009805608559914358 -0.000731623801731085 -0.0011190465722263222 0.0022841435481610883 0.010487268379095749 0.0006056751814853545
          0.01838076697431884 0.006011791224233121 0.014013943129967954 -0.003279800423972551 -0.0006290575161804965 -0.006655715334943933
          -0.0017784634334969893 -0.00334951092097361 -0.0008681374296772779 0.005964850508035968 -0.0010023980310627512 0.011786220623811239
          -0.0030870292152093415 0.007576708337413474 0.011142766698115203 0.04036737439498639 -0.03457303014651103 0.0581858465136178
          -0.05238323604346928 0.03954310488579926 0.010999985192487793 -0.0028570448382354285 -0.00537906810134911 -0.0026229157586664525
          -0.00029875830594816577 -0.0014080289272093705 0.00936266823835652 -0.04478199623715928 0.026120979025646918 -0.0764863649419899
          0.036554519708409394 0.002486647212444182 0.03237800427188553 -0.0028338153885709705 -0.007181584698655263 0.0012743377392963051
          -0.00911480150844346 -0.02341924146997837 0.0014999680460684936 0.0011966163520838735 0.0014749965216904123 0.0011696010306091326
          -0.0022005941466064494 -0.005590871539260078 -0.0011164782028019182 -0.00033715857751293044 -0.04360457126612105 -0.08763150631717576
          0.0002885434860751476 0.0008758771463959203 -0.006455346393349715 0.035913567753544484 0.05567690485165766 0.029279459653673845
          -1.3206581198687615 -2.5066329858482206 -1.1071807090686687 -1.7061326703230568 -3.2824698750737142 -1.177689429092537
          -0.007362512620042783 -0.01514406866149523 -0.007675667940912401 0.001003895675466139 0.0016370953854653314 0.0005110963558347115
          0.003544859040224946 0.009227136053855833 0.011248899708776072 -0.003260703783196206 -0.010448082864944475 0.0016288833270259317
          0.00971890006191023 0.009476165479648024 0.009236354049124706 0.002232288215986422 0.0021583667108231452 0.007325667884187759
          0.007511099417102152 0.007440896370233929 0.014799426297098073 0.006453077336720625 0.01235861152511486 0.0267758725283489
          0.003062635306185335 0.007927907741077433 0.03215294946170033 -0.0030599364226944203 0.00027674753189810275 0.034776838888388006
          -0.0168187050144335 -0.03183074214880666 0.007996024392556755 -0.0019868293694549344 -0.002784297069764685 -0.004325597009620763
          -0.0063194408322092555 0.0023218262528557077 0.0020742996819550497 -0.002176987311335435 -0.012993417439435717 -0.012110524537388034
          0.0015786131575382667 -0.00043931940273007897 -0.03565240220790056 -0.016601672432779102 -0.000966593688622619 0.0008554198098769394
          -0.02698640638096972 -0.0024103443127923008 0.00006072003106027957 -0.004972648904341459 0.012953759603673842 0.025523194759882684
          -0.0029440488829177713 -0.0068441049170175905 -0.001253801340226568 -0.023598757011073 -0.052619158988700565 -0.030583338357793033
          -0.0023947172834741792 -0.0007992034120372082 -0.0030077361499927235 -0.004108163467448023 0.009006676307848238 0.0034426669643394803
          0.005517542289870114 0.009834266078737386 0.016974909106315828 -0.00022190734206972706 0.0012683977521898981 0.012830924484608097
          0.008828472574506918 0.016027688460795275 0.023836657500671876 0.0065145815167202414 0.01096754097586583 0.022491937664520734
          -0.0049804972503171285 -0.012567521428524131 0.011423861097903831 -0.009674788824102443 -0.021241135337112027 -0.0015290666721838875
          -0.008091750708145717 -0.012413630537899678 -0.002982640869361397 -0.005555617616002095 -0.005086855427542947 0.003934957471364964
          -0.02067289808585926 -0.00835218365984769 0.0024390751756158124 -0.016448544871857873 -0.004336124143784481 -0.003128392816469372
        </DataArray>
        <DataArray type="Float64" Name="resid_y" format="ascii" RangeMin="-0.11766020835765945" RangeMax="0.06689398338124786">
          -0.007691407058248695 -0.0036810550517319476 -0.015372230347225263 -0.007232407240814226 -0.008077364282591398 -0.004374835290524922
          0.0009116643049802142 -0.0003543094915629784 0.002402981813953214 -0.0017302570265787381 0.00030839377813642044 -0.002028668875076134
          0.0001868176812243605 -0.0008447277646027457 -0.00017469005500875268 -0.004151928978495423 -0.002104745089452603 -0.004430149824739743
          0.0015173747848158947 -0.00017930421176305666 0.004011784348159131 -0.002558691737609642 0.001544118762687563 -0.0029585815842892993
          0.004408952464387272 0.00043033947010959195 0.010970386796029852 0.00027984529848665285 0.0034077288772684233 -0.0019324876503498123
          0.0028333147515532953 -0.0005087163004366957 0.007028142314976282 -0.002275303564748865 -0.00008563963796381913 -0.0037956009086925757
          0.003696389831016056 0.00015158118819535993 0.008680500013100001 -0.0007049402991874953 -0.0010843127261646601 -0.004014874882219022
          0.002339804406193302 -0.00022469820735487867 0.006030232666329127 -0.0011594418459753841 -0.0028386367546768265 -0.004325013180626336
          0.0020028572404076628 -0.000210596215678871 0.007027698206286903 -0.0001686358829222634 -0.003643135363525174 -0.004809005629258456
          0.0026728427412399114 -0.00021322975803617084 0.008544404148859375 0.0009892469778385315 -0.005250413918925778 -0.002634428567924979
          -0.008572638565464696 -0.015579850295886155 -0.008064911372116387 -0.004520753887460427 -0.007651998574790236 -0.005145734491020515
          -0.0026784423989529987 -0.002218104785701853 -0.0025465503834639774 -0.001178653419026593 0.0005719228068644527 -0.0008610147649714406
          0.0024614349011449765 0.0073963447898725 0.0012869522250024135 -0.000009286979904155057 0.0024693927606972144 -0.0024607748656703676
          0.0010221816310582166 0.0038105408512404404 -0.0033521249558446375 -0.00028122122862783705 0.0017407704260044565 -0.004905782177274998
          -0.0006522329987708742 0.0022968116467820265 -0.004153763599297922 0.005171491434014665 0.01258051297335655 -0.0033026223217683115
          -0.009702313120048184 -0.015432364083018929 -0.008686367974478665 -0.0065973325612175004 -0.013250062437860685 -0.007881457187324761
          0.0012942680154667818 0.00460928120371569 0.0004870516019043758 0.007886188058566664 0.01170764501677278 0.004162429237447668
          0.0015064741710492657 0.00861551414242516 0.0024377808665010936 0.0022182015292401824 0.00677442529033187 -0.00010447128954849116
          0.0028208446975002133 0.007451520362117214 -0.001173242224086768 0.0016008046000048348 0.00568446990800392 -0.0025092153287484265
          0.0006712023658452249 0.004535967588925355 -0.002708025467452531 0.001853335192142147 0.0073980937711443095 -0.005000574402738767
          -0.015406656726516282 -0.0250235566925541 -0.012824766098836898 0.002491015767768584 0.002255690169767885 -0.0026615121129663494
          -0.0028560521071785555 0.005544926417981974 0.003840740258293965 0.007745300638545175 0.02974922993907861 0.018371981255103503
          0.00013683474050540934 0.0036298950972630667 0.0008400844406692559 0.002082793861348381 0.005914660519201281 0.0001897914180423732
          0.002081963385119401 0.006039853002472728 -0.001110329183175357 0.0013533715950402314 0.005229525770736654 -0.0019686708687532972
          0.0001735303574790792 0.003395777217351681 -0.0031507577049423724 0.0033173244039161887 0.0081163335450678 -0.0034962371210264243
          -0.014121008676453523 -0.0367234860040761 -0.017862329056214543 0.00011345442800733685 -0.002961616555479135 -0.0080746804946428
          -0.008063622228614148 -0.009524554244480302 -0.0024988244139324267 0.022376263643607328 0.030462798778128082 0.009393085145860864
          -0.00005546317651790311 0.002227213061977616 -0.00007361598470436576 0.0015918967597388367 0.004456483640048206 0.00008609735516294792
          0.001520185579447858 0.004795410363844788 -0.0009616013968336834 0.0009866663547214993 0.004259925396209202 -0.0019145082435387817
          0.0006949804364546203 0.0039970880792781875 -0.0029437363851578108 0.0008671852216019516 0.0022708298182875786 -0.0033270109049440832
          -0.02191094571812216 -0.052073843340463166 -0.025097555281291595 -0.018631687695904384 -0.04195576947377045 -0.03357873711194509
          -0.016012648539181627 -0.00567658968982096 0.011882982584891962 0.011755095942124351 0.01342363843831296 0.004131312201229767
          -0.0003229885736070609 0.0008347271217409979 0.00005429553971464385 0.001092221996140702 0.0033428807467259236 0.000004649710639826731
          0.001112000891061754 0.003681009128829252 -0.0010588223086404613 0.0006823903514797114 0.003403130996217113 -0.002118815084442907
          0.0002107257094464618 0.0025437704965943497 -0.003544830822543754 0.0027079686997227848 0.005579879783441266 0.0004708611324734102
          -0.024222708903992307 -0.011356607692697085 -0.01381569392226134 -0.005028170175316692 0.010763505064901202 -0.029663728804452894
          0.03866467067509455 0.06025400283975853 0.026580818666338255 0.007217858010972078 0.003453656011357921 0.0001614203419432192
          -0.0009199703128528885 0.0006643603420683633 0.000575769307031529 0.00046378955533689717 0.001687414894058029 -0.0006965749736464744
          0.0009001208558275242 0.0030913209942319327 -0.001319659972257893 0.0006379374131497348 0.003088938250620621 -0.0026831324465852596
          -0.0003915410517350594 0.0009988067213457796 -0.004622448459182402 0.001460219911615268 0.002737160647120207 -0.0005540633174261345
          -0.04520161616723495 -0.11766020835765945 -0.03345750130084568 -0.002544433390148093 0.0022381245470142197 0.03586947009779451
          0.012209555169267916 0.06689398338124786 0.030538046649150052 -0.017140658246576984 -0.018974607089517256 -0.0030708041611177406
          -0.0009542604440284479 -0.00018162280333476957 -0.001325553553245734 -0.0003039197447453623 0.001014648442324781 -0.000855496804722411
          0.000626135633208999 0.0027599215863829407 -0.0021435830179468707 0.0010279916476564344 0.0037537752905667243 -0.003712318813395288
          -0.0005887719367364888 0.0007462125641963871 -0.00581635322207355 -0.0017337438766093505 -0.0020212461058846665 -0.0022116846669045787
          0.014005749133273349 0.006194535830293946 -0.03222929878899383 0.004290734085530934 -0.002474559843454127 -0.008317816370271514
          -0.00143710370245681 -0.0016236516427047265 -0.0063400180995152045 -0.0007169650186195642 0.0009470268688157868 -0.004513733214027482
          -0.000034592706620734104 0.003190028432655423 -0.003435625456943814 0.0005363360106391823 0.004529710754439198 -0.0001696769703238843
          -0.0010698735353158462 0.0008569023725577551 0.002198625693450973 -0.0005702454180167571 0.000567406197308884 0.004477353309199461
          0.0008990421934194064 -0.0015443340692582498 -0.013629893182848185 0.011294306009912602 0.0007523277861912515 -0.003228872728953003
          -0.017083916820889833 0.02612203457119395 -0.00022158951612131356 -0.006773977306174794 0.00020196466202807017 0.013479584270422076
          -0.0020581049253323574 -0.0012726327193915477 -0.004871897873188313 -0.002643583477922904 -0.002928413872765649 -0.0009353628805183756
          -0.0018432985434501444 -0.0005959475537796687 -0.0009970177681566487 -0.0032262387303833157 -0.0015393756959027269 -0.002324160470585007
          0.0009062232919613243 -0.0010009703130998832 -0.0012848585005729718 0.0016900350572334188 -0.00028982937213184456 0.015480410391431998
          -0.0049011901181054696 0.004353524552775934 0.002438226173902991 0.024771692618384772 -0.008027146786067196 -0.0005765208540181588
          -0.002240299954834324 0.006299431320702001 -0.006661418466512692 0.0027083007904489254 -0.004538609308873787 -0.0004930364878384524
          -0.0008568453416466781 0.0026024061975598034 -0.013420702179413935 0.0025108672344690275 -0.0030728345845183937 -0.003348421819741043
          -0.006520278599052187 0.011814486035099048 -0.0006722854347028795 -0.004469836355876 0.0039537520571582 0.0019970362419026166
          -0.0014429504392609593 -0.009064518595354176 0.008628095985688478 0.0044829772502572585 -0.003316864697105043 -0.008443486024242747
          0.0035700748636519064 0.0010825190144405639 -0.005906712964061742 -0.0022747147707025683 -0.0023613630711036837 0.005252703942107417
          -0.005781579754830235 -0.007317720574918529 -0.005562336060621065 0.009816421742444792 -0.01066239238891542 -0.0037837480174198745
          -0.003207859439059324 0.0054380033835174715 -0.002987351670899946 -0.002087238188544116 -0.00283382455398945 -0.0037039752684972505
          -0.006867902510642315 -0.0013081627383340136 -0.00506253007493318 -0.0032929869369656972 -0.0011970242946207077 -0.0048769938446676445
          -0.002684607903755104 -0.0030632081684425633 -0.0030563116318437777 -0.0038178442940892485 -0.004278823203194414 0.0013954444293812623
          0.0021689568260894743 -0.00689158335382245 -0.0081344962475432 0.00010370865667636009 0.002177622313104366 -0.0025314413933258395
          -0.004252247505259377 -0.002760693616601695 -0.007868593556792314 -0.003147643953865171 -0.008334330756071928 -0.0048565409902110316
          -0.002870553738552245 -0.005778601338187823 -0.014203934844597144 -0.007584159121035388 -0.004273638265221924 -0.005397093362332232
          -0.009294379388674556 -0.00633987141018282 -0.0042414545566913965 -0.005438182426971583 -0.007239445547109036 -0.00719998885076667
          -0.012275634232733035 -0.0036472627781408695 -0.007312790339829067 -0.004318115586660176 0.0007668721233015374 -0.004629786675350023
          -0.0077959055748332284 -0.02164550008914734 0.0002499485868845044 -0.04155350129874252 -0.004570940877482915 -0.010719222899739589
          0.001180689997569817 -0.07260092206106572 0.03347913762837684 -0.05592222391041779 -0.029428666131970926 -0.007220848640524358
          0.020578834457378525 -0.10514852356393845 -0.05799215626764509 -0.012345654063276923 0.04752699882221034 -0.04308714192528984
          -0.029435925425268183 -0.00031344538510513775 0.026471058757162075 -0.00017274827115375258 -0.0006419047756591918 -0.000759381386671816
          -0.000021237275073481693 -0.0005304693922311421 -0.0010813967715540274 -0.0010945920126467258 -0.0006431302427719957 -0.000282356539927725
          0.000600160359884333 0.0010093117153053 -0.0014396450713979238 -0.00042382523026346375 0.0008094163222245321 -0.0005367139222930972
          0.0022385326685852025 -0.000642680015364161 0.0007122093426031456 -0.0041188218121688824 -0.006006291883838 -0.009632577859694014
          -0.007315913568618659 -0.0014097547104632846 -0.01082212304308372 -0.002921289164885821 -0.004464556779137124 0.002036642053114046
          -0.002912191820352905 -0.006762988984955309 -0.0021746232091323092 -0.007933397938358067 -0.01665255279420008 -0.0037935758057602367
          0.003217066311997044 -0.003931016108186136 0.000650090965172101 0.0015763983302590212 0.006735396245622083 0.016304951410360813
          0.003603385266782083 0.005662657252496872 0.016739338210790766 0.030989967448215028 0.012492921930192233 0.006057954719222658
          0.01580032234270931 0.029355927351005562 0.011694781490409978 -0.0012206313134043856 -0.0036518144586063506 -0.002375359621809736
          -0.0019041845386356115 -0.005558547976492079 -0.0031406275755079954 -0.002319021566120044 -0.005905095284265333 -0.0030789981158497286
          -0.0007556018713038883 -9.20536935566929e-8 -0.0032289094249879427 0.0005275451479525017 0.00008339494489173482 -0.00019025862789989745
          -0.003106582044620554 -0.00019975752818457426 -0.006879673541207998 -0.0070205933856434255 0.0007895127077880426 -0.0034587308726533594
          0.003962025316061268 -0.006271069287595854 0.007931836824089933 -0.014518038054948668 0.0036157050264551405 -0.00285486369130529
          -0.0016989952916750851 -0.0028288223328492013 -0.005236763110990861 -0.0016844053135504078 -0.00038189051975406896 -0.00318249824935396
          -0.008622013370585324 -0.0016863992810515517 0.00021055721211358375 -0.003317359866024744 -0.005918361244934389 -0.00037377810146071305
          0.0010428706847825653 0.00021028370703202182 -0.0051208691306826315 0.004094784923761419 -0.0005264388292399724 -0.011384918463807264
          0.00255472192730008 0.0007359848292799454 -0.006778881318740632 -0.001839138931088391 -0.0073389310255301266 -0.005353431504611983
          -0.012342468751658453 0.0024678135695091613 -0.0025743762053537234 -0.005847180553468334 -0.006559463729800208 -0.011533938026190071
          -0.01335559888944815 -0.00972136820213082 -0.009641703215418074 0.002920290355526489 -0.007166387636476618 0.006262114159253707
          -0.006472888601297522 0.0046448547471035495 -0.0006293980115666398 -0.004936952296352035 -0.0005424964789998432 -0.009913669644481427
          -0.0034656534997115074 -0.0021964339975309444 -0.0001581342402547925 -0.00033971896875414735 -0.0007635315510901349 -0.00015524794070818394
          -0.001062894264916861 -0.0020357711632632836 -0.0003799192685782146 -0.0005984434526295629 -0.0015538213748416824 -0.00011623136067958131
          0.0019503305560718553 -0.004371983670078627 -0.0033807877045480828 0.0029346546658959305 -0.008556892022212104 -0.008811641141181936
          0.005121325766395568 -0.0024602840597161 -0.003125271550179054 0.00012381587012172401 -0.000513209300038106 -0.0015150491901461116
          0.0005295362442772622 -0.0005962188768148524 -0.0020589708005435 -0.0030992419349947647 -0.004824730953959314 -0.00200321911510239
          -0.002797123772155116 -0.004067546857573133 -0.0027635120272436683 0.000038316469897546265 -0.0003184867737629424 -0.0018557064848290922
          -0.00052541114345875 -0.00019591329590345 -0.0007733457779931646 -0.0028456014298365445 -0.001776012376904102 -0.0002265186307811272
          -0.0002566040976616918 -0.0011747352937791847 -0.0011520662271882198 -0.0036443137972087328 0.0038397429191501242 -0.005026672674563637
          0.007631521643496564 -0.004194580867535547 -0.002329561531959179 0.00001023224446452392 -0.0005886190321630867 -0.0005892850043652254
          -0.0009560862922360878 -0.0003851138540253013 -0.0005596823461147017 -0.0022952439910937095 -0.010571420817956145 -0.005879075089972097
          -0.015813134783511318 -0.008638772548881013 -0.011471411593000136 -0.02530600288844914 0.025968464572961314 -0.04794423699002165
          0.0434716425195093 -0.0191699612222766 0.017205400968711815 -0.0068551020186456944 -0.011496331978569916 -0.004944267597692113
          -0.003515663563808946 -0.005947098026072295 0.0001677144593092983 -0.019240312528954195 -0.0060127214414685826 -0.028025838007003312
          -0.011793027737728945 -0.005255486813506405 -0.0011331096864645174 -0.0022692359655969163 -0.00412589994421321 -0.0030542330855928834
          -0.008096312555943327 -0.01583259168292162 -0.0050809259993811196 -0.0010478031630596232 -0.002243120168163401 -0.0013912920052267658
          -0.0029723810234217884 -0.008536583810181964 -0.0021661405722819826 0.0012621126619922346 0.016187772637468224 0.03234420209917255
          -0.003057304141030115 -0.014626314580502259 -0.005083180657735553 -0.003980464310568088 -0.012685806926338528 -0.009247126760475843
          -0.019894632652956188 -0.03902393371550508 -0.021935190248423057 -0.00519613749439482 -0.0098100205621858 -0.005141657754402555
          -0.002569041088368723 -0.005214251881263426 -0.0029545793326886706 -0.000927165056778487 -0.0018706985115622956 -0.0016812614242305082
          -0.0011376117142162245 -0.012787001862860858 -0.016593230751542898 -0.01682404422379763 -0.03318208486235988 -0.022862511191386437
          -0.002678884112893576 -0.011532489753055104 -0.013473620106282835 -0.010635341649741448 -0.019818324779769414 -0.008851706508698598
          -0.0035004748675963593 -0.003296301471277241 -0.006799445956832129 -0.0018204459926814964 0.0012253833080329013 -0.0022976857349876756
          0.0014628525643323176 0.009053197314364603 0.004904949044911344 0.006709030739205701 0.018892420150359746 0.012015045495130217
          0.002575141088249633 0.009638315683622833 0.001627277468937094 -0.0031456656775454284 -0.00012432318776478546 -0.00517860816982374
          0.00005390442169028731 -0.0015549178333720548 0.000836292506060432 -0.0021531884832616255 -0.009179308674476916 -0.015684585895032688
          -0.0057626430572235154 -0.005940952764290519 -0.02587964481128563 -0.023086604133890687 -0.011272122851557487 -0.004750353733247503
          -0.019711055835602398 -0.008191876328471348 -0.005476132477618356 0.009260849525056958 0.01616178611193081 0.006159085246890295
          -0.002117032879840719 -0.001261236249502029 -0.0021256844827961807 0.0023727348275423693 0.013210018397109557 0.012156859432334202
          -0.0035457570841289643 -0.0044680634111323725 -0.006654810925237703 -0.011936397729121473 -0.003261154008615444 -0.008788004823833129
          -0.008977852811185238 -0.020156051024274202 -0.012787281304268316 -0.00799243717920145 -0.01233827976034374 -0.007869136320823533
          0.0004518979752262675 0.002008115609290373 -0.0002107586137631845 -0.0002866333847263425 0.0023572178181525683 -0.00005572106250295583
          -0.000870827931618301 -0.0010678169197060328 -0.002558298106828172 -0.0024879431802504737 -0.004364467729347066 -0.010737191147735192
          -0.004364096395090833 -0.007230860646026738 -0.006930434058232127 0.0025664317288199845 -0.007112502981334395 -0.00518658964600649
          0.0008600752416512147 -0.011812060849421213 -0.0022837009466969427 -0.0035484589684673384 -0.005388219263015484 0.001380115315507302
        </DataArray>
        <DataArray type="Float64" Name="resid_z" format="ascii" RangeMin="0" RangeMax="0">
          0 0 0 0 0 0
          0 0 0 0 0 0
          0 0 0 0 0 0
          0 0 0 0 0 0
          0 0 0 0 0 0
          0 0 0 0 0 0
          0 0 0 0 0 0
          0 0 0 0 0 0
          0 0 0 0 0 0
          0 0 0 0 0 0
          0 0 0 0 0 0
          0 0 0 0 0 0
          0 0 0 0 0 0
          0 0 0 0 0 0
          0 0 0 0 0 0
          0 0 0 0 0 0
          0 0 0 0 0 0
          0 0 0 0 0 0
          0 0 0 0 0 0
          0 0 0 0 0 0
          0 0 0 0 0 0
          0 0 0 0 0 0
          0 0 0 0 0 0
          0 0 0 0 0 0
          0 0 0 0 0 0
          0 0 0 0 0 0
          0 0 0 0 0 0
          0 0 0 0 0 0
          0 0 0 0 0 0
          0 0 0 0 0 0
          0 0 0 0 0 0
          0 0 0 0 0 0
          0 0 0 0 0 0
          0 0 0 0 0 0
          0 0 0 0 0 0
          0 0 0 0 0 0
          0 0 0 0 0 0
          0 0 0 0 0 0
          0 0 0 0 0 0
          0 0 0 0 0 0
          0 0 0 0 0 0
          0 0 0 0 0 0
          0 0 0 0 0 0
          0 0 0 0 0 0
          0 0 0 0 0 0
          0 0 0 0 0 0
          0 0 0 0 0 0
          0 0 0 0 0 0
          0 0 0 0 0 0
          0 0 0 0 0 0
          0 0 0 0 0 0
          0 0 0 0 0 0
          0 0 0 0 0 0
          0 0 0 0 0 0
          0 0 0 0 0 0
          0 0 0 0 0 0
          0 0 0 0 0 0
          0 0 0 0 0 0
          0 0 0 0 0 0
          0 0 0 0 0 0
          0 0 0 0 0 0
          0 0 0 0 0 0
          0 0 0 0 0 0
          0 0 0 0 0 0
          0 0 0 0 0 0
          0 0 0 0 0 0
          0 0 0 0 0 0
          0 0 0 0 0 0
          0 0 0 0 0 0
          0 0 0 0 0 0
          0 0 0 0 0 0
          0 0 0 0 0 0
          0 0 0 0 0 0
          0 0 0 0 0 0
          0 0 0 0 0 0
          0 0 0 0 0 0
          0 0 0 0 0 0
          0 0 0 0 0 0
          0 0 0 0 0 0
          0 0 0 0 0 0
          0 0 0 0 0 0
          0 0 0 0 0 0
          0 0 0 0 0 0
          0 0 0 0 0 0
          0 0 0 0 0 0
          0 0 0 0 0 0
          0 0 0 0 0 0
          0 0 0 0 0 0
          0 0 0 0 0 0
          0 0 0 0 0 0
          0 0 0 0 0 0
          0 0 0 0 0 0
          0 0 0 0 0 0
          0 0 0 0 0 0
          0 0 0 0 0 0
          0 0 0 0 0 0
          0 0 0 0 0 0
          0 0 0 0 0 0
          0 0 0 0 0 0
          0 0 0 0 0 0
          0 0 0 0 0 0
          0 0 0 0 0 0
          0 0 0 0 0 0
          0 0 0 0 0 0
          0 0 0 0 0 0
          0 0 0 0 0 0
          0 0 0 0 0 0
          0 0 0 0 0 0
          0 0 0 0 0 0
          0 0 0 0 0 0
          0 0 0 0 0 0
          0 0 0 0 0 0
          0 0 0 0 0 0
          0 0 0 0 0 0
          0 0 0 0 0 0
          0 0 0 0 0 0
          0 0 0 0 0 0
          0 0 0 0 0 0
          0 0 0 0 0 0
          0 0 0 0 0 0
          0 0 0 0 0 0
          0 0 0 0 0 0
          0 0 0 0 0 0
          0 0 0 0 0 0
          0 0 0 0 0 0
          0 0 0 0 0 0
        </DataArray>
        <DataArray type="Float64" Name="stress_zz" format="ascii" RangeMin="-110926418.28778699" RangeMax="198497206.53335297">
          2276343.852893328 2791764.6238766294 1843779.8188339192 2252326.087540636 1411215.7847745104 1712887.5512046418
          2402410.392461321 2866187.311301619 1831318.5716414698 2103357.4905486996 1260226.750821619 1340527.6697957807
          527524.6561911751 835575.6457719428 543350.8014925313 655734.3121520093 559176.9467938875 475892.9785320759
          -2184890.8066647113 -2127834.3809642456 -1261608.1125059216 -1319762.3230553663 -338325.41834713187 -511690.2651464869
          -3347357.3924381617 -3522832.519279148 -2231825.941056397 -2410431.3312746827 -1116294.4896746327 -1298030.1432702176
          -2293660.7941780635 -2653183.6741216406 -1451210.9213462675 -1741859.1193509456 -608761.048514471 -830534.5645802508
          595546.6647616394 116197.04600517754 812882.3412020707 317922.7774693452 1030218.0176425022 519648.5089335129
          4614797.617953293 3208601.7359274365 3569471.567316707 1806916.944945393 2524145.516680121 405232.15396334935
          8629741.97654465 7919533.91308328 6410506.30742529 5757455.124855013 4191270.63830593 3595376.3366267444
          41608912.26004911 14317991.011663072 34886664.0012834 10398896.964766115 28164415.742517687 6479802.917869158
          1382555.314893715 1122587.130131268 862618.9453688207 1119796.486568457 1012861.798772452 905927.1109764474
          -263910.469326414 135647.27722893865 535205.0237842912 -2104803.14678612 -1158064.7671893653 -211326.38759261096
          -2743085.8081292342 -1779840.4784941503 -816595.1488590671 -1223700.562320223 -561949.129481135 99802.3033579528
          2126469.6377562364 2390142.8612206997 2653816.084685163 6335816.235218493 5993412.574888656 5651008.914558819
          9051815.473383106 7142673.040090012 5233530.6067969175 -932880.3231367692 -3325561.134015479 -5718241.944894193
          512432.3485158164 426789.11395182833 341145.8793878402 -501750.2085935876 -31193.711005644058 439362.78658229957
          -1102875.475864322 -330030.5411027166 442814.3936588887 -1643655.1629059352 -884986.9242234736 -126318.68554101203
          -1653035.605733335 -997502.0441266601 -341968.4825199852 556258.9742217566 971958.4875887546 1387658.0009557523
          4199308.116473234 4501665.630494969 4804023.144516703 6530312.38440958 6890891.482191688 7251470.579973796
          3639094.3957947986 2579445.1332357735 1519795.8706767485 -1987729.5713716894 -3030931.6095940336 -4074133.6478163777
          -1185514.414414668 -774352.9742953562 -363191.5341760442 -1607790.2982665533 -508587.8573047751 590614.5836570031
          -1540167.137655722 -249170.94788129794 1041825.2418931262 -1431252.2939467442 -566460.8058530842 298330.68224057584
          -444171.2991510472 -29629.569114523954 384912.1609219993 2596719.7163741253 2709197.1830142466 2821674.649654368
          6086246.2000831505 6362548.389534349 6638850.578985547 6034126.565236615 6944099.023025112 7854071.480813612
          -1359136.654213509 -2048048.9645080261 -2736961.2748025423 -4250469.904825262 -6359403.751178062 -8468337.59753086
          -3777399.246697387 -2315787.6726373765 -854176.0985773657 -3125588.4186873725 -1082011.4573981604 961565.5038910515
          -2475343.210385004 -598819.0365383738 1277705.1373082565 -1289349.6573819285 -437267.6747953064 414814.3077913158
          848489.4133136948 980420.1838117753 1112350.954309856 4242356.474177523 4077757.7145259934 3913158.9548744652
          7395613.148237574 7491280.124455929 7586947.100674284 5993181.018627734 6865451.14082294 7737721.263018147
          -2190548.0393008906 -3216228.9073884166 -4241909.775475944 -21360162.070305925 -24461763.15017161 -27563364.230037294
          -7203707.314290946 -4223186.434456192 -1242665.5546214364 -6485631.508078275 -2919517.6836233567 646596.1408315615
          -4782645.09224107 -2138751.8494620197 505141.39331703115 -1151024.3943544906 -371674.9659145468 407674.46252539667
          2052085.29434177 1970141.84707057 1888198.3997993702 5234353.527595686 4805726.879392579 4377100.231189473
          8239730.833896786 7901970.988021374 7564211.1421459615 6559978.253823117 6638022.887927705 6716067.522032296
          -2634047.209641203 -4419875.255520455 -6205703.301399706 -8053426.067985648 -13264207.826319577 -18474989.584653508
          -10287712.636163715 -6307736.804014518 -2327760.9718653196 -9286958.769062039 -5094552.6298682345 -902146.4906744288
          -5732958.982942844 -3118663.7081604428 -504368.4333780415 -632265.5300821194 -35621.918144138384 561021.6937938427
          2688324.7313520475 2469613.3647093577 2250901.9980666684 5724647.675060054 4983400.6244847365 4242153.57390942
          8592069.628935976 7666016.192216222 6739962.755496468 8248745.294823719 7152282.013952736 6055818.733081751
          1341098.400228009 -1166616.408282035 -3674331.2167920796 -2591319.3496833583 -5853538.541371738 -9115757.733060116
          -14156357.911487192 -12622069.56585586 -11087781.220224531 -7084937.674714305 -7108722.026136855 -7132506.377559405
          -645674.1886087155 -2734580.026357214 -4823485.864105712 2048365.143113474 -424788.7370055668 -2897942.617124608
          4264895.079830829 2302962.6719421213 341030.26405341254 6386281.615218426 5164024.869208522 3941768.123198618
          7370616.102300665 7394412.210744914 7418208.319189161 7931286.0269834045 9460574.72916558 10989863.431347761
          5058724.169415286 8141819.255560934 11224914.341706583 -5978008.112363584 71600.85726978257 6121209.8269031495
          2959906.921883547 -1718721.204596941 -6397349.331077429 3371966.280494479 -373626.86266949936 -4119220.0058334777
          4829560.777222149 2279525.6905074115 -270509.39620732644 5890542.604092845 4865510.752689142 3840478.901285439
          5432888.755586807 6511500.960224152 7590113.164861497 4655166.630119409 7960065.645811237 11264964.661503067
          9434611.008061165 15693736.60203677 21952862.196012378 4498187.629635438 11542580.237508764 18586972.845382087
          -9110788.023868212 -46189349.68515665 -33792300.19056123 -10823734.948181538 -12358031.820870083 -42529442.82484618
          -26666730.253035657 -11800971.61916286 -15605275.617871951 -38869535.96453572 -19541160.31551009 -12778208.290144183
          24212569.670593955 19982228.35427327 14825686.21310381 14217277.868097847 5438802.755613668 8452327.38192242
          24187948.60573313 51766859.43172005 64557739.10154425 15772657.216454694 34270292.702142246 48818476.74729986
          7357365.827176261 16773725.97256444 33079214.39305547 26701406.839867823 13485597.13349973 87168598.47832698
          26727698.817603406 22529051.86143258 10632111.848983249 77128969.70943953 22120473.3097066 18356696.88299734
          7778626.564466767 67089340.940552086 17513247.8018098 -17310714.207763046 -39796890.13648668 -49344286.907440156
          -47772142.390700705 -9934402.624367554 -28167529.679931153 -28147289.295544833 -23312698.524129383 -2558091.040972054
          -16538169.22337563 -6950291.683649503 1146745.3424419388 11036278.27225231 4557635.898072282 51229607.63649587
          13021979.739729645 11915315.251521468 2619353.2370718224 47088899.1042391 12317257.87341197 12794352.23079062
          681070.576071363 42948190.57198234 11612536.007094296 -25556222.595678985 29561558.30340928 -9561134.951575719
          -21991769.962765377 -21015556.285639826 35932684.632147215 -5452185.434982331 -17106394.6672391 -16474889.975600667
          42303810.96088515 -1343235.9183889418 -12221019.37171283 -659134.9699405804 -2000817.463937528 6963927.895099251
          -3715404.6404096247 14586990.760139083 -5429991.81688172 39678812.05229503 5866527.025304748 38014674.649673834
          -310340.22356222104 36350537.24705265 -6487207.472429193 -18684901.18358401 24021130.548118725 37252970.95536559
          -78300980.99965219 -10939721.359380718 15371725.260208417 9906120.181153148 -58771265.16796409 -3194541.5351774283
          6722319.972298109 -17440730.593059298 -39241549.336275995 46002440.232827 63211213.59893973 23433695.95865258
          5650907.3698582575 34363723.96556167 55316577.68596609 19393606.37092572 -123253.98224380892 22725007.698296353
          47421941.77299246 15353516.783198867 -5897415.334345882 -98166958.51712368 -59240453.50720687 -91414801.7363435
          -57080602.3754196 -84662644.95556335 -54920751.24363234 -24517482.65033195 -10131202.197074573 -2600685.7260244195
          -4447093.847814659 -21246991.76257926 -6999826.048262328 -1686488.368862535 -5194620.512504691 -17976500.874826565
          -3868449.899450089 -772291.0117006497 -5942147.177194722 101365092.1538374 198497206.53335297 41303236.30007952
          36239997.96042089 76571625.81067716 172299428.95229483 38699617.44591871 28077222.2375473 51778159.46751691
          146101651.37123674 36095998.59175789 19914446.51467372 95228309.93354888 80145557.96826945 74285190.27846803
          99674154.98364514 51496412.037187256 39026882.474447645 48359058.81308309 65749706.46666175 7764514.140825634
          -2091793.01937416 22432927.347698145 31825257.94967836 33220320.121109884 -14343669.300129006 42927808.3517193
          -7215963.7518431805 52635296.58232871 -88258.20355735905 6731284.785353926 6216007.573717697 5700730.362081467
          -43909525.24761918 -60659777.13730326 -29241797.841849156 -53351486.04383029 -14574070.436079124 -46043194.950357325
          -57732112.1486633 -67917894.36233124 -58182744.33683088 -39764913.45864352 -54592573.72248179 -52590118.60209184
          -21797714.76862374 -41267253.08263234 -46997492.86735282 -15012173.287028626 -3939521.2752644112 54714473.22684511
          36054130.454497285 -40483398.872119494 -37588601.05999449 51072839.47078209 28798476.44586939 -65954624.45721036
          -71237680.84472457 47431205.71471908 21542822.437241495 17097193.082810402 2372511.4767209217 16988368.98461082
          13682761.44930708 -2008955.307936225 11481166.64575853 10268329.815803755 -6390422.092593371 5973964.306906242
          8147121.256430758 -12566373.926048512 14861702.721975857 -16975230.587352403 21576284.18752096 -21384087.248656295
          -68500244.72038104 -23912191.290608924 -39672725.68683573 -11074483.343476698 -10845206.653290411 1763224.603655527
          -47342287.257943206 -44724385.24286891 -24912321.03723378 -36639905.0549255 -2482354.8165243557 -28555424.866982102
          66963207.3835848 85827860.8398803 74065632.25160503 58484354.61165723 65775135.518198654 82148763.38065623
          69489097.3097052 55658089.64574318 64587063.652812526 78469665.92143215 64912562.36780538 52831824.67982912
          -8259668.148843334 24938731.60862378 14145887.336592063 -5826371.011405043 17733494.4508192 7426605.001951186
          -3393073.8739667563 10528257.293014623 707322.6673103049 -30826716.48644016 -32317281.853073746 -25628433.01181224
          -20994520.576018248 -20430149.53718432 -9671759.298962759 3766091.5178843597 5050362.652754025 5943392.964012333
          5773228.808058042 8120694.410140303 6496094.9633620605 -29610138.919751782 -34361065.88314632 -26965762.566352736
          -54531111.20110152 -24321386.212953687 -74701156.51905671 -22053344.519154266 -19584002.74189155 -21004684.942750636
          -9718713.580971904 -19956025.366347004 146575.5799477445 64792048.59855968 41169052.48857434 50662195.58421935
          41594570.189017035 26982380.730677664 33009954.58179839 18397091.779474393 12795708.972780986 15357713.579377422
          -9551918.902589038 -9438791.032135576 11958892.236579876 -6479519.161845157 -3108942.171082766 27436477.996346064
          -3407119.4211012777 3220906.689970044 42914063.75611225 -9215628.84846882 -9451546.31966941 -48103089.35196238
          -7329099.689634805 -1755669.19981791 -40634638.430115685 -5442570.530800788 5940207.920033598 -33166187.508268982
          -3071431.8417115435 4062192.9396791644 11195817.72106988 28004974.246072568 23142507.537185032 15007365.525434071
          16046266.27435821 17020093.922636323 14541360.50140353 8581288.36655717 7514724.153983125 6035213.599200077
          5940213.46562203 2155211.2076802664 -1016817.9663919592 44960179.580143824 -18740175.311781958 44496631.9299821
          -18368560.070572365 44033084.27982039 -17996944.82936278 32373145.769310787 39273238.72493929 21098178.36810291
          24787121.003608756 9823210.966895035 10301003.282278225 61514184.628521144 -56160332.59234278 54169783.17778719
          -48282766.548925996 46825381.72705325 -40405200.50550922 107188461.87777984 -100538408.698036 100729786.89825554
          -90800461.05697341 94271111.91873121 -81062513.41591084 14529579.33409578 10145307.855483336 5761036.376870895
          -8698078.73626598 -5246497.177313909 -1794915.6183618375 48608899.762289 107688780.92923547 59726104.69660968
          114734168.11736935 70843309.63093038 121779555.30550323 -5653353.997532047 9864464.820797687 25382283.639127422
          -80000052.21490233 -50955151.65530085 -21910251.09569939 83560838.40899333 57788589.66377097 32016340.918548606
          -27906234.30152552 -20223068.20172387 -12539902.101922221 6381588.773922086 2950764.386596327 -480060.00072943233
          -110926418.28778699 -88712632.0217773 -66498845.75576762 72819315.8162279 72368702.90042844 71918089.98462899
          126871066.70031913 110471508.7020638 94071950.70380849 -14600481.406024458 -22459979.6402174 -30319477.87441034
          11051822.031446848 5422248.8615374975 -207324.3083718517 84563841.85440029 40764271.428631924 -3035298.9971364457
          2982481.181122551 2993420.8378680157 3004360.4946134803 4911625.346882803 6087399.117298782 7263172.887714761
          3788861.2831840147 3879463.0876112436 3970064.8920384725 4174724.301616372 5068551.782159327 5962379.262702282
          4072610.9157741466 4239086.172197699 4405561.428621251 3004936.255052605 3283346.079863296 3561755.9046739866
          1820244.6869318285 1358495.2492093043 896745.8114867797 3852869.5108302915 3274512.7110368987 2696155.911243505
          6324746.081745473 5681276.41730803 5037806.752870585 -4458628.537784968 -10098539.819904957 -8016616.424138364
          -12876332.93438109 -11574604.310491761 -15654126.04885722 -86024.72947712988 3595071.033789158 1818912.006096352
          -4523086.425419267 -1070149.5140010554 2304719.358361489 2855995.327744655 -4803603.900530318 -2054274.2985249804
          1014367.68293382 3893078.6493929573 -5084121.375641368 2691674.71248758 1659320.4146795396 626966.1168714995
          6033039.342184671 5781373.3018325595 5529707.261480447 6512605.612415632 5206174.745694866 3899743.8789740996
          3720124.6501867743 5784689.384621937 3624567.8550032615 5651481.93358675 3529011.0598197477 5518274.482551563
          2483058.900510383 2931100.2002382604 3379141.499966138 367304.4461001707 290595.22939871845 213886.0126972663
          -674169.61407149 -871672.9992421789 -1069176.384412868 -4875492.998147764 -6540525.645283185 -8205558.292418607
          -8212982.449783711 -10678244.380991068 -13143506.312198427 3241627.4117198875 2852470.3253115946 2463313.2389033027
          10379905.526594298 10456342.075419426 10532778.624244556 1682535.575030705 7098385.87909099 525748.5655225143
          1681446.212567754 5685593.381827142 251607.28157967376 1680356.8501048018 4272800.884563293 -22534.002363167005
        </DataArray>
        <DataArray type="Float64" Name="peeq" format="ascii" RangeMin="0" RangeMax="0.1132890570239787">
          0.0003560731346930279 0.00033760291699491717 0.0003840525363189201 0.00036321118985810054 0.0004120319379448124 0.00038881946272128386
          0.00035164031853838584 0.00031410966980314245 0.00040037770417732614 0.0003597844449998056 0.00044911508981626644 0.00040545922019646875
          0.0005712879020251625 0.0005018083062521748 0.0006501978055079333 0.0005777600357869347 0.0007291077089907041 0.0006537117653216947
          0.0013003182749703886 0.0011912595659457092 0.001415768695522016 0.001305318984156362 0.0015312191160736434 0.001419378402367015
          0.0029688034043598233 0.002830523046515737 0.0031059972677153205 0.002970773712837212 0.0032431911310708173 0.0031110243791586866
          0.006028881927608346 0.005892972697619246 0.006136420021654536 0.006006514361944809 0.006243958115700722 0.0061200560262703735
          0.010890358146024744 0.010801697374641171 0.010890287451911031 0.010804387447358057 0.010890216757797319 0.010807077520074943
          0.018066195441389595 0.018086849661867445 0.017867149812938514 0.01788126329358009 0.017668104184487436 0.01767567692529273
          0.029450404578780558 0.0298816060785388 0.028920263519870412 0.0293195327200805 0.02839012246096027 0.028757459361622204
          0.04453290281268636 0.0436967835852934 0.043525779141612916 0.04276131781453396 0.04251865547053947 0.041825852043774515
          0.0004187797344018434 0.00045489861055081446 0.0004910174866997856 0.0004714953887559604 0.0005295014477734601 0.0005875075067909597
          0.0007868985044987598 0.0008730499070408733 0.0009592013095829869 0.001632430664241452 0.0017481780135184546 0.001863925362795457
          0.0033809070805491874 0.0035072006844498343 0.0036334942883504808 0.006427568543750599 0.006518104199786424 0.006608639855822248
          0.011148734567750925 0.011140523583052184 0.011132312598353445 0.017991770520461876 0.01781207204327435 0.017632373566086823
          0.028222503967422208 0.027778520152335985 0.02733453633724976 0.03969065648336949 0.03893031416050531 0.03816997183764114
          0.0005416222051759417 0.0005930374115791636 0.0006444526179823854 0.0006954398280089191 0.0007690056727235328 0.0008425715174381467
          0.0011673276365163831 0.0012634454946124042 0.0013595633527084252 0.002193359061129914 0.002305349769446532 0.00241734047776315
          0.004054033887339861 0.004160550874634551 0.004267067861929242 0.007062066584761986 0.007126644721102846 0.007191222857443707
          0.011543779337898293 0.011523550029033307 0.011503320720168322 0.01783544060110273 0.017685193875538213 0.017534947149973695
          0.026347475949794683 0.026032082677510206 0.025716689405225732 0.03520439132254789 0.034798798323040794 0.034393205323533675
          0.000747361129652666 0.0008187851175628605 0.0008902091054730552 0.0010579451973017936 0.0011490170635599698 0.0012400889298181457
          0.0017376102416897302 0.0018418413193069137 0.0019460723969240968 0.002980433987514571 0.0030825988058864762 0.0031847636242583817
          0.0049594549580387216 0.005037043239696441 0.005114631521354161 0.007883683547183825 0.007915499668883025 0.007947315790582225
          0.012013423941621894 0.011980895452994836 0.011948366964367777 0.01754376236669331 0.017429575868393797 0.017315389370094286
          0.024101333508472433 0.023932581951765595 0.023763830395058756 0.028542840566570162 0.028448561347170134 0.02835428212777011
          0.001075188717829978 0.0011600938069736767 0.0012449988961173758 0.0015946755852513956 0.0016915854581588316 0.0017884953310662681
          0.002520235359826384 0.0026153402226818403 0.0027104450855372966 0.003988041903486157 0.004061468220003792 0.0041348945365214254
          0.006053583322345937 0.006089739014508098 0.006125894706670258 0.008821656053442409 0.008817509531211179 0.008813363008979946
          0.012474226364703623 0.01243344736597232 0.012392668367241018 0.017058879012478646 0.016988836311254217 0.016918793610029795
          0.02170849877335691 0.021679293991195333 0.021650089209033756 0.023852685789828774 0.024003422183755015 0.02415415857768126
          0.0015747987088662277 0.0016471374163037778 0.0017194761237413281 0.002344319115197271 0.002413915725295312 0.002483512335393353
          0.003533872995758692 0.003584992685270399 0.0036361123747821055 0.0051950137604578105 0.00521152198835787 0.005228030216257928
          0.007273926432100859 0.007255603744404093 0.007237281056707327 0.009791021868031092 0.00975266478077149 0.009714307693511887
          0.01283455028639911 0.012796219648282117 0.012757889010165125 0.016333008867803565 0.016322871006272686 0.01631273314474181
          0.019204692480584963 0.01931675815945696 0.01942882383832896 0.01976349155526475 0.020120301609637514 0.02047711166401028
          0.0022996968613311656 0.002310161447600395 0.002320626033869625 0.0033531726388898743 0.0033419410493406025 0.0033307094597913303
          0.004790907545470058 0.004752674696112428 0.004714441846754798 0.006557216884740808 0.00648973645107522 0.006422256017409634
          0.008541925393196516 0.008461138304796504 0.008380351216396492 0.010701773351388857 0.010637315848245558 0.010572858345102262
          0.013011066877769062 0.01299569281756402 0.012980318757358974 0.015319830400148908 0.015396358062370524 0.015472885724592138
          0.016634929050322142 0.016897883359468333 0.017160837668614527 0.0160135962630504 0.016527582068939138 0.017041567874827877
          0.0032459816593596803 0.003199032554033096 0.0031520834487065116 0.004603726660126044 0.0045203665207686405 0.004437006381411237
          0.006231956110424324 0.0061174148319471195 0.006002873553469916 0.007984409904142927 0.00785618285221469 0.007727955800286452
          0.00976249808942347 0.009646140099119967 0.00952978210881646 0.011462581624022201 0.011392869487025482 0.01132315735002876
          0.01295260930444719 0.01296782106217629 0.012983032819905389 0.014031867092776627 0.014178793407705885 0.014325719722635145
          0.01407059787415214 0.014408437157736946 0.014746276441321754 0.012808616879267628 0.013316748342647221 0.013824879806026816
          0.007538511821236291 0.007432654856779098 0.007326797892321904 0.009152570159606094 0.00904323683908731 0.008933903518568525
          0.01064325722079424 0.010551028961022797 0.010458800701251355 0.011860763013623233 0.011810126214658465 0.011759489415693698
          0.012612795604015513 0.012631610310801096 0.012650425017586677 0.012659658947970814 0.012779904380845477 0.01290014981372014
          0.011679675018253465 0.011920712951678666 0.012161750885103866 0.010182024114740763 0.01052006212444577 0.010858100134150776
          0.00002663751542958909 0.0003622696095546861 0.0003739647428738136 0.000016878278142389217 0.0005558682430696023 0.0018870676621167365
          0.0005697150242825641 0.00002001649829729637 0.0010850989707096156 0.0034118657146787867 0.0007654653056913146 0.00002315471845220352
          0 0 0.00012114051787522787 0 0.00024228103575045574 0
          0 0 0 0.0002824471731575967 0.00003733473050451098 0.00012099967038415829
          0.0005648943463151933 0.00007466946100902196 0.00024199934076831657 0.05864621021150196 0.053942495001117405 0.06790784714221663
          0.06822572544481062 0.05718708108802573 0.05298063838122865 0.06619344268033318 0.06625116562861755 0.055727951964549494
          0.052018781761339894 0.06447903821844973 0.06427660581242445 0.021073132601271104 0.013145902851283458 0.009444970194736613
          0.013049131526052696 0.024675911981619135 0.015730346467267904 0.012059911634597673 0.016152718371902772 0.02827869136196716
          0.018314790083252354 0.014674853074458732 0.01925630521775285 0.03526402785004235 0.035342309525299896 0.04211634933989344
          0.04086630474859216 0.035119752755112796 0.035417093862410216 0.04174980305278422 0.04040093963301839 0.034975477660183246
          0.03549187819952054 0.04138325676567501 0.03993557451744463 0.0177215747785306 0.0190457012894071 0.013733557250795387
          0.011875965994968108 0.018660923790338076 0.019765071227299865 0.014526419160433771 0.012821149531451284 0.019600272802145546
          0.02048444116519263 0.01531928107007215 0.013766333067934459 0.011046086403271002 0.013909977837516754 0.011610874678819254
          0.01457806203066808 0.012175662954367509 0.015246146223819406 0.047679243804918496 0.04420540286733154 0.04691600350530676
          0.04385487315199102 0.04615276320569502 0.043504343436650494 0.000007264178620147327 0 0
          0.0003878382649851594 0.0007295048124047797 0.00047844781729246906 0.0005565711305669099 0.0022906711822412817 0.001451745446189412
          0.0009568956345849381 0.0011131422611338198 0.004193504099497404 0.05424107889962158 0.05322866147296773 0.06322533228751029
          0.06035554110472948 0.05292627970461175 0.05184586303185573 0.061282805627517326 0.05868940066546665 0.05161148050960193
          0.05046306459074374 0.059340278967524376 0.0570232602262038 0.056263078446158965 0.07388429260826244 0.05516684649146907
          0.07182942470721777 0.05407061453677917 0.06977455680617309 0.0006529416465070725 0.0010961878934531255 0.0002830796661665252
          0.00010374132036472506 0.000822279712113606 0.0012460230207732965 0.00030764045396654 0.00011708420683271174 0.0009916177777201396
          0.0013958581480934674 0.0003322012417665548 0.00013042709330069843 0.10061721524731262 0.1132890570239787 0.10616083428200003
          0.09036644096752505 0.09842330299308766 0.1100308336486126 0.10283328492641908 0.08822168947353101 0.09622939073886266
          0.10677261027324653 0.09950573557083811 0.08607693797953697 0 0 0
          0 0.0007713887970630779 0.0007973612367663793 0.0005517357550557048 0.000511488572265624 0.0015427775941261558
          0.0015947224735327586 0.0011034715101114097 0.001022977144531248 0.02282904629575953 0.023250020350218035 0.023452724582665424
          0.024044165640162308 0.024076402869571318 0.024838310930106584 0.04837061470703483 0.047377766276436736 0.04638491784583865
          0.00026233375829051226 0.0009968889334579481 0.0027060949743606933 0.004995389561116766 0.005149856190430874 0.008993890188775583
          0.004810643066491817 0.005351715293547813 0.0017138616181110906 0.00878533353906637 0.008181120096440932 0.0038794131116028268
          0.012760024011640926 0.01101052489933405 0.006044964605094562 0.03189693496619391 0.030150967974499454 0.05175092565338907
          0.045136488695860115 0.03315706956326859 0.032580446560951236 0.0528176713678146 0.04502634488880658 0.03441720416034326
          0.03500992514740302 0.053884417082240135 0.044916201081753045 0.0679596621410869 0.07128745111427118 0.07570268646339477
          0.06566918784590797 0.06889779909696107 0.07289558275736574 0.06337871355072905 0.06650814707965097 0.07008847905133671
          0.010027227243674592 0.0175303590127959 0.010641875609326952 0.018140892607361778 0.01125652397497931 0.018751426201927657
          0.007761896300908218 0.009698320567771168 0.009257752422599054 0.011694181832829019 0.01075360854428989 0.01369004309788687
          0.01170884411342324 0.0062337356241694555 0.013231842006957139 0.0073058402191667334 0.014754839900491036 0.008377944814164012
          0.09384810256207562 0.09094435163270437 0.09941680309138085 0.101250152855975 0.08972357327428461 0.0872171102163523
          0.09557641388348209 0.09708895460716747 0.08559904398649361 0.08348986880000024 0.09173602467558332 0.09292775635835994
          0.028839970422458595 0.02991069603687237 0.036857915230147115 0.02929739694638107 0.030742716728029924 0.037189489844451314
          0.02975482347030355 0.031574737419187475 0.03752106445875551 0.0020211453544168923 0.0012605493552690552 0.0025330922193371676
          0.0017670702240891775 0.0030450390842574433 0.0022735910929092998 0.02777515803409899 0.021956037942373854 0.02800782060799632
          0.02238953392858956 0.02824048318189365 0.02282302991480526 0.01906618791397863 0.023316255626238628 0.02031079171378149
          0.025203421960613738 0.021555395513584347 0.02709058829498885 0.011542967504390681 0.006659504461201669 0.012711889590080341
          0.007414907627839773 0.013880811675770004 0.008170310794477874 0 0 0
          0.000005681076951731729 0 0 0.000011362153903463459 0 0
          0.006431673440924497 0.003707064228360272 0.007502524284067512 0.006824967627164573 0.004031104666742897 0.00811339674182572
          0.00721826181340465 0.0043551451051255215 0.008724269199583929 0.07804198962107727 0.08463022375523424 0.08486118023991668
          0.07517790470872583 0.08126099265857817 0.08135597551171703 0.0723138197963744 0.0778917615619221 0.07785077078351739
          0.08832896315561872 0.08459291214539476 0.0808568611351708 0 0 0
          0 0 0 0 0 0
          0 0 0 0.0776908123539092 0.08543717025169174 0.07508586913939999
          0.08236909845975994 0.07248092592489078 0.07930102666782814 0 0 0
          0 0 0 0.10850515849446755 0.09261948421098402 0.10489593922007577
          0.08944557846463815 0.10128671994568396 0.08627167271829225 0.06576830209340982 0.07741948687746289 0.06456620435089315
          0.0770900886137192 0.06336410660837648 0.07676069034997551 0 0 0
          0.008550055919166709 0.008942994745788326 0.009335933572409945 0.04101693923853316 0.02493763243063482 0.04454414806173748
          0.028926246953660275 0.048071356884941796 0.03291486147668573 0.010117194470544875 0.010912182187356246 0.011707169904167617
          0.003169362049742765 0.0059007497635005565 0.008632137477258347 0 0.000005681076951731729 0.000011362153903463459
          0.002872063244663298 0.003315482358949991 0.0037589014732366845 0.000003439796422329431 0.0000044576331958145 0.000005475469969299569
          0.003704832619075383 0.005970039477552458 0.008235246336029534 0.06903647679665104 0.07040127980960308 0.07176608282255513
          0.11173995558894037 0.10800227201339 0.10426458843783962 0.05346102031284794 0.05228162006001254 0.051102219807177135
          0 0 0 0 0.0005198004495949076 0.0010396008991898152
          0.009820397080576028 0.009774049917303414 0.009727702754030803 0.010093927503492745 0.010088599707924785 0.010083271912356823
          0.010958157633257231 0.010919853010230064 0.0108815483872029 0.010791621153469962 0.010787653382345644 0.010783685611221328
          0.011720000113695957 0.011699146286567949 0.011678292459439939 0.011890432821498565 0.011898126680265173 0.011905820539031777
          0.011218250405715932 0.01126718705258975 0.01131612369946357 0.009430805716792553 0.009523037662783134 0.009615269608773716
          0.006566477148019658 0.006696954924881715 0.006827432701743771 0.006435080976428296 0.004323270008763169 0.006687031229241893
          0.004518269602345745 0.006938981482055492 0.004713269195928321 0.0016847975728220069 0.0007079190897849215 0.0006870017537097739
          0.002222746960200293 0.0017088654582627736 0.0007109229343224145 0.0007169827846311997 0.0023222978523895483 0.0017329333437035399
          0.0007139267788599076 0.0007469638155526253 0.0024218487445788043 0.000058674651809512276 0.000060593390856622405 0.00006251212990373252
          0.003178701690667921 0.0032368358094737267 0.003294969928279534 0.00021162183716344918 0.0002101812794851901 0.00020874072180693102
          0.010160808476119339 0.009969356390726797 0.010161198278653718 0.009968166904423731 0.010161588081188097 0.009966977418120665
          0.011047627556303072 0.011046757482949109 0.011045887409595143 0.009870099380292825 0.009872715741252367 0.00987533210221191
          0.010657867454432729 0.010663019383549893 0.010668171312667056 0.00940223928176815 0.0094181836936941 0.00943412810562005
          0.00713313662853095 0.0071573835693119515 0.007181630510092953 0.004348887187202385 0.004366702115211231 0.004384517043220078
          0.0020343915342778706 0.0020433778248506486 0.0020523641154234266 0.0001729230022066144 0.0006837225619387024 0.0005931210732088994
          0.00017890261762600586 0.0006846251037628502 0.0006004264186914497 0.0001848822330453973 0.0006855276455869982 0.0006077317641739998
        </DataArray>
        <DataArray type="Float64" Name="pe11" format="ascii" RangeMin="-0.0008463568955065971" RangeMax="0.10953665171022575">
          0.0003557969871378098 0.00033738055281677627 0.0003838405877316009 0.0003630434159970087 0.000411884188325392 0.00038870627917724117
          0.00035123411110681165 0.0003139578723501688 0.00039976211806417835 0.0003594395619687301 0.00044829012502154515 0.0004049212515872915
          0.000568816645025837 0.0005004118000832749 0.0006457462935531614 0.0005744760600536839 0.0007226759420804856 0.0006485403200240928
          0.0012842139158734504 0.001177767206644449 0.001391556771508759 0.0012837242142985685 0.0014988996271440675 0.0013896812219526876
          0.002899934549800296 0.0027648241473709223 0.003018382073292559 0.002885869128127727 0.0031368295967848223 0.003006914108884532
          0.005822644653971029 0.005686524725003007 0.005903678303661385 0.005772730787741258 0.005984711953351741 0.0058589368504795075
          0.010414267087501613 0.010314970054602069 0.010390222412042883 0.010293093573236007 0.010366177736584156 0.010271217091869945
          0.017131199096800987 0.017115247462065202 0.016917782621155116 0.016894102690365544 0.016704366145509252 0.01667295791866588
          0.027604796180982896 0.027909734984619357 0.027058423656968138 0.027330675743643815 0.026512051132953365 0.026751616502668274
          0.04157064889454325 0.04053233401303782 0.040496755919633434 0.039516141754060194 0.039422862944723615 0.03849994949508258
          0.0004182781078777434 0.00045447771245390534 0.0004906773170300673 0.0004700293238204438 0.0005277529832865934 0.000585476642752743
          0.0007805412328174528 0.000864502535823514 0.0009484638388295751 0.0016079152065452905 0.0017156655960940523 0.0018234159856428138
          0.003302354922452666 0.003411212906502734 0.003520070890552802 0.0062216902554964185 0.00628795309727937 0.00635421593906232
          0.010703537933900378 0.01067295797185093 0.010642378009801482 0.017156796661286833 0.016964852568801293 0.01677290847631575
          0.026678637948459365 0.026225869351399263 0.02577310075433916 0.037262420446705455 0.036512110585663116 0.035761800724620776
          0.0005404604172007284 0.0005919138836178752 0.000643367350035022 0.0006911829850575357 0.0007642553622405318 0.000837327739423528
          0.0011527872780198126 0.001246426746890622 0.001340066215761431 0.0021536439571785753 0.0022579637143525138 0.002362283471526452
          0.0039592078910374385 0.004050204784313994 0.00414120167759055 0.0068561368681432045 0.006899449098333713 0.0069427613285242195
          0.01114580322742952 0.011105285537485783 0.011064767847542048 0.017141814253014868 0.016980895120094874 0.01681997598717488
          0.02515882450334525 0.024846447128043965 0.024534069752742686 0.03328337833644437 0.032920918654998355 0.03255845897355234
          0.0007443981395748749 0.000815621720235409 0.0008868453008959429 0.00104757879298234 0.001137709440473648 0.001227840087964956
          0.0017090398679790405 0.001810373412400493 0.0019117069568219455 0.0029185719404108885 0.0030135184571902715 0.0031084649739696545
          0.004842853188522878 0.004907094288954676 0.004971335389386474 0.0076775548674906345 0.007691257941677997 0.007704961015865359
          0.011671949393661745 0.01162114317450444 0.011570336955347139 0.017009240345894044 0.016885670585795785 0.016762100825697523
          0.02327028622852699 0.023111649420157886 0.02295301261178878 0.02730721928204579 0.02725952679218915 0.027211834302332503
          0.0010676930696697211 0.001151964877229967 0.0012362366847902127 0.0015725988306980613 0.0016681083382878343 0.0017636178458776076
          0.0024702758287817378 0.0025623680605056285 0.0026544602922295196 0.0038976415494429593 0.003964768306478881 0.0040318950635148025
          0.005912121063435144 0.005937315167414758 0.005962509271394371 0.008616770227481106 0.008597464037713314 0.008578157847945522
          0.012192562543618201 0.012135396413869265 0.012078230284120332 0.016679953322050446 0.016601491836474205 0.016523030350897965
          0.021186744528590557 0.021170091112361077 0.0211534376961316 0.023063369585510432 0.023250271367163382 0.023437173148816336
          0.0015566289593842023 0.001628483172413936 0.0017003373854436702 0.0023013938396077662 0.0023702310942048366 0.0024390683488019075
          0.0034534915154128595 0.0035028583063327788 0.003552225097252698 0.005070827185373943 0.005083144526369381 0.005095461867364818
          0.0071079914676644386 0.007081601221328099 0.0070552109749917585 0.009591382948493926 0.009540628171658039 0.009489873394822154
          0.012613204478099181 0.012560257048316478 0.012507309618533769 0.016090498041534316 0.016071992487799096 0.016053486934063877
          0.01890000600456096 0.01902244544574544 0.01914488488692992 0.019241699060748182 0.01962420437742434 0.0200067096941005
          0.0022588982097488833 0.002271028712164703 0.0022831592145805225 0.003275522118258738 0.0032665005602437046 0.003257479002228671
          0.004669367196672273 0.004632662943758682 0.004595958690845093 0.006395826024860069 0.006327622413257255 0.006259418801654441
          0.008355972432645433 0.00827052169610568 0.008185070959565926 0.010514693927933623 0.010440415266544044 0.010366136605154463
          0.012848673271523812 0.012819841531968166 0.012791009792412518 0.015184385262099167 0.01525122308111313 0.01531806090012709
          0.01646059646503279 0.01672752099133064 0.01699444551762849 0.015634392793416288 0.016159550463126778 0.016684708132837265
          0.0031697712048711743 0.003121457329422759 0.0030731434539743433 0.004479557573048874 0.0043952385955964585 0.004310919618144044
          0.006063155146085592 0.005947817778932446 0.005832480411779298 0.007788359434970764 0.00765860974089377 0.007528860046816776
          0.009566317813006823 0.009446204200426488 0.009326090587846152 0.011298417724332613 0.011220800169724328 0.011143182615116046
          0.01284541174379348 0.012848040261586802 0.012850668779380126 0.013967030485479738 0.01410021265797895 0.014233394830478162
          0.01391921389524582 0.014252285788580218 0.014585357681914619 0.012353577673133666 0.012864380362552068 0.013375183051970468
          0.007377899039322182 0.007269329361930775 0.007160759684539368 0.008987450214594907 0.008875790641009197 0.008764131067423485
          0.010500610801411996 0.010405744262599027 0.010310877723786062 0.01176411261270088 0.011709518155161228 0.011654923697621576
          0.012564183354500314 0.012577125672742781 0.012590067990985252 0.01261007803190189 0.012723409438873557 0.012836740845845226
          0.011471125019682324 0.011709928216278866 0.01194873141287541 0.009602134551688372 0.00994211403024381 0.010282093508799245
          0.000023177350254633797 0.00032965916468185533 0.0003442466268463366 0.00001577342309566586 0.00005512110972353739 0.00017183622939367913
          0.00044457419843183367 0.00001737031779202193 0.00008706486919244098 0.000014013294105502921 0.0005449017700173307 0.000018967212488377998
          0 0 -0.00002158996129882732 0 -0.00004317992259765464 0
          0 0 0 0.0000948709266930053 -0.000009238042302153622 0.0000132879017036643
          0.0001897418533860106 -0.000018476084604307244 0.0000265758034073286 0.05595622157482453 0.05069668081337606 0.06493056368178594
          0.06578080576857971 0.054364929391216565 0.04980645358727538 0.06311473990794822 0.06361409540566837 0.052773637207608595
          0.0489162263611747 0.06129891613411048 0.061447385042757034 0.014584637982500042 0.008814052523085713 0.003204609357508448
          0.00725242014462502 0.016350364558717547 0.009586039704951664 0.0041376521557918 0.00885905983341741 0.018116091134935047
          0.010358026886817612 0.005070694954075151 0.010465699522209798 0.03342687474055246 0.033309244681622684 0.03944227724752919
          0.03842244571968543 0.03336014517854769 0.03350721550256796 0.03922893786888839 0.038043372950464435 0.03329341561654291
          0.03370518632351323 0.03901559849024761 0.037664300181243435 0.016243308931054672 0.017976646312507692 0.012621933882458214
          0.010382814746774948 0.017167293520864647 0.018702785802933733 0.013381606135714019 0.01125981344831481 0.018091278110674625
          0.019428925293359774 0.014141278388969825 0.01213681214985467 0.010296982005118558 0.013306009541852466 0.01085162717348304
          0.013977606269823589 0.011406272341847525 0.01464920299779471 0.0447462628450467 0.041049405453762323 0.04412894377897402
          0.04098983547679847 0.04351162471290134 0.04093026549983462 0.000002093724252211602 0 0
          0.00003379495165970989 0.00008097483127590483 0.00022556475586564333 0.00012211538383422605 -0.00040628097192344355 0.00015985593829959807
          0.00045112951173128667 0.0002442307676684521 -0.0008463568955065971 0.05113335092614632 0.050301637998406354 0.06105225990754624
          0.05792421769255555 0.049640215739140424 0.04880745555736549 0.05888233702190301 0.05600542367685928 0.04814708055213454
          0.04731327311632463 0.05671241413625977 0.05408662966116301 0.05179286907438362 0.06991499147401449 0.050964985311387635
          0.06806288054364687 0.05013710154839165 0.06621076961327924 0.0005891570118145159 0.001016830952746344 0.0002628942557972079
          0.00009650140709636049 0.000695174515762914 0.0011253081629737879 0.0002802440637393157 0.00010507105597090094 0.0008011920197113122
          0.0012337853732012312 0.00029759387168142346 0.0001136407048454414 0.08572048265271015 0.10749717033625694 0.10195328985849192
          0.0810410908228347 0.08438733122865869 0.10425327956686048 0.09852640125294522 0.07956247592544725 0.08305417980460719
          0.10100938879746403 0.09509951264739852 0.07808386102805984 0 0 0
          0 -0.00021245069722081568 -0.00001755962430474263 0.00003208647552298532 -0.00016699019772936695 -0.00042490139444163137
          -0.00003511924860948526 0.00006417295104597064 -0.0003339803954587339 0.02176656459181098 0.02180210231608284 0.022434422895483395
          0.022628827182742832 0.023102281199155805 0.023455552049402827 0.04555173342849996 0.044581512181615775 0.04361129093473158
          0.00012662364802025234 0.0006548189277626237 0.00018680468624643557 0.00024196603813136672 0.00024698572447261885 -0.00017088685149989021
          0.0012857294251806886 0.0032008961398559852 0.001379666363541312 0.001277097250925631 0.003188697740704987 0.0012779640946609543
          0.0012684650766705734 0.0031764993415539884 0.001176261825780596 0.028399626813133003 0.024425380212378545 0.04086494397403266
          0.04010678121907483 0.029790330547819134 0.026091178231884678 0.04208291712930926 0.04058126175184401 0.031181034282505266
          0.027756976251390807 0.04330089028458585 0.04105574228461319 0.06629401641874333 0.06948632456212764 0.07429919230291417
          0.06371198141265876 0.06678748193103531 0.07115824833609667 0.06112994640657419 0.06408863929994296 0.06801730436927915
          0.009167332812232584 0.016772385456992844 0.009744526215384401 0.017401669309830538 0.010321719618536217 0.018030953162668235
          0.0011376749089708228 0.0037051492336272404 0.002674808319143901 0.005088096592745163 0.004211941729316979 0.006471043951863085
          0.009282824110975372 0.005065461019335474 0.010388028354620068 0.005844642810605024 0.011493232598264763 0.006623824601874574
          0.09246749811881827 0.08946724638686404 0.09762746971546833 0.09947219417448358 0.08805979485111551 0.08550974530827157
          0.0934310753250895 0.09500252048590013 0.08365209158341275 0.08155224422967909 0.08923468093471068 0.09053284679731671
          0.027184245614677853 0.02747557305199127 0.034243986996765806 0.02777492186196719 0.028482272478719702 0.034817192772344
          0.028365598109256533 0.029488971905448136 0.03539039854792219 0.0017232448640222956 0.001102885901676802 0.0020668525411423598
          0.001394165576094556 0.0024104602182624234 0.0016854452505123102 0.026485846122109635 0.02100652634181492 0.026803295343456546
          0.02147913888100601 0.027120744564803456 0.02195175142019709 0.01674472157184853 0.01945628624441581 0.017860059296384453
          0.020856970948751566 0.01897539702092037 0.022257655653087325 0.009652578156411927 0.005614038474817652 0.010664442054179176
          0.006233732650092437 0.011676305951946424 0.0068534268253672235 0 0 0
          0.00000248660507388001 0 0 0.00000497321014776002 0 0
          0.005618539376779079 0.0031812915113793258 0.006544270189254403 0.005968199740558933 0.0034383783688867525 0.007065792406360532
          0.006317860104338787 0.0036954652263941805 0.007587314623466658 0.0766874322492524 0.08355647907587542 0.083955769031941
          0.07348783575287036 0.07986433615336612 0.08006746614936995 0.0702882392564883 0.07617219323085682 0.0761791632667989
          0.08723278359635489 0.08311685092373511 0.07900091825111531 0 0 0
          0 0 0 0 0 0
          0 0 0 0.07575510997181474 0.08315403984865452 0.07298753613012145
          0.08006914748080377 0.07021996228842814 0.076984255112953 0 0 0
          0 0 0 0.10645957033669105 0.08968578392592932 0.10234325633819279
          0.0865283351619192 0.09822694233969452 0.08337088639790906 0.05839948731085823 0.0602710892993876 0.058046835156412985
          0.06064675527127114 0.05769418300196774 0.06102242124315469 0 0 0
          0.007689823140208522 0.008069869024723253 0.008449914909237986 0.025921559795395118 0.013384966131482039 0.028091152250656073
          0.015495172156899143 0.030260744705917032 0.017605378182316247 0.009002804837533651 0.00971429620605531 0.010425787574576966
          0.00017959858079836277 0.000464588937351371 0.0007495792939043792 0 0.00000248660507388001 0.00000497321014776002
          0.0024049742632304013 0.0027303036571415277 0.003055633051052655 0.000003330658389755358 0.000004268810801206341 0.000005206963212657323
          0.00009176443167265054 0.000059248610587250586 0.00002673278950185063 0.04703577253972838 0.04825762071382524 0.0494794688879221
          0.10953665171022575 0.10537500554658503 0.10121335938294435 0.05018551051631373 0.04881940329604304 0.04745329607577235
          0 0 0 0 -0.00009092099898289745 -0.0001818419979657949
          0.009749123743375403 0.009702532995601702 0.009655942247828005 0.010079948042794388 0.010074390170972045 0.010068832299149701
          0.010909967294733161 0.010871253507534012 0.010832539720334862 0.01078136055046405 0.01077726032249653 0.01077316009452901
          0.011694389756098322 0.011673119302660656 0.011651848849222988 0.011862023250857164 0.01186983159795335 0.011877639945049536
          0.011124197943710834 0.011174496811150975 0.011224795678591117 0.009172185984023376 0.00926584299028262 0.009359499996541861
          0.006162097920244899 0.006288972516610541 0.006415847112976184 0.005834459542035355 0.003917070370982326 0.006074511473069615
          0.004091060430570399 0.006314563404103875 0.004265050490158473 0.0016034742450835213 0.0006905783807101841 0.0006537498355769323
          0.0020461055930008605 0.0016211386402970845 0.000691934633764343 0.0006769743433737327 0.002127257801042116 0.0016388030355106472
          0.0006932908868185018 0.000700198851170533 0.0022084100090833713 0.00005801784632817142 0.00005972487635669799 0.00006143190638522454
          0.0029823611684433107 0.00303152664942165 0.0030806921303999897 0.00020717823256513824 0.00020557500782080466 0.00020397178307647105
          0.010136660197481193 0.009960057807924656 0.010137022656621131 0.009958713453839464 0.010137385115761066 0.009957369099754271
          0.011024886379656339 0.01102391301577281 0.011022939651889283 0.009815361803829482 0.00981790788200021 0.009820453960170939
          0.01059326967611768 0.010598118588205668 0.010602967500293659 0.009261175398477327 0.009276014397583809 0.00929085339669029
          0.006913633169502362 0.0069347153784224316 0.0069557975873425016 0.004169734601888861 0.004184006167159814 0.0041982777324307665
          0.0019613723705655317 0.001967682306927013 0.0019739922432884943 0.00016833849779204356 0.000672187765776835 0.0005852013192075811
          0.00017400641206710815 0.0006723683662457503 0.000591990303468882 0.00017967432634217274 0.0006725489667146656 0.000598779287730183
        </DataArray>
        <DataArray type="Float64" Name="pe22" format="ascii" RangeMin="-0.04745263727702152" RangeMax="0.0006052301482674671">
          -0.0001875884717001621 -0.00017842961273757874 -0.0001983904170010562 -0.0001885776225719643 -0.0002091923623019503 -0.00019872563240634985
          -0.0001771802372972425 -0.0001596559205326794 -0.00019359464802609427 -0.00017553536865322152 -0.00021000905875494605 -0.00019141481677376363
          -0.0002570260869064961 -0.00022779269504298415 -0.0002742016205304734 -0.00024525896721112254 -0.0002913771541544508 -0.0002627252393792609
          -0.0004923622556097292 -0.0004508294286367586 -0.0004961897508911774 -0.00045543706399652926 -0.0005000172461726257 -0.0004600446993562998
          -0.0009354502570399762 -0.0008834969863217965 -0.0009100431560298183 -0.0008585076026332827 -0.0008846360550196603 -0.0008335182189447689
          -0.0016013178667230801 -0.0015400001185230977 -0.0015444058750084858 -0.0014825783372842236 -0.0014874938832938915 -0.0014251565560453494
          -0.0025002454922697192 -0.0024244853496888288 -0.002419619509190067 -0.0023423063755097593 -0.0023389935261104145 -0.0022601274013306894
          -0.0036595896566244623 -0.0035443919122792687 -0.0035480655320476577 -0.003425141132036406 -0.003436541407470852 -0.0033058903517935436
          -0.005026313303028797 -0.0048055527730252266 -0.004844687347923362 -0.004605912442709351 -0.004663061392817927 -0.004406272112393476
          -0.007345747316671205 -0.006310850395270847 -0.0069134865707070085 -0.005912585635575476 -0.006481225824742814 -0.005514320875880104
          -0.00021814727136035397 -0.00023112189083937816 -0.00024409651031840235 -0.00023179716740752036 -0.00024946900780828266 -0.000267140848209045
          -0.000345740435338526 -0.00036155152660793623 -0.0003773626178773465 -0.0006177161757027991 -0.0006185162373545354 -0.0006193162990062715
          -0.0010905710765333663 -0.0010638055241958904 -0.0010370399718584145 -0.0017827038582304612 -0.0017276518426374708 -0.0016725998270444803
          -0.00272601119013311 -0.0026502799268752677 -0.0025745486636174243 -0.003978514321279311 -0.0038859051275662426 -0.003793295933853174
          -0.005518069950198051 -0.005387650789895055 -0.005257231629592058 -0.007442957818856637 -0.00720483064616903 -0.006966703473481424
          -0.00027563136478082515 -0.0002920962415869011 -0.000308561118392977 -0.00032917778486996903 -0.0003480474347328152 -0.00036691708459566134
          -0.0004965679973474567 -0.0005097823500578147 -0.0005229967027681727 -0.0008261127335795367 -0.0008224425416737583 -0.0008187723497679798
          -0.0013448226009514376 -0.0013167705510173072 -0.0012887185010831768 -0.0020765940394918696 -0.0020253451805403127 -0.0019740963215887563
          -0.0030851784899672504 -0.0030177168344710007 -0.0029502551789747514 -0.004434878090122004 -0.004366769100684593 -0.004298660111247181
          -0.006010797498531029 -0.0059549615242299216 -0.005899125549928815 -0.00793283711658315 -0.007932730214383779 -0.007932623312184407
          -0.00036517074276238914 -0.0003845152672137764 -0.00040385979166516366 -0.00047619133701115677 -0.0004944338937505285 -0.0005126764504899002
          -0.0007114104228633665 -0.0007208479659865884 -0.0007302855091098105 -0.0011119788104881683 -0.0011046261974538428 -0.0010972735844195173
          -0.0016891451266064688 -0.0016614403224481237 -0.0016337355182897786 -0.002468691650566953 -0.0024233880770578894 -0.002378084503548826
          -0.00353680837768477 -0.0034808675478422376 -0.003424926717999705 -0.004941874968444298 -0.004901296645293983 -0.0048607183221436685
          -0.006465881321818947 -0.0064797556322668416 -0.006493629942714734 -0.007719409104603933 -0.007835546997654349 -0.00795168489070476
          -0.0004929365150205097 -0.0005112814113106169 -0.000529626307600724 -0.0006737419777200952 -0.0006876076296971125 -0.00070147328167413
          -0.0009869473415905071 -0.000990658299157418 -0.0009943692567243288 -0.0014676783780847482 -0.001456803306555493 -0.0014459282350262376
          -0.0021099826309327815 -0.002084236333873966 -0.00205849003681515 -0.0029354406541730444 -0.0028982624342774157 -0.0028610842143817873
          -0.004030227579122183 -0.003988837378838139 -0.003947447178554094 -0.005416164471516903 -0.005401820039982663 -0.005387475608448422
          -0.006839570690122187 -0.006897495967410453 -0.006955421244698718 -0.007805131796704735 -0.007961255302993266 -0.008117378809281796
          -0.0006609083035871254 -0.0006731638865189742 -0.0006854194694508229 -0.0009175906178660053 -0.0009236922070129546 -0.000929793796159904
          -0.0013164628942997458 -0.001313766785631905 -0.0013110706769640648 -0.0018801318335371633 -0.0018669213730583367 -0.0018537109125795104
          -0.002586073004352208 -0.002564341001625807 -0.002542608998899405 -0.003445829644962403 -0.0034188757568926614 -0.0033919218688229207
          -0.0045194063294616005 -0.0044943536010208646 -0.004469300872580129 -0.005795899364552624 -0.005802813152822138 -0.005809726941091651
          -0.006992279299818194 -0.007073756902737536 -0.007155234505656878 -0.00768964589650427 -0.0078557781831557 -0.00802191046980713
          -0.0008687342264685691 -0.0008698688292142613 -0.0008710034319599535 -0.0012076073333244092 -0.001203493330591212 -0.0011993793278580146
          -0.0016945906321975616 -0.001686259335339031 -0.0016779280384805 -0.0023300846162138235 -0.0023175224039597353 -0.002304960191705647
          -0.0030884504106795975 -0.003073506698943412 -0.0030585629872072265 -0.003965769662146918 -0.003951025014123421 -0.0039362803660999215
          -0.004966917851250897 -0.004958961968525594 -0.004951006085800292 -0.006043108424091306 -0.0060664999688053636 -0.006089891513519422
          -0.00694063022898408 -0.007029448610682368 -0.007118266992380658 -0.0072751970570514995 -0.0074398663033400795 -0.007604535549628661
          -0.0011139581672047188 -0.0011026063377273048 -0.0010912545082498908 -0.001544020593072393 -0.0015285729458901047 -0.0015131252987078164
          -0.00211104720594499 -0.002094888371266518 -0.0020787295365880458 -0.002796098645773955 -0.0027826360358553385 -0.0027691734259367223
          -0.00358782801415203 -0.0035788054764381897 -0.0035697829387243496 -0.0044594490084575705 -0.004457136019187337 -0.004454823029917103
          -0.005349410612887497 -0.00536039578167875 -0.005371380950470002 -0.006151209771110758 -0.006192749022683455 -0.006234288274256152
          -0.00669057004349928 -0.00678211019481983 -0.0068736503461403805 -0.006679362070202173 -0.006827036920830849 -0.006974711771459526
          -0.0027104938367390535 -0.002695754474507272 -0.0026810151122754903 -0.0034356518892809077 -0.003427106044101306 -0.003418560198921703
          -0.004229160535734579 -0.00422845390629981 -0.004227747276865041 -0.005030722150150433 -0.005039778662980241 -0.005048835175810049
          -0.005723431622076506 -0.0057485076029565665 -0.005773583583836627 -0.006135389990194663 -0.006184961461177902 -0.006234532932161142
          -0.006136179775538401 -0.006211771644513301 -0.006287363513488202 -0.005817411937290835 -0.005912927434638824 -0.006008442931986813
          -0.00001145403480629117 -0.00018520001771371814 -0.0001835376216077978 -0.000007718090348652306 -0.00011827025904571876 -0.0001911730578226704
          -0.0001668923292070561 -0.000006668794552175372 -0.0002250864832851464 -0.00019714609793162268 -0.00015024703680631437 -0.000005619498755698438
          0 0 0.00001289475782834613 0 0.00002578951565669226 0
          0 0 0 -0.00009166679318680828 0.000009620641346199126 -0.000014692921628045705
          -0.00018333358637361656 0.000019241282692398252 -0.00002938584325609141 -0.014941195563566876 -0.013352598116040722 -0.020357455737481912
          -0.02036912213264514 -0.013923751553236998 -0.012894220029041534 -0.018941922177542703 -0.018719253297902375 -0.012906307542907117
          -0.012435841942042345 -0.01752638861760349 -0.017069384463159604 -0.003237243045622838 -0.003000981273529322 -0.0010186475780326637
          -0.0012423701101171424 -0.004245220560061976 -0.0029892558825617994 -0.0010432839780008696 -0.0017967144794120223 -0.005253198074501114
          -0.002977530491594277 -0.0010679203779690753 -0.002351058848706902 -0.009171681318976686 -0.009483365074053968 -0.009602289649396105
          -0.009075735309999885 -0.009365504180220221 -0.009810738067534215 -0.009727576584144559 -0.00911024284789106 -0.009559327041463755
          -0.010138111061014464 -0.009852863518893014 -0.009144750385782236 -0.007889990298457392 -0.00802826552579676 -0.006621371486380032
          -0.005612187283422107 -0.008276905416344007 -0.008391413949298127 -0.006837072869618284 -0.005819452120559593 -0.008663820534230624
          -0.008754562372799493 -0.007052774252856536 -0.006026716957697078 -0.006064274438612807 -0.006985171397413907 -0.006218224544893606
          -0.007174590887603342 -0.006372174651174403 -0.007364010377792777 -0.01066483507665039 -0.010587139562838188 -0.010528816834870723
          -0.010789972217847537 -0.010392798593091054 -0.010992804872856886 -7.920957478265925e-7 0 0
          0.000023671369058117184 -0.00010197750066574029 -0.00023296197368460184 -0.00010661115626612294 0.00005925524883045732 -0.00020316290558365397
          -0.0004659239473692036 -0.00021322231253224593 0.00009483912860279746 -0.010322398240888073 -0.010898564942554579 -0.01734084738417544
          -0.014754398529767681 -0.009501948287452978 -0.010116480019790212 -0.01583333296778802 -0.013474205015623353 -0.008681498334017886
          -0.00933439509702584 -0.014325818551400601 -0.012194011501479028 -0.014792758214228227 -0.02569354833169189 -0.01431278723328903
          -0.0240985194455777 -0.013832816252349833 -0.022503490559463504 -0.0003323587051204958 -0.0005931663280425904 -0.00015336893749503966
          -0.000055900966357868065 -0.0003279671765451991 -0.0005912018841865176 -0.00015188375757854664 -0.00005460196530149165 -0.00032357564796990244
          -0.0005892374403304449 -0.0001503985776620536 -0.00005330296424511524 -0.03605317573331876 -0.04745263727702152 -0.044695417439018406
          -0.03390758661934207 -0.034680445301946125 -0.04427797048493772 -0.04148917206011292 -0.03261850313533392 -0.03330771487057349
          -0.04110330369285391 -0.038282926681207446 -0.03132941965132577 0 0 0
          0 0.00030261507413373355 0.00003880055943229411 -0.000044591496196343014 0.00020385836854109604 0.0006052301482674671
          0.00007760111886458822 -0.00008918299239268603 0.00040771673708219207 -0.008647170929812034 -0.009299659889995936 -0.009102658235448527
          -0.00980160153718219 -0.009558145541085016 -0.010303543184368442 -0.010298937486333953 -0.009898347264524977 -0.009497757042715996
          -0.000082758383831847 -0.0003796606201486309 -0.0005226071068758133 -0.00047373932521520317 -0.0009624558299197797 -0.0005678180302817753
          -0.0006625080712156432 -0.0014233475917425173 -0.0006675858076518046 -0.0006514284584728544 -0.0008925530282385414 -0.0003901021939778207
          -0.0006403488457300655 -0.0003617584647345654 -0.00011261858030383673 -0.008626327169056227 -0.006713811642752642 -0.01231547469770993
          -0.01032997386676462 -0.009399205207281967 -0.007603425698588913 -0.013546273799071293 -0.010910261809959467 -0.010172083245507705
          -0.008493039754425181 -0.01477707290043265 -0.011490549753154318 -0.020620951021594624 -0.02259331409593226 -0.026048051692963748
          -0.01872793112525959 -0.02045857871202986 -0.02345536133605337 -0.01683491122892456 -0.01832384332812746 -0.020862670979142985
          -0.005357754768195749 -0.0076436840659762015 -0.005483992588298908 -0.007858041397374137 -0.005610230408402068 -0.00807239872877207
          -0.00019154384574285812 -0.0006135226124164023 -0.0011530666575160855 -0.0011866575543665904 -0.0021145894692893128 -0.0017597924963167783
          -0.0038114327402352078 -0.002497396713476318 -0.00426940410386292 -0.002615022538222595 -0.004727375467490632 -0.0027326483629688714
          -0.03728622765884972 -0.035445379297811386 -0.03922609457652755 -0.038593144906792325 -0.033315153579115235 -0.03191753271386949
          -0.03533243825094464 -0.03438804299628001 -0.029344079499380754 -0.0283896861299276 -0.03143878192536174 -0.03018294108576769
          -0.009406054012547783 -0.009166040859250458 -0.009344456469724309 -0.0098742875604893 -0.009897193691780106 -0.009948378312370727
          -0.010342521108430815 -0.010628346524309752 -0.010552300155017147 -0.0009320867777975728 -0.0005630964244036181 -0.0009334728830060154
          -0.0005398643340523641 -0.0009348589882144584 -0.0005166322437011101 -0.008689399922043506 -0.0079986035939989 -0.009005303053707597
          -0.008272660134281797 -0.009321206185371687 -0.008546716674564693 -0.007055638842112019 -0.006856252182780724 -0.0075839754933383794
          -0.007415408070944445 -0.008112312144564737 -0.007974563959108167 -0.004726278586949433 -0.00339094375215068 -0.004953821192115422
          -0.0034668302414984547 -0.005181363797281412 -0.0035427167308462303 0 0 0
          -0.0000021682063745535596 0 0 -0.000004336412749107119 0 0
          -0.003605064273577883 -0.0020199497305177375 -0.004025276333547507 -0.003653368402425755 -0.0020382317492622743 -0.00411432040028462
          -0.0037016725312736284 -0.0020565137680068103 -0.004203364467021733 -0.027862400903577864 -0.0328142326133416 -0.033743998193244015
          -0.025206597394218884 -0.029593084121411616 -0.030254725312577856 -0.022550793884859904 -0.026371935629481636 -0.026765452431911703
          -0.03543494231751712 -0.03168322541364251 -0.02793150850976791 0 0 0
          0 0 0 0 0 0
          0 0 0 -0.02714235117295465 -0.03246096352929147 -0.02486600254406674
          -0.02966271508198591 -0.022589653915178837 -0.026864466634680353 0 0 0
          0 0 0 -0.044550972473920286 -0.037896240260261616 -0.0406019332621019
          -0.035018156448866855 -0.036652894050283526 -0.03214007263747209 -0.01989705315052901 -0.023449305258140582 -0.01988694268546467
          -0.023980594976064626 -0.019876832220400324 -0.02451188469398867 0 0 0
          -0.004948626623752046 -0.00503086191502159 -0.005113097206291136 -0.0062428012328325875 -0.0008386625563655553 -0.008235483431861111
          -0.002419175686271872 -0.010228165630889633 -0.003999688816178189 -0.005297073267697177 -0.0054581907088433685 -0.00561930814998956
          0.00004684584289961041 -0.000639516177425188 -0.0013258781977499863 0 -0.0000021682063745535596 -0.000004336412749107119
          -0.001438319339239126 -0.0014522140002670176 -0.00146610866129491 -0.0000017457889803030905 -0.000002060038388645854 -0.0000023742877969886167
          0.0003909894761326557 -0.0001648968897730427 -0.0007207832556787411 -0.016036984496100803 -0.01734736374427018 -0.018657742992439556
          -0.04524250406140997 -0.041172971329967695 -0.03710343859852541 -0.009441830349431038 -0.008668022985289993 -0.007894215621148946
          0 0 0 0 0.00019751341118527506 0.0003950268223705501
          -0.004299832920271748 -0.004305383562484888 -0.004310934204698028 -0.004973556866781624 -0.004985490592138504 -0.004997424317495383
          -0.0050143995484065555 -0.005025570189380821 -0.005036740830355087 -0.00548840734074581 -0.005503786130026009 -0.005519164919306209
          -0.005619377916551877 -0.005636812448984234 -0.005654246981416592 -0.005963111129185134 -0.0059903009646479315 -0.00601749080011073
          -0.00585647198489648 -0.005893361043110953 -0.005930250101325426 -0.005168409456869024 -0.005202066537382058 -0.005235723617895092
          -0.003810943803468812 -0.0038225168862332575 -0.003834089968997704 -0.003825328932671217 -0.0024941082216142245 -0.003846330007504452
          -0.002496003032491166 -0.003867331082337687 -0.0024978978433681086 -0.0009330793089475576 -0.00038392211330211885 -0.0003828060340140181
          -0.0012645755628908704 -0.0009183123343265539 -0.00037532701083714466 -0.0003766887347387381 -0.0012560907438605737 -0.00090354535970555
          -0.0003667319083721704 -0.0003705714354634581 -0.0012476059248302774 -0.000030420662697561726 -0.000030441488711432707 -0.000030462314725303684
          -0.0018065671341387175 -0.0017867564445633788 -0.0017669457549880406 -0.00011461343883861692 -0.00011244430665547863 -0.00011027517447234034
          -0.00541473812544035 -0.00518259915338399 -0.005427633482278012 -0.005193053734294387 -0.0054405288391156745 -0.005203508315204784
          -0.005784794867662686 -0.005803417410099711 -0.005822039952536738 -0.005372838848777751 -0.005387416272922841 -0.00540199369706793
          -0.005714522574588534 -0.005736584919245993 -0.005758647263903452 -0.005122356466380457 -0.005143234414788356 -0.0051641123631962545
          -0.003943670283112657 -0.003948985385116337 -0.003954300487120015 -0.002440739174856429 -0.0024265797434205793 -0.002412420311984728
          -0.0011224232689639561 -0.001107396963715882 -0.0010923706584678075 -0.00007540899507876499 -0.0003521997171823375 -0.000292894945496289
          -0.00007779253166100261 -0.00034693575947815765 -0.00029375258633286165 -0.00008017606824324021 -0.0003416718017739779 -0.00029461022716943425
        </DataArray>
        <DataArray type="Float64" Name="pe33" format="ascii" RangeMin="-0.06429414764881561" RangeMax="0.0007515177669045695">
          -0.00016820851543764774 -0.00015895094007919758 -0.0001854501707305447 -0.00017446579342504442 -0.00020269182602344166 -0.00018998064677089126
          -0.00017405387380956918 -0.00015430195181748938 -0.0002061674700380841 -0.00018390419331550863 -0.00023828106626659902 -0.00021350643481352787
          -0.00031179055811934094 -0.00027261910504029074 -0.00037154467302268784 -0.00032921709284256136 -0.0004312987879260347 -0.0003858150806448319
          -0.000791851660263721 -0.0007269377780076905 -0.0008953670206175812 -0.0008282871503020391 -0.0009988823809714414 -0.0009296365225963876
          -0.0019644842927603197 -0.0018813271610491256 -0.0021083389172627406 -0.002027361525494444 -0.002252193541765161 -0.0021733958899397623
          -0.0042213267872479475 -0.004146524606479908 -0.004359272428652899 -0.004290152450457033 -0.004497218070057848 -0.004433780294434158
          -0.007914021595231892 -0.007890484704913239 -0.007970602902852817 -0.007950787197726248 -0.008027184210473739 -0.008011089690539255
          -0.01347160944017652 -0.013570855549785932 -0.01336971708910746 -0.013468961558329134 -0.0132678247380384 -0.013367067566872335
          -0.022578482877954095 -0.023104182211594125 -0.022213736309044767 -0.022724763300934463 -0.021848989740135438 -0.022345344390274798
          -0.03422490157787202 -0.03422148361776697 -0.0335832693489264 -0.03360355611848473 -0.03294163711998078 -0.03298562861920247
          -0.0002001308365173895 -0.00022335582161452712 -0.00024658080671166485 -0.00023823215641292342 -0.00027828397547831064 -0.0003183357945436979
          -0.0004348007974789268 -0.0005029510092155777 -0.0005711012209522286 -0.0009901990308424913 -0.0010971493587395168 -0.001204099686636542
          -0.0022117838459192983 -0.0023474073823068426 -0.002483030918694386 -0.004438986397265957 -0.004560301254641898 -0.004681616112017838
          -0.007977526743767263 -0.00802267804497566 -0.008067829346184057 -0.013178282340007518 -0.013078947441235046 -0.012979612542462576
          -0.021160567998261305 -0.020838218561504196 -0.02051586912474709 -0.02981946262784874 -0.02930727993949398 -0.028795097251139223
          -0.0002648290524199031 -0.00029981764203097403 -0.0003348062316420449 -0.0003620052001875666 -0.0004162079275077166 -0.0004704106548278666
          -0.0006562192806723558 -0.0007366443968328071 -0.0008170695129932585 -0.001327531223599038 -0.0014355211726787551 -0.0015435111217584722
          -0.002614385290086 -0.002733434233296686 -0.0028524831765073732 -0.0047795428286513345 -0.004874103917793398 -0.0049686650069354615
          -0.008060624737462267 -0.008087568703014782 -0.008114512668567296 -0.012706936162892856 -0.012614126019410277 -0.012521315875927695
          -0.019148027004814203 -0.018891485603814023 -0.01863494420281384 -0.025350541219861043 -0.024988188440614328 -0.024625835661367623
          -0.0003792273968124857 -0.00043110645302163236 -0.0004829855092307791 -0.000571387455971183 -0.0006432755467231196 -0.000715163637475056
          -0.0009976294451156742 -0.0010895254464139044 -0.0011814214477121345 -0.0018065931299227197 -0.0019088922597364285 -0.0020111913895501372
          -0.003153708061916409 -0.0032456539665065517 -0.003337599871096694 -0.005208863216923678 -0.005267869864620106 -0.0053268765123165316
          -0.00813514101597697 -0.008140275626662202 -0.008145410237347434 -0.01206736537744974 -0.011984373940501796 -0.011901382503553852
          -0.016804404906708013 -0.01663189378789101 -0.01645938266907401 -0.019587810177441697 -0.0194239797945346 -0.019260149411627504
          -0.0005747565546492114 -0.0006406834659193497 -0.0007066103771894883 -0.0008988568529779656 -0.0009805007085907217 -0.0010621445642034774
          -0.0014833284871912304 -0.0015717097613482103 -0.0016600910355051902 -0.002429963171358211 -0.0025079649999233877 -0.0025859668284885645
          -0.003802138432502362 -0.003853078833540791 -0.00390401923457922 -0.0056813295733080605 -0.005699201603435897 -0.005717073633563734
          -0.008162334964496011 -0.008146559035031125 -0.008130783105566239 -0.011263788850533528 -0.01119967179649153 -0.011135554742449537
          -0.014347173838468334 -0.014272595144950585 -0.014198016451432836 -0.015258237788805591 -0.01528901606416999 -0.015319794339534386
          -0.0008957206557970767 -0.0009553192858949619 -0.0010149179159928468 -0.0013838032217417607 -0.0014465388871918818 -0.001509274552642003
          -0.0021370286211131137 -0.0021890915207008737 -0.0022411544202886337 -0.0031906953518367792 -0.0032162231533110434 -0.003241750954785307
          -0.0045219184633122295 -0.0045172602197022915 -0.0045126019760923525 -0.006145553303531522 -0.006121752414765376 -0.00609795152599923
          -0.008093798148637577 -0.008065903447295606 -0.008038008745953638 -0.010294598676981676 -0.010269179334976945 -0.010243759992972211
          -0.01190772670474273 -0.011948688543007865 -0.011989650381273002 -0.011552053164243856 -0.01176842619426857 -0.011984799224293283
          -0.001390163983280314 -0.0014011598829504416 -0.0014121557826205693 -0.002067914784934329 -0.002063007229652493 -0.002058099674370657
          -0.0029747765644747115 -0.002946403608419652 -0.0029180306523645927 -0.0040657414086462465 -0.00401010000929752 -0.003954458609948794
          -0.005267522021965834 -0.005197014997162267 -0.0051265079723587 -0.006548924265786703 -0.00648939025242062 -0.006429856239054539
          -0.007881755420272911 -0.007860879563442565 -0.007840003706612222 -0.009141276838007847 -0.00918472311230775 -0.009228169386607653
          -0.009519966236048685 -0.009698072380648242 -0.009876178525247803 -0.008359195736364759 -0.008719684159786658 -0.00908017258320856
          -0.002055813037666455 -0.0020188509916954536 -0.0019818889457244525 -0.002935536979976481 -0.002866665649706354 -0.0027977943194362268
          -0.003952107940140603 -0.0038529294076659272 -0.003753750875191251 -0.0049922607891968096 -0.004875973705038431 -0.004759686620880051
          -0.005978489798854791 -0.005867398723988296 -0.005756307649121801 -0.006838968715875041 -0.006763664150536991 -0.006688359585198942
          -0.007496001130905978 -0.007487644479908049 -0.0074792878289101205 -0.007815820714368966 -0.007907463635295481 -0.007999106556221998
          -0.00722864385174652 -0.007470175593760369 -0.0077117073357742165 -0.0056742156029314815 -0.0060373434417212 -0.00640047128051092
          -0.0046674052025831286 -0.004573574887423503 -0.004479744572263878 -0.005551798325314001 -0.005448684596907892 -0.005345570868501781
          -0.006271450265677416 -0.006177290356299217 -0.00608313044692102 -0.006733390462550448 -0.006669739492180989 -0.006606088521811527
          -0.006840751732423805 -0.006828618069786213 -0.006816484407148619 -0.006474688041707217 -0.006538447977695647 -0.006602207913684077
          -0.005334945244143912 -0.005498156571765555 -0.005661367899387198 -0.003784722614397532 -0.004029186595604978 -0.0042736505768124254
          -0.000011723315448342628 -0.0001444591469681372 -0.00016070900523853878 -0.000008055332747013552 0.00006314914932094423 0.000019336828419729766
          -0.00027768186922477744 -0.000010701523239846556 0.00013802161409023108 0.0001831328038075967 -0.00039465473321101613 -0.000013347713732679559
          0 0 0.000008695203470481194 0 0.000017390406940962388 0
          0 0 0 -0.0000032041335061985184 -3.825990440454901e-7 0.000001405019924381291
          -0.000006408267012397037 -7.651980880909802e-7 0.000002810039848762582 -0.0410150260112575 -0.03734408269733489 -0.04457310794430381
          -0.045411683635934515 -0.040441177837979354 -0.03691223355823288 -0.04417281773040505 -0.04489484210776596 -0.03986732966470121
          -0.03648038441913086 -0.04377252751650629 -0.044378000579597406 -0.011347394936874235 -0.005813071249555978 -0.002185961779473922
          -0.006010050034506616 -0.012105143998643254 -0.006596783822377513 -0.0030943681777699777 -0.007062345353995734 -0.012862893060412273
          -0.007380496395199047 -0.004002774576066033 -0.00811464067348485 -0.024255193421575446 -0.023825879607568122 -0.02983998759813248
          -0.029346710409685183 -0.02399464099832698 -0.023696477435032823 -0.029501361284742896 -0.028933130102572854 -0.023734088575078513
          -0.023567075262497524 -0.029162734971353323 -0.02851954979546053 -0.008353318632597178 -0.009948380786710842 -0.006000562396078162
          -0.004770627463352826 -0.008890388104520478 -0.010311371853635464 -0.006544533266095704 -0.005440361327755194 -0.009427457576443777
          -0.01067436292056009 -0.007088504136113246 -0.006110095192157562 -0.004232707566505742 -0.00632083814443854 -0.004633402628589424
          -0.006803015382220217 -0.005034097690673105 -0.007285192620001892 -0.03408142776839585 -0.0304622658909231 -0.033600126944102575
          -0.030199863258949303 -0.03311882611980929 -0.0299374606269755 -0.0000013016285043850044 0 0
          -0.000057466320717825996 0.000021002669389959684 0.000007397217818956655 -0.000015504227568103077 0.00034702572309337174 0.00004330696728430437
          0.00001479443563791331 -0.00003100845513620614 0.0007515177669045695 -0.04081095268525822 -0.039403073055851716 -0.04371141252337077
          -0.043169819162787865 -0.04013826745168744 -0.03869097553757523 -0.04304900405411499 -0.042531218661235944 -0.03946558221811666
          -0.037978878019298744 -0.04238659558485921 -0.041892618159684016 -0.03700011086015439 -0.04422144314232211 -0.03665219807809592
          -0.04396436109806782 -0.03630428529603744 -0.043707279053813525 -0.0002567983066940202 -0.00042366462470375365 -0.00010952531830216828
          -0.00004060044073849241 -0.0003672073392177148 -0.0005341062787872699 -0.0001283603061607691 -0.0000504690906694093 -0.0004776163717414094
          -0.0006445479328707862 -0.0001471952940193699 -0.000060337740600326185 -0.04966730691938928 -0.060044533059235156 -0.057257872419473305
          -0.04713350420349159 -0.04970688592671296 -0.059975309081950146 -0.05703722919284677 -0.046943972790112705 -0.049746464934036644
          -0.05990608510466514 -0.056816585966220245 -0.046754441376733805 0 0 0
          0 -0.00009016437691291966 -0.00002124093512755249 0.000012505020673357116 -0.00003686817081173025 -0.00018032875382583931
          -0.00004248187025510497 0.00002501004134671424 -0.0000737363416234605 -0.01311939366199881 -0.012502442426086724 -0.013331764660034643
          -0.012827225645560335 -0.01354413565807048 -0.013152008865033947 -0.03525279594216576 -0.03468316491709044 -0.034113533892015116
          -0.00004386526418840609 -0.0002751583076139934 0.00033580242062558125 0.00023177328708600008 0.0007154701054395687 0.0007387048817859936
          -0.0006232213539642303 -0.0017775485481140712 -0.0007120805558895069 -0.0006256687924296562 -0.0022961447124450873 -0.0008878619006782642
          -0.0006281162308950819 -0.0028147408767761036 -0.0010636432454670212 -0.01977329964407564 -0.017711568569623404 -0.02854946927632035
          -0.029776807352308882 -0.02039112534053488 -0.018487752533289832 -0.028536643330222673 -0.029670999941881326 -0.02100895103699412
          -0.01926393649695626 -0.02852381738412498 -0.029565192531453763 -0.045673065397148695 -0.04689301046619535 -0.048251140609950394
          -0.0449840502873992 -0.046328903219005485 -0.04770288700004335 -0.0442950351776497 -0.045764795971815604 -0.04715463339013628
          -0.003809578044036828 -0.00912870139101659 -0.00426053362708548 -0.009543627912456335 -0.004711489210134133 -0.009958554433896077
          -0.000946131063225968 -0.0030916266212107323 -0.0015217416616200652 -0.003901439038376366 -0.0020973522600141624 -0.004711251455542
          -0.00547139137074014 -0.002568064305859152 -0.006118624250757091 -0.0032296202723824216 -0.00676585713077404 -0.0038911762389056913
          -0.05518127045996854 -0.05402186708905265 -0.058401375138940774 -0.06087904926769129 -0.054744641272003645 -0.053592212594404214
          -0.058098637074153865 -0.060614477489635735 -0.05430801208403875 -0.05316255809975578 -0.057795899009366956 -0.06034990571158018
          -0.01777819160212974 -0.018309532192740258 -0.024899530527040373 -0.017900634301477363 -0.01858507878693861 -0.024868814459971564
          -0.01802307700082498 -0.01886062538113696 -0.02483809839290275 -0.0007911580862247227 -0.0005397894772731838 -0.0011333796581363437
          -0.0008543012420421918 -0.0014756012300479646 -0.0011688130068111995 -0.017796446200065895 -0.013007922747815898 -0.017797992289748626
          -0.013206478746724041 -0.017799538379431358 -0.013405034745632186 -0.009689082729736337 -0.012600034061634678 -0.010276083803045752
          -0.013441562877806108 -0.010863084876355164 -0.014283091693977542 -0.00492629956946248 -0.0022230947226669693 -0.005710620862063729
          -0.0027669024085939784 -0.006494942154664979 -0.003310710094520987 0 0 0
          -3.183986993264493e-7 0 0 -6.367973986528986e-7 0 0
          -0.002013475103201195 -0.0011613417808615874 -0.0025189938557068914 -0.0023148313381331762 -0.0014001466196244781 -0.0029514720060759047
          -0.0026161875730651577 -0.001638951458387369 -0.003383950156444918 -0.04882503134567451 -0.05074224646253382 -0.05021177083869701
          -0.04828123835865151 -0.050271252031954664 -0.049812740836792165 -0.04773744537162851 -0.049800257601375526 -0.04941371083488732
          -0.05179784127883778 -0.051433625510092826 -0.05106940974134787 0 0 0
          0 0 0 0 0 0
          0 0 0 -0.04861275879886008 -0.05069307631936304 -0.0481215335860548
          -0.05040643239881846 -0.04763030837324953 -0.05011978847827389 0 0 0
          0 0 0 -0.06190859786277065 -0.05178954366566764 -0.061741323076111465
          -0.051510178713053224 -0.06157404828945228 -0.05123081376043882 -0.038502434160328496 -0.03682178404124479 -0.03815989247094506
          -0.03666616029518258 -0.03781735078156163 -0.03651053654912036 0 0 0
          -0.0027411965164564744 -0.0030390071097016616 -0.0033368177029468476 -0.01967875856255981 -0.01254630357511566 -0.01985566881877387
          -0.013075996470620676 -0.02003257907498793 -0.013605689366125691 -0.0037057315698364665 -0.004256105497211928 -0.004806479424587391
          -0.00022644442369677362 0.00017492724007548986 0.0005762989038477533 0 -3.183986993264493e-7 -6.367973986528986e-7
          -0.0009666549239912754 -0.00127808965687451 -0.0015895243897577445 -0.0000015848694094522677 -0.000002208772412560487 -0.0000028326754156687065
          -0.0004827539078051476 0.00010564827918619265 0.0006940504661775329 -0.030998788043625058 -0.03091025696952612 -0.03082172589542718
          -0.06429414764881561 -0.06420203421664658 -0.06410992078447753 -0.04074368016688269 -0.04015138031075305 -0.03955908045462342
          0 0 0 0 -0.0001065924122023788 -0.0002131848244047576
          -0.0054492908231036545 -0.005397149433116815 -0.005345008043129976 -0.005106391176012761 -0.0050888995788335376 -0.005071407981654313
          -0.005895567746326603 -0.005845683318153189 -0.0057957988899797735 -0.0052929532097182345 -0.005273474192470516 -0.005253995175222798
          -0.0060750118395464445 -0.006036306853676419 -0.005997601867806392 -0.005898912121672029 -0.005879530633305415 -0.0058601491449388025
          -0.005267725958814353 -0.005281135768040021 -0.005294545577265688 -0.004003776527154349 -0.004063776452900559 -0.004123776378646768
          -0.0023511541167760856 -0.0024664556303772827 -0.0025817571439784794 -0.002009130609364139 -0.0014229621493681024 -0.002228181465565163
          -0.0015950573980792336 -0.0024472323217661868 -0.0017671526467903645 -0.0006703949361359635 -0.0003066562674080652 -0.000270943801562914
          -0.0007815300301099898 -0.0007028263059705304 -0.0003166076229271983 -0.0003002856086349944 -0.0008711670571815418 -0.0007352576758050973
          -0.00032655897844633146 -0.0003296274157070748 -0.0009608040842530936 -0.000027597183630609698 -0.000029283387645265274 -0.000030969591659920846
          -0.0011757940343045926 -0.0012447702048582713 -0.0013137463754119493 -0.0000925647937265213 -0.00009313070116532601 -0.00009369660860413071
          -0.00472192207204084 -0.004777458654540664 -0.004709389174343116 -0.004765659719545073 -0.00469685627664539 -0.004753860784549483
          -0.005240091511993648 -0.005220495605673095 -0.005200899699352542 -0.0044425229550517295 -0.004430491609077369 -0.004418460263103009
          -0.004878747101529145 -0.004861533668959674 -0.0048443202363902035 -0.004138818932096871 -0.004132779982795452 -0.0041267410334940345
          -0.0029699628863897043 -0.002985729993306095 -0.003001497100222485 -0.0017289954270324314 -0.0017574264237392345 -0.0017858574204460374
          -0.0008389491016015758 -0.0008602853432111311 -0.0008816215848206863 -0.00009292950271327853 -0.00031998804859449757 -0.000292306373711292
          -0.00009621388040610553 -0.0003254326067675926 -0.00029823771713602024 -0.00009949825809893253 -0.0003308771649406876 -0.0003041690605607485
        </DataArray>
        <DataArray type="Float64" Name="disp_x" format="ascii" RangeMin="0" RangeMax="0.00003961479632365299">
          1.7541043422821026e-7 0 1.78588751016183e-7 0 1.87388617113242e-7 0
          1.7026287874716734e-7 0 1.7570045424863556e-7 0 1.9131450356949594e-7 0
          1.827189889495313e-7 0 1.9166512100159812e-7 0 2.1843464180903167e-7 0
          2.4470133166946046e-7 0 2.5616430436694217e-7 0 2.9519747643439465e-7 0
          4.082366936089155e-7 0 4.2316280471784993e-7 0 4.700885722085327e-7 0
          7.268819689688325e-7 0 7.38314650754585e-7 0 7.741556142908209e-7 0
          0.0000012418223477782464 0 0.0000012413818591299783 0 0.0000012421922434808387 0
          0.0000019980328018180132 0 0.000001974225660792682 0 0.0000019103967587207614 0
          0.0000030880008612034615 0 0.0000030326202877056233 0 0.000002855854624442909 0
          0.00000515151240525698 0 0.00000503235879932215 0 0.000004630496140706443 0
          3.5426481136262484e-7 3.609744121825411e-7 3.8126540170465287e-7 3.4748299523059413e-7 3.591679576995369e-7 3.9327738864594207e-7
          3.7984661069385587e-7 3.9786056293355675e-7 4.535130745213175e-7 5.122569148344953e-7 5.367635193151334e-7 6.169537969881343e-7
          8.488997558977072e-7 8.777740748352755e-7 9.689406321055724e-7 0.0000014870768689222216 0.0000015085215083278834 0.000001576032495249179
          0.0000025090408686363594 0.00000250698684857368 0.000002505540665702762 0.000004001784144243631 0.000003956843200662093 0.0000038329658570657565
          0.000006151123622888465 0.000006042263683696052 0.0000057091437670676645 0.000010052883643146113 0.000009826098900576336 0.000009081276099137173
          5.418837899433128e-7 5.535522944271632e-7 5.895262280183624e-7 5.403292685743846e-7 5.59408147751739e-7 6.175584144564517e-7
          6.065280642199379e-7 6.349327083227905e-7 7.234577764201042e-7 8.298664031902343e-7 8.66761226799198e-7 9.873643094132156e-7
          0.0000013531591602789746 0.0000013944027371110105 0.0000015242953899685096 0.0000023114536527164614 0.000002340174075379695 0.000002431205356611026
          0.000003824238237528267 0.000003818884571558027 0.000003810285936119541 0.000006018037792230244 0.0000059547050983811974 0.000005776663202762961
          0.000009140363713738923 0.000008986964071031164 0.000008530890596817408 0.00001448284181387806 0.000014178213920134166 0.000013195663958026663
          7.456425760381738e-7 7.647053605906542e-7 8.224751838507438e-7 7.606039575187218e-7 7.89719500167689e-7 8.793023558054287e-7
          8.82037438323898e-7 9.222043201586373e-7 0.000001048363563573307 0.0000012229965331568339 0.0000012720868375553172 0.0000014305456051211942
          0.000001950628677225058 0.0000020017415242644984 0.000002161183165068114 0.0000032260382331534487 0.000003258214683846097 0.000003361660000071191
          0.000005204734706981848 0.000005194213405776018 0.000005172541654780914 0.000008041985539151122 0.000007962964721509164 0.000007738661920004022
          0.000012012046745836917 0.000011828506688837649 0.000011287501514155073 0.00001826025997711198 0.000017919602101531772 0.00001683809575376578
          9.74258490685838e-7 0.0000010038478103641632 0.000001091085465088519 0.0000010274238420799855 0.0000010692259454772415 0.0000011954495321057223
          0.0000012290549063873305 0.000001282193884554018 0.0000014467771587779047 0.0000017158440979296895 0.0000017776698934344283 0.000001968800547322898
          0.0000026673450328277284 0.00000272315145190909 0.000002898585036431524 0.000004250452163329522 0.0000042819852375363925 0.000004385052805149397
          0.000006656535907723979 0.000006638975718588294 0.000006598634399470136 0.00001005939682445001 0.000009969463567071684 0.000009708870059005388
          0.000014710770918019408 0.000014509380190960794 0.000013923766229570722 0.00002144409651325889 0.000021105684925331134 0.00002003746959697411
          0.0000012471612586666587 0.0000012867287373935682 0.0000014063107870978438 0.0000013617856867589803 0.0000014156274291877687 0.0000015785115247771761
          0.0000016743604934462552 0.0000017361704760857405 0.000001934339834336781 0.0000023401097038937362 0.000002406343203886128 0.000002614450241354599
          0.0000035213147444307787 0.00000357613677540039 0.0000037512629804202206 0.000005395351883629737 0.000005421780807429017 0.000005511203228221408
          0.000008174878536310744 0.000008149969497636395 0.000008087569153173476 0.000012041606088544641 0.00001194628265925284 0.000011662325262534645
          0.000017193125325440773 0.000016990789247276544 0.00001639995194868528 0.0000240584468372976 0.00002375074793531745 0.000022781071664944457
          0.0000015872684844306333 0.0000016314170665789373 0.000001775538949238916 0.0000017931210241078642 0.0000018483090714988574 0.000002037460224825944
          0.000002248997299000051 0.000002312134417344599 0.0000025220447748334747 0.0000031158752736925164 0.0000031766831762430455 0.000003378138182135596
          0.000004524101977917016 0.0000045704085143253365 0.000004725614926184957 0.00000666066452823997 0.000006678477936498048 0.000006742621719256496
          0.000009742926942792315 0.00000971307360474025 0.000009629930679512322 0.0000139516546526944 0.000013859319841450356 0.00001357087207278534
          0.000019410524655804775 0.000019228989502032567 0.00001867563267394816 0.000026146763438688555 0.000025900758833931326 0.000025097281891003097
          0.0000020230580816977913 0.0000020606041188195824 0.000002200234387791981 0.0000023546307310169373 0.000002397266777310818 0.0000025738839153269655
          0.0000029894094416003308 0.0000030376070253571924 0.0000032224339886518858 0.000004056777600183248 0.000004100105877579257 0.00000426227448431912
          0.000005677466801321857 0.000005708312705968187 0.00000582221893269896 0.000008035237049877942 0.000008042889830010721 0.000008073782493805647
          0.000011335089274562309 0.000011305930675022182 0.000011211360242289991 0.000015742873155954464 0.00001566727186821502 0.000015404332421208815
          0.000021323401855181505 0.00002118513770862545 0.00002072261662555375 0.000027796673612755422 0.000027630679725406665 0.00002704287162497475
          0.000003895037757501072 0.000003933624382957216 0.0000040561069523126 0.000005156954623052449 0.000005188381495889136 0.000005288321690445484
          0.000006966630391668701 0.000006986729164090631 0.0000070483767868315284 0.00000949529540580259 0.000009495919066977533 0.000009495186259709287
          0.000012924323754841794 0.00001289568880885482 0.000012804389168418492 0.000017390464670605292 0.00001732558785342208 0.000017115978623726832
          0.000022915899478891015 0.00002280615178629852 0.000022469085577569605 0.000029083546820534185 0.000028961394772497437 0.000028579538297738563
          0.00003747899860062138 0.00003674785731388989 0.00003673768503014042 0.00003747185897565115 0.00003748652648217241 0.00003673977557302039
          0.00003674180978529851 0.000037474066986912715 0.000037453081639942774 0.00003682281517800277 0.000036737387332371076 0.00003747376793385953
          0.00003816855228403644 0.00003821244889749412 0.000038162460850793316 0.000038211873351270125 0.00003819044749761596 0.00003822131887784734
          0.00003812121083887891 0.00003865610184300445 0.00003867189302663835 0.00003810471379786277 0.000038649296934065717 0.00003865590539414024
          0.000038140206118603967 0.00003866733420352889 0.00003869630140550035 0.00000996407022605917 0.000014965804825998421 0.000011926854287695247
          0.000008590888656802603 0.000009590067397830226 0.00001447576867853783 0.000011475349744742346 0.0000082350774036816 0.000008488522362980866
          0.00001291718330170789 0.000010062300827592657 0.000007206097481188827 0.00003294232337147782 0.00003372595246412754 0.00003523601622628977
          0.00003463333727628564 0.00003269540702645107 0.00003353023667835177 0.00003529363834178584 0.00003457247284146595 0.000031494011975869644
          0.00003253990122212829 0.000035404244437238 0.000034313127555097854 0.000018996141418881684 0.000020874457127667202 0.000017472073534065696
          0.000015599965867659616 0.000018596030067197605 0.000020388090534603152 0.00001699192428558144 0.000015230891634459045 0.00001729535834103212
          0.000018871335525787258 0.00001550307245142105 0.000014023551804001107 0.00002948907309102748 0.00002752680349284572 0.000029839818023264283
          0.00003167488508832868 0.000029179362343375356 0.000027181804220514906 0.000029600256696502035 0.000031480109887588256 0.000028123741425844495
          0.00002611173888580514 0.000028823061313174883 0.00003071124997158456 0.00002973391377762518 0.000028345934159543543 0.000029575992195596036
          0.000028128475720157124 0.000029048394178816043 0.00002739427447013591 0.000014782731248360333 0.000019013964933798702 0.000014337439083962779
          0.00001849356186980351 0.00001293750155544916 0.00001682311238618208 0.00003776679437277852 0.00003831323579674016 0.00003843930133656938
          0.00003771568059698141 0.000037764037451668265 0.000038301040420631684 0.00003841909914896437 0.000037710508008482526 0.00003768814877355654
          0.00003824913820207831 0.00003834762863639208 0.00003765123190053741 0.0000028964188062640224 0.000006378396855679214 0.000004821808898721791
          0 0.000002838216800116246 0.000006210447529993731 0.000004637340585363356 0 0.000002570080828639373
          0.000005608814972150944 0.00000408897328757743 0 0.000017600021433939114 0.000015429923364924137 0.000017032970027217424
          0.000014903697189680932 0.000015143999555363018 0.000013017138506122073 0.000036547736695237644 0.00003613419562487825 0.000037189777398295185
          0.00003749886594165172 0.00003655227703098187 0.00003612974553377867 0.00003718930888870191 0.00003749879780745542 0.000036520401554693986
          0.00003609490329377639 0.00003718483741006267 0.00003750087934488613 0.00002227636287034642 0.000011854075938787089 0.000011430793123209789
          0.000019315551108251012 0.000022047765657468292 0.00001168156328693586 0.00001118812409342659 0.000018851411656489322 0.00001993692747823313
          0.000010252400286157515 0.000009578542035292158 0.00001630301427982856 0.00003917379838237023 0.000038820301962948065 0.000038738415461897606
          0.00003914446285544314 0.000039125376883829594 0.00003878301854392332 0.00003870932588571864 0.00003912333411307238 0.00003924541836795293
          0.000038817592171050224 0.000038785752821360266 0.000039071119477003255 0.000026051537112634224 0.000027023097872740493 0.000025669047037796927
          0.000026633860364615984 0.000024431568503132726 0.00002532981079231829 0.000011442021233412005 0.000011109905908404488 0.000010055218249940638
          0.000037124729978125004 0.00003643685786096384 0.00003712689392768477 0.0000364498493642786 0.00003701618741643417 0.000036735252346982265
          0.00003587799083681179 0.000035168121173571807 0.000035951647432678245 0.00003591994282461204 0.00003499963637112992 0.000035906137352635496
          0.00003634182397283252 0.0000345034351448794 0.00003569530206689285 0.00002725139393782521 0.000029653077183646453 0.000026978507142264386
          0.000022541656281625334 0.000026661643773587615 0.000029090843962595814 0.000026318878005882403 0.00002185468002887942 0.00002485746882401549
          0.00002733271329926688 0.000024025707697717693 0.000019675131568092928 0 0.000004630116320230385 0
          0 0.000004431181851811328 0 0 0.000003881228779051911 0
          0.00003128241917623209 0.000026926300733442105 0.000031129306873314716 0.000026620885310065237 0.00003061026275329253 0.000025685666701512488
          0.00003602946851594916 0.00003614472000292822 0.0000360409306295426 0.00003598899823147595 0.00003594163965962311 0.00003545442906080726
          0.000032998538480696656 0.000034506570992430595 0.00003276745597263862 0.000034370846516266146 0.00003181823610157867 0.00003387152593354721
          0 0.000004660933228165907 0.000005666878351918736 0 0 0.000004469514195826095
          0.00000548364762549335 0 0 0.000003773823398299198 0.000004550029654829834 0
          0.000024346439220018317 0.000026092320498382872 0.00002260396371238602 0.000023891215604905222 0.000025620203566093556 0.000022073688248065093
          0.000022434505140141236 0.00002403057835466557 0.000020388620510009892 0.000035726031535042586 0.00003611160900805291 0.00003570219269677198
          0.000036098275133139455 0.000035545042368326146 0.00003597868310342344 0.000022688090564464023 0.00002482254671113046 0.00002228427680757794
          0.00002446710241241591 0.000020989699530360072 0.00002334775950271841 0.00003045895620358657 0.00003080313360601392 0.000030111372989624525
          0.000030349140376944684 0.00002885497664664445 0.000028869892233590746 0.00003234478564911011 0.00003389220591664968 0.00003211780835025945
          0.00003378327346995845 0.000031257899677054755 0.00003336990089090795 0.00003909269287664174 0.00003869384470180657 0.00003907045775185556
          0.00003907645700462839 0.0000386884802161541 0.00003905979850198295 0.000039076738808927587 0.00003870520788122964 0.00003906680234796874
          0.000033253607454588775 0.00003497925485356103 0.00003305517517328096 0.00003317241924179806 0.00003494472082573594 0.000032936524354650606
          0.000032912409992476756 0.000034826539507160966 0.000032510689222708174 0.000004148560711300716 0.0000033502854972464977 0
          0.000003977864091662981 0.0000032101016287051655 0 0.0000033999805682773083 0.00000271783295314072 0
          0 0 0 0.000039041933274462466 0.000038663909510538435 0.00003852554419556552
          0.00003903284062060862 0.00003903736871879393 0.000038662334070236504 0.000038525174999144185 0.00003903012798961064 0.00003904641728344178
          0.00003867441387334194 0.000038535982923422426 0.00003904048188133676 0.000007795775203691428 0.000009016837247004006 0.000007479993916946622
          0.000008678620990807386 0.000006433853856138016 0.000007487774262004757 0.00003869706531000649 0.00003905335871669943 0.000038694144455507424
          0.000039046340002495795 0.00003870717131252296 0.000039055480312201285 0.000006169016171638382 0.000012143553872181015 0.000006036589788147835
          0.000011752341378867647 0.000005125731490199662 0.000009883042737060273 0.000021535737964692606 0.000025441627574771694 0.00002088543720452126
          0.000025012073133360913 0.000018364721075525525 0.000022622373877457895 0.0000382028876391367 0.00003820313555043124 0.000038211926781966794
          0.00003123458187896283 0.00003110320646994291 0.000030745901621824846 0.000032131459091369685 0.0000343103823950816 0.00003184170016013994
          0.00003421542198715193 0.000029938202224340128 0.00003360661649285827 0.000031927995036296286 0.000031781090339436384 0.000031180488500500375
          0.00003665365767499274 0.00003665562367481771 0.00003672130145922064 0.00003911896078727244 0.00003909801422955283 0.00003907758706636242
          0.00003522688674890022 0.00003518948855747644 0.000035012971255196186 0.00003814113107328364 0.000038142901860456495 0.00003814862407376896
          0.000036810590931987264 0.00003696276923423501 0.000037129249308022275 0.00003130240298568639 0.000031115557283775126 0.000028886175873972352
          0 0 0 0 0 0
          0.00003902814601541056 0.00003902744574003988 0.0000390394199445657 0.00003918896679803379 0.0000391188537308738 0.000039292538019280626
          0.000010007227733853178 0.000010007645673932752 0.000009982848564449065 0.000015085775852173057 0.000015071009739472262 0.000015041045027575027
          0.000012446413549377135 0.000012438838140107985 0.000012395707323923817 0.000017971099798233314 0.000017951204197137675 0.000017902995119838964
          0.000015456368112270974 0.00001543968487412048 0.00001537832134996618 0.000019106296668940986 0.000019078766370409488 0.000018999434191002087
          0.00002340620787330373 0.000023367075937713794 0.000023271838804357683 0.00002817356574212187 0.000028126721482031766 0.000028028920832840117
          0.000032972566477695605 0.00003295051149393859 0.00003289250360372655 0.00003307539000837968 0.00003445747179332456 0.00003301721422864116
          0.00003444372389532578 0.00003286727661466226 0.00003435755529522098 0.00003647159012231093 0.00003751108873313504 0.00003708654592809769
          0.000035848001975011544 0.000036469430179053775 0.0000375127387581439 0.00003708735970968042 0.000035839304385597314 0.000036459921456164834
          0.00003751919775332639 0.000037092289654153476 0.00003581499343794313 0.00003808463924186463 0.000038086720569530395 0.000038097975102990416
          0.00003519634504738183 0.00003519180060313549 0.00003515678698882336 0.00003921632205095435 0.00003921818275823778 0.00003922653436221744
          0.00002332106577977776 0.000020222480447921133 0.000023305558274985022 0.000020212862769708787 0.00002325977270770862 0.00002018432542604097
          0.00002124024709777879 0.00002121652846371955 0.000021152562187689688 0.00002658368498046381 0.000026563173814654404 0.000026501879658803192
          0.000024852323849113408 0.000024827564429390763 0.000024751989682217588 0.000028678500910444415 0.000028654398882567727 0.000028574507224375956
          0.000032449983269541337 0.000032435992166381303 0.00003236575491864632 0.00003548033824454699 0.000035475682411778834 0.000035448707762262795
          0.00003672762904095984 0.00003672278484210103 0.000036715327607320344 0.000039609770816365184 0.00003802620413329851 0.00003874295401660001
          0.000039611571377065274 0.00003802594893567396 0.00003874441015099729 0.00003961479632365299 0.0000380234754636475 0.0000387491269427326
        </DataArray>
        <DataArray type="Float64" Name="disp_y" format="ascii" RangeMin="-0.00002857782376260216" RangeMax="-0.000003836861650661123">
          -0.000003840135609832914 -0.000003839358197528105 -0.0000038386572649349695 -0.000003838188202383727 -0.000003837144116762345 -0.0000038375484408018595
          -0.0000040871084302463575 -0.000004082786243903874 -0.00000408256263116756 -0.0000040785482808406216 -0.000004072889922825194 -0.000004069930455912821
          -0.000004323129692426302 -0.000004311893305513549 -0.00000431250153602011 -0.000004301592104769758 -0.000004284871581991515 -0.000004275569548835799
          -0.000004583011187035166 -0.000004559044979158546 -0.000004561302826577877 -0.000004537460079576022 -0.00000449525897010333 -0.000004472646508892353
          -0.00000493737411217759 -0.0000048939014084274584 -0.000004897444102815899 -0.0000048536748404166276 -0.000004767600487166622 -0.000004723355971688649
          -0.000005482762594407154 -0.000005414189839918043 -0.0000054172955169755076 -0.000005347998965721368 -0.000005201584981162025 -0.00000512971284608443
          -0.000006319213550849668 -0.000006220913989585371 -0.000006223405071667509 -0.0000061243451504343785 -0.0000059082140932506944 -0.000005804439107101768
          -0.000007555436809271358 -0.00000741936649266209 -0.000007424843194170073 -0.000007287131463344323 -0.000006995988505204167 -0.0000068520083627533344
          -0.000009305161358974652 -0.000009108459503755782 -0.000009127709142432002 -0.000008919715696230701 -0.000008527727310865818 -0.000008293046942382075
          -0.00001160848132294743 -0.000011266721050594414 -0.0000113659685556283 -0.000011010228922925668 -0.000010445222761239677 -0.000010003728625918409
          -0.000003843165712528065 -0.000003840783582231337 -0.000003836861650661123 -0.000004101581835053538 -0.000004096178643071861 -0.000004083380082521552
          -0.000004358751104719675 -0.000004347538902976028 -0.000004315872422956306 -0.0000046575052375445525 -0.0000046356524980532705 -0.0000045668270385146395
          -0.0000050707697852512204 -0.000005031669319710164 -0.000004903332741303851 -0.000005690003938758921 -0.000005626727196780239 -0.0000054186804148899426
          -0.000006614941530018763 -0.000006522171543012404 -0.0000062209408507172495 -0.000007963551127520928 -0.000007838242069536444 -0.000007431115975203928
          -0.000009890996433062308 -0.000009734370759310526 -0.000009196177989152847 -0.000012573602199272403 -0.000012356693480897422 -0.000011596610667152088
          -0.000003850509322597188 -0.000003846794835129824 -0.000003838875800380819 -0.000004129636194572131 -0.0000041230769133077965 -0.000004105154659960091
          -0.000004424884531430853 -0.000004412923134384051 -0.000004375115236589874 -0.000004789978294851244 -0.000004768146704310994 -0.000004695393494668629
          -0.000005300996330835335 -0.000005262993834493615 -0.000005137330770347245 -0.000006039252770985064 -0.000005979648717590936 -0.000005784166514373477
          -0.000007105632779790896 -0.000007018150953811022 -0.000006740241717828627 -0.000008642506681804623 -0.000008527271340363142 -0.00000815566927640277
          -0.000010800683353296441 -0.000010669489115606631 -0.000010212466233764329 -0.000013613156729628384 -0.000013470420600274019 -0.000012971998714053482
          -0.000003865771254558757 -0.000003860500573257704 -0.000003846721320977255 -0.000004177375846102697 -0.000004169678915674293 -0.0000041450199081505465
          -0.00000453170085684081 -0.00000451843309962192 -0.000004473011866249498 -0.000004991622804213942 -0.000004969445199513068 -0.000004892421944412577
          -0.000005635772337108544 -0.000005599852580172853 -0.000005478952597892965 -0.0000065344971781303435 -0.0000064796098253468195 -0.000006301379102883569
          -0.000007788130197420339 -0.000007708837045108925 -0.000007462310035459668 -0.000009550625644628976 -0.000009447840898400629 -0.000009124252675413078
          -0.000011952554995086245 -0.000011853511964368369 -0.000011496736065731445 -0.000014942716500085701 -0.000014870688569085864 -0.000014625875054538142
          -0.00000389508477239624 -0.000003888614417915538 -0.000003867371092991251 -0.000004255130674283585 -0.000004245745524008113 -0.000004212784779535587
          -0.0000046896990728689205 -0.000004675520736033278 -0.0000046220221474041626 -0.000005272233270411612 -0.000005250817413339112 -0.000005171618654259491
          -0.000006082056240294353 -0.000006048211687040996 -0.000005934954391308589 -0.00000717542728693764 -0.000007126152509358441 -0.000006969336072300662
          -0.000008648328681062098 -0.000008579142170570684 -0.000008369834921212705 -0.000010640423493345057 -0.0000105551211052428 -0.000010292338162267422
          -0.000013250999982167684 -0.000013183952662301299 -0.000012934155736463376 -0.00001644350120220792 -0.000016405019555323946 -0.000016322963639344312
          -0.0000039487558515992845 -0.000003940360945952806 -0.000003910149716292656 -0.0000043731292126460305 -0.0000043618445995872784 -0.000004319449514682476
          -0.000004910387242110046 -0.000004894565669127215 -0.000004833772839573788 -0.0000056438687051172986 -0.000005622147156779788 -0.00000554220070100341
          -0.000006642073126440821 -0.000006610326983649189 -0.000006507286484696827 -0.00000795416304884248 -0.000007910897452091834 -0.000007778471848892309
          -0.000009659847076493357 -0.000009602482386746129 -0.000009435060185756358 -0.000011865915896841006 -0.000011800751582945731 -0.000011604915900884326
          -0.000014628265736603381 -0.000014585537867214579 -0.000014432174387608802 -0.000017809487673681475 -0.000017817670111335866 -0.000017869655964445357
          -0.000004037097830882577 -0.0000040253171429300015 -0.000003985374839727025 -0.000004542010446433912 -0.000004527365524030611 -0.000004474715609552489
          -0.000005205375908001414 -0.000005187759043430949 -0.000005120840011941689 -0.000006111749552831867 -0.000006088663834867779 -0.0000060100408718209526
          -0.000007310208826361593 -0.000007280531769382202 -0.000007189500453858794 -0.00000885169603233331 -0.000008814973788650765 -0.000008708736301353369
          -0.00001078902684658527 -0.000010744841644560788 -0.00001062167519034908 -0.000013172836879698143 -0.00001312886902931952 -0.000013000504405772864
          -0.000016009677170931683 -0.00001599175253445015 -0.000015926470136736473 -0.000019121484023924777 -0.00001914833825051465 -0.000019270757619440474
          -0.000004171530817622647 -0.000004155943879527542 -0.000004102550050018751 -0.00000477494583457565 -0.000004756245133068036 -0.000004690161302329019
          -0.0000055894942588584354 -0.000005566967234869331 -0.00000549431935562556 -0.00000667254007610577 -0.000006647712332331147 -0.0000065710008689812636
          -0.00000807231391644455 -0.00000804593822371183 -0.000007967720824776231 -0.000009835663817940334 -0.000009808275820618417 -0.000009729559962798211
          -0.000011988687100795337 -0.000011962372860354276 -0.000011885477002354559 -0.000014512399970461583 -0.00001449469335741567 -0.000014434143837356247
          -0.000017344332794584166 -0.00001734808268367306 -0.000017356073030967227 -0.00002039868210853449 -0.00002042767792189373 -0.00002058831525361505
          -0.000006057964818461169 -0.000006032916488211667 -0.000005957062709174074 -0.000007314454897279783 -0.000007288845109985371 -0.000007217708284417791
          -0.000008906574457690076 -0.00000888208097372367 -0.000008820819026888318 -0.000010869603202368395 -0.000010847554693827535 -0.000010801631212940032
          -0.000013205914469500176 -0.00001318907832761421 -0.000013164434339045388 -0.000015851846859842 -0.000015847821086679116 -0.000015861533840281814
          -0.0000186443827109658 -0.000018656540215084738 -0.00001873712497507224 -0.000021382828338206213 -0.000021431843729899862 -0.000021572713601128498
          -0.00002161126992847963 -0.00002162232077687398 -0.00002221276943175519 -0.000022370829491173056 -0.000021682212702513538 -0.00002169430145170647
          -0.000022274896010195717 -0.00002242723925265553 -0.00002186158589999461 -0.000021918929705194252 -0.000022475206705098998 -0.000022556871388811523
          -0.000021866314852082716 -0.000022458353095563802 -0.00002193282182128876 -0.000022506214549378468 -0.000022050635195734604 -0.000022617594094154667
          -0.00002123195979601694 -0.000021887164914813995 -0.00002138735334031616 -0.000021305625155037756 -0.000021950257360253664 -0.00002146339307862833
          -0.000021564732800254924 -0.000022068839749755036 -0.00002165406915376646 -0.000013865262466863246 -0.000014904088569906815 -0.000015198474001136797
          -0.00001474708822174676 -0.000013521884798652143 -0.00001464472648728947 -0.000014813135404429782 -0.000014306832119453549 -0.00001223075694547296
          -0.000013547126560797684 -0.000013271145664669975 -0.000012664839345753768 -0.000018862736083909527 -0.000019699053543008808 -0.00001966209500058222
          -0.00001889970904396055 -0.000018933053317402647 -0.000020003082371350617 -0.0000198795960690338 -0.000018992914098672996 -0.00001941138167787013
          -0.000020662724750903144 -0.000020238254155831714 -0.000019717749020009385 -0.000015091203670068781 -0.000015863271069184203 -0.000014830885089213089
          -0.00001422665138654328 -0.00001500662102735709 -0.000015809438457947786 -0.000014703909595783915 -0.000014074218773819757 -0.00001468086111770115
          -0.000015517867334380926 -0.00001417477314003226 -0.000013493388315083213 -0.000019687523264069037 -0.000019061263914350994 -0.000020410763354773336
          -0.000020807075398505882 -0.000019758833464888847 -0.000019095326754921442 -0.0000204575364070725 -0.00002088505281802003 -0.000020048005575208598
          -0.00001929361034904794 -0.000020710679212909196 -0.000021218891205745394 -0.000021306182105523385 -0.000020118144030397285 -0.000021353352885940487
          -0.000020152393310019518 -0.00002157744601172076 -0.000020346709418281225 -0.000014323702259412795 -0.0000153228779420379 -0.000014106647929304412
          -0.000015208350715139594 -0.000013262393644453525 -0.000014727099709767239 -0.00002061423819785722 -0.00002065367340759462 -0.000020009256690497994
          -0.000019741814229543225 -0.000020727667474150688 -0.000020743932593134588 -0.000020120828500246206 -0.000019848384477580246 -0.000020949265696500773
          -0.00002102316502358025 -0.00002047395190721171 -0.000020459664990939676 -0.000011900548043708942 -0.000012431560390996789 -0.000013115815876619559
          -0.000012329569549322374 -0.00001162897893440647 -0.000012146652785636166 -0.000012772388962803998 -0.000012007724616567796 -0.0000105413403133902
          -0.000011054349391161656 -0.000011408669265804716 -0.000010727084582744799 -0.000015975256899819992 -0.000016464855277632263 -0.000015727829652139392
          -0.000016052261322184823 -0.00001465729338626682 -0.000014394656970572587 -0.00002284419136871651 -0.000023689203484207474 -0.000023814272810732825
          -0.00002315552203125561 -0.000022898373208557605 -0.00002372965375713361 -0.000023850083858882092 -0.000023196615952035158 -0.00002306871658490419
          -0.000023852884647803804 -0.000023941347572820128 -0.00002330002665290312 -0.00002333597329219463 -0.00002502042986893134 -0.000022591132679389835
          -0.000020285296183801663 -0.000022594822179627403 -0.000024042729965377723 -0.000021695885649500204 -0.000019727088498369314 -0.000019971662971565547
          -0.000019718281780369688 -0.00001804315964858044 -0.00001772680576715517 -0.000020587728528037174 -0.000020529972329760292 -0.000020885198875308512
          -0.0000210688720327263 -0.000020678611781567372 -0.00002062230785723345 -0.000020959026801770056 -0.00002114606688076109 -0.000020936742223497674
          -0.000020983649761494455 -0.00002128748420100724 -0.00002141017489355258 -0.000018007997495520816 -0.000018282645282377796 -0.000018029467349313505
          -0.00001833391801934272 -0.000018146709269611585 -0.000018532388186683032 -0.000013284660293704005 -0.000013020388930721692 -0.000012089815484258787
          -0.000020829468786363223 -0.000021023472809522208 -0.000020944019104392552 -0.000021093702549479007 -0.000021202225059982696 -0.00002121001181442463
          -0.000020459615774643164 -0.000020641335210159144 -0.00002140446228343414 -0.000020403506243562483 -0.00002072531968069051 -0.000021451257947975668
          -0.00002062356130856717 -0.00002134053138879802 -0.00002185083881155295 -0.000017733274313698317 -0.000018240667121242937 -0.00001699225868629433
          -0.00001632280142413562 -0.00001787303918369715 -0.00001833676877514255 -0.000016998584046672437 -0.00001626037882203091 -0.000018087865439009358
          -0.000018670496180938197 -0.00001732513078884908 -0.00001598381745415332 -0.00001346858416346727 -0.000014467304391119693 -0.000014700567394099444
          -0.000013053745351956689 -0.000013996244762934507 -0.000014180683323607158 -0.000011477738427554672 -0.000012261885136676073 -0.000012272157147794947
          -0.000021690923369170225 -0.00001912652258860451 -0.000021747327352391708 -0.000019160542908605672 -0.000022016201074160188 -0.000019326151108753803
          -0.000019547488076987115 -0.00001870962317172263 -0.000019723133184862713 -0.00001875259332410172 -0.000020281029223207534 -0.000019869387557716184
          -0.000020162560555462072 -0.000021298758433294238 -0.000020288636159557557 -0.000021350100846646383 -0.000020808814073770835 -0.00002179009213127057
          -0.00002084027809493014 -0.000018994528416429782 -0.00002108900761033958 -0.00002300352438701653 -0.00001981575002416801 -0.00001816496627390756
          -0.000020159135414184922 -0.000021837838273302916 -0.000015941366869175506 -0.000015137330517173183 -0.000016486362274662232 -0.000017184049278315695
          -0.00001727198469701809 -0.000017612734891084517 -0.000016415162006324386 -0.00001728026393368548 -0.000017683656335361633 -0.00001637102956449837
          -0.000017251356447568183 -0.00001776554411655329 -0.00001608887136604926 -0.00002229513760068929 -0.000021993356085960707 -0.00002235886476566571
          -0.000022054166583483667 -0.000022619125769219635 -0.00002233082694555034 -0.000016610190729655812 -0.000017864364137816153 -0.000016577735215807977
          -0.000017853241169563422 -0.000016493186526488034 -0.00001791548617433945 -0.000019549049718414768 -0.0000189949976126836 -0.000019656672283570352
          -0.000019156036824936347 -0.000020039870572757837 -0.000019571770224102962 -0.000020588288472124033 -0.00002192963380011547 -0.000020666930957323497
          -0.000021996586829444752 -0.00002106708345105158 -0.000022309465842407217 -0.000021975231535429744 -0.00002231899920073562 -0.00002239933159321832
          -0.000022033095500109788 -0.0000223688570757145 -0.00002244548723383953 -0.000022144349542568528 -0.000022470358967807858 -0.00002254278994119248
          -0.00002294684816931776 -0.00002348112053210345 -0.000022138891240451625 -0.00002299805786905291 -0.000023528582925960905 -0.000022201904429472195
          -0.000023185787053804758 -0.000023703004711242684 -0.00002248811933200514 -0.000015549035400859588 -0.00001718404588292285 -0.00001667140519236494
          -0.000014963860081221776 -0.00001647459669451012 -0.0000159846162506405 -0.000012895637464405876 -0.000013919956961717805 -0.000013476515204242235
          -0.00001870800398473946 -0.000017850769410834917 -0.000014696194681164803 -0.000023191697226978703 -0.000023045941853787474 -0.000023403681848089833
          -0.00002356611759135048 -0.00002322525742249052 -0.0000230830032472776 -0.00002343676510284957 -0.000023595186730336977 -0.00002330453670943614
          -0.00002316815384951187 -0.00002351441717543415 -0.000023664443500156334 -0.000016253369278605292 -0.000017867620332260752 -0.000015663376161516306
          -0.00001719822826312351 -0.000013586140362367039 -0.00001480273960518044 -0.000022706179084939477 -0.000022803317007006103 -0.000022747923761357614
          -0.00002284220178890479 -0.000022842024193574575 -0.00002293020838392735 -0.00002258546024065112 -0.00001971691080599254 -0.00002158128892502507
          -0.00001897401844510579 -0.000017468452585559273 -0.000016221820637374877 -0.00001734299192891269 -0.000018919934517112165 -0.000017050112834247308
          -0.000018628622293904363 -0.000015911242467603443 -0.000018125425078701297 -0.000023016824066439562 -0.000023056578643654016 -0.000023146810339994614
          -0.000022231040160249097 -0.00002229340581825281 -0.000022453448375893366 -0.000017661498808732253 -0.000017768276845801 -0.000017811182026042317
          -0.000017904750944382476 -0.000018889827827678076 -0.000019859524114529867 -0.000021281515756838352 -0.000021335184852877873 -0.00002161940116082684
          -0.000020018634540584102 -0.000020124871219598514 -0.00002078840848129099 -0.000021531493794925608 -0.00002160167368170031 -0.000021759585659507916
          -0.000022723953590074186 -0.000022787794218465273 -0.000023021210565778022 -0.00002389080544952973 -0.000023920698465387342 -0.00002398808296009957
          -0.000019221825370437535 -0.000019464841073665625 -0.00002035826004525919 -0.000020286260107513902 -0.000019998447377135372 -0.000020056526316763967
          -0.00002507528344157288 -0.000023804567584734334 -0.000018356549935881022 -0.000011657510028038565 -0.000011377706326263047 -0.000010274252247936833
          -0.00002392528391213698 -0.000023951211047813484 -0.000024011314719146012 -0.000020105848950367112 -0.000020210994705470716 -0.00002049008840920408
          -0.000010112937704592657 -0.000010098925297148671 -0.000010056265963746998 -0.000013163408269791354 -0.000013155920345184993 -0.000013133659743436405
          -0.000012244603030562073 -0.000012236388910105208 -0.000012209975196406108 -0.000015563991572541354 -0.000015561828773741064 -0.000015555964370041545
          -0.000014690401275335446 -0.000014689547747552913 -0.00001468511761946203 -0.00001737121784653678 -0.000017380390671397592 -0.000017404588116933803
          -0.000020123487117907758 -0.000020149167122330084 -0.000020215584084208217 -0.000022711021071348523 -0.000022746446674400787 -0.000022872374234451503
          -0.000024894638234964935 -0.000024932535254861014 -0.000025078170273421772 -0.000023731146647267514 -0.000024360121213183473 -0.000023775309212328484
          -0.000024393661452751385 -0.000023934219086616824 -0.000024543464729627965 -0.0000258361759398342 -0.00002603490940870722 -0.00002483493230268374
          -0.0000246905935530108 -0.000025863117074992075 -0.000026054556490328175 -0.000024862208041350938 -0.00002472490559035621 -0.000025933551781254176
          -0.00002611052685816198 -0.00002493889297195714 -0.00002484218660254697 -0.00002492391134568894 -0.000024946910632775212 -0.0000250040765013095
          -0.00002557166528922344 -0.000025606101010925354 -0.000025700749778421158 -0.000026444722641079727 -0.000026459941329428524 -0.0000265011724304561
          -0.00001867077248843218 -0.000016230789974436854 -0.000018675384768714028 -0.00001622989818391922 -0.00001868840726572759 -0.000016226812244971288
          -0.000018160177595504206 -0.000018165165813658658 -0.0000181811452162403 -0.0000211675323616305 -0.00002117880024020873 -0.00002121144646109148
          -0.00002082711685054161 -0.000020840744270264573 -0.000020884092522939314 -0.00002336783673560341 -0.000023394148991231184 -0.00002347130959678845
          -0.000025521357270339142 -0.000025554828794724022 -0.00002566786632106446 -0.000026997847689446085 -0.000027026674487598045 -0.000027120778806090766
          -0.000027162816188352274 -0.000027186204226901473 -0.000027248326556712133 -0.00002811322959810194 -0.000027282645382295522 -0.000028523233257350383
          -0.000028127610291791336 -0.00002729836039135983 -0.000028536758141578592 -0.00002817135717751077 -0.00002734684513152829 -0.00002857782376260216
        </DataArray>
        <DataArray type="Float64" Name="disp_z" format="ascii" RangeMin="-0.000020998479309241783" RangeMax="4.212984215398117e-7">
          0 0 -7.460884659404599e-8 -7.31597417142417e-8 -1.5651789903522326e-7 -1.530962982297089e-7
          0 0 -7.483091607779663e-8 -7.199383468744696e-8 -1.6287068048937398e-7 -1.5623319525881858e-7
          0 0 -9.249374814971607e-8 -8.652194570247719e-8 -2.0748653735896698e-7 -1.9528806942255957e-7
          0 0 -1.565903052831716e-7 -1.4720413418537058e-7 -3.490377099140846e-7 -3.2806910299193956e-7
          0 0 -3.2318394149245417e-7 -3.097009004355794e-7 -6.977531523132979e-7 -6.720354805635917e-7
          0 0 -6.535584906868149e-7 -6.410908101998946e-7 -0.0000013567759207037996 -0.0000013339932781687472
          0 0 -0.0000011990686065078248 -0.0000011932443862107218 -0.0000024215888945357356 -0.0000024115957666057078
          0 0 -0.0000020032345327362136 -0.000002015083734336776 -0.0000039824309957122286 -0.000004005141757934108
          0 0 -0.0000031877422120197285 -0.000003228254066339093 -0.000006285560628722735 -0.000006370421344586413
          0 0 -0.000005481469070802917 -0.000005729173044964539 -0.000010752930976164743 -0.000011221487597980787
          0 -7.970140779746042e-8 -1.6862349781456066e-7 0 -8.427906195511269e-8 -1.8409735546668027e-7
          0 -1.1088710226302584e-7 -2.4625778563658067e-7 0 -1.8680876747559814e-7 -4.1155070652742616e-7
          0 -3.62978101868455e-7 -7.738049132326632e-7 0 -6.902818086668616e-7 -0.0000014237353918735681
          0 -0.0000012138446000907479 -0.000002446542164173247 0 -0.000001973593187601885 -0.000003924873550940842
          0 -0.0000030445178597313146 -0.000005999417945569267 0 -0.000004900338645109561 -0.000009635176823703459
          0 -9.008157987638311e-8 -1.9350833331847568e-7 0 -1.0271339016103817e-7 -2.2505806537592114e-7
          0 -1.4379518483802415e-7 -3.159628005271989e-7 0 -2.3956337599137114e-7 -5.167142440528422e-7
          0 -4.27759498650028e-7 -8.973746106177106e-7 0 -7.476140477670085e-7 -0.000001528108019341595
          0 -0.0000012354377451753816 -0.0000024829169579436 0 -0.0000019165880997551563 -0.000003810680645406446
          0 -0.000002854320797953417 -0.000005634287843423885 0 -0.000004137781119665989 -0.000008154408245390606
          0 -1.0816594239044609e-7 -2.353776203438765e-7 0 -1.3410783676541917e-7 -2.9437327202714536e-7
          0 -1.9502254424476142e-7 -4.227952740922887e-7 0 -3.1411071259135196e-7 -6.656784315969574e-7
          0 -5.151739393246919e-7 -0.0000010616420228770805 0 -8.200360636535214e-7 -0.0000016599788645138157
          0 -0.000001257173454964304 -0.000002518130750299519 0 -0.0000018403715804839449 -0.000003660547108138601
          0 -0.00000259775783309769 -0.000005130683014245866 0 -0.0000033075708627961147 -0.000006565964500435002
          0 -1.3873252418235285e-7 -3.0168265642093327e-7 0 -1.8385147026249411e-7 -3.983236233919994e-7
          0 -2.6923073179703486e-7 -5.699082835262581e-7 0 -4.1286976540623077e-7 -8.552339212748582e-7
          0 -6.198268605771396e-7 -0.0000012561912956949808 0 -9.002462713230704e-7 -0.0000018060368754733178
          0 -0.0000012721601069083598 -0.000002539908786451143 0 -0.0000017433073809497209 -0.0000034697787474949284
          0 -0.000002288820171696876 -0.000004533101707030032 0 -0.0000025380044837177697 -0.00000510058117910221
          0 -1.887831679114607e-7 -3.9955016287063733e-7 0 -2.5861752424967306e-7 -5.41555793496037e-7
          0 -3.707218322181175e-7 -7.6191561748138e-7 0 -5.343998528100171e-7 -0.0000010793068776869205
          0 -7.35316336649545e-7 -0.0000014688453828985418 0 -9.79675004757681e-7 -0.000001950595137914863
          0 -0.000001273668932864841 -0.0000025375973176759204 0 -0.0000016150876242597437 -0.0000032208675908712423
          0 -0.0000019602865454286185 -0.000003911205528224036 0 -0.000001865021098410493 -0.0000038032598528601676
          0 -2.6454700477048897e-7 -5.377669977279268e-7 0 -3.6639882280669667e-7 -7.305074906450045e-7
          0 -5.038276434359139e-7 -0.0000010018958807452975 0 -6.73152487308053e-7 -0.0000013286769099891063
          0 -8.550709462749096e-7 -0.0000016866982983266996 0 -0.000001049673754658613 -0.0000020784132754224114
          0 -0.000001252733111360537 -0.000002497268574726928 0 -0.000001454303860427561 -0.0000029169665737044345
          0 -0.0000016025222818445655 -0.000003242849590380866 0 -0.0000013007797622840186 -0.000002743160158725902
          0 -3.703048151025324e-7 -7.142818435759859e-7 0 -5.08945035912017e-7 -9.774775824488817e-7
          0 -6.632215870274751e-7 -0.000001282810152647786 0 -8.227853009811264e-7 -0.0000015948603659473228
          0 -9.718467916273801e-7 -0.0000018991366666553888 0 -0.0000011025640413742434 -0.000002176472634208988
          0 -0.0000012021203134314366 -0.0000024048586337106363 0 -0.0000012568549642759569 -0.0000025534387191527907
          0 -0.000001217290739469393 -0.0000025322350603892584 0 -8.256878742894723e-7 -0.0000018209604759804033
          0 -8.205330501186986e-7 -0.000001617838526514231 0 -9.600437545360194e-7 -0.0000018933105564747775
          0 -0.0000010688818712674363 -0.000002111279357062721 0 -0.000001128988466359071 -0.000002238455040517856
          0 -0.0000011227889064169965 -0.0000022381937943796463 0 -0.0000010408682389045287 -0.0000020894682303011526
          0 -8.49673264772079e-7 -0.00000173434861720052 0 -4.93606282678959e-7 -0.0000010410430842257147
          0 0 0 0 -2.8072556986833843e-8 -8.362037988473241e-8
          -8.243366829312292e-8 -3.406471281057297e-8 -8.197086397114045e-8 -1.70401696598217e-7 -1.8543762718905576e-7 -7.84408292329581e-8
          0 0 6.236818253085324e-9 6.75481621542727e-10 4.637532553896837e-9 -1.2135051313825292e-8
          0 0 0 1.141839559577193e-8 3.390695204788206e-8 4.813904047475087e-8
          1.667329582932799e-8 4.934038597496396e-8 5.3293323653741623e-8 0 0 0
          0 -0.000006151884935666198 -0.000005530272071958667 -0.000006740336801102783 -0.000006860743150814445 -0.000012132821226465476
          -0.000010971357626727918 -0.000013453620059037974 -0.000013616957877546824 0 0 0
          0 -0.0000014691622152510084 -8.710096799811903e-7 4.7135085256680724e-8 -0.000001051177672939382 -0.0000031734777035702856
          -0.0000017412794391109482 -6.077136250475047e-7 -0.00000233096640294188 0 0 0
          0 -0.0000036126843008983987 -0.000003542166083104139 -0.0000045215464436290124 -0.000004520863870387918 -0.00000713084864118931
          -0.000007058178851169805 -0.000008962370994187334 -0.000008940195799297034 0 0 0
          0 -0.0000012078718522586577 -0.0000014540205362984643 -9.180967365628472e-7 -7.304140190746675e-7 -0.0000025085874758254726
          -0.000002974899819903394 -0.0000020750876086731987 -0.0000017443754431111207 0 0 -6.295218159996113e-7
          -9.945764351795724e-7 -0.0000013284494293745515 -0.0000021739810197173693 0 0 -0.000004984584123127188
          -0.0000047117564963245975 -0.000009758990864385625 -0.000009393674822465729 0 0 0
          0 -1.5503370180898294e-8 2.8949383839945045e-8 2.71549165604448e-8 -2.1623075459338074e-9 -1.1688967311669793e-7
          6.987475443040341e-8 5.7813174714916036e-8 -1.0635056264218312e-7 0 0 0
          0 -0.000006133607244731538 -0.000005858220085316003 -0.000006566636891980174 -0.00000659358235240683 -0.00001209986447532901
          -0.000011461445440086523 -0.00001295538192000078 -0.000013047325201113114 0 0 -0.000005465939019391346
          -0.000006732187711363161 -0.000010748694062394979 -0.000013571300854040878 0 0 0
          0 -8.542558669175646e-8 -9.741386661499054e-8 -5.951632632997795e-8 -3.9789872003426433e-8 -1.994750940731056e-7
          -2.122161179163156e-7 -1.3115976023913066e-7 -8.859304956954183e-8 0 0 0
          0 -0.000008098608039976505 -0.000009327853895774918 -0.000008247731548597052 -0.000007056007265022415 -0.000016583232835222887
          -0.000018856314884552935 -0.000016169432565450744 -0.00001416040754663063 0 0 0
          0 9.576320640261725e-8 4.915736350447135e-8 6.125994834583679e-8 9.588910678345359e-8 -3.2201498255242994e-8
          4.187698470841743e-8 1.0821195019058123e-7 1.7535815864103212e-7 0 0 -0.000002000056049660698
          -0.0000019709340841417637 -0.0000040456021778053975 -0.000004092155601515936 0 -0.000005297715706002471 -0.000010479786276643267
          0 0 -5.1032293717279994e-8 -7.08683143625207e-8 -1.822713323560539e-7 4.212984215398117e-7
          0 0 0 -7.677871983333616e-8 -3.4603631107825013e-7 -1.4121726458765705e-7
          -2.6698361982964458e-8 -0.00000106505818192338 -4.479583253022921e-7 0 0 0
          0 -0.0000031087224737094194 -0.000002754645620895502 -0.00000431339086726594 -0.000004422472037120045 -0.0000064099459657762515
          -0.000006167484219181835 -0.0000085877983007369 -0.000008809081817402046 0 0 0
          -0.000006762198843608994 -0.00000708206417822334 -0.000007178211058974746 -0.00001324089942432455 -0.000014098059150258855 -0.000014201138874865279
          0 0 -5.278459314444577e-7 -0.0000014127585923318 -0.0000012130840090191211 -0.000002971868647829182
          0 0 -1.3205317556779522e-7 -3.684943635873628e-7 -6.216192819392909e-7 -0.000001186822900927286
          0 0 -7.886397620225974e-7 -3.6443304335646017e-7 -0.0000016143045167643151 -9.531532448189723e-7
          0 0 0 0 -0.00000805090863311555 -0.000007867333763883823
          -0.000008713141633811439 -0.000009124798151810624 -0.00001598724504786241 -0.000015632033001072122 -0.000017380927129005597 -0.00001821448332670718
          0 0 0 -0.00000273134434205277 -0.000002792773044746831 -0.0000036749302305966516
          -0.000005515032756144507 -0.0000056150369485401565 -0.0000073962503739002166 0 0 -1.367731030774623e-7
          -1.2225285298725292e-7 -3.9083435911232636e-7 -3.4790748636420525e-7 0 0 -0.0000026898435664589457
          -0.0000019545391367756647 -0.0000053881252627332905 -0.000003961165394954775 0 0 -0.0000013952423534804064
          -0.0000019016240310472718 -0.0000029836799528429583 -0.000004232346802080985 0 0 -7.541707876915707e-7
          -3.232787802411978e-7 -0.000001923403248434145 -7.823065678104457e-7 0 0 0
          6.529908089452522e-8 2.7534507561503732e-8 4.998210377063633e-8 8.842439478105792e-8 3.650453024034428e-8 7.004792912397843e-8
          0 0 0 -3.0695231555884583e-7 -1.6426589735489968e-7 -3.2998261464703105e-7
          -7.336715554089488e-7 -3.9418807247650834e-7 -7.638959453220416e-7 0 0 0
          -0.00000724065693182484 -0.000007534881105171481 -0.000007419997672506742 -0.000014305602305970367 -0.000014954486773748504 -0.000014769129094008209
          0 -0.000007581080647813314 -0.000015053019407131658 0 0 0
          0 2.855699427525402e-8 1.1109053140818611e-8 -1.550309313312229e-9 1.942087213124035e-8 3.9256314876147976e-8
          1.0910027604093806e-8 -1.2644371725041305e-8 2.5774582966221746e-8 0 0 -0.000007129513776044289
          -0.000007634832834674741 -0.000013998777417306932 -0.000015243391763323154 0 0 2.0008653391988338e-8
          3.83702962792771e-8 2.458580210237621e-8 5.379788481056943e-8 0 0 -0.000009142080489880867
          -0.00000775013091662615 -0.000018592306183002232 -0.000015426403707355957 0 0 -0.000005626722578585457
          -0.0000059214036771585335 -0.000011112610719589065 -0.000011938909288386914 0 -8.806189579262822e-9 -2.577495967550622e-8
          0 -4.3492907108018216e-7 -9.503222060095901e-7 0 0 -0.0000026336476768741107
          -0.0000016344304652474523 -0.0000052119749834565014 -0.0000035401292385460247 0 -5.558559176617001e-7 -0.0000011622563757684977
          0 -1.2461932847679962e-7 2.1507025060109573e-7 0 8.565850172512327e-8 1.2643524778924942e-7
          0 -1.6682897141229587e-7 -4.656165064585093e-7 0 -2.4013771126379316e-8 -5.6421713520266885e-8
          0 -1.3750834710882224e-7 1.8151271833617277e-7 0 -0.000004799150918397842 -0.00000973715610727333
          0 -0.000010492128428700736 -0.000020998479309241783 0 -0.000006192504236246976 -0.000012302924970057486
          0 1.1433025156747128e-8 8.653975135256477e-9 0 8.70121454457638e-8 3.269966693903046e-8
          0 -8.762111339329712e-7 -0.0000017328149216777794 0 -8.248914014467909e-7 -0.0000016491807417149184
          0 -9.423787757729067e-7 -0.0000018669674403509348 0 -8.537135188738595e-7 -0.0000017050346035703749
          0 -9.70317229924815e-7 -0.0000019274709013976472 0 -9.481753701769237e-7 -0.0000018908567101881977
          0 -8.620560641765892e-7 -0.0000017271897891285928 0 -6.859349425859059e-7 -0.0000013988788012304672
          0 -3.268940628271646e-7 -6.89106808990102e-7 0 0 -3.443860628692035e-7
          -2.4497235992214183e-7 -8.195433120996706e-7 -5.464127588828222e-7 0 0 0
          0 -1.4153439942114538e-7 -9.137048520767996e-8 -7.56956824387638e-8 -1.3860131981915628e-7 -3.014212650223208e-7
          -1.8090738293515852e-7 -1.670646890642857e-7 -3.0163512911694164e-7 0 -4.028777591473316e-8 -7.47045386154607e-8
          0 -1.7926172750744163e-7 -3.575037266128067e-7 0 -2.6614469677345675e-8 -5.724056810937775e-8
          0 0 -7.700251251624389e-7 -7.789997314593273e-7 -0.0000015357239275470431 -0.0000015540170684016179
          0 -8.478649425530042e-7 -0.0000016914101639508084 0 -7.270464594893787e-7 -0.000001449763216516139
          0 -7.962129394610834e-7 -0.0000015861276162254757 0 -6.865321411000746e-7 -0.0000013638177769313333
          0 -5.063439857010659e-7 -0.0000010124848051861993 0 -2.549225945858614e-7 -5.139073907374858e-7
          0 -1.644117832159773e-7 -3.416903453438406e-7 0 0 0
          -3.2134941177631703e-8 -9.91322282613034e-8 -9.241327369824795e-8 -6.368906215416506e-8 -1.9918655473443749e-7 -1.875379570109412e-7
        </DataArray>
      </PointData>
      <CellData>
        <DataArray type="Int32" Name="libmesh_elem_id" format="ascii" RangeMin="40" RangeMax="1373">
          40 41 42 43 44 45
          46 47 48 49 50 51
          52 53 54 55 56 57
          98 99 100 101 102 103
          104 105 106 107 108 109
          110 111 112 113 114 115
          156 157 158 159 160 161
          162 163 164 165 166 167
          168 169 170 171 172 173
          214 215 216 217 218 219
          220 221 222 223 224 225
          226 227 228 229 230 231
          272 273 274 275 276 277
          278 279 280 281 282 283
          284 285 286 287 288 289
          330 331 332 333 334 335
          336 337 338 339 340 341
          342 343 344 345 346 347
          388 389 390 391 392 393
          394 395 396 397 398 399
          400 401 402 403 404 405
          446 447 448 449 450 451
          452 453 454 455 456 457
          458 459 460 461 462 463
          508 509 510 511 512 513
          514 515 516 517 518 519
          520 521 522 523 524 525
          526 527 528 529 530 531
          532 533 534 535 536 537
          538 539 540 541 542 543
          544 545 546 547 548 549
          550 551 552 553 554 555
          556 557 558 559 560 561
          562 563 564 565 566 567
          568 569 570 571 572 573
          574 575 576 577 578 579
          580 581 582 583 584 585
          586 587 588 589 590 591
          592 593 594 595 596 597
          598 599 600 601 602 603
          604 605 606 607 608 609
          610 611 612 613 614 615
          616 617 618 619 620 621
          622 623 624 625 626 627
          628 629 630 631 632 633
          634 635 636 637 638 639
          640 641 642 643 644 645
          646 647 648 649 650 651
          652 653 654 655 656 657
          658 659 660 661 662 663
          664 665 666 667 668 669
          670 671 672 673 674 675
          676 677 678 679 680 681
          682 683 684 685 686 687
          688 689 690 691 692 693
          694 695 696 697 698 699
          700 701 702 703 704 705
          706 707 708 709 710 711
          712 713 714 715 716 717
          718 719 720 721 722 723
          724 725 726 727 728 729
          730 731 732 733 734 735
          736 737 738 739 740 741
          742 743 744 745 746 747
          748 749 750 751 752 753
          754 755 756 757 758 759
          760 761 762 763 764 765
          766 767 768 769 770 771
          1186 1187 1188 1189 1190 1191
          1204 1205 1206 1207 1208 1209
          1222 1223 1224 1225 1240 1241
          1242 1243 1258 1259 1260 1261
          1276 1277 1278 1279 1300 1301
          1304 1305 1306 1307 1314 1315
          1316 1317 1326 1327 1328 1329
          1330 1331 1338 1339 1344 1345
          1348 1349 1356 1357 1358 1359
          1360 1361 1366 1367 1372 1373
        </DataArray>
        <DataArray type="Int32" Name="subdomain_id" format="ascii" RangeMin="103" RangeMax="143">
          103 103 103 103 103 103
          103 103 103 103 103 103
          103 103 103 103 103 103
          103 103 103 103 103 103
          103 103 103 103 103 103
          103 103 103 103 103 103
          103 103 103 103 103 103
          103 103 103 103 103 103
          103 103 103 103 103 103
          103 103 103 103 103 103
          103 103 103 103 103 103
          103 103 103 103 103 103
          103 103 103 103 103 103
          103 103 103 103 103 103
          103 103 103 103 103 103
          103 103 103 103 103 103
          103 103 103 103 103 103
          103 103 103 103 103 103
          103 103 103 103 103 103
          103 103 103 103 103 103
          103 103 103 103 103 103
          103 103 103 103 103 103
          103 103 103 103 103 103
          103 103 103 103 103 103
          103 103 103 103 103 103
          103 103 103 103 103 103
          103 103 104 104 104 104
          104 104 104 104 104 104
          104 104 104 104 104 104
          104 104 104 104 104 104
          104 104 104 104 104 104
          104 104 104 104 104 104
          104 104 104 104 104 104
          104 104 104 104 104 104
          104 104 104 104 104 104
          104 104 104 104 104 104
          104 104 104 104 104 104
          104 104 104 104 104 104
          104 104 104 104 104 104
          104 104 104 104 104 104
          104 104 104 104 104 104
          104 104 104 104 104 104
          104 104 104 104 104 104
          104 104 104 104 104 104
          104 104 104 104 104 104
          104 104 104 104 104 104
          104 104 104 104 104 104
          104 104 104 104 104 104
          104 104 104 104 104 104
          104 104 104 104 104 104
          104 104 104 104 104 104
          104 104 104 104 104 104
          104 104 104 104 104 104
          104 104 104 104 104 104
          104 104 104 104 104 104
          104 104 104 104 104 104
          104 104 104 104 104 104
          104 104 104 104 104 104
          104 104 104 104 104 104
          141 141 141 141 141 141
          141 141 141 141 141 141
          141 141 141 141 141 141
          141 141 141 141 141 141
          141 141 141 141 141 141
          141 141 141 141 141 141
          141 141 141 141 141 141
          141 141 141 141 141 141
          141 141 141 141 141 141
          105 105 105 105 105 105
          105 105 105 105 105 105
          105 105 105 105 105 105
          105 105 105 105 105 105
          105 105 105 105 106 106
          106 106 106 106 106 106
          106 106 106 106 106 106
          106 106 106 106 106 106
          106 106 106 106 106 106
          143 143 143 143 143 143
        </DataArray>
        <DataArray type="Int32" Name="processor_id" format="ascii" RangeMin="5" RangeMax="5">
          5 5 5 5 5 5
          5 5 5 5 5 5
          5 5 5 5 5 5
          5 5 5 5 5 5
          5 5 5 5 5 5
          5 5 5 5 5 5
          5 5 5 5 5 5
          5 5 5 5 5 5
          5 5 5 5 5 5
          5 5 5 5 5 5
          5 5 5 5 5 5
          5 5 5 5 5 5
          5 5 5 5 5 5
          5 5 5 5 5 5
          5 5 5 5 5 5
          5 5 5 5 5 5
          5 5 5 5 5 5
          5 5 5 5 5 5
          5 5 5 5 5 5
          5 5 5 5 5 5
          5 5 5 5 5 5
          5 5 5 5 5 5
          5 5 5 5 5 5
          5 5 5 5 5 5
          5 5 5 5 5 5
          5 5 5 5 5 5
          5 5 5 5 5 5
          5 5 5 5 5 5
          5 5 5 5 5 5
          5 5 5 5 5 5
          5 5 5 5 5 5
          5 5 5 5 5 5
          5 5 5 5 5 5
          5 5 5 5 5 5
          5 5 5 5 5 5
          5 5 5 5 5 5
          5 5 5 5 5 5
          5 5 5 5 5 5
          5 5 5 5 5 5
          5 5 5 5 5 5
          5 5 5 5 5 5
          5 5 5 5 5 5
          5 5 5 5 5 5
          5 5 5 5 5 5
          5 5 5 5 5 5
          5 5 5 5 5 5
          5 5 5 5 5 5
          5 5 5 5 5 5
          5 5 5 5 5 5
          5 5 5 5 5 5
          5 5 5 5 5 5
          5 5 5 5 5 5
          5 5 5 5 5 5
          5 5 5 5 5 5
          5 5 5 5 5 5
          5 5 5 5 5 5
          5 5 5 5 5 5
          5 5 5 5 5 5
          5 5 5 5 5 5
          5 5 5 5 5 5
          5 5 5 5 5 5
          5 5 5 5 5 5
          5 5 5 5 5 5
          5 5 5 5 5 5
          5 5 5 5 5 5
          5 5 5 5 5 5
          5 5 5 5 5 5
          5 5 5 5 5 5
          5 5 5 5 5 5
          5 5 5 5 5 5
          5 5 5 5 5 5
          5 5 5 5 5 5
          5 5 5 5 5 5
          5 5 5 5 5 5
          5 5 5 5 5 5
          5 5 5 5 5 5
          5 5 5 5 5 5
          5 5 5 5 5 5
        </DataArray>
      </CellData>
      <Points>
        <DataArray type="Float64" Name="Points" NumberOfComponents="3" format="ascii" RangeMin="0.0082758620689774" RangeMax="0.013139935358843113">
          0.00011111111111123 0.0082758620689751 0 0 0.0082758620689774 0
          0.00011111111111123 0.0082758620689751 0.00015 0 0.0082758620689774 0.00015
          0.00011111111111123 0.0082758620689751 0.0003 0 0.0082758620689774 0.0003
          0.00011111111111125 0.0086896551724226 0 0 0.0086896551724246 0
          0.00011111111111125 0.0086896551724226 0.00015 0 0.0086896551724246 0.00015
          0.00011111111111125 0.0086896551724226 0.0003 0 0.0086896551724246 0.0003
          0.00011111111111126 0.0091034482758696 0 0 0.0091034482758716 0
          0.00011111111111126 0.0091034482758696 0.00015 0 0.0091034482758716 0.00015
          0.00011111111111126 0.0091034482758696 0.0003 0 0.0091034482758716 0.0003
          0.00011111111111128 0.0095172413793168 0 0 0.0095172413793185 0
          0.00011111111111128 0.0095172413793168 0.00015 0 0.0095172413793185 0.00015
          0.00011111111111128 0.0095172413793168 0.0003 0 0.0095172413793185 0.0003
          0.00011111111111129 0.0099310344827632 0 0 0.0099310344827645 0
          0.00011111111111129 0.0099310344827632 0.00015 0 0.0099310344827645 0.00015
          0.00011111111111129 0.0099310344827632 0.0003 0 0.0099310344827645 0.0003
          0.00011111111111131 0.01034482758621 0 0 0.01034482758621 0
          0.00011111111111131 0.01034482758621 0.00015 0 0.01034482758621 0.00015
          0.00011111111111131 0.01034482758621 0.0003 0 0.01034482758621 0.0003
          0.00011111111111132 0.010758620689657 0 0 0.010758620689657 0
          0.00011111111111132 0.010758620689657 0.00015 0 0.010758620689657 0.00015
          0.00011111111111132 0.010758620689657 0.0003 0 0.010758620689657 0.0003
          0.00011111111111134 0.011172413793104 0 0 0.011172413793104 0
          0.00011111111111134 0.011172413793104 0.00015 0 0.011172413793104 0.00015
          0.00011111111111134 0.011172413793104 0.0003 0 0.011172413793104 0.0003
          0.00011111111111135 0.011586206896551 0 0 0.011586206896551 0
          0.00011111111111135 0.011586206896551 0.00015 0 0.011586206896551 0.00015
          0.00011111111111135 0.011586206896551 0.0003 0 0.011586206896551 0.0003
          0.00011111111111137 0.012 0 0 0.012 0
          0.00011111111111137 0.012 0.00015 0 0.012 0.00015
          0.00011111111111137 0.012 0.0003 0 0.012 0.0003
          0.00022222222222243 0.0082758620689727 0 0.00022222222222243 0.0082758620689727 0.00015
          0.00022222222222243 0.0082758620689727 0.0003 0.00022222222222246 0.0086896551724206 0
          0.00022222222222246 0.0086896551724206 0.00015 0.00022222222222246 0.0086896551724206 0.0003
          0.00022222222222249 0.0091034482758676 0 0.00022222222222249 0.0091034482758676 0.00015
          0.00022222222222249 0.0091034482758676 0.0003 0.00022222222222253 0.0095172413793151 0
          0.00022222222222253 0.0095172413793151 0.00015 0.00022222222222253 0.0095172413793151 0.0003
          0.00022222222222256 0.0099310344827619 0 0.00022222222222256 0.0099310344827619 0.00015
          0.00022222222222256 0.0099310344827619 0.0003 0.0002222222222226 0.010344827586209 0
          0.0002222222222226 0.010344827586209 0.00015 0.0002222222222226 0.010344827586209 0.0003
          0.00022222222222263 0.010758620689656 0 0.00022222222222263 0.010758620689656 0.00015
          0.00022222222222263 0.010758620689656 0.0003 0.00022222222222266 0.011172413793103 0
          0.00022222222222266 0.011172413793103 0.00015 0.00022222222222266 0.011172413793103 0.0003
          0.0002222222222227 0.011586206896551 0 0.0002222222222227 0.011586206896551 0.00015
          0.0002222222222227 0.011586206896551 0.0003 0.00022222222222273 0.012 0
          0.00022222222222273 0.012 0.00015 0.00022222222222273 0.012 0.0003
          0.00033333333333363 0.0082758620689704 0 0.00033333333333363 0.0082758620689704 0.00015
          0.00033333333333363 0.0082758620689704 0.0003 0.00033333333333368 0.0086896551724185 0
          0.00033333333333368 0.0086896551724185 0.00015 0.00033333333333368 0.0086896551724185 0.0003
          0.00033333333333373 0.0091034482758657 0 0.00033333333333373 0.0091034482758657 0.00015
          0.00033333333333373 0.0091034482758657 0.0003 0.00033333333333379 0.0095172413793133 0
          0.00033333333333379 0.0095172413793133 0.00015 0.00033333333333379 0.0095172413793133 0.0003
          0.00033333333333384 0.0099310344827607 0 0.00033333333333384 0.0099310344827607 0.00015
          0.00033333333333384 0.0099310344827607 0.0003 0.00033333333333389 0.010344827586208 0
          0.00033333333333389 0.010344827586208 0.00015 0.00033333333333389 0.010344827586208 0.0003
          0.00033333333333394 0.010758620689656 0 0.00033333333333394 0.010758620689656 0.00015
          0.00033333333333394 0.010758620689656 0.0003 0.000333333333334 0.011172413793103 0
          0.000333333333334 0.011172413793103 0.00015 0.000333333333334 0.011172413793103 0.0003
          0.00033333333333405 0.011586206896551 0 0.00033333333333405 0.011586206896551 0.00015
          0.00033333333333405 0.011586206896551 0.0003 0.0003333333333341 0.012 0
          0.0003333333333341 0.012 0.00015 0.0003333333333341 0.012 0.0003
          0.00044444444444486 0.0082758620689681 0 0.00044444444444486 0.0082758620689681 0.00015
          0.00044444444444486 0.0082758620689681 0.0003 0.00044444444444493 0.0086896551724165 0
          0.00044444444444493 0.0086896551724165 0.00015 0.00044444444444493 0.0086896551724165 0.0003
          0.00044444444444501 0.0091034482758637 0 0.00044444444444501 0.0091034482758637 0.00015
          0.00044444444444501 0.0091034482758637 0.0003 0.00044444444444508 0.0095172413793116 0
          0.00044444444444508 0.0095172413793116 0.00015 0.00044444444444508 0.0095172413793116 0.0003
          0.00044444444444516 0.0099310344827594 0 0.00044444444444516 0.0099310344827594 0.00015
          0.00044444444444516 0.0099310344827594 0.0003 0.00044444444444523 0.010344827586207 0
          0.00044444444444523 0.010344827586207 0.00015 0.00044444444444523 0.010344827586207 0.0003
          0.00044444444444531 0.010758620689655 0 0.00044444444444531 0.010758620689655 0.00015
          0.00044444444444531 0.010758620689655 0.0003 0.00044444444444538 0.011172413793103 0
          0.00044444444444538 0.011172413793103 0.00015 0.00044444444444538 0.011172413793103 0.0003
          0.00044444444444546 0.011586206896551 0 0.00044444444444546 0.011586206896551 0.00015
          0.00044444444444546 0.011586206896551 0.0003 0.00044444444444553 0.012 0
          0.00044444444444553 0.012 0.00015 0.00044444444444553 0.012 0.0003
          0.00055555555555597 0.0082758620689657 0 0.00055555555555597 0.0082758620689657 0.00015
          0.00055555555555597 0.0082758620689657 0.0003 0.00055555555555605 0.0086896551724145 0
          0.00055555555555605 0.0086896551724145 0.00015 0.00055555555555605 0.0086896551724145 0.0003
          0.00055555555555613 0.0091034482758618 0 0.00055555555555613 0.0091034482758618 0.00015
          0.00055555555555613 0.0091034482758618 0.0003 0.00055555555555621 0.0095172413793099 0
          0.00055555555555621 0.0095172413793099 0.00015 0.00055555555555621 0.0095172413793099 0.0003
          0.00055555555555629 0.0099310344827581 0 0.00055555555555629 0.0099310344827581 0.00015
          0.00055555555555629 0.0099310344827581 0.0003 0.00055555555555636 0.010344827586206 0
          0.00055555555555636 0.010344827586206 0.00015 0.00055555555555636 0.010344827586206 0.0003
          0.00055555555555644 0.010758620689655 0 0.00055555555555644 0.010758620689655 0.00015
          0.00055555555555644 0.010758620689655 0.0003 0.00055555555555652 0.011172413793102 0
          0.00055555555555652 0.011172413793102 0.00015 0.00055555555555652 0.011172413793102 0.0003
          0.0005555555555566 0.011586206896551 0 0.0005555555555566 0.011586206896551 0.00015
          0.0005555555555566 0.011586206896551 0.0003 0.00055555555555667 0.012 0
          0.00055555555555667 0.012 0.00015 0.00055555555555667 0.012 0.0003
          0.00066666666666675 0.0082758620689634 0 0.00066666666666675 0.0082758620689634 0.00015
          0.00066666666666675 0.0082758620689634 0.0003 0.00066666666666679 0.0086896551724125 0
          0.00066666666666679 0.0086896551724125 0.00015 0.00066666666666679 0.0086896551724125 0.0003
          0.00066666666666684 0.0091034482758598 0 0.00066666666666684 0.0091034482758598 0.00015
          0.00066666666666684 0.0091034482758598 0.0003 0.00066666666666688 0.0095172413793081 0
          0.00066666666666688 0.0095172413793081 0.00015 0.00066666666666688 0.0095172413793081 0.0003
          0.00066666666666693 0.0099310344827568 0 0.00066666666666693 0.0099310344827568 0.00015
          0.00066666666666693 0.0099310344827568 0.0003 0.00066666666666697 0.010344827586205 0
          0.00066666666666697 0.010344827586205 0.00015 0.00066666666666697 0.010344827586205 0.0003
          0.00066666666666701 0.010758620689654 0 0.00066666666666701 0.010758620689654 0.00015
          0.00066666666666701 0.010758620689654 0.0003 0.00066666666666706 0.011172413793102 0
          0.00066666666666706 0.011172413793102 0.00015 0.00066666666666706 0.011172413793102 0.0003
          0.0006666666666671 0.01158620689655 0 0.0006666666666671 0.01158620689655 0.00015
          0.0006666666666671 0.01158620689655 0.0003 0.00066666666666715 0.012 0
          0.00066666666666715 0.012 0.00015 0.00066666666666715 0.012 0.0003
          0.00077777777777787 0.0082758620689611 0 0.00077777777777787 0.0082758620689611 0.00015
          0.00077777777777787 0.0082758620689611 0.0003 0.00077777777777791 0.0086896551724104 0
          0.00077777777777791 0.0086896551724104 0.00015 0.00077777777777791 0.0086896551724104 0.0003
          0.00077777777777794 0.0091034482758578 0 0.00077777777777794 0.0091034482758578 0.00015
          0.00077777777777794 0.0091034482758578 0.0003 0.00077777777777797 0.0095172413793064 0
          0.00077777777777797 0.0095172413793064 0.00015 0.00077777777777797 0.0095172413793064 0.0003
          0.000777777777778 0.0099310344827555 0 0.000777777777778 0.0099310344827555 0.00015
          0.000777777777778 0.0099310344827555 0.0003 0.00077777777777803 0.010344827586205 0
          0.00077777777777803 0.010344827586205 0.00015 0.00077777777777803 0.010344827586205 0.0003
          0.00077777777777806 0.010758620689654 0 0.00077777777777806 0.010758620689654 0.00015
          0.00077777777777806 0.010758620689654 0.0003 0.00077777777777809 0.011172413793101 0
          0.00077777777777809 0.011172413793101 0.00015 0.00077777777777809 0.011172413793101 0.0003
          0.00077777777777813 0.01158620689655 0 0.00077777777777813 0.01158620689655 0.00015
          0.00077777777777813 0.01158620689655 0.0003 0.00077777777777816 0.012 0
          0.00077777777777816 0.012 0.00015 0.00077777777777816 0.012 0.0003
          0.0008888888888888 0.0082758620689588 0 0.0008888888888888 0.0082758620689588 0.00015
          0.0008888888888888 0.0082758620689588 0.0003 0.00088888888888881 0.0086896551724084 0
          0.00088888888888881 0.0086896551724084 0.00015 0.00088888888888881 0.0086896551724084 0.0003
          0.00088888888888882 0.0091034482758559 0 0.00088888888888882 0.0091034482758559 0.00015
          0.00088888888888882 0.0091034482758559 0.0003 0.00088888888888883 0.0095172413793047 0
          0.00088888888888883 0.0095172413793047 0.00015 0.00088888888888883 0.0095172413793047 0.0003
          0.00088888888888884 0.0099310344827542 0 0.00088888888888884 0.0099310344827542 0.00015
          0.00088888888888884 0.0099310344827542 0.0003 0.00088888888888885 0.010344827586204 0
          0.00088888888888885 0.010344827586204 0.00015 0.00088888888888885 0.010344827586204 0.0003
          0.00088888888888885 0.010758620689653 0 0.00088888888888885 0.010758620689653 0.00015
          0.00088888888888885 0.010758620689653 0.0003 0.00088888888888886 0.011172413793101 0
          0.00088888888888886 0.011172413793101 0.00015 0.00088888888888886 0.011172413793101 0.0003
          0.00088888888888887 0.01158620689655 0 0.00088888888888887 0.01158620689655 0.00015
          0.00088888888888887 0.01158620689655 0.0003 0.00088888888888888 0.012 0
          0.00088888888888888 0.012 0.00015 0.00088888888888888 0.012 0.0003
          0.001 0.0091034482758539 0 0.001 0.0091034482758539 0.00015
          0.001 0.0091034482758539 0.0003 0.001 0.0095172413793029 0
          0.001 0.0095172413793029 0.00015 0.001 0.0095172413793029 0.0003
          0.001 0.0099310344827529 0 0.001 0.0099310344827529 0.00015
          0.001 0.0099310344827529 0.0003 0.001 0.010344827586203 0
          0.001 0.010344827586203 0.00015 0.001 0.010344827586203 0.0003
          0.001 0.010758620689653 0 0.001 0.010758620689653 0.00015
          0.001 0.010758620689653 0.0003 0.001 0.0111724137931 0
          0.001 0.0111724137931 0.00015 0.001 0.0111724137931 0.0003
          0.001 0.01158620689655 0 0.001 0.01158620689655 0.00015
          0.001 0.01158620689655 0.0003 0.001 0.012 0
          0.001 0.012 0.00015 0.001 0.012 0.0003
          0.00067947077571632 0.012798245728111 0 0.00068678568032061 0.012710429785181 0
          0.00076344362314339 0.012698069087358 0 0.00078000626700894 0.012788238676479 0
          0.00067947077571632 0.012798245728111 0.00015 0.00068678568032061 0.012710429785181 0.00015
          0.00076344362314339 0.012698069087358 0.00015 0.00078000626700894 0.012788238676479 0.00015
          0.00067947077571632 0.012798245728111 0.0003 0.00068678568032061 0.012710429785181 0.0003
          0.00076344362314339 0.012698069087358 0.0003 0.00078000626700894 0.012788238676479 0.0003
          0.0007101811699723 0.012881232243155 0 0.00078737528777453 0.012884598822829 0
          0.0007101811699723 0.012881232243155 0.00015 0.00078737528777453 0.012884598822829 0.00015
          0.0007101811699723 0.012881232243155 0.0003 0.00078737528777453 0.012884598822829 0.0003
          0.00063149088332091 0.012876508075697 0 0.00071156048039536 0.012943694476106 0
          0.00064992343237843 0.012944046337553 0 0.00063149088332091 0.012876508075697 0.00015
          0.00071156048039536 0.012943694476106 0.00015 0.00064992343237843 0.012944046337553 0.00015
          0.00063149088332091 0.012876508075697 0.0003 0.00071156048039536 0.012943694476106 0.0003
          0.00064992343237843 0.012944046337553 0.0003 0.00014271480927744 0.012184528409521 0
          0.00021074182908597 0.012239195039162 0 0.00014617236906556 0.012274772666576 0
          0.00010836971036758 0.0122326927564 0 0.00014271480927744 0.012184528409521 0.00015
          0.00021074182908597 0.012239195039162 0.00015 0.00014617236906556 0.012274772666576 0.00015
          0.00010836971036758 0.0122326927564 0.00015 0.00014271480927744 0.012184528409521 0.0003
          0.00021074182908597 0.012239195039162 0.0003 0.00014617236906556 0.012274772666576 0.0003
          0.00010836971036758 0.0122326927564 0.0003 0.00040316247653445 0.012523054457121 0
          0.00050524235438491 0.012516470580574 0 0.00047556583290331 0.012611926172403 0
          0.00040677839563254 0.01259579728731 0 0.00040316247653445 0.012523054457121 0.00015
          0.00050524235438491 0.012516470580574 0.00015 0.00047556583290331 0.012611926172403 0.00015
          0.00040677839563254 0.01259579728731 0.00015 0.00040316247653445 0.012523054457121 0.0003
          0.00050524235438491 0.012516470580574 0.0003 0.00047556583290331 0.012611926172403 0.0003
          0.00040677839563254 0.01259579728731 0.0003 0.00038389728538556 0.012111104172094 0
          0.00037958632650406 0.012195366170904 0 0.00029855370140418 0.012181148574691 0
          0.00029802321336891 0.012105931916082 0 0.00038389728538556 0.012111104172094 0.00015
          0.00037958632650406 0.012195366170904 0.00015 0.00029855370140418 0.012181148574691 0.00015
          0.00029802321336891 0.012105931916082 0.00015 0.00038389728538556 0.012111104172094 0.0003
          0.00037958632650406 0.012195366170904 0.0003 0.00029855370140418 0.012181148574691 0.0003
          0.00029802321336891 0.012105931916082 0.0003 0.00062435778703091 0.012280526392523 0
          0.00063694887874418 0.012191685157308 0 0.00075163746499696 0.012211869018538 0
          0.0007101306235237 0.012330652999586 0 0.00062435778703091 0.012280526392523 0.00015
          0.00063694887874418 0.012191685157308 0.00015 0.00075163746499696 0.012211869018538 0.00015
          0.0007101306235237 0.012330652999586 0.00015 0.00062435778703091 0.012280526392523 0.0003
          0.00063694887874418 0.012191685157308 0.0003 0.00075163746499696 0.012211869018538 0.0003
          0.0007101306235237 0.012330652999586 0.0003 0.00090036231429234 0.012108977226849 0
          0.00080269198720626 0.012096984730608 0 0.00090036231429234 0.012108977226849 0.00015
          0.00080269198720626 0.012096984730608 0.00015 0.00090036231429234 0.012108977226849 0.0003
          0.00080269198720626 0.012096984730608 0.0003 0.00023865656240352 0.012177237347116 0
          0.00029061852669854 0.01224857812735 0 0.00023865656240352 0.012177237347116 0.00015
          0.00029061852669854 0.01224857812735 0.00015 0.00023865656240352 0.012177237347116 0.0003
          0.00029061852669854 0.01224857812735 0.0003 0.00056164385173704 0.012835416164401 0
          0.00056508360468666 0.012898794448667 0 0.00049240387645224 0.012913175910861 0
          0.00046984631090009 0.012828989929731 0 0.00056164385173704 0.012835416164401 0.00015
          0.00056508360468666 0.012898794448667 0.00015 0.00049240387645224 0.012913175910861 0.00015
          0.00046984631090009 0.012828989929731 0.00015 0.00056164385173704 0.012835416164401 0.0003
          0.00056508360468666 0.012898794448667 0.0003 0.00049240387645224 0.012913175910861 0.0003
          0.00046984631090009 0.012828989929731 0.0003 0.000050495613361417 0.012066083920595 0
          0.00011131843390441 0.012086989142678 0 0.000069577205110887 0.012153607960951 0
          0 0.012111111111109 0 0.000050495613361417 0.012066083920595 0.00015
          0.00011131843390441 0.012086989142678 0.00015 0.000069577205110887 0.012153607960951 0.00015
          0 0.012111111111109 0.00015 0.000050495613361417 0.012066083920595 0.0003
          0.00011131843390441 0.012086989142678 0.0003 0.000069577205110887 0.012153607960951 0.0003
          0 0.012111111111109 0.0003 0.00022470825547396 0.012306913365418 0
          0.00017103954025546 0.012340304715306 0 0.00022470825547396 0.012306913365418 0.00015
          0.00017103954025546 0.012340304715306 0.00015 0.00022470825547396 0.012306913365418 0.0003
          0.00017103954025546 0.012340304715306 0.0003 0.00085640575367095 0.012657655614724 0
          0.001 0.012571428571438 0 0.001 0.012714285714292 0
          0.00089085524488654 0.012778191533234 0 0.00085640575367095 0.012657655614724 0.00015
          0.001 0.012571428571438 0.00015 0.001 0.012714285714292 0.00015
          0.00089085524488654 0.012778191533234 0.00015 0.00085640575367095 0.012657655614724 0.0003
          0.001 0.012571428571438 0.0003 0.001 0.012714285714292 0.0003
          0.00089085524488654 0.012778191533234 0.0003 0.00017101007138246 0.012530153689505 0
          0.000086824088695593 0.01250759612347 0 0.00010015626416536 0.012463076177022 0
          0.00018026894988108 0.012457509098897 0 0.00017101007138246 0.012530153689505 0.00015
          0.000086824088695593 0.01250759612347 0.00015 0.00010015626416536 0.012463076177022 0.00015
          0.00018026894988108 0.012457509098897 0.00015 0.00017101007138246 0.012530153689505 0.0003
          0.000086824088695593 0.01250759612347 0.0003 0.00010015626416536 0.012463076177022 0.0003
          0.00018026894988108 0.012457509098897 0.0003 0.00055555555555552 0.013 0
          0.00054972466987376 0.012958523613261 0 0.00059017772624368 0.012950117696029 0
          0.00061111111111072 0.013 0 0.00055555555555552 0.013 0.00015
          0.00054972466987376 0.012958523613261 0.00015 0.00059017772624368 0.012950117696029 0.00015
          0.00061111111111072 0.013 0.00015 0.00055555555555552 0.013 0.0003
          0.00054972466987376 0.012958523613261 0.0003 0.00059017772624368 0.012950117696029 0.0003
          0.00061111111111072 0.013 0.0003 0.00056012017374448 0.012193168747791 0
          0.00054338833040714 0.012250054231166 0 0.00056012017374448 0.012193168747791 0.00015
          0.00054338833040714 0.012250054231166 0.00015 0.00056012017374448 0.012193168747791 0.0003
          0.00054338833040714 0.012250054231166 0.0003 0.00020164702899907 0.012111009853496 0
          0.00020164702899907 0.012111009853496 0.00015 0.00020164702899907 0.012111009853496 0.0003
          0.00058698867508036 0.01276393301723 0 0.00061242021253103 0.012689969395149 0
          0.00058698867508036 0.01276393301723 0.00015 0.00061242021253103 0.012689969395149 0.00015
          0.00058698867508036 0.01276393301723 0.0003 0.00061242021253103 0.012689969395149 0.0003
          0.00054704952286259 0.01264760123259 0 0.00058547756026548 0.012574831423214 0
          0.00066845126455385 0.012625352450745 0 0.00054704952286259 0.01264760123259 0.00015
          0.00058547756026548 0.012574831423214 0.00015 0.00066845126455385 0.012625352450745 0.00015
          0.00054704952286259 0.01264760123259 0.0003 0.00058547756026548 0.012574831423214 0.0003
          0.00066845126455385 0.012625352450745 0.0003 0.00040316497174951 0.012375710115571 0
          0.00038996592658543 0.012448925709731 0 0.00030251984068288 0.012451026681152 0
          0.00030273327950676 0.012339921797294 0 0.00040316497174951 0.012375710115571 0.00015
          0.00038996592658543 0.012448925709731 0.00015 0.00030251984068288 0.012451026681152 0.00015
          0.00030273327950676 0.012339921797294 0.00015 0.00040316497174951 0.012375710115571 0.0003
          0.00038996592658543 0.012448925709731 0.0003 0.00030251984068288 0.012451026681152 0.0003
          0.00030273327950676 0.012339921797294 0.0003 0 0.012166666666663 0
          0.000060257043043922 0.012213388328671 0 0 0.012222222222217 0
          0 0.012166666666663 0.00015 0.000060257043043922 0.012213388328671 0.00015
          0 0.012222222222217 0.00015 0 0.012166666666663 0.0003
          0.000060257043043922 0.012213388328671 0.0003 0 0.012222222222217 0.0003
          0.00086766031505541 0.012218873949421 0 0.00070802748250363 0.01210226547145 0
          0.00086766031505541 0.012218873949421 0.00015 0.00070802748250363 0.01210226547145 0.00015
          0.00086766031505541 0.012218873949421 0.0003 0.00070802748250363 0.01210226547145 0.0003
          0.00045681564832724 0.012667985356076 0 0.00038302222240927 0.012678606196169 0
          0.00045681564832724 0.012667985356076 0.00015 0.00038302222240927 0.012678606196169 0.00015
          0.00045681564832724 0.012667985356076 0.0003 0.00038302222240927 0.012678606196169 0.0003
          0.00057343997443155 0.012462111372123 0 0.00067467937701806 0.012497336760124 0
          0.00057343997443155 0.012462111372123 0.00015 0.00067467937701806 0.012497336760124 0.00015
          0.00057343997443155 0.012462111372123 0.0003 0.00067467937701806 0.012497336760124 0.0003
          0 0.012388888888886 0 0.00004805763346656 0.012364070531781 0
          0.000052775834931525 0.012418323433379 0 0 0.012444444444443 0
          0 0.012388888888886 0.00015 0.00004805763346656 0.012364070531781 0.00015
          0.000052775834931525 0.012418323433379 0.00015 0 0.012444444444443 0.00015
          0 0.012388888888886 0.0003 0.00004805763346656 0.012364070531781 0.0003
          0.000052775834931525 0.012418323433379 0.0003 0 0.012444444444443 0.0003
          0.0004655657017567 0.012222981448331 0 0.0004403524252846 0.012306679111378 0
          0.00036518397892919 0.012268658791136 0 0.0004655657017567 0.012222981448331 0.00015
          0.0004403524252846 0.012306679111378 0.00015 0.00036518397892919 0.012268658791136 0.00015
          0.0004655657017567 0.012222981448331 0.0003 0.0004403524252846 0.012306679111378 0.0003
          0.00036518397892919 0.012268658791136 0.0003 0.00079059026611164 0.012574208252283 0
          0.00074033738884001 0.012629472897336 0 0.00079059026611164 0.012574208252283 0.00015
          0.00074033738884001 0.012629472897336 0.00015 0.00079059026611164 0.012574208252283 0.0003
          0.00074033738884001 0.012629472897336 0.0003 0.00049134001885305 0.012124425854677 0
          0.00060162315338905 0.012101782274206 0 0.00049134001885305 0.012124425854677 0.00015
          0.00060162315338905 0.012101782274206 0.00015 0.00049134001885305 0.012124425854677 0.0003
          0.00060162315338905 0.012101782274206 0.0003 0.00055165526617401 0.012365152711649 0
          0.00046621557592763 0.012427373679685 0 0.00055165526617401 0.012365152711649 0.00015
          0.00046621557592763 0.012427373679685 0.00015 0.00055165526617401 0.012365152711649 0.0003
          0.00046621557592763 0.012427373679685 0.0003 0.00065175768920993 0.012395993188634 0
          0.00078658012555766 0.01242031863996 0 0.00065175768920993 0.012395993188634 0.00015
          0.00078658012555766 0.01242031863996 0.00015 0.00065175768920993 0.012395993188634 0.0003
          0.00078658012555766 0.01242031863996 0.0003 0.00072222222222142 0.013 0
          0.00076767785213736 0.012949407633443 0 0.00077777777777722 0.013 0
          0.00072222222222142 0.013 0.00015 0.00076767785213736 0.012949407633443 0.00015
          0.00077777777777722 0.013 0.00015 0.00072222222222142 0.013 0.0003
          0.00076767785213736 0.012949407633443 0.0003 0.00077777777777722 0.013 0.0003
          0.001 0.01228571428572 0 0.001 0.012428571428581 0
          0.00085243404696798 0.012340254950119 0 0.001 0.01228571428572 0.00015
          0.001 0.012428571428581 0.00015 0.00085243404696798 0.012340254950119 0.00015
          0.001 0.01228571428572 0.0003 0.001 0.012428571428581 0.0003
          0.00085243404696798 0.012340254950119 0.0003 0.000047305708530005 0.012255757186949 0
          0.000035989657241992 0.012305788523607 0 0 0.012277777777773 0
          0.000047305708530005 0.012255757186949 0.00015 0.000035989657241992 0.012305788523607 0.00015
          0 0.012277777777773 0.00015 0.000047305708530005 0.012255757186949 0.0003
          0.000035989657241992 0.012305788523607 0.0003 0 0.012277777777773 0.0003
          0 0.01233333333333 0 0 0.01233333333333 0.00015
          0 0.01233333333333 0.0003 0.00088888888888861 0.013 0
          0.00086852226729803 0.012945143609779 0 0.00092105077811413 0.012923509600428 0
          0.0009444444444442 0.013 0 0.00088888888888861 0.013 0.00015
          0.00086852226729803 0.012945143609779 0.00015 0.00092105077811413 0.012923509600428 0.00015
          0.0009444444444442 0.013 0.00015 0.00088888888888861 0.013 0.0003
          0.00086852226729803 0.012945143609779 0.0003 0.00092105077811413 0.012923509600428 0.0003
          0.0009444444444442 0.013 0.0003 0.000088322519872331 0.012287262323421 0
          0.000098057359918883 0.01234321954228 0 0.000088322519872331 0.012287262323421 0.00015
          0.000098057359918883 0.01234321954228 0.00015 0.000088322519872331 0.012287262323421 0.0003
          0.000098057359918883 0.01234321954228 0.0003 0.00082037799021753 0.012949927278989 0
          0.00083333333333302 0.013 0 0.00082037799021753 0.012949927278989 0.00015
          0.00083333333333302 0.013 0.00015 0.00082037799021753 0.012949927278989 0.0003
          0.00083333333333302 0.013 0.0003 0.000055423585756317 0.01245648439217 0
          0.00011750487062481 0.01240389197138 0 0.000055423585756317 0.01245648439217 0.00015
          0.00011750487062481 0.01240389197138 0.00015 0.000055423585756317 0.01245648439217 0.0003
          0.00011750487062481 0.01240389197138 0.0003 0.00022703795328819 0.012397087263253 0
          0.00024412512388832 0.012487409031957 0 0.00022703795328819 0.012397087263253 0.00015
          0.00024412512388832 0.012487409031957 0.00015 0.00022703795328819 0.012397087263253 0.0003
          0.00024412512388832 0.012487409031957 0.0003 0.00086622784349606 0.012879340816766 0
          0.00086622784349606 0.012879340816766 0.00015 0.00086622784349606 0.012879340816766 0.0003
          0.001 0.01214285714286 0 0.001 0.01214285714286 0.00015
          0.001 0.01214285714286 0.0003 0.00032807036377433 0.012530514194312 0
          0.00032139380548758 0.012616977778981 0 0.00032807036377433 0.012530514194312 0.00015
          0.00032139380548758 0.012616977778981 0.00015 0.00032807036377433 0.012530514194312 0.0003
          0.00032139380548758 0.012616977778981 0.0003 0.00078653837511981 0.012300730611142 0
          0.00078653837511981 0.012300730611142 0.00015 0.00078653837511981 0.012300730611142 0.0003
          0.00050187285486533 0.012723776617989 0 0.00050187285486533 0.012723776617989 0.00015
          0.00050187285486533 0.012723776617989 0.0003 0.00066666666666612 0.013 0
          0.00066666666666612 0.013 0.00015 0.00066666666666612 0.013 0.0003
          0.00086640285866826 0.012499721374928 0 0.00086640285866826 0.012499721374928 0.00015
          0.00086640285866826 0.012499721374928 0.0003 0.001 0.012857142857146 0
          0.001 0.012857142857146 0.00015 0.001 0.012857142857146 0.0003
          0.00043301270230906 0.012750000000722 0 0.00043301270230906 0.012750000000722 0.00015
          0.00043301270230906 0.012750000000722 0.0003 0.00025000000019401 0.01256698729822 0
          0.00025000000019401 0.01256698729822 0.00015 0.00025000000019401 0.01256698729822 0.0003
          0 0.0125 0 0 0.0125 0.00015
          0 0.0125 0.0003 0 0.012055555555554 0
          0 0.012055555555554 0.00015 0 0.012055555555554 0.0003
          0.001 0.013 0 0.001 0.013 0.00015
          0.001 0.013 0.0003 0.0005 0.013 0
          0.0005 0.013 0.00015 0.0005 0.013 0.0003
          0.0014444444444451 0.0095172413793029 0 0.0014444444444451 0.0095172413793029 0.00015
          0.0014444444444451 0.0095172413793029 0.0003 0.0018888888888902 0.0095172413793029 0
          0.0018888888888902 0.0095172413793029 0.00015 0.0018888888888902 0.0095172413793029 0.0003
          0.0014444444444452 0.0099310344827529 0 0.0014444444444452 0.0099310344827529 0.00015
          0.0014444444444452 0.0099310344827529 0.0003 0.0018888888888903 0.0099310344827529 0
          0.0018888888888903 0.0099310344827529 0.00015 0.0018888888888903 0.0099310344827529 0.0003
          0.0014444444444452 0.010344827586203 0 0.0014444444444452 0.010344827586203 0.00015
          0.0014444444444452 0.010344827586203 0.0003 0.0014444444444453 0.010758620689653 0
          0.0014444444444453 0.010758620689653 0.00015 0.0014444444444453 0.010758620689653 0.0003
          0.0014444444444453 0.0111724137931 0 0.0014444444444453 0.0111724137931 0.00015
          0.0014444444444453 0.0111724137931 0.0003 0.0014444444444454 0.01158620689655 0
          0.0014444444444454 0.01158620689655 0.00015 0.0014444444444454 0.01158620689655 0.0003
          0.0014444444444455 0.012 0 0.0014444444444455 0.012 0.00015
          0.0014444444444455 0.012 0.0003 0.0011659770658264 0.012184916069452 0
          0.0011978981211319 0.012291694091132 0 0.0011659770658264 0.012184916069452 0.00015
          0.0011978981211319 0.012291694091132 0.00015 0.0011659770658264 0.012184916069452 0.0003
          0.0011978981211319 0.012291694091132 0.0003 0.0014134281085546 0.012468353283698 0
          0.001412897365997 0.01265802692797 0 0.0011710921098332 0.012660749606473 0
          0.0011928404820732 0.012464476127519 0 0.0014134281085546 0.012468353283698 0.00015
          0.001412897365997 0.01265802692797 0.00015 0.0011710921098332 0.012660749606473 0.00015
          0.0011928404820732 0.012464476127519 0.00015 0.0014134281085546 0.012468353283698 0.0003
          0.001412897365997 0.01265802692797 0.0003 0.0011710921098332 0.012660749606473 0.0003
          0.0011928404820732 0.012464476127519 0.0003 0.0011801499871676 0.012824831216028 0
          0.0011801499871676 0.012824831216028 0.00015 0.0011801499871676 0.012824831216028 0.0003
          0.0014335559245349 0.012265987585326 0 0.0014335559245349 0.012265987585326 0.00015
          0.0014335559245349 0.012265987585326 0.0003 0.0014444444444455 0.013 0
          0.0014444444444455 0.013 0.00015 0.0014444444444455 0.013 0.0003
          0.0023333333333355 0.0099310344827529 0 0.0023333333333353 0.0095172413793029 0
          0.0023333333333355 0.0099310344827529 0.00015 0.0023333333333353 0.0095172413793029 0.00015
          0.0023333333333355 0.0099310344827529 0.0003 0.0023333333333353 0.0095172413793029 0.0003
          0.0018888888888904 0.010344827586203 0 0.0018888888888904 0.010344827586203 0.00015
          0.0018888888888904 0.010344827586203 0.0003 0.0023333333333357 0.010344827586203 0
          0.0023333333333357 0.010344827586203 0.00015 0.0023333333333357 0.010344827586203 0.0003
          0.0018888888888905 0.010758620689653 0 0.0018888888888905 0.010758620689653 0.00015
          0.0018888888888905 0.010758620689653 0.0003 0.0018888888888907 0.0111724137931 0
          0.0018888888888907 0.0111724137931 0.00015 0.0018888888888907 0.0111724137931 0.0003
          0.0018888888888908 0.01158620689655 0 0.0018888888888908 0.01158620689655 0.00015
          0.0018888888888908 0.01158620689655 0.0003 0.0018888888888909 0.012 0
          0.0018888888888909 0.012 0.00015 0.0018888888888909 0.012 0.0003
          0.0017386847932316 0.012348636106575 0 0.0017386847932316 0.012348636106575 0.00015
          0.0017386847932316 0.012348636106575 0.0003 0.0018888888888909 0.013 0
          0.001702980389272 0.012655949584096 0 0.0020604062010233 0.012679406151259 0
          0.0018888888888909 0.013 0.00015 0.001702980389272 0.012655949584096 0.00015
          0.0020604062010233 0.012679406151259 0.00015 0.0018888888888909 0.013 0.0003
          0.001702980389272 0.012655949584096 0.0003 0.0020604062010233 0.012679406151259 0.0003
          <InformationKey name="L2_NORM_RANGE" location="vtkDataArray" length="2">
            <Value index="0">
              0.008275862069
            </Value>
            <Value index="1">
              0.013139935359
            </Value>
          </InformationKey>
        </DataArray>
      </Points>
      <Cells>
        <DataArray type="Int64" Name="connectivity" format="ascii" RangeMin="0" RangeMax="755">
          1 0 6 7 3 2
          8 9 3 2 8 9
          5 4 10 11 7 6
          12 13 9 8 14 15
          9 8 14 15 11 10
          16 17 13 12 18 19
          15 14 20 21 15 14
          20 21 17 16 22 23
          19 18 24 25 21 20
          26 27 21 20 26 27
          23 22 28 29 25 24
          30 31 27 26 32 33
          27 26 32 33 29 28
          34 35 31 30 36 37
          33 32 38 39 33 32
          38 39 35 34 40 41
          37 36 42 43 39 38
          44 45 39 38 44 45
          41 40 46 47 43 42
          48 49 45 44 50 51
          45 44 50 51 47 46
          52 53 49 48 54 55
          51 50 56 57 51 50
          56 57 53 52 58 59
          0 60 63 6 2 61
          64 8 2 61 64 8
          4 62 65 10 6 63
          66 12 8 64 67 14
          8 64 67 14 10 65
          68 16 12 66 69 18
          14 67 70 20 14 67
          70 20 16 68 71 22
          18 69 72 24 20 70
          73 26 20 70 73 26
          22 71 74 28 24 72
          75 30 26 73 76 32
          26 73 76 32 28 74
          77 34 30 75 78 36
          32 76 79 38 32 76
          79 38 34 77 80 40
          36 78 81 42 38 79
          82 44 38 79 82 44
          40 80 83 46 42 81
          84 48 44 82 85 50
          44 82 85 50 46 83
          86 52 48 84 87 54
          50 85 88 56 50 85
          88 56 52 86 89 58
          60 90 93 63 61 91
          94 64 61 91 94 64
          62 92 95 65 63 93
          96 66 64 94 97 67
          64 94 97 67 65 95
          98 68 66 96 99 69
          67 97 100 70 67 97
          100 70 68 98 101 71
          69 99 102 72 70 100
          103 73 70 100 103 73
          71 101 104 74 72 102
          105 75 73 103 106 76
          73 103 106 76 74 104
          107 77 75 105 108 78
          76 106 109 79 76 106
          109 79 77 107 110 80
          78 108 111 81 79 109
          112 82 79 109 112 82
          80 110 113 83 81 111
          114 84 82 112 115 85
          82 112 115 85 83 113
          116 86 84 114 117 87
          85 115 118 88 85 115
          118 88 86 116 119 89
          90 120 123 93 91 121
          124 94 91 121 124 94
          92 122 125 95 93 123
          126 96 94 124 127 97
          94 124 127 97 95 125
          128 98 96 126 129 99
          97 127 130 100 97 127
          130 100 98 128 131 101
          99 129 132 102 100 130
          133 103 100 130 133 103
          101 131 134 104 102 132
          135 105 103 133 136 106
          103 133 136 106 104 134
          137 107 105 135 138 108
          106 136 139 109 106 136
          139 109 107 137 140 110
          108 138 141 111 109 139
          142 112 109 139 142 112
          110 140 143 113 111 141
          144 114 112 142 145 115
          112 142 145 115 113 143
          146 116 114 144 147 117
          115 145 148 118 115 145
          148 118 116 146 149 119
          120 150 153 123 121 151
          154 124 121 151 154 124
          122 152 155 125 123 153
          156 126 124 154 157 127
          124 154 157 127 125 155
          158 128 126 156 159 129
          127 157 160 130 127 157
          160 130 128 158 161 131
          129 159 162 132 130 160
          163 133 130 160 163 133
          131 161 164 134 132 162
          165 135 133 163 166 136
          133 163 166 136 134 164
          167 137 135 165 168 138
          136 166 169 139 136 166
          169 139 137 167 170 140
          138 168 171 141 139 169
          172 142 139 169 172 142
          140 170 173 143 141 171
          174 144 142 172 175 145
          142 172 175 145 143 173
          176 146 144 174 177 147
          145 175 178 148 145 175
          178 148 146 176 179 149
          150 180 183 153 151 181
          184 154 151 181 184 154
          152 182 185 155 153 183
          186 156 154 184 187 157
          154 184 187 157 155 185
          188 158 156 186 189 159
          157 187 190 160 157 187
          190 160 158 188 191 161
          159 189 192 162 160 190
          193 163 160 190 193 163
          161 191 194 164 162 192
          195 165 163 193 196 166
          163 193 196 166 164 194
          197 167 165 195 198 168
          166 196 199 169 166 196
          199 169 167 197 200 170
          168 198 201 171 169 199
          202 172 169 199 202 172
          170 200 203 173 171 201
          204 174 172 202 205 175
          172 202 205 175 173 203
          206 176 174 204 207 177
          175 205 208 178 175 205
          208 178 176 206 209 179
          180 210 213 183 181 211
          214 184 181 211 214 184
          182 212 215 185 183 213
          216 186 184 214 217 187
          184 214 217 187 185 215
          218 188 186 216 219 189
          187 217 220 190 187 217
          220 190 188 218 221 191
          189 219 222 192 190 220
          223 193 190 220 223 193
          191 221 224 194 192 222
          225 195 193 223 226 196
          193 223 226 196 194 224
          227 197 195 225 228 198
          196 226 229 199 196 226
          229 199 197 227 230 200
          198 228 231 201 199 229
          232 202 199 229 232 202
          200 230 233 203 201 231
          234 204 202 232 235 205
          202 232 235 205 203 233
          236 206 204 234 237 207
          205 235 238 208 205 235
          238 208 206 236 239 209
          210 240 243 213 211 241
          244 214 211 241 244 214
          212 242 245 215 213 243
          246 216 214 244 247 217
          214 244 247 217 215 245
          248 218 216 246 249 219
          217 247 250 220 217 247
          250 220 218 248 251 221
          219 249 252 222 220 250
          253 223 220 250 253 223
          221 251 254 224 222 252
          255 225 223 253 256 226
          223 253 256 226 224 254
          257 227 225 255 258 228
          226 256 259 229 226 256
          259 229 227 257 260 230
          228 258 261 231 229 259
          262 232 229 259 262 232
          230 260 263 233 231 261
          264 234 232 262 265 235
          232 262 265 235 233 263
          266 236 234 264 267 237
          235 265 268 238 235 265
          268 238 236 266 269 239
          246 270 273 249 247 271
          274 250 247 271 274 250
          248 272 275 251 249 273
          276 252 250 274 277 253
          250 274 277 253 251 275
          278 254 252 276 279 255
          253 277 280 256 253 277
          280 256 254 278 281 257
          255 279 282 258 256 280
          283 259 256 280 283 259
          257 281 284 260 258 282
          285 261 259 283 286 262
          259 283 286 262 260 284
          287 263 261 285 288 264
          262 286 289 265 262 286
          289 265 263 287 290 266
          264 288 291 267 265 289
          292 268 265 289 292 268
          266 290 293 269 294 295
          296 297 298 299 300 301
          298 299 300 301 302 303
          304 305 306 294 297 307
          308 298 301 309 308 298
          301 309 310 302 305 311
          312 306 313 314 315 308
          316 317 315 308 316 317
          318 310 319 320 321 322
          323 324 325 326 327 328
          325 326 327 328 329 330
          331 332 333 334 335 336
          337 338 339 340 337 338
          339 340 341 342 343 344
          345 346 347 348 349 350
          351 352 349 350 351 352
          353 354 355 356 357 358
          359 360 361 362 363 364
          361 362 363 364 365 366
          367 368 267 369 370 237
          268 371 372 238 268 371
          372 238 269 373 374 239
          375 347 376 322 377 351
          378 326 377 351 378 326
          379 355 380 330 381 382
          383 384 385 386 387 388
          385 386 387 388 389 390
          391 392 393 394 395 396
          397 398 399 400 397 398
          399 400 401 402 403 404
          323 322 405 406 327 326
          407 408 327 326 407 408
          331 330 409 410 411 412
          413 414 415 416 417 418
          415 416 417 418 419 420
          421 422 423 424 425 426
          427 428 429 430 427 428
          429 430 431 432 433 434
          435 436 437 438 439 440
          441 442 439 440 441 442
          443 444 445 446 447 358
          357 448 449 362 361 450
          449 362 361 450 451 366
          365 452 54 87 453 394
          56 88 454 398 56 88
          454 398 58 89 455 402
          456 457 295 294 458 459
          299 298 458 459 299 298
          460 461 303 302 457 462
          463 464 459 465 466 467
          459 465 466 467 461 468
          469 470 456 294 312 381
          458 298 315 385 458 298
          315 385 460 302 318 389
          471 472 473 474 475 476
          477 478 475 476 477 478
          479 480 481 482 483 395
          484 485 486 399 487 488
          486 399 487 488 489 403
          490 491 370 492 359 493
          372 494 363 495 372 494
          363 495 374 496 367 497
          237 370 493 207 238 372
          495 208 238 372 495 208
          239 374 497 209 336 335
          498 499 340 339 500 501
          340 339 500 501 344 343
          502 503 463 334 504 505
          466 338 506 507 466 338
          506 507 469 342 508 509
          510 511 512 513 514 515
          516 517 514 515 516 517
          518 519 520 521 522 523
          524 346 525 526 527 350
          525 526 527 350 528 529
          530 354 531 532 464 505
          533 534 467 507 533 534
          467 507 535 536 470 509
          537 147 177 538 539 148
          178 540 539 148 178 540
          541 149 179 542 523 543
          544 471 526 545 546 475
          526 545 546 475 529 547
          548 479 549 360 550 505
          551 364 552 507 551 364
          552 507 553 368 554 509
          555 313 556 557 558 316
          559 560 558 316 559 560
          561 319 562 563 564 565
          566 492 567 568 569 494
          567 568 569 494 570 571
          572 496 573 574 575 485
          576 577 578 488 576 577
          578 488 579 580 581 491
          582 574 511 510 583 577
          515 514 583 577 515 514
          584 580 519 518 87 117
          348 453 88 118 352 454
          88 118 352 454 89 119
          356 455 504 334 544 543
          506 338 546 545 506 338
          546 545 508 342 548 547
          585 586 587 588 589 590
          591 592 589 590 591 592
          593 594 595 596 574 597
          598 511 577 599 600 515
          577 599 600 515 580 601
          602 519 375 322 321 453
          377 326 325 454 377 326
          325 454 379 330 329 455
          557 556 603 604 560 559
          605 606 560 559 605 606
          563 562 607 608 425 609
          512 610 429 611 516 612
          429 611 516 612 433 613
          520 614 207 493 538 177
          208 495 540 178 208 495
          540 178 209 497 542 179
          615 473 616 426 617 477
          618 430 617 477 618 430
          619 481 620 434 297 414
          621 307 301 418 622 309
          301 418 622 309 305 422
          623 311 492 369 624 564
          494 371 625 567 494 371
          625 567 496 373 626 570
          627 333 336 628 629 337
          340 630 629 337 340 630
          631 341 344 632 360 633
          566 550 364 634 569 552
          364 634 569 552 368 635
          572 554 457 456 636 462
          459 458 637 465 459 458
          637 465 461 460 638 468
          357 360 549 543 361 364
          551 545 361 364 551 545
          365 368 553 547 295 464
          532 296 299 467 534 300
          299 467 534 300 303 470
          536 304 639 314 313 555
          640 317 316 558 640 317
          316 558 641 320 319 561
          471 474 524 523 475 478
          527 526 475 478 527 526
          479 482 530 529 426 610
          406 615 430 612 408 617
          430 612 408 617 434 614
          410 619 504 543 549 505
          506 545 551 507 506 545
          551 507 508 547 553 509
          566 565 642 550 569 568
          643 552 569 568 643 552
          572 571 644 554 610 512
          511 598 612 516 515 600
          612 516 515 600 614 520
          519 602 621 414 645 587
          622 418 646 591 622 418
          646 591 623 422 647 595
          405 474 615 406 407 478
          617 408 407 478 617 408
          409 482 619 410 381 384
          636 456 385 388 637 458
          385 388 637 458 389 392
          638 460 648 499 498 636
          649 501 500 637 649 501
          500 637 650 503 502 638
          616 651 423 426 618 652
          427 430 618 652 427 430
          620 653 431 434 324 597
          573 484 328 599 576 487
          328 599 576 487 332 601
          579 490 642 412 411 531
          643 416 415 533 643 416
          415 533 644 420 419 535
          538 358 447 537 540 362
          449 539 540 362 449 539
          542 366 451 541 524 376
          347 346 527 378 351 350
          527 378 351 350 530 380
          355 354 627 651 616 473
          629 652 618 477 629 652
          618 477 631 653 620 481
          405 322 376 474 407 326
          378 478 407 326 378 478
          409 330 380 482 306 307
          556 313 308 309 559 316
          308 309 559 316 310 311
          562 319 345 117 147 537
          349 118 148 539 349 118
          148 539 353 119 149 541
          414 297 296 411 418 301
          300 415 418 301 300 415
          422 305 304 419 621 586
          603 307 622 590 605 309
          622 590 605 309 623 594
          607 311 544 334 333 472
          546 338 337 476 546 338
          337 476 548 342 341 480
          348 347 375 453 352 351
          377 454 352 351 377 454
          356 355 379 455 531 505
          550 642 533 507 552 643
          533 507 552 643 535 509
          554 644 321 324 484 395
          325 328 487 399 325 328
          487 399 329 332 490 403
          598 597 323 406 600 599
          327 408 600 599 327 408
          602 601 331 410 447 448
          522 537 449 450 525 539
          449 450 525 539 451 452
          528 541 513 512 609 654
          517 516 611 655 517 516
          611 655 521 520 613 656
          604 603 586 585 606 605
          590 589 606 605 590 589
          608 607 594 593 463 462
          335 334 466 465 339 338
          466 465 339 338 469 468
          343 342 438 437 314 639
          442 441 317 640 442 441
          317 640 446 445 320 641
          436 383 382 437 440 387
          386 441 440 387 386 441
          444 391 390 445 393 657
          55 54 397 658 57 56
          397 658 57 56 401 659
          59 58 312 314 437 382
          315 317 441 386 315 317
          441 386 318 320 445 390
          346 345 537 522 350 349
          539 525 350 349 539 525
          354 353 541 528 498 335
          462 636 500 339 465 637
          500 339 465 637 502 343
          468 638 369 267 291 624
          371 268 292 625 371 268
          292 625 373 269 293 626
          358 538 493 359 362 540
          495 363 362 540 495 363
          366 542 497 367 394 453
          321 395 398 454 325 399
          398 454 325 399 402 455
          329 403 587 645 660 588
          591 646 661 592 591 646
          661 592 595 647 662 596
          448 543 523 522 450 545
          526 525 450 545 526 525
          452 547 529 528 472 333
          627 473 476 337 629 477
          476 337 629 477 480 341
          631 481 436 435 663 383
          440 439 664 387 440 439
          664 387 444 443 665 391
          411 296 532 531 415 300
          534 533 415 300 534 533
          419 304 536 535 609 425
          424 654 611 429 428 655
          611 429 428 655 613 433
          432 656 492 566 633 359
          494 569 634 363 494 569
          634 363 496 572 635 367
          393 394 54 397 398 56
          397 398 56 401 402 58
          413 414 645 417 418 646
          417 418 646 421 422 647
          628 627 651 630 629 652
          630 629 652 632 631 653
          117 348 345 118 352 349
          118 352 349 119 356 353
          565 642 412 568 643 416
          568 643 416 571 644 420
          457 295 464 459 299 467
          459 299 467 461 303 470
          463 464 505 466 467 507
          466 467 507 469 470 509
          499 336 628 501 340 630
          501 340 630 503 344 632
          384 636 648 388 637 649
          388 637 649 392 638 650
          492 369 370 494 371 372
          494 371 372 496 373 374
          473 474 615 477 478 617
          477 478 617 481 482 619
          381 382 312 385 386 315
          385 386 315 389 390 318
          471 472 544 475 476 546
          475 476 546 479 480 548
          582 574 575 583 577 578
          583 577 578 584 580 581
          312 306 294 315 308 298
          315 308 298 318 310 302
          524 376 474 527 378 478
          527 378 478 530 380 482
          396 393 657 400 397 658
          400 397 658 404 401 659
          483 395 396 486 399 400
          486 399 400 489 403 404
          357 448 543 361 450 545
          361 450 545 365 452 547
          485 573 484 488 576 487
          488 576 487 491 579 490
          621 586 587 622 590 591
          622 590 591 623 594 595
          324 597 323 328 599 327
          328 599 327 332 601 331
          603 307 556 605 309 559
          605 309 559 607 311 562
          610 425 426 612 429 430
          612 429 430 614 433 434
          360 633 359 364 634 363
          364 634 363 368 635 367
          598 610 406 600 612 408
          600 612 408 602 614 410
          574 597 573 577 599 576
          577 599 576 580 601 579
          672 276 273 666 673 277
          274 667 673 277 274 667
          674 278 275 668 675 672
          666 669 676 673 667 670
          676 673 667 670 677 674
          668 671 720 675 669 721
          722 676 670 723 722 676
          670 723 724 677 671 725
          678 279 276 672 679 280
          277 673 679 280 277 673
          680 281 278 674 726 678
          672 675 727 679 673 676
          727 679 673 676 728 680
          674 677 729 726 675 720
          730 727 676 722 730 727
          676 722 731 728 677 724
          681 282 279 678 682 283
          280 679 682 283 280 679
          683 284 281 680 732 681
          678 726 733 682 679 727
          733 682 679 727 734 683
          680 728 684 285 282 681
          685 286 283 682 685 286
          283 682 686 287 284 683
          735 684 681 732 736 685
          682 733 736 685 682 733
          737 686 683 734 687 288
          285 684 688 289 286 685
          688 289 286 685 689 290
          287 686 738 687 684 735
          739 688 685 736 739 688
          685 736 740 689 686 737
          690 291 288 687 691 292
          289 688 691 292 289 688
          692 293 290 689 741 690
          687 738 742 691 688 739
          742 691 688 739 743 692
          689 740 693 694 564 624
          695 696 567 625 695 696
          567 625 697 698 570 626
          699 700 701 702 703 704
          705 706 703 704 705 706
          707 708 709 710 702 701
          412 565 706 705 416 568
          706 705 416 568 710 709
          420 571 413 701 711 645
          417 705 712 646 417 705
          712 646 421 709 713 647
          690 741 744 714 691 742
          745 715 691 742 745 715
          692 743 746 716 714 699
          702 694 715 703 706 696
          715 703 706 696 716 707
          710 698 694 702 565 564
          696 706 568 567 696 706
          568 567 698 710 571 570
          747 717 748 749 750 718
          751 752 750 718 751 752
          753 719 754 755 699 744
          748 700 703 745 751 704
          703 745 751 704 707 746
          754 708 711 701 700 717
          712 705 704 718 712 705
          704 718 713 709 708 719
          714 694 693 690 715 696
          695 691 715 696 695 691
          716 698 697 692 291 690
          693 624 292 691 695 625
          292 691 695 625 293 692
          697 626 711 717 660 645
          712 718 661 646 712 718
          661 646 713 719 662 647
          714 699 744 715 703 745
          715 703 745 716 707 746
          748 700 717 751 704 718
          751 704 718 754 708 719
          413 701 412 417 705 416
          417 705 416 421 709 420
        </DataArray>
        <DataArray type="Int64" Name="offsets" format="ascii" RangeMin="8" RangeMax="3624">
          8 16 24 32 40 48
          56 64 72 80 88 96
          104 112 120 128 136 144
          152 160 168 176 184 192
          200 208 216 224 232 240
          248 256 264 272 280 288
          296 304 312 320 328 336
          344 352 360 368 376 384
          392 400 408 416 424 432
          440 448 456 464 472 480
          488 496 504 512 520 528
          536 544 552 560 568 576
          584 592 600 608 616 624
          632 640 648 656 664 672
          680 688 696 704 712 720
          728 736 744 752 760 768
          776 784 792 800 808 816
          824 832 840 848 856 864
          872 880 888 896 904 912
          920 928 936 944 952 960
          968 976 984 992 1000 1008
          1016 1024 1032 1040 1048 1056
          1064 1072 1080 1088 1096 1104
          1112 1120 1128 1136 1144 1152
          1160 1168 1176 1184 1192 1200
          1208 1216 1224 1232 1240 1248
          1256 1264 1272 1280 1288 1296
          1304 1312 1320 1328 1336 1344
          1352 1360 1368 1376 1384 1392
          1400 1408 1416 1424 1432 1440
          1448 1456 1464 1472 1480 1488
          1496 1504 1512 1520 1528 1536
          1544 1552 1560 1568 1576 1584
          1592 1600 1608 1616 1624 1632
          1640 1648 1656 1664 1672 1680
          1688 1696 1704 1712 1720 1728
          1736 1744 1752 1760 1768 1776
          1784 1792 1800 1808 1816 1824
          1832 1840 1848 1856 1864 1872
          1880 1888 1896 1904 1912 1920
          1928 1936 1944 1952 1960 1968
          1976 1984 1992 2000 2008 2016
          2024 2032 2040 2048 2056 2064
          2072 2080 2088 2096 2104 2112
          2120 2128 2136 2144 2152 2160
          2168 2176 2184 2192 2200 2208
          2216 2224 2232 2240 2248 2256
          2264 2272 2280 2288 2296 2304
          2312 2320 2328 2336 2344 2352
          2360 2368 2376 2384 2392 2400
          2408 2416 2424 2432 2440 2448
          2456 2464 2472 2480 2488 2496
          2504 2512 2520 2528 2536 2544
          2552 2560 2568 2576 2584 2592
          2600 2608 2616 2624 2632 2640
          2648 2656 2664 2672 2680 2688
          2696 2704 2712 2720 2728 2736
          2744 2752 2760 2768 2776 2784
          2792 2800 2808 2816 2824 2832
          2838 2844 2850 2856 2862 2868
          2874 2880 2886 2892 2898 2904
          2910 2916 2922 2928 2934 2940
          2946 2952 2958 2964 2970 2976
          2982 2988 2994 3000 3006 3012
          3018 3024 3030 3036 3042 3048
          3054 3060 3066 3072 3078 3084
          3090 3096 3102 3108 3114 3120
          3126 3132 3138 3144 3150 3156
          3164 3172 3180 3188 3196 3204
          3212 3220 3228 3236 3244 3252
          3260 3268 3276 3284 3292 3300
          3308 3316 3324 3332 3340 3348
          3356 3364 3372 3380 3388 3396
          3404 3412 3420 3428 3436 3444
          3452 3460 3468 3476 3484 3492
          3500 3508 3516 3524 3532 3540
          3548 3556 3564 3572 3580 3588
          3594 3600 3606 3612 3618 3624
        </DataArray>
        <DataArray type="UInt8" Name="types" format="ascii" RangeMin="12" RangeMax="13">
          12 12 12 12 12 12
          12 12 12 12 12 12
          12 12 12 12 12 12
          12 12 12 12 12 12
          12 12 12 12 12 12
          12 12 12 12 12 12
          12 12 12 12 12 12
          12 12 12 12 12 12
          12 12 12 12 12 12
          12 12 12 12 12 12
          12 12 12 12 12 12
          12 12 12 12 12 12
          12 12 12 12 12 12
          12 12 12 12 12 12
          12 12 12 12 12 12
          12 12 12 12 12 12
          12 12 12 12 12 12
          12 12 12 12 12 12
          12 12 12 12 12 12
          12 12 12 12 12 12
          12 12 12 12 12 12
          12 12 12 12 12 12
          12 12 12 12 12 12
          12 12 12 12 12 12
          12 12 12 12 12 12
          12 12 12 12 12 12
          12 12 12 12 12 12
          12 12 12 12 12 12
          12 12 12 12 12 12
          12 12 12 12 12 12
          12 12 12 12 12 12
          12 12 12 12 12 12
          12 12 12 12 12 12
          12 12 12 12 12 12
          12 12 12 12 12 12
          12 12 12 12 12 12
          12 12 12 12 12 12
          12 12 12 12 12 12
          12 12 12 12 12 12
          12 12 12 12 12 12
          12 12 12 12 12 12
          12 12 12 12 12 12
          12 12 12 12 12 12
          12 12 12 12 12 12
          12 12 12 12 12 12
          12 12 12 12 12 12
          12 12 12 12 12 12
          12 12 12 12 12 12
          12 12 12 12 12 12
          12 12 12 12 12 12
          12 12 12 12 12 12
          12 12 12 12 12 12
          12 12 12 12 12 12
          12 12 12 12 12 12
          12 12 12 12 12 12
          12 12 12 12 12 12
          12 12 12 12 12 12
          12 12 12 12 12 12
          12 12 12 12 12 12
          13 13 13 13 13 13
          13 13 13 13 13 13
          13 13 13 13 13 13
          13 13 13 13 13 13
          13 13 13 13 13 13
          13 13 13 13 13 13
          13 13 13 13 13 13
          13 13 13 13 13 13
          13 13 13 13 13 13
          12 12 12 12 12 12
          12 12 12 12 12 12
          12 12 12 12 12 12
          12 12 12 12 12 12
          12 12 12 12 12 12
          12 12 12 12 12 12
          12 12 12 12 12 12
          12 12 12 12 12 12
          12 12 12 12 12 12
          13 13 13 13 13 13
        </DataArray>
      </Cells>
    </Piece>
  </UnstructuredGrid>
</VTKFile>
