<?xml version="1.0"?>
<VTKFile type="UnstructuredGrid" version="0.1" byte_order="LittleEndian" header_type="UInt32" compressor="vtkZLibDataCompressor">
  <UnstructuredGrid>
    <Piece NumberOfPoints="756" NumberOfCells="468">
      <PointData>
        <DataArray type="Int32" Name="libmesh_node_id" format="ascii" RangeMin="120" RangeMax="2168">
          120 121 122 123 124 125
          126 127 128 129 130 131
          132 133 134 135 136 137
          138 139 140 141 142 143
          144 145 146 147 148 149
          150 151 152 153 154 155
          156 157 158 159 160 161
          162 163 164 165 166 167
          168 169 170 171 172 173
          174 175 176 177 178 179
          240 241 242 243 244 245
          246 247 248 249 250 251
          252 253 254 255 256 257
          258 259 260 261 262 263
          264 265 266 267 268 269
          330 331 332 333 334 335
          336 337 338 339 340 341
          342 343 344 345 346 347
          348 349 350 351 352 353
          354 355 356 357 358 359
          420 421 422 423 424 425
          426 427 428 429 430 431
          432 433 434 435 436 437
          438 439 440 441 442 443
          444 445 446 447 448 449
          510 511 512 513 514 515
          516 517 518 519 520 521
          522 523 524 525 526 527
          528 529 530 531 532 533
          534 535 536 537 538 539
          600 601 602 603 604 605
          606 607 608 609 610 611
          612 613 614 615 616 617
          618 619 620 621 622 623
          624 625 626 627 628 629
          690 691 692 693 694 695
          696 697 698 699 700 701
          702 703 704 705 706 707
          708 709 710 711 712 713
          714 715 716 717 718 719
          780 781 782 783 784 785
          786 787 788 789 790 791
          792 793 794 795 796 797
          798 799 800 801 802 803
          804 805 806 807 808 809
          876 877 878 879 880 881
          882 883 884 885 886 887
          888 889 890 891 892 893
          894 895 896 897 898 899
          900 901 902 903 904 905
          906 907 908 909 910 911
          912 913 914 915 916 917
          918 919 920 921 922 923
          924 925 926 927 928 929
          930 931 932 933 934 935
          936 937 938 939 940 941
          942 943 944 945 946 947
          948 949 950 951 952 953
          954 955 956 957 958 959
          960 961 962 963 964 965
          966 967 968 969 970 971
          972 973 974 975 976 977
          978 979 980 981 982 983
          984 985 986 987 988 989
          990 991 992 993 994 995
          996 997 998 999 1000 1001
          1002 1003 1004 1005 1006 1007
          1008 1009 1010 1011 1012 1013
          1014 1015 1016 1017 1018 1019
          1020 1021 1022 1023 1024 1025
          1026 1027 1028 1029 1030 1031
          1032 1033 1034 1035 1036 1037
          1038 1039 1040 1041 1042 1043
          1044 1045 1046 1047 1048 1049
          1050 1051 1052 1053 1054 1055
          1056 1057 1058 1059 1060 1061
          1062 1063 1064 1065 1066 1067
          1068 1069 1070 1071 1072 1073
          1074 1075 1076 1077 1078 1079
          1080 1081 1082 1083 1084 1085
          1086 1087 1088 1089 1090 1091
          1092 1093 1094 1095 1096 1097
          1098 1099 1100 1101 1102 1103
          1104 1105 1106 1107 1108 1109
          1110 1111 1112 1113 1114 1115
          1116 1117 1118 1119 1120 1121
          1122 1123 1124 1125 1126 1127
          1128 1129 1130 1131 1132 1133
          1134 1135 1136 1137 1138 1139
          1140 1141 1142 1143 1144 1145
          1146 1147 1148 1149 1150 1151
          1152 1153 1154 1155 1156 1157
          1158 1159 1160 1161 1162 1163
          1164 1165 1166 1167 1168 1169
          1170 1171 1172 1173 1174 1175
          1176 1177 1178 1179 1180 1181
          1182 1183 1184 1185 1186 1187
          1188 1189 1190 1191 1192 1193
          1194 1195 1196 1197 1198 1199
          1200 1201 1202 1203 1204 1205
          1206 1207 1208 1209 1210 1211
          1212 1213 1214 1215 1216 1217
          1218 1219 1220 1221 1222 1223
          1224 1225 1226 1227 1228 1229
          1230 1231 1232 1233 1234 1235
          1236 1237 1238 1239 1240 1241
          1242 1243 1244 1245 1246 1247
          1248 1249 1250 1251 1252 1253
          1254 1255 1256 1257 1258 1259
          1260 1261 1262 1263 1264 1265
          1266 1267 1268 1269 1270 1271
          1893 1894 1895 1896 1897 1898
          1920 1921 1922 1923 1924 1925
          1947 1948 1949 1974 1975 1976
          2001 2002 2003 2028 2029 2030
          2055 2056 2057 2112 2113 2114
          2115 2116 2117 2124 2125 2126
          2127 2128 2129 2130 2131 2132
          2133 2134 2135 2148 2149 2150
          2151 2152 2153 2164 2166 2168
          1926 1899 1927 1900 1928 1901
          1950 1951 1952 1953 1954 1955
          1977 1978 1979 2004 2005 2006
          2031 2032 2033 2058 2059 2060
          2142 2144 2146 2163 2143 2096
          2165 2145 2100 2167 2147 2104
        </DataArray>
        <DataArray type="Float64" Name="resid_x" format="ascii" RangeMin="-2.7925685047231563" RangeMax="0.000045300118766827824">
          -6.494490412123355e-8 -1.275647615017434 -1.2638783863927472e-7 -2.5512431988114352 3.596916409165374e-8 -1.2755731935289565
          -2.813907984400288e-8 -1.276461254122159 -4.5542473570137076e-8 -2.5528481161141334 3.0758770086514176e-8 -1.2763551692392523
          7.859765249751405e-8 -1.2777644804426607 2.7179413164546418e-8 -2.5554189773751483 5.920983314755546e-8 -1.2776077436891373
          9.74192485569958e-8 -1.279874798045789 4.8528495999455856e-8 -2.5595793511444103 9.88822990155569e-8 -1.2796324274169575
          1.1300783675505244e-7 -1.2834012983499696 4.169631195871659e-8 -2.56652536521935 1.3382323171828858e-7 -1.283006311023711
          1.0352255819245926e-7 -1.2896250347843785 1.0127452543251536e-8 -2.578758351050731 1.7796908202694084e-7 -1.2889301642618531
          6.847856526270846e-8 -1.3015623487462324 -6.104655003724702e-8 -2.6021570687521436 2.621251917744871e-7 -1.3001821688732218
          -2.8259154905008188e-8 -1.3271913925943342 -2.5583425644626345e-7 -2.6522401242011693 5.234731095260514e-7 -1.3241668018604988
          1.3629568851314389e-7 -1.3994155154328367 1.3576357149602813e-8 -2.7925685047231563 0.0000020477091671189385 -1.3903531866928243
          8.089056362653446e-7 -0.8605734702845118 0.0000012643419484148488 -1.7129892280523014 0.0000034997664266414596 -0.848829383758493
          -1.7823658504667605e-7 -6.509241750052297e-7 -1.6832937854704966e-7 -6.419971498861088e-8 -3.89154289237581e-7 -3.598353132128196e-7
          -7.346679764541619e-8 -3.5270316622870723e-7 -3.554141601025407e-7 -3.721962538172363e-8 -2.8744947944137067e-7 -3.031862246816175e-7
          1.0225266644514619e-7 -9.127118738572193e-8 -1.9347387714141462e-7 1.3567373302603158e-7 -6.932988150243347e-8 -8.252878758163718e-8
          -1.3399141463033004e-8 -3.225294795683453e-7 1.0467692723725719e-7 -2.5254187097090153e-7 -7.115892955988912e-7 6.925746488528617e-7
          1.383005922006575e-7 -7.721337091926017e-8 0.000003526866439451659 0.0000012003652086756134 0.000002101713248769954 0.000006394312112412148
          -2.0097755937253936e-7 -4.206615372703837e-7 -2.0814682055725342e-7 -1.1493546170360247e-7 -1.6513968914555477e-7 -7.598053841650909e-8
          -1.2775805191544976e-7 -1.4723661390103615e-7 -4.850810775280934e-8 -1.4692582661623987e-7 -1.6745843378629388e-7 -1.3693896572242181e-8
          -1.8092238829314766e-7 -2.5040527051878314e-7 3.146532157050075e-8 -2.4979820356652027e-7 -4.0036977266844076e-7 1.4000977854866647e-7
          -3.658445565379864e-7 -6.508184144937701e-7 4.131822719521949e-7 -5.391229670470565e-7 -0.0000010059228487957483 0.0000012259779245127334
          -1.2458473241938606e-7 -3.242045912843494e-7 0.000004709126629309779 0.0000014680094032742952 0.000002664358133799838 0.000008848120071177495
          -3.0339647183463825e-7 -4.400820442507225e-7 -1.5707009770604685e-7 -1.563285929595537e-7 -1.9781369453575337e-7 -1.2274615646123976e-7
          -1.8213338670580725e-7 -1.9401529804952133e-7 -1.004564297302224e-7 -2.1479428102821885e-7 -2.459769147256097e-7 -6.267680208171811e-8
          -2.564255290327111e-7 -3.55304700327963e-7 3.913100510288814e-9 -3.3763182105683853e-7 -5.481387682637617e-7 1.4769751710552725e-7
          -4.66286585787401e-7 -8.392495575160197e-7 5.040683519474953e-7 -5.865617563882708e-7 -0.0000010941143516740581 0.0000015570200566639159
          1.4577362761336587e-8 1.880807831700082e-8 0.000005510204922454243 0.0000014001208433478407 0.0000026987047647142326 0.00000883039837984434
          -2.6693928734111694e-7 -2.8022188092169387e-7 -8.629476511146095e-8 -2.0882721230019996e-7 -2.23694771372962e-7 -1.5856328450247759e-7
          -2.4533415576843964e-7 -2.306599711232593e-7 -1.3783355912178052e-7 -2.851697568084788e-7 -3.018734154869307e-7 -9.06288745161632e-8
          -3.2788281001394637e-7 -4.299132372320713e-7 -2.6794699792276333e-9 -4.083657825226794e-7 -6.422272262884832e-7 1.7780102412601195e-7
          -5.267986465939956e-7 -9.279165172904058e-7 6.133044980760616e-7 -5.586067128859895e-7 -0.0000010010287512240978 0.0000018657983651415577
          2.700927275167686e-7 6.20976546850116e-7 0.000005978694086916647 0.0000014203624260633596 0.000002867200194822672 0.000008387624584105247
          -2.7912793976181405e-7 -3.478017992497584e-7 -1.5129916497436113e-7 -2.582229694514382e-7 -2.4898478134804947e-7 -1.9512436455482174e-7
          -3.0726108279921505e-7 -2.665492796483093e-7 -1.755173671957877e-7 -3.4785955882465913e-7 -3.4089333722508997e-7 -1.1396390486861918e-7
          -3.8719662809327815e-7 -4.793251461299164e-7 -8.135318418922566e-9 -4.5607645127176966e-7 -6.892295224547595e-7 2.0729414040854266e-7
          -5.428035152466038e-7 -9.242007912302341e-7 7.17073010192415e-7 -4.4882832628267977e-7 -7.368512107142067e-7 0.0000021308286481946936
          5.548542628686093e-7 0.0000012684516650374178 0.000006154111470091372 0.000001659840284912173 0.000003434004401892121 0.000007913222784955432
          -2.6948163411866233e-7 -5.453368409069625e-7 -4.0939931156280807e-7 -3.0615202539774344e-7 -2.727926947665438e-7 -2.294012634296294e-7
          -3.7711858225097927e-7 -3.0061567146688617e-7 -2.060208490473059e-7 -4.0744430385153407e-7 -3.658521035010409e-7 -1.4068490494789643e-7
          -4.3824005291348556e-7 -5.044678803578506e-7 -2.029544721171561e-8 -4.899415266823581e-7 -6.943537204096017e-7 2.2659125187285412e-7
          -5.261698916569912e-7 -8.365046059166659e-7 8.04591507974628e-7 -2.9144623814314485e-7 -3.7404259611850676e-7 0.0000023260295519689222
          8.252650810502971e-7 0.0000018261913833361731 0.000006086838569063779 0.0000016119600209363316 0.000003321862062727332 0.000007082217717696571
          -0.000006674156627139993 -0.000012770439135723066 -0.0000065256496859511515 -0.000007883454684609603 -0.000014992289790516367 -0.00000768927513972173
          -0.000002269526653275733 -0.000004028941167799616 -0.0000021402219664290456 -5.589284580720388e-7 -6.31511096638171e-7 -3.2882321743255005e-7
          -4.824952033466445e-7 -5.475905546781235e-7 -1.0148812723542733e-7 -5.029623505459213e-7 -6.908091980672992e-7 1.595632372897171e-7
          -4.82070416252256e-7 -7.183048499337374e-7 7.911112134273424e-7 -1.2423886353030156e-7 9.483528407017161e-10 0.000002407715810948119
          0.000001089547051913442 0.00000242553714846494 0.000006075439272001937 0.0000018032930621803 0.000003784117337951587 0.0000069763950102663674
          -0.0000012790266720186239 -0.0000022297321404796122 -1.2807812266313334e-7 -0.0000017185401558483804 -0.000003001243463085501 -9.184115922211689e-7
          -0.0000010510533746677098 -0.0000013512851566588324 1.537860561118265e-7 -9.726651826191812e-7 -0.0000013343221747508238 0.0000012042852500782075
          -5.555111179944561e-7 -6.489941982712466e-7 0.0000030223597096146193 7.112013464816158e-7 0.0000018733577878959906 0.0000062173279463673126
          0.0000034150202556926246 0.000007492088535010488 0.00001164118211405274 0.000004828425292036087 0.000010302774079318233 0.00001236623800920933
          -0.000004609469639062919 -0.0000023173551455119012 -0.000004898787521740236 -0.00000606510731417792 -0.000009411080014579132 -0.000004679156877990254
          -0.000009362275074210544 -0.00001164298339999259 -0.0000033942358854746613 -9.322892023655438e-7 -0.00000339125284834485 -0.000005201517021664881
          -0.0000030536455403462615 -0.000005660301805245939 -0.000006047070992096226 -0.000010848938057034761 -0.0000028038463723428775 -0.00000542312752847135
          -0.0000041811095319900515 -0.000002846231965857038 -0.0000031431133168738357 -0.00000880437230082673 -0.000005845812672050296 -0.000006340363651605868
          -0.000003859167275962333 -0.0000031588817199675046 -0.0000031012644153421975 0.0000010709615813064843 0.0000032854940760773665 0.0000018754346851335146
          1.707859054005112e-7 0.0000018536802010027387 0.0000060789634450941765 0.0000034794544414018524 2.593986447932406e-7 0.000003184857222393589
          0.000007536370317917651 0.000004103284631878923 0.0000013504755369889154 0.000004737653931358166 0.0000014815537967283188 -0.000002379912948657914
          3.339108093636245e-7 0.000008023745969781837 0.000002337070805658037 -0.000005569450525724773 -4.790598774062627e-7 0.000013386075198046354
          0.000011499193075040215 0.0000029310213842947963 0.0000069486786518982435 0.0000013523590898512072 0.0000023545651136602785 9.517949295656525e-7
          5.856681633276128e-7 0.0000023454784675858154 0.000004398789052367791 0.0000017429367455967792 0.0000010025425726534198 0.000005081298400516632
          0.000006585545455656261 0.000004132603353440567 0.00000357065936104628 0.0000014215949288298724 0.0000014491066560318178 2.7150964268529698e-8
          0.000001715991110207149 0.0000027527163664053944 0.000002814598034722726 1.0725834083402663e-7 0.000003640630085399721 0.000005423966365825095
          0.000004914536653660706 0.00000403242445626284 0.000006518568340330155 9.571635786742583e-7 -2.0380542123388246e-7 0.0000020823455024743254
          -2.6744958853130996e-7 0.0000032435795526697397 0.000002367878567444137 3.023378923328046e-7 0.0000019625904192910326 5.590569146785018e-7
          0.0000036810879131266017 0.0000024178600502300363 0.000005998339382223827 -0.000004881733132133109 -0.0000027281878522684815 -0.0000015471346721595636
          -0.000008328119388750777 -0.00001096095626883925 -0.000005793648912857507 -0.0000033570041372008106 -0.000017607676946845147 -0.0000050640987718716945
          -0.000002856608806005908 -0.000002026548194892987 -0.000008946901203382013 -1.5667640446137554e-7 4.1822191157447897e-7 7.673685347014958e-7
          -0.2292958954336264 -3.48324150717394e-7 6.752178970670375e-7 0.0000013894769380073946 -0.4546670500400098 1.3643143625952092e-7
          0.0000017043049021225887 0.0000016920376283424687 -0.2239108907464307 0.0000024712913310742657 0.0000073258411752707975 0.000004560479787724114
          0.000013906244667460932 0.000006117542767913875 0.000013071370492695467 -0.000003602490082965648 -1.0466615453508243e-7 -0.00000239307299477326
          -0.000006238056673865677 -0.0000067882456757373255 9.326155951672188e-8 -0.0000049389526360979485 -0.000011999459637174192 -0.00000170502148386098
          0.0000016625076077192436 -0.00000263698335103979 -0.00000589601414213714 -0.000056345561016968304 -0.00004180445890353268 0.000012804374110719774
          0.00002340348754242827 -0.00011450715498367847 -0.00008448716777312293 0.000024901219421558096 0.000045300118766827824 -0.00005120702973404612
          -0.000039236132744285834 0.000016987419048708485 0.00003404919172816934 -4.90638406183512e-8 -9.377769200687603e-7 -0.0000032657765678617903
          -7.649631839237812e-7 -9.704358437580968e-8 -0.000001904262970145714 -0.000006131693037040881 -0.0000012416512773383986 -2.1776309979239586e-7
          -0.0000011140247242690492 -0.0000030167301628518384 -6.115878831136883e-7 5.934803526952415e-7 0.0000012548037631732178 0.0000010029928730614923
          0.0000023795925861436196 0.0000026614419235682085 0.000005177706702275131 0.0000011357404099410218 0.0000020593562156112633 0.000004740811611947393
          -0.000008071290233231665 -0.0000033864089763052663 -0.000016461441079154704 -0.000007025146907535529 -0.000006025353371852393 -0.0000011056140122728264
          -0.0000034592383730963627 -0.0000017830128264395562 -0.0000021642214164119267 -0.000007602404465789636 -0.0000040197762473936915 -0.0000042349379664463616
          2.881863071235724e-7 0.000003106954628961933 0.0000012117960453417176 0.000004399889037970395 0.000005933393294840772 0.000013070115320701348
          0.000008570362639591378 0.000008070240741855916 0.000011126575298003871 0.000024547473309016743 0.000016064515911920485 0.000011487173747756763
          0.000014074178453338249 0.000025232392941193504 0.000019155188303456028 -0.24402134707279405 2.0126320290914101e-7 -0.25837269023578996
          -0.48269463954562347 3.730279955344029e-7 -0.5102874370699114 -0.23651586735157595 7.760428656633511e-7 -0.24906290262301903
          0.0000015239742992348426 3.2703831362446145e-7 0.000003593019464427985 7.848791143405531e-7 0.000005660578846711228 0.0000037102009798894997
          -0.0000044694500509478985 -0.000032781512613586083 -0.00000923915858902502 -0.0000676050385978455 -0.000001995737824986299 -0.00003161078187693955
          8.508932320128171e-7 3.1652326334952186e-7 0.0000015117055363889076 9.703058068410986e-7 0.000005304349012053011 0.000007985998776480208
          -0.3608604922450303 0.0000018007886488646818 0.000002720411894571728 -0.4212660195412364 -0.7085954284433598 0.000003402595450646695
          0.000005355935519667232 -0.827259312702642 -0.34128091001669636 0.000002673151064003232 0.000004329298348836053 -0.3976820014426322
          0.0000016979190236854347 0.0000028073246463033996 0.0000018898445690029853 0.0000031893680834393923 0.000005421082369894137 0.0000035843111731992394
          0.000006745206448555141 0.000009821394823417151 0.000006992336067046523 -8.189882790641395e-7 -0.0000030080856323611016 -0.000001254379307019833
          -0.0000056982350053191855 0.000002302194150590603 -0.0000015514025374085971 8.518052159456335e-7 8.880354277762681e-7 0.0000017700249298757686
          0.000001759292547337532 0.0000067136772848308546 0.0000047040029000355865 0.0000028236700062994613 5.223316389968424e-7 0.000005685819840901829
          0.0000010324929217986334 0.000012676056152786941 0.000008281507251378661 -7.412572875509227e-7 8.161545847068519e-7 -0.0000012489920472313898
          0.0000020088562950326683 0.0000030422667473550824 0.0000050586137827351996 -0.0000015189667577327273 -0.000006031409980761238 -0.000002638803981035512
          -0.000002978987019577016 -0.000011385966097170186 -0.00000500094167535034 -0.0000016208563591935468 -0.000005778793489206319 -0.0000025687713960300534
          0.0000015337914621715854 3.783621575215168e-7 1.5098141112335206e-7 0.0000031787315389886217 0.0000011936283420832527 3.503259801973524e-7
          0.000004299571329302587 0.00000373278227824847 0.000002959958396803186 1.6754314227651612e-8 8.407817842365217e-7 -0.2836105221184483
          5.882635808335257e-8 0.000001564240517906712 -0.5588166746849831 5.256911260603792e-7 0.0000012989568455301637 -0.2714337066307736
          -0.31330883115223174 -0.6160334262393565 -0.29784927515266213 -0.000002011204245238457 -8.997985808563425e-7 -0.0000037874861973721807
          -0.0000025536922309485344 -0.000003943253001764679 -0.0000018370756440407032 -0.000007437718394551207 -0.0000048694041913099895 -0.0000021566586101001706
          -0.000001224965015620555 -0.000004283142759742287 -0.0000026209509718447266 7.074394677286655e-7 0.000002868563372171451 0.0000013855549649277599
          0.000005639221733577671 0.000002314213603943349 0.000005222198959903279 -0.0000034751906621034723 -0.000004988076417893755 -0.000006549775792209778
          -0.000009661357456697273 -0.000003123537050026687 -0.000004813317481665302 0.00000370157139986671 0.000006539868228974677 0.000007240985237882969
          0.000012646834705237059 0.00000549839560212706 0.000012126685804084852 0.000007774289470852125 0.000014309134859724626 0.000014742411406587497
          0.000027765923911349244 0.000016074122969944593 0.000022352915032997078 -0.0000038153258015150016 -0.00000663218953455072 -0.0000031892045487466603
          6.322801671121425e-8 8.236787109039412e-7 0.000003188959007971448 0.000008948236691223854 -0.00004954320744338103 0.00001694698312662557
          -0.00010124388241097848 0.0000196364416380837 -0.00004514047991663328 -0.0000021060830724117796 -0.0000037420095066187375 -3.5126873543234183e-7
          -0.000008280294802848198 -0.000017630173629604867 -0.000005725842680310775 -0.0000021167294592915054 -0.000004160340681171114 -0.0000021234698818618607
          -8.539725603329273e-7 -0.0000011692600334900494 0.0000022621784828702474 -0.0000033648323589929863 -0.000006627972827299988 -0.000004668336972435405
          -0.000018005087643449547 -0.000037095578029673615 -0.000018754073549592798 -0.000055074612019950786 -0.00011254469790233923 -0.000047648624318552546
          -0.276342699929522 -0.5440096126142626 -0.2621630540974002 -0.2207572145082493 -0.4384454612135103 -0.2167966867568908
          -0.000012069623429922238 -0.000023724759563761855 -0.000013104616756062781 -0.00000489372175567623 -0.00000934058997457328 -0.000004412451135653761
          -0.000002290006315908144 -0.000003148164106070439 -4.227617595997657e-7 -0.000002781638603788217 -0.0000037942797881385104 -0.00000220225079738956
          -4.175272340090075e-7 1.2044158681501216e-7 0.0000014953395677252956 -0.0000026262159389389694 -0.0000036226902072611367 -2.7735288754549003e-7
          -0.0000010131606009711192 -4.3845979069701e-7 0.0000026918954195709333 -4.664667266895961e-7 -4.042220773659011e-7 0.000004198531272758821
          0.0000018214469778010667 0.000003890473059264821 0.000007885378307981306 0.0000044242879498890275 0.000009684648270003038 0.000012334773498934304
          0.000006073695792974121 0.00001315353298753097 0.000013408096074807307 -1.173033313817129e-7 0.000001102399695140921 0.0000010011932539688573
          0.0000030239152277317105 0.0000027356912857268156 0.000003771888796522127 -9.146948879157346e-7 -0.000006471224053172797 -0.000005647337558561949
          -5.949199798904736e-7 -0.0000021992676283444368 -0.000013292405443787736 -0.00001059495086122575 -8.76876961874995e-8 -0.0000017744010862297266
          -0.000009997270132178215 -0.000006086442846053863 7.759020827780017e-7 -0.0000038783050803486985 -0.000005861292897896275 -0.000005361978182794047
          8.701314100911794e-7 0.0000031937020947558903 0.0000026390284953992094 -0.000020189203069630873 -0.00003945830828870622 -0.000025574609923764702
          -2.5478856047200793e-7 -0.0000036964315802689995 -8.961616262403993e-7 -0.000004662599457416761 1.0156886109946583e-7 -0.0000017040331025119926
          -0.0000019230347565457606 -0.0000014857290628889075 0.0000019736625040955857 6.005905728301286e-7 0.00000144822779724052 0.000001451789217843391
          5.382650436480674e-7 0.0000020629457186949196 0.000003722991789967267 0.0000019973713407672733 0.000005109213808474067 0.0000057850571621997915
          0.0000028463884893525915 0.000006352764496675434 0.000006137772846415146 0.0000021606333751034157 0.000004959363597567545 0.0000034907841133247075
          -0.000004291169537817829 -0.000006118318747416751 -0.000004132667984602101 -0.000010714559415925251 -0.000010152851447731148 -0.000005927485596246562
          -0.00002017703239909352 -0.00001693125857604727 -0.000012858411856608853 -0.000014417391358989562 -0.000012041846393862077 -0.000012839485804938544
        </DataArray>
        <DataArray type="Float64" Name="resid_y" format="ascii" RangeMin="-0.00006496285260780554" RangeMax="0.000025849210336055528">
          3.1348696355633365e-7 2.2388399380408874e-7 6.751829794322817e-7 6.084463737704437e-7 4.418028681646424e-7 3.8499518877337796e-7
          2.4672426291588723e-7 3.71559404209465e-7 4.942697349246891e-7 0.0000010926835477542696 2.9356010202222227e-7 7.610071729542353e-7
          4.3829804348156226e-7 7.066525383771227e-7 6.121161917182344e-7 0.0000016558573044528346 3.843151454739277e-7 0.0000010636263446254027
          5.473295034436748e-7 8.746894838186636e-7 7.955979799967317e-7 0.000002069880175630673 4.731936559428107e-7 0.0000013144729299769536
          7.331484962085424e-7 0.0000010841075982689907 0.0000011083574446672795 0.0000025612684503694555 6.102522111346362e-7 0.0000015970653361382925
          9.969253475829165e-7 0.0000013149752911140178 0.0000015975585212300164 0.000003076926846208583 8.119166800598515e-7 0.000001856060807345003
          0.0000013906508219974079 0.0000015289078925916078 0.0000023987893593580695 0.000003502422084293577 0.0000011079905561043463 0.0000019980583827843013
          0.0000020670408228205123 0.000001778402390420486 0.000003820252815697062 0.000003926966635241919 0.0000015145904592450687 0.000002002484592165954
          0.0000031181918241848794 0.0000022189693713939307 0.000006137416857083383 0.000004810034891132575 0.0000015653726027770043 0.000001814390903805141
          0.0000029897493821554044 0.0000018160021592952824 0.000006021024393544627 0.0000037695439233098593 9.554777433279371e-7 0.0000010346549870615673
          5.88891160658439e-7 0.0000011990815405350796 8.153766013433567e-7 0.0000010197586717201716 0.0000017215282078169962 9.839216654015243e-7
          0.0000015007505215188302 0.000002545773672363652 0.0000014210137386930569 0.0000018564042760741556 0.000003141851257612051 0.0000017443621269470563
          0.000002095009524438231 0.0000035158442443870147 0.0000019475300892758327 0.000002281139012486229 0.000003827231972688104 0.0000020834515608129933
          0.0000025517366443583017 0.000004390315581468025 0.0000022580896649315035 0.000002982291575068241 0.000005364895316050354 0.00000243893984849591
          0.0000035758539112169287 0.000006742311252881661 0.000002113669101398404 0.0000026965606253551155 0.000005316010026880369 7.946222497293154e-7
          4.58161969791801e-7 8.02035743957541e-7 5.635675648513194e-7 4.217966881932961e-7 4.917185244795313e-7 4.6395991768182626e-7
          6.019161921913714e-7 6.545740252640597e-7 6.355140255856831e-7 7.682707681769263e-7 8.564783164424772e-7 7.95564825306367e-7
          9.625577425346338e-7 0.000001139631719044307 9.726796190102829e-7 0.0000011928201781256226 0.0000015429673072182588 0.000001156500550541866
          0.0000014499410066709604 0.0000020902272927563956 0.000001325851327751721 0.0000017398123418627814 0.000002762521874114139 0.000001377492636991419
          0.0000022010379526048868 0.000003858821340052207 0.000001089695197815238 0.000001837459416172832 0.000003400948769084755 1.4122323289608718e-7
          5.191060964936101e-7 9.246577252312871e-7 6.472856497220791e-7 4.579133571530787e-7 4.85398438363838e-7 4.912077352420188e-7
          6.47290137953155e-7 6.413609082767981e-7 6.775199615184288e-7 8.093593786549259e-7 8.204083296521093e-7 8.341808841948965e-7
          9.78869099067998e-7 0.0000010571219495466525 9.866130646600394e-7 0.0000011604994936118863 0.0000013680727390242946 0.0000011250232205342603
          0.0000013239921371381927 0.0000017153243251997324 0.000001207781777269254 0.000001375784273272701 0.000001885200552803612 0.0000010654766040649882
          0.0000013827438019239913 0.000002027272450615819 4.973431249020999e-7 9.157686437291646e-7 0.0000013474250913150798 -3.7453283994320907e-7
          6.1118973334294e-7 0.0000010057233306541569 6.620997573068138e-7 4.791170027761539e-7 4.634106833998838e-7 5.025250773416762e-7
          6.659573249225221e-7 6.059053850262673e-7 6.908656859863508e-7 8.154349308872426e-7 7.513090742729094e-7 8.334501674653674e-7
          9.555598579733156e-7 9.329398459817853e-7 9.57668963400514e-7 0.0000010800671204104495 0.0000011348778195677603 0.0000010466074103132258
          0.0000011460895981644376 0.000001273880137294195 0.000001042102343380008 9.713283891515934e-7 9.535881215563813e-7 7.1185723565792e-7
          6.085258564027252e-7 3.2806653439687583e-7 -6.447658454020178e-8 3.3582731391162144e-7 1.09132598391775e-7 -6.333945764486551e-7
          6.837095238177576e-7 0.0000010538240635023233 6.681732632497772e-7 4.904807430580098e-7 4.3245890736704796e-7 5.092542350376358e-7
          6.754291321288148e-7 5.594841542468781e-7 6.930858441186669e-7 8.069290703617733e-7 6.655885692466793e-7 8.142631180685887e-7
          9.134423981267681e-7 7.872586908737669e-7 9.091350764477493e-7 9.784626511626093e-7 8.73142499871471e-7 9.475348384142823e-7
          9.424892737953938e-7 7.95833427928716e-7 8.529467648635269e-7 5.888229923679822e-7 7.902146334504145e-8 3.738149040172223e-7
          4.600978157492941e-9 -9.94834114365073e-7 -4.856294493482682e-7 -3.304323323311681e-7 -0.000001255642666887942 -0.0000010689919321248825
          7.191263010283833e-7 0.0000011284847290723987 7.31719691397098e-7 4.98409287663041e-7 3.951686844286609e-7 5.123322402041369e-7
          6.905145693890738e-7 5.057443844989559e-7 6.878126970074304e-7 7.915914757425022e-7 5.694688629369338e-7 7.906886984043737e-7
          8.602718660887659e-7 6.303621238497314e-7 8.522472539108927e-7 8.69082016559039e-7 6.017018398876695e-7 8.415861456924356e-7
          7.352233471827341e-7 3.1432846852447183e-7 6.592968774601915e-7 2.5905350151469997e-7 -6.762575345022059e-7 8.251239803566679e-8
          -2.911965920962545e-7 -0.0000016712334244238514 -6.515750072683124e-7 -5.08260956940277e-7 -0.0000016274470959034074 -0.000001094555146849592
          0.0000020616417026192435 0.0000037302774824540808 0.0000018950900792045339 0.000002445665149536369 0.0000041954076684183605 0.0000023520467186382427
          0.0000014837476743651684 0.000002096593082263898 0.0000014528855793016077 7.918915777126861e-7 5.425848841967076e-7 7.842584218232043e-7
          8.022011185083999e-7 4.755115907677937e-7 7.966555747203341e-7 7.587205292421823e-7 3.2984061815004295e-7 7.4000791353869e-7
          5.436426729205079e-7 -1.333249425791716e-7 4.844963372337141e-7 3.239121772885545e-9 -0.0000012739499881363192 -1.4614880918320527e-7
          -3.9124992576647366e-7 -0.000001944164599971057 -6.854943513535244e-7 -6.961316121583544e-7 -0.000002000619804193478 -0.0000012018332270959803
          0.0000015476024731592153 0.0000028320854893945646 0.0000021487215742122673 0.0000017744158095078788 0.0000026690189888212146 0.0000023287638054661497
          0.000001422197088841396 5.942161178597478e-7 0.0000017511187984124363 0.0000012106355275843042 -2.2389220730861803e-8 0.0000015487473283360212
          5.011233568021772e-7 -0.0000015985238610814745 7.018723041478381e-7 -8.5600860346563e-7 -0.000004470195199147986 -8.212660092543622e-7
          -0.0000017567839727186674 -0.0000062147429483565275 -0.000001890824531725066 -0.0000013581257987740902 -0.000004733995631736598 -0.00000205986742916886
          1.8710945197961473e-7 0.000003460098565805092 0.00000247225674456647 -5.59633214693156e-7 7.343172673110118e-7 0.0000070719589291973195
          0.000005339714602588946 -6.823726493056237e-7 3.7110808427968586e-7 0.000004046495447808385 0.0000027177182113542753 -5.649229918407161e-7
          -1.3953038184577604e-7 -2.3506895371005164e-7 1.6970602009433455e-7 -1.275325059231936e-7 -1.7095004700706795e-7 -3.8513624807899865e-7
          -2.680670227184212e-7 -6.175437372970063e-7 -9.871763557468827e-7 1.1590220368520865e-7 -6.276493421837614e-7 -0.0000018260606352449998
          2.59538203359333e-7 -3.3472616074031736e-7 -0.000001080029315170608 4.867477668840658e-7 0.0000011662126598206701 7.755443482554414e-7
          9.431594767822515e-7 0.0000013263958997949965 0.000002656638769176628 0.0000017838347537695726 0.0000020974051850863873 -3.758279398247133e-7
          3.7176411157163747e-7 2.135594165501853e-7 4.249003053222178e-7 0.00001183432410158114 0.000009407366597873057 0.000009744164187849846
          0.000010844616882606066 0.00002399139654776089 0.000018755986987244178 0.00001976298768133905 0.000021696295814189852 0.000015126066972646901
          0.00001107218913228361 0.000012593505185683196 0.00001508794927693527 0.000001100727728343921 0.000001041128920475226 8.461371110782268e-7
          0.0000021183638576408037 0.000002528018111414617 0.0000020183962804766475 0.0000017017388226504143 0.000004341998069957997 9.143816279274727e-7
          5.123706976403741e-7 2.450661881342464e-7 0.0000016504191535579582 9.924264754747336e-7 0.0000017950863818788285 9.168694480379824e-7
          0.0000016205726074726423 0.000002104169389210292 0.000003670335791539428 0.0000019007280831493181 0.000003197941013721728 0.0000010081857672143701
          0.0000018713364748831895 7.707499644869775e-7 0.0000014719111968812537 5.14667673544994e-7 0.0000018507803250088911 7.868071889328976e-7
          0.0000033038338872071887 4.0658540996496573e-7 0.0000016273821713081935 0.0000012227292569694237 0.0000017873919065519717 0.000002430814314870189
          0.0000035169751945486605 6.149930978499585e-7 0.000001174958913826435 -0.000002242381502650173 -0.0000014920835061200607 -0.0000010382748173232755
          -0.000006701500916653225 -0.000004482874019801075 -0.0000027701897697082235 -0.000002120347731107133 -0.000014013350724036838 -0.0000018627658148109155
          -0.0000011839590569706453 -0.0000014310865601402205 -0.0000071111237477869405 3.007404376738007e-7 0.0000018025684432043665 5.752713573418163e-7
          1.8223661563121496e-7 7.336420939226766e-7 0.0000037523959344303026 0.00000145434055102262 4.7682306349161596e-7 -1.713478859279461e-7
          9.611318416632986e-7 -3.7316943188141216e-7 -1.811243514823757e-7 0.0000020371343815925314 0.0000017978748339346744 0.000004278652563798058
          0.000004047169985695344 0.0000017486977638841994 0.0000013447487371160555 0.0000023583909016799964 0.0000025369423781677197 7.280631317829744e-7
          0.0000017920635528544115 0.00000524541197560735 0.000005988451583914534 0.0000023008372631722063 0.000004047197217534049 0.0000025742600683817396
          0.000002708194521120269 0.0000011671560987969176 0.0000016272043919657309 -0.000028180153898951787 -0.00001806159913123051 -0.000005683430001340341
          -2.697754258700058e-7 -0.000055581815898972375 -0.00003520261417725573 -0.000010332928589587217 5.700195459153179e-7 -0.00002483845179898636
          -0.00001628603727311939 -0.0000037841538628952467 0.000003170983840204006 -1.3293839484665535e-7 -5.524917876332039e-7 -1.0105322447448786e-7
          1.7334085412727164e-7 -2.587105373467026e-7 -0.0000010709082191079269 -9.083029810447521e-8 2.965046764957964e-7 -2.00998332905295e-7
          -5.353452546858102e-7 -7.285761738210807e-8 3.426590944603965e-8 8.476772471784771e-7 0.0000016403670567103484 0.0000017448179556933327
          0.00000311416035652691 8.612255159188772e-7 0.0000013623155163261513 0.000002367283459980829 0.000004783633164546358 0.0000010804947740625237
          0.000005012716022937541 0.0000026806736693821276 0.000009777812935395092 0.000005198004622945784 0.000005938433812524568 0.0000032433504621176557
          0.000004801214850469471 0.000005355438818556435 0.0000036031839805890364 0.000009889203466381669 0.00001055210854383759 0.000006872012556422696
          0.000006567155460955598 0.000006040907332381662 0.0000036315019450137986 0.000004000589778455771 0.000008438113774078201 0.000012525735340565558
          0.000005400872003260421 0.000007921240878880353 0.000017346050617574483 0.000025849210336055528 0.000011113863528481455 0.00000413886303151853
          0.000010041298353291421 0.000015752006529132223 0.000005520207786827852 5.47082943565258e-7 5.77566219132214e-7 -2.594882884607297e-8
          0.000001183231448598221 0.0000013096056183901916 8.826267466378879e-8 2.5043811089503487e-7 2.1201982391971796e-8 -4.005714913345171e-7
          4.396707582558779e-8 0.0000026611877851755866 -1.4649098431865348e-7 0.000004697232800075779 -3.303270226535232e-7 0.0000021891717503930846
          0.000003074391962891443 -0.000021109206316274887 0.000005880460876427074 -0.00004329920093229522 0.000004748835575642263 -0.00001928272129796127
          0.0000024971289358660664 0.000003964173874861088 0.000005064354512515634 0.000007765302534976093 0.0000027036033253616254 0.00000407882124654757
          -0.0000015190418275363993 -0.0000012493042858968684 -0.000002775230593304867 -0.0000024776740245278928 -0.000002719426537463321 -0.0000020204858431314976
          -0.0000047936393113845455 -0.00000445236327079046 -0.0000015430051720465021 -0.0000016613316192008731 -0.0000025051417959359723 -0.000002053634545827465
          0.0000012297633322101015 0.000004530911357384943 0.0000033779621640016213 0.0000024359009502816775 0.000008615095737280094 0.000006614990646944523
          0.000001033563101859522 0.0000040288219731242185 0.0000030071380337829377 0.0000029553217350992977 0.000004260929564986471 0.000005570911174649501
          0.000008150721368470337 0.0000025637530227592964 0.000004081833058236506 0.0000036251987672493435 0.0000027312835337513393 0.000006543586802725682
          0.0000047623660305757556 0.0000026962613868808383 0.0000021538045101260166 0.000004783641909604855 0.000004348694007262621 0.000009542505554582977
          0.000008964083808547102 0.000004887214117588537 0.000005265776774180525 0.0000025709332964057863 0.0000013630321095726983 0.0000053004791670321905
          0.0000025958065305829725 0.0000029287546121081753 0.000001033908677436357 -6.752289329822747e-7 0.0000018099938717489744 -6.178859780913044e-7
          -0.0000011208313364591618 0.0000037434339278993173 -0.000001184366314786224 -5.941751951002092e-7 0.00000191738462303713 -5.926258063084638e-7
          1.652310799007614e-7 0.00000501903321985242 0.0000016932649290514468 7.315163346385822e-7 0.000009885349645355479 0.0000034080821606618378
          1.9180270669806598e-7 0.000004505122654957505 0.0000017451507274947667 2.1589772386532147e-8 1.3132733390347484e-8 3.243222011783953e-8
          2.8651933123291506e-7 1.208442936204146e-7 1.4634791871762087e-7 -3.548524242016904e-7 -7.931804693224465e-7 -1.629090174877501e-7
          -7.818769972786632e-8 -1.6771007151777928e-7 -3.850421650894442e-7 -1.9865959276785597e-7 -2.953899191542389e-7 8.82233742774928e-7
          3.272043051782969e-7 -1.6560462008045201e-7 -4.37252116572244e-7 0.0000016570122660305997 5.505717088323883e-7 -1.2833218021937598e-7
          -2.634183075070351e-7 4.191422663529787e-7 2.217701171652528e-7 6.759887204773468e-8 -2.557825648993872e-7 5.127701879544672e-7
          -2.0452031473938703e-7 -4.668847621005709e-7 -8.409143937015973e-7 2.5250865226793956e-7 0.0000029606025681613683 5.340986119067859e-7
          0.000005931834481873177 1.9769295186641833e-7 0.000002993886234143976 -0.000004808172145674694 -0.000002538095365073323 -0.000009282399279157694
          -0.00000414605272543167 -0.000004499277123572176 -0.000002085247971135573 0.0000037115430226372648 0.000005716381009268634 0.00000800779143070307
          0.000011714665353837472 0.000004698385127850646 0.00000876061890051072 0.0000014206068701502934 0.0000028406857370336103 0.0000011973110067378147
          0.0000029015727855755125 0.000004723718619446815 0.000002170055998639009 0.000012733370407619522 -0.000028868880659366214 0.00002554917199577237
          -0.000058041146433235324 0.000017706500261703898 -0.000024765141512228528 0.0000033816840159222455 0.000006673099049470457 0.0000036240677938215865
          0.000004831469739849728 0.000009188100841097877 0.000006667422970667303 4.919776280306459e-7 0.0000011334886337727168 5.196893781691733e-7
          0.000004802837027848006 0.000008907502575719595 0.0000040864664299783415 -1.226236919435464e-7 -1.4378116822838516e-7 -5.856320884241317e-7
          -0.000014439862661447256 -0.00002944487865727541 -0.000014418136117216873 -0.00003271526396617097 -0.00006496285260780554 -0.000027404750919252097
          -0.000009356645739028516 -0.000018072682486963698 -0.000008608457300749578 8.962399120557296e-7 0.0000017680260832944605 5.941626590941218e-7
          -8.309566158805348e-7 -0.0000020802568216791648 -9.765878871059383e-7 0.000002237356261921154 0.000004447927595231833 0.0000020869709501803303
          0.000003776505842562755 0.000007108177147434336 0.000004631430955977234 0.000002966122958787329 0.000006762673619806203 0.0000043623107129873995
          0.0000013751545978454502 9.103496043929779e-7 0.0000020051228415453315 0.0000033855130604342615 0.000005665137450748883 0.000003299498966827935
          0.0000017041394998838083 -7.980105362938306e-7 0.0000010377995356986719 0.0000011315034217258824 -0.0000023785490267727583 -1.4267412376187116e-7
          -4.301974595999347e-8 -0.000004746186926571361 -0.0000012921908045249175 -1.3083074097350322e-7 -0.000004966539757154248 -9.726309460299232e-7
          6.348738486525174e-7 -0.000001681474112599779 -2.7595548202780096e-7 0.0000026659100859846574 0.0000013525218021184782 0.000004808840072173526
          0.000002107474443346913 0.0000027777797726794007 8.131892684226649e-7 0.000002118531564572479 0.000002700254861289636 0.0000032278826571918717
          0.000003631450017458661 0.000005053303865187875 0.000006331903329635097 0.000006984542684183859 0.000007879195787325287 0.000002847195715735551
          0.0000034319002973279278 0.000003423798022622604 0.000004033152310833725 0.0000032067160919569543 0.000004799373311312194 0.0000021917597974267095
          0.000005901837848929989 0.000007715252786007556 0.0000031685100888110412 0.000002545478815681179 0.000004644071522529915 0.000002186225786121078
          -0.0000015679134048127846 0.0000025311978625137607 -0.000003048447653877795 0.000008645345525448364 -4.640730526597747e-8 0.0000061742496186376755
          0.0000025597645434520533 0.000004683435202580688 0.00000346345861833644 0.0000020988099509837432 3.384053663263442e-7 0.0000022134373559197507
          -4.134226067147029e-7 -0.000002802417082274633 -6.040453477216406e-7 0.0000013587812098293794 -0.0000012621576387095157 8.005328467862449e-7
          0.000002100861807616261 -4.413871796810076e-7 0.0000017334886685677064 0.000003157263873877769 0.0000024757006478609567 0.000002545112015986395
          0.000008358327527477338 0.000012494394369455541 0.000007187115903903307 0.0000033921041860769316 0.0000054230193982998665 0.0000020814589025766606
          0.0000028111325422417463 0.000009940716834092034 0.000004556669179853201 0.000001905794767933231 0.000005410942685912801 0.0000037464338977222233
        </DataArray>
        <DataArray type="Float64" Name="resid_z" format="ascii" RangeMin="0" RangeMax="0">
          0 0 0 0 0 0
          0 0 0 0 0 0
          0 0 0 0 0 0
          0 0 0 0 0 0
          0 0 0 0 0 0
          0 0 0 0 0 0
          0 0 0 0 0 0
          0 0 0 0 0 0
          0 0 0 0 0 0
          0 0 0 0 0 0
          0 0 0 0 0 0
          0 0 0 0 0 0
          0 0 0 0 0 0
          0 0 0 0 0 0
          0 0 0 0 0 0
          0 0 0 0 0 0
          0 0 0 0 0 0
          0 0 0 0 0 0
          0 0 0 0 0 0
          0 0 0 0 0 0
          0 0 0 0 0 0
          0 0 0 0 0 0
          0 0 0 0 0 0
          0 0 0 0 0 0
          0 0 0 0 0 0
          0 0 0 0 0 0
          0 0 0 0 0 0
          0 0 0 0 0 0
          0 0 0 0 0 0
          0 0 0 0 0 0
          0 0 0 0 0 0
          0 0 0 0 0 0
          0 0 0 0 0 0
          0 0 0 0 0 0
          0 0 0 0 0 0
          0 0 0 0 0 0
          0 0 0 0 0 0
          0 0 0 0 0 0
          0 0 0 0 0 0
          0 0 0 0 0 0
          0 0 0 0 0 0
          0 0 0 0 0 0
          0 0 0 0 0 0
          0 0 0 0 0 0
          0 0 0 0 0 0
          0 0 0 0 0 0
          0 0 0 0 0 0
          0 0 0 0 0 0
          0 0 0 0 0 0
          0 0 0 0 0 0
          0 0 0 0 0 0
          0 0 0 0 0 0
          0 0 0 0 0 0
          0 0 0 0 0 0
          0 0 0 0 0 0
          0 0 0 0 0 0
          0 0 0 0 0 0
          0 0 0 0 0 0
          0 0 0 0 0 0
          0 0 0 0 0 0
          0 0 0 0 0 0
          0 0 0 0 0 0
          0 0 0 0 0 0
          0 0 0 0 0 0
          0 0 0 0 0 0
          0 0 0 0 0 0
          0 0 0 0 0 0
          0 0 0 0 0 0
          0 0 0 0 0 0
          0 0 0 0 0 0
          0 0 0 0 0 0
          0 0 0 0 0 0
          0 0 0 0 0 0
          0 0 0 0 0 0
          0 0 0 0 0 0
          0 0 0 0 0 0
          0 0 0 0 0 0
          0 0 0 0 0 0
          0 0 0 0 0 0
          0 0 0 0 0 0
          0 0 0 0 0 0
          0 0 0 0 0 0
          0 0 0 0 0 0
          0 0 0 0 0 0
          0 0 0 0 0 0
          0 0 0 0 0 0
          0 0 0 0 0 0
          0 0 0 0 0 0
          0 0 0 0 0 0
          0 0 0 0 0 0
          0 0 0 0 0 0
          0 0 0 0 0 0
          0 0 0 0 0 0
          0 0 0 0 0 0
          0 0 0 0 0 0
          0 0 0 0 0 0
          0 0 0 0 0 0
          0 0 0 0 0 0
          0 0 0 0 0 0
          0 0 0 0 0 0
          0 0 0 0 0 0
          0 0 0 0 0 0
          0 0 0 0 0 0
          0 0 0 0 0 0
          0 0 0 0 0 0
          0 0 0 0 0 0
          0 0 0 0 0 0
          0 0 0 0 0 0
          0 0 0 0 0 0
          0 0 0 0 0 0
          0 0 0 0 0 0
          0 0 0 0 0 0
          0 0 0 0 0 0
          0 0 0 0 0 0
          0 0 0 0 0 0
          0 0 0 0 0 0
          0 0 0 0 0 0
          0 0 0 0 0 0
          0 0 0 0 0 0
          0 0 0 0 0 0
          0 0 0 0 0 0
          0 0 0 0 0 0
          0 0 0 0 0 0
          0 0 0 0 0 0
          0 0 0 0 0 0
          0 0 0 0 0 0
        </DataArray>
        <DataArray type="Float64" Name="stress_zz" format="ascii" RangeMin="-2401230.721027893" RangeMax="5255544.737964702">
          -2228.551676202583 -2267.516423396777 -2250.8099970355643 -2286.289710800498 -2273.0683178685463 -2305.0629982042196
          -3061.6369937335317 -3121.852077800621 -3100.328529005164 -3155.7589418545035 -3139.020064276796 -3189.6658059083857
          -4343.670731296863 -4444.536523262372 -4404.717303074968 -4499.302554010762 -4465.763874853074 -4554.068584759152
          -6345.3723621464715 -6521.8282546167575 -6449.66853465068 -6619.456730503423 -6553.964707154889 -6717.085206390089
          -9521.792841916718 -9861.699063718454 -9751.725631792146 -10076.980070848469 -9981.658421667571 -10292.261077978485
          -15459.808185353288 -16103.360118720224 -15545.994132353182 -16229.563401282414 -15632.180079353077 -16355.766683844602
          -23969.374543746446 -25738.89660107124 -25063.805105157175 -26628.073444200658 -26158.235666567896 -27517.250287330076
          -23733.30282424106 -29663.688152192895 -30352.679718516567 -37267.8831093445 -36972.056612792076 -44872.07806649609
          -31830.950472780565 -37142.42340057295 -21468.34844763286 -26298.10553233978 -11105.746422485154 -15453.787664106618
          -12990.005439718338 48372.845997230674 44790.4489804255 120241.96204104005 102570.90340056931 192111.07808484943
          -2108.0245542726157 -2142.2630977789977 -2176.5016412853797 -2875.161439462072 -2929.023144258818 -2982.884849055564
          -4037.299217003619 -4117.672808043953 -4198.046399084289 -5810.840237046862 -5937.21217804938 -6063.584119051899
          -8527.326761954495 -8793.18643987279 -9059.046117791087 -13536.639434362867 -13549.524524571505 -13562.40961478014
          -18856.486889441945 -20376.564508207844 -21896.64212697374 -8026.353858703953 -12305.076182045197 -16583.798505386443
          -18101.987356602516 -9038.979198456775 24.02895968896655 -45866.87699528445 -3775.1427615815774 38316.5914721213
          -1909.3700265610146 -1963.3540225637125 -2017.338018566411 -2569.0436293540433 -2647.323749741343 -2725.603870128643
          -3538.037361907261 -3649.733154161464 -3761.4289464156677 -4950.378912176759 -5111.26010425025 -5272.141296323741
          -6934.817244008133 -7250.245738648194 -7565.674233288255 -10550.088231407683 -10497.763673617894 -10445.439115828103
          -10554.879398160518 -12474.098881833017 -14393.318365505515 10157.647314868938 8505.7657974065 6853.884279944061
          10757.979321769335 19128.788086266897 27499.59685076447 -42346.8960759101 -15103.144691854477 12140.606692201145
          -1674.3083443163114 -1742.7276922792448 -1811.1470402421787 -2202.028933305385 -2297.1175042090936 -2392.2060751128015
          -2932.6435219240852 -3064.907629085194 -3197.1717362463028 -3887.0394725153456 -4065.0763348114087 -4243.11319710747
          -4989.657803344728 -5328.246842463279 -5666.83588158183 -6664.925526601057 -6524.122983936783 -6383.320441272508
          -1077.9727069156388 -3276.2223089025474 -5474.471910889456 29103.659073988274 29972.085052837003 30840.51103168573
          34312.82358263059 42196.924540372165 50081.02549811374 -64388.68167440539 -55423.434354771685 -46458.18703513798
          -1546.357077267131 -1576.8518992383097 -1607.3467212094881 -1966.1672006258173 -2007.8841726300634 -2049.6011446343095
          -2482.115913489921 -2539.682760600429 -2597.249607710937 -2997.678923526402 -3069.2593951429462 -3140.839866759491
          -3195.134912836897 -3375.3656725598653 -3555.5964322828327 -2719.006116483898 -2346.0105999225266 -1973.0150833611556
          7879.141088067858 5769.820653893721 3660.5002197195863 45718.871054862815 48741.275280536895 51763.679506210974
          38275.83012415624 43272.23136950561 48268.632614854985 -76415.35768758663 -82034.81462215017 -87654.27155671372
          -1893.9855436894854 -1720.1065330585488 -1546.2275224276123 -2348.431510047907 -2117.385306605869 -1886.3391031638303
          -2836.355171089509 -2528.9563093311335 -2221.5574475727576 -3166.3022456781277 -2748.505717780141 -2330.709189882153
          -2726.115506857387 -2240.0512119242403 -1753.9869169910928 -439.76697268435623 697.1966413770372 1834.1602554384306
          14660.75742507862 13422.514382052412 12184.271339026203 54003.6121721371 58209.55070536306 62415.489238589
          40936.04429165365 40886.491375615966 40836.938459578276 -75200.70658375171 -97644.32419019892 -120087.94179664616
          -3586.7129234435583 -2653.4255564363966 -1720.138189429235 -4489.238258771844 -3260.3382541875612 -2031.438249603278
          -5502.983565200455 -3877.282931692711 -2251.5822981849665 -6383.968704172007 -4215.300422182864 -2046.6321401937203
          -6286.039140589224 -3499.3773462904164 -712.7155519916088 -3004.405112744536 836.4685774632258 4677.342267670988
          14864.863198427218 16514.656355465726 18164.44951250424 55014.62659132366 59475.133310871555 63935.64003041943
          50720.049171948376 41620.698585615115 32521.347999281854 -34934.9146755107 -72366.74993216821 -109798.58518882573
          -6744.048482060227 -6153.83805673206 -5563.627631403893 -8531.632175839686 -7769.267992972318 -7006.90381010495
          -10677.490763152578 -9695.365019160456 -8713.239275168333 -12908.063812876542 -11639.411746629572 -10370.759680382605
          -14138.77862877729 -12580.034503040448 -11021.290377303605 -11037.977156863897 -8905.40307585344 -6772.828994842986
          8121.269932442701 8568.215363187028 9015.160793931353 49210.49881195717 52663.44044527153 56116.38207858587
          69757.46161754247 63340.0720896457 56922.6825617489 50483.44210293016 29418.183445939263 8352.924788948372
          -9551.285932675974 -10451.430505056278 -11351.57507743658 -10570.424754046064 -11805.449843863567 -13040.474933681076
          -9749.055270955501 -11425.576333067223 -13102.097395178946 -3663.369837738915 -5630.68991981082 -7598.010001882725
          15250.65815838887 12745.116101642849 10239.574044896828 43931.8897472012 45974.33097321989 48016.77219923856
          54306.14110602635 58534.43388749952 62762.7266689727 8557.178207903224 10146.711926136642 11736.245644370061
          -383541.697533165 -357910.3024923847 -90381.84827189677 -157526.39778761426 -304197.55102795083 -344000.69157538284
          -117105.3427604945 -131895.69734839056 -224853.40452273664 -330091.0806583809 -143828.83724909223 -106264.99690916683
          -266805.8219087013 -201938.74670193452 -205164.6822147277 -131557.27425896423 -143523.5425207541 -61175.80181599397
          -384503.1961164122 -250872.25832233907 -387768.8094851859 -216152.15402566688 -204857.77516682318 -332578.2151886219
          -47801.11193492166 -158843.29201130726 -277387.6208920578 -161523.41972319494 -145307.87869721215 65698.3079568854
          -93866.34820829247 -115882.79145402873 -103631.16471499158 71526.8540620792 -48724.56607289664 -70242.16318486254
          -61954.450732770994 77355.40016727301 -3582.7839375008043 -124596.8433556098 -136567.55546464157 -523310.7971338544
          -176746.03959175467 -118443.83541636966 -73594.30157760109 -305478.99475866876 -35057.44864039765 -112290.8274771295
          -10621.047690560586 -87647.19238348311 106631.14231095937 -109016.73239746231 -165364.69670793612 -89327.29390587391
          -60605.84326477189 -77737.33060225572 -133332.67238587895 -50447.41228447384 -19295.639310137558 -46457.92880704913
          -101300.64806382179 -11567.53066307375 22014.56464449677 -105685.14451390933 -20814.970377713635 -42142.56738126925
          -10153.896888490428 -91962.61710011541 11114.678977848027 -27388.40419899294 -16906.322957806056 -78240.08968632155
          43044.32833340968 -12634.241016716633 -23658.74902712167 -20501.04931535467 -112722.17277206745 -17107.758224096986
          -128318.81222960031 -13714.467132839301 -143915.4516871331 -107437.81259600983 -217790.35545869032 -64017.567373826365
          -168303.2654561431 -20597.3221516429 -118816.17545359588 -974935.9380633135 -956410.0541456591 -1150847.7492651397
          -2299517.596094269 -591124.1701551173 -657942.8647091095 -890335.1560171541 -1798495.4549593728 -207312.40224692106
          -359475.67527256015 -629822.5627691689 -1297473.3138244764 -17566.157944947514 -76785.67574715585 -136537.59570047713
          -76050.22999763867 39766.21897423143 -27169.382242823394 -87907.90750739083 -35268.98368946123 97098.59589341038
          22446.91126150905 -39278.21931430455 5512.262618716206 -252397.8297290803 64041.91279855138 -224209.0536667132
          -35181.903721143026 -196020.2776043462 -134405.7202408374 -4140.221045226477 145803.08120353456 72215.68119175159
          -22893.681083648462 -37332.30040930413 151786.9363044389 43789.53201606851 -35033.21494323501 -70524.37977338178
          157770.79140534316 15363.382840385428 -47172.748802821574 3624610.138420573 5255544.737964702 3469391.183722126
          2095904.2456731317 2700317.329354257 4130984.2418379155 2599359.2031476395 1504345.1409299495 1776024.5202879407
          3006423.7457111287 1729327.2225731537 912786.0361867677 -258968.7471088285 -461873.4839185593 -528109.2167916175
          -276907.5429648641 -244035.88065310643 -377003.7569278356 -449560.54675815976 -295772.1239227196 -229103.0141973843
          -292134.029937112 -371011.8767247021 -314636.7048805752 -11421.052726503243 -118885.06698688319 43097.90151664016
          -65290.055963588515 97616.85575978358 -11695.044940293847 -92375.91221049099 -45808.85631646032 758.1995775703457
          -741838.9442724776 -619619.2843064866 -515312.644669384 -558523.8261605009 -288786.3450662903 -497428.3680145152
          -561183.5556443793 -219952.1767359315 -265189.2530228343 -408630.5095040393 -158061.58619014308 -257174.51247744123
          -256077.46336369932 -96170.99564435463 -249159.77193204808 -230876.21821903903 -96188.25875525983 406795.3169620706
          -11775.843038365138 -239482.15051913343 -139303.7850282216 239841.0376964715 -1894.9541035244474 -248088.08281922783
          -182419.31130118342 72886.75843087232 7985.934831316273 -140489.38467393105 -221345.39136900127 -233815.3513081591
          -88727.77755469832 -167926.87870178424 -189565.18626095323 -36966.17043546561 -114508.36603456727 -145315.02121374742
          -19248.185568021487 -102916.44743856492 1525.7364861475028 -104545.07341450194 22299.658540316486 -106173.69939043894
          -1036898.246520681 -359266.77701062517 -676676.2789481642 -75134.38542214075 -316454.31137564726 208998.00616634358
          -51901.48498094201 -49094.8529353383 -2591.885853154126 -34980.06432396087 46717.713274633745 -20865.275712583458
          1434892.2143601964 991209.1235012531 2193305.7170112478 2748237.995811641 1147738.9185672423 731627.5302280497
          1570105.234717603 2042227.7374730008 860585.6227742881 472045.9369548466 946904.7524239582 1336217.4791343603
          -128483.15748891977 -87503.27342170302 -138763.86536528982 -75720.26327140408 -59572.04519599722 -107987.35526019105
          -22957.369053888433 -31640.81697029144 -77210.84515509228 19987.3112454473 -41348.58039658974 -15560.761484058423
          -85504.76343595132 -51108.83421356414 -129660.94647531289 -134965.82939635875 -110091.5919993346 -101583.6575483687
          -96980.84826748332 -68201.48570037865 -83870.10453563202 -160020.62031949835 -281033.40567199135 -133874.96431833695
          -281025.02175936825 -107729.30831717553 -281016.63784674514 -81815.57823541021 48320.06193051174 -86512.97661553267
          41922.55947109232 -91210.3749956551 35525.05701167289 -370148.5389984627 -271749.6780886892 -278338.51565712236
          -347994.95806830097 -227875.26188283347 -253357.56960154814 -325841.3771381393 -184000.84567697765 -228376.6235459739
          -46794.84947100429 48196.714803217576 57714.68817913439 -27576.977044646643 73076.01552912933 65872.78509943951
          -8359.104618289002 97955.31625504108 74030.88201974463 -86418.69184851486 193731.628895263 -79978.94336434147
          -56425.97273399892 152177.5128046374 -78291.67409226173 -26433.253619482966 110623.39671401188 -76604.40482018203
          417966.1325621414 343479.4558391794 268992.7791162173 -453209.03915946267 -387761.78351737617 -391410.5798183357
          -722194.5601876844 -402639.31169781066 -304130.45745536016 -384278.4005114103 -766885.5512680756 -352069.58423615864
          -220499.1313933442 -377146.22120448505 -811576.5423484668 125100.5426912496 117304.11814371357 111952.22190568002
          -54365.926854519115 98803.90112011044 -226035.97185275189 -319526.6665068468 -313672.4865126584 -259647.3436209679
          -281196.5083889982 -199768.02073508903 -248720.53026533796 3993191.6768022794 997607.7207282226 3028545.171010228
          582661.958928705 2063898.6652181766 167716.19712918712 718003.501186192 1165995.6217210833 560670.3611735035
          676118.3315637409 403337.221160815 186241.04140639855 -100457.7350747175 -26251.697705256527 47954.339664204446
          -59351.72037185934 -46661.70647006257 -33971.6925682658 896806.908501171 1542696.1864669528 709676.7749790475
          1478283.698753277 522546.6414569239 1413871.2110396016 72847.8433488789 77061.6106746444 81275.37800040988
          -1458346.3013889464 -1072524.5704693678 -686702.8395497892 -384438.57437326305 -377697.32081246085 -370956.06725165877
          138986.3414282075 154096.5383908739 169206.7353535403 -69312.32761225408 -131859.32745326852 -194406.32729428294
          -2401230.721027893 -1912480.594178681 -1423730.4673294688 2394690.460758958 1894294.9423365248 1393899.4239140914
          4922901.449072853 3823291.245679876 2723681.0422869003 60896.312122556 128987.44179684621 197078.5714711364
          -274234.08880273986 -389649.56896802335 -505065.04913330683 -323833.27695293585 -260729.72912022466 -197626.1812875135
          4011.5500765471716 3821.2373813046943 3630.924686062217 12016.511454867938 12373.177031155003 12729.842607442066
          9562.366974481483 9396.944720418438 9231.522466355396 17254.58600571574 17763.071194703552 18271.55638369136
          18867.433133672996 18731.743614882645 18596.054096092288 29782.582052824455 30173.851805228725 30565.121557633
          27572.27075182733 29245.04671957771 30917.822687328095 -9897.66804136839 -8506.807169887177 -7115.9462984059655
          -26432.20102873611 -25160.62651192846 -23889.05199512082 -94522.26057537564 -49372.957032290346 -96421.19938637236
          -50269.72261963929 -98320.13819736912 -51166.48820698823 -123262.12168558761 -40831.87880851367 -4355.455639185883
          -49766.15985689355 -140428.07922703354 -41021.30423823639 -5466.00410696835 -59221.66603037333 -157594.03676847942
          -41210.72966795911 -6576.5525747508045 -68677.17220385313 98510.81262253161 92013.86404084403 85516.91545915643
          -16238.736637597187 -18041.22296716442 -19843.70929673165 125720.09374097348 114792.60255660849 103865.11137224348
          10569.58988442082 9467.984287565167 10398.732789603418 9360.96729352681 10227.875694786017 9253.950299488453
          21910.44803347435 22465.007724802657 23019.567416130965 8287.675957635938 7966.677450777952 7645.678943919967
          18918.13104685745 19953.351585353987 20988.57212385053 -5928.560597263655 -5598.205216290432 -5267.849835317206
          -46425.64285181962 -48925.77954927174 -51425.91624672386 -50100.453096958045 -48042.28166150293 -45984.11022604782
          -72357.68472898412 -73226.58588249898 -74095.48703601383 100877.80433071803 80085.63895688392 41615.76014256179
          97918.8399990256 74903.88297477513 37674.0343056763 94959.87566733317 69722.12699266632 33732.30846879081
        </DataArray>
        <DataArray type="Float64" Name="peeq" format="ascii" RangeMin="0" RangeMax="0">
          0 0 0 0 0 0
          0 0 0 0 0 0
          0 0 0 0 0 0
          0 0 0 0 0 0
          0 0 0 0 0 0
          0 0 0 0 0 0
          0 0 0 0 0 0
          0 0 0 0 0 0
          0 0 0 0 0 0
          0 0 0 0 0 0
          0 0 0 0 0 0
          0 0 0 0 0 0
          0 0 0 0 0 0
          0 0 0 0 0 0
          0 0 0 0 0 0
          0 0 0 0 0 0
          0 0 0 0 0 0
          0 0 0 0 0 0
          0 0 0 0 0 0
          0 0 0 0 0 0
          0 0 0 0 0 0
          0 0 0 0 0 0
          0 0 0 0 0 0
          0 0 0 0 0 0
          0 0 0 0 0 0
          0 0 0 0 0 0
          0 0 0 0 0 0
          0 0 0 0 0 0
          0 0 0 0 0 0
          0 0 0 0 0 0
          0 0 0 0 0 0
          0 0 0 0 0 0
          0 0 0 0 0 0
          0 0 0 0 0 0
          0 0 0 0 0 0
          0 0 0 0 0 0
          0 0 0 0 0 0
          0 0 0 0 0 0
          0 0 0 0 0 0
          0 0 0 0 0 0
          0 0 0 0 0 0
          0 0 0 0 0 0
          0 0 0 0 0 0
          0 0 0 0 0 0
          0 0 0 0 0 0
          0 0 0 0 0 0
          0 0 0 0 0 0
          0 0 0 0 0 0
          0 0 0 0 0 0
          0 0 0 0 0 0
          0 0 0 0 0 0
          0 0 0 0 0 0
          0 0 0 0 0 0
          0 0 0 0 0 0
          0 0 0 0 0 0
          0 0 0 0 0 0
          0 0 0 0 0 0
          0 0 0 0 0 0
          0 0 0 0 0 0
          0 0 0 0 0 0
          0 0 0 0 0 0
          0 0 0 0 0 0
          0 0 0 0 0 0
          0 0 0 0 0 0
          0 0 0 0 0 0
          0 0 0 0 0 0
          0 0 0 0 0 0
          0 0 0 0 0 0
          0 0 0 0 0 0
          0 0 0 0 0 0
          0 0 0 0 0 0
          0 0 0 0 0 0
          0 0 0 0 0 0
          0 0 0 0 0 0
          0 0 0 0 0 0
          0 0 0 0 0 0
          0 0 0 0 0 0
          0 0 0 0 0 0
          0 0 0 0 0 0
          0 0 0 0 0 0
          0 0 0 0 0 0
          0 0 0 0 0 0
          0 0 0 0 0 0
          0 0 0 0 0 0
          0 0 0 0 0 0
          0 0 0 0 0 0
          0 0 0 0 0 0
          0 0 0 0 0 0
          0 0 0 0 0 0
          0 0 0 0 0 0
          0 0 0 0 0 0
          0 0 0 0 0 0
          0 0 0 0 0 0
          0 0 0 0 0 0
          0 0 0 0 0 0
          0 0 0 0 0 0
          0 0 0 0 0 0
          0 0 0 0 0 0
          0 0 0 0 0 0
          0 0 0 0 0 0
          0 0 0 0 0 0
          0 0 0 0 0 0
          0 0 0 0 0 0
          0 0 0 0 0 0
          0 0 0 0 0 0
          0 0 0 0 0 0
          0 0 0 0 0 0
          0 0 0 0 0 0
          0 0 0 0 0 0
          0 0 0 0 0 0
          0 0 0 0 0 0
          0 0 0 0 0 0
          0 0 0 0 0 0
          0 0 0 0 0 0
          0 0 0 0 0 0
          0 0 0 0 0 0
          0 0 0 0 0 0
          0 0 0 0 0 0
          0 0 0 0 0 0
          0 0 0 0 0 0
          0 0 0 0 0 0
          0 0 0 0 0 0
          0 0 0 0 0 0
          0 0 0 0 0 0
          0 0 0 0 0 0
          0 0 0 0 0 0
        </DataArray>
        <DataArray type="Float64" Name="pe11" format="ascii" RangeMin="0" RangeMax="0">
          0 0 0 0 0 0
          0 0 0 0 0 0
          0 0 0 0 0 0
          0 0 0 0 0 0
          0 0 0 0 0 0
          0 0 0 0 0 0
          0 0 0 0 0 0
          0 0 0 0 0 0
          0 0 0 0 0 0
          0 0 0 0 0 0
          0 0 0 0 0 0
          0 0 0 0 0 0
          0 0 0 0 0 0
          0 0 0 0 0 0
          0 0 0 0 0 0
          0 0 0 0 0 0
          0 0 0 0 0 0
          0 0 0 0 0 0
          0 0 0 0 0 0
          0 0 0 0 0 0
          0 0 0 0 0 0
          0 0 0 0 0 0
          0 0 0 0 0 0
          0 0 0 0 0 0
          0 0 0 0 0 0
          0 0 0 0 0 0
          0 0 0 0 0 0
          0 0 0 0 0 0
          0 0 0 0 0 0
          0 0 0 0 0 0
          0 0 0 0 0 0
          0 0 0 0 0 0
          0 0 0 0 0 0
          0 0 0 0 0 0
          0 0 0 0 0 0
          0 0 0 0 0 0
          0 0 0 0 0 0
          0 0 0 0 0 0
          0 0 0 0 0 0
          0 0 0 0 0 0
          0 0 0 0 0 0
          0 0 0 0 0 0
          0 0 0 0 0 0
          0 0 0 0 0 0
          0 0 0 0 0 0
          0 0 0 0 0 0
          0 0 0 0 0 0
          0 0 0 0 0 0
          0 0 0 0 0 0
          0 0 0 0 0 0
          0 0 0 0 0 0
          0 0 0 0 0 0
          0 0 0 0 0 0
          0 0 0 0 0 0
          0 0 0 0 0 0
          0 0 0 0 0 0
          0 0 0 0 0 0
          0 0 0 0 0 0
          0 0 0 0 0 0
          0 0 0 0 0 0
          0 0 0 0 0 0
          0 0 0 0 0 0
          0 0 0 0 0 0
          0 0 0 0 0 0
          0 0 0 0 0 0
          0 0 0 0 0 0
          0 0 0 0 0 0
          0 0 0 0 0 0
          0 0 0 0 0 0
          0 0 0 0 0 0
          0 0 0 0 0 0
          0 0 0 0 0 0
          0 0 0 0 0 0
          0 0 0 0 0 0
          0 0 0 0 0 0
          0 0 0 0 0 0
          0 0 0 0 0 0
          0 0 0 0 0 0
          0 0 0 0 0 0
          0 0 0 0 0 0
          0 0 0 0 0 0
          0 0 0 0 0 0
          0 0 0 0 0 0
          0 0 0 0 0 0
          0 0 0 0 0 0
          0 0 0 0 0 0
          0 0 0 0 0 0
          0 0 0 0 0 0
          0 0 0 0 0 0
          0 0 0 0 0 0
          0 0 0 0 0 0
          0 0 0 0 0 0
          0 0 0 0 0 0
          0 0 0 0 0 0
          0 0 0 0 0 0
          0 0 0 0 0 0
          0 0 0 0 0 0
          0 0 0 0 0 0
          0 0 0 0 0 0
          0 0 0 0 0 0
          0 0 0 0 0 0
          0 0 0 0 0 0
          0 0 0 0 0 0
          0 0 0 0 0 0
          0 0 0 0 0 0
          0 0 0 0 0 0
          0 0 0 0 0 0
          0 0 0 0 0 0
          0 0 0 0 0 0
          0 0 0 0 0 0
          0 0 0 0 0 0
          0 0 0 0 0 0
          0 0 0 0 0 0
          0 0 0 0 0 0
          0 0 0 0 0 0
          0 0 0 0 0 0
          0 0 0 0 0 0
          0 0 0 0 0 0
          0 0 0 0 0 0
          0 0 0 0 0 0
          0 0 0 0 0 0
          0 0 0 0 0 0
          0 0 0 0 0 0
          0 0 0 0 0 0
          0 0 0 0 0 0
          0 0 0 0 0 0
        </DataArray>
        <DataArray type="Float64" Name="pe22" format="ascii" RangeMin="0" RangeMax="0">
          0 0 0 0 0 0
          0 0 0 0 0 0
          0 0 0 0 0 0
          0 0 0 0 0 0
          0 0 0 0 0 0
          0 0 0 0 0 0
          0 0 0 0 0 0
          0 0 0 0 0 0
          0 0 0 0 0 0
          0 0 0 0 0 0
          0 0 0 0 0 0
          0 0 0 0 0 0
          0 0 0 0 0 0
          0 0 0 0 0 0
          0 0 0 0 0 0
          0 0 0 0 0 0
          0 0 0 0 0 0
          0 0 0 0 0 0
          0 0 0 0 0 0
          0 0 0 0 0 0
          0 0 0 0 0 0
          0 0 0 0 0 0
          0 0 0 0 0 0
          0 0 0 0 0 0
          0 0 0 0 0 0
          0 0 0 0 0 0
          0 0 0 0 0 0
          0 0 0 0 0 0
          0 0 0 0 0 0
          0 0 0 0 0 0
          0 0 0 0 0 0
          0 0 0 0 0 0
          0 0 0 0 0 0
          0 0 0 0 0 0
          0 0 0 0 0 0
          0 0 0 0 0 0
          0 0 0 0 0 0
          0 0 0 0 0 0
          0 0 0 0 0 0
          0 0 0 0 0 0
          0 0 0 0 0 0
          0 0 0 0 0 0
          0 0 0 0 0 0
          0 0 0 0 0 0
          0 0 0 0 0 0
          0 0 0 0 0 0
          0 0 0 0 0 0
          0 0 0 0 0 0
          0 0 0 0 0 0
          0 0 0 0 0 0
          0 0 0 0 0 0
          0 0 0 0 0 0
          0 0 0 0 0 0
          0 0 0 0 0 0
          0 0 0 0 0 0
          0 0 0 0 0 0
          0 0 0 0 0 0
          0 0 0 0 0 0
          0 0 0 0 0 0
          0 0 0 0 0 0
          0 0 0 0 0 0
          0 0 0 0 0 0
          0 0 0 0 0 0
          0 0 0 0 0 0
          0 0 0 0 0 0
          0 0 0 0 0 0
          0 0 0 0 0 0
          0 0 0 0 0 0
          0 0 0 0 0 0
          0 0 0 0 0 0
          0 0 0 0 0 0
          0 0 0 0 0 0
          0 0 0 0 0 0
          0 0 0 0 0 0
          0 0 0 0 0 0
          0 0 0 0 0 0
          0 0 0 0 0 0
          0 0 0 0 0 0
          0 0 0 0 0 0
          0 0 0 0 0 0
          0 0 0 0 0 0
          0 0 0 0 0 0
          0 0 0 0 0 0
          0 0 0 0 0 0
          0 0 0 0 0 0
          0 0 0 0 0 0
          0 0 0 0 0 0
          0 0 0 0 0 0
          0 0 0 0 0 0
          0 0 0 0 0 0
          0 0 0 0 0 0
          0 0 0 0 0 0
          0 0 0 0 0 0
          0 0 0 0 0 0
          0 0 0 0 0 0
          0 0 0 0 0 0
          0 0 0 0 0 0
          0 0 0 0 0 0
          0 0 0 0 0 0
          0 0 0 0 0 0
          0 0 0 0 0 0
          0 0 0 0 0 0
          0 0 0 0 0 0
          0 0 0 0 0 0
          0 0 0 0 0 0
          0 0 0 0 0 0
          0 0 0 0 0 0
          0 0 0 0 0 0
          0 0 0 0 0 0
          0 0 0 0 0 0
          0 0 0 0 0 0
          0 0 0 0 0 0
          0 0 0 0 0 0
          0 0 0 0 0 0
          0 0 0 0 0 0
          0 0 0 0 0 0
          0 0 0 0 0 0
          0 0 0 0 0 0
          0 0 0 0 0 0
          0 0 0 0 0 0
          0 0 0 0 0 0
          0 0 0 0 0 0
          0 0 0 0 0 0
          0 0 0 0 0 0
          0 0 0 0 0 0
          0 0 0 0 0 0
        </DataArray>
        <DataArray type="Float64" Name="pe33" format="ascii" RangeMin="0" RangeMax="0">
          0 0 0 0 0 0
          0 0 0 0 0 0
          0 0 0 0 0 0
          0 0 0 0 0 0
          0 0 0 0 0 0
          0 0 0 0 0 0
          0 0 0 0 0 0
          0 0 0 0 0 0
          0 0 0 0 0 0
          0 0 0 0 0 0
          0 0 0 0 0 0
          0 0 0 0 0 0
          0 0 0 0 0 0
          0 0 0 0 0 0
          0 0 0 0 0 0
          0 0 0 0 0 0
          0 0 0 0 0 0
          0 0 0 0 0 0
          0 0 0 0 0 0
          0 0 0 0 0 0
          0 0 0 0 0 0
          0 0 0 0 0 0
          0 0 0 0 0 0
          0 0 0 0 0 0
          0 0 0 0 0 0
          0 0 0 0 0 0
          0 0 0 0 0 0
          0 0 0 0 0 0
          0 0 0 0 0 0
          0 0 0 0 0 0
          0 0 0 0 0 0
          0 0 0 0 0 0
          0 0 0 0 0 0
          0 0 0 0 0 0
          0 0 0 0 0 0
          0 0 0 0 0 0
          0 0 0 0 0 0
          0 0 0 0 0 0
          0 0 0 0 0 0
          0 0 0 0 0 0
          0 0 0 0 0 0
          0 0 0 0 0 0
          0 0 0 0 0 0
          0 0 0 0 0 0
          0 0 0 0 0 0
          0 0 0 0 0 0
          0 0 0 0 0 0
          0 0 0 0 0 0
          0 0 0 0 0 0
          0 0 0 0 0 0
          0 0 0 0 0 0
          0 0 0 0 0 0
          0 0 0 0 0 0
          0 0 0 0 0 0
          0 0 0 0 0 0
          0 0 0 0 0 0
          0 0 0 0 0 0
          0 0 0 0 0 0
          0 0 0 0 0 0
          0 0 0 0 0 0
          0 0 0 0 0 0
          0 0 0 0 0 0
          0 0 0 0 0 0
          0 0 0 0 0 0
          0 0 0 0 0 0
          0 0 0 0 0 0
          0 0 0 0 0 0
          0 0 0 0 0 0
          0 0 0 0 0 0
          0 0 0 0 0 0
          0 0 0 0 0 0
          0 0 0 0 0 0
          0 0 0 0 0 0
          0 0 0 0 0 0
          0 0 0 0 0 0
          0 0 0 0 0 0
          0 0 0 0 0 0
          0 0 0 0 0 0
          0 0 0 0 0 0
          0 0 0 0 0 0
          0 0 0 0 0 0
          0 0 0 0 0 0
          0 0 0 0 0 0
          0 0 0 0 0 0
          0 0 0 0 0 0
          0 0 0 0 0 0
          0 0 0 0 0 0
          0 0 0 0 0 0
          0 0 0 0 0 0
          0 0 0 0 0 0
          0 0 0 0 0 0
          0 0 0 0 0 0
          0 0 0 0 0 0
          0 0 0 0 0 0
          0 0 0 0 0 0
          0 0 0 0 0 0
          0 0 0 0 0 0
          0 0 0 0 0 0
          0 0 0 0 0 0
          0 0 0 0 0 0
          0 0 0 0 0 0
          0 0 0 0 0 0
          0 0 0 0 0 0
          0 0 0 0 0 0
          0 0 0 0 0 0
          0 0 0 0 0 0
          0 0 0 0 0 0
          0 0 0 0 0 0
          0 0 0 0 0 0
          0 0 0 0 0 0
          0 0 0 0 0 0
          0 0 0 0 0 0
          0 0 0 0 0 0
          0 0 0 0 0 0
          0 0 0 0 0 0
          0 0 0 0 0 0
          0 0 0 0 0 0
          0 0 0 0 0 0
          0 0 0 0 0 0
          0 0 0 0 0 0
          0 0 0 0 0 0
          0 0 0 0 0 0
          0 0 0 0 0 0
          0 0 0 0 0 0
          0 0 0 0 0 0
          0 0 0 0 0 0
        </DataArray>
        <DataArray type="Float64" Name="disp_x" format="ascii" RangeMin="0" RangeMax="4.6790188082639445e-7">
          2.1560473973699572e-8 0 2.1559916025340558e-8 0 2.155822067614983e-8 0
          2.1540331420273998e-8 0 2.153953899425528e-8 0 2.1537134677992603e-8 0
          2.1518292233874437e-8 0 2.1517129277500072e-8 0 2.1513604270636552e-8 0
          2.1495121182068366e-8 0 2.1493332192865064e-8 0 2.148793019984215e-8 0
          2.14734240633662e-8 0 2.1470556405094637e-8 0 2.1461864594296845e-8 0
          2.1461349735646104e-8 0 2.14563136282599e-8 0 2.144125707478953e-8 0
          2.1482870695295613e-8 0 2.147363864887193e-8 0 2.1445812489714314e-8 0
          2.1616254770465852e-8 0 2.159574471969666e-8 0 2.1534984180072103e-8 0
          2.210342267537544e-8 0 2.2056463203612375e-8 0 2.1907689092977586e-8 0
          2.4993337640954307e-8 0 2.4812673255236038e-8 0 2.426064920573219e-8 0
          4.312374258215903e-8 4.312264359690319e-8 4.311928308788738e-8 4.308455681476727e-8 4.3082997743675815e-8 4.307822974314697e-8
          4.304217605230945e-8 4.303988917015786e-8 4.303290529718486e-8 4.299858230962278e-8 4.299506878509092e-8 4.298438983301736e-8
          4.295985365364002e-8 4.29542100387954e-8 4.29370266056432e-8 4.294393198942937e-8 4.293407523316942e-8 4.290449270452131e-8
          4.3003254196934564e-8 4.2985066552012125e-8 4.293012112563148e-8 4.329968249767847e-8 4.3260205464793535e-8 4.3142876007257793e-8
          4.438730358696725e-8 4.429609206184057e-8 4.400874360091993e-8 5.01103536772557e-8 4.9783224761725296e-8 4.879985022457552e-8
          6.469254194740035e-8 6.469094751882348e-8 6.468599481471104e-8 6.463646729595275e-8 6.463420240168277e-8 6.462718883408095e-8
          6.457708465791585e-8 6.457376045038884e-8 6.456349584889391e-8 6.451843083039954e-8 6.451332534806846e-8 6.449765655888665e-8
          6.447174873372777e-8 6.446354172252318e-8 6.443837861836485e-8 6.446792667650142e-8 6.445363304993461e-8 6.441045742843393e-8
          6.459547277830712e-8 6.456908741589343e-8 6.448917011285372e-8 6.511480651739758e-8 6.505863104744652e-8 6.489038261308432e-8
          6.698147089228212e-8 6.68528893708902e-8 6.645537961974201e-8 7.542265616241715e-8 7.500368539501578e-8 7.373952675039297e-8
          8.626949333533953e-8 8.626747603349141e-8 8.62610932098301e-8 8.619967962517952e-8 8.619681037520203e-8 8.618777532335075e-8
          8.612814022911248e-8 8.612392133400909e-8 8.611070757566392e-8 8.606218420328097e-8 8.605570683704332e-8 8.603556331170343e-8
          8.602045018120392e-8 8.601000581588063e-8 8.597771678572364e-8 8.605171621121604e-8 8.603361174275752e-8 8.59784103613344e-8
          8.628743065822354e-8 8.625389942817728e-8 8.615195601461537e-8 8.712183829553075e-8 8.705219883874962e-8 8.684272289536465e-8
          8.99115581262791e-8 8.975480750503453e-8 8.927525132663598e-8 1.0111933488268519e-7 1.0066560926191375e-7 9.931193816503766e-8
          1.0785707613076981e-7 1.0785473350037805e-7 1.0784720524740424e-7 1.0777756904326352e-7 1.0777423069527104e-7 1.0776356726591532e-7
          1.0770006766733263e-7 1.076951438810826e-7 1.076795413779356e-7 1.0763657097937041e-7 1.0762900357815507e-7 1.0760521677601369e-7
          1.07616059301043e-7 1.0760381438966155e-7 1.0756573509670227e-7 1.0770975201187784e-7 1.0768859840512101e-7 1.0762354246234731e-7
          1.0810505087298094e-7 1.0806582063089341e-7 1.0794641241549725e-7 1.093418091125554e-7 1.0926223622857572e-7 1.0902104663955456e-7
          1.1322904036392665e-7 1.1305525733869847e-7 1.125314159934583e-7 1.2692106700181906e-7 1.2647414403171616e-7 1.2515678541595403e-7
          1.2945764863425378e-7 1.2945504459847538e-7 1.2944679296771123e-7 1.2937330025973713e-7 1.2936958316703484e-7 1.2935786737049457e-7
          1.2929717298516212e-7 1.292916757009182e-7 1.2927448353912604e-7 1.2924760759239033e-7 1.2923915282031957e-7 1.2921289214103592e-7
          1.2926678323080562e-7 1.2925308905304425e-7 1.2921097610861622e-7 1.2945431413148163e-7 1.2943077368012372e-7 1.2935884653164275e-7
          1.300619099152926e-7 1.3001848346845075e-7 1.2988672737760972e-7 1.317919094444375e-7 1.3170617839745278e-7 1.3144549468769519e-7
          1.3687275773067e-7 1.3669206492730339e-7 1.3615331741612953e-7 1.526470608268153e-7 1.522409690891128e-7 1.510398383680628e-7
          1.510735898537486e-7 1.510705843986883e-7 1.5106199683526103e-7 1.50989989958277e-7 1.5098571459797e-7 1.5097347500389719e-7
          1.5092358387353942e-7 1.5091728802482075e-7 1.5089923705087557e-7 1.509007080239245e-7 1.5089109527106936e-7 1.5086342844493707e-7
          1.5097973995921065e-7 1.509643282553173e-7 1.5091984063265728e-7 1.5129368014114595e-7 1.512676722167549e-7 1.5119171702935165e-7
          1.5216621037852688e-7 1.5211936399440316e-7 1.5198073502935558e-7 1.544642396855787e-7 1.5437580767136625e-7 1.5410775285857247e-7
          1.607445577362562e-7 1.605677359749677e-7 1.6003759815780286e-7 1.7816663557021115e-7 1.7781991791066233e-7 1.7677036995227693e-7
          1.7270778643590865e-7 1.7270341863173037e-7 1.726941212828699e-7 1.7263134993408935e-7 1.726252580513811e-7 1.7261201427244104e-7
          1.7258404579101062e-7 1.7257531126093158e-7 1.7255579207631562e-7 1.7260184712817345e-7 1.725889197716252e-7 1.7255911505060884e-7
          1.727620738113959e-7 1.727421902776208e-7 1.7269462291294998e-7 1.7323481545773562e-7 1.732031579849543e-7 1.7312304099452798e-7
          1.7442042077607153e-7 1.7436755212984468e-7 1.7422479284180188e-7 1.7733431593981966e-7 1.7724496779112825e-7 1.7697962747735377e-7
          1.8473488135628904e-7 1.8457601548442389e-7 1.8407967101674234e-7 2.0333588088178984e-7 2.030740471863343e-7 2.0218860149791055e-7
          1.942809597119315e-7 1.9427185444701156e-7 1.9424415246004598e-7 1.943535540214629e-7 1.9434017211230076e-7 1.9429933968710555e-7
          1.946156044882304e-7 1.9459523271941314e-7 1.945331155805864e-7 1.9527701018498204e-7 1.952450522697756e-7 1.9514719287161332e-7
          1.9681347262727874e-7 1.967613034757425e-7 1.9660278644593788e-7 2.0036776451030022e-7 2.0028219593315615e-7 2.0002352373234655e-7
          2.0874461797580154e-7 2.0859989738693182e-7 2.0818338387387e-7 2.2808513135183887e-7 2.2786996911935923e-7 2.2723197776874312e-7
          2.8577755770565064e-7 2.672761255573335e-7 2.7358272926441795e-7 2.923257498432038e-7 2.8571423206978284e-7 2.67035894478835e-7
          2.7345345358421237e-7 2.9237657297270096e-7 2.8588177825224594e-7 2.66537237895636e-7 2.732691220777293e-7 2.928395797803082e-7
          3.0383642038866995e-7 3.0865301758929346e-7 3.039417578483258e-7 3.0883341621035973e-7 3.047380342922463e-7 3.0984674080236643e-7
          2.9940225191811866e-7 3.140457944861429e-7 3.128201505707368e-7 2.994158308896828e-7 3.1416649640238444e-7 3.1292761266252403e-7
          2.9994249934370674e-7 3.151707277013248e-7 3.1378248878551715e-7 3.713970695241282e-8 5.823477600073352e-8 4.3007034110824024e-8
          3.006061752786857e-8 3.671432531748858e-8 5.7569060113541455e-8 4.2451352458257325e-8 2.9676277247483575e-8 3.5234364792643215e-8
          5.515539134468689e-8 4.034574141482291e-8 2.8275601969276332e-8 1.6791714514586292e-7 1.8765686545097713e-7 2.1177869276820814e-7
          1.94976147503469e-7 1.668214645411369e-7 1.866933890785235e-7 2.1091125069089583e-7 1.941003369589287e-7 1.619543565815195e-7
          1.8317718883864416e-7 2.073624714150913e-7 1.893955879278567e-7 9.320277482821666e-8 9.866420058203685e-8 7.693313795768896e-8
          7.221023087037156e-8 9.260377137686804e-8 9.792050124320219e-8 7.625259546671062e-8 7.1662912811631e-8 9.067253492234433e-8
          9.542578523398132e-8 7.394858119550435e-8 6.98821623844107e-8 1.6944710429536124e-7 1.6153076931589443e-7 1.9048642615793523e-7
          1.9604142053007816e-7 1.6878411428139957e-7 1.6095447818964688e-7 1.9003214433312857e-7 1.9550551286620067e-7 1.6674066675304792e-7
          1.5917395075291652e-7 1.8864018801696553e-7 1.9381362136319425e-7 2.141582180576021e-7 1.9111525576682089e-7 2.1388114330466848e-7
          1.907514303588241e-7 2.12991419522061e-7 1.8961608009639203e-7 6.151284324592128e-8 8.076170004604741e-8 6.091463698134167e-8
          7.995597839046881e-8 5.886215500188355e-8 7.712513859418988e-8 2.882770145455396e-7 3.027017061154206e-7 3.0544882499869726e-7
          2.854690139850863e-7 2.8817642996278513e-7 3.0274412720455423e-7 3.055243448799119e-7 2.854213800304592e-7 2.881913598331911e-7
          3.0326248356593557e-7 3.062024975940009e-7 2.852773321526815e-7 1.1864314336546613e-8 2.6435914812399843e-8 1.746907151061358e-8
          0 1.174973820227941e-8 2.619061415861523e-8 1.7271774352316077e-8 0 1.1381141996382441e-8
          2.5378118439885602e-8 1.660275084894623e-8 0 6.901632603731178e-8 5.6575064800443755e-8 6.821585186084407e-8
          5.5853142596925866e-8 6.503015452272449e-8 5.2767444185421376e-8 2.78892705588144e-7 2.8797795574614837e-7 3.069576335729234e-7
          3.020677419269549e-7 2.7885791483830337e-7 2.8794029624089097e-7 3.070670020378018e-7 3.021847670891013e-7 2.787637427431385e-7
          2.878935637816302e-7 3.07500151981076e-7 3.028625790687443e-7 1.0246355437640047e-7 5.21719448760157e-8 4.898491641801584e-8
          8.043159889801072e-8 1.0189574935844154e-7 5.1828129288999235e-8 4.855489856893698e-8 7.965349217341806e-8 9.707924779752542e-8
          4.903363333306975e-8 4.553263189988325e-8 7.499300820129492e-8 3.2262733485363513e-7 3.1461833417540685e-7 3.131970125804368e-7
          3.221885295105249e-7 3.2272593914027683e-7 3.1470391912099115e-7 3.13288797108809e-7 3.222504332211354e-7 3.234234604374796e-7
          3.154125598801116e-7 3.140399635324476e-7 3.22987084173563e-7 1.4340253950117608e-7 1.4565615293559108e-7 1.4274495603950797e-7
          1.4491291386373458e-7 1.4068788659078725e-7 1.4254271173604134e-7 4.8809179515313925e-8 4.837195927663829e-8 4.69111303713872e-8
          2.7107033079848307e-7 2.5351647856716886e-7 2.707797120961216e-7 2.530818875318654e-7 2.7014179160957774e-7 2.518960492437272e-7
          2.3343687605516998e-7 2.191474267421344e-7 2.4491641106531725e-7 2.32750581961496e-7 2.184352547003043e-7 2.4446434584904353e-7
          2.304926982372841e-7 2.1616932969990323e-7 2.4319877889734217e-7 1.2977578325663088e-7 1.4260789161013446e-7 1.1851850918215819e-7
          9.533848374880655e-8 1.2871027353456475e-7 1.414732884404586e-7 1.17408281416102e-7 9.431860200952311e-8 1.2480595971754903e-7
          1.3685632766209753e-7 1.122386716809911e-7 9.048974049254776e-8 0 1.6326523686399744e-8 0
          0 1.6117588562584133e-8 0 0 1.5370471382242407e-8 0
          2.1727883443124737e-7 1.6968988544357767e-7 2.1695381605660337e-7 1.6924317213596328e-7 2.15950222514806e-7 1.6788361792178256e-7
          2.300843204868923e-7 2.279686629959366e-7 2.2945055151947604e-7 2.2748569184861628e-7 2.2625252756389677e-7 2.2375029000834353e-7
          1.894275383181446e-7 2.174816046101255e-7 1.8859841472670056e-7 2.1689143569082183e-7 1.8589140468511293e-7 2.1513483915078303e-7
          0 1.7286829939503315e-8 2.260775654399488e-8 0 0 1.703561036902106e-8
          2.2332339990967032e-8 0 0 1.5956743295652737e-8 2.0851636454101027e-8 0
          1.23144178863795e-7 1.2770163465547828e-7 1.0301459166365428e-7 1.2238051837311792e-7 1.267877863536816e-7 1.0211991844870529e-7
          1.1985654365062943e-7 1.2359724806053214e-7 9.901687882845811e-8 2.54211320451215e-7 2.5671052012705495e-7 2.5394643605671596e-7
          2.5642569577589396e-7 2.532199114151756e-7 2.556939803364285e-7 1.2000955653166654e-7 1.4470510097912481e-7 1.1940056638983155e-7
          1.4418090853120549e-7 1.1747179449818366e-7 1.4256767362054713e-7 1.6467352423375034e-7 1.5697954451860284e-7 1.638228823399527e-7
          1.5594992292453463e-7 1.6104051355313528e-7 1.5214602779730667e-7 1.936436165486631e-7 2.2633466453897278e-7 1.9298217994448262e-7
          2.259380926794354e-7 1.908972257927314e-7 2.2472922277812868e-7 3.2214550232134757e-7 3.1658407088375144e-7 3.22938416421318e-7
          3.2218264303513026e-7 3.167130490554795e-7 3.229760504695228e-7 3.231131215454342e-7 3.1786079204143545e-7 3.2400789716808484e-7
          2.5254764299584895e-7 2.693540662932831e-7 2.2842142822637656e-7 2.5233243551417216e-7 2.6921117528910446e-7 2.2809327533887715e-7
          2.517453403571845e-7 2.6882496970051575e-7 2.2708187893949517e-7 1.3649831288565074e-8 1.133851681767448e-8 0
          1.346428232857432e-8 1.1171939450318245e-8 0 1.2764301788641071e-8 1.0526121419684612e-8 0
          0 0 0 3.2669592983513074e-7 3.2081130710560124e-7 3.220035973105836e-7
          3.2966762456973477e-7 3.267368277168507e-7 3.209615609244915e-7 3.221697766575535e-7 3.297122354745152e-7 3.2791971005666184e-7
          3.222833515572647e-7 3.234592566873247e-7 3.309367752070673e-7 2.6787533392782804e-8 3.3045204541645556e-8 2.6415592271452644e-8
          3.2591940755370435e-8 2.497064192992168e-8 3.065428858653697e-8 3.189205862370054e-7 3.2443228256988056e-7 3.190667194583615e-7
          3.2447192645639447e-7 3.2032415224422954e-7 3.255948329100325e-7 2.7149990175587563e-8 4.644976262467974e-8 2.690913330503029e-8
          4.588122204032612e-8 2.5188263133343078e-8 4.2968477614404104e-8 8.367251174530543e-8 1.1255473718309397e-7 8.273034182346725e-8
          1.1165324238774715e-7 7.837121612215285e-8 1.0622258413969955e-7 3.1337130039261836e-7 3.135671976431652e-7 3.1468017565474594e-7
          2.3859338584615766e-7 2.3835567643601999e-7 2.3770796936636385e-7 1.5266705277297538e-7 1.914231334975245e-7 1.516810384211114e-7
          1.9074366091313427e-7 1.4597957781452868e-7 1.8550480535932535e-7 2.0930192386698133e-7 2.088798812556506e-7 2.0755779196852637e-7
          2.53213306299092e-7 2.52737090554177e-7 2.508901849527533e-7 3.2195834997497844e-7 3.2200256384142197e-7 3.228263493465212e-7
          2.5458489922260775e-7 2.543788907426124e-7 2.53716858119701e-7 3.236754196573762e-7 3.239552663575724e-7 3.2491057379510705e-7
          2.5960320224827726e-7 2.5928199647732225e-7 2.576006525657751e-7 1.4949328728500865e-7 1.4879313337446618e-7 1.4296545563909683e-7
          0 0 0 0 0 0
          3.3335569557880426e-7 3.33509592547006e-7 3.3460584552358613e-7 3.2278928374942155e-7 3.228845832539654e-7 3.2362331891629886e-7
          2.8182931340665117e-7 2.8181346104507927e-7 2.8176283386805706e-7 3.6994194202870356e-7 3.699273212552031e-7 3.698856439662669e-7
          2.826406818447765e-7 2.8261815216116305e-7 2.825464343541729e-7 3.7140318131862833e-7 3.713838960060495e-7 3.713291446989083e-7
          2.8420693278069827e-7 2.8417479643860405e-7 2.840727262816906e-7 2.8720348578799445e-7 2.8715793900038617e-7 2.8701513512755693e-7
          2.92925776981353e-7 2.9286459040295297e-7 2.926759968899424e-7 3.03623305238407e-7 3.0354532411516685e-7 3.033239755245292e-7
          3.2236244890490295e-7 3.2229864073356644e-7 3.220998153240701e-7 2.774937041628079e-7 2.933812988398363e-7 2.77361207131568e-7
          2.933041094664066e-7 2.769808096632157e-7 2.930427302513388e-7 3.4794765851463617e-7 3.6243862598187275e-7 3.2504851559797956e-7
          3.0876515811104686e-7 3.479884439698613e-7 3.625691232216281e-7 3.251668006968079e-7 3.087376148847579e-7 3.4808393241701306e-7
          3.629666879744498e-7 3.255433676833899e-7 3.0872929462730955e-7 3.4069250145520094e-7 3.4092397573826775e-7 3.416989155585601e-7
          3.3717347247050297e-7 3.371494951169209e-7 3.3707351689645206e-7 3.8214220174753627e-7 3.823343079697653e-7 3.829838410224809e-7
          4.6049841565219366e-7 4.5845968478224626e-7 4.6048406974806445e-7 4.58447929822048e-7 4.6044003641923926e-7 4.5841189879603954e-7
          3.73881082151075e-7 3.738560378569674e-7 3.7378538138363947e-7 4.6363954759408613e-7 4.6362271457510717e-7 4.6357083029042235e-7
          3.780434927495369e-7 3.780123472235801e-7 3.779246909401682e-7 3.8489823749981945e-7 3.848624358618152e-7 3.847614290549464e-7
          3.9568900952783565e-7 3.956577980018654e-7 3.955612549089359e-7 4.1083967130366143e-7 4.108282989803468e-7 4.107961368313523e-7
          3.987341722942688e-7 3.9876220523909285e-7 3.9884895142827157e-7 4.459249012509772e-7 4.074249960976096e-7 4.6759547439946235e-7
          4.4604280638760646e-7 4.075228666632181e-7 4.676755070575046e-7 4.4643703559407446e-7 4.078182318594271e-7 4.6790188082639445e-7
        </DataArray>
        <DataArray type="Float64" Name="disp_y" format="ascii" RangeMin="-7.624026793511788e-7" RangeMax="-4.661239761312935e-7">
          -4.661882090192988e-7 -4.661563321387327e-7 -4.661801457002876e-7 -4.6614824160682e-7 -4.661559563388257e-7 -4.661239761312935e-7
          -4.879423679981173e-7 -4.879010699337596e-7 -4.879317817666928e-7 -4.878904381143911e-7 -4.879000213978557e-7 -4.878585518800536e-7
          -5.092401963268965e-7 -5.091854738934453e-7 -5.092259715814776e-7 -5.091711786339989e-7 -5.091832729888656e-7 -5.091282831577798e-7
          -5.29945118046003e-7 -5.298705659113287e-7 -5.2992542832371e-7 -5.298507640734181e-7 -5.298663350349908e-7 -5.297913338758356e-7
          -5.498602429064148e-7 -5.497550813621221e-7 -5.498320194289506e-7 -5.497266313316023e-7 -5.497471339673096e-7 -5.496411447364237e-7
          -5.686931004059251e-7 -5.685381811831113e-7 -5.686500789571622e-7 -5.684948422394774e-7 -5.685217303774546e-7 -5.683653235382227e-7
          -5.859917977456892e-7 -5.857504135403586e-7 -5.859247047627498e-7 -5.856821494839433e-7 -5.857188135525966e-7 -5.854736500728044e-7
          -6.010475066357042e-7 -6.006449309547133e-7 -6.009312197277447e-7 -6.005272964901726e-7 -6.005851931396861e-7 -6.001747462515912e-7
          -6.127688292777477e-7 -6.11991698060209e-7 -6.125182767229919e-7 -6.1173421800147e-7 -6.117657264756387e-7 -6.10961155520036e-7
          -6.203855910713956e-7 -6.187013796288714e-7 -6.198394396003998e-7 -6.181164928237916e-7 -6.18129682949493e-7 -6.163015458645176e-7
          -4.662835462443401e-7 -4.6627555832643485e-7 -4.6625159401047726e-7 -4.880657908960916e-7 -4.880553255849417e-7 -4.88023915047889e-7
          -5.09403609406179e-7 -5.093895742425006e-7 -5.09347443381476e-7 -5.301675257710175e-7 -5.301481607131175e-7 -5.300900353161871e-7
          -5.501735548552527e-7 -5.501459291136345e-7 -5.500628141797936e-7 -5.691538876045918e-7 -5.691119458557647e-7 -5.689869746121361e-7
          -5.867070644524366e-7 -5.866428850461145e-7 -5.864448149366095e-7 -6.02239805857527e-7 -6.021285326927499e-7 -6.01801088470372e-7
          -6.15027594959135e-7 -6.147969362666329e-7 -6.141043594533479e-7 -6.251701708187298e-7 -6.247147253723991e-7 -6.232868248708606e-7
          -4.6644147526084045e-7 -4.6643360997598306e-7 -4.664100198435302e-7 -4.882700371086959e-7 -4.882597600254117e-7 -4.882289224495614e-7
          -5.096736343894182e-7 -5.096599059824864e-7 -5.096186998769276e-7 -5.305343142229063e-7 -5.305154682035416e-7 -5.304589255661455e-7
          -5.50688794270802e-7 -5.506621362594547e-7 -5.505818769751912e-7 -5.699089073610796e-7 -5.698687217182059e-7 -5.697493464950599e-7
          -5.878719864993973e-7 -5.878124123773343e-7 -5.876265790782452e-7 -6.041673927338671e-7 -6.040641269704394e-7 -6.037670436373179e-7
          -6.186007738025899e-7 -6.184015282826827e-7 -6.177980176345621e-7 -6.321880143384683e-7 -6.318579555918867e-7 -6.308156170023903e-7
          -4.666605508234357e-7 -4.666528495026651e-7 -4.666297676196697e-7 -4.885528844885907e-7 -4.885428612285417e-7 -4.885128058781833e-7
          -5.100467623833537e-7 -5.10033447332054e-7 -5.09993500203157e-7 -5.310396579935133e-7 -5.310215086459983e-7 -5.309671156049411e-7
          -5.513957751048521e-7 -5.51370412778625e-7 -5.512940055940068e-7 -5.709390889341464e-7 -5.709013270921756e-7 -5.707895298300171e-7
          -5.894474402466375e-7 -5.893936514448902e-7 -5.892240517149484e-7 -6.067503007072745e-7 -6.066584648707116e-7 -6.064005112774523e-7
          -6.231636493997093e-7 -6.230015348952744e-7 -6.225060765201331e-7 -6.408388842660286e-7 -6.406448089687085e-7 -6.400235266303844e-7
          -4.6693879548149196e-7 -4.6693129412981574e-7 -4.669088384170532e-7 -4.889113360945456e-7 -4.889016223558461e-7 -4.888725281813753e-7
          -5.105182682021303e-7 -5.105054538339043e-7 -5.104670565318448e-7 -5.316757277732156e-7 -5.316584354518219e-7 -5.316066668341989e-7
          -5.522809492424841e-7 -5.522571349419045e-7 -5.521854628829461e-7 -5.722183473318493e-7 -5.721836213340311e-7 -5.720809680877241e-7
          -5.913865656882463e-7 -5.913394819291606e-7 -5.911897732010194e-7 -6.098557213496911e-7 -6.097773064948051e-7 -6.095626146581145e-7
          -6.284821753792205e-7 -6.283627299100485e-7 -6.279911119120928e-7 -6.498438517185648e-7 -6.497681967595738e-7 -6.494962335836062e-7
          -4.672737307690428e-7 -4.6726645676976923e-7 -4.6724471457455727e-7 -4.893416500417228e-7 -4.893322891185587e-7 -4.893042938338642e-7
          -5.110822737549935e-7 -5.11070032119955e-7 -5.110334050179494e-7 -5.324329394376113e-7 -5.324166248486002e-7 -5.323678567918253e-7
          -5.533274651686495e-7 -5.53305406129024e-7 -5.532391118831361e-7 -5.737169389815188e-7 -5.736857402810146e-7 -5.735935807004416e-7
          -5.936254235680779e-7 -5.935854747812285e-7 -5.934577967629013e-7 -6.133668879496833e-7 -6.133039519242096e-7 -6.131361688297168e-7
          -6.341755614278948e-7 -6.340981827511677e-7 -6.33847651816173e-7 -6.586753944603591e-7 -6.586903965022089e-7 -6.586922776819844e-7
          -4.676624118147495e-7 -4.6765538802480355e-7 -4.6763440655456455e-7 -4.898394024328076e-7 -4.898304326990693e-7 -4.898036182414594e-7
          -5.117319171347777e-7 -5.11720308484419e-7 -5.11685588971424e-7 -5.333000759380916e-7 -5.332848374747631e-7 -5.332393005253547e-7
          -5.54516435379569e-7 -5.544962932296855e-7 -5.544358076391875e-7 -5.753998625746698e-7 -5.753725255721495e-7 -5.752916846855633e-7
          -5.960988633497633e-7 -5.960662147199012e-7 -5.95961913172814e-7 -6.171416885618301e-7 -6.170953387327008e-7 -6.169751702577874e-7
          -6.399588961107808e-7 -6.399195952659111e-7 -6.397826167559401e-7 -6.668849774598194e-7 -6.669637709939794e-7 -6.671541094101057e-7
          -4.681014673250272e-7 -4.6809470545375563e-7 -4.680745106125326e-7 -4.903995844759872e-7 -4.903910261609329e-7 -4.903654409069733e-7
          -5.124594750708783e-7 -5.12448528930131e-7 -5.124157972423177e-7 -5.342647792647449e-7 -5.342506632634269e-7 -5.342084920072485e-7
          -5.558269651001946e-7 -5.5580882731063e-7 -5.557543727473944e-7 -5.772305691280973e-7 -5.772072110613623e-7 -5.77138106225088e-7
          -5.987371020800274e-7 -5.987118062775999e-7 -5.986309963234352e-7 -6.210436787019312e-7 -6.210138558380668e-7 -6.209403222539343e-7
          -6.456111162020262e-7 -6.456068038574766e-7 -6.455710954072368e-7 -6.74254638064875e-7 -6.743694406552756e-7 -6.746808125818977e-7
          -5.13256402540854e-7 -5.132463860274959e-7 -5.132155286634777e-7 -5.353135166743208e-7 -5.353008998188613e-7 -5.352619304673671e-7
          -5.572369416659383e-7 -5.572212440940727e-7 -5.571726185413999e-7 -5.791710256422502e-7 -5.79152096273638e-7 -5.790943851708883e-7
          -6.014727136762137e-7 -6.01453937397664e-7 -6.013963105472876e-7 -6.249467059426e-7 -6.249315144458648e-7 -6.249028237037999e-7
          -6.509940226156566e-7 -6.510084077415833e-7 -6.510710502620329e-7 -6.80722914376911e-7 -6.808693191649917e-7 -6.812525599785375e-7
          -7.093952190102032e-7 -7.077139365150156e-7 -7.150395496982974e-7 -7.195699479700646e-7 -7.105962756840408e-7 -7.087995080868686e-7
          -7.15979534332098e-7 -7.205524203992304e-7 -7.144008107451012e-7 -7.123655447679177e-7 -7.189804789193328e-7 -7.236260370883837e-7
          -7.141092912515114e-7 -7.227021232792424e-7 -7.153116289531322e-7 -7.237341752428967e-7 -7.189269118416259e-7 -7.268381382301308e-7
          -7.034055803915282e-7 -7.149699071463786e-7 -7.062838334472127e-7 -7.047742653397143e-7 -7.16209128307085e-7 -7.076549888693616e-7
          -7.089007301986217e-7 -7.198382980138553e-7 -7.116437220702022e-7 -6.242151248333784e-7 -6.297632987268287e-7 -6.260443446535063e-7
          -6.23315268214166e-7 -6.235665907387589e-7 -6.292221619776882e-7 -6.253814515192105e-7 -6.225938601552077e-7 -6.210001279436992e-7
          -6.269692098118012e-7 -6.224906430285808e-7 -6.195915781243702e-7 -6.638968249814701e-7 -6.778981361314e-7 -6.771043222365256e-7
          -6.653154181831842e-7 -6.643277968468155e-7 -6.78620018745169e-7 -6.779564361856687e-7 -6.658735471034017e-7 -6.666666995132159e-7
          -6.81362488267396e-7 -6.819036760521155e-7 -6.693208121169102e-7 -6.40770659188009e-7 -6.441580564167367e-7 -6.357750574570086e-7
          -6.332400150613166e-7 -6.405348263709892e-7 -6.439634444696543e-7 -6.354097857886023e-7 -6.328586583573353e-7 -6.396647369286101e-7
          -6.431704532445959e-7 -6.339666457770956e-7 -6.314962848793493e-7 -6.749898742176094e-7 -6.695511629456811e-7 -6.809195284604592e-7
          -6.868165975899269e-7 -6.752810578614659e-7 -6.697125413063575e-7 -6.811759578953948e-7 -6.872379938525724e-7 -6.761381278275136e-7
          -6.702226192246351e-7 -6.819789201517417e-7 -6.885124720368851e-7 -6.834271176124975e-7 -6.758273066835791e-7 -6.836003447508281e-7
          -6.759648605982696e-7 -6.842110833065278e-7 -6.764785538828895e-7 -6.306390006785731e-7 -6.375829261139249e-7 -6.301545327823656e-7
          -6.372328065041828e-7 -6.282494198043448e-7 -6.357684947154513e-7 -6.917497523163623e-7 -6.918106419738899e-7 -6.767059119218017e-7
          -6.720562140764165e-7 -6.93124614832968e-7 -6.932668617636444e-7 -6.781392110969152e-7 -6.732088046040537e-7 -6.977229918635543e-7
          -6.977069043434408e-7 -6.826025603008683e-7 -6.780537770392248e-7 -6.198806715428363e-7 -6.215265714275204e-7 -6.208378580456803e-7
          -6.196892376144533e-7 -6.192717331589143e-7 -6.209257392435745e-7 -6.201378233420443e-7 -6.190097257028796e-7 -6.170664394196175e-7
          -6.187082753968132e-7 -6.174252257634488e-7 -6.16462461644374e-7 -6.333469449221203e-7 -6.29411244934787e-7 -6.328692602003801e-7
          -6.287938444956855e-7 -6.307264089654355e-7 -6.259790736775872e-7 -7.200647299185639e-7 -7.231147213730643e-7 -7.303209616667081e-7
          -7.277762689029554e-7 -7.208275739115092e-7 -7.2367936905743e-7 -7.309404959021987e-7 -7.285341993708285e-7 -7.23152418193908e-7
          -7.252808681335488e-7 -7.326597733820955e-7 -7.30896963078058e-7 -6.413112464715635e-7 -6.388270201202031e-7 -6.32612191656427e-7
          -6.35498063890308e-7 -6.404892301768255e-7 -6.376832045509258e-7 -6.31644613148612e-7 -6.348911516317117e-7 -6.37304298077574e-7
          -6.325098724567285e-7 -6.272609684016871e-7 -6.321968616388026e-7 -6.89558793975617e-7 -6.884221455522212e-7 -6.962234851660879e-7
          -6.998294892317453e-7 -6.910712307074888e-7 -6.899362378176739e-7 -6.977030898566637e-7 -7.012761420115909e-7 -6.953591798479783e-7
          -6.94250133880222e-7 -7.019404017082374e-7 -7.054274979162706e-7 -6.622752504321597e-7 -6.645727037349532e-7 -6.623573364929659e-7
          -6.647306230562161e-7 -6.625927326982132e-7 -6.651797510945519e-7 -6.262163478560861e-7 -6.256970208927331e-7 -6.237562568882076e-7
          -6.960841294974884e-7 -6.985369625643667e-7 -6.973366603949789e-7 -6.996772948347943e-7 -7.018167586325843e-7 -7.036859035264217e-7
          -6.886557954384589e-7 -6.909968199214937e-7 -7.025841924117131e-7 -6.897204730937475e-7 -6.919207014053774e-7 -7.035817995553583e-7
          -6.938445595407358e-7 -6.95197551305332e-7 -7.068562569241111e-7 -6.565074544953994e-7 -6.58666137991891e-7 -6.477001681572008e-7
          -6.424732685653658e-7 -6.566648881584308e-7 -6.589252223822403e-7 -6.476454035207926e-7 -6.422572980373336e-7 -6.570496317882281e-7
          -6.600465182548732e-7 -6.474770100715525e-7 -6.411982718726243e-7 -6.201903055628785e-7 -6.213989460461317e-7 -6.205303162078908e-7
          -6.194502385290434e-7 -6.206353897238643e-7 -6.197404155169073e-7 -6.165452270520245e-7 -6.1752925341016e-7 -6.164838231240006e-7
          -6.899931052901101e-7 -6.690362310917216e-7 -6.902784233424853e-7 -6.691322267871909e-7 -6.911675059838741e-7 -6.695124891377298e-7
          -6.733795141986353e-7 -6.585059827436298e-7 -6.742398891394713e-7 -6.589880593554345e-7 -6.787058170103544e-7 -6.629331512977721e-7
          -6.825846065704872e-7 -6.961595816435334e-7 -6.832222193022015e-7 -6.968937288972017e-7 -6.853678514301488e-7 -6.992530292720386e-7
          -6.251514664959621e-7 -6.241766056936692e-7 -6.27303428846177e-7 -6.294128364748201e-7 -6.241931950816028e-7 -6.232904374391256e-7
          -6.263337512300786e-7 -6.283506328306698e-7 -6.196977687494054e-7 -6.191506919108674e-7 -6.217705645751869e-7 -6.232676670624246e-7
          -6.546342540431496e-7 -6.568889836457758e-7 -6.461875491568722e-7 -6.546242391632386e-7 -6.56988849768881e-7 -6.460422597205141e-7
          -6.544871631126264e-7 -6.57131716688998e-7 -6.453246100618533e-7 -7.108580744517948e-7 -7.096110104566316e-7 -7.116423409357267e-7
          -7.105056645834787e-7 -7.140529202276176e-7 -7.13361975547007e-7 -6.513028146691795e-7 -6.600505865725831e-7 -6.512175875825902e-7
          -6.60070516529616e-7 -6.509293492314489e-7 -6.60179493336122e-7 -6.737714194327763e-7 -6.674708178851592e-7 -6.741565809293322e-7
          -6.678722590012241e-7 -6.753852151521675e-7 -6.693188792556284e-7 -6.86252834411745e-7 -6.998899241639891e-7 -6.867648682282051e-7
          -7.004317408980532e-7 -6.884389973659863e-7 -7.020971128700387e-7 -7.165215102307498e-7 -7.214543436337893e-7 -7.229879210206151e-7
          -7.177465279300832e-7 -7.225664455218112e-7 -7.240843638013108e-7 -7.213419555241148e-7 -7.258247657842257e-7 -7.27308903861077e-7
          -7.027847114562923e-7 -7.137899733990775e-7 -6.985158413067591e-7 -7.031112255887018e-7 -7.142173494765179e-7 -6.98939401857922e-7
          -7.041106285032111e-7 -7.15543461728005e-7 -7.002275696211168e-7 -6.216470718261078e-7 -6.222527719306265e-7 -6.216187340117038e-7
          -6.208427651792611e-7 -6.214045878682632e-7 -6.20774220117042e-7 -6.17435581896446e-7 -6.176254099982686e-7 -6.171412032796013e-7
          -6.229058610572319e-7 -6.22013641833613e-7 -6.179817484326837e-7 -7.329407860276258e-7 -7.305776638754763e-7 -7.341098060643014e-7
          -7.36785506055607e-7 -7.337678123459133e-7 -7.314535226358709e-7 -7.348533822339827e-7 -7.374901215424333e-7 -7.361375351111004e-7
          -7.339789142710778e-7 -7.369903519335552e-7 -7.393619087088756e-7 -6.233618585187037e-7 -6.253432077701857e-7 -6.225825542355206e-7
          -6.24552111191172e-7 -6.191564130101423e-7 -6.208898033934092e-7 -7.266316184025438e-7 -7.283726771918103e-7 -7.276183489703097e-7
          -7.293368331496107e-7 -7.305019202416729e-7 -7.321442330782254e-7 -6.308636177782939e-7 -6.288010465910064e-7 -6.298129357498135e-7
          -6.279933953826783e-7 -6.249597860016424e-7 -6.242834172009234e-7 -6.367880314656265e-7 -6.426463318957823e-7 -6.363786125613755e-7
          -6.422835607435248e-7 -6.3445918254578e-7 -6.41289030506052e-7 -7.290098312728728e-7 -7.298613173932984e-7 -7.324036158176027e-7
          -6.915861962957836e-7 -6.91801879470734e-7 -6.924753235775745e-7 -6.530632271996809e-7 -6.514926302196422e-7 -6.531438401048465e-7
          -6.515078257733465e-7 -6.545162467457984e-7 -6.536720689265e-7 -6.904662778461152e-7 -6.90847379517018e-7 -6.920002828206477e-7
          -6.817251346395629e-7 -6.828274977817903e-7 -6.877858448558961e-7 -7.088482271302173e-7 -7.101896954840728e-7 -7.141028441650174e-7
          -7.111836989516265e-7 -7.117886837830984e-7 -7.136242890773831e-7 -7.359980474125092e-7 -7.366496796122262e-7 -7.383211288190366e-7
          -6.654489317692827e-7 -6.662546854858718e-7 -6.709732104768008e-7 -6.446735743716049e-7 -6.442141103443972e-7 -6.43838358652111e-7
          -6.360701831541681e-7 -6.347914414353602e-7 -6.289013321100139e-7 -6.193157509734692e-7 -6.187131960035866e-7 -6.165237700608991e-7
          -7.403665124048884e-7 -7.409544647484417e-7 -7.423605602179702e-7 -6.783973410244353e-7 -6.799254910845129e-7 -6.842190966971181e-7
          -5.401183656395067e-7 -5.401118084014396e-7 -5.400926977073212e-7 -5.452060539994117e-7 -5.452046772652163e-7 -5.452005039414704e-7
          -5.634997711021282e-7 -5.63493515126728e-7 -5.634756776760089e-7 -5.697686260327304e-7 -5.69769503266298e-7 -5.697721328355549e-7
          -5.874097810328437e-7 -5.87406191970245e-7 -5.873960577225345e-7 -6.123068403471543e-7 -6.123095160553167e-7 -6.12320585666379e-7
          -6.388355359564262e-7 -6.388554940306252e-7 -6.389100840130119e-7 -6.675483174550742e-7 -6.676099383109907e-7 -6.677854650962059e-7
          -6.97983388664591e-7 -6.98109632607671e-7 -6.985041195282038e-7 -7.019669810435372e-7 -7.11702535706144e-7 -7.021870006450257e-7
          -7.119653294948732e-7 -7.028625871007886e-7 -7.127833116923839e-7 -7.29265450633625e-7 -7.402299747773466e-7 -7.353148045640622e-7
          -7.237795802803712e-7 -7.295021501559996e-7 -7.404810107102645e-7 -7.356907128137857e-7 -7.241355664519236e-7 -7.302085695956102e-7
          -7.412279319572952e-7 -7.369671313048983e-7 -7.251703294921886e-7 -7.41854901211896e-7 -7.422787541300729e-7 -7.434540736512944e-7
          -7.16457787158787e-7 -7.166603488482078e-7 -7.17217060486137e-7 -7.577484858046313e-7 -7.579858714618822e-7 -7.585846621251549e-7
          -5.752564165803985e-7 -5.499436806906861e-7 -5.752613635152862e-7 -5.499457133237098e-7 -5.752762496768874e-7 -5.499519118237689e-7
          -5.950498944756009e-7 -5.950554588023285e-7 -5.95071780976502e-7 -6.012213716230748e-7 -6.0123111134674e-7 -6.012602129461928e-7
          -6.213478749749718e-7 -6.213611326909782e-7 -6.214023467054018e-7 -6.488762936646495e-7 -6.489049083882421e-7 -6.489868725082124e-7
          -6.774133594964545e-7 -6.774695005990664e-7 -6.776372580585163e-7 -7.057837604308198e-7 -7.058692297133167e-7 -7.061348423852765e-7
          -7.269282737161786e-7 -7.270624294169174e-7 -7.274389124551552e-7 -7.619660415263623e-7 -7.436997880053878e-7 -7.475277480393025e-7
          -7.620672640444304e-7 -7.438594097349228e-7 -7.476145587582233e-7 -7.624026793511788e-7 -7.443531750683682e-7 -7.478923773441781e-7
        </DataArray>
        <DataArray type="Float64" Name="disp_z" format="ascii" RangeMin="-4.773088012036091e-8" RangeMax="1.0293948836452285e-9">
          0 0 -9.063549583507029e-9 -9.063974896912255e-9 -1.812711546152553e-8 -1.8127964115126952e-8
          0 0 -9.114592887791193e-9 -9.115188423577427e-9 -1.8229221749918517e-8 -1.823040808788011e-8
          0 0 -9.182424771382301e-9 -9.183300150592871e-9 -1.836490276691464e-8 -1.8366647721413066e-8
          0 0 -9.274998046486531e-9 -9.276342944097561e-9 -1.8550071327056428e-8 -1.855273968677021e-8
          0 0 -9.405590634999565e-9 -9.407738223210926e-9 -1.881131509602698e-8 -1.8815640550647575e-8
          0 0 -9.597916777161357e-9 -9.601702061376982e-9 -1.9196381467499498e-8 -1.9203734128007095e-8
          0 0 -9.899739621804123e-9 -9.906294998080419e-9 -1.9797878530977264e-8 -1.9811976325711556e-8
          0 0 -1.0400806808899548e-8 -1.0416996330238557e-8 -2.080423206669331e-8 -2.083236353688375e-8
          0 0 -1.1314061219964083e-8 -1.1347058592460627e-8 -2.265288305265894e-8 -2.2736008620469473e-8
          0 0 -1.363849957964594e-8 -1.380181897699738e-8 -2.7134726198570354e-8 -2.740076601419769e-8
          0 -9.062274543054346e-9 -1.8124590980933904e-8 0 -9.112789104015478e-9 -1.8225646872348708e-8
          0 -9.179786364264927e-9 -1.8359667405592707e-8 0 -9.270970791483323e-9 -1.854206896978623e-8
          0 -9.399123832899819e-9 -1.879844210638924e-8 0 -9.586800254618838e-9 -1.9174270845206913e-8
          0 -9.879556928021098e-9 -1.975695210629701e-8 0 -1.0355750092633703e-8 -2.071703281336652e-8
          0 -1.1207477724759383e-8 -2.2427603782449388e-8 0 -1.3225888986112986e-8 -2.6340886409522822e-8
          0 -9.060150604174858e-9 -1.8120398779173605e-8 0 -9.109790218885315e-9 -1.821971967238212e-8
          0 -9.175409374074294e-9 -1.835100410199199e-8 0 -9.264312671513483e-9 -1.8528871150581225e-8
          0 -9.388460492279247e-9 -1.8777247938260906e-8 0 -9.568631729133235e-9 -1.9138150966420333e-8
          0 -9.846282656153047e-9 -1.9689827588670757e-8 0 -1.0284308654010811e-8 -2.057782292157944e-8
          0 -1.103670774317427e-8 -2.206753458193079e-8 0 -1.2646203660963405e-8 -2.525517687727008e-8
          0 -9.057205576800526e-9 -1.8114598154173732e-8 0 -9.10563893668823e-9 -1.821153437434423e-8
          0 -9.169367103902887e-9 -1.833906348048448e-8 0 -9.255148558251846e-9 -1.8510750405299848e-8
          0 -9.373853671562169e-9 -1.8748204291637254e-8 0 -9.543893434549544e-9 -1.908913811316487e-8
          0 -9.801014873708616e-9 -1.959855015038232e-8 0 -1.0189912213379781e-8 -2.0392597150435847e-8
          0 -1.081852421505009e-8 -2.1618569685265653e-8 0 -1.1981195080372069e-8 -2.3946572210330608e-8
          0 -9.053523803985048e-9 -1.810733327114393e-8 0 -9.100456995756562e-9 -1.8201292077489693e-8
          0 -9.161839329217412e-9 -1.8324166021877312e-8 0 -9.243764538466434e-9 -1.8488163713160074e-8
          0 -9.355777505353347e-9 -1.8712318866393994e-8 0 -9.513440056924714e-9 -1.9028345725701163e-8
          0 -9.74543658003674e-9 -1.9487698792679242e-8 0 -1.0077109108447706e-8 -2.016839902803911e-8
          0 -1.0571415453899113e-8 -2.111220354507289e-8 0 -1.1306827317294061e-8 -2.2649719369867247e-8
          0 -9.049345117279717e-9 -1.8098933802813513e-8 0 -9.094569824266834e-9 -1.8189452674551777e-8
          0 -9.153280595365712e-9 -1.83069497057337e-8 0 -9.230813395230736e-9 -1.8462117412594554e-8
          0 -9.335220327247316e-9 -1.8670972233216046e-8 0 -9.478799383948678e-9 -1.8958671194767357e-8
          0 -9.682122050819301e-9 -1.9360992428473702e-8 0 -9.951706132572885e-9 -1.991738599248281e-8
          0 -1.0309931189707215e-8 -2.058602240776602e-8 0 -1.0682368931886272e-8 -2.1427129727693796e-8
          0 -9.045218778367165e-9 -1.80901263029157e-8 0 -9.08871034848053e-9 -1.8176993184018502e-8
          0 -9.144678169965218e-9 -1.8288757998095756e-8 0 -9.217664156237962e-9 -1.8434481166389355e-8
          0 -9.314100102414519e-9 -1.862694828190882e-8 0 -9.442750319051535e-9 -1.888418682553595e-8
          0 -9.615020463012273e-9 -1.9225079852779113e-8 0 -9.82036921267476e-9 -1.9652406840713757e-8
          0 -1.0043904647897092e-8 -2.0061129517202025e-8 0 -1.012446774575901e-8 -2.0330370007057875e-8
          0 -9.042473107074624e-9 -1.8081865001391843e-8 0 -9.084625821236631e-9 -1.8165192368742472e-8
          0 -9.138338812981431e-9 -1.8271300150329715e-8 0 -9.207438427099772e-9 -1.840763227204557e-8
          0 -9.296650562548283e-9 -1.858359063145918e-8 0 -9.410955174988238e-9 -1.8809828530323906e-8
          0 -9.551565102671918e-9 -1.9087644701990517e-8 0 -9.690892135654382e-9 -1.9386046015783923e-8
          0 -9.7751075065009e-9 -1.9549804541711557e-8 0 -9.609218416678805e-9 -1.93607822883109e-8
          0 -9.13157906652794e-9 -1.8266572658562862e-8 0 -9.196510689346813e-9 -1.8397732132448548e-8
          0 -9.278075357157045e-9 -1.8562564645190236e-8 0 -9.377550821377375e-9 -1.876371443395249e-8
          0 -9.486828266238346e-9 -1.898253649540933e-8 0 -9.564885759836581e-9 -1.91421251876833e-8
          0 -9.525174815259157e-9 -1.9026799839458528e-8 0 -9.167573031398738e-9 -1.8316032744224165e-8
          0 0 0 0 -3.6826089547377812e-9 -5.211029692810996e-9
          -5.38515512474279e-9 -4.122858890981664e-9 -7.413019776673318e-9 -1.0555526184035991e-8 -1.08328852096252e-8 -8.299429482395836e-9
          0 0 -2.4094044072533546e-9 -2.8136803680526356e-9 -4.891520862707711e-9 -5.6229329782603546e-9
          0 0 0 -2.162554601465838e-9 -1.4611060376327783e-9 -1.0748334275036184e-9
          -4.320880152812229e-9 -2.891194766543815e-9 -2.151356298529466e-9 0 0 0
          0 -1.5720789108604594e-8 -1.582358677343502e-8 -1.7127642645258722e-8 -1.67160044594066e-8 -3.11977043130443e-8
          -3.1334535528070915e-8 -3.3881908083451475e-8 -3.309780196808092e-8 0 0 0
          0 -1.2290693786574009e-8 -1.0135253104082767e-8 -8.974429291980364e-9 -1.0976783421345029e-8 -2.449339683154518e-8
          -2.0202071485739263e-8 -1.7783603019208432e-8 -2.1551539541888427e-8 0 0 0
          0 -1.283698044306236e-8 -1.3278058783211632e-8 -1.4134109273548774e-8 -1.354557764461659e-8 -2.56350272182542e-8
          -2.6416727629097574e-8 -2.8132381248885288e-8 -2.6957207345768085e-8 0 0 0
          0 -1.0426568646321356e-8 -1.060432505973216e-8 -9.711691950997631e-9 -9.452713620151592e-9 -2.085219469558719e-8
          -2.1159879483273523e-8 -1.9388719471472907e-8 -1.8923575622590073e-8 0 0 -9.293653371475845e-9
          -9.798782418909844e-9 -1.8532673538679863e-8 -1.956884048979372e-8 0 0 -1.4740210223214613e-8
          -1.4843357883892425e-8 -2.930562836821311e-8 -2.940289294480026e-8 0 0 0
          0 -2.8557532313100695e-9 -1.5703427358606552e-9 -1.1097648483852673e-9 -3.177400707533119e-9 -5.196880034923748e-9
          -2.929944452976245e-9 -1.7452345783364373e-9 -5.647845093080902e-9 0 0 0
          0 -1.4474876422210455e-8 -1.457050994517958e-8 -1.564661074532384e-8 -1.511237863578352e-8 -2.8871888887306693e-8
          -2.9047533693453694e-8 -3.10732435116405e-8 -3.0088372101713064e-8 0 0 -1.6478275839950748e-8
          -1.7904176737088067e-8 -3.2605609545586473e-8 -3.548710460006152e-8 0 0 0
          0 -5.871858903380009e-9 -6.587573988017221e-9 -5.57936789951101e-9 -4.660111897753023e-9 -1.1914798529556028e-8
          -1.3038501242679568e-8 -1.1247618177649244e-8 -9.34115218443834e-9 0 0 0
          0 -2.0314647305483892e-8 -2.253414010727723e-8 -2.141136588734255e-8 -1.9479298387477976e-8 -4.1774598982338235e-8
          -4.6027638759093944e-8 -4.290968094597293e-8 -3.892924775439045e-8 0 0 0
          0 4.263360165623306e-10 -3.7437828274145733e-10 -6.770599893652971e-10 1.4961550271477333e-10 6.463139777940812e-10
          -6.848872048800006e-10 -1.3290832839027747e-9 1.5089989591299343e-10 0 0 -1.1293102166344663e-8
          -1.1405526452033339e-8 -2.2474249845666494e-8 -2.2666537480645503e-8 0 -1.4338343368186855e-8 -2.8586657486216416e-8
          0 0 -4.292707170031482e-9 -5.804172017142694e-9 -8.58266928065138e-9 -1.1718589105134201e-8
          0 0 0 -7.162051843580712e-9 -8.087928232867384e-9 -6.712700418596235e-9
          -1.431933230168032e-8 -1.6235116868552183e-8 -1.3441101298439278e-8 0 0 0
          0 -1.3407309017643188e-8 -1.3378189527139654e-8 -1.5866687717453108e-8 -1.5319442292075375e-8 -2.6627471331343158e-8
          -2.6707537696359568e-8 -3.148275185242762e-8 -3.0302065028950825e-8 0 0 0
          -1.59611974652918e-8 -1.6649562381800693e-8 -1.6944314415474518e-8 -3.164925802831688e-8 -3.2987782181599596e-8 -3.354760505098424e-8
          0 0 -9.038899129485541e-9 -1.0323247541482567e-8 -1.8096503095608788e-8 -2.0568426922815158e-8
          0 0 -8.018836536164669e-9 -9.460122454784079e-9 -1.5369955414341843e-8 -1.8741843065904192e-8
          0 0 -9.787553435142784e-9 -8.356872998435524e-9 -1.936864428375667e-8 -1.670843168249266e-8
          0 0 0 0 -2.062446833780155e-8 -1.9858241668697964e-8
          -2.1112523070262738e-8 -2.1993061333777558e-8 -4.079220420229951e-8 -3.938583034873753e-8 -4.2252611947868904e-8 -4.3934693488052676e-8
          0 0 0 -1.2290985724046874e-8 -1.2708152223700299e-8 -1.3784472462501975e-8
          -2.4449987926159572e-8 -2.5282028049562598e-8 -2.7471638121068295e-8 0 0 -6.838555685224065e-9
          -6.343342018775348e-9 -1.381030820561361e-8 -1.2826928181713214e-8 0 0 -1.1908997417437723e-8
          -1.10119877416168e-8 -2.3743721469986026e-8 -2.1977561644350148e-8 0 0 -1.0869643275440792e-8
          -1.1844437083474894e-8 -2.166995120469543e-8 -2.3667749791830324e-8 0 0 -9.50311761540501e-9
          -8.322860353504616e-9 -1.9143216835974592e-8 -1.665097783668148e-8 0 0 0
          -6.406780948417895e-10 -1.7884648824865654e-9 -1.1380940198010534e-9 -1.3603510711100726e-9 -3.561157330612694e-9 -2.3425993274661517e-9
          0 0 0 -8.296244101354848e-9 -7.524443039752886e-9 -8.508715903942928e-9
          -1.656491969790925e-8 -1.501921366948118e-8 -1.7020940347009422e-8 0 0 0
          -1.748802512655756e-8 -1.8588070247634784e-8 -1.8018304647868407e-8 -3.4585000480245276e-8 -3.6720322431556786e-8 -3.565999752551759e-8
          0 -1.926544627072879e-8 -3.800967415947618e-8 0 0 0
          0 -2.317401423214737e-9 -2.727416401068286e-9 -3.4381951688048053e-9 -2.9697699577057873e-9 -4.644469804477469e-9
          -5.344910437333582e-9 -6.792941707339615e-9 -5.869076461938214e-9 0 0 -1.7906810800003665e-8
          -1.9006250614482284e-8 -3.538042769727949e-8 -3.760722471971527e-8 0 0 -2.2072652449067786e-9
          -1.7034291659990682e-9 -4.3847635997974086e-9 -3.4520718835343547e-9 0 0 -2.1887195247686633e-8
          -1.9959106453777173e-8 -4.432167074018036e-8 -3.978071509523221e-8 0 0 -1.7520216845987775e-8
          -1.763115286757597e-8 -3.4592488761319175e-8 -3.553222358712473e-8 0 -3.4389844331611254e-9 -6.698138498270417e-9
          0 -8.851837834606433e-9 -1.7592461431508723e-8 0 0 -1.4574424002897511e-8
          -1.3327552099437158e-8 -2.8956186986748168e-8 -2.661151836673649e-8 0 -9.070373076151891e-9 -1.8182241024287542e-8
          0 -5.8470574908842284e-9 -1.1399723658772363e-8 0 -2.081369862030713e-10 -5.081302995335775e-10
          0 -7.3303707137483274e-9 -1.4691784047727227e-8 0 -4.4660487172371435e-9 -9.169792440960499e-9
          0 -5.920673098976579e-9 -1.1255994928831496e-8 0 -1.7158843366595692e-8 -3.469176780095916e-8
          0 -2.3368351718869402e-8 -4.773088012036091e-8 0 -1.4370384875718978e-8 -2.8699751428966345e-8
          0 -3.5453406371128374e-9 -7.567189631432344e-9 0 6.016877754812871e-10 1.0293948836452285e-9
          0 -9.092617143630035e-9 -1.818281895191353e-8 0 -9.005081353617337e-9 -1.801140124055629e-8
          0 -9.126548340792718e-9 -1.8249775150265467e-8 0 -9.007014915699012e-9 -1.80158539825287e-8
          0 -9.1527932500672e-9 -1.83008196599231e-8 0 -9.15286440065446e-9 -1.8301367056389045e-8
          0 -9.095313416600104e-9 -1.818346711605369e-8 0 -8.915939491783904e-9 -1.7836688522884578e-8
          0 -8.395101635488494e-9 -1.680778460848803e-8 0 0 -8.37988812504238e-9
          -7.958947971823959e-9 -1.6806757714333985e-8 -1.5958805808028795e-8 0 0 0
          0 -7.3285518213186985e-9 -6.61403043994105e-9 -6.216811271697825e-9 -7.252209704236063e-9 -1.471857144373201e-8
          -1.3186586315304636e-8 -1.2578610062160204e-8 -1.4487229986448523e-8 0 -5.28651266023946e-9 -1.0094757444435807e-8
          0 -7.819616164487705e-9 -1.5566119560621912e-8 0 -5.727010524213727e-9 -1.1509215873357095e-8
          0 0 -8.909235167088205e-9 -8.927937156910788e-9 -1.7817995267473443e-8 -1.7855495289585797e-8
          0 -8.990611557838629e-9 -1.7983639008780196e-8 0 -8.869903325011096e-9 -1.7739132825116344e-8
          0 -8.938984767072789e-9 -1.7882109729807183e-8 0 -8.828923097165634e-9 -1.7658288116082442e-8
          0 -8.619628984958124e-9 -1.7239927544089805e-8 0 -8.205271975921289e-9 -1.640626179551828e-8
          0 -7.715568381807351e-9 -1.5431723004651822e-8 0 0 0
          -6.807755815525299e-9 -7.143770287983356e-9 -7.53214045907026e-9 -1.3565922033770858e-8 -1.4260144234730887e-8 -1.5083772477413314e-8
        </DataArray>
      </PointData>
      <CellData>
        <DataArray type="Int32" Name="libmesh_elem_id" format="ascii" RangeMin="40" RangeMax="1373">
          40 41 42 43 44 45
          46 47 48 49 50 51
          52 53 54 55 56 57
          98 99 100 101 102 103
          104 105 106 107 108 109
          110 111 112 113 114 115
          156 157 158 159 160 161
          162 163 164 165 166 167
          168 169 170 171 172 173
          214 215 216 217 218 219
          220 221 222 223 224 225
          226 227 228 229 230 231
          272 273 274 275 276 277
          278 279 280 281 282 283
          284 285 286 287 288 289
          330 331 332 333 334 335
          336 337 338 339 340 341
          342 343 344 345 346 347
          388 389 390 391 392 393
          394 395 396 397 398 399
          400 401 402 403 404 405
          446 447 448 449 450 451
          452 453 454 455 456 457
          458 459 460 461 462 463
          508 509 510 511 512 513
          514 515 516 517 518 519
          520 521 522 523 524 525
          526 527 528 529 530 531
          532 533 534 535 536 537
          538 539 540 541 542 543
          544 545 546 547 548 549
          550 551 552 553 554 555
          556 557 558 559 560 561
          562 563 564 565 566 567
          568 569 570 571 572 573
          574 575 576 577 578 579
          580 581 582 583 584 585
          586 587 588 589 590 591
          592 593 594 595 596 597
          598 599 600 601 602 603
          604 605 606 607 608 609
          610 611 612 613 614 615
          616 617 618 619 620 621
          622 623 624 625 626 627
          628 629 630 631 632 633
          634 635 636 637 638 639
          640 641 642 643 644 645
          646 647 648 649 650 651
          652 653 654 655 656 657
          658 659 660 661 662 663
          664 665 666 667 668 669
          670 671 672 673 674 675
          676 677 678 679 680 681
          682 683 684 685 686 687
          688 689 690 691 692 693
          694 695 696 697 698 699
          700 701 702 703 704 705
          706 707 708 709 710 711
          712 713 714 715 716 717
          718 719 720 721 722 723
          724 725 726 727 728 729
          730 731 732 733 734 735
          736 737 738 739 740 741
          742 743 744 745 746 747
          748 749 750 751 752 753
          754 755 756 757 758 759
          760 761 762 763 764 765
          766 767 768 769 770 771
          1186 1187 1188 1189 1190 1191
          1204 1205 1206 1207 1208 1209
          1222 1223 1224 1225 1240 1241
          1242 1243 1258 1259 1260 1261
          1276 1277 1278 1279 1300 1301
          1304 1305 1306 1307 1314 1315
          1316 1317 1326 1327 1328 1329
          1330 1331 1338 1339 1344 1345
          1348 1349 1356 1357 1358 1359
          1360 1361 1366 1367 1372 1373
        </DataArray>
        <DataArray type="Int32" Name="subdomain_id" format="ascii" RangeMin="103" RangeMax="143">
          103 103 103 103 103 103
          103 103 103 103 103 103
          103 103 103 103 103 103
          103 103 103 103 103 103
          103 103 103 103 103 103
          103 103 103 103 103 103
          103 103 103 103 103 103
          103 103 103 103 103 103
          103 103 103 103 103 103
          103 103 103 103 103 103
          103 103 103 103 103 103
          103 103 103 103 103 103
          103 103 103 103 103 103
          103 103 103 103 103 103
          103 103 103 103 103 103
          103 103 103 103 103 103
          103 103 103 103 103 103
          103 103 103 103 103 103
          103 103 103 103 103 103
          103 103 103 103 103 103
          103 103 103 103 103 103
          103 103 103 103 103 103
          103 103 103 103 103 103
          103 103 103 103 103 103
          103 103 103 103 103 103
          103 103 103 103 103 103
          103 103 104 104 104 104
          104 104 104 104 104 104
          104 104 104 104 104 104
          104 104 104 104 104 104
          104 104 104 104 104 104
          104 104 104 104 104 104
          104 104 104 104 104 104
          104 104 104 104 104 104
          104 104 104 104 104 104
          104 104 104 104 104 104
          104 104 104 104 104 104
          104 104 104 104 104 104
          104 104 104 104 104 104
          104 104 104 104 104 104
          104 104 104 104 104 104
          104 104 104 104 104 104
          104 104 104 104 104 104
          104 104 104 104 104 104
          104 104 104 104 104 104
          104 104 104 104 104 104
          104 104 104 104 104 104
          104 104 104 104 104 104
          104 104 104 104 104 104
          104 104 104 104 104 104
          104 104 104 104 104 104
          104 104 104 104 104 104
          104 104 104 104 104 104
          104 104 104 104 104 104
          104 104 104 104 104 104
          104 104 104 104 104 104
          104 104 104 104 104 104
          104 104 104 104 104 104
          104 104 104 104 104 104
          141 141 141 141 141 141
          141 141 141 141 141 141
          141 141 141 141 141 141
          141 141 141 141 141 141
          141 141 141 141 141 141
          141 141 141 141 141 141
          141 141 141 141 141 141
          141 141 141 141 141 141
          141 141 141 141 141 141
          105 105 105 105 105 105
          105 105 105 105 105 105
          105 105 105 105 105 105
          105 105 105 105 105 105
          105 105 105 105 106 106
          106 106 106 106 106 106
          106 106 106 106 106 106
          106 106 106 106 106 106
          106 106 106 106 106 106
          143 143 143 143 143 143
        </DataArray>
        <DataArray type="Int32" Name="processor_id" format="ascii" RangeMin="5" RangeMax="5">
          5 5 5 5 5 5
          5 5 5 5 5 5
          5 5 5 5 5 5
          5 5 5 5 5 5
          5 5 5 5 5 5
          5 5 5 5 5 5
          5 5 5 5 5 5
          5 5 5 5 5 5
          5 5 5 5 5 5
          5 5 5 5 5 5
          5 5 5 5 5 5
          5 5 5 5 5 5
          5 5 5 5 5 5
          5 5 5 5 5 5
          5 5 5 5 5 5
          5 5 5 5 5 5
          5 5 5 5 5 5
          5 5 5 5 5 5
          5 5 5 5 5 5
          5 5 5 5 5 5
          5 5 5 5 5 5
          5 5 5 5 5 5
          5 5 5 5 5 5
          5 5 5 5 5 5
          5 5 5 5 5 5
          5 5 5 5 5 5
          5 5 5 5 5 5
          5 5 5 5 5 5
          5 5 5 5 5 5
          5 5 5 5 5 5
          5 5 5 5 5 5
          5 5 5 5 5 5
          5 5 5 5 5 5
          5 5 5 5 5 5
          5 5 5 5 5 5
          5 5 5 5 5 5
          5 5 5 5 5 5
          5 5 5 5 5 5
          5 5 5 5 5 5
          5 5 5 5 5 5
          5 5 5 5 5 5
          5 5 5 5 5 5
          5 5 5 5 5 5
          5 5 5 5 5 5
          5 5 5 5 5 5
          5 5 5 5 5 5
          5 5 5 5 5 5
          5 5 5 5 5 5
          5 5 5 5 5 5
          5 5 5 5 5 5
          5 5 5 5 5 5
          5 5 5 5 5 5
          5 5 5 5 5 5
          5 5 5 5 5 5
          5 5 5 5 5 5
          5 5 5 5 5 5
          5 5 5 5 5 5
          5 5 5 5 5 5
          5 5 5 5 5 5
          5 5 5 5 5 5
          5 5 5 5 5 5
          5 5 5 5 5 5
          5 5 5 5 5 5
          5 5 5 5 5 5
          5 5 5 5 5 5
          5 5 5 5 5 5
          5 5 5 5 5 5
          5 5 5 5 5 5
          5 5 5 5 5 5
          5 5 5 5 5 5
          5 5 5 5 5 5
          5 5 5 5 5 5
          5 5 5 5 5 5
          5 5 5 5 5 5
          5 5 5 5 5 5
          5 5 5 5 5 5
          5 5 5 5 5 5
          5 5 5 5 5 5
        </DataArray>
      </CellData>
      <Points>
        <DataArray type="Float64" Name="Points" NumberOfComponents="3" format="ascii" RangeMin="0.0082758620689774" RangeMax="0.013139935358843113">
          0.00011111111111123 0.0082758620689751 0 0 0.0082758620689774 0
          0.00011111111111123 0.0082758620689751 0.00015 0 0.0082758620689774 0.00015
          0.00011111111111123 0.0082758620689751 0.0003 0 0.0082758620689774 0.0003
          0.00011111111111125 0.0086896551724226 0 0 0.0086896551724246 0
          0.00011111111111125 0.0086896551724226 0.00015 0 0.0086896551724246 0.00015
          0.00011111111111125 0.0086896551724226 0.0003 0 0.0086896551724246 0.0003
          0.00011111111111126 0.0091034482758696 0 0 0.0091034482758716 0
          0.00011111111111126 0.0091034482758696 0.00015 0 0.0091034482758716 0.00015
          0.00011111111111126 0.0091034482758696 0.0003 0 0.0091034482758716 0.0003
          0.00011111111111128 0.0095172413793168 0 0 0.0095172413793185 0
          0.00011111111111128 0.0095172413793168 0.00015 0 0.0095172413793185 0.00015
          0.00011111111111128 0.0095172413793168 0.0003 0 0.0095172413793185 0.0003
          0.00011111111111129 0.0099310344827632 0 0 0.0099310344827645 0
          0.00011111111111129 0.0099310344827632 0.00015 0 0.0099310344827645 0.00015
          0.00011111111111129 0.0099310344827632 0.0003 0 0.0099310344827645 0.0003
          0.00011111111111131 0.01034482758621 0 0 0.01034482758621 0
          0.00011111111111131 0.01034482758621 0.00015 0 0.01034482758621 0.00015
          0.00011111111111131 0.01034482758621 0.0003 0 0.01034482758621 0.0003
          0.00011111111111132 0.010758620689657 0 0 0.010758620689657 0
          0.00011111111111132 0.010758620689657 0.00015 0 0.010758620689657 0.00015
          0.00011111111111132 0.010758620689657 0.0003 0 0.010758620689657 0.0003
          0.00011111111111134 0.011172413793104 0 0 0.011172413793104 0
          0.00011111111111134 0.011172413793104 0.00015 0 0.011172413793104 0.00015
          0.00011111111111134 0.011172413793104 0.0003 0 0.011172413793104 0.0003
          0.00011111111111135 0.011586206896551 0 0 0.011586206896551 0
          0.00011111111111135 0.011586206896551 0.00015 0 0.011586206896551 0.00015
          0.00011111111111135 0.011586206896551 0.0003 0 0.011586206896551 0.0003
          0.00011111111111137 0.012 0 0 0.012 0
          0.00011111111111137 0.012 0.00015 0 0.012 0.00015
          0.00011111111111137 0.012 0.0003 0 0.012 0.0003
          0.00022222222222243 0.0082758620689727 0 0.00022222222222243 0.0082758620689727 0.00015
          0.00022222222222243 0.0082758620689727 0.0003 0.00022222222222246 0.0086896551724206 0
          0.00022222222222246 0.0086896551724206 0.00015 0.00022222222222246 0.0086896551724206 0.0003
          0.00022222222222249 0.0091034482758676 0 0.00022222222222249 0.0091034482758676 0.00015
          0.00022222222222249 0.0091034482758676 0.0003 0.00022222222222253 0.0095172413793151 0
          0.00022222222222253 0.0095172413793151 0.00015 0.00022222222222253 0.0095172413793151 0.0003
          0.00022222222222256 0.0099310344827619 0 0.00022222222222256 0.0099310344827619 0.00015
          0.00022222222222256 0.0099310344827619 0.0003 0.0002222222222226 0.010344827586209 0
          0.0002222222222226 0.010344827586209 0.00015 0.0002222222222226 0.010344827586209 0.0003
          0.00022222222222263 0.010758620689656 0 0.00022222222222263 0.010758620689656 0.00015
          0.00022222222222263 0.010758620689656 0.0003 0.00022222222222266 0.011172413793103 0
          0.00022222222222266 0.011172413793103 0.00015 0.00022222222222266 0.011172413793103 0.0003
          0.0002222222222227 0.011586206896551 0 0.0002222222222227 0.011586206896551 0.00015
          0.0002222222222227 0.011586206896551 0.0003 0.00022222222222273 0.012 0
          0.00022222222222273 0.012 0.00015 0.00022222222222273 0.012 0.0003
          0.00033333333333363 0.0082758620689704 0 0.00033333333333363 0.0082758620689704 0.00015
          0.00033333333333363 0.0082758620689704 0.0003 0.00033333333333368 0.0086896551724185 0
          0.00033333333333368 0.0086896551724185 0.00015 0.00033333333333368 0.0086896551724185 0.0003
          0.00033333333333373 0.0091034482758657 0 0.00033333333333373 0.0091034482758657 0.00015
          0.00033333333333373 0.0091034482758657 0.0003 0.00033333333333379 0.0095172413793133 0
          0.00033333333333379 0.0095172413793133 0.00015 0.00033333333333379 0.0095172413793133 0.0003
          0.00033333333333384 0.0099310344827607 0 0.00033333333333384 0.0099310344827607 0.00015
          0.00033333333333384 0.0099310344827607 0.0003 0.00033333333333389 0.010344827586208 0
          0.00033333333333389 0.010344827586208 0.00015 0.00033333333333389 0.010344827586208 0.0003
          0.00033333333333394 0.010758620689656 0 0.00033333333333394 0.010758620689656 0.00015
          0.00033333333333394 0.010758620689656 0.0003 0.000333333333334 0.011172413793103 0
          0.000333333333334 0.011172413793103 0.00015 0.000333333333334 0.011172413793103 0.0003
          0.00033333333333405 0.011586206896551 0 0.00033333333333405 0.011586206896551 0.00015
          0.00033333333333405 0.011586206896551 0.0003 0.0003333333333341 0.012 0
          0.0003333333333341 0.012 0.00015 0.0003333333333341 0.012 0.0003
          0.00044444444444486 0.0082758620689681 0 0.00044444444444486 0.0082758620689681 0.00015
          0.00044444444444486 0.0082758620689681 0.0003 0.00044444444444493 0.0086896551724165 0
          0.00044444444444493 0.0086896551724165 0.00015 0.00044444444444493 0.0086896551724165 0.0003
          0.00044444444444501 0.0091034482758637 0 0.00044444444444501 0.0091034482758637 0.00015
          0.00044444444444501 0.0091034482758637 0.0003 0.00044444444444508 0.0095172413793116 0
          0.00044444444444508 0.0095172413793116 0.00015 0.00044444444444508 0.0095172413793116 0.0003
          0.00044444444444516 0.0099310344827594 0 0.00044444444444516 0.0099310344827594 0.00015
          0.00044444444444516 0.0099310344827594 0.0003 0.00044444444444523 0.010344827586207 0
          0.00044444444444523 0.010344827586207 0.00015 0.00044444444444523 0.010344827586207 0.0003
          0.00044444444444531 0.010758620689655 0 0.00044444444444531 0.010758620689655 0.00015
          0.00044444444444531 0.010758620689655 0.0003 0.00044444444444538 0.011172413793103 0
          0.00044444444444538 0.011172413793103 0.00015 0.00044444444444538 0.011172413793103 0.0003
          0.00044444444444546 0.011586206896551 0 0.00044444444444546 0.011586206896551 0.00015
          0.00044444444444546 0.011586206896551 0.0003 0.00044444444444553 0.012 0
          0.00044444444444553 0.012 0.00015 0.00044444444444553 0.012 0.0003
          0.00055555555555597 0.0082758620689657 0 0.00055555555555597 0.0082758620689657 0.00015
          0.00055555555555597 0.0082758620689657 0.0003 0.00055555555555605 0.0086896551724145 0
          0.00055555555555605 0.0086896551724145 0.00015 0.00055555555555605 0.0086896551724145 0.0003
          0.00055555555555613 0.0091034482758618 0 0.00055555555555613 0.0091034482758618 0.00015
          0.00055555555555613 0.0091034482758618 0.0003 0.00055555555555621 0.0095172413793099 0
          0.00055555555555621 0.0095172413793099 0.00015 0.00055555555555621 0.0095172413793099 0.0003
          0.00055555555555629 0.0099310344827581 0 0.00055555555555629 0.0099310344827581 0.00015
          0.00055555555555629 0.0099310344827581 0.0003 0.00055555555555636 0.010344827586206 0
          0.00055555555555636 0.010344827586206 0.00015 0.00055555555555636 0.010344827586206 0.0003
          0.00055555555555644 0.010758620689655 0 0.00055555555555644 0.010758620689655 0.00015
          0.00055555555555644 0.010758620689655 0.0003 0.00055555555555652 0.011172413793102 0
          0.00055555555555652 0.011172413793102 0.00015 0.00055555555555652 0.011172413793102 0.0003
          0.0005555555555566 0.011586206896551 0 0.0005555555555566 0.011586206896551 0.00015
          0.0005555555555566 0.011586206896551 0.0003 0.00055555555555667 0.012 0
          0.00055555555555667 0.012 0.00015 0.00055555555555667 0.012 0.0003
          0.00066666666666675 0.0082758620689634 0 0.00066666666666675 0.0082758620689634 0.00015
          0.00066666666666675 0.0082758620689634 0.0003 0.00066666666666679 0.0086896551724125 0
          0.00066666666666679 0.0086896551724125 0.00015 0.00066666666666679 0.0086896551724125 0.0003
          0.00066666666666684 0.0091034482758598 0 0.00066666666666684 0.0091034482758598 0.00015
          0.00066666666666684 0.0091034482758598 0.0003 0.00066666666666688 0.0095172413793081 0
          0.00066666666666688 0.0095172413793081 0.00015 0.00066666666666688 0.0095172413793081 0.0003
          0.00066666666666693 0.0099310344827568 0 0.00066666666666693 0.0099310344827568 0.00015
          0.00066666666666693 0.0099310344827568 0.0003 0.00066666666666697 0.010344827586205 0
          0.00066666666666697 0.010344827586205 0.00015 0.00066666666666697 0.010344827586205 0.0003
          0.00066666666666701 0.010758620689654 0 0.00066666666666701 0.010758620689654 0.00015
          0.00066666666666701 0.010758620689654 0.0003 0.00066666666666706 0.011172413793102 0
          0.00066666666666706 0.011172413793102 0.00015 0.00066666666666706 0.011172413793102 0.0003
          0.0006666666666671 0.01158620689655 0 0.0006666666666671 0.01158620689655 0.00015
          0.0006666666666671 0.01158620689655 0.0003 0.00066666666666715 0.012 0
          0.00066666666666715 0.012 0.00015 0.00066666666666715 0.012 0.0003
          0.00077777777777787 0.0082758620689611 0 0.00077777777777787 0.0082758620689611 0.00015
          0.00077777777777787 0.0082758620689611 0.0003 0.00077777777777791 0.0086896551724104 0
          0.00077777777777791 0.0086896551724104 0.00015 0.00077777777777791 0.0086896551724104 0.0003
          0.00077777777777794 0.0091034482758578 0 0.00077777777777794 0.0091034482758578 0.00015
          0.00077777777777794 0.0091034482758578 0.0003 0.00077777777777797 0.0095172413793064 0
          0.00077777777777797 0.0095172413793064 0.00015 0.00077777777777797 0.0095172413793064 0.0003
          0.000777777777778 0.0099310344827555 0 0.000777777777778 0.0099310344827555 0.00015
          0.000777777777778 0.0099310344827555 0.0003 0.00077777777777803 0.010344827586205 0
          0.00077777777777803 0.010344827586205 0.00015 0.00077777777777803 0.010344827586205 0.0003
          0.00077777777777806 0.010758620689654 0 0.00077777777777806 0.010758620689654 0.00015
          0.00077777777777806 0.010758620689654 0.0003 0.00077777777777809 0.011172413793101 0
          0.00077777777777809 0.011172413793101 0.00015 0.00077777777777809 0.011172413793101 0.0003
          0.00077777777777813 0.01158620689655 0 0.00077777777777813 0.01158620689655 0.00015
          0.00077777777777813 0.01158620689655 0.0003 0.00077777777777816 0.012 0
          0.00077777777777816 0.012 0.00015 0.00077777777777816 0.012 0.0003
          0.0008888888888888 0.0082758620689588 0 0.0008888888888888 0.0082758620689588 0.00015
          0.0008888888888888 0.0082758620689588 0.0003 0.00088888888888881 0.0086896551724084 0
          0.00088888888888881 0.0086896551724084 0.00015 0.00088888888888881 0.0086896551724084 0.0003
          0.00088888888888882 0.0091034482758559 0 0.00088888888888882 0.0091034482758559 0.00015
          0.00088888888888882 0.0091034482758559 0.0003 0.00088888888888883 0.0095172413793047 0
          0.00088888888888883 0.0095172413793047 0.00015 0.00088888888888883 0.0095172413793047 0.0003
          0.00088888888888884 0.0099310344827542 0 0.00088888888888884 0.0099310344827542 0.00015
          0.00088888888888884 0.0099310344827542 0.0003 0.00088888888888885 0.010344827586204 0
          0.00088888888888885 0.010344827586204 0.00015 0.00088888888888885 0.010344827586204 0.0003
          0.00088888888888885 0.010758620689653 0 0.00088888888888885 0.010758620689653 0.00015
          0.00088888888888885 0.010758620689653 0.0003 0.00088888888888886 0.011172413793101 0
          0.00088888888888886 0.011172413793101 0.00015 0.00088888888888886 0.011172413793101 0.0003
          0.00088888888888887 0.01158620689655 0 0.00088888888888887 0.01158620689655 0.00015
          0.00088888888888887 0.01158620689655 0.0003 0.00088888888888888 0.012 0
          0.00088888888888888 0.012 0.00015 0.00088888888888888 0.012 0.0003
          0.001 0.0091034482758539 0 0.001 0.0091034482758539 0.00015
          0.001 0.0091034482758539 0.0003 0.001 0.0095172413793029 0
          0.001 0.0095172413793029 0.00015 0.001 0.0095172413793029 0.0003
          0.001 0.0099310344827529 0 0.001 0.0099310344827529 0.00015
          0.001 0.0099310344827529 0.0003 0.001 0.010344827586203 0
          0.001 0.010344827586203 0.00015 0.001 0.010344827586203 0.0003
          0.001 0.010758620689653 0 0.001 0.010758620689653 0.00015
          0.001 0.010758620689653 0.0003 0.001 0.0111724137931 0
          0.001 0.0111724137931 0.00015 0.001 0.0111724137931 0.0003
          0.001 0.01158620689655 0 0.001 0.01158620689655 0.00015
          0.001 0.01158620689655 0.0003 0.001 0.012 0
          0.001 0.012 0.00015 0.001 0.012 0.0003
          0.00067947077571632 0.012798245728111 0 0.00068678568032061 0.012710429785181 0
          0.00076344362314339 0.012698069087358 0 0.00078000626700894 0.012788238676479 0
          0.00067947077571632 0.012798245728111 0.00015 0.00068678568032061 0.012710429785181 0.00015
          0.00076344362314339 0.012698069087358 0.00015 0.00078000626700894 0.012788238676479 0.00015
          0.00067947077571632 0.012798245728111 0.0003 0.00068678568032061 0.012710429785181 0.0003
          0.00076344362314339 0.012698069087358 0.0003 0.00078000626700894 0.012788238676479 0.0003
          0.0007101811699723 0.012881232243155 0 0.00078737528777453 0.012884598822829 0
          0.0007101811699723 0.012881232243155 0.00015 0.00078737528777453 0.012884598822829 0.00015
          0.0007101811699723 0.012881232243155 0.0003 0.00078737528777453 0.012884598822829 0.0003
          0.00063149088332091 0.012876508075697 0 0.00071156048039536 0.012943694476106 0
          0.00064992343237843 0.012944046337553 0 0.00063149088332091 0.012876508075697 0.00015
          0.00071156048039536 0.012943694476106 0.00015 0.00064992343237843 0.012944046337553 0.00015
          0.00063149088332091 0.012876508075697 0.0003 0.00071156048039536 0.012943694476106 0.0003
          0.00064992343237843 0.012944046337553 0.0003 0.00014271480927744 0.012184528409521 0
          0.00021074182908597 0.012239195039162 0 0.00014617236906556 0.012274772666576 0
          0.00010836971036758 0.0122326927564 0 0.00014271480927744 0.012184528409521 0.00015
          0.00021074182908597 0.012239195039162 0.00015 0.00014617236906556 0.012274772666576 0.00015
          0.00010836971036758 0.0122326927564 0.00015 0.00014271480927744 0.012184528409521 0.0003
          0.00021074182908597 0.012239195039162 0.0003 0.00014617236906556 0.012274772666576 0.0003
          0.00010836971036758 0.0122326927564 0.0003 0.00040316247653445 0.012523054457121 0
          0.00050524235438491 0.012516470580574 0 0.00047556583290331 0.012611926172403 0
          0.00040677839563254 0.01259579728731 0 0.00040316247653445 0.012523054457121 0.00015
          0.00050524235438491 0.012516470580574 0.00015 0.00047556583290331 0.012611926172403 0.00015
          0.00040677839563254 0.01259579728731 0.00015 0.00040316247653445 0.012523054457121 0.0003
          0.00050524235438491 0.012516470580574 0.0003 0.00047556583290331 0.012611926172403 0.0003
          0.00040677839563254 0.01259579728731 0.0003 0.00038389728538556 0.012111104172094 0
          0.00037958632650406 0.012195366170904 0 0.00029855370140418 0.012181148574691 0
          0.00029802321336891 0.012105931916082 0 0.00038389728538556 0.012111104172094 0.00015
          0.00037958632650406 0.012195366170904 0.00015 0.00029855370140418 0.012181148574691 0.00015
          0.00029802321336891 0.012105931916082 0.00015 0.00038389728538556 0.012111104172094 0.0003
          0.00037958632650406 0.012195366170904 0.0003 0.00029855370140418 0.012181148574691 0.0003
          0.00029802321336891 0.012105931916082 0.0003 0.00062435778703091 0.012280526392523 0
          0.00063694887874418 0.012191685157308 0 0.00075163746499696 0.012211869018538 0
          0.0007101306235237 0.012330652999586 0 0.00062435778703091 0.012280526392523 0.00015
          0.00063694887874418 0.012191685157308 0.00015 0.00075163746499696 0.012211869018538 0.00015
          0.0007101306235237 0.012330652999586 0.00015 0.00062435778703091 0.012280526392523 0.0003
          0.00063694887874418 0.012191685157308 0.0003 0.00075163746499696 0.012211869018538 0.0003
          0.0007101306235237 0.012330652999586 0.0003 0.00090036231429234 0.012108977226849 0
          0.00080269198720626 0.012096984730608 0 0.00090036231429234 0.012108977226849 0.00015
          0.00080269198720626 0.012096984730608 0.00015 0.00090036231429234 0.012108977226849 0.0003
          0.00080269198720626 0.012096984730608 0.0003 0.00023865656240352 0.012177237347116 0
          0.00029061852669854 0.01224857812735 0 0.00023865656240352 0.012177237347116 0.00015
          0.00029061852669854 0.01224857812735 0.00015 0.00023865656240352 0.012177237347116 0.0003
          0.00029061852669854 0.01224857812735 0.0003 0.00056164385173704 0.012835416164401 0
          0.00056508360468666 0.012898794448667 0 0.00049240387645224 0.012913175910861 0
          0.00046984631090009 0.012828989929731 0 0.00056164385173704 0.012835416164401 0.00015
          0.00056508360468666 0.012898794448667 0.00015 0.00049240387645224 0.012913175910861 0.00015
          0.00046984631090009 0.012828989929731 0.00015 0.00056164385173704 0.012835416164401 0.0003
          0.00056508360468666 0.012898794448667 0.0003 0.00049240387645224 0.012913175910861 0.0003
          0.00046984631090009 0.012828989929731 0.0003 0.000050495613361417 0.012066083920595 0
          0.00011131843390441 0.012086989142678 0 0.000069577205110887 0.012153607960951 0
          0 0.012111111111109 0 0.000050495613361417 0.012066083920595 0.00015
          0.00011131843390441 0.012086989142678 0.00015 0.000069577205110887 0.012153607960951 0.00015
          0 0.012111111111109 0.00015 0.000050495613361417 0.012066083920595 0.0003
          0.00011131843390441 0.012086989142678 0.0003 0.000069577205110887 0.012153607960951 0.0003
          0 0.012111111111109 0.0003 0.00022470825547396 0.012306913365418 0
          0.00017103954025546 0.012340304715306 0 0.00022470825547396 0.012306913365418 0.00015
          0.00017103954025546 0.012340304715306 0.00015 0.00022470825547396 0.012306913365418 0.0003
          0.00017103954025546 0.012340304715306 0.0003 0.00085640575367095 0.012657655614724 0
          0.001 0.012571428571438 0 0.001 0.012714285714292 0
          0.00089085524488654 0.012778191533234 0 0.00085640575367095 0.012657655614724 0.00015
          0.001 0.012571428571438 0.00015 0.001 0.012714285714292 0.00015
          0.00089085524488654 0.012778191533234 0.00015 0.00085640575367095 0.012657655614724 0.0003
          0.001 0.012571428571438 0.0003 0.001 0.012714285714292 0.0003
          0.00089085524488654 0.012778191533234 0.0003 0.00017101007138246 0.012530153689505 0
          0.000086824088695593 0.01250759612347 0 0.00010015626416536 0.012463076177022 0
          0.00018026894988108 0.012457509098897 0 0.00017101007138246 0.012530153689505 0.00015
          0.000086824088695593 0.01250759612347 0.00015 0.00010015626416536 0.012463076177022 0.00015
          0.00018026894988108 0.012457509098897 0.00015 0.00017101007138246 0.012530153689505 0.0003
          0.000086824088695593 0.01250759612347 0.0003 0.00010015626416536 0.012463076177022 0.0003
          0.00018026894988108 0.012457509098897 0.0003 0.00055555555555552 0.013 0
          0.00054972466987376 0.012958523613261 0 0.00059017772624368 0.012950117696029 0
          0.00061111111111072 0.013 0 0.00055555555555552 0.013 0.00015
          0.00054972466987376 0.012958523613261 0.00015 0.00059017772624368 0.012950117696029 0.00015
          0.00061111111111072 0.013 0.00015 0.00055555555555552 0.013 0.0003
          0.00054972466987376 0.012958523613261 0.0003 0.00059017772624368 0.012950117696029 0.0003
          0.00061111111111072 0.013 0.0003 0.00056012017374448 0.012193168747791 0
          0.00054338833040714 0.012250054231166 0 0.00056012017374448 0.012193168747791 0.00015
          0.00054338833040714 0.012250054231166 0.00015 0.00056012017374448 0.012193168747791 0.0003
          0.00054338833040714 0.012250054231166 0.0003 0.00020164702899907 0.012111009853496 0
          0.00020164702899907 0.012111009853496 0.00015 0.00020164702899907 0.012111009853496 0.0003
          0.00058698867508036 0.01276393301723 0 0.00061242021253103 0.012689969395149 0
          0.00058698867508036 0.01276393301723 0.00015 0.00061242021253103 0.012689969395149 0.00015
          0.00058698867508036 0.01276393301723 0.0003 0.00061242021253103 0.012689969395149 0.0003
          0.00054704952286259 0.01264760123259 0 0.00058547756026548 0.012574831423214 0
          0.00066845126455385 0.012625352450745 0 0.00054704952286259 0.01264760123259 0.00015
          0.00058547756026548 0.012574831423214 0.00015 0.00066845126455385 0.012625352450745 0.00015
          0.00054704952286259 0.01264760123259 0.0003 0.00058547756026548 0.012574831423214 0.0003
          0.00066845126455385 0.012625352450745 0.0003 0.00040316497174951 0.012375710115571 0
          0.00038996592658543 0.012448925709731 0 0.00030251984068288 0.012451026681152 0
          0.00030273327950676 0.012339921797294 0 0.00040316497174951 0.012375710115571 0.00015
          0.00038996592658543 0.012448925709731 0.00015 0.00030251984068288 0.012451026681152 0.00015
          0.00030273327950676 0.012339921797294 0.00015 0.00040316497174951 0.012375710115571 0.0003
          0.00038996592658543 0.012448925709731 0.0003 0.00030251984068288 0.012451026681152 0.0003
          0.00030273327950676 0.012339921797294 0.0003 0 0.012166666666663 0
          0.000060257043043922 0.012213388328671 0 0 0.012222222222217 0
          0 0.012166666666663 0.00015 0.000060257043043922 0.012213388328671 0.00015
          0 0.012222222222217 0.00015 0 0.012166666666663 0.0003
          0.000060257043043922 0.012213388328671 0.0003 0 0.012222222222217 0.0003
          0.00086766031505541 0.012218873949421 0 0.00070802748250363 0.01210226547145 0
          0.00086766031505541 0.012218873949421 0.00015 0.00070802748250363 0.01210226547145 0.00015
          0.00086766031505541 0.012218873949421 0.0003 0.00070802748250363 0.01210226547145 0.0003
          0.00045681564832724 0.012667985356076 0 0.00038302222240927 0.012678606196169 0
          0.00045681564832724 0.012667985356076 0.00015 0.00038302222240927 0.012678606196169 0.00015
          0.00045681564832724 0.012667985356076 0.0003 0.00038302222240927 0.012678606196169 0.0003
          0.00057343997443155 0.012462111372123 0 0.00067467937701806 0.012497336760124 0
          0.00057343997443155 0.012462111372123 0.00015 0.00067467937701806 0.012497336760124 0.00015
          0.00057343997443155 0.012462111372123 0.0003 0.00067467937701806 0.012497336760124 0.0003
          0 0.012388888888886 0 0.00004805763346656 0.012364070531781 0
          0.000052775834931525 0.012418323433379 0 0 0.012444444444443 0
          0 0.012388888888886 0.00015 0.00004805763346656 0.012364070531781 0.00015
          0.000052775834931525 0.012418323433379 0.00015 0 0.012444444444443 0.00015
          0 0.012388888888886 0.0003 0.00004805763346656 0.012364070531781 0.0003
          0.000052775834931525 0.012418323433379 0.0003 0 0.012444444444443 0.0003
          0.0004655657017567 0.012222981448331 0 0.0004403524252846 0.012306679111378 0
          0.00036518397892919 0.012268658791136 0 0.0004655657017567 0.012222981448331 0.00015
          0.0004403524252846 0.012306679111378 0.00015 0.00036518397892919 0.012268658791136 0.00015
          0.0004655657017567 0.012222981448331 0.0003 0.0004403524252846 0.012306679111378 0.0003
          0.00036518397892919 0.012268658791136 0.0003 0.00079059026611164 0.012574208252283 0
          0.00074033738884001 0.012629472897336 0 0.00079059026611164 0.012574208252283 0.00015
          0.00074033738884001 0.012629472897336 0.00015 0.00079059026611164 0.012574208252283 0.0003
          0.00074033738884001 0.012629472897336 0.0003 0.00049134001885305 0.012124425854677 0
          0.00060162315338905 0.012101782274206 0 0.00049134001885305 0.012124425854677 0.00015
          0.00060162315338905 0.012101782274206 0.00015 0.00049134001885305 0.012124425854677 0.0003
          0.00060162315338905 0.012101782274206 0.0003 0.00055165526617401 0.012365152711649 0
          0.00046621557592763 0.012427373679685 0 0.00055165526617401 0.012365152711649 0.00015
          0.00046621557592763 0.012427373679685 0.00015 0.00055165526617401 0.012365152711649 0.0003
          0.00046621557592763 0.012427373679685 0.0003 0.00065175768920993 0.012395993188634 0
          0.00078658012555766 0.01242031863996 0 0.00065175768920993 0.012395993188634 0.00015
          0.00078658012555766 0.01242031863996 0.00015 0.00065175768920993 0.012395993188634 0.0003
          0.00078658012555766 0.01242031863996 0.0003 0.00072222222222142 0.013 0
          0.00076767785213736 0.012949407633443 0 0.00077777777777722 0.013 0
          0.00072222222222142 0.013 0.00015 0.00076767785213736 0.012949407633443 0.00015
          0.00077777777777722 0.013 0.00015 0.00072222222222142 0.013 0.0003
          0.00076767785213736 0.012949407633443 0.0003 0.00077777777777722 0.013 0.0003
          0.001 0.01228571428572 0 0.001 0.012428571428581 0
          0.00085243404696798 0.012340254950119 0 0.001 0.01228571428572 0.00015
          0.001 0.012428571428581 0.00015 0.00085243404696798 0.012340254950119 0.00015
          0.001 0.01228571428572 0.0003 0.001 0.012428571428581 0.0003
          0.00085243404696798 0.012340254950119 0.0003 0.000047305708530005 0.012255757186949 0
          0.000035989657241992 0.012305788523607 0 0 0.012277777777773 0
          0.000047305708530005 0.012255757186949 0.00015 0.000035989657241992 0.012305788523607 0.00015
          0 0.012277777777773 0.00015 0.000047305708530005 0.012255757186949 0.0003
          0.000035989657241992 0.012305788523607 0.0003 0 0.012277777777773 0.0003
          0 0.01233333333333 0 0 0.01233333333333 0.00015
          0 0.01233333333333 0.0003 0.00088888888888861 0.013 0
          0.00086852226729803 0.012945143609779 0 0.00092105077811413 0.012923509600428 0
          0.0009444444444442 0.013 0 0.00088888888888861 0.013 0.00015
          0.00086852226729803 0.012945143609779 0.00015 0.00092105077811413 0.012923509600428 0.00015
          0.0009444444444442 0.013 0.00015 0.00088888888888861 0.013 0.0003
          0.00086852226729803 0.012945143609779 0.0003 0.00092105077811413 0.012923509600428 0.0003
          0.0009444444444442 0.013 0.0003 0.000088322519872331 0.012287262323421 0
          0.000098057359918883 0.01234321954228 0 0.000088322519872331 0.012287262323421 0.00015
          0.000098057359918883 0.01234321954228 0.00015 0.000088322519872331 0.012287262323421 0.0003
          0.000098057359918883 0.01234321954228 0.0003 0.00082037799021753 0.012949927278989 0
          0.00083333333333302 0.013 0 0.00082037799021753 0.012949927278989 0.00015
          0.00083333333333302 0.013 0.00015 0.00082037799021753 0.012949927278989 0.0003
          0.00083333333333302 0.013 0.0003 0.000055423585756317 0.01245648439217 0
          0.00011750487062481 0.01240389197138 0 0.000055423585756317 0.01245648439217 0.00015
          0.00011750487062481 0.01240389197138 0.00015 0.000055423585756317 0.01245648439217 0.0003
          0.00011750487062481 0.01240389197138 0.0003 0.00022703795328819 0.012397087263253 0
          0.00024412512388832 0.012487409031957 0 0.00022703795328819 0.012397087263253 0.00015
          0.00024412512388832 0.012487409031957 0.00015 0.00022703795328819 0.012397087263253 0.0003
          0.00024412512388832 0.012487409031957 0.0003 0.00086622784349606 0.012879340816766 0
          0.00086622784349606 0.012879340816766 0.00015 0.00086622784349606 0.012879340816766 0.0003
          0.001 0.01214285714286 0 0.001 0.01214285714286 0.00015
          0.001 0.01214285714286 0.0003 0.00032807036377433 0.012530514194312 0
          0.00032139380548758 0.012616977778981 0 0.00032807036377433 0.012530514194312 0.00015
          0.00032139380548758 0.012616977778981 0.00015 0.00032807036377433 0.012530514194312 0.0003
          0.00032139380548758 0.012616977778981 0.0003 0.00078653837511981 0.012300730611142 0
          0.00078653837511981 0.012300730611142 0.00015 0.00078653837511981 0.012300730611142 0.0003
          0.00050187285486533 0.012723776617989 0 0.00050187285486533 0.012723776617989 0.00015
          0.00050187285486533 0.012723776617989 0.0003 0.00066666666666612 0.013 0
          0.00066666666666612 0.013 0.00015 0.00066666666666612 0.013 0.0003
          0.00086640285866826 0.012499721374928 0 0.00086640285866826 0.012499721374928 0.00015
          0.00086640285866826 0.012499721374928 0.0003 0.001 0.012857142857146 0
          0.001 0.012857142857146 0.00015 0.001 0.012857142857146 0.0003
          0.00043301270230906 0.012750000000722 0 0.00043301270230906 0.012750000000722 0.00015
          0.00043301270230906 0.012750000000722 0.0003 0.00025000000019401 0.01256698729822 0
          0.00025000000019401 0.01256698729822 0.00015 0.00025000000019401 0.01256698729822 0.0003
          0 0.0125 0 0 0.0125 0.00015
          0 0.0125 0.0003 0 0.012055555555554 0
          0 0.012055555555554 0.00015 0 0.012055555555554 0.0003
          0.001 0.013 0 0.001 0.013 0.00015
          0.001 0.013 0.0003 0.0005 0.013 0
          0.0005 0.013 0.00015 0.0005 0.013 0.0003
          0.0014444444444451 0.0095172413793029 0 0.0014444444444451 0.0095172413793029 0.00015
          0.0014444444444451 0.0095172413793029 0.0003 0.0018888888888902 0.0095172413793029 0
          0.0018888888888902 0.0095172413793029 0.00015 0.0018888888888902 0.0095172413793029 0.0003
          0.0014444444444452 0.0099310344827529 0 0.0014444444444452 0.0099310344827529 0.00015
          0.0014444444444452 0.0099310344827529 0.0003 0.0018888888888903 0.0099310344827529 0
          0.0018888888888903 0.0099310344827529 0.00015 0.0018888888888903 0.0099310344827529 0.0003
          0.0014444444444452 0.010344827586203 0 0.0014444444444452 0.010344827586203 0.00015
          0.0014444444444452 0.010344827586203 0.0003 0.0014444444444453 0.010758620689653 0
          0.0014444444444453 0.010758620689653 0.00015 0.0014444444444453 0.010758620689653 0.0003
          0.0014444444444453 0.0111724137931 0 0.0014444444444453 0.0111724137931 0.00015
          0.0014444444444453 0.0111724137931 0.0003 0.0014444444444454 0.01158620689655 0
          0.0014444444444454 0.01158620689655 0.00015 0.0014444444444454 0.01158620689655 0.0003
          0.0014444444444455 0.012 0 0.0014444444444455 0.012 0.00015
          0.0014444444444455 0.012 0.0003 0.0011659770658264 0.012184916069452 0
          0.0011978981211319 0.012291694091132 0 0.0011659770658264 0.012184916069452 0.00015
          0.0011978981211319 0.012291694091132 0.00015 0.0011659770658264 0.012184916069452 0.0003
          0.0011978981211319 0.012291694091132 0.0003 0.0014134281085546 0.012468353283698 0
          0.001412897365997 0.01265802692797 0 0.0011710921098332 0.012660749606473 0
          0.0011928404820732 0.012464476127519 0 0.0014134281085546 0.012468353283698 0.00015
          0.001412897365997 0.01265802692797 0.00015 0.0011710921098332 0.012660749606473 0.00015
          0.0011928404820732 0.012464476127519 0.00015 0.0014134281085546 0.012468353283698 0.0003
          0.001412897365997 0.01265802692797 0.0003 0.0011710921098332 0.012660749606473 0.0003
          0.0011928404820732 0.012464476127519 0.0003 0.0011801499871676 0.012824831216028 0
          0.0011801499871676 0.012824831216028 0.00015 0.0011801499871676 0.012824831216028 0.0003
          0.0014335559245349 0.012265987585326 0 0.0014335559245349 0.012265987585326 0.00015
          0.0014335559245349 0.012265987585326 0.0003 0.0014444444444455 0.013 0
          0.0014444444444455 0.013 0.00015 0.0014444444444455 0.013 0.0003
          0.0023333333333355 0.0099310344827529 0 0.0023333333333353 0.0095172413793029 0
          0.0023333333333355 0.0099310344827529 0.00015 0.0023333333333353 0.0095172413793029 0.00015
          0.0023333333333355 0.0099310344827529 0.0003 0.0023333333333353 0.0095172413793029 0.0003
          0.0018888888888904 0.010344827586203 0 0.0018888888888904 0.010344827586203 0.00015
          0.0018888888888904 0.010344827586203 0.0003 0.0023333333333357 0.010344827586203 0
          0.0023333333333357 0.010344827586203 0.00015 0.0023333333333357 0.010344827586203 0.0003
          0.0018888888888905 0.010758620689653 0 0.0018888888888905 0.010758620689653 0.00015
          0.0018888888888905 0.010758620689653 0.0003 0.0018888888888907 0.0111724137931 0
          0.0018888888888907 0.0111724137931 0.00015 0.0018888888888907 0.0111724137931 0.0003
          0.0018888888888908 0.01158620689655 0 0.0018888888888908 0.01158620689655 0.00015
          0.0018888888888908 0.01158620689655 0.0003 0.0018888888888909 0.012 0
          0.0018888888888909 0.012 0.00015 0.0018888888888909 0.012 0.0003
          0.0017386847932316 0.012348636106575 0 0.0017386847932316 0.012348636106575 0.00015
          0.0017386847932316 0.012348636106575 0.0003 0.0018888888888909 0.013 0
          0.001702980389272 0.012655949584096 0 0.0020604062010233 0.012679406151259 0
          0.0018888888888909 0.013 0.00015 0.001702980389272 0.012655949584096 0.00015
          0.0020604062010233 0.012679406151259 0.00015 0.0018888888888909 0.013 0.0003
          0.001702980389272 0.012655949584096 0.0003 0.0020604062010233 0.012679406151259 0.0003
          <InformationKey name="L2_NORM_RANGE" location="vtkDataArray" length="2">
            <Value index="0">
              0.008275862069
            </Value>
            <Value index="1">
              0.013139935359
            </Value>
          </InformationKey>
        </DataArray>
      </Points>
      <Cells>
        <DataArray type="Int64" Name="connectivity" format="ascii" RangeMin="0" RangeMax="755">
          1 0 6 7 3 2
          8 9 3 2 8 9
          5 4 10 11 7 6
          12 13 9 8 14 15
          9 8 14 15 11 10
          16 17 13 12 18 19
          15 14 20 21 15 14
          20 21 17 16 22 23
          19 18 24 25 21 20
          26 27 21 20 26 27
          23 22 28 29 25 24
          30 31 27 26 32 33
          27 26 32 33 29 28
          34 35 31 30 36 37
          33 32 38 39 33 32
          38 39 35 34 40 41
          37 36 42 43 39 38
          44 45 39 38 44 45
          41 40 46 47 43 42
          48 49 45 44 50 51
          45 44 50 51 47 46
          52 53 49 48 54 55
          51 50 56 57 51 50
          56 57 53 52 58 59
          0 60 63 6 2 61
          64 8 2 61 64 8
          4 62 65 10 6 63
          66 12 8 64 67 14
          8 64 67 14 10 65
          68 16 12 66 69 18
          14 67 70 20 14 67
          70 20 16 68 71 22
          18 69 72 24 20 70
          73 26 20 70 73 26
          22 71 74 28 24 72
          75 30 26 73 76 32
          26 73 76 32 28 74
          77 34 30 75 78 36
          32 76 79 38 32 76
          79 38 34 77 80 40
          36 78 81 42 38 79
          82 44 38 79 82 44
          40 80 83 46 42 81
          84 48 44 82 85 50
          44 82 85 50 46 83
          86 52 48 84 87 54
          50 85 88 56 50 85
          88 56 52 86 89 58
          60 90 93 63 61 91
          94 64 61 91 94 64
          62 92 95 65 63 93
          96 66 64 94 97 67
          64 94 97 67 65 95
          98 68 66 96 99 69
          67 97 100 70 67 97
          100 70 68 98 101 71
          69 99 102 72 70 100
          103 73 70 100 103 73
          71 101 104 74 72 102
          105 75 73 103 106 76
          73 103 106 76 74 104
          107 77 75 105 108 78
          76 106 109 79 76 106
          109 79 77 107 110 80
          78 108 111 81 79 109
          112 82 79 109 112 82
          80 110 113 83 81 111
          114 84 82 112 115 85
          82 112 115 85 83 113
          116 86 84 114 117 87
          85 115 118 88 85 115
          118 88 86 116 119 89
          90 120 123 93 91 121
          124 94 91 121 124 94
          92 122 125 95 93 123
          126 96 94 124 127 97
          94 124 127 97 95 125
          128 98 96 126 129 99
          97 127 130 100 97 127
          130 100 98 128 131 101
          99 129 132 102 100 130
          133 103 100 130 133 103
          101 131 134 104 102 132
          135 105 103 133 136 106
          103 133 136 106 104 134
          137 107 105 135 138 108
          106 136 139 109 106 136
          139 109 107 137 140 110
          108 138 141 111 109 139
          142 112 109 139 142 112
          110 140 143 113 111 141
          144 114 112 142 145 115
          112 142 145 115 113 143
          146 116 114 144 147 117
          115 145 148 118 115 145
          148 118 116 146 149 119
          120 150 153 123 121 151
          154 124 121 151 154 124
          122 152 155 125 123 153
          156 126 124 154 157 127
          124 154 157 127 125 155
          158 128 126 156 159 129
          127 157 160 130 127 157
          160 130 128 158 161 131
          129 159 162 132 130 160
          163 133 130 160 163 133
          131 161 164 134 132 162
          165 135 133 163 166 136
          133 163 166 136 134 164
          167 137 135 165 168 138
          136 166 169 139 136 166
          169 139 137 167 170 140
          138 168 171 141 139 169
          172 142 139 169 172 142
          140 170 173 143 141 171
          174 144 142 172 175 145
          142 172 175 145 143 173
          176 146 144 174 177 147
          145 175 178 148 145 175
          178 148 146 176 179 149
          150 180 183 153 151 181
          184 154 151 181 184 154
          152 182 185 155 153 183
          186 156 154 184 187 157
          154 184 187 157 155 185
          188 158 156 186 189 159
          157 187 190 160 157 187
          190 160 158 188 191 161
          159 189 192 162 160 190
          193 163 160 190 193 163
          161 191 194 164 162 192
          195 165 163 193 196 166
          163 193 196 166 164 194
          197 167 165 195 198 168
          166 196 199 169 166 196
          199 169 167 197 200 170
          168 198 201 171 169 199
          202 172 169 199 202 172
          170 200 203 173 171 201
          204 174 172 202 205 175
          172 202 205 175 173 203
          206 176 174 204 207 177
          175 205 208 178 175 205
          208 178 176 206 209 179
          180 210 213 183 181 211
          214 184 181 211 214 184
          182 212 215 185 183 213
          216 186 184 214 217 187
          184 214 217 187 185 215
          218 188 186 216 219 189
          187 217 220 190 187 217
          220 190 188 218 221 191
          189 219 222 192 190 220
          223 193 190 220 223 193
          191 221 224 194 192 222
          225 195 193 223 226 196
          193 223 226 196 194 224
          227 197 195 225 228 198
          196 226 229 199 196 226
          229 199 197 227 230 200
          198 228 231 201 199 229
          232 202 199 229 232 202
          200 230 233 203 201 231
          234 204 202 232 235 205
          202 232 235 205 203 233
          236 206 204 234 237 207
          205 235 238 208 205 235
          238 208 206 236 239 209
          210 240 243 213 211 241
          244 214 211 241 244 214
          212 242 245 215 213 243
          246 216 214 244 247 217
          214 244 247 217 215 245
          248 218 216 246 249 219
          217 247 250 220 217 247
          250 220 218 248 251 221
          219 249 252 222 220 250
          253 223 220 250 253 223
          221 251 254 224 222 252
          255 225 223 253 256 226
          223 253 256 226 224 254
          257 227 225 255 258 228
          226 256 259 229 226 256
          259 229 227 257 260 230
          228 258 261 231 229 259
          262 232 229 259 262 232
          230 260 263 233 231 261
          264 234 232 262 265 235
          232 262 265 235 233 263
          266 236 234 264 267 237
          235 265 268 238 235 265
          268 238 236 266 269 239
          246 270 273 249 247 271
          274 250 247 271 274 250
          248 272 275 251 249 273
          276 252 250 274 277 253
          250 274 277 253 251 275
          278 254 252 276 279 255
          253 277 280 256 253 277
          280 256 254 278 281 257
          255 279 282 258 256 280
          283 259 256 280 283 259
          257 281 284 260 258 282
          285 261 259 283 286 262
          259 283 286 262 260 284
          287 263 261 285 288 264
          262 286 289 265 262 286
          289 265 263 287 290 266
          264 288 291 267 265 289
          292 268 265 289 292 268
          266 290 293 269 294 295
          296 297 298 299 300 301
          298 299 300 301 302 303
          304 305 306 294 297 307
          308 298 301 309 308 298
          301 309 310 302 305 311
          312 306 313 314 315 308
          316 317 315 308 316 317
          318 310 319 320 321 322
          323 324 325 326 327 328
          325 326 327 328 329 330
          331 332 333 334 335 336
          337 338 339 340 337 338
          339 340 341 342 343 344
          345 346 347 348 349 350
          351 352 349 350 351 352
          353 354 355 356 357 358
          359 360 361 362 363 364
          361 362 363 364 365 366
          367 368 267 369 370 237
          268 371 372 238 268 371
          372 238 269 373 374 239
          375 347 376 322 377 351
          378 326 377 351 378 326
          379 355 380 330 381 382
          383 384 385 386 387 388
          385 386 387 388 389 390
          391 392 393 394 395 396
          397 398 399 400 397 398
          399 400 401 402 403 404
          323 322 405 406 327 326
          407 408 327 326 407 408
          331 330 409 410 411 412
          413 414 415 416 417 418
          415 416 417 418 419 420
          421 422 423 424 425 426
          427 428 429 430 427 428
          429 430 431 432 433 434
          435 436 437 438 439 440
          441 442 439 440 441 442
          443 444 445 446 447 358
          357 448 449 362 361 450
          449 362 361 450 451 366
          365 452 54 87 453 394
          56 88 454 398 56 88
          454 398 58 89 455 402
          456 457 295 294 458 459
          299 298 458 459 299 298
          460 461 303 302 457 462
          463 464 459 465 466 467
          459 465 466 467 461 468
          469 470 456 294 312 381
          458 298 315 385 458 298
          315 385 460 302 318 389
          471 472 473 474 475 476
          477 478 475 476 477 478
          479 480 481 482 483 395
          484 485 486 399 487 488
          486 399 487 488 489 403
          490 491 370 492 359 493
          372 494 363 495 372 494
          363 495 374 496 367 497
          237 370 493 207 238 372
          495 208 238 372 495 208
          239 374 497 209 336 335
          498 499 340 339 500 501
          340 339 500 501 344 343
          502 503 463 334 504 505
          466 338 506 507 466 338
          506 507 469 342 508 509
          510 511 512 513 514 515
          516 517 514 515 516 517
          518 519 520 521 522 523
          524 346 525 526 527 350
          525 526 527 350 528 529
          530 354 531 532 464 505
          533 534 467 507 533 534
          467 507 535 536 470 509
          537 147 177 538 539 148
          178 540 539 148 178 540
          541 149 179 542 523 543
          544 471 526 545 546 475
          526 545 546 475 529 547
          548 479 549 360 550 505
          551 364 552 507 551 364
          552 507 553 368 554 509
          555 313 556 557 558 316
          559 560 558 316 559 560
          561 319 562 563 564 565
          566 492 567 568 569 494
          567 568 569 494 570 571
          572 496 573 574 575 485
          576 577 578 488 576 577
          578 488 579 580 581 491
          582 574 511 510 583 577
          515 514 583 577 515 514
          584 580 519 518 87 117
          348 453 88 118 352 454
          88 118 352 454 89 119
          356 455 504 334 544 543
          506 338 546 545 506 338
          546 545 508 342 548 547
          585 586 587 588 589 590
          591 592 589 590 591 592
          593 594 595 596 574 597
          598 511 577 599 600 515
          577 599 600 515 580 601
          602 519 375 322 321 453
          377 326 325 454 377 326
          325 454 379 330 329 455
          557 556 603 604 560 559
          605 606 560 559 605 606
          563 562 607 608 425 609
          512 610 429 611 516 612
          429 611 516 612 433 613
          520 614 207 493 538 177
          208 495 540 178 208 495
          540 178 209 497 542 179
          615 473 616 426 617 477
          618 430 617 477 618 430
          619 481 620 434 297 414
          621 307 301 418 622 309
          301 418 622 309 305 422
          623 311 492 369 624 564
          494 371 625 567 494 371
          625 567 496 373 626 570
          627 333 336 628 629 337
          340 630 629 337 340 630
          631 341 344 632 360 633
          566 550 364 634 569 552
          364 634 569 552 368 635
          572 554 457 456 636 462
          459 458 637 465 459 458
          637 465 461 460 638 468
          357 360 549 543 361 364
          551 545 361 364 551 545
          365 368 553 547 295 464
          532 296 299 467 534 300
          299 467 534 300 303 470
          536 304 639 314 313 555
          640 317 316 558 640 317
          316 558 641 320 319 561
          471 474 524 523 475 478
          527 526 475 478 527 526
          479 482 530 529 426 610
          406 615 430 612 408 617
          430 612 408 617 434 614
          410 619 504 543 549 505
          506 545 551 507 506 545
          551 507 508 547 553 509
          566 565 642 550 569 568
          643 552 569 568 643 552
          572 571 644 554 610 512
          511 598 612 516 515 600
          612 516 515 600 614 520
          519 602 621 414 645 587
          622 418 646 591 622 418
          646 591 623 422 647 595
          405 474 615 406 407 478
          617 408 407 478 617 408
          409 482 619 410 381 384
          636 456 385 388 637 458
          385 388 637 458 389 392
          638 460 648 499 498 636
          649 501 500 637 649 501
          500 637 650 503 502 638
          616 651 423 426 618 652
          427 430 618 652 427 430
          620 653 431 434 324 597
          573 484 328 599 576 487
          328 599 576 487 332 601
          579 490 642 412 411 531
          643 416 415 533 643 416
          415 533 644 420 419 535
          538 358 447 537 540 362
          449 539 540 362 449 539
          542 366 451 541 524 376
          347 346 527 378 351 350
          527 378 351 350 530 380
          355 354 627 651 616 473
          629 652 618 477 629 652
          618 477 631 653 620 481
          405 322 376 474 407 326
          378 478 407 326 378 478
          409 330 380 482 306 307
          556 313 308 309 559 316
          308 309 559 316 310 311
          562 319 345 117 147 537
          349 118 148 539 349 118
          148 539 353 119 149 541
          414 297 296 411 418 301
          300 415 418 301 300 415
          422 305 304 419 621 586
          603 307 622 590 605 309
          622 590 605 309 623 594
          607 311 544 334 333 472
          546 338 337 476 546 338
          337 476 548 342 341 480
          348 347 375 453 352 351
          377 454 352 351 377 454
          356 355 379 455 531 505
          550 642 533 507 552 643
          533 507 552 643 535 509
          554 644 321 324 484 395
          325 328 487 399 325 328
          487 399 329 332 490 403
          598 597 323 406 600 599
          327 408 600 599 327 408
          602 601 331 410 447 448
          522 537 449 450 525 539
          449 450 525 539 451 452
          528 541 513 512 609 654
          517 516 611 655 517 516
          611 655 521 520 613 656
          604 603 586 585 606 605
          590 589 606 605 590 589
          608 607 594 593 463 462
          335 334 466 465 339 338
          466 465 339 338 469 468
          343 342 438 437 314 639
          442 441 317 640 442 441
          317 640 446 445 320 641
          436 383 382 437 440 387
          386 441 440 387 386 441
          444 391 390 445 393 657
          55 54 397 658 57 56
          397 658 57 56 401 659
          59 58 312 314 437 382
          315 317 441 386 315 317
          441 386 318 320 445 390
          346 345 537 522 350 349
          539 525 350 349 539 525
          354 353 541 528 498 335
          462 636 500 339 465 637
          500 339 465 637 502 343
          468 638 369 267 291 624
          371 268 292 625 371 268
          292 625 373 269 293 626
          358 538 493 359 362 540
          495 363 362 540 495 363
          366 542 497 367 394 453
          321 395 398 454 325 399
          398 454 325 399 402 455
          329 403 587 645 660 588
          591 646 661 592 591 646
          661 592 595 647 662 596
          448 543 523 522 450 545
          526 525 450 545 526 525
          452 547 529 528 472 333
          627 473 476 337 629 477
          476 337 629 477 480 341
          631 481 436 435 663 383
          440 439 664 387 440 439
          664 387 444 443 665 391
          411 296 532 531 415 300
          534 533 415 300 534 533
          419 304 536 535 609 425
          424 654 611 429 428 655
          611 429 428 655 613 433
          432 656 492 566 633 359
          494 569 634 363 494 569
          634 363 496 572 635 367
          393 394 54 397 398 56
          397 398 56 401 402 58
          413 414 645 417 418 646
          417 418 646 421 422 647
          628 627 651 630 629 652
          630 629 652 632 631 653
          117 348 345 118 352 349
          118 352 349 119 356 353
          565 642 412 568 643 416
          568 643 416 571 644 420
          457 295 464 459 299 467
          459 299 467 461 303 470
          463 464 505 466 467 507
          466 467 507 469 470 509
          499 336 628 501 340 630
          501 340 630 503 344 632
          384 636 648 388 637 649
          388 637 649 392 638 650
          492 369 370 494 371 372
          494 371 372 496 373 374
          473 474 615 477 478 617
          477 478 617 481 482 619
          381 382 312 385 386 315
          385 386 315 389 390 318
          471 472 544 475 476 546
          475 476 546 479 480 548
          582 574 575 583 577 578
          583 577 578 584 580 581
          312 306 294 315 308 298
          315 308 298 318 310 302
          524 376 474 527 378 478
          527 378 478 530 380 482
          396 393 657 400 397 658
          400 397 658 404 401 659
          483 395 396 486 399 400
          486 399 400 489 403 404
          357 448 543 361 450 545
          361 450 545 365 452 547
          485 573 484 488 576 487
          488 576 487 491 579 490
          621 586 587 622 590 591
          622 590 591 623 594 595
          324 597 323 328 599 327
          328 599 327 332 601 331
          603 307 556 605 309 559
          605 309 559 607 311 562
          610 425 426 612 429 430
          612 429 430 614 433 434
          360 633 359 364 634 363
          364 634 363 368 635 367
          598 610 406 600 612 408
          600 612 408 602 614 410
          574 597 573 577 599 576
          577 599 576 580 601 579
          672 276 273 666 673 277
          274 667 673 277 274 667
          674 278 275 668 675 672
          666 669 676 673 667 670
          676 673 667 670 677 674
          668 671 720 675 669 721
          722 676 670 723 722 676
          670 723 724 677 671 725
          678 279 276 672 679 280
          277 673 679 280 277 673
          680 281 278 674 726 678
          672 675 727 679 673 676
          727 679 673 676 728 680
          674 677 729 726 675 720
          730 727 676 722 730 727
          676 722 731 728 677 724
          681 282 279 678 682 283
          280 679 682 283 280 679
          683 284 281 680 732 681
          678 726 733 682 679 727
          733 682 679 727 734 683
          680 728 684 285 282 681
          685 286 283 682 685 286
          283 682 686 287 284 683
          735 684 681 732 736 685
          682 733 736 685 682 733
          737 686 683 734 687 288
          285 684 688 289 286 685
          688 289 286 685 689 290
          287 686 738 687 684 735
          739 688 685 736 739 688
          685 736 740 689 686 737
          690 291 288 687 691 292
          289 688 691 292 289 688
          692 293 290 689 741 690
          687 738 742 691 688 739
          742 691 688 739 743 692
          689 740 693 694 564 624
          695 696 567 625 695 696
          567 625 697 698 570 626
          699 700 701 702 703 704
          705 706 703 704 705 706
          707 708 709 710 702 701
          412 565 706 705 416 568
          706 705 416 568 710 709
          420 571 413 701 711 645
          417 705 712 646 417 705
          712 646 421 709 713 647
          690 741 744 714 691 742
          745 715 691 742 745 715
          692 743 746 716 714 699
          702 694 715 703 706 696
          715 703 706 696 716 707
          710 698 694 702 565 564
          696 706 568 567 696 706
          568 567 698 710 571 570
          747 717 748 749 750 718
          751 752 750 718 751 752
          753 719 754 755 699 744
          748 700 703 745 751 704
          703 745 751 704 707 746
          754 708 711 701 700 717
          712 705 704 718 712 705
          704 718 713 709 708 719
          714 694 693 690 715 696
          695 691 715 696 695 691
          716 698 697 692 291 690
          693 624 292 691 695 625
          292 691 695 625 293 692
          697 626 711 717 660 645
          712 718 661 646 712 718
          661 646 713 719 662 647
          714 699 744 715 703 745
          715 703 745 716 707 746
          748 700 717 751 704 718
          751 704 718 754 708 719
          413 701 412 417 705 416
          417 705 416 421 709 420
        </DataArray>
        <DataArray type="Int64" Name="offsets" format="ascii" RangeMin="8" RangeMax="3624">
          8 16 24 32 40 48
          56 64 72 80 88 96
          104 112 120 128 136 144
          152 160 168 176 184 192
          200 208 216 224 232 240
          248 256 264 272 280 288
          296 304 312 320 328 336
          344 352 360 368 376 384
          392 400 408 416 424 432
          440 448 456 464 472 480
          488 496 504 512 520 528
          536 544 552 560 568 576
          584 592 600 608 616 624
          632 640 648 656 664 672
          680 688 696 704 712 720
          728 736 744 752 760 768
          776 784 792 800 808 816
          824 832 840 848 856 864
          872 880 888 896 904 912
          920 928 936 944 952 960
          968 976 984 992 1000 1008
          1016 1024 1032 1040 1048 1056
          1064 1072 1080 1088 1096 1104
          1112 1120 1128 1136 1144 1152
          1160 1168 1176 1184 1192 1200
          1208 1216 1224 1232 1240 1248
          1256 1264 1272 1280 1288 1296
          1304 1312 1320 1328 1336 1344
          1352 1360 1368 1376 1384 1392
          1400 1408 1416 1424 1432 1440
          1448 1456 1464 1472 1480 1488
          1496 1504 1512 1520 1528 1536
          1544 1552 1560 1568 1576 1584
          1592 1600 1608 1616 1624 1632
          1640 1648 1656 1664 1672 1680
          1688 1696 1704 1712 1720 1728
          1736 1744 1752 1760 1768 1776
          1784 1792 1800 1808 1816 1824
          1832 1840 1848 1856 1864 1872
          1880 1888 1896 1904 1912 1920
          1928 1936 1944 1952 1960 1968
          1976 1984 1992 2000 2008 2016
          2024 2032 2040 2048 2056 2064
          2072 2080 2088 2096 2104 2112
          2120 2128 2136 2144 2152 2160
          2168 2176 2184 2192 2200 2208
          2216 2224 2232 2240 2248 2256
          2264 2272 2280 2288 2296 2304
          2312 2320 2328 2336 2344 2352
          2360 2368 2376 2384 2392 2400
          2408 2416 2424 2432 2440 2448
          2456 2464 2472 2480 2488 2496
          2504 2512 2520 2528 2536 2544
          2552 2560 2568 2576 2584 2592
          2600 2608 2616 2624 2632 2640
          2648 2656 2664 2672 2680 2688
          2696 2704 2712 2720 2728 2736
          2744 2752 2760 2768 2776 2784
          2792 2800 2808 2816 2824 2832
          2838 2844 2850 2856 2862 2868
          2874 2880 2886 2892 2898 2904
          2910 2916 2922 2928 2934 2940
          2946 2952 2958 2964 2970 2976
          2982 2988 2994 3000 3006 3012
          3018 3024 3030 3036 3042 3048
          3054 3060 3066 3072 3078 3084
          3090 3096 3102 3108 3114 3120
          3126 3132 3138 3144 3150 3156
          3164 3172 3180 3188 3196 3204
          3212 3220 3228 3236 3244 3252
          3260 3268 3276 3284 3292 3300
          3308 3316 3324 3332 3340 3348
          3356 3364 3372 3380 3388 3396
          3404 3412 3420 3428 3436 3444
          3452 3460 3468 3476 3484 3492
          3500 3508 3516 3524 3532 3540
          3548 3556 3564 3572 3580 3588
          3594 3600 3606 3612 3618 3624
        </DataArray>
        <DataArray type="UInt8" Name="types" format="ascii" RangeMin="12" RangeMax="13">
          12 12 12 12 12 12
          12 12 12 12 12 12
          12 12 12 12 12 12
          12 12 12 12 12 12
          12 12 12 12 12 12
          12 12 12 12 12 12
          12 12 12 12 12 12
          12 12 12 12 12 12
          12 12 12 12 12 12
          12 12 12 12 12 12
          12 12 12 12 12 12
          12 12 12 12 12 12
          12 12 12 12 12 12
          12 12 12 12 12 12
          12 12 12 12 12 12
          12 12 12 12 12 12
          12 12 12 12 12 12
          12 12 12 12 12 12
          12 12 12 12 12 12
          12 12 12 12 12 12
          12 12 12 12 12 12
          12 12 12 12 12 12
          12 12 12 12 12 12
          12 12 12 12 12 12
          12 12 12 12 12 12
          12 12 12 12 12 12
          12 12 12 12 12 12
          12 12 12 12 12 12
          12 12 12 12 12 12
          12 12 12 12 12 12
          12 12 12 12 12 12
          12 12 12 12 12 12
          12 12 12 12 12 12
          12 12 12 12 12 12
          12 12 12 12 12 12
          12 12 12 12 12 12
          12 12 12 12 12 12
          12 12 12 12 12 12
          12 12 12 12 12 12
          12 12 12 12 12 12
          12 12 12 12 12 12
          12 12 12 12 12 12
          12 12 12 12 12 12
          12 12 12 12 12 12
          12 12 12 12 12 12
          12 12 12 12 12 12
          12 12 12 12 12 12
          12 12 12 12 12 12
          12 12 12 12 12 12
          12 12 12 12 12 12
          12 12 12 12 12 12
          12 12 12 12 12 12
          12 12 12 12 12 12
          12 12 12 12 12 12
          12 12 12 12 12 12
          12 12 12 12 12 12
          12 12 12 12 12 12
          12 12 12 12 12 12
          12 12 12 12 12 12
          13 13 13 13 13 13
          13 13 13 13 13 13
          13 13 13 13 13 13
          13 13 13 13 13 13
          13 13 13 13 13 13
          13 13 13 13 13 13
          13 13 13 13 13 13
          13 13 13 13 13 13
          13 13 13 13 13 13
          12 12 12 12 12 12
          12 12 12 12 12 12
          12 12 12 12 12 12
          12 12 12 12 12 12
          12 12 12 12 12 12
          12 12 12 12 12 12
          12 12 12 12 12 12
          12 12 12 12 12 12
          12 12 12 12 12 12
          13 13 13 13 13 13
        </DataArray>
      </Cells>
    </Piece>
  </UnstructuredGrid>
</VTKFile>
