<?xml version="1.0"?>
<VTKFile type="UnstructuredGrid" version="0.1" byte_order="LittleEndian" header_type="UInt32" compressor="vtkZLibDataCompressor">
  <UnstructuredGrid>
    <Piece NumberOfPoints="795" NumberOfCells="454">
      <PointData>
        <DataArray type="Int32" Name="libmesh_node_id" format="ascii" RangeMin="2220" RangeMax="4979">
          2220 2221 2222 2223 2224 2225
          2226 2227 2228 2229 2230 2231
          2388 2389 2390 2391 2392 2393
          2394 2395 2396 2397 2398 2399
          2402 2405 2408 2409 2410 2411
          2463 2464 2465 2466 2467 2468
          2469 2470 2471 2472 2473 2474
          2475 2476 2477 2478 2479 2480
          2499 2500 2501 2502 2503 2504
          2505 2506 2507 2508 2509 2510
          2511 2512 2513 2514 2515 2516
          2517 2518 2519 2520 2521 2522
          2613 2614 2616 2617 2618 2620
          2621 2622 2624 2652 2653 2654
          2655 2656 2657 2658 2659 2660
          2661 2662 2663 2697 2701 2705
          2721 2722 2723 2724 2725 2726
          2736 2737 2738 2739 2740 2741
          2742 2743 2744 2745 2746 2747
          2748 2749 2750 2751 2752 2753
          2754 2755 2756 2757 2758 2759
          2760 2761 2762 2763 2764 2765
          2778 2779 2780 2781 2782 2783
          2784 2785 2786 2862 2863 2864
          2865 2866 2867 2868 2869 2870
          2871 2872 2873 2922 2923 2924
          2925 2926 2927 2940 2941 2942
          2943 2944 2945 2946 2947 2948
          2958 2959 2960 2961 2962 2963
          2964 2965 2966 2967 2968 2969
          2992 2993 2996 2997 3000 3001
          3018 3019 3020 3021 3022 3023
          3036 3039 3040 3043 3044 3047
          3060 3061 3062 3063 3064 3065
          3066 3067 3068 3069 3070 3071
          3072 3073 3074 3075 3076 3077
          3180 3181 3182 3183 3184 3185
          3204 3205 3206 3207 3208 3209
          3240 3242 3244 3258 3260 3262
          3273 3274 3275 3276 3277 3278
          3279 3280 3281 3282 3283 3284
          3285 3286 3287 3288 3289 3290
          3291 3292 3293 3294 3295 3296
          3297 3298 3299 3348 3349 3350
          3351 3352 3353 3354 3355 3356
          3357 3358 3359 3360 3361 3362
          3363 3364 3365 3369 3370 3371
          3372 3373 3374 3399 3400 3401
          3402 3403 3404 3405 3406 3407
          3408 3409 3410 3411 3412 3413
          3414 3415 3416 3417 3418 3419
          3420 3421 3422 3462 3463 3464
          3486 3487 3488 3489 3490 3491
          3507 3508 3509 3510 3511 3512
          3527 3530 3533 3534 3535 3536
          3555 3556 3557 3558 3559 3560
          3561 3562 3563 3579 3580 3581
          3594 3595 3596 3597 3598 3599
          3603 3604 3605 3606 3607 3608
          3621 3622 3623 3624 3625 3626
          3627 3628 3629 3642 3643 3644
          3645 3646 3647 3648 3649 3650
          3651 3652 3653 3669 3670 3671
          3672 3673 3674 3675 3676 3677
          3678 3679 3680 3681 3682 3683
          3750 3751 3752 3753 3754 3755
          3756 3757 3758 3759 3760 3761
          3780 3781 3782 3783 3784 3785
          3909 3910 3911 3912 3913 3914
          3915 3916 3917 3918 3919 3920
          3951 3952 3953 3966 3967 3968
          3975 3976 3977 3978 3979 3980
          3981 3982 3983 3984 3985 3986
          3987 3988 3989 3990 3991 3992
          4008 4009 4010 4011 4012 4013
          4014 4015 4016 4017 4018 4019
          4020 4021 4022 4023 4024 4025
          4026 4027 4028 4029 4030 4031
          4041 4042 4043 4044 4045 4046
          4047 4048 4049 4050 4051 4052
          4068 4069 4070 4080 4081 4082
          4092 4093 4094 4095 4096 4097
          4098 4099 4100 4101 4102 4103
          4122 4123 4124 4125 4126 4127
          4146 4147 4148 4149 4150 4151
          4152 4153 4154 4155 4156 4157
          4158 4159 4160 4173 4174 4175
          4176 4177 4178 4179 4180 4181
          4182 4183 4184 4188 4189 4190
          4194 4195 4196 4197 4198 4199
          4200 4201 4202 4203 4204 4205
          4218 4219 4220 4221 4222 4223
          4230 4231 4232 4266 4267 4268
          4281 4282 4283 4299 4300 4301
          4305 4306 4307 4308 4309 4310
          4311 4312 4313 4335 4336 4337
          4341 4342 4343 4395 4396 4397
          4455 4456 4457 4473 4474 4475
          4476 4477 4478 4515 4516 4517
          4578 4579 4580 4581 4582 4583
          4614 4615 4616 4704 4705 4706
          4707 4708 4709 4710 4711 4712
          4713 4714 4715 4737 4738 4739
          4740 4741 4742 4821 4822 4823
          4842 4843 4844 4845 4846 4847
          4854 4855 4856 4857 4858 4859
          4860 4861 4862 4863 4864 4865
          4866 4867 4868 4875 4876 4877
          4878 4879 4880 4908 4909 4910
          4914 4915 4916 4932 4933 4934
          4941 4942 4943 4977 4978 4979
          2400 2401 2403 2404 2406 2407
          2615 2619 2623 2698 2699 2700
          2702 2703 2704 2706 2707 2708
          2991 2994 2995 2998 2999 3002
          2331 2330 2335 2334 2339 2338
          3241 3243 3245 3259 3186 3188
          3261 3189 3191 3263 3192 3194
          3448 3450 3452 3525 3526 3528
          3529 3531 3532 3537 3538 3539
          3540 3541 3542 3654 3657 3660
          2328 2332 2336 3852 3853 3854
          3993 3994 3995 4338 4339 4340
          3513 3514 3515 4458 4321 4459
          4324 4460 4327 4584 4585 4586
          4587 4588 4589 4791 4792 4793
          4794 4795 4796 4797 4798 4799
          4431 4432 4433 3495 3187 3499
          3190 3503 3193 3954 3957 3958
          3961 3962 3965 4899 4900 4901
          4968 4969 4970 4911 4912 4913
          3498 3502 3506 4902 4903 4904
          4434 4436 4438
        </DataArray>
        <DataArray type="Float64" Name="resid_x" format="ascii" RangeMin="-0.032536829211379015" RangeMax="0.015519323387424677">
          0.0009606280716196736 0.0009764196582615625 0.0007575668008650283 0.00035884297487420724 0.0014607842692466733 0.000868319495753056
          -0.0008778895287591126 -0.0020952477516598123 -0.004765598273033689 -0.0034804330580602283 -0.005028066621410865 -0.00608471207513972
          0.00019246146225349037 -0.003384502125068245 -0.003328925549713979 -0.0008049225528745652 -0.0013293386347710268 -0.011797914501780582
          -0.009017321099835662 -0.00863757274926602 -0.014837424359275708 -0.01704914966934723 -0.015212570323351216 -0.018111490158157828
          -0.019110881355990372 -0.028302673274669843 -0.019090883528503966 -0.01993487757518242 -0.025157332867241422 -0.016364875654311106
          -0.001758954905429544 -0.0041802062681221 -0.0008387506239184717 -0.005106920589057096 -0.0031665903384779925 -0.005032891130447137
          -0.00033151815529519624 0.001223717610778774 0.0010318469314780643 0.0007168131464800886 -0.0016430023851561337 -0.0008326916593728306
          -0.003514353995965891 -0.003590497727829378 -0.010426110954959045 -0.012821007112397531 -0.01055031354254421 -0.007328439754093807
          -0.0005898382336821939 0.00012738037132997704 -0.000573154818019006 -0.0001840570722295709 -0.0029084330927338087 -0.0016081708490123248
          -0.004535181374483166 -0.003219760076124345 -0.008311450355028782 -0.0075885938190758395 -0.008003973586472313 -0.007478065166286463
          0.00020415948036545117 0.0010683020010455735 0.0008680217798007206 0.0005984634902649333 -0.0005635432283637165 -0.0008254199807726792
          -0.00009361144065600513 -0.0017333452841574726 -0.005496455806939249 -0.006805568287958863 -0.006234165350796239 -0.0065840487502910605
          -0.002271512718347246 -0.007361432012199742 0.00037139618498382987 -0.00641486282475956 -0.015743838672532373 -0.009940372482446058
          -0.014707693476744943 -0.014804983211272216 -0.020706944811804462 -0.0014469988955898572 0.0005157205481305382 0.00013504039075468155
          0.0014772092581933904 -0.0043706402423868695 -0.003470001409086265 -0.002374174230670989 -0.004742501749695371 -0.017086267270224553
          -0.012017719321762321 -0.019249310959638 -0.02065622052430971 -0.019737096616818217 -0.02991958333957001 -0.021883290201866856
          -0.00259073274734134 -0.001701601325510893 -0.0020441228737397843 -0.0005711629659881368 -0.004965402435784361 -0.004418471158933457
          -0.000021197582634968626 -0.001145788025343819 0.0006985162537560541 0.00008958350259646863 -0.00007274806569856906 0.00010049781280407899
          -0.004058037331784448 -0.0043663110473035616 -0.005198662288485423 -0.0001052190896431715 0.0006554311645921018 0.0007646016845557213
          0.00098002416431614 -0.0015894369438044231 -0.0009723072496718999 -0.002220765688893067 -0.0020093370208702777 -0.0075008478615692376
          -0.008925339596205006 -0.011147557883578685 -0.00967291135441184 -0.0018746933354476525 -0.004107248793011831 -0.001607647868420159
          -0.003067058238293896 -0.003041663690640739 -0.004370489962517432 -0.0077535565809716545 -0.0057897275408791415 -0.008826387597482999
          -0.00503815843470079 -0.004283577473609856 -0.0024570924289690765 -0.003673612559010664 -0.0020568145984771746 -0.0011030920244152753
          -0.004020042174706084 -0.0042886805682562645 -0.007813242259775421 -0.005204557972494861 -0.001893221561430014 0.0003766188598573056
          -0.005240817248753471 -0.0034978939165344336 -0.0022869838057975045 -0.00009422547471621412 -0.0044508302212771245 -0.012472884425037023
          -0.007337709479105392 -0.007461107428418046 -0.014646545384760845 -0.0010552878255856157 -0.0027514849304992595 -0.0018865186579732907
          -0.007005176392596013 -0.016615976918081365 -0.01921371999231436 -0.0018645896094735548 -0.0014865803346948425 -0.007934102173448032
          -0.002248892249099299 -0.003818076149380012 -0.004863286792306631 -0.01213433407538922 -0.010182459174095548 -0.0082424612213714
          -0.0007732771390558391 0.000047178235347722364 -0.0035232496007244762 -0.007654581416751682 -0.0008174666742974956 -0.0012366598157242947
          -0.005054506940840753 -0.005666625487521948 -0.003534070148221602 -0.005396008170725608 -0.00884651457156238 -0.00913816329421735
          -0.0006278961704797581 -0.000744299977678331 -0.0016085962776575258 -0.0017245856740277787 -0.000986468648611627 -0.0011584358868033107
          -0.001166681098737854 -0.0024987320361882226 0.000028878145245769815 -0.0019533032465659517 -0.0049183020751844 -0.0039320472606592105
          -0.009937196921232072 -0.00793418311577554 -0.011254272326358006 -0.00943150723495556 -0.008225790385118614 -0.007639009550270082
          -0.004984909701408746 -0.004621466382305428 -0.005050662287336749 -0.0029345293691591667 -0.009875226208372112 -0.009796253210278216
          -0.005838922504086241 -0.0012756481983959844 -0.0036199523658000388 -0.003342232786915922 -0.00155344813335212 0.0006502329882240865
          -0.0034691737239134213 -0.0012471751239298001 -0.0025662543762177137 -0.005017996622090237 -0.016517235357097704 -0.017987921497035764
          -0.008146628444217208 -0.011309509627175807 -0.005269532033942814 -0.02066009541092395 -0.014618528204484393 -0.020937110986200658
          -0.007991975191239398 -0.011819181451836691 -0.0008941770210586508 -0.021836342414784937 -0.012523192984220888 -0.020917536440983042
          -0.006849181372002633 -0.0046745388331483895 -0.003099236708385078 -0.007655737355830361 -0.016217578121739074 -0.012143465932139108
          -0.014967890066547085 -0.010325576701974093 -0.013040470424440898 -0.005686170835737414 -0.01197122323192179 -0.01975988211126367
          -0.009164404344265797 -0.001389286967242498 -0.00963115899064082 -0.009027290992181136 -0.0068833828007983655 -0.0048989894525615085
          -0.0046739414698993564 -0.00229352741551736 -0.005610614330063601 -0.0031905047074500814 -0.0005194051958623547 -0.0037423950925701277
          -0.006004711699025944 -0.007395225777869108 -0.011292073795827307 -0.00798567813417761 -0.0062115899832786425 -0.005426779723313568
          -0.0031502787397847953 -0.01012004551833745 -0.01255174775535206 -0.007584925220761818 0.00020858297251002966 -0.004316666549407877
          0.0005836380909345351 0.0005244183083847886 -0.001989650227131712 -0.002464837021392441 0.0006101443382027227 0.0002119660317898564
          -0.005887033214108328 -0.0032871197507988725 -0.004762506103976882 -0.007751883795412695 -0.01114096348734428 -0.008237653980396331
          -0.012856730811652284 -0.0046618017326691685 -0.012447274633966998 -0.013171109788264523 -0.001375074249092556 -0.006057372136461403
          -0.02544206245317593 -0.029070169050775085 -0.0172292206501945 -0.005515901120729083 -0.001777908096231684 -0.002050313076573218
          -0.0006688615599266257 -0.0041027362769563425 -0.0009483608722868908 -0.0056878974672063265 -0.0069938054834803864 -0.0021865145498001226
          -0.00031601951304871534 -0.0036280808536659492 -0.0035968191636381874 -0.008045759188331836 -0.008539570042208844 -0.0025403054588890583
          -0.0015040398649261988 -0.011469106810858776 -0.0095696049849332 -0.007528799278198939 -0.0059450580672901765 -0.003849994927010769
          -0.003495902022407016 -0.005692302485675427 -0.005782048026758524 -0.0063730895996583214 -0.002079248711955639 -0.010679745875927349
          -0.007944685574547528 -0.006193298113875478 -0.0018791515420479854 0.00009323570633612555 -0.0035764268710281044 -0.00032437932403617253
          -0.006036213007378111 -0.0032513255238013627 -0.0018750803851543818 -0.0005711142075419673 -0.005455915535582279 -0.00310550340349236
          -0.01372553908249774 -0.023136101062689374 -0.01981797941389818 -0.01268880840603348 -0.003393928428653936 -0.014486215851539974
          -0.00626539335939591 -0.0022200590529015685 -0.002099357505511268 -0.0004722095789988501 -0.004960787602859229 -0.0014657741926678014
          -0.01204676941328131 -0.0010648201073930608 -0.01223543817984396 -0.01133306867152406 -0.0048979789735756896 -0.006390405390757969
          -0.023863486717836224 -0.02635607573274701 -0.002210814949920703 -0.00410347717871673 -0.015427627401766841 -0.013003592193088664
          -0.010160587054426351 -0.005291355392010644 -0.0019994077980314273 -0.0021146038960342395 -0.009609794246537628 -0.011920350374220234
          -0.005442033627246268 -0.0065604276692967645 -0.003492958765446197 -0.0014911011835847532 -0.0035590893734767093 -0.0007570883596104139
          -0.003457363299800953 -0.004425691077805105 -0.0026881352877117237 -0.0032135521538299017 -0.0003064048041374612 -0.003208721979902407
          -0.007721270586583451 -0.002989523471325306 -0.0018851470350012 -0.003196760414517108 -0.010991371182710985 -0.013818351508215088
          -0.00907782230921983 -0.011967537915975157 -0.01989368635357458 -0.0008085763393026468 -0.0009454415467482491 -0.0035554465884466424
          0.0007991496278894061 -0.0039295106040544425 -0.0020719397274548967 -0.011721805735845692 -0.0034694559969228322 -0.014235824666479324
          -0.016149193082174662 -0.017205560505455963 -0.01571702829538424 -0.02231137627774782 -0.006726488625037774 -0.016808471897347133
          -0.003922516997744818 -0.0063145372803079525 -0.0015058785045596323 -0.004342350452954058 -0.013942195051285244 -0.014281035816415155
          -0.008191841210353878 -0.010953638741873384 -0.012364357228629608 -0.02257801064564191 -0.015981365009205106 -0.014739899545039847
          -0.003624820321840083 -0.00752808239583147 -0.0009119387786276079 -0.0037158183406299783 -0.012216256215868082 -0.01619683385626769
          -0.008659917246948368 -0.014038049193150215 -0.002662905473886923 -0.00825316912259133 -0.014394672306478284 -0.015584377046623743
          -0.007112049114421204 -0.005142261212461197 -0.00236441445472213 -0.0025177448424233972 -0.014630480909008092 -0.011423309340918841
          -0.01853181115518332 -0.0077698831897947684 -0.012606988431755894 -0.015045532990686006 -0.004822287033942274 -0.014348291432672688
          0.0008935520130703978 -0.003070488979789232 -0.007028908226497155 -0.005352459066491733 0.0025083245514085917 -0.002989148182536816
          -0.007643503712549737 -0.0034430417518063194 -0.005798939337165354 -0.004061771186045782 -0.011304518070082814 -0.010456004649761041
          -0.017739859688071125 -0.007595763116281518 -0.027616624085385677 -0.0003631205212624167 -0.020590325041093926 -0.009494844218327358
          -0.008388867465220606 -0.0072266618464862376 -0.0006838039010306218 -0.004413358339311557 -0.018401209248601447 -0.015993087850016963
          -0.0012982670392247542 -0.009450402687911641 -0.012392084848348084 -0.013791386067509848 -0.005408518089838665 -0.007857527670813269
          -0.01595354265974258 -0.0091757333586866 -0.011202446648284514 -0.01881937372367304 -0.014691407704537696 -0.01380068803677581
          -0.013853565193794992 -0.009539120716696381 -0.010041134689127595 -0.017211310583641115 -0.008486016625609771 -0.02262163111209592
          -0.011145365197518409 -0.010138107766003768 -0.0072668098026476 -0.004849988656689841 -0.007802909290503202 -0.00551292834255418
          -0.014752789896434138 -0.010801112614563735 -0.00491431060999048 -0.00447487015422432 -0.015699477385787475 -0.011546036514786806
          -0.010619930724606874 -0.0021190545644600434 -0.011150418043849086 -0.023708865163874826 -0.0026162792889028452 -0.008337215866236036
          -0.01023107343842522 -0.006490564926593834 -0.002202864112291092 -0.005080720074399636 -0.009550066541695656 -0.0066576219266849535
          -0.012529224983484966 -0.008564897413045891 -0.005825382816601277 -0.010788651798861792 -0.007686667763985966 -0.007918276300351579
          -0.005778195671996222 -0.0051192954283063585 -0.00892112868991557 -0.008406078268829553 -0.006722071779306837 -0.0063795558717441025
          -0.004309743749386641 -0.0044336069632864294 -0.0023141654905778353 -0.0064359182345130606 -0.002627099526891108 -0.0038570127669981247
          -0.006065817621576208 -0.006548695339810173 -0.0042262866270199595 -0.008994358847329131 -0.007207710875380968 -0.005801886044337401
          -0.004438728994908381 -0.008196119584716222 -0.008082604553346862 -0.011055284974729851 -0.00850309867040755 -0.006567200680438923
          -0.0056186846397938695 -0.010470355890793037 -0.010287390227456061 -0.007805797446556184 -0.0024453154880159644 -0.0028081045650427683
          -0.000820596630943804 -0.00645352352939188 -0.0021934785572099713 -0.012528345597913493 -0.012537020389567388 -0.01254955584430828
          -0.000288354523055645 -0.00007947944432551424 0.007973944956440882 0.007909053068784644 -0.000007938701940712889 -0.0005708621572217965
          0.01520731793822172 0.015519323387424677 -0.0015460069986463765 -0.001786999906258302 0.006619282800128801 0.006720359006459731
          0.006852942905489989 -0.0010146115432911884 0.014848014434129198 -0.0005683968923655414 0.007017059743800402 -0.0009506117394888491
          -0.004545844245823716 -0.0006277271417314267 -0.0030932506252154823 -0.0000732033778962915 0.0026607840975962915 -0.0012254904793804755
          -0.004751092183497008 0.0005361609073473161 -0.007670211189038767 -0.014390610085833977 -0.010785429459723161 -0.015749255793944705
          -0.010291528270901296 -0.0031656187312565365 -0.009749181966591802 -0.004588138433669009 -0.005416600428948204 -0.0006094563441116918
          -0.003225115825662872 -0.005403018968926254 -0.005761121413492276 -0.007204701386486434 -0.001140466404593532 -0.005559406448676363
          -0.01395396550541772 -0.01191383113716249 -0.002666622159952503 -0.018186533681403105 -0.023574031762542802 -0.01784527831933147
          -0.018491154883612637 -0.011613866323159527 -0.010418623590226161 -0.022853729094714836 -0.018257385297147266 -0.0291096705738898
          -0.022550339726307378 -0.02215573744821242 -0.0190374050762232 -0.02521180571887971 -0.006946846870377055 -0.011152504432791588
          -0.011300331199432634 -0.005837215752608316 -0.011463637714989261 -0.007255959212679741 -0.0026422671279213716 -0.003323685417364608
          -0.010533309983109085 0.0017905870492498366 -0.005135645322450699 -0.01564410263529048 -0.016276414306185316 -0.007498998912604193
          -0.018431270503995734 -0.017696634149358736 -0.006673582484211238 -0.0016765293922018643 0.006226863357507106 -0.00197792822503029
          0.013300949371690685 -0.0003925555930006652 0.006790640989766672 -0.0026407097424856474 0.0015909195711429902 -0.00039836164571616095
          0.0049792731254472145 -0.004214670785095187 0.0007534201601711032 -0.00365476699717604 -0.0013130056192585116 -0.002441081022051428
          -0.006740255194304545 -0.007591373980003091 -0.00567549697503722 -0.018018263567602943 -0.029631341760749663 -0.016527579527143565
          -0.0014951894888914907 -0.0019118213703128717 -0.0017591984409213168 -0.0007023568408879299 -0.00035273812228453494 -0.0007420318804802761
          0.004947875848698491 -0.0013066675233393 0.006036198947560578 0.010035548641113667 -0.0010326322365354912 0.0114741160701195
          0.003718861689770314 -0.002299264180403604 0.0037877073894154734 0.006270302492019653 -0.0021311435119164557 0.013700189151161446
          -0.0010058916961721565 0.005972994875758086 -0.0016272025658397027 -0.003951193770163286 -0.0012635456690226476 -0.001362933935677102
          -0.0034634184715693905 -0.0015792803060845628 -0.0033114863925280957 0.0019483164572715594 0.007534784591978649 0.0027246459200833684
          -0.02291359035751972 -0.026762269993896748 -0.016613000163936853 -0.008544939351416758 -0.0009058621625062102 -0.004256440302702114
          -0.01801246772381848 -0.003197476524002596 -0.02577980606917052 -0.00513969145180404 -0.018081042115282386 -0.0089094374736014
          -0.013062803796669797 -0.016041640648639444 -0.0225922061669257 -0.009427729318751688 -0.011020705181666202 -0.004341698966976892
          -0.01814575512129224 -0.007036647107003802 -0.0008777113836710981 -0.0165956650827237 -0.014071133495175303 -0.008094969481136083
          -0.0008221467866640353 -0.00018921832470653044 0.0005734494361959719 -0.0001548058428006982 0.00008523654877734543 0.0010398251808618753
          -0.010792557547299353 -0.0008099094251186045 -0.028514245595986143 -0.005519553931359944 -0.022320186166096656 -0.014861157210537046
          -0.003602934727876317 -0.008010243855842702 -0.002153162655239349 -0.019808244958652743 -0.016518920969699202 -0.01923083468210507
          -0.018511958067934486 -0.010816405611880242 -0.032536829211379015 -0.011193460090101581 -0.01921888714900355 -0.01645629393261494
          -0.010495786156458298 -0.007390596155928186 -0.015402174622817455 -0.010474061955985547 -0.016169315123036654 -0.02366376678358506
          -0.0260161943225512 -0.019397594973778354 -0.01835608205303174 -0.01914997355032 -0.017020397978225965 -0.019886579708186858
          -0.01130616587351696 -0.010712263326705163 -0.009085208392039412 -0.0078086981012193135 -0.017291134438584876 -0.01650082070289738
          -0.007633961756488894 -0.01769918810053639 -0.016050713752648882 -0.004224156191527939 -0.007422323614616033 -0.0029479033627604068
          -0.011695746613116675 -0.011990528298160719 -0.012834737237922944 -0.004979169257658178 -0.006069357211861082 -0.012030271738187714
          -0.01392317620968786 -0.00829700139222922 -0.012868573710099085 -0.01408038694492042 -0.011330705345457659 -0.02808922053219476
          -0.02495663401871795 -0.022217725539816158 -0.021817270756779195 -0.006202431833836286 -0.004635011490361052 -0.009859396342505988
          -0.008500855955986708 -0.002650844885646819 -0.0024308939567028176 -0.007099287418869338 -0.006403293259925391 -0.00351557083111409
          0.006290185158535522 -0.001082823582249759 0.011693461020110263 -0.0026441122769327308 0.005559801973039846 -0.0011083252356520745
          -0.012585427309501629 -0.012123293576523864 -0.008991967201631201 -0.009859662190853768 -0.02057046181360178 -0.02170143731619234
          -0.023960823101203843 -0.014519740725663866 -0.012679635526671618 -0.010389573816947717 -0.013864013382324458 -0.02267003199784412
          -0.0199312997062151 -0.015716714592992176 -0.010698513179971947 -0.001694745256067165 -0.0017410970855173957 -0.00019403389265448823
          -0.016897790184759565 -0.023156441412743867 -0.015130532859858548 -0.012793438240596089 -0.013331652978770592 -0.007867245069681061
          -0.006732670790743356 -0.01907370870477365 -0.013939619733783104 -0.020203196239176435 -0.026825146746141115 -0.0174652915363378
          -0.012583800693038327 -0.025641915088176148 -0.01935268653766542
        </DataArray>
        <DataArray type="Float64" Name="resid_y" format="ascii" RangeMin="-0.005341611467565177" RangeMax="0.020831521099763717">
          0.000049916685766246416 0.00007036199565481349 -0.00012432814087993613 0.0001697226160389878 -0.00004756414966165107 -0.0003076994659656721
          -0.000011394720873088293 -0.0011794094912809198 -0.0011192961273293403 -0.0005337408252531345 -0.0011464467502326978 -0.002724041913768698
          -0.00006149726657506127 0.0032339469638963114 0.005746922160950019 0.0047469763723825276 -0.00021883573022984937 0.00706700142739812
          0.013553147088551099 0.015916041732805752 0.005793414951906231 0.007398860462748416 0.011268543728012781 0.013785892606794331
          0.01100737068179762 0.020609541128069328 0.012605561132057172 0.011815238673216377 0.015394231908385847 0.008777532988157005
          0.0006324529547593397 0.0006695914471897858 -0.00010077036390321314 -0.0015589768790660657 -0.0017555176813833923 -0.0030707309494618328
          -0.00008608357001572975 -0.0003095727136264437 0.00005435766640080053 -0.0003434119707334095 0.0007269958936534857 -0.0009466336766445621
          0.0019600868326925813 0.001053075670917742 0.0030190283622092418 0.002729458832608972 0.002923367152860318 0.0024421860711062587
          0.00019419035048494349 -0.00020689203777461695 -0.00000234504142460068 -0.0005379580486273502 0.0016957869826425623 0.0012047834507754387
          0.0015661586521820703 -0.00004502270408270753 0.004365103493163387 0.0036181725051444777 0.0027487234472211575 0.0024706792210010264
          -0.00018551702184683994 -0.00006489590677719037 -0.00044012909993007554 -0.0005408416644522018 0.0005793031679642985 0.0012083269447914144
          0.0009192248736080433 0.0021308580580086667 0.0035036275317901072 0.004666097813199363 0.004377832762109304 0.004736541787726367
          0.003839970688213819 0.003805367326007947 0.00468752852098181 0.007469025090699506 0.008947504566307746 0.009951895880168635
          0.00673547569131943 0.008408601428925744 0.008799687864009156 -0.0005768410934944221 -0.0005257135337942073 -0.0003639405652173522
          -0.0006319633628881077 -0.00040081446930916725 -0.000005622126413647177 -0.000021380870748544112 0.00387897793661629 0.006751489835244401
          0.004703367320624929 0.00941986128157049 0.011001579738797534 0.009451375710183257 0.01826133990333384 0.012059289662215616
          -0.001994776024116539 -0.002417867518580641 -0.0011869986364446972 -0.0015235471216916846 -0.0009647442239532639 -0.0017200640768370162
          0.0001757335550851835 0.0003787094024571003 0.0000972995663466869 -0.00008562765009104134 0.0003827422426479002 -0.00037486099936012707
          -0.00034178057777906057 0.00017579830539593555 -0.00107430055204491 0.0000677340314990671 0.00006769598129994191 -0.00019036558597990486
          -0.00015012458233450848 0.000281642530045971 0.0021603469693718593 -0.00039750049329533715 0.00047078796950993096 0.0017841314833127444
          0.004481733665033843 0.003738039101906794 0.002779368416963921 0.00139455234693045 0.0015262440669613561 0.002393485817213624
          0.0011096038763394322 0.0019786301929628214 0.0015515246701232194 0.0019171523996976067 0.0024321949049645464 0.0021502100578001254
          0.0022429023884754443 -0.00039045561695555224 -0.00046041553225213694 0.0018836338094734562 -0.00017392355622508973 -0.00011743875463274267
          0.0015217297416668177 0.000628900699515305 0.0022228951081521425 0.0067992425692459755 0.0001250176058945618 -0.0005969072567204234
          0.0031284478165254856 0.004114655812217801 -0.000439867128689278 -0.0008676740663751403 0.002890595250606219 0.0039764933804090595
          0.0010408524790941273 0.002088825808070828 0.0054868300646524655 0.0036004865791116336 0.006251023630229696 0.001833208839395771
          0.0025179544219687683 0.007797845363921141 0.0069676854318105885 0.0033445128904094623 0.002434067212504498 0.000979745595327236
          0.0027155277179522763 0.0018156681591888213 0.000672892735571029 0.004064348486589986 0.0024496381960475155 0.002845593038693056
          -0.00010924875484609464 -0.00020950199156273552 -0.0018162631808248675 0.00039405937271977387 0.0011799362809982311 0.0014487098055284003
          -0.0015686866306124161 0.001254597668138721 0.0023087602494132886 0.0024502339012721364 0.000632544044749099 0.0028487150881083834
          -0.0018840318758245184 0.00006674482762002859 -0.003958734940023634 0.00031871312813392533 -0.0024154192388051304 -0.001908606640708188
          -0.0007334336532564684 -0.0007993751922408532 0.000008079406517369492 0.000018847892892082108 -0.0008281088910427337 -0.0007955747031560094
          0.010552031589857316 0.004354228551667293 0.006148921639731547 0.0037335328213863074 0.005500830807517846 0.005657543941292581
          0.0011382802697559036 -0.0011827535083015154 -0.0014904354619712928 0.00035311186113407 0.0022926113749200394 -0.003447891197745432
          -0.004746075395530243 -0.00042278631864492433 -0.00002094941235614156 -0.002487887453806515 -0.0038740154625524423 -0.0016760652949888433
          0.005159720565097871 0.00015878516834505474 0.0010273074366900226 -0.000946792055101342 0.004343152888654965 0.005045147115199045
          0.007720624573289911 0.0042551257301742355 0.004944226468177854 -0.000027131943496064813 0.008442713935009574 0.004752421243416549
          0.006594412650816714 0.0018880162972940602 0.00040637282518675433 -0.005014789052150838 0.006759624498434549 0.0023408290396623992
          -0.002518255279492506 0.0011377807284303001 -0.0010005115604642192 0.002617225416693958 0.005304724265786598 0.002527106458951378
          0.002617861526774304 0.0029955375008747925 0.0051821900895523965 0.0027396196957895635 0.005305836255539695 0.00800401261351541
          0.0057615074659284615 0.001559352323811214 0.0060518395751657655 0.004663209166629281 0.0028149871909848856 0.0019126768921944315
          0.0030500394437559183 0.0018596369827555883 0.0029756554615531505 0.0019008991840679772 0.0009190048653036154 0.0014258426883143535
          0.0017709224717223759 0.00195987906484249 0.0034874348503532594 0.0021772053701423766 -0.000012794713160436955 0.002897968553955646
          -0.00007809538370630309 0.0048484272110625466 0.006122512513978801 0.001596233755206955 0.001548062383874449 0.0020572698960908964
          -0.00005986069125558935 -0.0003325453493785088 -0.0006530626853980277 0.00021498559070494763 0.0011316950120180101 0.002477699147970582
          0.0006996269433418856 0.001551648041253793 0.005551142674309755 0.008180437585862906 0.005508642256508541 0.005681688991027559
          0.0027600582982942323 -0.0012110734012555358 0.004037154508853696 0.0030720904403234717 -0.000998238992911571 -0.000682104226148561
          0.0069011455419561996 0.00959341576781736 0.006028250157732951 -0.0018955239991417343 -0.00023636437272804567 -0.00028233011678401726
          0.00014602658977826144 -0.00227564683030378 -0.0010545062214577672 -0.0014359562465643683 0.00014442211021276075 -0.00014821139567613995
          0.0013800871426204453 0.0006843440684960456 0.0009695115152519862 0.003441761719557304 0.0009923158623841438 0.001853308393804605
          -0.00004582004215515634 0.005703416592723581 0.004902692466792903 -0.0031160768433133555 -0.002208401903756915 -0.00112821205037217
          -0.00002308843619797758 0.0009374548847799584 0.0003300855224822206 0.0035279390891268664 0.0013507558883800452 0.004285296396728186
          -0.0002829847343932476 -0.0017612114135564794 -0.0004206200216424691 -0.0006166520834549605 0.0002961163908533765 -0.00046571398711686696
          0.0010447720224170468 0.00010479745748071326 0.0013363926402321508 0.0005243312632083937 0.002343721057235012 0.0006690093642452086
          0.0027599324386674805 -0.0010430560664530103 0.0039742116968947 0.005252428058361264 0.0006274121705037161 0.004028351837413818
          0.0028759427061070472 0.000229073929176149 0.00036388710605162605 -0.00030305786668508375 0.0012801544629944678 0.00023896488974744189
          0.007138933922292617 0.0008944177420162208 0.0057443511592383395 0.0024068678601688043 0.002139752205240264 -0.000462771707908205
          0.006874077191645969 0.006672292914709688 0.0010327217077275713 0.0018375734244095066 0.0063882781255643895 0.005705876379858702
          0.00385220040230215 0.00330607872552173 0.0009287965144037028 0.0017792995990675367 0.005045532456314963 0.0068075877923690215
          -0.0002893732731374544 0.0012625134340770658 0.0004382546621820079 -0.0004242756560111959 -0.0005653045788880963 0.00002561910201296074
          0.00018408439760053685 0.0005296490052066859 0.00018630104342806653 0.0023199972944190073 0.0002660693059636926 0.00555064708185643
          0.004427655475227832 -0.000012463283214692034 -0.0003104422835098347 0.005237280285450896 0.006149913093091486 0.002797166825624503
          0.0023782308849935596 0.007141514525791856 0.010213207359172527 0.0002645931917603095 0.002421278221146293 -0.00002768768196851311
          -0.0010666549645617814 0.0012898051314980258 0.0056803115617906135 0.002488111161665422 0.002774930019150714 0.007876821871830558
          0.014209669366379518 0.009959849038149634 0.010222266393710152 0.009664507819583418 0.0013541411606889098 0.005385564094723211
          0.005825992899724325 0.006381359447203971 0.0016613691295123134 0.0027508513678103225 0.006438883350564667 0.007049701056649399
          0.007849851167277044 0.004610831524033063 0.015572167192097277 0.009791185763898258 0.010233971948791436 0.006462625276640432
          0.0053086502109100375 0.006864814289356008 0.0005572604189964248 0.0009120911189673259 0.005501130864127873 0.007658255268050432
          0.010214106749757923 0.015620527121732425 0.004685890965554884 0.005967985902772477 0.009157920548983567 0.007483536045799988
          0.006535671154921346 0.0016069574953157945 0.0031714829647192175 0.0032373457044479192 0.009221260455008325 0.007166073151332927
          0.003836074560600526 0.0012791440185213297 0.004433976610347036 0.003363197910685345 -0.0007987279647108381 0.0030612723870536013
          0.00294228873748683 0.00252024920824398 0.004412805263986 0.0008494130569866587 0.001863758026875835 0.0035083754135809483
          0.00434095788251436 -0.0006270711828186698 0.0051448938728561044 0.004406758950373384 0.007392557758287979 0.004260006036414951
          0.004764144905932598 0.0074742696982316795 -0.00012193578176854236 -0.0007307449458596391 0.0027718588364083474 0.002456950343985631
          -0.0008285468959182314 0.0018665124650268233 0.0004109268953138602 -0.0005676824942934533 0.00018325096074554154 0.003445529254807858
          0.0008127848295817128 0.00479031311093164 0.0036208966426183042 0.00537033613655518 0.004818745130604544 0.008271527498114748
          0.011335288742813969 0.010482549093211564 0.000056715273945157074 0.01708502903929074 0.020831521099763717 -0.000912341212822354
          0.012260782059180214 0.012125975607825537 0.0019514871114204302 0.007103081548352458 0.00144598236283916 0.011168489858893543
          0.005138913717020618 0.004434464399610968 0.0022792374075906677 0.004745086790518958 0.002293974266364948 0.0033929262045808498
          0.004968034295281478 0.00010056730487575938 0.0004352873052140497 -0.0013601369616100395 0.005020920373355095 0.003216024427278856
          0.01145776351334743 0.002591790837735586 0.005375478811321943 0.007961214176939652 0.000982056204169357 0.0038166498431769363
          0.005267644641892999 0.0030144016650817673 0.0022862328579465463 0.0021973532938700385 0.005712726005672297 0.002731046312372587
          0.0031896405565882517 0.0013254461273661186 0.001149648422818221 0.0034844497891013734 0.00494337253541139 0.005589201594231664
          0.0033517845033928205 0.0034136550125488906 0.001191537720480071 0.0020706152547436477 0.001568692431180914 0.0018514784215509922
          0.0025601477533651606 0.0020539351255289273 -0.00003065825761473795 0.0013347363214879643 0.0014447103361946295 0.0005738835246398705
          0.002268013505377184 0.003377370162430844 0.002030970924953232 0.005772754923152115 0.0020521693880387326 0.004598800765134095
          0.0003993849193378446 0.005657485169992649 0.0032683387187058544 0.008753446488594004 0.005746313869492869 0.0059081878112387
          0.002810197788862392 0.006439793244479415 0.006369153634509163 0.005116096828260953 0.0008271443940726098 0.0040426903931150004
          0.0003116442006156628 0.0038027112672727598 0.0007615909407826249 0.004708815809816854 -0.001171399113303176 0.00491421335012044
          -0.000189102416994099 -0.00008590468919653788 0.0002254100374026978 0.00024488175890896666 -0.00008624245720250702 -0.00008016726066642499
          -0.0012265130713604647 -0.0008016215774590352 -0.000877770256962368 -0.001391933790505978 -0.0020128234745271645 -0.0015163073515799558
          -0.00004619215303226093 -0.0006591507220577233 -0.0007755134877935055 0.000048782852977713453 -0.0017826393515801078 -0.0017616765258241934
          0.0036065877364463185 0.00041567103545219267 0.0021420788311044088 0.0011105862864985994 -0.00039545314696712297 0.0002334998455991999
          0.005121899036130306 0.0007296020864566849 0.003761593924246062 0.01140817843541811 0.014024693568248231 0.01078448691111783
          0.005753358214342905 -0.0011293470436278263 0.0021605222308944266 0.002703863219037924 0.003709099981734826 0.0004169088657091091
          0.00158232724309261 0.0028125295179034573 0.0023733729781792653 0.005371940766101639 0.001809662813312178 0.0021835809013922448
          -0.0018506212756314588 0.0006278195406395071 -0.00014122132553856526 0.011718428793604699 0.010366743394682798 0.00749750046655169
          0.005869104216837867 0.0053475040739613955 0.004135779830129582 0.0072133101524543 0.0029295911253869877 0.00950938733055598
          -0.00021450451738447285 0.008914059593916168 0.0031278852018053194 0.006930533896808363 -0.0018529917073735452 0.002378897946344504
          0.006998705098154312 -0.00027944262190193747 0.0029840868213778793 0.003482542171290459 0.0015999071046767371 0.0015006464190441826
          0.008863365702076353 0.0028801419038727294 0.0030151369828631536 -0.001382153232411365 -0.002772429666279219 -0.0024173120094008183
          -0.0023604997286957308 -0.001497180905118578 -0.0011029654037751913 -0.0010460887228338073 -0.0001258130933998805 -0.0007353690584690348
          -0.001226749312104855 -0.0013007386918326286 -0.0014349910464084709 0.00033540182204419566 -0.00027048997881842785 -0.00020286809704087028
          -0.0003484927541887173 -0.00024107259441374929 -0.00030209724230406687 -0.002646818445170439 -0.0011314712330907292 -0.001609153042524467
          0.005305943260612234 0.003124625259236225 0.0033187509396536263 0.006551528811450052 0.013614343016202738 0.008334771436643646
          -0.0029745366575781446 -0.004066718119984963 -0.0021391728086349454 -0.002770197512161357 -0.0013762455865379414 -0.0029120211088451697
          0.00001743802963355412 -0.00021516418403882964 -0.0002932724218036413 -0.0001393279878355025 0.00026294862031045474 -0.0002645813906171114
          -0.0004308145654248474 -0.00003235893917932775 -0.0006860226533251627 -0.00033589028043998215 -0.0006290611308328795 -0.00016082893939313794
          0.0005020544461293575 -0.0005105067551153565 -0.00022767083797188732 -0.00393737140251138 -0.002288336038568782 -0.00258008194197705
          -0.0008935767640207704 -0.0005021168969331913 -0.0005150903482181723 -0.0005234036532515834 0.00003331752170226965 -0.0001501555701679952
          0.004740471343102098 0.000830597988309742 0.0019201942723133525 0.011771556633206635 0.005385085725563652 0.005474441820367278
          0.01130049872623265 0.006256960578612553 0.014561323207993637 0.012487511077030694 0.008650343678340722 0.007657978669039847
          0.0038192102111548193 0.01618980911072186 0.013157202161309944 -0.0013624574840631065 0.009276619456687007 0.007427257941580556
          -0.00046307693601410627 0.005584731420741118 0.006184459354133004 0.0056290660057465025 0.006187630840471081 0.0047033046506135545
          -0.0027870040539936247 -0.0006652787158873824 -0.0017279373272578447 -0.0017351496176800651 -0.003289028677804645 -0.0019237398910105091
          0.005629489310424854 0.00388195234106882 0.0151100486488005 0.005118619006860503 0.011151372820213876 0.00499044616540438
          -0.0021412997573501194 -0.005153281041595688 -0.0034870645591757593 0.0037914234488176657 -0.000796587942782534 0.0017405454504056672
          0.005767269335414799 -0.0017490149241732311 -0.00029833162245704314 0.0012067105015641788 -0.002913069034373106 -0.0024694852840057707
          0.0053164606091705285 0.017706096594502577 0.011762931065034288 0.0004600666822592858 0.007295903655303762 0.0026026510932429525
          0.0064983658840724046 0.005192066151286548 0.00584823480117886 0.0006828113340157684 0.0011076000713581002 0.00712535014422553
          0.006857444658526057 0.00509363154701695 0.00448205978719346 -0.0001063771299332078 0.0015149757294878052 0.004108758538528448
          0.009773316637534384 0.020640583188892142 0.012111319500144595 -0.0017344862608748048 -0.005059022062664698 -0.0044893134224547465
          0.010518886251384502 0.014784726332490283 0.008548914705081095 0.009870568837097027 0.011926250395693505 0.008242963890435134
          0.004806709186831071 0.007068574568641295 0.002170905345809604 0.010041563012289784 0.0022375818722478458 0.01785545059710647
          0.007825118563447891 0.010725427941619015 0.009840424965921052 0.0008497609839018816 -0.00039564482948961643 0.0010950596868987417
          0.0002428013982866406 -0.0008681172802766923 -0.0005720817906053055 -0.0019503871710488188 -0.001325578748479439 -0.002967094873403457
          0.00041112137308392527 0.00016388105164132777 -0.0002263605636886601 0.00022567502227043706 -0.0010836667865200683 -0.0007437268190055579
          0.007120230083473546 0.012259345221047324 0.007266864410676005 -0.0013926200696568747 -0.005341611467565177 -0.003570696044039423
          -0.004864045305141285 -0.004959155364696849 -0.004601134797613038 0.0036048214415298624 0.007591936561423394 0.007568934644567649
          0.009959119263089608 0.00612957951604777 0.005875739389766058 -0.0031166244687047817 -0.0014838642659243742 -0.0016351787678721003
          0.009734663249569633 0.013266257879520515 0.007407308137157204 -0.003214666974635183 -0.0004679886275671674 -0.002503625179461788
          -0.0013324519773015575 -0.0018908408551553402 -0.0030332927721249126 0.005468286377075568 -0.00042104361945378976 0.001554087019041396
          0.0008906649702641045 0.0009985567369705795 0.003504319131703043
        </DataArray>
        <DataArray type="Float64" Name="resid_z" format="ascii" RangeMin="0" RangeMax="0">
          0 0 0 0 0 0
          0 0 0 0 0 0
          0 0 0 0 0 0
          0 0 0 0 0 0
          0 0 0 0 0 0
          0 0 0 0 0 0
          0 0 0 0 0 0
          0 0 0 0 0 0
          0 0 0 0 0 0
          0 0 0 0 0 0
          0 0 0 0 0 0
          0 0 0 0 0 0
          0 0 0 0 0 0
          0 0 0 0 0 0
          0 0 0 0 0 0
          0 0 0 0 0 0
          0 0 0 0 0 0
          0 0 0 0 0 0
          0 0 0 0 0 0
          0 0 0 0 0 0
          0 0 0 0 0 0
          0 0 0 0 0 0
          0 0 0 0 0 0
          0 0 0 0 0 0
          0 0 0 0 0 0
          0 0 0 0 0 0
          0 0 0 0 0 0
          0 0 0 0 0 0
          0 0 0 0 0 0
          0 0 0 0 0 0
          0 0 0 0 0 0
          0 0 0 0 0 0
          0 0 0 0 0 0
          0 0 0 0 0 0
          0 0 0 0 0 0
          0 0 0 0 0 0
          0 0 0 0 0 0
          0 0 0 0 0 0
          0 0 0 0 0 0
          0 0 0 0 0 0
          0 0 0 0 0 0
          0 0 0 0 0 0
          0 0 0 0 0 0
          0 0 0 0 0 0
          0 0 0 0 0 0
          0 0 0 0 0 0
          0 0 0 0 0 0
          0 0 0 0 0 0
          0 0 0 0 0 0
          0 0 0 0 0 0
          0 0 0 0 0 0
          0 0 0 0 0 0
          0 0 0 0 0 0
          0 0 0 0 0 0
          0 0 0 0 0 0
          0 0 0 0 0 0
          0 0 0 0 0 0
          0 0 0 0 0 0
          0 0 0 0 0 0
          0 0 0 0 0 0
          0 0 0 0 0 0
          0 0 0 0 0 0
          0 0 0 0 0 0
          0 0 0 0 0 0
          0 0 0 0 0 0
          0 0 0 0 0 0
          0 0 0 0 0 0
          0 0 0 0 0 0
          0 0 0 0 0 0
          0 0 0 0 0 0
          0 0 0 0 0 0
          0 0 0 0 0 0
          0 0 0 0 0 0
          0 0 0 0 0 0
          0 0 0 0 0 0
          0 0 0 0 0 0
          0 0 0 0 0 0
          0 0 0 0 0 0
          0 0 0 0 0 0
          0 0 0 0 0 0
          0 0 0 0 0 0
          0 0 0 0 0 0
          0 0 0 0 0 0
          0 0 0 0 0 0
          0 0 0 0 0 0
          0 0 0 0 0 0
          0 0 0 0 0 0
          0 0 0 0 0 0
          0 0 0 0 0 0
          0 0 0 0 0 0
          0 0 0 0 0 0
          0 0 0 0 0 0
          0 0 0 0 0 0
          0 0 0 0 0 0
          0 0 0 0 0 0
          0 0 0 0 0 0
          0 0 0 0 0 0
          0 0 0 0 0 0
          0 0 0 0 0 0
          0 0 0 0 0 0
          0 0 0 0 0 0
          0 0 0 0 0 0
          0 0 0 0 0 0
          0 0 0 0 0 0
          0 0 0 0 0 0
          0 0 0 0 0 0
          0 0 0 0 0 0
          0 0 0 0 0 0
          0 0 0 0 0 0
          0 0 0 0 0 0
          0 0 0 0 0 0
          0 0 0 0 0 0
          0 0 0 0 0 0
          0 0 0 0 0 0
          0 0 0 0 0 0
          0 0 0 0 0 0
          0 0 0 0 0 0
          0 0 0 0 0 0
          0 0 0 0 0 0
          0 0 0 0 0 0
          0 0 0 0 0 0
          0 0 0 0 0 0
          0 0 0 0 0 0
          0 0 0 0 0 0
          0 0 0 0 0 0
          0 0 0 0 0 0
          0 0 0 0 0 0
          0 0 0 0 0 0
          0 0 0 0 0 0
          0 0 0 0 0 0
          0 0 0 0 0 0
          0 0 0 0 0 0
          0 0 0
        </DataArray>
        <DataArray type="Float64" Name="stress_zz" format="ascii" RangeMin="-2166388.3204647605" RangeMax="3479969.6690425253">
          -495830.78625364165 -411819.2998275759 1036810.0248620354 997779.3576322491 -455932.7547776412 -424495.0252662691
          1053283.5832548344 1003459.8302934469 -416034.72330164094 -437170.7507049626 1069757.1416476334 1009140.3029546449
          -1091806.854972049 -938203.0050849664 -946056.8629933939 -563188.2281451795 -1133747.513776835 -972928.7491787715
          -954721.5477723436 -602544.253480116 -1175688.1725816214 -1007654.4932725765 -963386.2325512934 -641900.2788150525
          -778646.0080030265 -776460.9112980673 -774275.8145931079 -867766.2185844614 -838525.6964378632 -809285.1742912654
          1207272.7066783619 1258404.4962889068 1196280.744870599 1252041.9608335122 1185288.7830628357 1245679.4253781172
          1281291.7343430128 1182372.4963462553 870679.7420638979 1198974.7007335683 1244289.4849737072 1155741.378055973
          851430.6959102083 1190034.6979453482 1207287.2356044014 1129110.259765691 832181.6497565187 1181094.6951571282
          -301072.79594611755 139745.87872193556 1048274.619009186 1352018.5843063733 -309732.2899154292 154355.54330409755
          1120884.847348261 1465968.0376521845 -318391.7838847408 168965.20788625957 1193495.0756873358 1579917.4909979957
          -1409189.5053504203 -944644.8668017432 -329352.65543225774 -148898.4795291583 -1406624.7365932812 -952681.268551743
          -320742.1688219571 -160806.1573083194 -1404059.967836142 -960717.6703017429 -312131.6822116565 -172713.83508748052
          2256514.7020951076 2741206.7031778973 213595.24463484954 2312750.896676381 2796972.0072805453 212755.81287233066
          2368987.091257654 2852737.311383194 211916.38110981183 1089291.037601356 1679242.1333908963 860570.6799030086
          356913.6074196813 1133564.3406999018 1763364.3486172545 923325.5957195141 352185.56091793044 1177837.6437984477
          1847486.5638436128 986080.5115360195 347457.5144161796 655155.3771191849 655781.6840625574 656407.9910059299
          689520.0350805089 1222409.4498351393 668704.2454482589 1166547.7330545348 647888.455816009 1110686.0162739302
          -575736.7874128075 -443055.76570390497 -327218.1875809743 -571234.5294822047 -432177.1418248158 -258394.60495993012
          -566732.271551602 -421298.51794572663 -189571.02233888596 483226.036316189 111059.57612958267 1065337.2880910367
          1217720.4779639184 478178.87325307855 133059.39371337253 1065719.617681087 1196262.0081107747 473131.71018996806
          155059.21129716246 1066101.9472711375 1174803.538257631 565321.084586649 1397738.1100298564 -157808.76289838605
          608419.513825745 1474995.925024439 -264784.17701344995 651517.9430648409 1552253.7400190218 -371759.5911285139
          2714191.408676558 1037385.3029005816 1041975.6350989267 2830442.9118868406 969529.7922356824 1002517.9300038681
          2946694.415097123 901674.281570783 963060.2249088098 -160312.8281667518 -1252761.7004818032 -821698.072217548
          66013.50887968625 -133474.9793581874 -1376065.347786697 -852023.8259413439 56506.946755257166 -106637.13054962296
          -1499368.9950915913 -882349.5796651398 47000.384630828106 71214.72483979866 461832.01731584093 188121.69055947353
          421556.66038600216 305028.6562791484 381281.3034561635 749585.9674404545 560690.8778245561 1290930.636455011
          716913.233654424 584868.0640182178 1316094.2068406607 684240.4998683934 609045.2502118796 1341257.7772263102
          1342584.766139533 356008.795546736 956808.0017742447 1479008.6904523096 1312340.4981543643 354603.96178141865
          936321.2935212494 1503116.8958714632 1282096.2301691957 353199.1280161013 915834.5852682542 1527225.101290617
          258506.62793141603 356865.29336505383 233366.05312675447 339863.0433328715 208225.4783220929 322860.79330068914
          305488.62305513007 -448299.0008179208 298918.35369853466 -464280.63024526014 292348.08434193925 -480262.25967259955
          450984.74756254046 315288.9273488517 467479.4017297361 342061.43432580977 483974.0558969318 368833.94130276784
          -152542.20645819465 -258768.49670474374 522898.0854270293 798622.7161661778 -157483.04096274037 -285588.98352411005
          504812.75667274033 844909.9361078187 -162423.87546728604 -312409.47034347645 486727.4279184514 891197.1560494595
          1099715.579861596 43709.39132959902 1094129.286462658 19080.199802743227 1088542.9930637204 -5548.991724112566
          1294068.8981087473 1244903.9248445123 1285190.6766602034 1187193.2983165307 1276312.45521166 1129482.6717885493
          981225.6976322852 680200.2017478995 936322.256329587 619256.7068665351 891418.8150268891 558313.2119851707
          886043.2691918152 870809.3312138283 855575.3932358415 82927.61682744228 73596.30145501351 64264.98608258474
          -324584.48847070057 -173908.6804127356 115514.65554959734 29143.41318051795 -327276.9892929137 -157324.13797950244
          130222.1763559588 59430.952087320074 -329969.4901151268 -140739.5955462693 144929.69716232026 89718.49099412218
          1402977.5480068196 1947337.4935255367 1886825.3188791517 1359506.363330793 1959837.2767960965 1923960.2602133355
          1316035.1786547669 1972337.0600666562 1961095.2015475195 317391.152656489 259957.96296122324 127151.07682182959
          199877.1531931045 -63088.999012829816 139796.3434249857 1571413.3421980538 1555645.0075883449 1539876.6729786363
          38829.82903892942 -41211.77902882419 -420710.53439159284 -57205.78276647764 45651.08382111632 -39887.20263685289
          -368949.61994066765 -50156.204948588806 52472.3386033032 -38562.6262448816 -317188.70548974245 -43106.62713069997
          239840.91952828545 204418.5119371643 168996.10434604314 687146.3669952136 693694.9592038925 700243.5514125713
          -928648.5031087085 -962218.7300264958 -995788.9569442829 626402.2848019827 803365.6779625484 601826.2441828726
          756847.4333607509 577250.2035637626 710329.1887589538 601563.4399909114 1011625.9360805723 595201.9876604883
          1059834.867703385 588840.5353300648 1108043.7993261977 1019221.5916147281 879679.9678011298 865756.9225076878
          806222.4097209286 712292.2534006475 732764.8516407276 541447.370697177 434230.326070994 536854.5069902266
          413190.978088086 532261.6432832761 392151.630105178 1423150.7476668672 1443536.8028161395 1463922.8579654116
          -42106.64497727659 481525.37962887756 -95459.33550566484 467954.9031747148 -148812.02603405315 454384.42672055203
          -391714.8755416186 -260205.91256904547 -396227.10757123306 -318211.7727832509 -400739.3396008475 -376217.63299745624
          427532.0085881668 428844.8746011333 430157.7406140998 845218.1005759357 818648.9241891091 792079.7478022823
          -785838.0015887788 -1120631.474767549 -766784.8752529317 -1209014.4051504293 -747731.7489170849 -1297397.3355333097
          1209534.6272168397 1200305.0741558764 1191075.521094913 404092.5063066086 409623.4308274921 415154.3553483757
          1441814.6795090775 1695535.0621590156 1457271.5692447028 1729190.7344098112 1472728.4589803282 1762846.406660607
          1311725.9355369944 -303771.8762443525 1332495.709564506 -284753.2854060175 1353265.4835920178 -265734.69456768245
          512050.9515758555 16190.09097683747 -1153336.9181857277 462334.83243256493 29637.494202635862 -1220623.4672885335
          412618.7132892742 43084.897428434284 -1287910.0163913388 -398000.4809053893 176491.4862395509 396332.93865078967
          -648426.971484259 -414600.8874889158 13491.149368731916 256585.7103634033 -621471.667606452 -431201.29407244234
          -149509.18750208704 116838.48207601694 -594516.3637286449 387276.5911683946 291536.2044992636 373393.1171028153
          324306.4038018427 409974.9645103132 266526.2132121473 353639.8850412147 320418.11500007764 432673.33785223187
          241516.22192503102 333886.6529796142 316529.8261983127 1484566.7558375825 1431033.2471665684 1377499.7384955543
          722638.0961637276 122892.45565384929 696190.1177364796 37918.16774299822 669742.1393092321 -47056.12016785302
          2026007.2510024183 710028.3808479636 1972809.9585308887 655198.1665487223 1919612.6660593592 600367.9522494808
          869629.5640804197 381183.2244937961 815511.6058393215 365312.80734831106 761393.6475982235 349442.390202826
          13784.618074667407 617744.639240545 47383.84888118984 656690.1708342964 80983.07968771222 695635.7024280479
          -747835.4111464963 -357674.43952450913 -777572.1707330258 -368826.7469169842 -807308.9303195552 -379979.05430945917
          1500323.8631009369 1564663.2885407992 1629002.713980662 1099462.1290982994 1088918.5355678236 1078374.9420373477
          -467156.39859352336 -1411475.8011801848 -230421.35755731253 141405.12378630272 -471027.6122195856 -1397423.819428357
          -185435.31242474282 166746.62741983088 -474898.8258456478 -1383371.837676529 -140449.2672921731 192088.13105335901
          608541.4130994685 1517639.8953275252 624976.4804600107 1467083.1883572096 641411.5478205532 1416526.4813868941
          442222.9822835723 478318.9894022295 262163.22822204325 348113.3179810783 425454.02326137584 470434.90367655025
          261076.36165535054 333221.0466447512 408685.0642391793 462550.8179508709 259989.49508865783 318328.7753084242
          -251101.87679719424 -523045.3659261209 -891401.2650149753 -244216.87162827677 -531453.7668115341 -916955.8645649755
          -237331.86645935941 -539862.1676969472 -942510.4641149759 -368373.341979847 -303875.72735847265 -239378.11273709824
          909886.0369879792 199567.25979399896 858254.7111214572 200059.05420507505 806623.3852549352 200550.84861615108
          213912.72634780296 505641.09001580515 232701.742685876 544564.6158675388 251490.75902394913 583488.1417192726
          576945.8387211722 557178.4084322364 537410.9781433006 1631017.1661577122 1683512.0375644483 1736006.9089711844
          906930.6460098077 1525739.4734957071 969031.4517275698 1396444.3098672794 1031132.2574453315 1267149.1462388514
          67142.29375629232 96289.00102965866 62257.10363655451 94523.6967082844 57371.9135168167 92758.39238691016
          421612.47294039326 417181.105417 396763.25953399995 393145.521452147 371914.04612760665 369109.93748729397
          284972.02585476113 -261740.30440560752 209937.1175777386 300429.4273916895 -270150.0549526622 228014.37465088168
          315886.8289286179 -278559.8054997169 246091.63172402483 -118108.81339909972 -7506.485654587639 -117094.09833816349
          36675.533490992006 -116079.38327722732 80857.55263657164 -319653.60779710766 -196230.50917392364 -364436.8883581896
          -248707.8444948565 -409220.16891927144 -301185.1798157893 -135994.21238449088 623198.5782735593 -185424.23375673138
          600500.4987918822 -234854.25512897177 577802.4193102049 290756.5040776781 297317.25089907285 303877.9977204676
          922530.8379129481 872852.6822697839 984575.6456961137 1186252.5425660317 897065.3088873918 889971.4210133492
          986471.3213748183 1145935.00562039 871599.7798618355 907090.159756914 988366.9970535228 1105617.4686747482
          885129.5391606966 987993.7108422345 899886.0101074879 993431.9694592713 914642.481054279 998870.228076308
          -106241.56436037942 -107240.16975157801 -108238.77514277659 1907674.101208598 1882234.0316660996 1856793.9621236017
          -122652.74561582718 -112045.81821706863 -101438.89081831007 146772.0392297202 199028.25310726013 251284.4669848
          170522.41953681246 204869.24131829443 239216.0630997764 -896247.0228535106 -981097.2266044362 -819525.4995014784
          -1045400.4666014514 -742803.9761494461 -1109703.7065984667 -1103731.9132349933 -1072409.7800299816 -1041087.6468249696
          -583259.6469669107 -546648.4117982035 -510037.1766294964 -1094173.5161827644 -1132693.1854045317 -1171212.8546262993
          3479969.6690425253 3474044.268002856 3468118.8669631868 98250.32604571778 841891.8867591245 9142.440680521424
          780829.523490967 -79965.4446846749 719767.1602228095 2665203.6298960233 2660756.335449173 2656309.041002323
          1308897.1735651663 1237962.3951704043 1167027.6167756424 -1947522.3054667693 -2056955.312965765 -2166388.3204647605
          1138482.6601927057 1293274.8120227056 1448066.963852706 73267.85895728879 97951.93513626196 122636.01131523514
          -118266.16748847417 -70446.91931488458 -22627.671141294995 448491.97640652093 605885.9461437159 461578.24185027054
          617281.8096842121 474664.50729402027 628677.6732247083 799836.1504415015 2818903.8603450404 798587.2344247566
          2863066.9162657782 797338.3184080112 2907229.972186516 707031.0558605213 697625.6560148273 688220.2561691331
          203457.16760136653 194532.0559675203 185606.94433367407 728306.8766312128 731141.0496323876 733975.2226335623
          244651.95905087824 692491.4183521506 244470.9325810154 680034.901316013 244289.90611115264 667578.3842798751
          700949.4515625233 845123.287295232 593574.7899980538 621163.6199284798 778559.9144968955 613928.3869147114
          541377.7882944364 711996.5416985592 634281.983831369 788637.9722145624 685514.0556338914 792382.6502251095
          659593.8523312259 796127.3282356566 633673.6490285605 892797.9839328122 881830.7073166147 870863.4307004171
          795406.2969033542 810842.083096258 826277.8692891618 1587398.370447654 1585382.378772559 1583366.3870974642
          919432.1252179248 937329.8919901608 955227.6587623971 13642.017032032862 21153.63755715551 28665.25808227813
          -900151.5027369128 -676266.738350128 -954424.1748932829 -648806.6823382144 -1008696.8470496528 -621346.6263263007
          217418.34652037206 234257.91656731293 251097.48661425378 757553.3109981648 818699.6930374568 1839272.499901149
          722078.3536034984 758263.3254677476 1945299.418217414 686603.396208832 697826.9578980387 2051326.3365336794
          288272.6212026011 194463.8375012246 246402.3570248527 206970.43360254407 204532.09284710427 219477.02970386355
          1232631.612217861 -671336.7233437329 1212290.707623577 -660793.1727118605 1191949.8030292932 -650249.6220799882
          391719.1084093175 383496.7354722361 375274.36253515474 74586.56232149695 -118155.12818140908 96298.34600969829
          98238.96895607264 -111981.61824394346 111702.88046677546 121891.3755906483 -105808.1083064779 127107.41492385263
          -398507.2973211549 -407449.4547066266 -416391.6120920983 -258173.69252002967 78628.45582197091 -302018.8273146128
          89286.14761946531 -345863.9621091961 99943.8394169597 -754503.8390556787 -788357.2859815102 -738983.3935357983
          -786438.915988472 -723462.9480159178 -784520.5459954338 963914.899654709 1008810.6760044013 1053706.4523540935
          456404.8551677574 422064.21938008897 387723.58359242073 -528104.4206654552 -492101.85879818094 -456099.2969309067
          -64485.49625814412 -66194.17955246635 -67902.86284678856 175532.3113475162 155093.86844332755 134655.4255391389
          -466536.2730515702 -446478.86833905743 -426421.4636265446 338648.6731591328 233007.04313402122 392477.97844318027
          238274.69395182913 446307.2837272277 243542.34476963704 -257122.64980801154 -42194.590783757194 -272852.1360560623
          -24835.285770792474 -288581.62230411323 -7475.980757827793 -405328.58682104293 -338216.45719272445 -271104.3275644061
          350787.1123385018 316296.7490296186 327226.79419394303 296922.25277879427 303666.47604938416 277547.7565279698
          765773.0645799926 754722.3249193971 743671.5852588017 -497803.77152013447 -110854.45219308914 -515717.40294374654
          -98648.33104964322 -533631.0343673587 -86442.20990619734 393705.6704297557 392708.5414390591 434054.2729261816
          354338.93880608096 474402.8754226076 315969.33617310296 40679.73041075081 -14504.674917969765 -69689.08024669028
          2126640.87152351 2334786.825662105 2542932.7798007 -1315397.3712412263 -1344931.281008836 -1374465.190776446
          -1260456.8398068983 -1306067.1923519382 -1351677.544896978 -39327.45691695207 -10231.346491997334 18864.76393295743
          -118306.50647907858 -58768.27307724877 769.960324581014
        </DataArray>
        <DataArray type="Float64" Name="peeq" format="ascii" RangeMin="0.0005835622206669352" RangeMax="0.003205007714515572">
          0.002180320297398855 0.00239431303425391 0.002417958489753964 0.0022704412727924178 0.0021796987683004513 0.0023929061893711236
          0.0024167404108592972 0.0022694859356583524 0.0021790772392020477 0.0023914993444883363 0.00241552233196463 0.002268530598524287
          0.001112786720169645 0.0008798626697364859 0.0008659403704999694 0.0011385174609433082 0.0011130326198758006 0.0008797849816299479
          0.0008662791265305264 0.0011388767045676105 0.0011132785195819561 0.0008797072935234098 0.0008666178825610831 0.0011392359481919127
          0.0006261430868114361 0.0006267572841526922 0.0006273714814939484 0.0006694319655088088 0.000670008215995457 0.0006705844664821053
          0.0023081001494799093 0.002173762604428154 0.002307193310892775 0.0021729472961524924 0.0023062864723056415 0.0021721319878768314
          0.003039041985553265 0.0030809645690756888 0.002902941976821129 0.0029320448341777928 0.0030369815178654985 0.003079182607340662
          0.0029009313496049464 0.002929868428114544 0.0030349210501777316 0.0030774006456056355 0.0028989207223887635 0.0029276920220512944
          0.0015483279869184909 0.0017521026701378458 0.0019127942536840549 0.0017331398965721072 0.0015482005849863846 0.0017514839554238337
          0.0019123715119533577 0.0017331028678858338 0.001548073183054278 0.0017508652407098215 0.0019119487702226603 0.0017330658391995603
          0.0011334127045863895 0.0012530487320827942 0.001081326440729652 0.0010132215045088166 0.0011342477497726302 0.0012534855406825926
          0.0010821632001318923 0.0010139755898989275 0.001135082794958871 0.0012539223492823907 0.0010829999595341326 0.0010147296752890385
          0.0026865233588109784 0.0025550648847083176 0.002434317808287837 0.002686380233264453 0.0025552090831543707 0.0024340349713941893
          0.002686237107717926 0.0025553532816004233 0.0024337521345005426 0.0026691640852086846 0.002902776347646737 0.002906096407307085
          0.0025862154255177866 0.002668274526018953 0.00290145577954566 0.0029045232288467493 0.0025853607543151317 0.0026673849668292214
          0.0029001352114445826 0.002902950050386413 0.0025845060831124755 0.002320515510404943 0.002319903564506543 0.0023192916186081424
          0.002585991889976317 0.002488316448969641 0.0025841491828164876 0.0024867165282318445 0.002582306475656657 0.002485116607494049
          0.0019015585042509104 0.0021463287622434987 0.0019225150290238485 0.001901082060102115 0.0021454409408418963 0.0019225417201735589
          0.0019006056159533197 0.0021445531194402936 0.0019225684113232692 0.0028384481128410277 0.0027075222941270833 0.0027863331923409246
          0.002932779584162326 0.0028365887520936436 0.0027065317227716584 0.0027854470624834086 0.0029312006628497223 0.0028347293913462595
          0.0027055411514162334 0.002784560932625893 0.0029296217415371185 0.002232996919283374 0.002041558416295096 0.0021072725469198114
          0.002232758930431328 0.0020411929749713596 0.002106153814550233 0.0022325209415792815 0.002040827533647623 0.002105035082180655
          0.0018958814203780376 0.001894256532713968 0.001558619000647006 0.0018954377393506545 0.0018933119488407709 0.0015585714294640103
          0.0018949940583232719 0.0018923673649675738 0.0015585238582810144 0.0024599509023463554 0.0022497708878721954 0.0022955823946610946
          0.0025579548030397283 0.002459375269266157 0.002248285679418596 0.0022945721081576147 0.0025569925191548373 0.002458799636185958
          0.0022468004709649972 0.002293561821654134 0.002556030235269946 0.002748744049079579 0.0025109371607708324 0.002747633432340644
          0.0025093185498193536 0.002746522815601709 0.0025076999388678745 0.002844909946369297 0.0025411490971289606 0.002650624781546477
          0.002843153028228003 0.002540404850629342 0.0026492934071160423 0.0028413961100867084 0.0025396606041297233 0.002647962032685608
          0.0025193903966570126 0.002707055422075934 0.0029041419966682443 0.002778051441233946 0.0025180819575190768 0.002705224581598815
          0.002901938558252644 0.0027762594960887258 0.00251677351838114 0.0027033937411216962 0.002899735119837042 0.0027744675509435053
          0.0017661652247069198 0.0019287697357079654 0.0017655357299086254 0.0019278879994542707 0.0017649062351103313 0.0019270062632005766
          0.0019366270193516579 0.002116288056929563 0.0019363048666534441 0.0021155447321771596 0.0019359827139552308 0.0021148014074247566
          0.0009025811017367403 0.0009059546237363081 0.000902585626258544 0.0009061105838141584 0.0009025901507803477 0.0009062665438920087
          0.0016933404346876361 0.0016243488993634408 0.001928790232508428 0.0020401852993475896 0.0016936571598282647 0.0016243853368518928
          0.0019284061953041573 0.0020401525586967945 0.001693973884968893 0.0016244217743403447 0.0019280221580998864 0.002040119818045999
          0.002872275142519617 0.002616809512347737 0.0028713405620368997 0.0026159072854137033 0.0028704059815541816 0.0026150050584796704
          0.0030717348574083297 0.002925622195902511 0.0030693945783709002 0.002923592595909859 0.0030670542993334704 0.0029215629959172076
          0.003148660933671766 0.003041122219334872 0.003146052783527119 0.0030383978862957807 0.003143444633382472 0.0030356735532566887
          0.002054558410432032 0.002053543262020549 0.0020525281136090654 0.0018046905444549619 0.0018057208884168236 0.0018067512323786854
          0.002324019068512444 0.002030844491159058 0.002110648687765971 0.0024335566740327384 0.0023237443036945235 0.002031484983885297
          0.002111235910309774 0.002433208648441318 0.0023234695388766034 0.002032125476611536 0.002111823132853577 0.002432860622849897
          0.0030422082013171112 0.003006950998311225 0.0030798886875623285 0.003040152173557487 0.00300564693336979 0.0030787772471437087
          0.0030380961457978626 0.003004342868428356 0.00307766580672509 0.0030577836432100756 0.002950109353574488 0.0030546638588574205
          0.0029478764311715033 0.0030515440745047654 0.0029456435087685177 0.0023397489562724076 0.0023392972024500764 0.002338845448627745
          0.0009667277627301515 0.001030541043982707 0.0010690253585292169 0.0009792820386582003 0.0009668556620288646 0.0010306362283311022
          0.0010699298177586434 0.0009798646921106782 0.0009669835613275778 0.0010307314126794978 0.00107083427698807 0.0009804473455631562
          0.0027531678706055407 0.0027517955450203115 0.0027504232194350818 0.0022074960524466327 0.0022078037150724786 0.0022081113776983245
          0.002189597093064506 0.0021894438720622515 0.002189290651059997 0.0021447821304430167 0.0020801730577794143 0.0021436546951852423
          0.002078923174269232 0.0021425272599274675 0.0020776732907590496 0.002188556406226369 0.001979247031919134 0.002188445288675948
          0.0019800981793408356 0.002188334171125527 0.001980949326762538 0.0031877656467085994 0.003105426536966485 0.00318473193176164
          0.003103323200088152 0.003181698216814681 0.0031012198632098197 0.0027282523367503126 0.002671664871588845 0.0027261852856866635
          0.002669666391201676 0.002724118234623014 0.0026676679108145075 0.0028649464488834653 0.0028640828508089914 0.0028632192527345175
          0.0024654139557171413 0.0022185089770520227 0.002464034804132988 0.0022180595957504738 0.0024626556525488346 0.0022176102144489244
          0.0026378671418579346 0.0025476377930976537 0.002636290703488569 0.0025456590786262943 0.0026347142651192033 0.002543680364154934
          0.003033278257858027 0.003030694729624709 0.0030281112013913914 0.0030143449488911614 0.0030129179275974792 0.0030114909063037962
          0.0024730266147770207 0.002467607549493657 0.0024722685086194626 0.0024658621528207167 0.002471510402461904 0.0024641167561477773
          0.003080383435907956 0.00307830308249742 0.0030762227290868837 0.0018705737492815482 0.001871624510663175 0.001872675272044802
          0.003174262430653472 0.003032828166941172 0.0031723369359044754 0.003031620998917623 0.003170411441155478 0.003030413830894075
          0.00297528863045505 0.002801788482383964 0.002974104128601914 0.0028004283960715724 0.0029729196267487784 0.0027990683097591815
          0.0021131260363382674 0.002297240223112079 0.0023375200514776074 0.0021120841024163096 0.002296680717790338 0.0023361371284353672
          0.0021110421684943518 0.002296121212468597 0.002334754205393127 0.0024244488289097486 0.0022432618275223543 0.0024071000340258274
          0.0026195843489132424 0.002422626997323041 0.002240601807041941 0.0024045485113765946 0.002617950591899623 0.002420805165736334
          0.002237941786561529 0.002401996988727362 0.0026163168348860033 0.001255442836472845 0.001103036968485666 0.0010272770211940483
          0.0011317154412923405 0.0012563042140695366 0.0011031760429503928 0.0010270202274433229 0.0011319076351328874 0.001257165591666228
          0.0011033151174151194 0.0010267634336925974 0.0011320998289734345 0.003167592733922329 0.003164645454506602 0.003161698175090874
          0.0021468978369976444 0.0019727221823063164 0.0021452683160158616 0.0019713783003036086 0.002143638795034078 0.0019700344183009007
          0.002772874948304422 0.0026542464731565776 0.002771236556486871 0.002652717182183274 0.0027695981646693206 0.0026511878912099693
          0.0018420281776381333 0.0016672039434384347 0.0018410741176635187 0.0016675075366998126 0.0018401200576889038 0.0016678111299611902
          0.0012496590111167668 0.0014309661937889438 0.0012506271560188387 0.0014319818130832948 0.0012515953009209105 0.0014329974323776457
          0.0010592611471576144 0.000984697386540927 0.00105927373626855 0.0009845022966922371 0.0010592863253794855 0.0009843072068435473
          0.003155514900968438 0.0031543998681747864 0.003153284835381134 0.0030755778366820777 0.0030739567909131406 0.003072335745144203
          0.0014178152091927129 0.0012218094400475955 0.001182161941226341 0.00135309774806114 0.0014180622472748372 0.0012227220046948418
          0.00118321478822824 0.001353869066071227 0.0014183092853569611 0.0012236345693420884 0.001184267635230139 0.001354640384081314
          0.0029511160562800663 0.00296405930511824 0.0029491237648501707 0.002962110609726785 0.0029471314734202747 0.0029601619143353295
          0.0009317334066392671 0.0009200081431139268 0.0009523144512106022 0.0009531317520769328 0.0009312126196803232 0.0009196528401532228
          0.0009519672366232186 0.0009527605890281712 0.0009306918327213794 0.0009192975371925187 0.0009516200220358352 0.0009523894259794096
          0.0009042156489104341 0.0007796549771384528 0.0008418350341883114 0.0009041717332168782 0.0007799413701953613 0.0008418651138142716
          0.0009041278175233223 0.0007802277632522697 0.0008418951934402318 0.0014304487247243217 0.0014319061042125064 0.001433363483700691
          0.0029697448602716897 0.0028329194749990814 0.0029674817270508294 0.002830820778671493 0.0029652185938299686 0.0028287220823439057
          0.0025984635549615694 0.002258311195440896 0.002597521300682077 0.002257555694783391 0.0025965790464025852 0.0022568001941258866
          0.0015790395000124897 0.0015790181033877198 0.0015789967067629494 0.003205007714515572 0.0032034515205377223 0.0032018953265598735
          0.0018137216745177877 0.002078518898033796 0.001814360556478971 0.0020770279919400014 0.0018149994384401543 0.0020755370858462074
          0.0009623711709899937 0.0009470762453865723 0.0009620960450833738 0.0009469543129170031 0.0009618209191767541 0.0009468323804474339
          0.0009376804485713662 0.0009511535818446696 0.0009381033684489654 0.0009518658653619877 0.0009385262883265644 0.0009525781488793055
          0.0009940549910647488 0.001193508777863798 0.001088277936601612 0.0009950486866328087 0.001194082949679369 0.001089015299357534
          0.0009960423822008688 0.0011946571214949398 0.0010897526621134563 0.0014009695226640262 0.0015975538398318413 0.0014010799674186339
          0.0015974246068953765 0.0014011904121732418 0.0015972953739589117 0.000992033500781365 0.0009990188544742105 0.0009915108984230535
          0.0009985380886698082 0.0009909882960647423 0.000998057322865406 0.0013378661824669392 0.0012306168159066286 0.0013380563264352142
          0.001230780509635318 0.0013382464704034891 0.0012309442033640074 0.0009462212088480811 0.0009461070365288564 0.0009459928642096316
          0.002027952712768505 0.0020325987964690353 0.0020227193948457005 0.0020040681838544086 0.0020266616666554747 0.0020309780916698103
          0.0020209933576661376 0.002002724143136498 0.002025370620542444 0.0020293573868705858 0.0020192673204865747 0.002001380102418587
          0.001963784938151166 0.0019644218667161264 0.001962449409945359 0.001963130843680828 0.001961113881739553 0.0019618398206455298
          0.0009538113357429475 0.0009536197538143036 0.0009534281718856595 0.0013686289670101451 0.001368848437802959 0.0013690679085957727
          0.0016895188739916639 0.0016893473831726393 0.001689175892353615 0.0014378197107163524 0.0014390575586330995 0.0014402954065498468
          0.0019569647503735466 0.001956570171444934 0.0019561755925163217 0.001799610901175903 0.001942620204540117 0.0017996801518255796
          0.0019417058057485768 0.0017997494024752565 0.0019407914069570365 0.002035426983096406 0.002035124417724026 0.0020348218523516468
          0.0017877121536320234 0.0017885208507533528 0.0017893295478746823 0.0008751663893412094 0.0008750156949077924 0.0008748650004743752
          0.0027672845606581237 0.0027664229358806552 0.0027655613111031863 0.0022882728206970794 0.0022110817902487204 0.0022872235702375812
          0.0022099047986467637 0.0022861743197780822 0.0022087278070448066 0.002884540290699211 0.0028835783622731446 0.0028826164338470787
          0.0021280431165429403 0.002126882647320851 0.002125722178098762 0.002082019590999022 0.0020807959177556 0.0020795722445121783
          0.0017809077694596282 0.0017822086714234728 0.0017835095733873176 0.0015549284022774025 0.0015560959031648634 0.0015572634040523239
          0.001626654214103801 0.001627880449048326 0.0016291066839928515 0.0018247341814362106 0.0018359423054200462 0.0018237470603693366
          0.0018349452180228066 0.0018227599393024626 0.001833948130625567 0.0016120597407614855 0.0014660488706303891 0.0016121627356073466
          0.0014664870497388821 0.0016122657304532076 0.001466925228847375 0.0020786560282805813 0.0020774706456168487 0.002076285262953116
          0.0009381008600206907 0.0009382533662942712 0.0009384058725678519 0.002680129029356224 0.0026786897973621725 0.0026772505653681208
          0.0017953681381744928 0.0019616379794524094 0.0017945206532293087 0.0019605340336083963 0.0017936731682841253 0.0019594300877643833
          0.0016774594700861016 0.0017282415395793293 0.0018017108547601591 0.0016774951470742354 0.001728378221218306 0.0018016645611728744
          0.0016775308240623691 0.001728514902857283 0.0018016182675855896 0.0019098898629248972 0.001953672444951007 0.0019094998196551066
          0.0019531416522081233 0.0019091097763853165 0.0019526108594652384 0.002056606932266795 0.002055237209643108 0.0020538674870194205
          0.0016747688323270767 0.001675049935181827 0.0016753310380365775 0.0015508019619700948 0.001551073172859737 0.0015513443837493791
          0.002830712784681802 0.002829037626245309 0.0028273624678088155 0.0009525007709434548 0.0009522182709179286 0.0009519357708924023
          0.0005835622206669352 0.0008421810139806454 0.0005840921134196588 0.0008429883637313489 0.0005846220061723824 0.0008437957134820524
          0.0022035086975195923 0.0022039343868224186 0.0022043600761252453 0.0019986172217820483 0.0020433658723806604 0.002342143830613174
          0.001997837127798569 0.002042616625477572 0.0023417850760839498 0.00199705703381509 0.0020418673785744844 0.0023414263215547257
          0.0015217080589857005 0.0016587063860177597 0.0015215043031612439 0.0016584796275144577 0.001521300547336787 0.0016582528690111558
          0.0024873892818567233 0.002160218812375847 0.0024871470758874754 0.0021609491237345427 0.0024869048699182276 0.0021616794350932385
          0.001803961247240688 0.0018035147814588768 0.001803068315677066 0.0017598038346889717 0.0015327287347616362 0.001525943586183012
          0.0017609137674310027 0.0015337062946113537 0.0015270104932212794 0.0017620237001730338 0.0015346838544610714 0.001528077400259547
          0.002025651042465112 0.0020257777569146246 0.002025904471364137 0.0028613543070230654 0.0029094450308192947 0.002859326012476354
          0.0029068430930615577 0.002857297717929642 0.0029042411553038203 0.001956874262805271 0.001876878842756556 0.001957502750541117
          0.0018773586323402845 0.001958131238276963 0.0018778384219240133 0.0027162570539749627 0.0027151777221227657 0.0027140983902705683
          0.0024201044095947797 0.0024195533603046833 0.0024190023110145877 0.0014987287982601981 0.001499140071768631 0.0014995513452770635
          0.0011503115952178748 0.001150969949078381 0.0011516283029388867 0.001492271888117277 0.0014928777215174583 0.0014934835549176395
          0.0017489702694201028 0.0017500294029470223 0.001751088536473942 0.001856182125115112 0.0019375656735499257 0.0018565677825651832
          0.0019371366810552345 0.0018569534400152549 0.0019367076885605434 0.0013738062943418894 0.0014005704318184153 0.0013745246647622195
          0.0014012720376214555 0.0013752430351825493 0.0014019736434244957 0.0012472541690327957 0.0012483284707521317 0.0012494027724714672
          0.0016568567942067212 0.001637476884362599 0.0016561785958618782 0.001636801364212683 0.001655500397517035 0.0016361258440627672
          0.0025010248857617714 0.0025001827318847474 0.0024993405780077233 0.0012813537021465502 0.001285543187312577 0.0012819753734971497
          0.001286173314828025 0.0012825970448477493 0.0012868034423434728 0.002672393541031845 0.002529016927332153 0.0026708800257466783
          0.0025276557700953653 0.0026693665104615114 0.002526294612858577 0.0015932666425282735 0.0015926930914308135 0.0015921195403333533
          0.002561307478509318 0.002560857099650221 0.0025604067207911237 0.0013473057856803064 0.001348012090687213 0.0013487183956941194
          0.0013161512385376922 0.0013167521920536083 0.0013173531455695244 0.002879116514616717 0.002876902879240968 0.00287468924386522
          0.0027906740543423873 0.002789005163683792 0.0027873362730251963
        </DataArray>
        <DataArray type="Float64" Name="pe11" format="ascii" RangeMin="0.000583502208953181" RangeMax="0.003204865931486869">
          0.002180122076216055 0.0023941780740325885 0.0024178704451922935 0.0022703721739726693 0.0021794979038989985 0.0023927709868901423
          0.002416644478655114 0.0022694073531723 0.0021788737315819413 0.002391363899747696 0.0024154185121179343 0.002268442532371931
          0.0011126816662878698 0.0008797912084989191 0.0008658527731572798 0.001138388704375513 0.0011129227968085798 0.0008797109560725277
          0.0008661892188240085 0.0011387423780026753 0.0011131639273292894 0.0008796307036461363 0.000866525664490737 0.0011390960516298376
          0.0006260839076505762 0.0006266966448098821 0.0006273093819691881 0.0006693794732952958 0.0006699538460162066 0.0006705282187371174
          0.0023080081561296546 0.002173681042873297 0.0023070944835229777 0.00217285825991019 0.0023061808109163004 0.0021720354769470826
          0.003038912727229768 0.003080811720892808 0.002902703473901368 0.0029318565257082665 0.0030368548465933855 0.0030790322832227723
          0.0029006990740692426 0.002929686703415148 0.0030347969659570025 0.0030772528455527363 0.002898694674237117 0.0029275168811220297
          0.0015481330352000496 0.001751918620069723 0.001912584061368366 0.0017328822575748554 0.0015480056292569305 0.001751300551737671
          0.0019121609023589907 0.0017328441347571786 0.0015478782233138116 0.0017506824834056186 0.0019117377433496153 0.001732806011939502
          0.0011333213474312394 0.001252899687215526 0.0010811663886432501 0.0010131377285908833 0.001134150791326506 0.001253332992651347
          0.0010819994639934716 0.0010138879360619862 0.001134980235221773 0.001253766298087168 0.0010828325393436931 0.0010146381435330888
          0.002685737377612936 0.0025540639749557807 0.0024331149572548653 0.0026855945206473216 0.0025542078212008362 0.0024328187971762523
          0.0026854516636817074 0.0025543516674458922 0.0024325226370976384 0.0026688358959378058 0.0029024432782111726 0.002905772855373503
          0.002585936488092056 0.0026679441350604283 0.002901125807659268 0.0029042025915716955 0.002585084652338106 0.0026670523741830505
          0.002899808337107363 0.0029026323277698894 0.002584232816584155 0.0023202459363693686 0.002319633789526909 0.002319021642684449
          0.002585909850527152 0.002488209964092816 0.0025840606970394266 0.002486602339808861 0.002582211543551702 0.0024849947155249057
          0.0019011690632277473 0.0021460839441588687 0.0019221921166081945 0.0019006921230876393 0.0021451980348901538 0.0019222151150923214
          0.0019002151829475315 0.0021443121256214384 0.0019222381135764483 0.0028383625510911463 0.002707382105788002 0.0027862035933703217
          0.002932691143326177 0.002836499280096766 0.0027063909599211724 0.0027853159354715965 0.0029311076662034176 0.0028346360091023853
          0.002705399814054342 0.002784428277572871 0.002929524189080658 0.002232798671839714 0.0020413758149517023 0.002107082260042575
          0.002232559904835767 0.002041006824868743 0.0021059671270863742 0.0022323211378318195 0.0020406378347857844 0.0021048519941301736
          0.001895620045038617 0.0018939325400367099 0.0015581142015709682 0.0018951731486198397 0.0018929872161871967 0.0015580660957237667
          0.0018947262522010621 0.001892041892337684 0.0015580179898765658 0.002459752321490471 0.002249591287481934 0.002295344062681871
          0.0025577578621389873 0.0024591781281804058 0.0022481115141863676 0.0022943382991525486 0.002556797369558612 0.002458603934870341
          0.0022466317408908 0.0022933325356232267 0.002555836876978237 0.0027484632520611914 0.0025106900612080763 0.0027473543110800866
          0.002509075675702893 0.0027462453700989823 0.00250746129019771 0.002844537087101747 0.0025406830545155563 0.002650338482911278
          0.0028427837546349654 0.0025399386714182112 0.002649010819536795 0.002841030422168183 0.002539194288320867 0.002647683156162312
          0.0025191603007538406 0.0027069043472047844 0.0029040073698669774 0.002777856622567045 0.0025178543390120193 0.0027050747640808602
          0.00290180675480276 0.00277606906731191 0.002516548377270199 0.0027032451809569356 0.0028996061397385427 0.0027742815120567746
          0.0017660705046481844 0.0019286667004496944 0.0017654405271694982 0.0019277813055525131 0.0017648105496908112 0.001926895910655332
          0.0019364691581685856 0.002116163380591581 0.0019361415754307564 0.0021154137134352263 0.0019358139926929276 0.0021146640462788714
          0.0009025656613156823 0.0009059278760335457 0.0009025680261964522 0.0009060811431312202 0.0009025703910772224 0.0009062344102288945
          0.0016932117632573144 0.0016242438016025886 0.0019286908234639555 0.002040079202443229 0.0016935270500407912 0.001624280342911559
          0.0019283043761753843 0.002040043222942479 0.0016938423368242678 0.00162431688422053 0.0019279179288868135 0.0020400072434417294
          0.002871653126714232 0.0026160012600084 0.0028707153980119253 0.0026150858475948086 0.0028697776693096195 0.002614170435181218
          0.0030714356196672966 0.0029252907910858853 0.003069099752431232 0.002923261143956946 0.003066763885195168 0.0029212314968280065
          0.0031483750460905807 0.003040831530730585 0.0031457732437742345 0.0030381125885698117 0.003143171441457888 0.0030353936464090382
          0.002054457632920813 0.0020534359434782414 0.00205241425403567 0.0018041258296993398 0.001805147950177201 0.0018061700706550618
          0.002323186086933037 0.0020301002427388576 0.002110002823692389 0.00243288352309832 0.00232289498334968 0.0020307279969514758
          0.00211058227463606 0.002432528740023622 0.0023226038797663235 0.002031355751164094 0.002111161725579732 0.002432173956948924
          0.003042115759228367 0.0030068549948575277 0.003079776487862306 0.0030400575471655304 0.0030055473620523585 0.003078663120713946
          0.003037999335102694 0.0030042397292471884 0.0030775497535655864 0.003057451706603532 0.002949802852219287 0.0030543386161686037
          0.002947576002682578 0.0030512255257336765 0.0029453491531458683 0.0023394343041241057 0.0023389820259009445 0.002338529747677783
          0.0009667087960940477 0.0010305121504977106 0.0010689785301062433 0.000979245774959506 0.0009668357777390269 0.0010306056868541538
          0.0010698798798207205 0.0009798262034443825 0.0009669627593840062 0.001030699223210597 0.0010707812295351977 0.000980406631929259
          0.002752582168474385 0.002751205687726423 0.002749829206978462 0.0022070236155100984 0.002207326482531501 0.002207629349552903
          0.002188423444533066 0.0021882456626242997 0.0021880678807155336 0.0021447290902184744 0.00208013126159347 0.0021435931032958494
          0.0020788732307420346 0.0021424571163732244 0.002077615199890599 0.0021882547035600164 0.001978901590769963 0.0021881460187427246
          0.001979752005150186 0.0021880373339254328 0.0019806024195304093 0.003187548265645732 0.003105208794179397 0.0031845173001257285
          0.0031031099659441213 0.0031814863346057254 0.003101011137708845 0.0027281765091675724 0.002671568342110583 0.002726103977585337
          0.002669563508046367 0.0027240314460031017 0.002667558673982151 0.0028648091116939504 0.002863944226095089 0.002863079340496227
          0.002465198610578796 0.002218315794133195 0.002463818773251937 0.0022178634483584958 0.0024624389359250774 0.0022174111025837964
          0.00263774977168021 0.0025475409004206036 0.002636173600576334 0.002545562573670352 0.0026345974294724565 0.002543584246920101
          0.003033004777218259 0.003030424101517905 0.0030278434258175506 0.003013959782071182 0.00301253071366604 0.0030111016452608985
          0.0024728479021713956 0.002467497416031078 0.002472091683971935 0.0024657554294339394 0.0024713354657724756 0.002464013442836801
          0.003080057178853494 0.0030779810567457466 0.0030759049346379993 0.001870108939490752 0.0018711553584244956 0.001872201777358239
          0.003174013581179499 0.0030324135404052816 0.0031720882351810057 0.0030312090693302507 0.003170162889182514 0.0030300045982552203
          0.0029751065527969644 0.002801495628955167 0.002973922877573056 0.0028001396950623936 0.0029727392023491464 0.0027987837611696204
          0.0021129531115110477 0.0022970658348211203 0.0023373687843463377 0.0021119087755312274 0.002296505632790025 0.0023359895646639915
          0.0021108644395514066 0.002295945430758931 0.002334610344981645 0.002424074333216498 0.0022430109264285057 0.0024068631802661887
          0.0026192826784117505 0.0024222587327056857 0.002240356733281769 0.002404318911538123 0.002617654702732317 0.0024204431321948744
          0.002237702540135032 0.0024017746428100562 0.0026160267270528828 0.0012553302230099478 0.001102982438268654 0.001027227920884242
          0.0011316437737437985 0.0012561842847417667 0.001103117537721371 0.0010269678860045054 0.001131831337927137 0.0012570383464735858
          0.0011032526371740877 0.0010267078511247683 0.0011320189021104756 0.0031673408965128117 0.0031643960356167967 0.003161451174720782
          0.002146529733781151 0.001972435967086233 0.002144902723620151 0.0019710944918386684 0.002143275713459151 0.0019697530165911034
          0.0027722274482946166 0.0026534503185499914 0.002770583306008107 0.0026519159101233724 0.0027689391637215973 0.0026503815016967543
          0.0018417315495267914 0.0016669549712260213 0.0018407776253582682 0.0016672566278397001 0.0018398237011897456 0.0016675582844533788
          0.001249553948799061 0.0014307959196152259 0.0012505164080737145 0.0014318044502579091 0.0012514788673483684 0.0014328129809005922
          0.0010591914552707878 0.0009846394022267426 0.0010592009238543508 0.0009844414486383684 0.0010592103924379136 0.0009842434950499942
          0.0031553926335350117 0.0031542756607696345 0.0031531586880042565 0.003075362166014085 0.0030737425575252304 0.003072122949036376
          0.0014176514963139312 0.0012217086871646108 0.0011820771803540816 0.0013529424726025328 0.0014178956386794318 0.0012226157484591217
          0.0011831255178436882 0.0013537079826250976 0.0014181397810449328 0.0012235228097536334 0.001184173855333295 0.0013544734926476628
          0.0029508216019485593 0.0029636102108862965 0.0029488278048410586 0.0029616608692169238 0.0029468340077335583 0.0029597115275475506
          0.0009317234637399219 0.0009199967087848721 0.0009523053362003531 0.0009531260225853944 0.000931201506458836 0.0009196398273454882
          0.0009519559073593463 0.0009527531911351164 0.0009306795491777503 0.0009192829459061043 0.0009516064785183395 0.0009523803596848383
          0.0009041676533841541 0.0007796191201091513 0.0008417938716334019 0.0009041210112982926 0.0007799029375343886 0.0008418212365084
          0.0009040743692124312 0.0007801867549596258 0.0008418486013833982 0.0014302949210143756 0.0014317473476365419 0.0014331997742587084
          0.0029696582018241295 0.0028328345002334387 0.002967392736654628 0.002830733010167268 0.0029651272714851257 0.0028286315201010975
          0.00259815528632096 0.0022579676633741135 0.002597216204695155 0.0022572151053469073 0.0025962771230693504 0.0022564625473197016
          0.0015788207423243267 0.001578795707040754 0.0015787706717571809 0.003204865931486869 0.003203306721506512 0.0032017475115261548
          0.0018135510878212655 0.0020783439781958397 0.001814188251746913 0.002076854408601889 0.0018148254156725603 0.0020753648390079375
          0.0009623596460832283 0.0009470687903176663 0.0009620830266121941 0.0009469456967002702 0.0009618064071411599 0.0009468226030828742
          0.0009376469396845591 0.0009510773221824051 0.0009380682289175063 0.0009517865110924182 0.0009384895181504536 0.0009524957000024312
          0.000993894979146439 0.0011932684720478686 0.0010879977630069114 0.0009948849684311117 0.0011938400570325664 0.001088730421276525
          0.0009958749577157846 0.001194411642017264 0.0010894630795461385 0.0014007881649012843 0.0015973756517449586 0.001400898397577654
          0.0015972461218626698 0.0014010086302540237 0.0015971165919803814 0.0009920149720426736 0.0009989899331419214 0.000991489990496159
          0.0009985061589325944 0.0009909650089496443 0.0009980223847232675 0.0013375616884124051 0.0012302226043634384 0.0013377487444692026
          0.001230379320116367 0.0013379358005259998 0.0012305360358692958 0.0009461831836070496 0.0009460660850457199 0.0009459489864843903
          0.0020279170632129897 0.002032582509008093 0.0020227093453555976 0.0020040429031950103 0.0020266196619120216 0.002030958187479495
          0.0020209809053846686 0.002002691952111112 0.0020253222606110535 0.0020293338659508964 0.0020192524654137397 0.002001341001027214
          0.0019637694418070894 0.0019644054157596557 0.0019624310450897455 0.0019631112845358506 0.0019610926483724016 0.0019618171533120456
          0.0009537855258102292 0.0009535910268996867 0.0009533965279891442 0.0013679234507231151 0.0013681391270990437 0.0013683548034749725
          0.0016892889471316161 0.0016891164182871357 0.0016889438894426554 0.001437678388957071 0.0014389103413079286 0.001440142293658786
          0.0019566818183205156 0.001956288203651864 0.001955894588983212 0.0017994088938566603 0.001942434174980271 0.0017994780302940951
          0.0019415233964122742 0.00179954716673153 0.001940612617844278 0.002035205720713631 0.0020349059549822964 0.0020346061892509613
          0.0017874619987563074 0.001788270703763339 0.00178907940877037 0.0008751139450294725 0.0008749606550285426 0.0008748073650276126
          0.0027666023118381195 0.0027657397225043993 0.0027648771331706787 0.0022880345316542696 0.0022108646701545233 0.0022869884777785197
          0.0022096911741965528 0.0022859424239027692 0.002208517678238582 0.0028839556236527814 0.002882995795565351 0.002882035967477922
          0.0021278617034269478 0.0021267032260750694 0.002125544748723191 0.002081837168417351 0.0020806194628390415 0.0020794017572607322
          0.001780769614011864 0.0017820671393232084 0.0017833646646345529 0.001554545542670076 0.001555711920482506 0.0015568782982949359
          0.001626345302745802 0.0016275721448278282 0.0016287989869098545 0.0018247157629675149 0.001835925020576461 0.001823727151571485
          0.0018349257578176615 0.0018227385401754551 0.001833926495058862 0.0016113931633338907 0.0014652011702732124 0.0016114935734480907
          0.0014656341607474342 0.0016115939835622912 0.001466067151221656 0.0020786094899964136 0.00207741754702012 0.0020762256040438255
          0.0009380854745426801 0.0009382373059427238 0.0009383891373427676 0.002679570153907462 0.0026781277051984216 0.0026766852564893816
          0.0017953427592852845 0.001961614658096205 0.0017944948359659362 0.0019605074227057166 0.001793646912646588 0.0019594001873152276
          0.0016772049077313318 0.0017279962881324347 0.0018015460629165056 0.0016772337930579034 0.0017281260896819613 0.0018014962333339857
          0.001677262678384475 0.0017282558912314876 0.0018014464037514656 0.001909772013572363 0.001953572442127519 0.0019093747895071894
          0.0019530344269385747 0.0019089775654420158 0.0019524964117496309 0.002056580055239746 0.0020552042514548246 0.002053828447669903
          0.0016743223890301117 0.0016745956133552428 0.001674868837680374 0.0015502518940022367 0.0015505129560903247 0.0015507740181784125
          0.0028303596382423467 0.002828678843453669 0.002826998048664992 0.000952484779835508 0.0009521994598088888 0.0009519141397822696
          0.000583502208953181 0.0008420865838348919 0.0005840314553942997 0.0008428920592856908 0.0005845607018354184 0.0008436975347364895
          0.0022020886908111466 0.0022025026733265124 0.002202916655841879 0.0019983652660907625 0.0020430646877117303 0.00234176331430609
          0.0019975864316953387 0.002042316318050129 0.002341402606338967 0.0019968075972999154 0.0020415679483885285 0.0023410418983718442
          0.0015215715162093405 0.0016584976981671362 0.0015213677272081587 0.001658270753967863 0.0015211639382069768 0.00165804380976859
          0.0024862571147365 0.002158901835512164 0.0024860080951530647 0.002159620484360839 0.00248575907556963 0.002160339133209514
          0.0018038066192372468 0.0018033593763600417 0.0018029121334828366 0.001759182497360314 0.0015322648318301546 0.0015255258793994463
          0.0017602813675043024 0.0015332325833543475 0.001526586156947422 0.0017613802376482907 0.0015342003348785401 0.0015276464344953977
          0.0020244188385752327 0.0020245196759467797 0.002024620513318326 0.0028610407271569857 0.0029091597164917294 0.0028590115434046232
          0.0029065532005233376 0.0028569823596522603 0.0029039466845549454 0.001956110333012449 0.0018761184840581078 0.0019567169373733706
          0.0018765724119501315 0.001957323541734292 0.0018770263398421552 0.0027158635300908313 0.0027147809798907145 0.0027136984296905974
          0.002419025081126357 0.0024184679580209643 0.0024179108349155717 0.0014985572642139842 0.0014989692788928283 0.0014993812935716721
          0.0011501746704145482 0.0011508286215563266 0.0011514825726981048 0.0014920982308035257 0.0014927005734968455 0.0014933029161901654
          0.001748366733063644 0.0017494121905060433 0.0017504576479484431 0.001855991201047182 0.0019373376189268595 0.0018563768361664584
          0.0019369103024605189 0.0018567624712857345 0.0019364829859941785 0.0013736588709764158 0.0014004566535003595 0.0013743759691552007
          0.0014011578784462505 0.0013750930673339858 0.001401859103392142 0.001247096231599811 0.0012481700265865514 0.0012492438215732915
          0.0016568372616839193 0.001637456852990766 0.001656158061048097 0.001636780657982087 0.0016554788604122748 0.0016361044629734083
          0.0025002390586546736 0.0024993987642383557 0.0024985584698220377 0.0012810975760087486 0.0012852813773668028 0.0012817165805721529
          0.0012859067086749324 0.0012823355851355569 0.001286532039983062 0.0026720249333257867 0.0025284260493224826 0.0026705054362015784
          0.0025270631265294297 0.00266898593907737 0.0025257002037363772 0.0015932339293579937 0.0015926602829112618 0.0015920866364645299
          0.0025608885175730633 0.002560430454070651 0.00255997239056824 0.0013471046771929293 0.0013478095957590443 0.001348514514325159
          0.0013159173319206552 0.0013165165322164153 0.0013171157325121753 0.002878856785905615 0.002876637677219928 0.0028744185685342415
          0.0027903878821161168 0.0027887128299450754 0.0027870377777740336
        </DataArray>
        <DataArray type="Float64" Name="pe22" format="ascii" RangeMin="-0.0016075166640205478" RangeMax="-0.0002918151803750509">
          -0.0010880619875648103 -0.0011927486866051074 -0.0012123609847858308 -0.001139151453377791 -0.0010881831740722904 -0.001192851413138222
          -0.001212564736542643 -0.0011393142772318854 -0.0010883043605797705 -0.0011929541396713365 -0.0012127684882994546 -0.0011394771010859795
          -0.0005529096567751506 -0.00043724093420646645 -0.0004308428188321263 -0.000565816795123241 -0.000552792875202004 -0.00043708778877611496
          -0.00043079749678533695 -0.0005656542624616681 -0.0005526760936288574 -0.0004369346433457635 -0.0004307521747385477 -0.0005654917298000954
          -0.00031240278256859373 -0.00031248984041672655 -0.00031257689826485926 -0.00033385507637837106 -0.0003339548766809308 -0.00033405467698349056
          -0.001160953845460287 -0.0010948532302487767 -0.001161155400546226 -0.001095050606170753 -0.0011613569556321653 -0.0010952479820927293
          -0.001519839170229993 -0.0015406980733654162 -0.0014493059540150377 -0.0014631950060400422 -0.001520103354598952 -0.0015409550881540337
          -0.001449390322943028 -0.0014632982895106982 -0.0015203675389679114 -0.0015412121029426509 -0.0014494746918710185 -0.0014634015729813544
          -0.000769749571741353 -0.0008711187254367832 -0.0009548725152830058 -0.0008662068857772272 -0.0007696745657931064 -0.0008706773743671114
          -0.0009545923924617948 -0.0008662144488822721 -0.0007695995598448601 -0.0008702360232974397 -0.000954312269640584 -0.0008662220119873172
          -0.0005655138412098327 -0.0006246546922258178 -0.0005410586578125389 -0.0005072810904320079 -0.0005656585700551874 -0.0006247640305397484
          -0.000541466938625006 -0.000507552989797733 -0.0005658032989005423 -0.0006248733688536791 -0.000541875219437473 -0.0005078248891634581
          -0.0013641520651368276 -0.0013054364566286178 -0.001230352182393703 -0.0013643348789004598 -0.0013055501722351235 -0.0012303695309655094
          -0.0013645176926640919 -0.001305663887841629 -0.0012303868795373158 -0.0013218025498886725 -0.001435203002012544 -0.001434448813142758
          -0.0012775774087316301 -0.0013216545855235322 -0.001435274153507037 -0.0014345110006823932 -0.0012774975101806862 -0.0013215066211583917
          -0.0014353453050015297 -0.0014345731882220286 -0.001277417611629742 -0.0011510557281934554 -0.0011509950545869807 -0.001150934380980506
          -0.0012967088202232246 -0.001251756619938091 -0.001296876946117897 -0.0012518926040925593 -0.0012970450720125694 -0.0012520285882470273
          -0.0009485401913570436 -0.0010700408647777307 -0.000957871773064286 -0.0009486804274994832 -0.0010699992046554441 -0.0009580770328713034
          -0.0009488206636419231 -0.0010699575445331576 -0.0009582822926783208 -0.0014227041944974003 -0.0013524228155259283 -0.0013948155178759188
          -0.0014720040209341319 -0.0014228490403543949 -0.0013526235802143077 -0.0013949661629952754 -0.0014722244240175635 -0.001422993886211389
          -0.0013528243449026872 -0.0013951168081146321 -0.0014724448271009954 -0.0011127015717267684 -0.0010213585651124896 -0.0010461864688681459
          -0.0011129841228726264 -0.0010213361255480594 -0.0010462086724243713 -0.0011132666740184844 -0.0010213136859836295 -0.0010462308759805966
          -0.000950882556116328 -0.0009472774868634243 -0.0007785304091442737 -0.000950871389421157 -0.0009472845661923532 -0.0007790614952568027
          -0.0009508602227259861 -0.0009472916455212819 -0.0007795925813693318 -0.001222813147976547 -0.001112920310528993 -0.0011359899751975046
          -0.001272561512073329 -0.0012231014606534898 -0.001113012725312685 -0.0011360164914234279 -0.0012725806617911834 -0.0012233897733304323
          -0.0011131051400963764 -0.0011360430076493514 -0.0012725998115090378 -0.0013565246500908314 -0.0012406414539413199 -0.0013567394373156269
          -0.0012404956487677564 -0.0013569542245404223 -0.0012403498435941927 -0.0014232372910889602 -0.0012745634314280778 -0.0013266183864507819
          -0.0014232996182702187 -0.0012746360026020158 -0.001326714223251542 -0.0014233619454514775 -0.0012747085737759539 -0.0013268100600523016
          -0.0012625941269057788 -0.00135554237963414 -0.0014532270120136618 -0.0013889460604317547 -0.0012626443796500814 -0.001355787580962417
          -0.001453460403640396 -0.0013890933716168461 -0.0012626946323943836 -0.0013560327822906937 -0.00145369379526713 -0.0013892406828019375
          -0.0008853255005436098 -0.000969057102322744 -0.0008855429101007822 -0.0009692618332423602 -0.0008857603196579551 -0.000969466564161976
          -0.0009671237662581103 -0.0010572248529916789 -0.000967526900569545 -0.0010573662017765689 -0.0009679300348809794 -0.0010575075505614587
          -0.00045193358477332315 -0.00045288342264745345 -0.00045198736662933745 -0.0004529745802771024 -0.00045204114848535176 -0.00045306573790675133
          -0.0008478132617148114 -0.0008132976090196136 -0.000970622289031285 -0.0010264003420699275 -0.0008479204091227584 -0.0008133201677084397
          -0.0009707688621304255 -0.001026672009748311 -0.0008480275565307053 -0.0008133427263972658 -0.0009709154352295663 -0.0010269436774266944
          -0.0014494436647990957 -0.001317445034100888 -0.0014498237637454614 -0.001317601202597363 -0.001450203862691827 -0.0013177573710938376
          -0.0015275055317137665 -0.0014571776649560898 -0.0015276228636742365 -0.0014571197959613418 -0.0015277401956347067 -0.001457061926966594
          -0.0015712902061013677 -0.0015174580661285189 -0.0015715036574364036 -0.0015176565718897732 -0.0015717171087714398 -0.001517855077651028
          -0.0010347959369191263 -0.0010349198435477191 -0.001035043750176312 -0.0009136194707167319 -0.0009137783408803877 -0.0009139372110440434
          -0.0011681799989615848 -0.0010233607364762533 -0.0010643923659793039 -0.0012223033277848744 -0.0011682423881561438 -0.0010234393849220093
          -0.001064489700631262 -0.001222353338899051 -0.0011683047773507031 -0.0010235180333677658 -0.0010645870352832204 -0.0012224033500132275
          -0.0015258834608702242 -0.0015085019086016824 -0.0015421923075180834 -0.0015262026517372468 -0.0015087792284056616 -0.0015426530617705814
          -0.0015265218426042696 -0.001509056548209641 -0.0015431138160230797 -0.0015089832944209158 -0.0014556173499357516 -0.001509023058640315
          -0.0014557277610371673 -0.0015090628228597146 -0.001455838172138583 -0.001176320583410915 -0.0011763186378375755 -0.0011763166922642361
          -0.00048340836043627426 -0.0005148084925158581 -0.0005349794584227237 -0.0004904014505928689 -0.00048348813618256237 -0.0005148300272791042
          -0.0005351901364686267 -0.0004906193867059812 -0.00048356791192885054 -0.0005148515620423502 -0.0005354008145145297 -0.0004908373228190934
          -0.001381611914589639 -0.0013817501361227894 -0.0013818883576559398 -0.0011128506754950575 -0.0011129428459827298 -0.0011130350164704024
          -0.0011023341528418186 -0.001102363819157924 -0.0011023934854740294 -0.0010753102187589403 -0.0010431306457937513 -0.001075482808336047
          -0.0010433720740557423 -0.0010756553979131536 -0.0010436135023177337 -0.0010999037350073663 -0.0009989864334696327 -0.0011000960215763508
          -0.0009991538481684999 -0.0011002883081453355 -0.000999321262867367 -0.0015865487119549632 -0.0015436296740042716 -0.001586841718966757
          -0.0015440446599630639 -0.0015871347259785503 -0.0015444596459218561 -0.001367886505269338 -0.0013421016211369757 -0.0013680004184322774
          -0.0013422931367081626 -0.0013681143315952167 -0.0013424846522793498 -0.0014316845360021959 -0.0014317244250473841 -0.001431764314092573
          -0.001238706178530348 -0.0011172019393625035 -0.001238880917593089 -0.0011174621241505475 -0.0012390556566558293 -0.0011177223089385915
          -0.0013145822637535573 -0.001268747257009737 -0.0013146530939217491 -0.0012687528013681489 -0.0013147239240899407 -0.0012687583457265605
          -0.0015161707173773056 -0.0015163958671160485 -0.0015166210168547915 -0.001513709567646942 -0.0015141711789797643 -0.0015146327903125863
          -0.0012282744234326513 -0.0012243099715851683 -0.0012284375191447341 -0.0012242334237825925 -0.0012286006148568168 -0.0012241568759800165
          -0.0015411476312108927 -0.0015413981155896787 -0.0015416485999684643 -0.000947959083388352 -0.000948129793637291 -0.0009483005038862301
          -0.0015897903154542428 -0.001525332117899556 -0.0015902424121448516 -0.0015257601817415265 -0.0015906945088354607 -0.0015261882455834968
          -0.0014821162769145147 -0.0013877584653220723 -0.0014822167605045159 -0.0013877548818717342 -0.0014823172440945175 -0.0013877512984213957
          -0.0010551338049821597 -0.0011438546160504 -0.0011607344089514956 -0.001054986229780457 -0.00114395026432636 -0.0011607040571905499
          -0.0010548386545787543 -0.0011440459126023199 -0.0011606737054296044 -0.0012022097034721747 -0.0011125727583724124 -0.0011889011119238426
          -0.0012957185872735245 -0.0012022470080231002 -0.0011122363152396189 -0.001188742012303031 -0.001295944434033594 -0.001202284312574026
          -0.001111899872106825 -0.0011885829126822196 -0.0012961702807936638 -0.0006287697616501599 -0.0005512879854836306 -0.0005125320885579697
          -0.0005656162963372662 -0.0006289118773479869 -0.0005512715326308687 -0.0005123595255601809 -0.0005655488261808375 -0.0006290539930458138
          -0.0005512550797781066 -0.0005121869625623921 -0.000565481356024409 -0.0015763180398580658 -0.0015763668456309648 -0.0015764156514038639
          -0.0010643378508059698 -0.0009813417300695466 -0.00106403404710358 -0.0009810553826175214 -0.0010637302434011904 -0.0009807690351654962
          -0.0014099665069939294 -0.001352470723364225 -0.0014100700822939545 -0.0013527003309347719 -0.0014101736575939795 -0.001352929938505319
          -0.0009110545119103611 -0.0008283355176233433 -0.0009107002116902959 -0.0008283876448217798 -0.0009103459114702308 -0.0008284397720202164
          -0.0006232188336786445 -0.000713960173940252 -0.0006233660298928307 -0.0007141172797467121 -0.000623513226107017 -0.0007142743855531722
          -0.0005266146368573902 -0.0004898787019494732 -0.0005264787614040461 -0.0004897000647686864 -0.0005263428859507021 -0.0004895214275878996
          -0.0015797811665518974 -0.0015804810916344235 -0.00158118101671695 -0.0015402818475534353 -0.0015406039670910966 -0.0015409260866287586
          -0.0007052193697808031 -0.000607818302921793 -0.000590126157694269 -0.0006748673880599357 -0.0007051036807278353 -0.0006078954932463128
          -0.0005903159648199787 -0.0006749162950871171 -0.0007049879916748676 -0.0006079726835708328 -0.0005905057719456883 -0.0006749652021142986
          -0.0014831971532746947 -0.0014933563893509407 -0.0014833878803826863 -0.0014935018008782992 -0.0014835786074906781 -0.001493647212405658
          -0.0004660885905664276 -0.0004605777411725041 -0.00047638499647226006 -0.00047697866535281177 -0.0004658857764730488 -0.00046045739338468556
          -0.00047630389914943576 -0.0004768695667447708 -0.00046568296237967 -0.000460337045596867 -0.0004762228018266113 -0.0004767604681367298
          -0.00045008753496670424 -0.00038840304359875785 -0.0004187070174141871 -0.00044998176559833843 -0.0003884465860922077 -0.00041864485740751475
          -0.00044987599622997257 -0.0003884901285856576 -0.00041858269740084234 -0.0007121775322298567 -0.0007124647091718941 -0.0007127518861139312
          -0.0014894725272219323 -0.001419995084085491 -0.0014897392147717372 -0.0014202678990687218 -0.0014900059023215423 -0.0014205407140519524
          -0.0012910141097152185 -0.001119417595926799 -0.001290999900429622 -0.001119406350208528 -0.0012909856911440258 -0.0011193951044902572
          -0.0007849186925001342 -0.0007847107255903875 -0.0007845027586806405 -0.001606195289100392 -0.0016068559765604698 -0.0016075166640205478
          -0.0009057125529013897 -0.001034962440742523 -0.000905792052066239 -0.0010345545987163476 -0.0009058715512310883 -0.0010341467566901722
          -0.00048087532124405736 -0.00047370355135094647 -0.00048082790742725 -0.00047370907084798395 -0.00048078049361044255 -0.00047371459034502154
          -0.000469986204431905 -0.0004772585093927239 -0.0004702100808443561 -0.00047758412848446897 -0.00047043395725680716 -0.000477909747576214
          -0.0004991150524005221 -0.000597300784395207 -0.0005475119726121608 -0.0004996342233393946 -0.0005977632949983948 -0.0005480899071846646
          -0.0005001533942782672 -0.0005982258056015827 -0.0005486678417571684 -0.0006985655555838674 -0.0007948590448384099 -0.0006986455979290657
          -0.0007946746499200119 -0.0006987256402742639 -0.0007944902550016142 -0.0004946923655132169 -0.0004979969457550667 -0.0004945750288446359
          -0.0004978625966634613 -0.000494457692176055 -0.0004977282475718558 -0.0006681043778745454 -0.0006195397859916109 -0.0006685527270317475
          -0.0006200701870089141 -0.0006690010761889495 -0.0006206005880262174 -0.00047192115052325275 -0.0004718403708669808 -0.0004717595912107089
          -0.0010163959411447884 -0.001016598036965875 -0.0010117837053140264 -0.0010031270351422436 -0.0010166578579495005 -0.0010164830115820382
          -0.001011491988076066 -0.001003423943530024 -0.0010169197747542126 -0.001016367986198201 -0.0010112002708381055 -0.0010037208519178046
          -0.000982367953084297 -0.0009827312621434126 -0.0009821907922899025 -0.0009826977379314163 -0.0009820136314955081 -0.00098266421371942
          -0.00047619696506739613 -0.00047622015094195475 -0.00047624333681651343 -0.0006867745377475889 -0.000687556301940497 -0.0006883380661334053
          -0.0008373392961638172 -0.0008371235473478983 -0.0008369077985319793 -0.0007160344143581473 -0.0007160683804330875 -0.0007161023465080276
          -0.0009679721067708306 -0.0009679047886395229 -0.0009678374705082153 -0.0008915933679112681 -0.0009616380418614816 -0.0008916101169268148
          -0.0009615336906501576 -0.0008916268659423614 -0.0009614293394388335 -0.001006770110182532 -0.0010069398746868172 -0.0010071096391911021
          -0.000898824118406889 -0.0008991366626466395 -0.0008994492068863903 -0.0004347485094405603 -0.000434606089542405 -0.0004344636696442496
          -0.0014112196451688932 -0.0014113084628995579 -0.0014113972806302222 -0.001135041403901328 -0.001096928699428121 -0.0011350848566050056
          -0.0010968560565860392 -0.0011351283093086833 -0.0010967834137439575 -0.001461774053191615 -0.0014620116037246827 -0.0014622491542577503
          -0.0010567691194208668 -0.001056551396230727 -0.0010563336730405877 -0.0010278794427093488 -0.0010279766962756614 -0.001028073949841974
          -0.0008894297584354082 -0.0008896247511192123 -0.0008898197438030167 -0.0007884324216398491 -0.0007886012514479917 -0.0007887700812561341
          -0.0008224518819120863 -0.000822685291664815 -0.0008229187014175436 -0.0009124726758596765 -0.0009183463555682322 -0.0009124884636624454
          -0.000918275396424162 -0.0009125042514652143 -0.0009182044372800918 -0.0008030372616060467 -0.0007328729712426161 -0.0008036705406863279
          -0.0007337694757822843 -0.0008043038197666092 -0.0007346659803219525 -0.0010409248176669955 -0.0010411916985457084 -0.0010414585794244215
          -0.0004694958865753494 -0.00046961766568975226 -0.0004697394448041551 -0.0013625050734404386 -0.0013627898458159786 -0.0013630746181915185
          -0.0008977017147286809 -0.0009820473714041511 -0.0008978793961474972 -0.0009822710623942005 -0.0008980570775663134 -0.0009824947533842502
          -0.0008375457699793252 -0.0008613432917261464 -0.0008966386617479394 -0.000838026515390922 -0.0008617268415339532 -0.0008973609447558193
          -0.000838507260802519 -0.00086211039134176 -0.0008980832277636991 -0.0009520821492412259 -0.0009775584527965452 -0.0009530674166711823
          -0.0009783644220454897 -0.0009540526841011388 -0.0009791703912944343 -0.0010286231074167881 -0.0010288269826255001 -0.001029030857834212
          -0.0008336941820839469 -0.0008341862362374242 -0.0008346782903909015 -0.0007743042110643229 -0.0007749687955539709 -0.0007756333800436189
          -0.001431468384222178 -0.0014316746181092 -0.0014318808519962222 -0.0004758902872127174 -0.0004758792621898555 -0.00047586823716699357
          -0.0002918151803750509 -0.0004197254504896222 -0.000291845988364952 -0.00041977911648022434 -0.0002918767963548531 -0.00041983278247082644
          -0.001117174197336422 -0.0011171688887774488 -0.0011171635802184755 -0.0009958034627521887 -0.0010193973974186748 -0.0011628829176967557
          -0.0009957773452730755 -0.0010191981594989104 -0.0011626918633516673 -0.0009957512277939623 -0.001018998921579146 -0.001162500809006579
          -0.0007631332733177982 -0.0008335463564602007 -0.0007632051020110283 -0.0008336799476378726 -0.0007632769307042587 -0.0008338135388155448
          -0.0012724500289738815 -0.001098238553804074 -0.0012726781862470412 -0.0010984529182616015 -0.0012729063435202004 -0.001098667282719129
          -0.0009071205910216719 -0.0009072427429491527 -0.0009073648948766332 -0.0008887065124477107 -0.0007725578924238679 -0.0007717512817713791
          -0.0008888053672467815 -0.0007726331933735502 -0.0007718821933647676 -0.0008889042220458523 -0.0007727084943232325 -0.0007720131049581558
          -0.0010217923185591913 -0.0010217109044920233 -0.0010216294904248557 -0.0014305321386748142 -0.0014569831981416379 -0.0014308117874609952
          -0.001457144129221498 -0.0014310914362471762 -0.0014573050603013582 -0.0009854913009851528 -0.0009457152304144956 -0.000985596151446735
          -0.0009457775535408838 -0.0009857010019083169 -0.000945839876667272 -0.001354285003063346 -0.0013543141196799375 -0.0013543432362965288
          -0.0012377326625538422 -0.0012379965601223171 -0.0012382604576907923 -0.0007509557059088602 -0.0007511496587747583 -0.0007513436116406565
          -0.0005722496153669801 -0.0005721327498201316 -0.000572015884273283 -0.0007439332285897328 -0.0007438660337707114 -0.0007437988389516899
          -0.0008823810294536895 -0.0008824730141045048 -0.0008825649987553202 -0.000926073869700916 -0.0009650649161728451 -0.0009262895684278197
          -0.0009652640099677509 -0.0009265052671547237 -0.0009654631037626565 -0.000687015112988727 -0.0006990610272639198 -0.0006871087494800478
          -0.0006991918570993235 -0.0006872023859713686 -0.0006993226869347275 -0.0006236965294156097 -0.000624016483452143 -0.0006243364374886762
          -0.0008285441370907018 -0.0008185230769438404 -0.0008285089059733875 -0.0008185395095692105 -0.0008284736748560731 -0.0008185559421945807
          -0.0012791015669777867 -0.0012794744571531257 -0.0012798473473284648 -0.0006462960947983779 -0.0006463926911797948 -0.0006462990894999999
          -0.0006463427945025964 -0.0006463020842016219 -0.000646292897825398 -0.0013570064540698885 -0.0012943739465594568 -0.0013571209689035718
          -0.0012945298944621497 -0.0013572354837372547 -0.0012946858423648429 -0.0007964836971029791 -0.000796577791349346 -0.0007966718855957127
          -0.0012702624024819864 -0.0012700810546597125 -0.0012698997068374387 -0.0006770411399585074 -0.0006771073386668228 -0.0006771735373751382
          -0.0006641469854354778 -0.000664181073742577 -0.0006642151620496761 -0.0014477524218103831 -0.0014479175949950677 -0.0014480827681797523
          -0.0014093663708139778 -0.0014095323626426254 -0.0014096983544712727
        </DataArray>
        <DataArray type="Float64" Name="pe33" format="ascii" RangeMin="-0.001600999553690768" RangeMax="-0.0002916870285781301">
          -0.0010920600886512443 -0.001201429387427481 -0.001205509460406463 -0.0011312207205948779 -0.0010913147298267074 -0.0011999195737519204
          -0.0012040797421124711 -0.0011300930759404145 -0.0010905693710021708 -0.0011984097600763598 -0.0012026500238184793 -0.0011289654312859514
          -0.000559772009512719 -0.00044255027429245235 -0.0004350099543251535 -0.0005725719092522715 -0.0005601299216065756 -0.0004426231672964125
          -0.0004353917220386713 -0.0005730881155410068 -0.0005604878337004321 -0.0004426960603003728 -0.0004357734897521891 -0.0005736043218297419
          -0.0003136811250819824 -0.0003142068043931555 -0.0003147324837043287 -0.00033552439691692464 -0.00033599896933527573 -0.00033647354175362677
          -0.0011470543106693676 -0.0010788278126245203 -0.0011459390829767512 -0.0010778076537394368 -0.0011448238552841346 -0.0010767874948543533
          -0.0015190735569997754 -0.0015401136475273912 -0.0014533975198863295 -0.0014686615196682238 -0.001516751491994433 -0.0015380771950687382
          -0.0014513087511262139 -0.0014663884139044497 -0.0015144294269890906 -0.001536040742610085 -0.0014492199823660985 -0.0014641153081406757
          -0.0007783834634586969 -0.0008807998946329401 -0.0009577115460853603 -0.0008666753717976282 -0.0007783310634638241 -0.0008806231773705595
          -0.0009575685098971958 -0.0008666296858749065 -0.0007782786634689515 -0.000880446460108179 -0.0009574254737090313 -0.0008665839999521847
          -0.0005678075062214066 -0.0006282449949897081 -0.000540107730830711 -0.0005058566381588754 -0.0005684922212713187 -0.0006285689621115983
          -0.0005405325253684656 -0.000506334946264253 -0.0005691769363212306 -0.0006288929292334886 -0.0005409573199062201 -0.0005068132543696307
          -0.0013215853124761083 -0.0012486275183271626 -0.0012027627748611618 -0.0013212596417468618 -0.0012486576489657128 -0.0012024492662107424
          -0.0013209339710176155 -0.0012486877796042627 -0.001202135757560323 -0.0013470333460491326 -0.0014672402761986287 -0.001471324042230744
          -0.0013083590793604258 -0.0013462895495368957 -0.0014658516541522313 -0.0014696915908893025 -0.0013075871421574195 -0.0013455457530246583
          -0.0014644630321058334 -0.0014680591395478603 -0.0013068152049544128 -0.0011691902081759128 -0.0011686387349399278 -0.001168087261703943
          -0.0012892010303039276 -0.0012364533441547249 -0.0012871837509215297 -0.0012347097357163013 -0.0012851664715391319 -0.0012329661272778777
          -0.0009526288718707035 -0.0010760430793811376 -0.0009643203435439084 -0.0009520116955881559 -0.001075198830234709 -0.000964138082221018
          -0.0009513945193056082 -0.0010743545810882806 -0.0009639558208981273 -0.001415658356593746 -0.001354959290262074 -0.0013913880754944025
          -0.0014606871223920449 -0.0014136502397423707 -0.0013537673797068643 -0.001390349772476321 -0.0014588832421858536 -0.0014116421228909956
          -0.0013525754691516548 -0.0013893114694582395 -0.0014570793619796626 -0.0011200971001129455 -0.0010200172498392125 -0.0010608957911744286
          -0.0011195757819631403 -0.0010196706993206833 -0.0010597584546620028 -0.001119054463813335 -0.0010193241488021542 -0.0010586211181495772
          -0.0009447374889222888 -0.0009466550531732852 -0.0007795837924266945 -0.000944301759198682 -0.0009457026499948434 -0.0007790046004669639
          -0.0009438660294750755 -0.0009447502468164015 -0.0007784254085072332 -0.0012369391735139235 -0.0011366709769529406 -0.0011593540874843661
          -0.0012851963500656576 -0.001236076667526916 -0.0011350987888736823 -0.0011583218077291205 -0.0012842167077674283 -0.0012352141615399083
          -0.0011335266007944237 -0.001157289527973875 -0.001283237065469199 -0.001391938601970359 -0.0012700486072667564 -0.0013906148737644593
          -0.0012685800269351363 -0.0013892911455585593 -0.0012671114466035166 -0.0014212997960127865 -0.0012661196230874783 -0.0013237200964604954
          -0.0014194841363647458 -0.0012653026688161956 -0.0013222965962852527 -0.0014176684767167054 -0.0012644857145449127 -0.0013208730961100097
          -0.0012565661738480614 -0.0013513619675706444 -0.0014507803578533152 -0.0013889105621352899 -0.001255209959361938 -0.0013492871831184432
          -0.001448346351162364 -0.0013869756956950631 -0.0012538537448758148 -0.001347212398666242 -0.0014459123444714125 -0.0013850408292548366
          -0.0008807450041045748 -0.0009596095981269506 -0.0008798976170687156 -0.000958519472310153 -0.0008790502300328562 -0.0009574293464933555
          -0.000969345391910475 -0.0010589385275999019 -0.0009686146748612116 -0.0010580475116586572 -0.000967883957811948 -0.0010571564957174125
          -0.0004506320765423589 -0.0004530444533860922 -0.00045058065956711475 -0.00045310656285411764 -0.00045052924259187055 -0.0004531686723221431
          -0.000845398501542503 -0.0008109461925829751 -0.0009580685344326704 -0.0010136788603733015 -0.0008456066409180323 -0.0008109601752031197
          -0.0009575355140449586 -0.0010133712131941682 -0.000845814780293562 -0.0008109741578232641 -0.0009570024936572468 -0.0010130635660150348
          -0.0014222094619151355 -0.0012985562259075108 -0.001420891634266464 -0.0012974846449974459 -0.0014195738066177927 -0.0012964130640873808
          -0.0015439300879535292 -0.0014681131261297955 -0.0015414768887569953 -0.001466141347995604 -0.001539023689560461 -0.0014641695698614126
          -0.0015770848399892126 -0.001523373464602066 -0.0015742695863378302 -0.0015204560166800377 -0.0015714543326864477 -0.0015175385687580096
          -0.0010196616960016865 -0.0010185160999305219 -0.0010173705038593575 -0.0008905063589826074 -0.0008913696092968129 -0.0008922328596110184
          -0.0011550060879714514 -0.0010067395062626039 -0.001045610457713085 -0.0012105801953134457 -0.0011546525951935357 -0.001007288612029466
          -0.001046092574004798 -0.001210175401124571 -0.0011542991024156197 -0.001007837717796328 -0.0010465746902965113 -0.001209770606935696
          -0.0015162322983581428 -0.0014983530862558456 -0.0015375841803442225 -0.0015138548954282832 -0.0014967681336466962 -0.0015360100589433643
          -0.0015114774924984238 -0.0014951831810375471 -0.0015344359375425065 -0.001548468412182615 -0.0014941855022835352 -0.0015453155575282885
          -0.0014918482416454099 -0.0015421627028739616 -0.0014895109810072853 -0.00116311372071319 -0.0011626633880633683 -0.0011622130554135464
          -0.0004833004356577734 -0.0005157036579818524 -0.0005339990716835196 -0.000488844324366637 -0.00048334764155646444 -0.0005157756595750495
          -0.0005346897433520938 -0.0004892068167384011 -0.00048339484745515553 -0.0005158476611682467 -0.000535380415020668 -0.0004895693091101654
          -0.0013709702538847453 -0.0013694555516036338 -0.0013679408493225222 -0.0010941729400150409 -0.001094383636548771 -0.0010945943330825008
          -0.0010860892916912468 -0.0010858818434663754 -0.0010856743952415043 -0.0010694188714595336 -0.0010370006157997178 -0.001068110294959802
          -0.0010355011566862912 -0.0010668017184600706 -0.0010340016975728648 -0.00108835096855265 -0.0009799151573003297 -0.001088049997166374
          -0.000980598156981686 -0.0010877490257800977 -0.0009812811566630422 -0.001600999553690768 -0.0015615791201751248 -0.0015976755811589714
          -0.0015590653059810566 -0.0015943516086271748 -0.0015565514917869885 -0.0013602900038982347 -0.0013294667209736073 -0.0013581035591530592
          -0.001327270371338204 -0.0013559171144078843 -0.0013250740217028009 -0.0014331245756917545 -0.0014322198010477038 -0.0014313150264036536
          -0.0012264924320484474 -0.0011011138547706916 -0.0012249378556588475 -0.0011004013242079478 -0.001223383279269248 -0.0010996887936452042
          -0.0013231675079266529 -0.0012787936434108663 -0.0013215205066545842 -0.0012768097723022034 -0.001319873505382516 -0.0012748259011935408
          -0.0015168340598409526 -0.0015140282344018555 -0.0015112224089627586 -0.001500250214424239 -0.0014983595346862756 -0.0014964688549483122
          -0.001244573478738744 -0.0012431874444459095 -0.0012436541648272014 -0.001241522005651347 -0.0012427348509156586 -0.0012398565668567845
          -0.0015389095476426007 -0.0015365829411560677 -0.0015342563346695346 -0.0009221498561023998 -0.0009230255647872044 -0.0009239012734720088
          -0.0015842232657252552 -0.0015070814225057252 -0.001581845823036154 -0.001505448887588724 -0.0015794683803470526 -0.0015038163526717228
          -0.0014929902758824495 -0.0014137371636330943 -0.001491706117068539 -0.0014123848131906592 -0.0014904219582546284 -0.0014110324627482243
          -0.0010578193065288875 -0.0011532112187707195 -0.001176634375394842 -0.0010569225457507697 -0.0011525553684636652 -0.0011752855074734414
          -0.0010560257849726517 -0.001151899518156611 -0.0011739366395520407 -0.0012218646297443231 -0.001130438168056093 -0.0012179620683423463
          -0.001323564091138226 -0.0012200117246825854 -0.0011281204180421502 -0.0012155768992350915 -0.001321710268698722 -0.0012181588196208478
          -0.001125802668028207 -0.0012131917301278366 -0.0013198564462592183 -0.0006265604613597877 -0.0005516944527850233 -0.0005146958323262724
          -0.0005660274774065323 -0.0006272724073937796 -0.0005518460050905023 -0.0005146083604443243 -0.0005662825117462994 -0.0006279843534277717
          -0.000551997557395981 -0.0005145208885623762 -0.0005665375460860664 -0.0015910228566547457 -0.0015880291899858319 -0.0015850355233169178
          -0.0010821918829751807 -0.0009910942370166857 -0.0010808686765165706 -0.0009900391092211465 -0.0010795454700579608 -0.0009889839814256072
          -0.0013622609413006873 -0.0013009795951857658 -0.001360513223714152 -0.0012992155791886008 -0.0013587655061276169 -0.0012974515631914351
          -0.00093067703761643 -0.000838619453602678 -0.0009300774136679723 -0.0008388689830179201 -0.0009294777897195148 -0.0008391185124331621
          -0.0006263351151204163 -0.0007168357456749739 -0.0006271503781808838 -0.000717687170511197 -0.0006279656412413511 -0.0007185385953474202
          -0.0005325768184133975 -0.0004947607002772695 -0.0005327221624503046 -0.000494741383869682 -0.0005328675064872117 -0.0004947220674620946
          -0.0015756114669831143 -0.0015737945691352102 -0.0015719776712873061 -0.0015350803184606492 -0.0015331385904341333 -0.0015311968624076174
          -0.0007124321265331281 -0.0006138903842428178 -0.0005919510226598126 -0.000678075084542597 -0.0007127919579515967 -0.0006147202552128092
          -0.0005928095530237096 -0.0006787916875379804 -0.0007131517893700652 -0.0006155501261828006 -0.0005936680833876067 -0.000679508290533364
          -0.001467624448673864 -0.0014702538215353555 -0.0014654399244583719 -0.0014681590683386242 -0.0014632554002428797 -0.0014660643151418928
          -0.00046563487317349416 -0.00045941896761236785 -0.00047592033972809284 -0.0004761473572325825 -0.0004653157299857872 -0.00045918243396080255
          -0.0004756520082099105 -0.0004758836243903455 -0.00046499658679808025 -0.0004589459003092372 -0.00047538367669172816 -0.00047561989154810844
          -0.0004540801184174497 -0.0003912160765103934 -0.00042308685421921466 -0.0004541392456999541 -0.0003914563514421808 -0.0004231763791008852
          -0.00045419837298245856 -0.0003916966263739682 -0.0004232659039825558 -0.0007181173887845187 -0.0007192826384646479 -0.0007204478881447769
          -0.001480185674602197 -0.0014128394161479468 -0.0014776535218828902 -0.0014104651110985458 -0.0014751213691635832 -0.0014080908060491446
          -0.0013071411766057404 -0.001138550067447314 -0.0013062163042655327 -0.001137808755138379 -0.001305291431925325 -0.001137067442829444
          -0.0007939020498241924 -0.0007940849814503662 -0.0007942679130765402 -0.0015986706423864766 -0.0015964507449460416 -0.0015942308475056064
          -0.0009078385349198758 -0.001043381537453317 -0.0009083961996806739 -0.001042299809885541 -0.000908953864441472 -0.0010412180823177652
          -0.000481484324839171 -0.00047336523896671974 -0.00048125511918494407 -0.00047323662585228615 -0.00048102591353071727 -0.0004731080127378525
          -0.000467660735252654 -0.00047381881278968114 -0.00046785814807315024 -0.00047420238260794913 -0.0004680555608936464 -0.00047458595242621713
          -0.0004947799267459166 -0.0005959676876526616 -0.0005404857903947504 -0.0004952507450917169 -0.0005960767620341713 -0.00054064051409186
          -0.0004957215634375172 -0.0005961858364156811 -0.0005407952377889697 -0.0007022226093174168 -0.0008025166069065486 -0.0007022527996485881
          -0.0008025714719426579 -0.0007022829899797596 -0.000802626336978767 -0.0004973226065294566 -0.0005009929873868546 -0.0004969149616515229
          -0.0005006435622691331 -0.0004965073167735893 -0.0005002941371514116 -0.0006694573105378598 -0.0006106828183718273 -0.0006691960174374548
          -0.0006103091331074525 -0.00066893472433705 -0.0006099354478430778 -0.00047426203308379675 -0.00047422571417873904 -0.0004741893952736814
          -0.001011521122068201 -0.0010159844720422178 -0.0010109256400415707 -0.0010009158680527666 -0.0010099618039625209 -0.0010144751758974565
          -0.0010094889173086023 -0.0009992680085810877 -0.0010084024858568407 -0.001012965879752695 -0.0010080521945756335 -0.0009976201491094091
          -0.0009814014887227919 -0.0009816741536162433 -0.0009802402527998425 -0.000980413546604434 -0.0009790790168768932 -0.000979152939592625
          -0.0004775885607428331 -0.00047737087595773193 -0.0004771531911726308 -0.000681148912975526 -0.0006805828251585464 -0.0006800167373415668
          -0.0008519496509677987 -0.0008519928709392373 -0.0008520360909106759 -0.0007216439745989232 -0.0007228419608748408 -0.0007240399471507585
          -0.0009887097115496848 -0.000988383415012341 -0.000988057118474997 -0.0009078155259453919 -0.0009807961331187891 -0.0009078679133672801
          -0.0009799897057621166 -0.0009079203007891685 -0.0009791832784054443 -0.001028435610531099 -0.001027966080295479 -0.0010274965500598591
          -0.0008886378803494184 -0.000889134041116699 -0.00088963020188398 -0.000440365435588912 -0.0004403545654861375 -0.00044034369538336303
          -0.0013553826666692261 -0.001354431259604841 -0.0013534798525404563 -0.0011529931277529416 -0.0011139359707264024 -0.0011519036211735134
          -0.0011128351176105133 -0.0011508141145940855 -0.001111734264494624 -0.0014221815704611662 -0.0014209841918406685 -0.0014197868132201708
          -0.0010710925840060812 -0.0010701518298443422 -0.001069211075682603 -0.0010539577257080016 -0.00105264276656338 -0.0010513278074187583
          -0.0008913398555764556 -0.0008924423882039957 -0.0008935449208315358 -0.0007661131210302265 -0.0007671106690345143 -0.0007681082170388021
          -0.0008038934208337157 -0.0008048868531630134 -0.000805880285492311 -0.0009122430871078383 -0.0009175786650082284 -0.0009112386879090394
          -0.0009166503613934993 -0.0009102342887102406 -0.0009157220577787702 -0.0008083559017278438 -0.0007323281990305962 -0.0008078230327617629
          -0.0007318646849651496 -0.0008072901637956819 -0.000731401170899703 -0.001037684672329418 -0.001036225848474411 -0.0010347670246194038
          -0.00046858958796733063 -0.0004686196402529715 -0.0004686496925386123 -0.0013170650804670229 -0.0013153378593824426 -0.0013136106382978623
          -0.0008976410445566034 -0.000979567286692054 -0.0008966154398184389 -0.0009782363603115154 -0.0008955898350802743 -0.000976905433930977
          -0.0008396591377520066 -0.0008666529964062884 -0.0009049074011685662 -0.0008392072776669811 -0.000866399248148008 -0.0009041352885781663
          -0.0008387554175819558 -0.0008661454998897274 -0.0009033631759877664 -0.000957689864331137 -0.0009760139893309734 -0.0009563073728360068
          -0.000974670004893085 -0.0009549248813408768 -0.0009733260204551965 -0.0010279569478229577 -0.0010263772688293242 -0.0010247975898356907
          -0.0008406282069461647 -0.0008404093771178186 -0.0008401905472894723 -0.0007759476829379136 -0.0007755441605363534 -0.0007751406381347932
          -0.0013988912540201684 -0.0013970042253444686 -0.0013951171966687696 -0.00047659449262279043 -0.00047632019761903325 -0.0004760459026152761
          -0.0002916870285781301 -0.0004223611333452697 -0.00029218546702934763 -0.0004231129428054664 -0.00029268390548056527 -0.0004238647522656631
          -0.0010849144934747244 -0.0010853337845490637 -0.001085753075623403 -0.0010025618033385735 -0.0010236672902930555 -0.0011788803966093337
          -0.0010018090864222632 -0.0010231181585512185 -0.0011787107429872994 -0.001001056369505953 -0.001022569026809382 -0.0011785410893652652
          -0.0007584382428915422 -0.0008249513417069355 -0.0007581626251971301 -0.0008245908063299905 -0.0007578870075027181 -0.0008242302709530452
          -0.0012138070857626187 -0.0010606632817080903 -0.0012133299089060238 -0.0010611675660992376 -0.0012128527320494288 -0.001061671850490385
          -0.0008966860282155748 -0.0008961166334108888 -0.0008955472386062031 -0.000870475984912603 -0.0007597069394062865 -0.000753774597628067
          -0.0008714760002575205 -0.0007605993899807969 -0.0007547039635826544 -0.000872476015602438 -0.0007614918405553074 -0.000755633329537242
          -0.0010026265200160412 -0.0010028087714547558 -0.0010029910228934703 -0.0014305085884821715 -0.001452176518350091 -0.0014281997559436278
          -0.0014494090713018388 -0.0014258909234050837 -0.0014466416242535866 -0.0009706190320272956 -0.0009304032536436119 -0.0009711207859266353
          -0.0009307948584092474 -0.0009716225398259748 -0.000931186463174883 -0.0013615785270274857 -0.0013604668602107766 -0.0013593551933940677
          -0.001181292418572515 -0.0011804713978986468 -0.0011796503772247787 -0.000747601558305124 -0.0007478196201180698 -0.0007480376819310155
          -0.000577925055047568 -0.0005786958717361949 -0.0005794666884248218 -0.0007481650022137926 -0.0007488345397261339 -0.0007495040772384754
          -0.0008659857036099547 -0.0008669391764015387 -0.0008678926491931226 -0.0009299173313462657 -0.0009722727027540142 -0.0009300872677386383
          -0.0009716462924927679 -0.000930257204131011 -0.0009710198822315218 -0.0006866437579876887 -0.0007013956262364396 -0.0006872672196751528
          -0.0007019660213469272 -0.000687890681362617 -0.0007025364164574144 -0.0006233997021842013 -0.0006241535431344082 -0.0006249073840846153
          -0.0008282931245932172 -0.0008189337760469254 -0.0008276491550747093 -0.0008182411484128765 -0.0008270051855562015 -0.0008175485207788276
          -0.0012211374916768864 -0.0012199243070852295 -0.0012187111224935723 -0.0006348014812103706 -0.0006388886861870081 -0.0006354174910721529
          -0.000639563914172336 -0.000636033500933935 -0.0006402391421576638 -0.0013150184792558974 -0.0012340521027630249 -0.0013133844672980062
          -0.0012325332320672793 -0.001311750455340115 -0.0012310143613715337 -0.0007967502322550144 -0.0007960824915619158 -0.0007954147508688171
          -0.0012906261150910767 -0.0012903493994109387 -0.0012900726837308005 -0.0006700635372344221 -0.0006707022570922214 -0.0006713409769500208
          -0.0006517703464851772 -0.0006523354584738381 -0.000652900570462499 -0.0014311043640952313 -0.0014287200822248598 -0.0014263358003544886
          -0.0013810215113021387 -0.0013791804673024496 -0.0013773394233027605
        </DataArray>
        <DataArray type="Float64" Name="disp_x" format="ascii" RangeMin="0.00002708451831436093" RangeMax="0.00005800659138621726">
          0.00004666692164534687 0.00004662638561512787 0.000048698956890219094 0.00004926282476279079 0.00004666712403709004 0.00004662588067559372
          0.00004869748809397036 0.00004926190489495495 0.000046668407004531654 0.000046623687144478806 0.000048693310117815464 0.00004925918844479904
          0.000029867574924296756 0.000028708297933554245 0.000028379608076483823 0.00002951771877981728 0.000029869970657180468 0.00002871095582570063
          0.000028382745617022602 0.00002952066823281218 0.000029877204335470384 0.000028719170858022572 0.000028392154499214273 0.000029530001585412957
          0.00002742635970408085 0.00002742911531313684 0.00002743746558584806 0.000027777575537192972 0.000027780346894115346 0.000027788447165174943
          0.000050924609578000106 0.00005150066178750637 0.00005092198026100496 0.00005149855589623288 0.00005091385974032964 0.000051492395136999375
          0.000046162024746183445 0.00004582272499254077 0.00004805360810584229 0.00004791174661661615 0.00004616091151418517 0.00004582122890702942
          0.000048050985326249895 0.000047909255250697184 0.00004615761615646098 0.000045817532676519476 0.00004804285722022482 0.000047901721968528677
          0.000039078733359698226 0.000038879655733059314 0.000040213699776369835 0.00004044726172094348 0.00003908016969802406 0.000038881326172217974
          0.00004021521512358961 0.00004044888599469373 0.000039084443972596155 0.000038886648919113275 0.000040219445462905355 0.000040453298613399396
          0.0000352571012819262 0.000036410517501276605 0.00003671540708488108 0.000035551058979896615 0.00003525829132093859 0.000036411982640971665
          0.000036716329861197715 0.000035551512454470194 0.00003526207710397551 0.00003641620537365331 0.00003671927863198535 0.000035553044903059423
          0.0000461367828340478 0.00004577416467376204 0.00004837479545971013 0.00004613474730393965 0.000045771947597057746 0.00004837278299602558
          0.00004612884366432913 0.00004576537800553601 0.00004836763557818331 0.00003533016572819261 0.00003710794134158251 0.00003751306886401822
          0.0000351425899579069 0.00003533353232565059 0.000037110864388575225 0.000037516035018121505 0.000035145675034343306 0.00003534421681329251
          0.00003711872376631708 0.000037526512516079665 0.00003515375538869642 0.00003321947948530087 0.000033223235068969075 0.00003323451188533802
          0.00004809581850161081 0.00005025653577493749 0.000048094428245380655 0.000050253784940533404 0.0000480901587646565 0.00005024573738013014
          0.00004360293060892337 0.00004441637330929364 0.00004519298906352725 0.00004360360073170217 0.000044416940691935144 0.00004519385784330835
          0.000043604476841166106 0.0000444182001783202 0.000045196837341948416 0.00004585459064154157 0.00004388654148499655 0.00004252399123151697
          0.00004460054752002034 0.00004585425907949375 0.0000438872377106399 0.000042524716378280815 0.00004460066512848577 0.000045853418825173554
          0.00004388942922140998 0.00004252697617822996 0.0000446014937505936 0.00004167343205484474 0.0000415046769850109 0.000040116690774422025
          0.000041674451850681276 0.000041506184229646795 0.00004011804204639137 0.000041677089645190774 0.00004151088151625737 0.00004012171642358573
          0.00004135961053948142 0.000042199420350269255 0.00004095831919636266 0.00004136120680772317 0.00004220070230152125 0.00004095968643457538
          0.00004136733029659211 0.00004220500835741939 0.00004096426166608955 0.000041892407855787905 0.000039768252486291344 0.000038769508230874934
          0.00004045853976824383 0.00004189325697792074 0.00003976983245492465 0.00003877154739177811 0.00004045982072398299 0.000041895457293947587
          0.000039774160683810234 0.00003877821607601667 0.000040463599611145995 0.00003692403907863072 0.00003500634417612119 0.00003692680804725267
          0.00003500949687920874 0.000036934458083169435 0.00003501854296924771 0.000048241557502991506 0.00005040776086574849 0.00005006272832331136
          0.000048238581375485224 0.00005040391514140186 0.00005005922702920887 0.000048229619702237654 0.000050392486085125934 0.00005004857411357204
          0.00005111771552346661 0.00004961797271715606 0.00004799932584083666 0.00004926883318027386 0.00005111387830731368 0.000049615119286199386
          0.000047997094264887543 0.000049265916418324185 0.000051102827963785294 0.00004960673014133621 0.000047990122009749885 0.00004925677796924739
          0.00005467336318151107 0.000053184359519828145 0.00005467104470901863 0.00005318228150465687 0.0000546644219761177 0.00005317594377671573
          0.000046891718018320516 0.000047846052083516044 0.000046892888125057035 0.000047846407596213246 0.00004689647292964794 0.000047846987830859235
          0.000030100034379104174 0.000030220516366827323 0.000030100867644533466 0.000030221595261847932 0.000030102881052789222 0.00003022464010979554
          0.00005493574441763478 0.00005524073995810319 0.000053569832246874086 0.00005305020006620653 0.00005493255661202319 0.00005523745418327689
          0.00005356708846852003 0.000053046896399471916 0.00005492369153101969 0.00005522766177584226 0.00005355883615525785 0.000053036629845027755
          0.000046042798802370425 0.0000483909601071676 0.00004604092171369198 0.00004838827614026801 0.000046035536269890374 0.0000483800996556932
          0.00003839411239054976 0.00003681266821445796 0.000038396411982797686 0.00003681583768448036 0.00003840355142685131 0.00003682488296507944
          0.000040089301405938506 0.00003809632168234158 0.00004008982790939879 0.000038098062610908964 0.0000400907833108275 0.00003810390412303179
          0.00005225714349813584 0.000052255239860842085 0.000052249281314508256 0.00005447040409592189 0.000054467405330759935 0.00005445862171859029
          0.0000505323563580351 0.000052525123646635915 0.00005257122238008552 0.00005054543515119745 0.00005052934453092616 0.00005252200086303567
          0.00005256800415607339 0.00005054188032660552 0.00005051998515360046 0.00005251278739182686 0.00005255799863759893 0.00005053113794927237
          0.000045387751317134894 0.00004375764017924098 0.00004345131455834804 0.000045387389925801416 0.0000437580663222594 0.00004345142423627948
          0.0000453865023234513 0.000043759283449717594 0.000043451861827409386 0.00003904380173968345 0.00003888441074139102 0.00003904595817055064
          0.00003888639433054714 0.00003905376782402669 0.00003889305487807733 0.00005203970588041326 0.00005203551921752603 0.00005202259838322379
          0.00003333098346750001 0.000033038262074820556 0.00003417495973186223 0.000034450218614799525 0.00003333086691963884 0.0000330384925957636
          0.00003417555681697721 0.00003445040686903113 0.00003333080878809537 0.000033038910516706416 0.00003417750868847431 0.000034450904671435126
          0.00004835685844294458 0.00004835409547426554 0.00004834465004867624 0.00005246558120734536 0.00005246192091161596 0.0000524506071907264
          0.00005055980411777647 0.00005055756940346147 0.00005055013839475641 0.0000499415957102853 0.00005140814653928458 0.00004994104132775185
          0.00005140697416369377 0.00004993914933253353 0.000051403474630747684 0.00005288268035040614 0.00005386445372539875 0.00005287826608900658
          0.000053860469529784874 0.000052864308286942673 0.000053847996934746366 0.00004066249786588438 0.000040966617576885106 0.00004066291659650512
          0.00004096715414717661 0.000040662435603577174 0.00004096778444570931 0.0000471075618238599 0.00004919195237775189 0.000047106717126020885
          0.00004918978194275539 0.00004710389861446688 0.00004918331266953337 0.000041552081831591936 0.00004155306720724796 0.000041556026395305205
          0.00005124160661510113 0.00005243230036393078 0.000051238065498422536 0.000052428292701958835 0.00005122762039413732 0.000052415376812843025
          0.00004521879374491722 0.00004618606799723422 0.00004521921821956853 0.000046185850789015565 0.0000452204335523472 0.00004618496348035599
          0.00003911911145445509 0.0000391197159018753 0.000039121344059797505 0.00004587443214202348 0.00004587260097245325 0.00004586724535687907
          0.00004390181435777112 0.00004496764635795717 0.00004390277766316331 0.000044968226196515024 0.00004390576063818163 0.00004497005994372438
          0.00004122504548886519 0.00004122456360632441 0.000041222296492106155 0.00005431795080980915 0.00005431462986189187 0.000054304431760684063
          0.0000425904933728137 0.0000435841771691912 0.00004258976081507701 0.00004358320597849759 0.00004258697753033969 0.000043579564968569124
          0.000041093404397945904 0.00003880741447653015 0.000041094279255226246 0.000038808819448970585 0.000041096214587847994 0.00003881268449169772
          0.000042851264956714595 0.000043256937278716236 0.00004482986013662475 0.000042852403140455435 0.00004325808320889497 0.000044830453770201206
          0.00004285553410574654 0.00004326187284781426 0.000044832211470765256 0.000036164161778193646 0.00003445232052211707 0.000034816066898865814
          0.00003664819817188419 0.00003616638425074511 0.00003445604541435074 0.00003481977891315149 0.00003665034952760939 0.00003617274952941304
          0.000034466886807451804 0.00003483015794665627 0.000036656952235408434 0.00003269534283736576 0.000032434491916564904 0.000030936435303542395
          0.00003125433774681088 0.00003269694536124626 0.00003243526277682887 0.00003093779719493277 0.00003125587612484806 0.00003270146225576345
          0.00003243761882760819 0.00003094219401027212 0.00003126079077239221 0.00003979589474108342 0.00003979761424946656 0.000039802157534067676
          0.000035408873716030864 0.00003382762754069707 0.000035411601190712186 0.00003383180203807079 0.00003541951942629696 0.000033844444143155965
          0.000042757904031676644 0.000042321629308622205 0.000042756301632009966 0.00004232032488916129 0.00004275148967798299 0.00004231657880440686
          0.000034783255144376 0.00003323482803470474 0.000034786228953922304 0.00003323867857521306 0.000034794860715810845 0.00003325043462575673
          0.000031424865924978175 0.000032905009363481166 0.00003142706091473601 0.000032907878004435265 0.00003143329665205856 0.00003291636641395443
          0.00003007047279639672 0.000030018463369472817 0.00003007263759196585 0.000030020415796877256 0.00003007881110266229 0.000030026184198407676
          0.000043346347486947204 0.00004334602823070395 0.000043344238411082865 0.00004577719086399104 0.00004577580452673177 0.00004577120676616626
          0.00003575897203580454 0.00003498321715923906 0.00003403411154461767 0.000034152422425931976 0.00003576093251718956 0.00003498481157091188
          0.000034035298673403855 0.00003415448787050256 0.000035766954919253286 0.00003498998440703294 0.000034038436779773863 0.00003416071432116209
          0.00003990263248745089 0.000041931684753126104 0.0000399027343822797 0.00004193074515242144 0.00003990336216452424 0.000041928213697270283
          0.000030108891956179805 0.000030113081220087226 0.00003120160555986236 0.00003126314310783892 0.000030109164963920653 0.00003011347424141494
          0.000031201722944288074 0.00003126312535223132 0.000030109907292269278 0.000030114770195302412 0.00003120231573490179 0.000031262714615281744
          0.000029752652357501283 0.000028746418506487314 0.00002898759041765685 0.000029754545591075827 0.000028748240929086015 0.00002898984305002726
          0.00002975977147631165 0.00002875384555047443 0.000028996148191605493 0.00003149576092597295 0.00003149902503888897 0.000031508422182310064
          0.000046433228416170676 0.00004782792003870015 0.00004643246865333241 0.000047826373358048694 0.000046429524881912536 0.000047821062664987655
          0.00003873680935404758 0.00003718035494891044 0.000038738549309382405 0.00003718266803637347 0.00003874343356010368 0.000037189236410399956
          0.000034417036096845056 0.000034419931906291816 0.00003442855789504082 0.000043148537801456927 0.00004314797018083464 0.00004314540839259409
          0.00003267652052604925 0.00003343917631009949 0.00003268133310766698 0.00003344392020607297 0.000032696144781726437 0.00003345943192638301
          0.000032282638480765424 0.00003241004482319821 0.00003228281522282102 0.00003240989475469882 0.000032282898533412476 0.00003240902219439077
          0.00003466779015160505 0.0000357869156144154 0.00003466772909682929 0.000035787038848272826 0.00003466730657869393 0.00003578695428064656
          0.000036905477404639936 0.00003791239986763525 0.00003804094191404844 0.00003690606790558115 0.00003791374351494594 0.000038042095542427356
          0.0000369071260842113 0.00003791810943448258 0.00003804528089260186 0.00003769068993701365 0.000037465095486881526 0.000037692372296520175
          0.000037467058905398956 0.00003769734357774758 0.000037472614698297075 0.000031986622806757774 0.0000314343358989342 0.000031987122515257295
          0.00003143534325455136 0.00003198823830916741 0.00003143817141008625 0.000039253808396678515 0.00003922806380300448 0.00003925538030323926
          0.000039229312425106375 0.00003925984692445302 0.000039232969447662426 0.000030526425532246096 0.000030527860458790856 0.00003053197450446922
          0.00004921916427247613 0.00005103189358127093 0.00005104886393773831 0.00004934661492893346 0.00004922006297711929 0.000051031458386786366
          0.00005104852720206529 0.00004934726452616713 0.000049221515021355405 0.00005103056845522767 0.00005104767358582049 0.00004935037704711133
          0.00005273985660280622 0.00005273030375005012 0.00005273863952715469 0.00005272918277584203 0.00005273526947398635 0.00005272566975433504
          0.00003093625104076524 0.00003093728149190697 0.00003094047641232666 0.000040483806910816754 0.000040484862085293045 0.00004048753893255099
          0.00003593980525792134 0.00003594206075181966 0.00003594838807295207 0.000030772426061913285 0.00003077585496153227 0.000030785072472972865
          0.00003636059953729067 0.00003636301089125129 0.00003636977440683094 0.000037407600587381934 0.00003874700555407426 0.000037409939751056405
          0.00003874917117461173 0.00003741665642644293 0.00003875623689931901 0.000037780284373833645 0.00003778286596759531 0.0000377906220487422
          0.00005472337163487024 0.000054719737536332316 0.00005470870131557799 0.000028951243928095504 0.000028953767797638435 0.000028961170523281387
          0.00004422649156629975 0.00004422477234930245 0.000044217548996158166 0.00003323075915964677 0.00003324302566622176 0.00003323466805407032
          0.000033247297374113 0.00003324616123276014 0.00003326042275264852 0.0000440012755655248 0.00004399969764346612 0.00004399303502018642
          0.000033334514333190746 0.00003333951555203126 0.00003335497104694108 0.000038714447407990995 0.00003871677943750859 0.0000387243177737443
          0.00003203563060838104 0.00003204033090142817 0.00003205380415197718 0.00005602983355365229 0.00005602725086383636 0.000056019091049594486
          0.000055563176801538765 0.0000555603705879507 0.0000555522073020356 0.00005438877532195391 0.00005438688879340112 0.000054386943645221456
          0.00005438517476944886 0.00005438143137052866 0.000054380142525252476 0.00004263686646202312 0.00004178302359720101 0.00004263819877284596
          0.00004178446818731019 0.0000426416569422915 0.00004178874231033456 0.000049371609486778415 0.00004937181603131758 0.000049372593341768826
          0.00003354287779058596 0.0000335428263640295 0.00003354216722126373 0.000040988597184776044 0.000040987826531872545 0.00004098592903651225
          0.00005452255074554739 0.00005287243766019446 0.000054520592227396084 0.000052871019504998496 0.00005451432836942142 0.00005286674395335987
          0.00004459079169537678 0.00004506808841023396 0.0000461186402971282 0.00004459224781734529 0.000045069605794013225 0.00004612013372427793
          0.0000445970163618341 0.00004507377506446778 0.0000461240888046305 0.00004768754962785527 0.0000480295253876659 0.00004768877613796436
          0.00004803065268945979 0.000047693601270811364 0.00004803420860064676 0.000051196896487066964 0.0000511962861415345 0.00005119406671140553
          0.00004420827309179757 0.000044209423589830776 0.00004421311572778876 0.0000431477647153096 0.000043149515589232675 0.00004315536652962522
          0.00004049879289736562 0.00004049873445032595 0.0000404978768447034 0.00003105196733414066 0.00003105281204325607 0.00003105502931990658
          0.00002708451831436093 0.000028047240480711588 0.000027087377910970458 0.000028050407856256493 0.000027095509281012108 0.000028059875158713385
          0.00004830849787487618 0.00004830703340694919 0.00004830242036862959 0.000031537545983047245 0.00003159889588189479 0.00003324708474108573
          0.00003154161435033343 0.00003160279872382262 0.00003325092972809772 0.00003155395142943843 0.00003161432926826431 0.00003326003638766758
          0.000056284867129166016 0.000055222926782635527 0.000056282231859802314 0.000055220260446103015 0.000056274170062348105 0.000055212370464598125
          0.00004480338225473647 0.00004659988324759664 0.000044801070043065356 0.00004659807607042928 0.00004479419231710778 0.00004659264129020205
          0.0000542500239190054 0.00005424715166867162 0.0000542383704495224 0.00005442724877855662 0.00005629829216779507 0.00005624742245729972
          0.00005442506176748203 0.000056296837917528 0.000056245149988820545 0.00005441817310827618 0.000056292254385359886 0.00005623820565973628
          0.00005084864360350508 0.00005084706765969588 0.00005084210451593176 0.00003631275668562624 0.00003719237228846304 0.00003631576009720046
          0.00003719433464904837 0.00003632421418078651 0.0000372002002015739 0.000052478330663445004 0.000052652845878694735 0.000052475910509955804
          0.000052651269819428974 0.00005246797929039793 0.000052646365717693045 0.00003528508247883201 0.000035288501466706835 0.00003530005620318598
          0.0000435012015178223 0.000043499284359295996 0.00004349371777096361 0.00005591515897289197 0.00005591209698782362 0.000055902651803872446
          0.00002916222529816623 0.00002916613367170431 0.000029177816212404764 0.000030375436817981322 0.00003037953277106468 0.0000303919196856346
          0.00005422091846227788 0.00005421905294932827 0.000054213339376 0.000031716472056915224 0.000031575621130971135 0.00003172087389685353
          0.000031580061965139616 0.00003173408147381215 0.00003159370840145975 0.00005653613614439953 0.00005630979527951084 0.000056533007135693934
          0.000056306719707597575 0.00005652332938732713 0.000056296519542120626 0.00005716462893132482 0.00005716207834582591 0.00005715455540739876
          0.000055955048890001004 0.000055940053494408864 0.00005595272404417176 0.00005593776465193538 0.000055946214529633474 0.000055930853272748866
          0.000041589989802518916 0.00004158873153623664 0.00004158438456370492 0.00005769486985772953 0.00005800659138621726 0.00005769291466176203
          0.00005800512544708368 0.000057687303429491506 0.00005800064005529409 0.000039278767138661046 0.000039986576595518686 0.0000392785494684278
          0.00003998564119047375 0.00003927782105489639 0.00003998279652254907 0.0000559901299821842 0.00005598757198210311 0.0000559802821938011
          0.00003455452973387227 0.00003455828375128531 0.000034570237948278034 0.00005685561128970254 0.00005685283982981881 0.00005684428590778079
          0.000057245666945239865 0.00005724321862106004 0.00005723600643311962 0.00003799576133521561 0.00003799674921516582 0.00003799885241856778
          0.00003868308051098891 0.00003868322042422259 0.00003868394496414363
        </DataArray>
        <DataArray type="Float64" Name="disp_y" format="ascii" RangeMin="-0.00001980059000806359" RangeMax="-0.000004562380932249451">
          -0.000016748430644487216 -0.0000160836681072577 -0.000015103618991295575 -0.000015380090384319853 -0.00001675063027732144 -0.000016085681018975648
          -0.000015104817828850397 -0.000015381057411089606 -0.000016757068751078082 -0.00001609187161169866 -0.000015108925749140791 -0.00001538378229250744
          -0.00001482663570986615 -0.000014533202675996567 -0.000014103119291598001 -0.000014288599277688427 -0.000014827149299897068 -0.00001453325654122463
          -0.000014103284281780838 -0.00001428906001288965 -0.000014828721666726177 -0.000014533442462388022 -0.000014103624188698125 -0.000014290639027468001
          -0.00001394442363075108 -0.00001394441634760486 -0.000013944539189122425 -0.000014316009077647494 -0.000014315895545479566 -0.000014315415267324045
          -0.000013944176893148567 -0.000014170734303066387 -0.00001394437681000507 -0.000014170759679372182 -0.000013944933725609349 -0.000014170574244461278
          -0.000012092875921421982 -0.000011150019568853213 -0.000010562834421895732 -0.00001125472765245711 -0.000012093083909948947 -0.000011149817945326451
          -0.000010562171633699974 -0.00001125432334542352 -0.000012093596258769913 -0.000011149261616498804 -0.000010560101198391984 -0.000011253406987081152
          -0.0000187632535747437 -0.00001823041293167564 -0.000018103337795327052 -0.00001861076685500774 -0.000018765948839284694 -0.000018233232477488814
          -0.000018106266960500488 -0.000018613659050937253 -0.000018773666527852427 -0.000018241971832165605 -0.00001811620105321718 -0.000018621404842811913
          -0.000018346333606582135 -0.000018589823357958738 -0.000019056864685054005 -0.000018760664484284145 -0.000018348013798469723 -0.000018592003065883618
          -0.000019059250150521294 -0.00001876231749618011 -0.000018353015275891516 -0.00001859867684011868 -0.000019066482453681477 -0.000018767306037429077
          -0.000006708209234591098 -0.0000058686471705300095 -0.000006412802581995385 -0.00000670587111794847 -0.000005866462116037826 -0.000006410646503942885
          -0.000006698446713598086 -0.000005860173304494425 -0.000006403984991591521 -0.000011655018831396172 -0.000011573585821854332 -0.000012288560319621757
          -0.000012630078055434662 -0.000011655914456328214 -0.000011574368885371623 -0.000012289555887287895 -0.000012630852589394746 -0.00001165812685705404
          -0.000011577894674326675 -0.000012292626129392436 -0.00001263339796540024 -0.000012136246075756521 -0.000012136955733464218 -0.000012138187324986514
          -0.000014761083341119465 -0.000013660112124576125 -0.000014762341857198003 -0.000013660408761307257 -0.00001476629799290929 -0.000013661614894431735
          -0.000018177407561999627 -0.0000174071627625259 -0.000017828065185357613 -0.00001818025149987178 -0.000017409772573076313 -0.000017830495924722248
          -0.00001818846676415779 -0.000017418502952481707 -0.00001783778470893025 -0.000014332774279241724 -0.00001533285708907091 -0.000014997979521524281
          -0.000014077249688793539 -0.000014334116103923408 -0.00001533462642572835 -0.000014999680919437896 -0.000014078607414384559 -0.000014338383057268843
          -0.00001534026220805735 -0.000015004920124993849 -0.0000140827416794201 -0.000017282319916433813 -0.000017898142852947106 -0.00001754489782487283
          -0.00001728497930935212 -0.000017900909274488004 -0.000017547908370339258 -0.000017292846334795587 -0.000017909428319189765 -0.00001755731361659989
          -0.000018311009230582818 -0.00001834266687584405 -0.00001908341825132066 -0.0000183138190723241 -0.000018345521296955206 -0.000019086715187623933
          -0.000018322266397617167 -0.000018353885855649244 -0.000019096371563829578 -0.000016431721038172168 -0.000017003320146419777 -0.00001655002107089542
          -0.000015854099596916124 -0.00001643397702039862 -0.000017005857957136925 -0.000016552298724553286 -0.000015856135069164182 -0.000016440790223413904
          -0.00001701288870219572 -0.000016559026588526345 -0.000015861913797445667 -0.000013376064628502837 -0.000013474476131566601 -0.000013377311841623258
          -0.000013475575902007603 -0.000013380229920044115 -0.000013478248832411116 -0.000009551955055472724 -0.000009342781407472539 -0.000010307307444310856
          -0.000009550902665858415 -0.000009341619837575935 -0.000010306326554448818 -0.000009547634344165485 -0.000009338018382019391 -0.00001030328174955925
          -0.00001123489177644472 -0.000012259195495207022 -0.00001219579466796384 -0.000011246795272789092 -0.000011234095994693895 -0.000012258959942778182
          -0.000012195736771721241 -0.000011246136845890404 -0.000011231737094960678 -0.00001225828878828709 -0.000012195493721777016 -0.00001124397373862358
          -0.000013614608171090203 -0.000014090958845499943 -0.000013613360932043572 -0.000014090138822894205 -0.00001360933192959853 -0.000014087492759267954
          -0.000017451410493762743 -0.00001659175888151903 -0.000017453471417888437 -0.00001659319739619068 -0.000017459448432640098 -0.00001659820104614609
          -0.000016514524918242246 -0.00001638155371401207 -0.000016514230452372827 -0.000016381319921432158 -0.000016512971430329546 -0.00001638048455490128
          -0.000011888547529156808 -0.000012200531389323316 -0.00001305468654020511 -0.0000128141535345603 -0.000011887570489071542 -0.000012199433079931249
          -0.000013053815755160484 -0.000012813628585891955 -0.000011884480728872698 -0.000012195963113506334 -0.000013050897535929783 -0.000012811787077460219
          -0.000007744712389838107 -0.000007445098067427146 -0.000007742669807975262 -0.0000074432287339144 -0.000007735823484180566 -0.000007437749588328652
          -0.000010810580133193273 -0.000010635690226924206 -0.000010810917969896723 -0.000010636413041305812 -0.000010812391077026668 -0.00001063874618825155
          -0.000009623766446044399 -0.000009617708541892131 -0.000009623397152190503 -0.000009617715620900779 -0.00000962201017695322 -0.00000961714471006372
          -0.000014215167111897681 -0.000014214648198013449 -0.000014213630086667833 -0.000008416893832214468 -0.000008416352414996688 -0.000008414484158586337
          -0.000007334146629182656 -0.000007419124096759172 -0.000008340897551049986 -0.000008308158234110438 -0.000007332882597504252 -0.000007418274443631196
          -0.000008339977496060309 -0.000008306954387639459 -0.000007329384569962769 -0.000007415743471543651 -0.000008337179526121257 -0.000008303216267598216
          -0.000013004851217707504 -0.000013618161123190308 -0.00001288849046550375 -0.00001300570843465697 -0.000013619414311026263 -0.00001288951599995128
          -0.000013008053976597233 -0.000013623242950626615 -0.000012892706515952308 -0.000012503443163699971 -0.000013228976880856373 -0.000012504331621810825
          -0.00001323048915658758 -0.000012507361863944353 -0.000013236318146415047 -0.000010263023624461845 -0.000010262035553316399 -0.000010258835872635306
          -0.00001801616904049762 -0.000017635180324241334 -0.000018021775595696014 -0.000018411544176028488 -0.000018016901053264986 -0.000017635921728196446
          -0.00001802291088787608 -0.000018412657076750312 -0.000018019110739776193 -0.000017638305558043016 -0.000018026251267634344 -0.000018415733741049028
          -0.00000846991884951192 -0.000008468532170365984 -0.000008464164339539397 -0.000009306709029445108 -0.000009305696654809193 -0.00000930250815762127
          -0.000006415275792483486 -0.000006413819640024074 -0.000006409235253459949 -0.000015577828934988518 -0.000015062466709913025 -0.000015578404371413885
          -0.0000150624428948595 -0.000015579930515605494 -0.000015062035071493955 -0.000011243202291855874 -0.000010253201361307806 -0.000011242221133419393
          -0.000010252331857721786 -0.000011238881008467912 -0.00001024978123870093 -0.000011894400948343442 -0.000012753786913037322 -0.000011895150656209644
          -0.000012755358964772573 -0.000011896919016442017 -0.000012760441168855453 -0.00001452211573982826 -0.000013441462653609141 -0.000014523317773150155
          -0.000013441912601600943 -0.000014526920629620741 -0.000013443293528484667 -0.000014404936536670824 -0.000014406712200693313 -0.000014411656059316009
          -0.000012314234186700178 -0.000012505512904835267 -0.000012313829699582319 -0.000012505058751761951 -0.000012312619164610658 -0.000012503985006156877
          -0.00001549607396153262 -0.0000156914360067016 -0.000015497860341247128 -0.000015693277495835294 -0.00001550297750319768 -0.000015698787402696282
          -0.000008567551701452124 -0.00000856666363459574 -0.000008563758281334244 -0.00000892429846042612 -0.000008923040348174367 -0.000008919484384402147
          -0.00001631666833693011 -0.00001625432496230364 -0.000016318924074315987 -0.000016256448463070592 -0.000016325803147907437 -0.000016262617516902133
          -0.00000842069104668729 -0.000008419558065135643 -0.000008415729641266585 -0.000009322596412665136 -0.00000932205659920665 -0.00000932083455924648
          -0.000009721091230583059 -0.000008170521481689505 -0.000009720372964563744 -0.00000816896077160931 -0.000009717920752960415 -0.000008164381395693392
          -0.00001364824754053215 -0.000014135061303189422 -0.000013650060323494536 -0.000014137086991510788 -0.000013655694241234852 -0.000014143062528853311
          -0.000017707577013263387 -0.000017043927418176512 -0.000016725404790342535 -0.00001771027051955073 -0.000017046412813273558 -0.000016727823151214415
          -0.00001771776520424085 -0.000017053595366652233 -0.000016735447865977406 -0.000015109349552745756 -0.000014904335092050785 -0.000014245845222619877
          -0.000014282714217068364 -0.00001511156302720752 -0.000014906270963086101 -0.00001424729843664473 -0.000014284279175808423 -0.000015118692322517918
          -0.000014912308445785273 -0.000014251305719800622 -0.00001428858169067919 -0.000016706516119569946 -0.000017053929498306978 -0.000016284852225967146
          -0.00001610138708996789 -0.000016707523861270204 -0.000017054606377816326 -0.000016285057911158535 -0.000016101854074740676 -0.000016710444265277907
          -0.000017056679511690606 -0.000016285818502987963 -0.000016103146280620427 -0.000011203007595308174 -0.000011203579730376153 -0.000011204346287888103
          -0.000015821469341372227 -0.00001543164162087167 -0.000015823945798445595 -0.00001543371398390821 -0.00001583139156601138 -0.000015439950309631973
          -0.000006168779818462704 -0.0000055584883125829986 -0.000006166498085308895 -0.000005556063879210667 -0.0000061598438612261845 -0.000005548814313543766
          -0.00001638109061478151 -0.00001588617238224048 -0.000016383452708068202 -0.000015888084423073632 -0.000016390551157209133 -0.000015893793456034486
          -0.000015763217998462047 -0.000016324874900164958 -0.000015764001332239363 -0.000016326485101527777 -0.000015766126988444406 -0.000016330901349382086
          -0.000015280074906035136 -0.000015575430012635447 -0.000015280537365612273 -0.0000155756737699648 -0.000015281822214506252 -0.000015576522145078867
          -0.000011956862656921418 -0.00001195745574509732 -0.00001195884132759054 -0.000010105419452821188 -0.000010104951715480325 -0.00001010366554895047
          -0.000017942414839247408 -0.00001799328919916466 -0.000017642354051644632 -0.000017292747167574552 -0.000017944548701734744 -0.000017995057494476068
          -0.00001764378079230378 -0.000017294525601094092 -0.000017950980935457356 -0.000018000289742026115 -0.000017647975079282663 -0.000017299917758950127
          -0.000007539335814977418 -0.000007329430954919774 -0.000007537892495564336 -0.0000073277836959281315 -0.000007533392837465764 -0.0000073228126014249775
          -0.000016971939609950505 -0.000016738307525110586 -0.000017188448555253676 -0.00001743198497866607 -0.000016971218707858844 -0.0000167377742641278
          -0.000017188358924010564 -0.00001743162072719695 -0.000016969122895556378 -0.000016736154146033517 -0.000017188075269847198 -0.000017430976704736322
          -0.000015720402854126548 -0.000015247144207922596 -0.00001514603321095397 -0.000015720462238710614 -0.000015246867881232073 -0.000015146008067806411
          -0.0000157204628678163 -0.000015246187574606407 -0.000015146071830864001 -0.000015203131368703604 -0.00001520420535178537 -0.00001520720304339033
          -0.00001313954153638318 -0.000013306308731580324 -0.00001314027954514871 -0.00001330688108296333 -0.000013142556325893707 -0.000013308588704301377
          -0.000015229268119936132 -0.00001617029006323402 -0.00001523138117040128 -0.000016172647260413294 -0.00001523761258200786 -0.000016179784258543732
          -0.00001687244615314666 -0.000016874682020889286 -0.00001688131545877432 -0.000010929240731385745 -0.000010929216054443423 -0.000010929167463799875
          -0.000014949882915212836 -0.000014719281169280412 -0.000014951456031379395 -0.000014721075212253135 -0.000014955464547855682 -0.000014726758957091366
          -0.000017620318993071416 -0.000017893422049662694 -0.000017620830408313504 -0.000017893771576653707 -0.000017622278038681368 -0.000017894977234536824
          -0.00001875428822598041 -0.0000191304347663533 -0.000018755438908548367 -0.00001913222566729079 -0.00001875888394964077 -0.00001913741133028834
          -0.00001944544558543839 -0.0000192445421545682 -0.00001967174189370451 -0.00001944811253052598 -0.00001924744112147382 -0.000019675053105023644
          -0.00001945596572504479 -0.000019256209264391934 -0.000019685356588056458 -0.00001874229786910037 -0.000018185865076594383 -0.000018744888286257713
          -0.000018188431978560825 -0.000018752332721668504 -0.000018196041389042 -0.000017276026746061985 -0.000016850517834946513 -0.000017276455483160912
          -0.000016850762011926557 -0.000017277813689664537 -0.00001685109732905925 -0.00001929389102901639 -0.000019785534053131668 -0.000019297073582003356
          -0.000019789113456060806 -0.000019306467999755158 -0.00001980059000806359 -0.000016333238347794366 -0.00001633326972544679 -0.000016332988793748115
          -0.00001663104424657927 -0.000015810187798472837 -0.000016094612079218427 -0.000016870683860828313 -0.00001663223060844996 -0.000015810357205547923
          -0.00001609445116208825 -0.000016871290471596505 -0.00001663491853051492 -0.000015810899693860265 -0.000016094224600963098 -0.00001687368950909171
          -0.00001530885726256933 -0.000015027847849288278 -0.00001530820092555018 -0.000015027339709105547 -0.000015306600655250617 -0.000015025895477903849
          -0.000016731547097823326 -0.00001673162574161719 -0.000016731559425778406 -0.000019749300931469888 -0.000019753363287735705 -0.000019766082173347357
          -0.00001732690278027867 -0.0000173293051389928 -0.000017336420094328456 -0.00001442061349282981 -0.000014421910565078744 -0.000014425629966181281
          -0.000016780294622847154 -0.000016782875223351516 -0.000016790553217277757 -0.00001761401482495882 -0.00001768307841155804 -0.00001761676618792914
          -0.00001768598142713444 -0.000017624823376925762 -0.00001769506592671602 -0.000017086250992655772 -0.000017088919082989273 -0.000017096836773672027
          -0.000011254009140894617 -0.000011253154770101756 -0.000011250614506127563 -0.000014900795419639361 -0.000014900978985594107 -0.00001490105333961972
          -0.000006373019529053231 -0.000006371020710646642 -0.000006363825835952597 -0.000012867051275097982 -0.000013607769155299758 -0.000012868129962630446
          -0.000013609251638766093 -0.000012871385749279566 -0.000013613847954203581 -0.0000070745588184128814 -0.000007072632536156893 -0.000007066847004163266
          -0.000014268173987469595 -0.00001427007996292101 -0.000014274889271506446 -0.000017263119651950732 -0.000017265791317933355 -0.000017273851142934635
          -0.000014380702363075408 -0.00001438235467939397 -0.000014387682519470131 -0.000009275919190584598 -0.000009275702335891427 -0.000009275148549198446
          -0.000010148395936931451 -0.000010147826372141287 -0.000010146235876154367 -0.00001426385805728217 -0.000014542382212039254 -0.000014262867471268054
          -0.000014541255773478884 -0.000014259929302732948 -0.000014538147120209899 -0.000018912299787466652 -0.000019573557181908885 -0.000018915828819847926
          -0.00001957799692964642 -0.000018926955769063768 -0.00001959258470648479 -0.000016267731187602458 -0.000016268629304453204 -0.00001627142052350953
          -0.000018337976687098294 -0.000018338860241449004 -0.000018341273647616905 -0.000005723463472081816 -0.000005721242662541592 -0.000005714744736434495
          -0.000013913003052162993 -0.00001465243026783697 -0.000013911842578148526 -0.000014651808921727177 -0.000013908663340918357 -0.000014649887831532373
          -0.00001879903296767928 -0.00001835079462105749 -0.00001823566106740683 -0.000018801524599244292 -0.00001835350334965456 -0.000018238308827533534
          -0.00001881147115291724 -0.000018361163137864284 -0.000018245900183400022 -0.000017604270093953665 -0.000017215850632631123 -0.00001760632908631316
          -0.000017217577103896068 -0.000017615584318768928 -0.00001722318148467846 -0.000015423714224439974 -0.000015423740398597285 -0.000015424642773723174
          -0.000018558026351580573 -0.000018560981988750394 -0.00001856901043151751 -0.000019226441275689903 -0.00001923010059995273 -0.0000192414075887876
          -0.000006580852805956886 -0.000006579167027117727 -0.000006573705635438499 -0.000016924119733928307 -0.0000169242657547731 -0.000016924083115907697
          -0.000013576105371228412 -0.000013658943044462838 -0.000013576299732765033 -0.000013659212983101263 -0.000013576829324706651 -0.000013659852944780995
          -0.000005284579478029988 -0.000005282440278856473 -0.000005276125596400413 -0.000012427707916003161 -0.00001178216397706877 -0.000011453847966981106
          -0.000012428664624163314 -0.000011783116207999223 -0.000011454746358549927 -0.00001243221160136626 -0.000011785331863718619 -0.000011457085308080111
          -0.000012782306529572216 -0.000012982917660749418 -0.00001278066508993564 -0.000012981521900012053 -0.000012775653724649504 -0.000012977061337198634
          -0.000005254768796262288 -0.000004571869653936929 -0.0000052523750828726065 -0.000004569549469121371 -0.000005245532201803378 -0.000004562380932249451
          -0.000013126938539817852 -0.000013125819584375092 -0.000013122390857378436 -0.000007536024086875594 -0.000007619042321075758 -0.000008453097644185967
          -0.000007535629666422182 -0.000007619203028449558 -0.000008453137861710509 -0.000007534344336820019 -0.000007619741356922597 -0.000008453205367029643
          -0.000005606186777105374 -0.000005604662407076696 -0.000005599974724812297 -0.000009697011628857134 -0.000008762727224850893 -0.000009697432508710897
          -0.000008762358286558945 -0.00000969870449071305 -0.000008761031411923716 -0.0000066040106870908935 -0.00000593335870961173 -0.000006603208425024537
          -0.000005932707820704566 -0.000006600915391398027 -0.000005930914549554935 -0.000010584090992611805 -0.000010584871480282599 -0.000010588349363909934
          -0.000004743757663407735 -0.000004740929425856951 -0.0000047319649675461536 -0.000012225118459192893 -0.000012223830939290431 -0.000012219980922493065
          -0.000013754849707171922 -0.00001375562568455674 -0.000013757671922473941 -0.000013794231056381925 -0.000013795675391594462 -0.000013799962045733456
          -0.000006732126827990981 -0.000006731989587776803 -0.000006731766016726842 -0.00001373367011199936 -0.000013070890415640468 -0.000013735395907029877
          -0.00001307231537577897 -0.000013741386531785377 -0.000013076435764531926 -0.000011282455243119707 -0.000011674950438199252 -0.00001128173898928908
          -0.00001167385921439694 -0.00001127952460705359 -0.000011671007970360529 -0.00001148738494724026 -0.000011486208916673374 -0.00001148244512178479
          -0.00001382393337559869 -0.0000135631324895253 -0.000013822339156864855 -0.000013561697495032745 -0.00001381796730292001 -0.000013557215990887675
          -0.00000492745926906766 -0.000004924830704207601 -0.0000049167981616968435 -0.000009172472679884931 -0.000008425750399720025 -0.000009172411448751829
          -0.000008426117272731052 -0.000009171876387891517 -0.000008427404753349734 -0.0000059950216981442064 -0.0000050932673743641535 -0.000005993286320005535
          -0.000005091150789556631 -0.000005988328957301959 -0.0000050847818712827514 -0.000013265361348352195 -0.000013263786380534795 -0.000013259351616165228
          -0.000011210436255395918 -0.000011211367298204146 -0.000011213841473373288 -0.0000106605817615574 -0.00001066006990057915 -0.000010658699689161002
          -0.000009929560251940834 -0.000009929326206867314 -0.000009928583005680456 -0.00000780549982925165 -0.000007804615586981038 -0.000007801364717519209
          -0.000006880929269862626 -0.000006879417802532003 -0.000006874979053383124
        </DataArray>
        <DataArray type="Float64" Name="disp_z" format="ascii" RangeMin="-6.087707838065117e-7" RangeMax="0">
          0 0 0 0 -2.2326270397052274e-7 -2.4018406398231797e-7
          -2.398035684346596e-7 -2.284004578952728e-7 -4.462429623753559e-7 -4.798923367581416e-7 -4.791611432681776e-7 -4.56287201361126e-7
          0 0 0 0 -1.4243337986092295e-7 -1.25161032430437e-7
          -1.2335766867704677e-7 -1.4521893809942066e-7 -2.849455006250716e-7 -2.501654981624606e-7 -2.4679646366121133e-7 -2.904884140530896e-7
          0 -1.044247803570849e-7 -2.0917723539362185e-7 0 -1.0791511094241745e-7 -2.1624874704799998e-7
          0 0 -2.3161200312422872e-7 -2.215851679756863e-7 -4.627676437770147e-7 -4.429247567425223e-7
          0 0 0 0 -2.889057006109906e-7 -2.9136895927330405e-7
          -2.786907715004659e-7 -2.797384965833892e-7 -5.768288863377024e-7 -5.821384996155782e-7 -5.566025554256681e-7 -5.586475019275695e-7
          0 0 0 0 -1.7550657624231602e-7 -1.9042437583221992e-7
          -2.0086939399774183e-7 -1.8491000267760514e-7 -3.50866987082576e-7 -3.809810189380887e-7 -4.0194122500823746e-7 -3.6980216036350016e-7
          0 0 0 0 -1.429560443405142e-7 -1.5246122636250337e-7
          -1.383057224427501e-7 -1.3313362632328222e-7 -2.8616688454994133e-7 -3.050156377890485e-7 -2.7678789499415475e-7 -2.664530619187398e-7
          0 0 0 -2.5216067604592334e-7 -2.4098056213669423e-7 -2.3919168055202876e-7
          -5.04407280412236e-7 -4.821305808382408e-7 -4.783063208491657e-7 0 0 0
          0 -2.626229206978705e-7 -2.7805791626971837e-7 -2.774961124851532e-7 -2.549368335134819e-7 -5.25302074385532e-7
          -5.554206175048093e-7 -5.546568640369497e-7 -5.098209224100548e-7 0 -2.3471249701797229e-7 -4.6933427931252863e-7
          0 0 -2.539006405627674e-7 -2.4638214899418996e-7 -5.070742604781428e-7 -4.919816329664496e-7
          0 0 0 -2.016592093316761e-7 -2.1948517926619712e-7 -1.9908764255045478e-7
          -4.029293365248582e-7 -4.3891630395924607e-7 -3.9812030998808043e-7 0 0 0
          0 -2.7331660149696907e-7 -2.6201024776503237e-7 -2.6743689597205324e-7 -2.7883136081125774e-7 -5.45826462720088e-7
          -5.237254571926607e-7 -5.345753080895166e-7 -5.571070176962817e-7 0 0 0
          -2.2510604012757927e-7 -2.1025058837607523e-7 -2.2003042343199177e-7 -4.5001312737941354e-7 -4.2052944866103614e-7 -4.3937905099812404e-7
          0 0 0 -1.9703729565921925e-7 -2.0221972760133813e-7 -1.7689413110980927e-7
          -3.93540681077169e-7 -4.039296493486502e-7 -3.534676499409996e-7 0 0 0
          0 -2.4463262785328573e-7 -2.3254831473066992e-7 -2.3358071653174712e-7 -2.534303610535589e-7 -4.89000744519201e-7
          -4.643247050653001e-7 -4.66639019567843e-7 -5.064761126060252e-7 0 0 -2.6583787814084256e-7
          -2.519220418594037e-7 -5.31396774351497e-7 -5.034719192004996e-7 0 0 0
          -2.735213184884822e-7 -2.4787445391118803e-7 -2.566740492724821e-7 -5.462604775370445e-7 -4.955069855578566e-7 -5.127265010494511e-7
          0 0 0 0 -2.4793960199927803e-7 -2.624435725691586e-7
          -2.782209154269307e-7 -2.6690358648167087e-7 -4.952635163129896e-7 -5.241581198773379e-7 -5.555934588888876e-7 -5.331736084989928e-7
          0 0 -1.9145233493165006e-7 -2.0308820015094824e-7 -3.8295605385752764e-7 -4.055203332943862e-7
          0 0 -2.0443299369717526e-7 -2.2209521157222473e-7 -4.0801477293231626e-7 -4.446729174269269e-7
          0 0 -1.2512969828501197e-7 -1.2532605261811742e-7 -2.502392355443503e-7 -2.5070329502363463e-7
          0 0 0 0 -1.83244022447709e-7 -1.808773179797512e-7
          -2.0206198229147893e-7 -2.076471705301702e-7 -3.663630591345815e-7 -3.61869510031315e-7 -4.0389163949622786e-7 -4.1537382437686385e-7
          0 0 -2.730977227870586e-7 -2.5426309667934876e-7 -5.455815959021743e-7 -5.080285805022034e-7
          0 0 -2.919225845324679e-7 -2.823096962090852e-7 -5.82761584177032e-7 -5.641287398828947e-7
          0 0 -3.0066633882863757e-7 -2.912424623084225e-7 -6.002652589504301e-7 -5.812857887662991e-7
          0 -2.1352532486943756e-7 -4.2670730483073985e-7 0 -1.8968273318645183e-7 -3.79566968629759e-7
          0 0 0 0 -2.3123363428497096e-7 -2.0793707229776547e-7
          -2.1326153898895352e-7 -2.3874468108419324e-7 -4.622543414989501e-7 -4.1615761714753363e-7 -4.2673822175429345e-7 -4.77513492849047e-7
          0 0 0 -2.8649813220022586e-7 -2.8265312330845796e-7 -2.9009931643936943e-7
          -5.722016684084218e-7 -5.647331352995984e-7 -5.797313523970561e-7 0 0 -2.984484194624999e-7
          -2.8471522310280757e-7 -5.958879098704979e-7 -5.681979872280711e-7 0 -2.3195934579225525e-7 -4.637630732602804e-7
          0 0 0 0 -1.3014047193367702e-7 -1.3480102518623745e-7
          -1.3656116749132773e-7 -1.3071909405905362e-7 -2.603163779551686e-7 -2.695874741360198e-7 -2.733867041373088e-7 -2.6161593733659047e-7
          0 -2.653261499531862e-7 -5.300128566168801e-7 0 -2.2041154458382044e-7 -4.41019403069119e-7
          0 -2.2289520436555333e-7 -4.455248095529766e-7 0 0 -2.1993122527707362e-7
          -2.1678004308481022e-7 -4.390944044185777e-7 -4.3358717121087125e-7 0 0 -2.2094582924982688e-7
          -1.9940523443871672e-7 -4.41860893957373e-7 -3.993206240543075e-7 0 0 -3.0394196297127783e-7
          -2.962327005027595e-7 -6.061851231331173e-7 -5.915592324077759e-7 0 0 -2.647275693210998e-7
          -2.595993477179099e-7 -5.286415216137368e-7 -5.183446491546453e-7 0 -2.7339399569708215e-7 -5.466071646162219e-7
          0 0 -2.4530032852327375e-7 -2.243231169253351e-7 -4.897605127258924e-7 -4.4855097550628257e-7
          0 0 -2.5870651523370457e-7 -2.5276486155914455e-7 -5.16699350926995e-7 -5.045912378717907e-7
          0 -2.8919208372549626e-7 -5.773135983404257e-7 0 -2.872255626396096e-7 -5.73823100878052e-7
          0 0 -2.456611577890672e-7 -2.466481771057034e-7 -4.912468806591001e-7 -4.926466986486923e-7
          0 -2.907025494918103e-7 -5.80684676897968e-7 0 -1.9407696274899883e-7 -3.885031560609637e-7
          0 0 -2.996636015451161e-7 -2.8383148330688496e-7 -5.9846052601949e-7 -5.672305033754295e-7
          0 0 -2.8149805938800724e-7 -2.726060628354148e-7 -5.626598454547746e-7 -5.450576355923793e-7
          0 0 0 -2.1808604790601648e-7 -2.3055671152678589e-7 -2.379775585607398e-7
          -4.357659850731583e-7 -4.6097975317837354e-7 -4.751305606040727e-7 0 0 0
          0 -2.4347593491679667e-7 -2.3116103654830993e-7 -2.4415564423987117e-7 -2.6028207323215384e-7 -4.862855448859486e-7
          -4.6106354305508024e-7 -4.86938744328258e-7 -5.197882712783558e-7 0 0 0
          0 -1.5113810985446213e-7 -1.412051580542122e-7 -1.3548015281189896e-7 -1.4325986317373835e-7 -3.0270360780416677e-7
          -2.823788626996516e-7 -2.707404410970133e-7 -2.866201514484286e-7 0 -3.0498389376349846e-7 -6.087707838065117e-7
          0 0 -2.2176660572149528e-7 -2.087280890393512e-7 -4.43005101378305e-7 -4.1677408061414364e-7
          0 0 -2.6398487745642087e-7 -2.547279438544992e-7 -5.270750780743166e-7 -5.088520318724269e-7
          0 0 -1.9890534002814803e-7 -1.842241088484771e-7 -3.972669225168369e-7 -3.687216603224565e-7
          0 0 -1.5039732859288242e-7 -1.6366585296659808e-7 -3.010287593067261e-7 -3.2783541128250537e-7
          0 0 -1.3907535394930826e-7 -1.3238996188331084e-7 -2.7822790207682397e-7 -2.6459555653121486e-7
          0 -2.953242588109487e-7 -5.901058735465799e-7 0 -2.9083080647652457e-7 -5.80958836291001e-7
          0 0 0 0 -1.65607829635357e-7 -1.4989302725050676e-7
          -1.455751582418092e-7 -1.5767195544251842e-7 -3.31302368443461e-7 -3.002625659374285e-7 -2.916706015709229e-7 -3.15589147557616e-7
          0 0 -2.7961312869146054e-7 -2.812379906673357e-7 -5.586587791263609e-7 -5.616120642221644e-7
          0 0 0 0 -1.2974391896536106e-7 -1.2685289877340795e-7
          -1.2927632774252295e-7 -1.298769844808378e-7 -2.5938646223915205e-7 -2.535569111497211e-7 -2.585290457903496e-7 -2.596261860695311e-7
          0 0 0 -1.2600634173643217e-7 -1.1641261196850604e-7 -1.2216562712736382e-7
          -2.5212864072245077e-7 -2.32971939864505e-7 -2.444469868192233e-7 0 -1.6288211704829797e-7 -3.264748150455939e-7
          0 0 -2.8295747578987266e-7 -2.726564579197446e-7 -5.648094962005618e-7 -5.444922125534354e-7
          0 0 -2.54816374482478e-7 -2.289565284825103e-7 -5.093169849252811e-7 -4.578368288995265e-7
          0 -1.7809401956747822e-7 -3.562108986314794e-7 0 -2.9837233585348685e-7 -5.962381005840575e-7
          0 0 -1.9138065935259945e-7 -2.159888475528906e-7 -3.8313576487942985e-7 -4.320015271758319e-7
          0 0 -1.30055825327354e-7 -1.275832958025539e-7 -2.5999700910774783e-7 -2.551379217421459e-7
          0 0 -1.2410104221627597e-7 -1.2292637831876697e-7 -2.4815035550127746e-7 -2.459372901856021e-7
          0 0 0 -1.2289551301325598e-7 -1.4755136247985794e-7 -1.269738778365003e-7
          -2.4597268484486435e-7 -2.95106838592617e-7 -2.538500148516186e-7 0 0 -1.6313960579704086e-7
          -1.7792180168440198e-7 -3.261194046573671e-7 -3.5582274917521574e-7 0 0 -1.3353142536718755e-7
          -1.3439573180172567e-7 -2.667499394098155e-7 -2.6868434170419145e-7 0 0 -1.6006002737733977e-7
          -1.3589205015047978e-7 -3.201814922770878e-7 -2.712644688571547e-7 0 -1.289467946318628e-7 -2.579173218084117e-7
          0 0 0 0 -2.1032994234920104e-7 -2.110252649796348e-7
          -2.100092915513921e-7 -2.074967029703465e-7 -4.198790648477504e-7 -4.2177459340058976e-7 -4.1942374449178257e-7 -4.144077611432883e-7
          0 0 -2.056046553955592e-7 -2.0626711811396824e-7 -4.1078679837886436e-7 -4.1204982216614035e-7
          0 -1.298304510686222e-7 -2.594993587529997e-7 0 -1.4287582553315876e-7 -2.8528263248231373e-7
          0 -1.8687998964790292e-7 -3.7378016959298954e-7 0 -1.6490046736798878e-7 -3.303619546558954e-7
          0 -2.0625957291979433e-7 -4.124663419828209e-7 0 0 -1.9362011913144958e-7
          -2.0680318371130357e-7 -3.8740047181756997e-7 -4.131553052084908e-7 0 -2.1234275903015057e-7 -4.245805449878518e-7
          0 -1.869614036820341e-7 -3.7430506227646875e-7 0 -1.250401387552532e-7 -2.499588676543534e-7
          0 -2.6036939173235237e-7 -5.205465045894947e-7 0 0 -2.345304076460012e-7
          -2.2642407778851473e-7 -4.682940160909364e-7 -4.522515036501148e-7 0 -2.7243388987795255e-7 -5.44465438520435e-7
          0 -2.2007325063999713e-7 -4.398467118564104e-7 0 -2.1877796301648676e-7 -4.370293299372656e-7
          0 -1.8682638275453151e-7 -3.7429851220969165e-7 0 -1.699054091976895e-7 -3.402719827079624e-7
          0 -1.741279363698377e-7 -3.486857853015937e-7 0 0 -1.955705465463716e-7
          -1.9650527288953947e-7 -3.908453104198354e-7 -3.926463843686532e-7 0 0 -1.824709215540509e-7
          -1.4912959460763433e-7 -3.648946944629077e-7 -2.9782412661293235e-7 0 -2.1406505832127462e-7 -4.274403735190308e-7
          0 -1.255237851917818e-7 -2.5102559320790074e-7 0 -2.551414041007385e-7 -5.094444969568728e-7
          0 0 -1.9351460384934036e-7 -2.0555810203365476e-7 -3.866300155521558e-7 -4.105299591363918e-7
          0 0 0 -1.7578252291190275e-7 -1.9158916572236166e-7 -1.8505737202351426e-7
          -3.5015651200585856e-7 -3.8480828446402253e-7 -3.7004754305698297e-7 0 0 -1.9472152761866185e-7
          -2.079845341870126e-7 -3.8761139413895866e-7 -4.167400300985118e-7 0 -2.132842263377594e-7 -4.2580211323202525e-7
          0 -1.8512067416618735e-7 -3.698914534549184e-7 0 -1.611490716205048e-7 -3.218759974646183e-7
          0 -2.6934995434421164e-7 -5.381553136672592e-7 0 -1.2935635930106133e-7 -2.5858228092808017e-7
          0 0 -1.0211003984887825e-7 -1.203219210838745e-7 -2.0441222392177694e-7 -2.409871524976785e-7
          0 -2.1824302982916238e-7 -4.367017010651977e-7 0 0 0
          -2.0951100921865447e-7 -2.1465380259049537e-7 -2.3320762741954805e-7 -4.185338869751197e-7 -4.2903579484554675e-7 -4.6685329758462015e-7
          0 0 -1.7171058802886356e-7 -1.817525093135572e-7 -3.432950578328005e-7 -3.635618332710239e-7
          0 0 -2.397475538995726e-7 -2.1618112003561173e-7 -4.793245026291934e-7 -4.3269789731538546e-7
          0 -1.928256267921729e-7 -3.8530634876264516e-7 0 0 0
          -1.8542138936345094e-7 -1.7012772630777504e-7 -1.6842337085690024e-7 -3.7131417318954756e-7 -3.405782060594865e-7 -3.3728378409863056e-7
          0 -2.066832623441324e-7 -4.1339928332090137e-7 0 0 -2.744505048742634e-7
          -2.7995802422286835e-7 -5.474414197285448e-7 -5.588815210812121e-7 0 0 -2.0263168128029982e-7
          -1.9628038146984712e-7 -4.055283644546529e-7 -3.926391033800174e-7 0 -2.637358667148063e-7 -5.27550647606586e-7
          0 -2.3585430988589217e-7 -4.7129689469741585e-7 0 -1.69029799961542e-7 -3.382389642808657e-7
          0 -1.440497495136175e-7 -2.885007837332296e-7 0 -1.703157647469664e-7 -3.408607886791155e-7
          0 -1.8536036719665886e-7 -3.7112726818713494e-7 0 0 -1.9742748088470855e-7
          -2.047391432028719e-7 -3.9500953319753506e-7 -4.09114019804356e-7 0 0 -1.6089152215906452e-7
          -1.6245704985464465e-7 -3.223302434527369e-7 -3.25202979305222e-7 0 -1.4857685958233426e-7 -2.9751741087104216e-7
          0 0 -1.8380505604793808e-7 -1.8151363989148254e-7 -3.672485960946804e-7 -3.6285306328716475e-7
          0 -2.417555461248431e-7 -4.83201382045394e-7 0 0 -1.5052227598838043e-7
          -1.5075909898356406e-7 -3.012288350664023e-7 -3.0172723213167006e-7 0 0 -2.552530484846467e-7
          -2.4433097237354195e-7 -5.100015408145595e-7 -4.879494395628449e-7 0 -1.7792875479209832e-7 -3.552317078227768e-7
          0 -2.460692860837818e-7 -4.911249214653967e-7 0 -1.569315227898316e-7 -3.14132001075698e-7
          0 -1.5571766730651862e-7 -3.116124217680927e-7 0 -2.73834259470188e-7 -5.466922503248121e-7
          0 -2.658855075185753e-7 -5.313575116791427e-7
        </DataArray>
      </PointData>
      <CellData>
        <DataArray type="Int32" Name="libmesh_elem_id" format="ascii" RangeMin="1380" RangeMax="3259">
          1380 1381 1412 1413 1414 1415
          1416 1417 1428 1429 1430 1431
          1438 1439 1440 1441 1464 1465
          1472 1473 1480 1481 1484 1485
          1488 1489 1490 1491 1492 1493
          1496 1497 1516 1517 1534 1535
          1538 1539 1544 1545 1548 1549
          1556 1557 1562 1563 1568 1569
          1574 1575 1576 1577 1604 1605
          1610 1611 1620 1621 1626 1627
          1632 1633 1640 1641 1642 1643
          1644 1645 1646 1647 1660 1661
          1664 1665 1666 1667 1668 1669
          1670 1671 1674 1675 1676 1677
          1688 1689 1690 1691 1692 1693
          1694 1695 1706 1707 1716 1717
          1720 1721 1724 1725 1732 1733
          1736 1737 1738 1739 1742 1743
          1744 1745 1756 1757 1758 1759
          1768 1769 1776 1777 1780 1781
          1784 1785 1786 1787 1788 1789
          1792 1793 1796 1797 1800 1801
          1806 1807 1808 1809 1812 1813
          1820 1821 1822 1823 1826 1827
          1842 1843 1844 1845 1860 1861
          1870 1871 1886 1887 1898 1899
          1912 1913 1934 1935 1938 1939
          1940 1941 1954 1955 1958 1959
          1962 1963 1964 1965 1966 1967
          1974 1975 1976 1977 1978 1979
          1980 1981 1984 1985 1990 1991
          1992 1993 1994 1995 2002 2003
          2012 2013 2016 2017 2022 2023
          2032 2033 2034 2035 2036 2037
          2042 2043 2056 2057 2066 2067
          2072 2073 2076 2077 2080 2081
          2086 2087 2090 2091 2094 2095
          2098 2099 2104 2105 2108 2109
          2114 2115 2118 2119 2122 2123
          2142 2143 2152 2153 2156 2157
          2168 2169 2172 2173 2174 2175
          2182 2183 2188 2189 2190 2191
          2192 2193 2194 2195 2198 2199
          2210 2211 2240 2241 2272 2273
          2280 2281 2300 2301 2322 2323
          2326 2327 2338 2339 2376 2377
          2378 2379 2380 2381 2384 2385
          2386 2387 2388 2389 2394 2395
          2428 2429 2438 2439 2446 2447
          2454 2455 2492 2493 2508 2509
          2514 2515 2516 2517 2528 2529
          2536 2537 2538 2539 2544 2545
          2548 2549 2552 2553 2576 2577
          2604 2605 2606 2607 2614 2615
          2618 2619 2626 2627 2630 2631
          2632 2633 2652 2653 2654 2655
          2674 2675 2676 2677 2686 2687
          2692 2693 2698 2699 2706 2707
          2712 2713 2718 2719 2728 2729
          2730 2731 2732 2733 2744 2745
          2752 2753 2758 2759 2770 2771
          2784 2785 2786 2787 2792 2793
          2812 2813 2816 2817 2818 2819
          2820 2821 2842 2843 2856 2857
          2866 2867 2882 2883 2894 2895
          2900 2901 2906 2907 2914 2915
          2942 2943 2970 2971 2976 2977
          2992 2993 3010 3011 3012 3013
          3016 3017 3046 3047 3056 3057
          3058 3059 3070 3071 3078 3079
          3084 3085 3094 3095 3098 3099
          3118 3119 3122 3123 3128 3129
          3134 3135 3152 3153 3180 3181
          3192 3193 3196 3197 3200 3201
          3202 3203 3214 3215 3244 3245
          3248 3249 3258 3259
        </DataArray>
        <DataArray type="Int32" Name="subdomain_id" format="ascii" RangeMin="107" RangeMax="107">
          107 107 107 107 107 107
          107 107 107 107 107 107
          107 107 107 107 107 107
          107 107 107 107 107 107
          107 107 107 107 107 107
          107 107 107 107 107 107
          107 107 107 107 107 107
          107 107 107 107 107 107
          107 107 107 107 107 107
          107 107 107 107 107 107
          107 107 107 107 107 107
          107 107 107 107 107 107
          107 107 107 107 107 107
          107 107 107 107 107 107
          107 107 107 107 107 107
          107 107 107 107 107 107
          107 107 107 107 107 107
          107 107 107 107 107 107
          107 107 107 107 107 107
          107 107 107 107 107 107
          107 107 107 107 107 107
          107 107 107 107 107 107
          107 107 107 107 107 107
          107 107 107 107 107 107
          107 107 107 107 107 107
          107 107 107 107 107 107
          107 107 107 107 107 107
          107 107 107 107 107 107
          107 107 107 107 107 107
          107 107 107 107 107 107
          107 107 107 107 107 107
          107 107 107 107 107 107
          107 107 107 107 107 107
          107 107 107 107 107 107
          107 107 107 107 107 107
          107 107 107 107 107 107
          107 107 107 107 107 107
          107 107 107 107 107 107
          107 107 107 107 107 107
          107 107 107 107 107 107
          107 107 107 107 107 107
          107 107 107 107 107 107
          107 107 107 107 107 107
          107 107 107 107 107 107
          107 107 107 107 107 107
          107 107 107 107 107 107
          107 107 107 107 107 107
          107 107 107 107 107 107
          107 107 107 107 107 107
          107 107 107 107 107 107
          107 107 107 107 107 107
          107 107 107 107 107 107
          107 107 107 107 107 107
          107 107 107 107 107 107
          107 107 107 107 107 107
          107 107 107 107 107 107
          107 107 107 107 107 107
          107 107 107 107 107 107
          107 107 107 107 107 107
          107 107 107 107 107 107
          107 107 107 107 107 107
          107 107 107 107 107 107
          107 107 107 107 107 107
          107 107 107 107 107 107
          107 107 107 107 107 107
          107 107 107 107 107 107
          107 107 107 107 107 107
          107 107 107 107 107 107
          107 107 107 107 107 107
          107 107 107 107 107 107
          107 107 107 107 107 107
          107 107 107 107 107 107
          107 107 107 107 107 107
          107 107 107 107 107 107
          107 107 107 107 107 107
          107 107 107 107
        </DataArray>
        <DataArray type="Int32" Name="processor_id" format="ascii" RangeMin="3" RangeMax="3">
          3 3 3 3 3 3
          3 3 3 3 3 3
          3 3 3 3 3 3
          3 3 3 3 3 3
          3 3 3 3 3 3
          3 3 3 3 3 3
          3 3 3 3 3 3
          3 3 3 3 3 3
          3 3 3 3 3 3
          3 3 3 3 3 3
          3 3 3 3 3 3
          3 3 3 3 3 3
          3 3 3 3 3 3
          3 3 3 3 3 3
          3 3 3 3 3 3
          3 3 3 3 3 3
          3 3 3 3 3 3
          3 3 3 3 3 3
          3 3 3 3 3 3
          3 3 3 3 3 3
          3 3 3 3 3 3
          3 3 3 3 3 3
          3 3 3 3 3 3
          3 3 3 3 3 3
          3 3 3 3 3 3
          3 3 3 3 3 3
          3 3 3 3 3 3
          3 3 3 3 3 3
          3 3 3 3 3 3
          3 3 3 3 3 3
          3 3 3 3 3 3
          3 3 3 3 3 3
          3 3 3 3 3 3
          3 3 3 3 3 3
          3 3 3 3 3 3
          3 3 3 3 3 3
          3 3 3 3 3 3
          3 3 3 3 3 3
          3 3 3 3 3 3
          3 3 3 3 3 3
          3 3 3 3 3 3
          3 3 3 3 3 3
          3 3 3 3 3 3
          3 3 3 3 3 3
          3 3 3 3 3 3
          3 3 3 3 3 3
          3 3 3 3 3 3
          3 3 3 3 3 3
          3 3 3 3 3 3
          3 3 3 3 3 3
          3 3 3 3 3 3
          3 3 3 3 3 3
          3 3 3 3 3 3
          3 3 3 3 3 3
          3 3 3 3 3 3
          3 3 3 3 3 3
          3 3 3 3 3 3
          3 3 3 3 3 3
          3 3 3 3 3 3
          3 3 3 3 3 3
          3 3 3 3 3 3
          3 3 3 3 3 3
          3 3 3 3 3 3
          3 3 3 3 3 3
          3 3 3 3 3 3
          3 3 3 3 3 3
          3 3 3 3 3 3
          3 3 3 3 3 3
          3 3 3 3 3 3
          3 3 3 3 3 3
          3 3 3 3 3 3
          3 3 3 3 3 3
          3 3 3 3 3 3
          3 3 3 3 3 3
          3 3 3 3 3 3
          3 3 3 3
        </DataArray>
      </CellData>
      <Points>
        <DataArray type="Float64" Name="Points" NumberOfComponents="3" format="ascii" RangeMin="0.013166738443807365" RangeMax="0.02374822585851783">
          0.016451229180203 0.011589607556601 0 0.016255198485848 0.011015934042219 0
          0.016728572005863 0.010757201031786 0 0.017039955631379 0.011194422572054 0
          0.016451229180203 0.011589607556601 0.00015 0.016255198485848 0.011015934042219 0.00015
          0.016728572005863 0.010757201031786 0.00015 0.017039955631379 0.011194422572054 0.00015
          0.016451229180203 0.011589607556601 0.0003 0.016255198485848 0.011015934042219 0.0003
          0.016728572005863 0.010757201031786 0.0003 0.017039955631379 0.011194422572054 0.0003
          0.011186406523754 0.0095188731742926 0 0.010689703280164 0.0094649590365737 0
          0.010634679710187 0.008964429555675 0 0.011131650337527 0.0089687060727404 0
          0.011186406523754 0.0095188731742926 0.00015 0.010689703280164 0.0094649590365737 0.00015
          0.010634679710187 0.008964429555675 0.00015 0.011131650337527 0.0089687060727404 0.00015
          0.011186406523754 0.0095188731742926 0.0003 0.010689703280164 0.0094649590365737 0.0003
          0.010634679710187 0.008964429555675 0.0003 0.011131650337527 0.0089687060727404 0.0003
          0.010158980545183 0.0089928081418126 0 0.010158980545183 0.0089928081418126 0.00015
          0.010158980545183 0.0089928081418126 0.0003 0.010234809282542 0.0094751596931164 0
          0.010234809282542 0.0094751596931164 0.00015 0.010234809282542 0.0094751596931164 0.0003
          0.017215305681839 0.010421173498473 0 0.017538322616078 0.010852535251392 0
          0.017215305681839 0.010421173498473 0.00015 0.017538322616078 0.010852535251392 0.00015
          0.017215305681839 0.010421173498473 0.0003 0.017538322616078 0.010852535251392 0.0003
          0.015522227276376 0.0083950727535023 0 0.015339273065407 0.0078314073000753 0
          0.015832583415208 0.0077039482324782 0 0.015871156677641 0.0080932538621961 0
          0.015522227276376 0.0083950727535023 0.00015 0.015339273065407 0.0078314073000753 0.00015
          0.015832583415208 0.0077039482324782 0.00015 0.015871156677641 0.0080932538621961 0.00015
          0.015522227276376 0.0083950727535023 0.0003 0.015339273065407 0.0078314073000753 0.0003
          0.015832583415208 0.0077039482324782 0.0003 0.015871156677641 0.0080932538621961 0.0003
          0.014182404182597 0.012030933394166 0 0.014112697634716 0.011586899500601 0
          0.01453762000082 0.011541498939039 0 0.014647727851392 0.011956202120878 0
          0.014182404182597 0.012030933394166 0.00015 0.014112697634716 0.011586899500601 0.00015
          0.01453762000082 0.011541498939039 0.00015 0.014647727851392 0.011956202120878 0.00015
          0.014182404182597 0.012030933394166 0.0003 0.014112697634716 0.011586899500601 0.0003
          0.01453762000082 0.011541498939039 0.0003 0.014647727851392 0.011956202120878 0.0003
          0.012718807262617 0.012100913225318 0 0.01318790653826 0.012081424726463 0
          0.013223560157694 0.012548837560718 0 0.012721969255655 0.012547975923311 0
          0.012718807262617 0.012100913225318 0.00015 0.01318790653826 0.012081424726463 0.00015
          0.013223560157694 0.012548837560718 0.00015 0.012721969255655 0.012547975923311 0.00015
          0.012718807262617 0.012100913225318 0.0003 0.01318790653826 0.012081424726463 0.0003
          0.013223560157694 0.012548837560718 0.0003 0.012721969255655 0.012547975923311 0.0003
          0.015037276113604 0.0053883886132418 0 0.014872829902632 0.0048660088618751 0
          0.015610482342583 0.0052949834846695 0 0.015037276113604 0.0053883886132418 0.00015
          0.014872829902632 0.0048660088618751 0.00015 0.015610482342583 0.0052949834846695 0.00015
          0.015037276113604 0.0053883886132418 0.0003 0.014872829902632 0.0048660088618751 0.0003
          0.015610482342583 0.0052949834846695 0.0003 0.012853333735139 0.0071862564407273 0
          0.013298874998351 0.0073010052974168 0 0.013468505581478 0.0077481198485017 0
          0.012879769579272 0.0077824950988095 0 0.012853333735139 0.0071862564407273 0.00015
          0.013298874998351 0.0073010052974168 0.00015 0.013468505581478 0.0077481198485017 0.00015
          0.012879769579272 0.0077824950988095 0.00015 0.012853333735139 0.0071862564407273 0.0003
          0.013298874998351 0.0073010052974168 0.0003 0.013468505581478 0.0077481198485017 0.0003
          0.012879769579272 0.0077824950988095 0.0003 0.012310751390795 0.0073009210446318 0
          0.012310751390795 0.0073009210446318 0.00015 0.012310751390795 0.0073009210446318 0.0003
          0.016440539131042 0.010340248821358 0 0.016895401758078 0.0099970418145034 0
          0.016440539131042 0.010340248821358 0.00015 0.016895401758078 0.0099970418145034 0.00015
          0.016440539131042 0.010340248821358 0.0003 0.016895401758078 0.0099970418145034 0.0003
          0.015674284513358 0.012057735082989 0 0.015799992883172 0.011590312491375 0
          0.01620648935985 0.012173309797103 0 0.015674284513358 0.012057735082989 0.00015
          0.015799992883172 0.011590312491375 0.00015 0.01620648935985 0.012173309797103 0.00015
          0.015674284513358 0.012057735082989 0.0003 0.015799992883172 0.011590312491375 0.0003
          0.01620648935985 0.012173309797103 0.0003 0.015719396244314 0.0096761034796614 0
          0.015317179218416 0.010039615829248 0 0.014916285335657 0.0096823062625427 0
          0.015356151892906 0.0093633130446295 0 0.015719396244314 0.0096761034796614 0.00015
          0.015317179218416 0.010039615829248 0.00015 0.014916285335657 0.0096823062625427 0.00015
          0.015356151892906 0.0093633130446295 0.00015 0.015719396244314 0.0096761034796614 0.0003
          0.015317179218416 0.010039615829248 0.0003 0.014916285335657 0.0096823062625427 0.0003
          0.015356151892906 0.0093633130446295 0.0003 0.014911939516014 0.011080222539295 0
          0.01492908374418 0.011511002202991 0 0.014470673144967 0.011122308960465 0
          0.014911939516014 0.011080222539295 0.00015 0.01492908374418 0.011511002202991 0.00015
          0.014470673144967 0.011122308960465 0.00015 0.014911939516014 0.011080222539295 0.0003
          0.01492908374418 0.011511002202991 0.0003 0.014470673144967 0.011122308960465 0.0003
          0.014927498433442 0.011816834084778 0 0.015214955739546 0.01195124117686 0
          0.014868481741766 0.012398226678167 0 0.014927498433442 0.011816834084778 0.00015
          0.015214955739546 0.01195124117686 0.00015 0.014868481741766 0.012398226678167 0.00015
          0.014927498433442 0.011816834084778 0.0003 0.015214955739546 0.01195124117686 0.0003
          0.014868481741766 0.012398226678167 0.0003 0.014887382940214 0.010512753679506 0
          0.01433465747601 0.010724165901292 0 0.014030150330029 0.010370439204794 0
          0.01444626395613 0.010022024912649 0 0.014887382940214 0.010512753679506 0.00015
          0.01433465747601 0.010724165901292 0.00015 0.014030150330029 0.010370439204794 0.00015
          0.01444626395613 0.010022024912649 0.00015 0.014887382940214 0.010512753679506 0.0003
          0.01433465747601 0.010724165901292 0.0003 0.014030150330029 0.010370439204794 0.0003
          0.01444626395613 0.010022024912649 0.0003 0.013388886812482 0.0083497293814167 0
          0.012899574253998 0.0083038014764745 0 0.013388886812482 0.0083497293814167 0.00015
          0.012899574253998 0.0083038014764745 0.00015 0.013388886812482 0.0083497293814167 0.0003
          0.012899574253998 0.0083038014764745 0.0003 0.015784016264429 0.0071345425111119 0
          0.016328429431772 0.0071626451349231 0 0.016328043288569 0.0077322573762078 0
          0.015784016264429 0.0071345425111119 0.00015 0.016328429431772 0.0071626451349231 0.00015
          0.016328043288569 0.0077322573762078 0.00015 0.015784016264429 0.0071345425111119 0.0003
          0.016328429431772 0.0071626451349231 0.0003 0.016328043288569 0.0077322573762078 0.0003
          0.016727166785252 0.0084386331054829 0 0.01644772366367 0.0089064975551763 0
          0.016002189190704 0.0086574712541786 0 0.016221340977963 0.0082297464535469 0
          0.016727166785252 0.0084386331054829 0.00015 0.01644772366367 0.0089064975551763 0.00015
          0.016002189190704 0.0086574712541786 0.00015 0.016221340977963 0.0082297464535469 0.00015
          0.016727166785252 0.0084386331054829 0.0003 0.01644772366367 0.0089064975551763 0.0003
          0.016002189190704 0.0086574712541786 0.0003 0.016221340977963 0.0082297464535469 0.0003
          0.018901908985383 0.011783468628847 0 0.018328257152057 0.011560564570719 0
          0.018901908985383 0.011783468628847 0.00015 0.018328257152057 0.011560564570719 0.00015
          0.018901908985383 0.011783468628847 0.0003 0.018328257152057 0.011560564570719 0.0003
          0.016817438697449 0.012401495631919 0 0.016895899239308 0.011880939878953 0
          0.016817438697449 0.012401495631919 0.00015 0.016895899239308 0.011880939878953 0.00015
          0.016817438697449 0.012401495631919 0.0003 0.016895899239308 0.011880939878953 0.0003
          0.010475172867508 0.012102844227475 0 0.010669582432454 0.011743114144408 0
          0.010475172867508 0.012102844227475 0.00015 0.010669582432454 0.011743114144408 0.00015
          0.010475172867508 0.012102844227475 0.0003 0.010669582432454 0.011743114144408 0.0003
          0.018198082784875 0.0097658337520035 0 0.018455934862008 0.010221918525687 0
          0.018019877493881 0.01050989807829 0 0.017698489924893 0.010066971919266 0
          0.018198082784875 0.0097658337520035 0.00015 0.018455934862008 0.010221918525687 0.00015
          0.018019877493881 0.01050989807829 0.00015 0.017698489924893 0.010066971919266 0.00015
          0.018198082784875 0.0097658337520035 0.0003 0.018455934862008 0.010221918525687 0.0003
          0.018019877493881 0.01050989807829 0.0003 0.017698489924893 0.010066971919266 0.0003
          0.015096658749896 0.0059763609132825 0 0.015666288430535 0.0059190759170471 0
          0.015096658749896 0.0059763609132825 0.00015 0.015666288430535 0.0059190759170471 0.00015
          0.015096658749896 0.0059763609132825 0.0003 0.015666288430535 0.0059190759170471 0.0003
          0.013546901289865 0.0069836782833127 0 0.013134929749538 0.0067248500217048 0
          0.013546901289865 0.0069836782833127 0.00015 0.013134929749538 0.0067248500217048 0.00015
          0.013546901289865 0.0069836782833127 0.0003 0.013134929749538 0.0067248500217048 0.0003
          0.013831418153218 0.0064982603089606 0 0.013338214474932 0.0062766362868091 0
          0.013831418153218 0.0064982603089606 0.00015 0.013338214474932 0.0062766362868091 0.00015
          0.013831418153218 0.0064982603089606 0.0003 0.013338214474932 0.0062766362868091 0.0003
          0.017908784385217 0.011229685010797 0 0.017908784385217 0.011229685010797 0.00015
          0.017908784385217 0.011229685010797 0.0003 0.017460830811305 0.0067242961174433 0
          0.017460830811305 0.0067242961174433 0.00015 0.017460830811305 0.0067242961174433 0.0003
          0.016232724398465 0.0059010997942707 0 0.016810957053741 0.0059693958220605 0
          0.016865945400018 0.0066157033945985 0 0.016287343165999 0.0065221003589061 0
          0.016232724398465 0.0059010997942707 0.00015 0.016810957053741 0.0059693958220605 0.00015
          0.016865945400018 0.0066157033945985 0.00015 0.016287343165999 0.0065221003589061 0.00015
          0.016232724398465 0.0059010997942707 0.0003 0.016810957053741 0.0059693958220605 0.0003
          0.016865945400018 0.0066157033945985 0.0003 0.016287343165999 0.0065221003589061 0.0003
          0.015434451036398 0.0088351663483508 0 0.015091649000167 0.0090065479673052 0
          0.0149386527618 0.008562942865766 0 0.015434451036398 0.0088351663483508 0.00015
          0.015091649000167 0.0090065479673052 0.00015 0.0149386527618 0.008562942865766 0.00015
          0.015434451036398 0.0088351663483508 0.0003 0.015091649000167 0.0090065479673052 0.0003
          0.0149386527618 0.008562942865766 0.0003 0.013851103268646 0.0079817773379183 0
          0.013864053371773 0.0083733293390323 0 0.013851103268646 0.0079817773379183 0.00015
          0.013864053371773 0.0083733293390323 0.00015 0.013851103268646 0.0079817773379183 0.0003
          0.013864053371773 0.0083733293390323 0.0003 0.016873832756735 0.0078915607150548 0
          0.016873832756735 0.0078915607150548 0.00015 0.016873832756735 0.0078915607150548 0.0003
          0.011740832768399 0.012550565772382 0 0.011781425344485 0.012080160842703 0
          0.012267797740114 0.012087686226532 0 0.012238354096222 0.012547223275944 0
          0.011740832768399 0.012550565772382 0.00015 0.011781425344485 0.012080160842703 0.00015
          0.012267797740114 0.012087686226532 0.00015 0.012238354096222 0.012547223275944 0.00015
          0.011740832768399 0.012550565772382 0.0003 0.011781425344485 0.012080160842703 0.0003
          0.012267797740114 0.012087686226532 0.0003 0.012238354096222 0.012547223275944 0.0003
          0.015724816214821 0.0065169349202822 0 0.015724816214821 0.0065169349202822 0.00015
          0.015724816214821 0.0065169349202822 0.0003 0.016904663245172 0.0072759580116152 0
          0.016904663245172 0.0072759580116152 0.00015 0.016904663245172 0.0072759580116152 0.0003
          0.016212759806586 0.0053000490100875 0 0.016212759806586 0.0053000490100875 0.00015
          0.016212759806586 0.0053000490100875 0.0003 0.017422284858474 0.011679101640391 0
          0.017908527792884 0.011814582379248 0 0.017422284858474 0.011679101640391 0.00015
          0.017908527792884 0.011814582379248 0.00015 0.017422284858474 0.011679101640391 0.0003
          0.017908527792884 0.011814582379248 0.0003 0.017261702763099 0.0086939606584207 0
          0.017434489396122 0.0080779876667089 0 0.017261702763099 0.0086939606584207 0.00015
          0.017434489396122 0.0080779876667089 0.00015 0.017261702763099 0.0086939606584207 0.0003
          0.017434489396122 0.0080779876667089 0.0003 0.014181033506022 0.0077713348891544 0
          0.014325604474543 0.0082610969383043 0 0.014181033506022 0.0077713348891544 0.00015
          0.014325604474543 0.0082610969383043 0.00015 0.014181033506022 0.0077713348891544 0.0003
          0.014325604474543 0.0082610969383043 0.0003 0.016099115219063 0.0099899847281115 0
          0.016520689982407 0.0096278486407962 0 0.016099115219063 0.0099899847281115 0.00015
          0.016520689982407 0.0096278486407962 0.00015 0.016099115219063 0.0099899847281115 0.0003
          0.016520689982407 0.0096278486407962 0.0003 0.014613026918956 0.0092413149543641 0
          0.014613026918956 0.0092413149543641 0.00015 0.014613026918956 0.0092413149543641 0.0003
          0.016937453954769 0.0092095292918499 0 0.017364558514239 0.0096012653805297 0
          0.016937453954769 0.0092095292918499 0.00015 0.017364558514239 0.0096012653805297 0.00015
          0.016937453954769 0.0092095292918499 0.0003 0.017364558514239 0.0096012653805297 0.0003
          0.015712843676617 0.010331364913168 0 0.016032046384524 0.010629553115583 0
          0.015712843676617 0.010331364913168 0.00015 0.016032046384524 0.010629553115583 0.00015
          0.015712843676617 0.010331364913168 0.0003 0.016032046384524 0.010629553115583 0.0003
          0.01346343572409 0.0057857389411653 0 0.01346343572409 0.0057857389411653 0.00015
          0.01346343572409 0.0057857389411653 0.0003 0.015150761096164 0.0066142159223768 0
          0.015150761096164 0.0066142159223768 0.00015 0.015150761096164 0.0066142159223768 0.0003
          0.015453261139866 0.010697023165802 0 0.015761290368715 0.010819971207646 0
          0.015453261139866 0.010697023165802 0.00015 0.015761290368715 0.010819971207646 0.00015
          0.015453261139866 0.010697023165802 0.0003 0.015761290368715 0.010819971207646 0.0003
          0.013975551316416 0.0059398855735222 0 0.013975551316416 0.0059398855735222 0.00015
          0.013975551316416 0.0059398855735222 0.0003 0.017479032913359 0.0074088673936633 0
          0.017479032913359 0.0074088673936633 0.00015 0.017479032913359 0.0074088673936633 0.0003
          0.014439802315681 0.0067889662935499 0 0.014530319307898 0.006021518089632 0
          0.014439802315681 0.0067889662935499 0.00015 0.014530319307898 0.006021518089632 0.00015
          0.014439802315681 0.0067889662935499 0.0003 0.014530319307898 0.006021518089632 0.0003
          0.014431521900925 0.0087663339265048 0 0.013899975831329 0.0088854517032459 0
          0.014431521900925 0.0087663339265048 0.00015 0.013899975831329 0.0088854517032459 0.00015
          0.014431521900925 0.0087663339265048 0.0003 0.013899975831329 0.0088854517032459 0.0003
          0.015334349753872 0.011547922560075 0 0.015363465895193 0.011114260619116 0
          0.015801980011793 0.011137474992711 0 0.015334349753872 0.011547922560075 0.00015
          0.015363465895193 0.011114260619116 0.00015 0.015801980011793 0.011137474992711 0.00015
          0.015334349753872 0.011547922560075 0.0003 0.015363465895193 0.011114260619116 0.0003
          0.015801980011793 0.011137474992711 0.0003 0.01326617738197 0.0093680808515997 0
          0.012793423392144 0.00921210926252 0 0.012882512800283 0.0087881474090036 0
          0.013365259810227 0.0088714473068585 0 0.01326617738197 0.0093680808515997 0.00015
          0.012793423392144 0.00921210926252 0.00015 0.012882512800283 0.0087881474090036 0.00015
          0.013365259810227 0.0088714473068585 0.00015 0.01326617738197 0.0093680808515997 0.0003
          0.012793423392144 0.00921210926252 0.0003 0.012882512800283 0.0087881474090036 0.0003
          0.013365259810227 0.0088714473068585 0.0003 0.011993243876189 0.010936510200926 0
          0.011726815341297 0.011491075647124 0 0.011222013645511 0.011097826594996 0
          0.011481744371717 0.010688234667639 0 0.011993243876189 0.010936510200926 0.00015
          0.011726815341297 0.011491075647124 0.00015 0.011222013645511 0.011097826594996 0.00015
          0.011481744371717 0.010688234667639 0.00015 0.011993243876189 0.010936510200926 0.0003
          0.011726815341297 0.011491075647124 0.0003 0.011222013645511 0.011097826594996 0.0003
          0.011481744371717 0.010688234667639 0.0003 0.013923252507151 0.0073329122207352 0
          0.013923252507151 0.0073329122207352 0.00015 0.013923252507151 0.0073329122207352 0.0003
          0.013063793506476 0.0098271989985527 0 0.012601634550352 0.009590277262082 0
          0.013063793506476 0.0098271989985527 0.00015 0.012601634550352 0.009590277262082 0.00015
          0.013063793506476 0.0098271989985527 0.0003 0.012601634550352 0.009590277262082 0.0003
          0.014102855237989 0.0047969187863067 0 0.013905759673286 0.0043612537888552 0
          0.014102855237989 0.0047969187863067 0.00015 0.013905759673286 0.0043612537888552 0.00015
          0.014102855237989 0.0047969187863067 0.0003 0.013905759673286 0.0043612537888552 0.0003
          0.012852488428802 0.010265076045094 0 0.012374691983482 0.010000797580735 0
          0.012852488428802 0.010265076045094 0.00015 0.012374691983482 0.010000797580735 0.00015
          0.012852488428802 0.010265076045094 0.0003 0.012374691983482 0.010000797580735 0.0003
          0.011668611956603 0.010219239111219 0 0.012182731119778 0.010462377133106 0
          0.011668611956603 0.010219239111219 0.00015 0.012182731119778 0.010462377133106 0.00015
          0.011668611956603 0.010219239111219 0.0003 0.012182731119778 0.010462377133106 0.0003
          0.011158560753842 0.010029990414111 0 0.011017968815575 0.010465683342369 0
          0.011158560753842 0.010029990414111 0.00015 0.011017968815575 0.010465683342369 0.00015
          0.011158560753842 0.010029990414111 0.0003 0.011017968815575 0.010465683342369 0.0003
          0.014820390261339 0.0080402105998384 0 0.014820390261339 0.0080402105998384 0.00015
          0.014820390261339 0.0080402105998384 0.0003 0.015228397699353 0.0072512250897894 0
          0.015228397699353 0.0072512250897894 0.00015 0.015228397699353 0.0072512250897894 0.0003
          0.0130361735465 0.011522072885309 0 0.012689359184487 0.011761634268536 0
          0.012340499111532 0.011632501505239 0 0.012497431968462 0.011183651982421 0
          0.0130361735465 0.011522072885309 0.00015 0.012689359184487 0.011761634268536 0.00015
          0.012340499111532 0.011632501505239 0.00015 0.012497431968462 0.011183651982421 0.00015
          0.0130361735465 0.011522072885309 0.0003 0.012689359184487 0.011761634268536 0.0003
          0.012340499111532 0.011632501505239 0.0003 0.012497431968462 0.011183651982421 0.0003
          0.013528941600065 0.0052742966774397 0 0.014027103455945 0.0053875982273864 0
          0.013528941600065 0.0052742966774397 0.00015 0.014027103455945 0.0053875982273864 0.00015
          0.013528941600065 0.0052742966774397 0.0003 0.014027103455945 0.0053875982273864 0.0003
          0.010128205128219 0.013 0 0.010310686327751 0.012539165738252 0
          0.010788384596096 0.012564579045747 0 0.01064102564104 0.013 0
          0.010128205128219 0.013 0.00015 0.010310686327751 0.012539165738252 0.00015
          0.010788384596096 0.012564579045747 0.00015 0.01064102564104 0.013 0.00015
          0.010128205128219 0.013 0.0003 0.010310686327751 0.012539165738252 0.0003
          0.010788384596096 0.012564579045747 0.0003 0.01064102564104 0.013 0.0003
          0.010783127360108 0.010836567412064 0 0.010385522435479 0.010608007769118 0
          0.010601303654319 0.010290632654442 0 0.010783127360108 0.010836567412064 0.00015
          0.010385522435479 0.010608007769118 0.00015 0.010601303654319 0.010290632654442 0.00015
          0.010783127360108 0.010836567412064 0.0003 0.010385522435479 0.010608007769118 0.0003
          0.010601303654319 0.010290632654442 0.0003 0.011818930007254 0.009602160287834 0
          0.011818930007254 0.009602160287834 0.00015 0.011818930007254 0.009602160287834 0.0003
          0.015715008716269 0.0090308288850156 0 0.01610853428864 0.0093166480881369 0
          0.015715008716269 0.0090308288850156 0.00015 0.01610853428864 0.0093166480881369 0.00015
          0.015715008716269 0.0090308288850156 0.0003 0.01610853428864 0.0093166480881369 0.0003
          0.013952831965685 0.0095243725467762 0 0.013572358856734 0.010071658883703 0
          0.013952831965685 0.0095243725467762 0.00015 0.013572358856734 0.010071658883703 0.00015
          0.013952831965685 0.0095243725467762 0.0003 0.013572358856734 0.010071658883703 0.0003
          0.012677817340078 0.010719835797972 0 0.012677817340078 0.010719835797972 0.00015
          0.012677817340078 0.010719835797972 0.0003 0.014678664229456 0.0074733115324236 0
          0.014678664229456 0.0074733115324236 0.00015 0.014678664229456 0.0074733115324236 0.0003
          0.012261506677236 0.0092701804285872 0 0.012499922412859 0.0090879994978671 0
          0.012261506677236 0.0092701804285872 0.00015 0.012499922412859 0.0090879994978671 0.00015
          0.012261506677236 0.0092701804285872 0.0003 0.012499922412859 0.0090879994978671 0.0003
          0.011270478587413 0.012561768236337 0 0.011153846153863 0.013 0
          0.011270478587413 0.012561768236337 0.00015 0.011153846153863 0.013 0.00015
          0.011270478587413 0.012561768236337 0.0003 0.011153846153863 0.013 0.0003
          0.012179487179506 0.013 0 0.012692307692328 0.013 0
          0.012179487179506 0.013 0.00015 0.012692307692328 0.013 0.00015
          0.012179487179506 0.013 0.0003 0.012692307692328 0.013 0.0003
          0.013205128205151 0.013 0 0.013721380024409 0.012538570920528 0
          0.013717948717973 0.013 0 0.013205128205151 0.013 0.00015
          0.013721380024409 0.012538570920528 0.00015 0.013717948717973 0.013 0.00015
          0.013205128205151 0.013 0.0003 0.013721380024409 0.012538570920528 0.0003
          0.013717948717973 0.013 0.0003 0.013680323008888 0.01206206640945 0
          0.0136362676363 0.011582155921186 0 0.013680323008888 0.01206206640945 0.00015
          0.0136362676363 0.011582155921186 0.00015 0.013680323008888 0.01206206640945 0.0003
          0.0136362676363 0.011582155921186 0.0003 0.011306940297591 0.012129646322267 0
          0.011212076662234 0.01173976422044 0 0.011306940297591 0.012129646322267 0.00015
          0.011212076662234 0.01173976422044 0.00015 0.011306940297591 0.012129646322267 0.0003
          0.011212076662234 0.01173976422044 0.0003 0.014247558447628 0.012512499343239 0
          0.014230769230793 0.013 0 0.014247558447628 0.012512499343239 0.00015
          0.014230769230793 0.013 0.00015 0.014247558447628 0.012512499343239 0.0003
          0.014230769230793 0.013 0.0003 0.010925822172272 0.011428925131881 0
          0.010925822172272 0.011428925131881 0.00015 0.010925822172272 0.011428925131881 0.0003
          0.017598702187272 0.012594388856786 0 0.018138509806267 0.012585421267124 0
          0.018333333333352 0.013 0 0.017820512820533 0.013 0
          0.017598702187272 0.012594388856786 0.00015 0.018138509806267 0.012585421267124 0.00015
          0.018333333333352 0.013 0.00015 0.017820512820533 0.013 0.00015
          0.017598702187272 0.012594388856786 0.0003 0.018138509806267 0.012585421267124 0.0003
          0.018333333333352 0.013 0.0003 0.017820512820533 0.013 0.0003
          0.01884615384617 0.013 0 0.018647619061649 0.012577247456601 0
          0.01884615384617 0.013 0.00015 0.018647619061649 0.012577247456601 0.00015
          0.01884615384617 0.013 0.0003 0.018647619061649 0.012577247456601 0.0003
          0.010939820280367 0.01187760398484 0 0.010939820280367 0.01187760398484 0.00015
          0.010939820280367 0.01187760398484 0.0003 0.014743589743616 0.013 0
          0.014743589743616 0.013 0.00015 0.014743589743616 0.013 0.0003
          0.013168261777023 0.010955167755454 0 0.013168261777023 0.010955167755454 0.00015
          0.013168261777023 0.010955167755454 0.0003 0.011620435633551 0.0089440866322713 0
          0.011620435633551 0.0089440866322713 0.00015 0.011620435633551 0.0089440866322713 0.0003
          0.01333281098878 0.010501143990949 0 0.01333281098878 0.010501143990949 0.00015
          0.01333281098878 0.010501143990949 0.0003 0.013640766026071 0.011115210745046 0
          0.014063261910082 0.011165191959691 0 0.013640766026071 0.011115210745046 0.00015
          0.014063261910082 0.011165191959691 0.00015 0.013640766026071 0.011115210745046 0.0003
          0.014063261910082 0.011165191959691 0.0003 0.013761635093034 0.010714997264381 0
          0.013761635093034 0.010714997264381 0.00015 0.013761635093034 0.010714997264381 0.0003
          0.01790845301636 0.0090613468730877 0 0.01790845301636 0.0090613468730877 0.00015
          0.01790845301636 0.0090613468730877 0.0003 0.010691300612525 0.0099168298135774 0
          0.010691300612525 0.0099168298135774 0.00015 0.010691300612525 0.0099168298135774 0.0003
          0.014509683505008 0.0050450954358061 0 0.014509683505008 0.0050450954358061 0.00015
          0.014509683505008 0.0050450954358061 0.0003 0.012373637985884 0.0077974643404521 0
          0.012419274731686 0.0083019280664676 0 0.012373637985884 0.0077974643404521 0.00015
          0.012419274731686 0.0083019280664676 0.00015 0.012373637985884 0.0077974643404521 0.0003
          0.012419274731686 0.0083019280664676 0.0003 0.014523119140279 0.0054383897453177 0
          0.014523119140279 0.0054383897453177 0.00015 0.014523119140279 0.0054383897453177 0.0003
          0.012468015808598 0.0087643938641043 0 0.012468015808598 0.0087643938641043 0.00015
          0.012468015808598 0.0087643938641043 0.0003 0.014041697947841 0.010862771985015 0
          0.014041697947841 0.010862771985015 0.00015 0.014041697947841 0.010862771985015 0.0003
          0.012067821946234 0.0088387705315247 0 0.012067821946234 0.0088387705315247 0.00015
          0.012067821946234 0.0088387705315247 0.0003 0.018063704813091 0.0075049932447581 0
          0.018063704813091 0.0075049932447581 0.00015 0.018063704813091 0.0075049932447581 0.0003
          0.01801805728244 0.008218173104411 0 0.01801805728244 0.008218173104411 0.00015
          0.01801805728244 0.008218173104411 0.0003 0.019162849649621 0.012571706415164 0
          0.019358974358988 0.013 0 0.019162849649621 0.012571706415164 0.00015
          0.019358974358988 0.013 0.00015 0.019162849649621 0.012571706415164 0.0003
          0.019358974358988 0.013 0.0003 0.015469042768348 0.012527612124711 0
          0.015256410256436 0.013 0 0.015469042768348 0.012527612124711 0.00015
          0.015256410256436 0.013 0.00015 0.015469042768348 0.012527612124711 0.0003
          0.015256410256436 0.013 0.0003 0.017482035345823 0.012218317378284 0
          0.017482035345823 0.012218317378284 0.00015 0.017482035345823 0.012218317378284 0.0003
          0.011666666666685 0.013 0 0.011666666666685 0.013 0.00015
          0.011666666666685 0.013 0.0003 0.013552812333296 0.0042895499786344 0
          0.013552812333296 0.0042895499786344 0.00015 0.013552812333296 0.0042895499786344 0.0003
          0.019003973493589 0.012129001566083 0 0.018491681451249 0.012137078785851 0
          0.019003973493589 0.012129001566083 0.00015 0.018491681451249 0.012137078785851 0.00015
          0.019003973493589 0.012129001566083 0.0003 0.018491681451249 0.012137078785851 0.0003
          0.016282051282076 0.013 0 0.016335894010033 0.012686725241599 0
          0.016794871794894 0.013 0 0.016282051282076 0.013 0.00015
          0.016335894010033 0.012686725241599 0.00015 0.016794871794894 0.013 0.00015
          0.016282051282076 0.013 0.0003 0.016335894010033 0.012686725241599 0.0003
          0.016794871794894 0.013 0.0003 0.017307692307713 0.013 0
          0.017281329535555 0.012689387511733 0 0.017307692307713 0.013 0.00015
          0.017281329535555 0.012689387511733 0.00015 0.017307692307713 0.013 0.0003
          0.017281329535555 0.012689387511733 0.0003 0.017996855365792 0.012159940978259 0
          0.017996855365792 0.012159940978259 0.00015 0.017996855365792 0.012159940978259 0.0003
          0.016023960213719 0.012601258532672 0 0.016023960213719 0.012601258532672 0.00015
          0.016023960213719 0.012601258532672 0.0003 0.015769230769256 0.013 0
          0.015769230769256 0.013 0.00015 0.015769230769256 0.013 0.0003
          0.013549428097692 0.0047645614477775 0 0.013549428097692 0.0047645614477775 0.00015
          0.013549428097692 0.0047645614477775 0.0003 0.010881954871342 0.01216105032025 0
          0.010881954871342 0.01216105032025 0.00015 0.010881954871342 0.01216105032025 0.0003
          0.010057653370411 0.0084974472595183 0 0.01054988842507 0.0084422245958245 0
          0.010057653370411 0.0084974472595183 0.00015 0.01054988842507 0.0084422245958245 0.00015
          0.010057653370411 0.0084974472595183 0.0003 0.01054988842507 0.0084422245958245 0.0003
          0.015535554193674 0.0045828394817383 0 0.015535554193674 0.0045828394817383 0.00015
          0.015535554193674 0.0045828394817383 0.0003 0.011832021157187 0.0073476785459853 0
          0.011779780861271 0.0068646395959748 0 0.012243708910156 0.0068324173193727 0
          0.011832021157187 0.0073476785459853 0.00015 0.011779780861271 0.0068646395959748 0.00015
          0.012243708910156 0.0068324173193727 0.00015 0.011832021157187 0.0073476785459853 0.0003
          0.011779780861271 0.0068646395959748 0.0003 0.012243708910156 0.0068324173193727 0.0003
          0.019357361519954 0.01157618305141 0 0.01884046117173 0.011223113854601 0
          0.019357361519954 0.01157618305141 0.00015 0.01884046117173 0.011223113854601 0.00015
          0.019357361519954 0.01157618305141 0.0003 0.01884046117173 0.011223113854601 0.0003
          0.014554004584986 0.0044253882271801 0 0.015005639561329 0.0040763460944633 0
          0.014554004584986 0.0044253882271801 0.00015 0.015005639561329 0.0040763460944633 0.00015
          0.014554004584986 0.0044253882271801 0.0003 0.015005639561329 0.0040763460944633 0.0003
          0.018384253973557 0.010894663204421 0 0.018384253973557 0.010894663204421 0.00015
          0.018384253973557 0.010894663204421 0.0003 0.017413401850906 0.0060417176080878 0
          0.018057579772584 0.0060827128421873 0 0.018070157245618 0.0068021820766994 0
          0.017413401850906 0.0060417176080878 0.00015 0.018057579772584 0.0060827128421873 0.00015
          0.018070157245618 0.0068021820766994 0.00015 0.017413401850906 0.0060417176080878 0.0003
          0.018057579772584 0.0060827128421873 0.0003 0.018070157245618 0.0068021820766994 0.0003
          0.016291762387835 0.0047307906783276 0 0.016291762387835 0.0047307906783276 0.00015
          0.016291762387835 0.0047307906783276 0.0003 0.012879713087233 0.0060908484912964 0
          0.012982043505355 0.0056371881930815 0 0.012879713087233 0.0060908484912964 0.00015
          0.012982043505355 0.0056371881930815 0.00015 0.012879713087233 0.0060908484912964 0.0003
          0.012982043505355 0.0056371881930815 0.0003 0.01678493258985 0.0053840721103251 0
          0.016848637368385 0.0048798435935376 0 0.01678493258985 0.0053840721103251 0.00015
          0.016848637368385 0.0048798435935376 0.00015 0.01678493258985 0.0053840721103251 0.0003
          0.016848637368385 0.0048798435935376 0.0003 0.012723582323863 0.006509831652106 0
          0.012723582323863 0.006509831652106 0.00015 0.012723582323863 0.006509831652106 0.0003
          0.014128459199836 0.0039835282877348 0 0.014128459199836 0.0039835282877348 0.00015
          0.014128459199836 0.0039835282877348 0.0003 0.018817000838468 0.010560792840001 0
          0.018817000838468 0.010560792840001 0.00015 0.018817000838468 0.010560792840001 0.0003
          0.011043213382792 0.0084269911709333 0 0.011043213382792 0.0084269911709333 0.00015
          0.011043213382792 0.0084269911709333 0.0003 0.011511795106494 0.0083968566041475 0
          0.011511795106494 0.0083968566041475 0.00015 0.011511795106494 0.0083968566041475 0.0003
          0.017341722495578 0.0054175123203669 0 0.017341722495578 0.0054175123203669 0.00015
          0.017341722495578 0.0054175123203669 0.0003 0.01196380743939 0.0083394019710021 0
          0.011894488312007 0.0078344841271679 0 0.01196380743939 0.0083394019710021 0.00015
          0.011894488312007 0.0078344841271679 0.00015 0.01196380743939 0.0083394019710021 0.0003
          0.011894488312007 0.0078344841271679 0.0003 0.018719100515555 0.0096191331103102 0
          0.018769006148643 0.010016813571171 0 0.018719100515555 0.0096191331103102 0.00015
          0.018769006148643 0.010016813571171 0.00015 0.018719100515555 0.0096191331103102 0.0003
          0.018769006148643 0.010016813571171 0.0003 0.019142781766586 0.010156284019367 0
          0.019142781766586 0.010156284019367 0.00015 0.019142781766586 0.010156284019367 0.0003
          0.019871794871807 0.013 0 0.019671681078705 0.012567114388191 0
          0.019871794871807 0.013 0.00015 0.019671681078705 0.012567114388191 0.00015
          0.019871794871807 0.013 0.0003 0.019671681078705 0.012567114388191 0.0003
          0.013590285783394 0.0038446716816234 0 0.013590285783394 0.0038446716816234 0.00015
          0.013590285783394 0.0038446716816234 0.0003 0.018696511924608 0.0075816988835645 0
          0.018734278863615 0.0068564365277259 0 0.018696511924608 0.0075816988835645 0.00015
          0.018734278863615 0.0068564365277259 0.00015 0.018696511924608 0.0075816988835645 0.0003
          0.018734278863615 0.0068564365277259 0.0003 0.013091675611077 0.0041736873632184 0
          0.013121586466294 0.0036708577033715 0 0.013091675611077 0.0041736873632184 0.00015
          0.013121586466294 0.0036708577033715 0.00015 0.013091675611077 0.0041736873632184 0.0003
          0.013121586466294 0.0036708577033715 0.0003 0.019497075330812 0.012129782091497 0
          0.019497075330812 0.012129782091497 0.00015 0.019497075330812 0.012129782091497 0.0003
          0.012592651705639 0.0068198098450163 0 0.012592651705639 0.0068198098450163 0.00015
          0.012592651705639 0.0068198098450163 0.0003 0.018655444813331 0.0089912542068827 0
          0.018655444813331 0.0089912542068827 0.00015 0.018655444813331 0.0089912542068827 0.0003
          0.018643245907353 0.0082916041839039 0 0.018643245907353 0.0082916041839039 0.00015
          0.018643245907353 0.0082916041839039 0.0003 0.013048655853798 0.0051555709380823 0
          0.013048655853798 0.0051555709380823 0.00015 0.013048655853798 0.0051555709380823 0.0003
          0.013084530633285 0.0046685927017207 0 0.013084530633285 0.0046685927017207 0.00015
          0.013084530633285 0.0046685927017207 0.0003
          <InformationKey name="L2_NORM_RANGE" location="vtkDataArray" length="2">
            <Value index="0">
              0.013166738444
            </Value>
            <Value index="1">
              0.023748225859
            </Value>
          </InformationKey>
        </DataArray>
      </Points>
      <Cells>
        <DataArray type="Int64" Name="connectivity" format="ascii" RangeMin="0" RangeMax="794">
          0 1 2 3 4 5
          6 7 4 5 6 7
          8 9 10 11 12 13
          14 15 16 17 18 19
          16 17 18 19 20 21
          22 23 666 667 14 24
          668 669 18 25 668 669
          18 25 670 671 22 26
          24 14 13 27 25 18
          17 28 25 18 17 28
          26 22 21 29 30 31
          3 2 32 33 7 6
          32 33 7 6 34 35
          11 10 36 37 38 39
          40 41 42 43 40 41
          42 43 44 45 46 47
          48 49 50 51 52 53
          54 55 52 53 54 55
          56 57 58 59 60 61
          62 63 64 65 66 67
          64 65 66 67 68 69
          70 71 72 73 672 74
          75 76 673 77 75 76
          673 77 78 79 674 80
          81 82 83 84 85 86
          87 88 85 86 87 88
          89 90 91 92 93 675
          676 677 94 678 679 680
          94 678 679 680 95 681
          682 683 2 96 97 30
          6 98 99 32 6 98
          99 32 10 100 101 34
          102 103 0 104 105 106
          4 107 105 106 4 107
          108 109 8 110 111 112
          113 114 115 116 117 118
          115 116 117 118 119 120
          121 122 123 124 50 125
          126 127 54 128 126 127
          54 128 129 130 58 131
          132 133 134 51 135 136
          137 55 135 136 137 55
          138 139 140 59 141 142
          143 144 145 146 147 148
          145 146 147 148 149 150
          151 152 112 141 144 113
          116 145 148 117 116 145
          148 117 120 149 152 121
          84 83 153 154 88 87
          155 156 88 87 155 156
          92 91 157 158 159 160
          161 38 162 163 164 42
          162 163 164 42 165 166
          167 46 168 169 170 171
          172 173 174 175 172 173
          174 175 176 177 178 179
          684 180 181 685 686 182
          183 687 686 182 183 687
          688 184 185 689 186 104
          0 187 188 107 4 189
          188 107 4 189 190 110
          8 191 690 691 672 73
          692 693 673 76 692 693
          673 76 694 695 674 79
          198 199 200 201 202 203
          204 205 202 203 204 205
          206 207 208 209 210 72
          74 211 212 75 77 213
          212 75 77 213 214 78
          80 215 216 82 81 217
          218 86 85 219 218 86
          85 219 220 90 89 221
          222 216 217 223 224 218
          219 225 224 218 219 225
          226 220 221 227 171 39
          38 161 175 43 42 164
          175 43 42 164 179 47
          46 167 228 696 685 181
          229 697 687 183 229 697
          687 183 230 698 689 185
          231 699 700 701 232 702
          703 704 232 702 703 704
          233 705 706 707 31 30
          201 200 33 32 205 204
          33 32 205 204 35 34
          209 208 234 235 236 237
          238 239 240 241 238 239
          240 241 242 243 244 245
          36 246 247 248 40 249
          250 251 40 249 250 251
          44 252 253 254 83 255
          256 153 87 257 258 155
          87 257 258 155 91 259
          260 157 235 699 231 236
          239 702 232 240 239 702
          232 240 243 705 233 244
          168 171 161 261 172 175
          164 262 172 175 164 262
          176 179 167 263 171 170
          36 39 175 174 40 43
          175 174 40 43 179 178
          44 47 264 265 266 267
          268 269 270 271 268 269
          270 271 272 273 274 275
          237 276 211 234 241 277
          213 238 241 277 213 238
          245 278 215 242 279 160
          237 236 280 163 241 240
          280 163 241 240 281 166
          245 244 234 211 74 282
          238 213 77 283 238 213
          77 283 242 215 80 284
          285 228 181 286 287 229
          183 288 287 229 183 288
          289 230 185 290 291 168
          261 292 293 172 262 294
          293 172 262 294 295 176
          263 296 297 298 256 255
          299 300 258 257 299 300
          258 257 301 302 260 259
          303 304 97 96 305 306
          99 98 305 306 99 98
          307 308 101 100 309 247
          114 113 310 250 118 117
          310 250 118 117 311 253
          122 121 304 312 313 97
          306 314 315 99 306 314
          315 99 308 316 317 101
          282 74 672 708 283 77
          673 709 283 77 673 709
          284 80 674 710 318 303
          96 319 320 305 98 321
          320 305 98 321 322 307
          100 323 285 187 0 3
          287 189 4 7 287 189
          4 7 289 191 8 11
          223 711 712 324 225 713
          714 325 225 713 714 325
          227 715 716 326 327 210
          211 276 328 212 213 277
          328 212 213 277 329 214
          215 278 717 282 708 718
          719 283 709 720 719 283
          709 720 721 284 710 722
          276 237 160 159 277 241
          163 162 277 241 163 162
          278 245 166 165 330 318
          319 331 332 320 321 333
          332 320 321 333 334 322
          323 335 324 336 222 223
          325 337 224 225 325 337
          224 225 326 338 226 227
          292 261 279 339 294 262
          280 340 294 262 280 340
          296 263 281 341 342 343
          210 327 344 345 212 328
          344 345 212 328 346 347
          214 329 696 228 31 200
          697 229 33 204 697 229
          33 204 698 230 35 208
          298 348 349 256 300 350
          351 258 300 350 351 258
          302 352 353 260 336 343
          342 222 337 345 344 224
          337 345 344 224 338 347
          346 226 96 2 1 319
          98 6 5 321 98 6
          5 321 100 10 9 323
          103 354 355 356 106 357
          358 359 106 357 358 359
          109 360 361 362 339 279
          236 231 340 280 240 232
          340 280 240 232 341 281
          244 233 363 364 365 366
          367 368 369 370 367 368
          369 370 371 372 373 374
          375 376 377 378 379 380
          381 382 379 380 381 382
          383 384 385 386 169 168
          291 312 173 172 293 314
          173 172 293 314 177 176
          295 316 216 222 342 387
          218 224 344 388 218 224
          344 388 220 226 346 389
          223 217 723 711 225 219
          724 713 225 219 724 713
          227 221 725 715 160 279
          261 161 163 280 262 164
          163 280 262 164 166 281
          263 167 356 355 330 331
          359 358 332 333 359 358
          332 333 362 361 334 335
          363 390 391 364 367 392
          393 368 367 392 393 368
          371 394 395 372 396 397
          726 690 398 399 727 692
          398 399 727 692 400 401
          728 694 390 402 403 391
          392 404 405 393 392 404
          405 393 394 406 407 395
          235 234 282 717 239 238
          283 719 239 238 283 719
          243 242 284 721 313 201
          30 97 315 205 32 99
          315 205 32 99 317 209
          34 101 248 247 309 348
          251 250 310 350 251 250
          310 350 254 253 311 352
          200 199 729 696 204 203
          730 697 204 203 730 697
          208 207 731 698 408 409
          375 378 410 411 379 382
          410 411 379 382 412 413
          383 386 153 256 349 366
          155 258 351 370 155 258
          351 370 157 260 353 374
          414 408 378 415 416 410
          382 417 416 410 382 417
          418 412 386 419 420 248
          348 298 421 251 350 300
          421 251 350 300 422 254
          352 302 423 327 276 159
          424 328 277 162 424 328
          277 162 425 329 278 165
          426 427 428 429 430 431
          432 433 430 431 432 433
          434 435 436 437 336 324
          438 439 337 325 440 441
          337 325 440 441 338 326
          442 443 667 732 15 14
          669 733 19 18 669 733
          19 18 671 734 23 22
          444 445 446 447 448 449
          450 451 448 449 450 451
          452 453 454 455 415 456
          457 458 417 459 460 461
          417 459 460 461 419 462
          463 464 12 465 408 414
          16 466 410 416 16 466
          410 416 20 467 412 418
          465 403 409 408 466 405
          411 410 466 405 411 410
          467 407 413 412 376 375
          429 428 380 379 433 432
          380 379 433 432 384 383
          437 436 114 468 469 111
          118 470 471 115 118 470
          471 115 122 472 473 119
          37 423 159 38 41 424
          162 42 41 424 162 42
          45 425 165 46 474 475
          390 363 476 477 392 367
          476 477 392 367 478 479
          394 371 429 375 409 480
          433 379 411 481 433 379
          411 481 437 383 413 482
          342 483 297 387 344 484
          299 388 344 484 299 388
          346 485 301 389 348 309
          474 349 350 310 476 351
          350 310 476 351 352 311
          478 353 480 409 403 402
          481 411 405 404 481 411
          405 404 482 413 407 406
          266 265 376 428 270 269
          380 432 270 269 380 432
          274 273 384 436 486 487
          364 391 488 489 368 393
          488 489 368 393 490 491
          372 395 447 446 492 493
          451 450 494 495 451 450
          494 495 455 454 496 497
          483 420 298 297 484 421
          300 299 484 421 300 299
          485 422 302 301 498 267
          63 499 500 271 67 501
          500 271 67 501 502 275
          71 503 378 377 456 415
          382 381 459 417 382 381
          459 417 386 385 462 419
          504 62 505 506 507 66
          508 509 507 66 508 509
          510 70 511 512 513 61
          426 514 515 65 430 516
          515 65 430 516 517 69
          434 518 499 63 62 504
          501 67 66 507 501 67
          66 507 503 71 70 510
          474 363 366 349 476 367
          370 351 476 367 370 351
          478 371 374 353 519 520
          376 265 521 522 380 269
          521 522 380 269 523 524
          384 273 506 505 525 526
          509 508 527 528 509 508
          527 528 512 511 529 530
          531 377 376 520 532 381
          380 522 532 381 380 522
          533 385 384 524 534 535
          536 537 538 539 540 541
          538 539 540 541 542 543
          544 545 546 536 535 547
          548 540 539 549 548 540
          539 549 550 544 543 551
          141 330 355 123 145 332
          358 126 145 332 358 126
          149 334 361 129 327 423
          483 342 328 424 484 344
          328 424 484 344 329 425
          485 346 193 531 520 552
          195 532 522 553 195 532
          522 553 197 533 524 554
          134 555 526 525 137 556
          528 527 137 556 528 527
          140 557 530 529 480 558
          426 429 481 559 430 433
          481 559 430 433 482 560
          434 437 391 403 465 486
          393 405 466 488 393 405
          466 488 395 407 467 490
          465 12 15 561 466 16
          19 562 466 16 19 562
          467 20 23 563 402 390
          475 564 404 392 477 565
          404 392 477 565 406 394
          479 566 567 568 49 514
          569 570 53 516 569 570
          53 516 571 572 57 518
          558 567 514 426 559 569
          516 430 559 569 516 430
          560 571 518 434 564 475
          143 573 565 477 147 574
          565 477 147 574 566 479
          151 575 561 15 732 735
          562 19 733 736 562 19
          733 736 563 23 734 737
          228 285 3 31 229 287
          7 33 229 287 7 33
          230 289 11 35 576 198
          201 313 577 202 205 315
          577 202 205 315 578 206
          209 317 356 331 319 1
          359 333 321 5 359 333
          321 5 362 335 323 9
          1 0 103 356 5 4
          106 359 5 4 106 359
          9 8 109 362 558 480
          402 564 559 481 404 565
          559 481 404 565 560 482
          406 566 699 235 717 738
          702 239 719 739 702 239
          719 739 705 243 721 740
          73 582 396 690 76 583
          398 692 76 583 398 692
          79 584 400 694 741 742
          585 586 743 744 587 588
          743 744 587 588 745 746
          589 590 72 210 343 591
          75 212 345 592 75 212
          345 592 78 214 347 593
          439 591 343 336 441 592
          345 337 441 592 345 337
          443 593 347 338 576 313
          312 291 577 315 314 293
          577 315 314 293 578 317
          316 295 469 169 312 304
          471 173 314 306 471 173
          314 306 473 177 316 308
          594 365 364 487 595 369
          368 489 595 369 368 489
          596 373 372 491 591 439
          396 582 592 441 398 583
          592 441 398 583 593 443
          400 584 564 573 567 558
          565 574 569 559 565 574
          569 559 566 575 571 560
          573 597 568 567 574 598
          570 569 574 598 570 569
          575 599 572 571 747 748
          199 198 749 750 203 202
          749 750 203 202 751 752
          207 206 420 483 423 37
          421 484 424 41 421 484
          424 41 422 485 425 45
          600 486 465 561 601 488
          466 562 601 488 466 562
          602 490 467 563 561 735
          741 600 562 736 743 601
          562 736 743 601 563 737
          745 602 37 36 248 420
          41 40 251 421 41 40
          251 421 45 44 254 422
          594 487 486 600 595 489
          488 601 595 489 488 601
          596 491 490 602 468 170
          169 469 470 174 173 471
          470 174 173 471 472 178
          177 473 264 492 519 265
          268 494 521 269 268 494
          521 269 272 496 523 273
          414 579 13 12 416 580
          17 16 416 580 17 16
          418 581 21 20 154 153
          366 365 156 155 370 369
          156 155 370 369 158 157
          374 373 339 231 701 603
          340 232 704 604 340 232
          704 604 341 233 707 605
          591 582 73 72 592 583
          76 75 592 583 76 75
          593 584 79 78 606 292
          339 603 607 294 340 604
          607 294 340 604 608 296
          341 605 547 609 610 546
          549 611 612 548 549 611
          612 548 551 613 614 550
          60 427 426 61 64 431
          430 65 64 431 430 65
          68 435 434 69 576 291
          292 606 577 293 294 607
          577 293 294 607 578 295
          296 608 615 616 555 134
          617 618 556 137 617 618
          556 137 619 620 557 140
          586 594 600 741 588 595
          601 743 588 595 601 743
          590 596 602 745 83 387
          297 255 87 388 299 257
          87 388 299 257 91 389
          301 259 144 143 475 474
          148 147 477 476 148 147
          477 476 152 151 479 478
          111 469 304 303 115 471
          306 305 115 471 306 305
          119 473 308 307 753 729
          199 748 754 730 203 750
          754 730 203 750 755 731
          207 752 505 62 61 513
          508 66 65 515 508 66
          65 515 511 70 69 517
          756 610 609 757 758 612
          611 759 758 612 611 759
          760 614 613 761 216 387
          83 82 218 388 87 86
          218 388 87 86 220 389
          91 90 285 621 186 187
          287 622 188 189 287 622
          188 189 289 623 190 191
          264 624 493 492 268 625
          495 494 268 625 495 494
          272 626 497 496 726 397
          627 762 727 399 628 763
          727 399 628 763 728 401
          629 764 630 631 181 180
          632 633 183 182 632 633
          183 182 634 635 185 184
          586 154 365 594 588 156
          369 595 588 156 369 595
          590 158 373 596 765 603
          701 766 767 604 704 768
          767 604 704 768 769 605
          707 770 636 637 186 638
          639 640 188 641 639 640
          188 641 642 643 190 644
          125 50 49 568 128 54
          53 570 128 54 53 570
          131 58 57 572 645 638
          186 646 647 641 188 648
          647 641 188 648 649 644
          190 650 534 646 186 621
          538 648 188 622 538 648
          188 622 542 650 190 623
          93 585 742 675 94 587
          744 678 94 587 744 678
          95 589 746 681 48 51
          134 525 52 55 137 527
          52 55 137 527 56 59
          140 529 627 771 772 762
          628 773 774 763 628 773
          774 763 629 775 776 764
          630 180 684 777 632 182
          686 778 632 182 686 778
          634 184 688 779 154 586
          585 84 156 588 587 88
          156 588 587 88 158 590
          589 92 651 286 181 631
          652 288 183 633 652 288
          183 633 653 290 185 635
          186 637 654 104 188 640
          655 107 188 640 655 107
          190 643 656 110 474 309
          113 144 476 310 117 148
          476 310 117 148 478 311
          121 152 63 267 266 60
          67 271 270 64 67 271
          270 64 71 275 274 68
          616 615 654 657 618 617
          655 658 618 617 655 658
          620 619 656 659 627 397
          396 660 628 399 398 661
          628 399 398 661 629 401
          400 662 579 414 415 458
          580 416 417 461 580 416
          417 461 581 418 419 464
          651 631 547 535 652 633
          549 539 652 633 549 539
          653 635 551 543 723 217
          81 780 724 219 85 781
          724 219 85 781 725 221
          89 782 663 446 445 192
          664 450 449 194 664 450
          449 194 665 454 453 196
          142 597 573 143 146 598
          574 147 146 598 574 147
          150 599 575 151 783 747
          198 576 784 749 202 577
          784 749 202 577 785 751
          206 578 48 513 514 49
          52 515 516 53 52 515
          516 53 56 517 518 57
          318 330 141 112 320 332
          145 116 320 332 145 116
          322 334 149 120 651 621
          285 286 652 622 287 288
          652 622 287 288 653 623
          289 290 60 266 428 427
          64 270 432 431 64 270
          432 431 68 274 436 435
          354 124 123 355 357 127
          126 358 357 127 126 358
          360 130 129 361 303 318
          112 111 305 320 116 115
          305 320 116 115 307 322
          120 119 630 777 757 609
          632 778 759 611 632 778
          759 611 634 779 761 613
          468 246 36 170 470 249
          40 174 470 249 40 174
          472 252 44 178 615 102
          104 654 617 105 107 655
          617 105 107 655 619 108
          110 656 786 783 576 606
          787 784 577 607 787 784
          577 607 788 785 578 608
          519 492 446 663 521 494
          450 664 521 494 450 664
          523 496 454 665 637 636
          657 654 640 639 658 655
          640 639 658 655 643 642
          659 656 663 192 193 552
          664 194 195 553 664 194
          195 553 665 196 197 554
          789 438 324 712 790 440
          325 714 790 440 325 714
          791 442 326 716 102 133
          354 103 105 136 357 106
          105 136 357 106 108 139
          360 109 646 534 537 645
          648 538 541 647 648 538
          541 647 650 542 545 649
          525 505 513 48 527 508
          515 52 527 508 515 52
          529 511 517 56 660 396
          439 438 661 398 441 440
          661 398 441 440 662 400
          443 442 765 786 606 603
          767 787 607 604 767 787
          607 604 769 788 608 605
          624 264 267 498 625 268
          271 500 625 268 271 500
          626 272 275 502 468 114
          247 246 470 118 250 249
          470 118 250 249 472 122
          253 252 535 534 621 651
          539 538 622 652 539 538
          622 652 543 542 623 653
          93 81 84 585 94 85
          88 587 94 85 88 587
          95 89 92 589 438 789
          792 660 440 790 793 661
          440 790 793 661 442 791
          794 662 124 132 51 50
          127 135 55 54 127 135
          55 54 130 138 59 58
          663 552 520 519 664 553
          522 521 664 553 522 521
          665 554 524 523 609 547
          631 630 611 549 633 632
          611 549 633 632 613 551
          635 634 125 142 141 123
          128 146 145 126 128 146
          145 126 131 150 149 129
          102 615 134 133 105 617
          137 136 105 617 137 136
          108 619 140 139 142 125
          568 597 146 128 570 598
          146 128 570 598 150 131
          572 599 124 354 133 132
          127 357 136 135 127 357
          136 135 130 360 139 138
          660 792 771 627 661 793
          773 628 661 793 773 628
          662 794 775 629 81 93
          677 780 85 94 680 781
          85 94 680 781 89 95
          683 782
        </DataArray>
        <DataArray type="Int64" Name="offsets" format="ascii" RangeMin="8" RangeMax="3632">
          8 16 24 32 40 48
          56 64 72 80 88 96
          104 112 120 128 136 144
          152 160 168 176 184 192
          200 208 216 224 232 240
          248 256 264 272 280 288
          296 304 312 320 328 336
          344 352 360 368 376 384
          392 400 408 416 424 432
          440 448 456 464 472 480
          488 496 504 512 520 528
          536 544 552 560 568 576
          584 592 600 608 616 624
          632 640 648 656 664 672
          680 688 696 704 712 720
          728 736 744 752 760 768
          776 784 792 800 808 816
          824 832 840 848 856 864
          872 880 888 896 904 912
          920 928 936 944 952 960
          968 976 984 992 1000 1008
          1016 1024 1032 1040 1048 1056
          1064 1072 1080 1088 1096 1104
          1112 1120 1128 1136 1144 1152
          1160 1168 1176 1184 1192 1200
          1208 1216 1224 1232 1240 1248
          1256 1264 1272 1280 1288 1296
          1304 1312 1320 1328 1336 1344
          1352 1360 1368 1376 1384 1392
          1400 1408 1416 1424 1432 1440
          1448 1456 1464 1472 1480 1488
          1496 1504 1512 1520 1528 1536
          1544 1552 1560 1568 1576 1584
          1592 1600 1608 1616 1624 1632
          1640 1648 1656 1664 1672 1680
          1688 1696 1704 1712 1720 1728
          1736 1744 1752 1760 1768 1776
          1784 1792 1800 1808 1816 1824
          1832 1840 1848 1856 1864 1872
          1880 1888 1896 1904 1912 1920
          1928 1936 1944 1952 1960 1968
          1976 1984 1992 2000 2008 2016
          2024 2032 2040 2048 2056 2064
          2072 2080 2088 2096 2104 2112
          2120 2128 2136 2144 2152 2160
          2168 2176 2184 2192 2200 2208
          2216 2224 2232 2240 2248 2256
          2264 2272 2280 2288 2296 2304
          2312 2320 2328 2336 2344 2352
          2360 2368 2376 2384 2392 2400
          2408 2416 2424 2432 2440 2448
          2456 2464 2472 2480 2488 2496
          2504 2512 2520 2528 2536 2544
          2552 2560 2568 2576 2584 2592
          2600 2608 2616 2624 2632 2640
          2648 2656 2664 2672 2680 2688
          2696 2704 2712 2720 2728 2736
          2744 2752 2760 2768 2776 2784
          2792 2800 2808 2816 2824 2832
          2840 2848 2856 2864 2872 2880
          2888 2896 2904 2912 2920 2928
          2936 2944 2952 2960 2968 2976
          2984 2992 3000 3008 3016 3024
          3032 3040 3048 3056 3064 3072
          3080 3088 3096 3104 3112 3120
          3128 3136 3144 3152 3160 3168
          3176 3184 3192 3200 3208 3216
          3224 3232 3240 3248 3256 3264
          3272 3280 3288 3296 3304 3312
          3320 3328 3336 3344 3352 3360
          3368 3376 3384 3392 3400 3408
          3416 3424 3432 3440 3448 3456
          3464 3472 3480 3488 3496 3504
          3512 3520 3528 3536 3544 3552
          3560 3568 3576 3584 3592 3600
          3608 3616 3624 3632
        </DataArray>
        <DataArray type="UInt8" Name="types" format="ascii" RangeMin="12" RangeMax="12">
          12 12 12 12 12 12
          12 12 12 12 12 12
          12 12 12 12 12 12
          12 12 12 12 12 12
          12 12 12 12 12 12
          12 12 12 12 12 12
          12 12 12 12 12 12
          12 12 12 12 12 12
          12 12 12 12 12 12
          12 12 12 12 12 12
          12 12 12 12 12 12
          12 12 12 12 12 12
          12 12 12 12 12 12
          12 12 12 12 12 12
          12 12 12 12 12 12
          12 12 12 12 12 12
          12 12 12 12 12 12
          12 12 12 12 12 12
          12 12 12 12 12 12
          12 12 12 12 12 12
          12 12 12 12 12 12
          12 12 12 12 12 12
          12 12 12 12 12 12
          12 12 12 12 12 12
          12 12 12 12 12 12
          12 12 12 12 12 12
          12 12 12 12 12 12
          12 12 12 12 12 12
          12 12 12 12 12 12
          12 12 12 12 12 12
          12 12 12 12 12 12
          12 12 12 12 12 12
          12 12 12 12 12 12
          12 12 12 12 12 12
          12 12 12 12 12 12
          12 12 12 12 12 12
          12 12 12 12 12 12
          12 12 12 12 12 12
          12 12 12 12 12 12
          12 12 12 12 12 12
          12 12 12 12 12 12
          12 12 12 12 12 12
          12 12 12 12 12 12
          12 12 12 12 12 12
          12 12 12 12 12 12
          12 12 12 12 12 12
          12 12 12 12 12 12
          12 12 12 12 12 12
          12 12 12 12 12 12
          12 12 12 12 12 12
          12 12 12 12 12 12
          12 12 12 12 12 12
          12 12 12 12 12 12
          12 12 12 12 12 12
          12 12 12 12 12 12
          12 12 12 12 12 12
          12 12 12 12 12 12
          12 12 12 12 12 12
          12 12 12 12 12 12
          12 12 12 12 12 12
          12 12 12 12 12 12
          12 12 12 12 12 12
          12 12 12 12 12 12
          12 12 12 12 12 12
          12 12 12 12 12 12
          12 12 12 12 12 12
          12 12 12 12 12 12
          12 12 12 12 12 12
          12 12 12 12 12 12
          12 12 12 12 12 12
          12 12 12 12 12 12
          12 12 12 12 12 12
          12 12 12 12 12 12
          12 12 12 12 12 12
          12 12 12 12 12 12
          12 12 12 12
        </DataArray>
      </Cells>
    </Piece>
  </UnstructuredGrid>
</VTKFile>
