<?xml version="1.0"?>
<VTKFile type="UnstructuredGrid" version="0.1" byte_order="LittleEndian" header_type="UInt32" compressor="vtkZLibDataCompressor">
  <UnstructuredGrid>
    <Piece NumberOfPoints="819" NumberOfCells="454">
      <PointData>
        <DataArray type="Int32" Name="libmesh_node_id" format="ascii" RangeMin="2316" RangeMax="5735">
          2316 2317 2318 2319 2320 2321
          2322 2323 2324 2325 2326 2327
          2433 2434 2435 2436 2437 2438
          2439 2440 2441 2442 2443 2444
          2598 2599 2600 2601 2602 2603
          2643 2644 2645 2646 2647 2648
          2649 2650 2651 2709 2710 2711
          2712 2713 2714 2715 2716 2717
          2718 2719 2720 2766 2767 2768
          2769 2770 2771 2772 2773 2774
          2775 2776 2777 2808 2809 2810
          2811 2812 2813 2814 2815 2816
          2817 2818 2819 2852 2853 2856
          2857 2860 2861 2970 2971 2973
          2974 2976 2977 2991 2994 2995
          2998 2999 3002 3081 3082 3083
          3084 3085 3086 3087 3088 3089
          3090 3091 3092 3187 3190 3193
          3241 3243 3245 3270 3271 3272
          3312 3313 3314 3315 3316 3317
          3495 3496 3497 3498 3499 3500
          3501 3502 3503 3504 3505 3506
          3765 3766 3767 3768 3769 3770
          3852 3853 3854 4470 4471 4472
          4584 4585 4586 4587 4588 4589
          4635 4636 4637 4638 4639 4640
          4641 4642 4643 4644 4645 4646
          4659 4660 4661 4662 4663 4664
          4722 4723 4724 4782 4783 4784
          4791 4792 4793 4794 4795 4796
          4797 4798 4799 4812 4813 4814
          4815 4816 4817 4818 4819 4820
          4833 4834 4835 4836 4837 4838
          4848 4849 4850 4851 4852 4853
          4896 4897 4898 4899 4900 4901
          4911 4912 4913 4935 4936 4937
          4938 4939 4940 4944 4945 4946
          4947 4948 4949 4950 4951 4952
          4953 4954 4955 4956 4957 4958
          4992 4993 4994 5007 5008 5009
          5010 5011 5012 5013 5014 5015
          5016 5017 5018 5019 5020 5021
          5025 5026 5027 5028 5029 5030
          5040 5041 5042 5043 5044 5045
          5055 5056 5057 5073 5074 5075
          5079 5080 5081 5088 5089 5090
          5094 5095 5096 5103 5104 5105
          5151 5152 5153 5160 5161 5162
          5169 5170 5171 5178 5179 5180
          5187 5188 5189 5202 5203 5204
          5205 5206 5207 5208 5209 5210
          5211 5212 5213 5214 5215 5216
          5217 5218 5219 5220 5221 5222
          5223 5224 5225 5226 5227 5228
          5229 5230 5231 5232 5233 5234
          5235 5236 5237 5238 5239 5240
          5241 5242 5243 5244 5245 5246
          5247 5248 5249 5253 5254 5255
          5256 5257 5258 5259 5260 5261
          5262 5263 5264 5265 5266 5267
          5268 5269 5270 5271 5272 5273
          5274 5275 5276 5280 5281 5282
          5283 5284 5285 5286 5287 5288
          5289 5290 5291 5292 5293 5294
          5295 5296 5297 5298 5299 5300
          5301 5302 5303 5307 5308 5309
          5310 5311 5312 5313 5314 5315
          5316 5317 5318 5319 5320 5321
          5322 5323 5324 5325 5326 5327
          5328 5329 5330 5334 5335 5336
          5337 5338 5339 5340 5341 5342
          5343 5344 5345 5346 5347 5348
          5349 5350 5351 5352 5353 5354
          5355 5356 5357 5358 5359 5360
          5361 5362 5363 5364 5365 5366
          5367 5368 5369 5370 5371 5372
          5373 5374 5375 5376 5377 5378
          5379 5380 5381 5382 5383 5384
          5385 5386 5387 5388 5389 5390
          5391 5392 5393 5394 5395 5396
          5397 5398 5399 5400 5401 5402
          5403 5404 5405 5406 5407 5408
          5409 5410 5411 5412 5413 5414
          5415 5416 5417 5418 5419 5420
          5421 5422 5423 5424 5425 5426
          5427 5428 5429 5430 5431 5432
          5433 5434 5435 5436 5437 5438
          5439 5440 5441 5442 5443 5444
          5445 5446 5447 5448 5449 5450
          5451 5452 5453 5454 5455 5456
          5457 5458 5459 5460 5461 5462
          5463 5464 5465 5466 5467 5468
          5469 5470 5471 5472 5473 5474
          5475 5476 5477 5478 5479 5480
          5481 5482 5483 5484 5485 5486
          5487 5488 5489 5490 5491 5492
          5493 5494 5495 5496 5497 5498
          5499 5500 5501 5502 5503 5504
          5505 5506 5507 5508 5509 5510
          5511 5512 5513 5514 5515 5516
          5517 5518 5519 5520 5521 5522
          5523 5524 5525 5526 5527 5528
          5529 5530 5531 5532 5533 5534
          5535 5536 5537 5538 5539 5540
          5541 5542 5543 5544 5545 5546
          5547 5548 5549 5550 5551 5552
          5553 5554 5555 5556 5557 5558
          5559 5560 5561 5562 5563 5564
          5565 5566 5567 5568 5569 5570
          5571 5572 5573 5574 5575 5576
          5577 5578 5579 5580 5581 5582
          5583 5584 5585 5586 5587 5588
          5589 5590 5591 5592 5593 5594
          5595 5596 5597 5598 5599 5600
          5601 5602 5603 5604 5605 5606
          5607 5608 5609 5610 5611 5612
          5613 5614 5615 5616 5617 5618
          5619 5620 5621 5622 5623 5624
          5625 5626 5627 5628 5629 5630
          5631 5632 5633 5634 5635 5636
          5637 5638 5639 5640 5641 5642
          5643 5644 5645 5646 5647 5648
          5649 5650 5651 5652 5653 5654
          5655 5656 5657 5658 5659 5660
          5661 5662 5663 5664 5665 5666
          5667 5668 5669 5670 5671 5672
          5673 5674 5675 5676 5677 5678
          5679 5680 5681 5682 5683 5684
          5685 5686 5687 5688 5689 5690
          5691 5692 5693 5694 5695 5696
          5697 5698 5699 5700 5701 5702
          5703 5704 5705 5706 5707 5708
          5709 5710 5711 5712 5713 5714
          5715 5716 5717 5718 5719 5720
          5721 5722 5723 5724 5725 5726
          5727 5728 5729 5730 5731 5732
          5733 5734 5735
        </DataArray>
        <DataArray type="Float64" Name="resid_x" format="ascii" RangeMin="-0.37193930273488185" RangeMax="68.04670948875143">
          0.008446198123015947 -0.009362305742516952 -0.0021758081004161767 0.0029464586857379516 0.017828295288930818 -0.017498616514963317
          -0.005740293729770585 0.003946395922637791 -0.004114897265907302 -0.029843150358646042 -0.01819037221637565 -0.016368836318617852
          0.00038054289656042073 0.0009689880532546269 0.0033454972456219423 0.003307588645268922 -0.00021678284025750116 0.00098920702855132
          0.002917678061526985 0.0014238663256045392 -0.011025868612850154 -0.012748266245204753 -0.020563606933308165 -0.020892609584384214
          -0.017418524467107233 -0.012925971046939377 0.003675667701784846 -0.00016760445124619494 -0.016020775065598514 -0.017531718801489182
          -0.0012203662360832368 -0.0008632280224709632 -0.01102031874108178 0.002178005498292279 0.0013361252867589712 0.011719479863423032
          -0.015855159062427404 -0.012738049407222007 -0.012235870583236164 -0.0003711503605494937 0.00028346926383004956 0.0008798607425486438
          0.0008375297236842272 -0.0014297838829936405 -0.00033795773015299346 -0.0016034936052164994 -0.001265047571100908 -0.008407144900947072
          -0.004002720327020093 -0.006342330238806149 -0.011265496474361925 0.00008609869270248538 0.0008758921053031443 -0.0021035774017468256
          -0.005206516171177178 -0.00046019794835139294 -0.0016879642141143236 -0.0028564202112626447 -0.0019561273533454937 -0.005882891741920027
          -0.006175329945367736 -0.006991365963462393 -0.011743929816986132 -0.008684161337690455 -0.004232466317937167 -0.011447477770628822
          -0.003641514544256985 -0.0017117491524594186 -0.0016403966275415627 -0.012890240427679167 -0.010366023967574023 -0.016348615893868157
          -0.0043047021394642115 0.02177104494677451 0.002927658771469055 -0.023382987711208614 -0.018675102126412213 -0.02312532319562166
          -0.020222206399601816 -0.013730663654571984 -0.01155490588746133 -0.014282333506695721 -0.012752418137292665 -0.00042361774138832686
          -0.01980878338407166 -0.00417868654780662 -0.00327510571386469 -0.014182680817649285 0.009281512662822955 0.018601643539835067
          0.016056215045287203 0.013802905245508867 0.011047887275922541 -0.004455687378726481 0.0027000053591266227 0.0016253007358919547
          -0.004919042772420501 -0.0031567898903439584 0.004587702214793543 0.0034525997218892712 -0.0016106154973142273 -0.005222489438144962
          -0.00031337989817248335 -0.003157764966931431 -0.008174340850911732 -0.0221605892829011 -0.03101064241451823 -0.0163628381694938
          -0.005943953945324765 -0.011186829042967972 0.0013809255030103884 -0.013827767625484988 -0.018294651659866545 -0.007314503698571784
          -0.00969895555871525 -0.0013921097489140166 -0.0015584655885767518 -0.00014857341399654445 -0.013586292510050946 -0.008269738675213745
          -0.006503133464718758 0.0020006867576576326 0.0011975925761475992 -0.005207424972715202 -0.015852655785540293 0.004198465429446685
          0.0023289510255954937 -0.014703817026735067 -0.012963395965662983 -0.0013589453342026658 -0.0014753899846136065 -0.010456856833764405
          -0.009037528854634047 -0.009370352489609601 -0.0022278440461658278 -0.002160405592863568 -0.012349505621697787 -0.013951918626305626
          -0.00799292560181275 -0.013632740630182383 -0.0034025356979050514 -0.0035949812293161187 -0.004680104871976454 -0.005450854401447991
          -0.002190205910945764 -0.0019230950997686236 -0.0027881447027517936 -0.0032513393439188576 0.0009079597261543171 -0.00028243947456019214
          -0.005364551809261986 -0.0052662377218295475 -0.0013204590012627637 -0.0018678219010332953 -0.005969894725747382 -0.0073800671584001165
          -0.007116040718220251 -0.008354014688517708 -0.002746981419696759 -0.0053200915832469775 -0.007490123076418609 -0.007640037542682165
          -0.015045376451077175 -0.0284787100537649 -0.0089235648346353 -0.016249976615726247 -0.012634526864022 -0.008825240825646397
          -0.008661870621106793 -0.01741520508656147 -0.010125330862830184 -0.013781374786772105 -0.0032936048565330722 -0.008128101757003403
          -0.0025682810565674785 -0.0005679389509136712 -0.002039850667770793 -0.00860214593535158 -0.09843566199471887 -0.007924179113402374
          -0.08058443104884461 0.024346609562079458 0.0562590185222831 -0.011713961381627058 -0.0024690312837698514 -0.010899861700925939
          -0.00985390363142713 -0.0036813017354315747 -0.0009290291218047031 0.00004151101198157647 -0.006603984293276355 -0.005674360205121687
          -0.008193851765801341 -0.002841719596681891 -0.0016045149314667384 0.0011542849483632267 -0.0060469054597742655 -0.002998676474772921
          -0.01298683668349021 -0.007136884892696038 -0.0018310624428590216 -0.0007998072535189138 -0.010517484361397322 -0.0074781165855100085
          -0.0048231997796079895 -0.0001447919635380046 -0.0006364377824912282 -0.37193930273488185 -0.23789832931091937 0.01409596251462375
          -0.00972957983283429 -0.01004195228613014 -0.004663521525415604 0.001055428606215436 -0.00277969607134132 0.005252761396334016
          0.004573751881928878 -0.009884275456320424 0.011137590084710602 0.0019932504050235167 0.0010218344452894712 0.009978293214299327
          0.00552872189918574 0.04446149840453817 0.019215502702615517 0.0035466934600476563 -0.002643514122809165 0.02283015742058403
          -0.009255495432713978 -0.004103937552567771 0.0021298546024812737 -0.024053051124689695 -0.004492940389664746 -0.030140995007480242
          0.017904952452837186 0.025684527356499842 0.0014142820306002335 -0.013261777276248665 -0.008487375971411915 0.000011798211284386184
          -0.0003238658317261667 -0.00605758505702525 -0.007147803859230528 -0.007681398573935461 -0.004995961600222643 -0.004185663738224932
          -0.005906817624202532 -0.012456130040638058 -0.009677060430147932 0.009031755935388297 0.019325866190454732 0.009047887901442841
          -0.008047558600715377 -0.006249417636957411 0.009817947619268352 -0.01034433620549624 -0.004005324689870804 -0.00627905096370629
          0.005897555185606862 0.0071804502591490404 0.015970117763282943 0.016044025444224452 0.00441589854037705 0.005476232160872563
          0.0066169806747664595 0.017733669112182326 0.0071412123540079975 0.004061833459099162 0.016355904330067617 0.004453223118835226
          -0.014390481697956758 -0.002378584784219484 -0.00768493459885633 0.003286931921956615 0.016410838315628062 0.00553092141395517
          0.003127924245871938 0.01751209890751504 0.0037149751872620485 0.00477512133302227 0.028857783555697125 0.004589652200538197
          -0.00914707737595677 -0.0026495323488191502 0.006642202749157278 -0.014788241378674627 -0.00809704102695008 0.0031312318798839556
          -0.027819204216751103 -0.031121505231318736 0.015069098507311196 -0.04197961240727466 -0.053816419731006704 0.015380922899950633
          0.01386423488273536 0.05431506452388746 0.04712635252485242 0.0017316340217270465 0.0006276514239065278 0.0002655117702801135
          0.0003060273322539331 0.002818469086484754 0.0010468089866755292 0.000153956949311862 -0.000016893956583885483 0.0003072761767057841
          -0.00005978869120504271 0.0027536731882236154 0.0014294984760105933 0.001450036182477632 0.0006911027041152096 0.0007584272134266712
          -0.000040222455004013113 0.0037146917333359397 0.0021773238677500473 0.0022001484076632494 0.001262523384349734 0.0003532938219592552
          -0.000046331692150403114 0.003451499565857219 0.001830666494146982 0.0021311367056409125 0.0013648481082935149 0.0003807126695072327
          0.00004594444464345315 0.0033417328807843205 0.001651295524437657 0.00213532604048261 0.0013130799041789487 0.00041463269712949113
          0.0000870868989046869 0.003065751128065841 0.0014709593085271422 0.0020165042769875186 0.0010993091744637695 0.0004754750211795056
          0.0001408393016859577 0.0025419766157206425 0.0012030400156390897 0.0017220982398775675 0.0009169462382168092 0.00044605907418215907
          0.00014734833436236272 0.002042222485133749 0.0009618928182142383 0.0011982351910369005 0.002063637362290649 0.003273944478042523
          0.0006374056347535628 0.000342161341039926 0.0033160914116141527 0.002145396619329887 0.0007060179919751164 0.00416578102950993
          0.0029716878246475176 0.00029400820880987055 0.003756302342463158 0.002724319762725358 0.00037547917193947455 0.003386551728942422
          0.0023849454090445477 0.00041185404966270767 0.0030222613106012375 0.0020770647190886393 0.000490607374274532 0.0028322620880185667
          0.001754302149908682 0.00045653991678662464 0.002589511407027345 0.000909435708450701 0.00121638521605405 0.0024453669890540652
          0.000948470712714311 0.000701859708197361 0.0029264195959797235 0.0019886080192197397 0.0006711629955873377 0.003992820407136222
          0.0026690616554212454 0.0006768018554073052 0.003892166298109956 0.0026884763287267077 0.0007275614216002424 0.0036328689720779295
          0.002525830627430281 0.0007383809969780941 0.0032499950857953763 0.0021898987224755473 0.0007968904998350013 0.003243233993806882
          0.0018148069216401552 0.0006203390110073315 0.00310423902861956 0.0002723475145991472 -0.0006078170411072392 0.001775820877604417
          0.0009290726684181294 0.0008886589173240367 0.0033458539570148105 0.0022873633452409337 0.0010193742269137829 0.00410097902721418
          0.002584561932028606 0.0010562229233936904 0.0044444239594447765 0.002765612854865651 0.0009304195250035008 0.004353448738310561
          0.0031243498072246467 0.0009591655895562212 0.003994920631777532 0.002643018960087673 0.0010312254055939718 0.0036241996488950434
          0.002003303684826818 0.0007355490922833496 0.003203949252835514 -0.07423057985800696 -0.14905128687563263 -0.07283773943823135
          0.0008409325341549589 0.0006931782007146836 0.0036513462235294725 0.0024830547576240036 0.0016908386231442307 0.005001582691402717
          0.003256603833012406 0.0015003285857453363 0.004988419315891335 0.003211576499873914 0.001320682548556107 0.004917680052709983
          0.0035295706422289186 0.0011474569892744313 0.0040583729207970265 0.0030435189990178912 0.0011738230750246714 0.0034149530515801274
          0.0016498024565620995 0.0007542447639963257 0.002854680972490087 0.06864118526246443 0.1366053234994027 0.07940678860424377
          -0.05450998935821083 -0.17185066667566318 -0.12058135714046614 -0.04971348188856517 -0.025600878131264437 0.03467291021106611
          0.0019366568488035085 0.00218531305165115 0.005250275147005823 0.002815107802531358 0.002022769994631801 0.005105922234085014
          0.0033792047710132778 0.001726061170131743 0.004956360928192183 0.0033478158087678622 0.0013365147306316771 0.0039777621905621174
          0.0026185980398203412 0.0011672522697203647 0.002849087793844518 0.0011064120644395103 0.000666049751105291 0.0025982752391051633
          0.008196922784691196 0.012389353247030499 -0.01630298389347118 0.07838752053447884 -0.13083078396453196 -0.23581556497695288
          -0.11497622493969928 0.05385685829293507 0.1982072984164418 0.002455585271031069 0.0025531123325261973 0.005366020418062334
          0.0029325994970470504 0.0026229265688400005 0.004584284760664303 0.0028420846774572794 0.0022725961024150365 0.005221414750803177
          0.0028269491708439176 0.0016092059274654957 0.003923807984554273 0.0022116776537117744 0.0009676825235551689 0.002726957675459829
          0.0008093084862128563 0.0002568769975592744 0.002496290420719305 0.04090368743936068 0.08144558787476797 -0.004282212337386682
          0.013923429133395615 0.028536745664846208 0.02987288133678767 0.010685867246783332 0.020952025930176532 0.019123946689713733
          -0.00777759582667592 -0.0175553807755513 -0.003179486774753215 0.0026044848226458583 0.0035252462988406563 0.0048877393334976205
          0.0029765514114981073 0.0034207274299298263 0.005225799708341583 0.00270186016093632 0.0023914857381104326 0.004748752732906425
          0.0018068165541276215 0.0006223592868224159 0.0031584212564457204 0.0006775433323742419 -0.0009247209726659378 0.002100849228371615
          0.019608741506676353 0.03894287761193027 -0.006002668603699135 0.014643608283780196 0.028845508533057895 0.020410688271063293
          0.0023155453397603054 0.0063576153031785765 0.01670301086515913 -0.017295091471998703 -0.03601584636004418 -0.014865379147797952
          -0.008535181854702145 -0.017852925111691675 -0.007145430239196671 -0.007296640182703484 -0.01602241078694533 -0.006266181530792281
          -0.005522457820106297 -0.012784417957112382 -0.004323072013184159 -0.003248181723538579 -0.008386135605022993 -0.0024879201391243555
          -0.0014865965990065177 -0.004680462346846603 -0.0010858051789179868 0.0006484638747643601 0.0013356624387341753 0.00014038643091751624
          0.0004099113480471317 0.0006116986396769164 0.0013941791115819058 0.0017341857321717669 0.00044474738290389837 0.001872129923970789
          0.002177697696147618 0.0006503864396201209 0.0023311222388713304 0.002298487102887492 0.000701213639398901 0.0023082156979903345
          0.002004389031061038 0.0006770128345863213 0.001962426382707605 0.0015741095073167344 0.0005602710460337335 0.0017556042742441491
          0.0011613670621333227 0.00023812203660966702 0.0015657832442332875 0.0008201695241396578 -0.0008111144723024211 0.0011829784153682965
          -0.0002278210496875488 -0.002191947633931157 -0.0005327428634203102 0.0004962331209057425 0.0010085904776353516 0.00014076884848179816
          0.0003138552146992879 0.000249764536707886 0.0008810973779667108 0.0013890018728304199 0.00035425487140372525 0.0014121100550283927
          0.0018392592583644785 0.0004428313757607327 0.0015788408709660473 0.0017999347873960403 0.0005006775401668051 0.0014012690655675897
          0.0014562315366131173 0.0005249241914651037 0.0009809253260684159 0.0012163146696249072 0.0004475915971511313 0.0005504895663559495
          0.0010307869103929335 0.0001471426143275778 0.00036449079545342045 0.0008074877941872671 -0.000786990144293398 -0.0001589650862054981
          -0.00010440298225766753 -0.001604787430034449 -0.000991302032433694 0.00020670382226128936 0.0006101630825163795 0.00014346625995642626
          0.00030721586083615193 -0.00003339394340784452 0.0005595117632068991 0.001063923487407692 0.00036665035203498064 0.001172679451709513
          0.0012867903673345893 0.00042389587413182994 0.0011757396555509558 0.0011286546615068005 0.00048621205482390906 0.0010143544169309848
          0.0006657617905716506 0.0005107572517335512 0.0006912018289551014 0.00031386352416618024 0.00042885638439571494 0.00032630088133345225
          0.00027104822004631046 0.00010199858912507409 0.0000878652493341292 0.0002451947274426658 -0.0007083236099703072 -0.0006985176996963105
          -0.0002260986152435862 -0.001110887077839351 -0.001069281671551181 -0.00004366652644094415 0.0003610340670618939 0.00013233287665315174
          0.00028552206833865057 0.00010212614319726754 0.0006068083116623768 0.0008708901685885451 0.0003516274240986661 0.000929608947952687
          0.0008840769947617844 0.0003934624457109237 0.0009262661814410933 0.000717711085730599 0.00045814771282337574 0.0007945877978698945
          0.0004253087750640816 0.0004738495094187556 0.0005142367642445578 0.00007232905413268043 0.00036726536328224313 0.0002034713568175306
          -0.00002051067023955966 0.000033999625138392275 -0.00006749863612043328 -0.00027493121325861125 -0.0006289364569642686 -0.0008751232282424581
          -0.00045689482361765954 -0.0007509019711022802 -0.0009929178972853947 -0.00012002871264371606 0.00017762030470080958 0.00010983590600233128
          0.00023937261079609584 0.0004335181373491537 0.000831958851748027 0.0006430774971057929 0.0002834075826854132 0.0007528848597395665
          0.0006505915144323637 0.0003360531884410989 0.0007222303515099782 0.0005604757760018231 0.0003987974330605937 0.000540674164037469
          0.0003326309321138865 0.00040190675731111014 0.00007652274334546405 0.00007198488446391593 0.0002878953373137705 -0.00032465482358468023
          -0.00002807471051369248 -0.000012510939958687572 -0.0005384207112264505 -0.0004367305998425053 -0.000524985239289677 -0.0009698136156099935
          -0.00047384040091102975 -0.0004998265310955929 -0.0007459746306768267 0.00008919830521847416 0.0002847858801509062 0.00008915771649498083
          0.00017992843448766394 0.0006015720194518792 0.0009500348539148717 0.00045099266541726024 0.00017685332380779073 0.0006451299022316448
          0.000504502366521109 0.0002634090661288724 0.000619339878788594 0.00036084498742461335 0.00032164758573571817 0.00035548060253276503
          0.000006958890308439436 0.0003090542054735579 -0.0001983764631532381 -0.0003265347072218816 0.00020741905941257244 -0.0006908757508341523
          -0.0003749165517401565 -0.00002969496849658526 -0.0009546223164171863 -0.0005360706002033311 -0.00039526034848869074 -0.0010841087900139712
          -0.0003201504437875258 -0.00030927275088465933 -0.0005881313490778695 0.00035424560005736794 0.0004980986043428004 0.000020835004956865077
          0.000026460239745063063 0.00040076305275249524 0.0005600208060698719 0.0003671383625061253 0.00005185375469096698 0.00045705173518939546
          0.0004112386513348554 0.00019537988929840822 0.0004777662218060641 0.00023667764274648562 0.00022481417198427778 0.000304873972060804
          -0.00027564754323528007 0.0002090680309745352 -0.00013374077323646816 -0.0007158907972986128 0.0001345722720778042 -0.0005181799305820078
          -0.0008220124674895857 -0.00002805849490350454 -0.0008015313075215857 -0.0007490354237980057 -0.0002541959648016956 -0.0008972362800054867
          -0.00025786627469948087 -0.0001618174881183876 -0.0004671645921305867 0.0008157847311736077 0.0010943859854428695 0.0006621170787894926
          0.0008555258687614753 0.00040153758669347894 0.0005413536705169975 0.00036283738648634767 0.0001564910967388755 0.00024102433228634368
          0.0003676428852763536 0.00011899774147039466 0.0001787591056192639 0.00017925847303779108 0.00011894140221002658 0.00015230418755507458
          -0.0002284494623356892 0.00010888915462459181 0.00003277670353618589 -0.0006265413670440978 0.00006979549040764255 -0.0001083743921199698
          -0.0008054171481024497 -0.000006848448245833083 -0.00023419407199476439 -0.0007250266726561705 -0.00011597562551735052 -0.0003234388291328827
          -0.0002481104423921465 -0.000058688712272214616 -0.00021019892391294093 17.10941216485537 34.02330968023962 34.21881262035086
          68.04670948875143 17.111121368075842 34.026799483754914 33.43186638262328 66.86397102245745 33.435419320575406
          32.4347732504049 64.86973780218867 32.437996394402404 31.03218322969675 62.06455814796872 31.034737391344958
          29.26222287801128 58.52465138497206 29.26355677260983 27.24786177775268 54.495859184249746 27.2471134246412
          25.254753279403076 50.50941419170682 25.250927381501903 23.720456844059104 47.440375782689074 23.71273692965982
          11.571639636427122 23.142730414228232 11.566319892494713
        </DataArray>
        <DataArray type="Float64" Name="resid_y" format="ascii" RangeMin="-7.002050524325086" RangeMax="5.5712099606911">
          0.009229429114408383 0.0036964139214505573 0.0036002992296387867 0.006845963931300228 0.01830625221466481 0.006348871095925426
          0.005272679484055674 0.009315156637066113 -0.00704402931044773 -0.016630769641237955 -0.009456057001752803 -0.016283079014952094
          -0.00011216008084411616 0.0004645474157234687 0.0019565763157893823 0.0027934664235974016 -0.0011303103107508684 -0.0021529782175071614
          0.0031421224196077346 0.002473007020062784 -0.009692930717929036 -0.013982152755558128 -0.013130000857945856 -0.015168855375184448
          -0.01035276159735891 -0.010113122818703808 0.007973100132505934 0.004908196818331233 -0.009124864388588005 -0.015365938911321916
          -0.009253967354806159 -0.000429370808135654 -0.005319214880665224 -0.004631620025611405 0.0006404328939798587 0.009571068521353865
          -0.01636154161323944 -0.011714239552425232 -0.009289891888403567 -0.0004239315097941763 0.00030191809321790386 0.000413593474978019
          0.0007088828145180234 -0.0015378889199585098 -0.00012772574706094303 -0.00019622548512631538 -0.0033456354089216114 -0.009713299558336495
          -0.0044526400819705145 -0.00910618844879868 -0.013554847021301084 -0.00000265478190963897 0.00034799870823300216 -0.006338733140499167
          -0.006371465046307698 0.00012461318239483793 0.0013309015308836866 -0.006508573243974108 -0.0038376605304798394 -0.0037185304466566295
          -0.002258713980448329 -0.00894351185945675 -0.012252171347333987 -0.0024118179181925672 -0.003237520456826709 -0.012788650004981805
          -0.0027739634273135083 -0.004257461095053955 -0.006621775027144047 -0.011566948430818971 -0.015836079642535972 -0.017903799245379895
          -0.004924699404677685 0.013294282363355503 -0.0069704523301856725 -0.028290789979524028 -0.02294444761559783 -0.0318144244378627
          -0.0253396796026239 -0.019355088612474092 -0.01847125995502591 -0.00860009081986221 -0.015470277947090189 0.0016096787183488281
          -0.01699840987534673 -0.00835311920720383 -0.012799849519097184 -0.01676742248785211 -0.01023627976430258 0.005345412198714289
          -0.01960403935586874 0.007639176342633405 -0.01729350175417621 -0.0025994751583212784 0.0005855210382798431 0.00041565323607897775
          -0.005181412912686145 -0.0004262797452051943 0.0005678801725777609 -0.0006588322450233886 -0.0019860251608177573 -0.0052203921148841
          -0.00225059519487791 -0.009329832946197936 -0.011444880754529154 -0.011134169855625209 -0.013418452894423116 -0.009557553474054126
          -0.00628553529554059 -0.013337957609374954 -0.011349758473474122 -0.02892836762342227 -0.03552876804441013 -0.021939970021615463
          -0.009781519025027219 -0.0029845134736787016 -0.00024634389690931374 -0.0010924345653019682 -0.010988185935366906 -0.008860785262160213
          -0.002143389377924604 0.002022273256548357 0.0013742671009197016 -0.00046500246544961543 -0.005319130256132121 0.0037950301513022255
          0.001485248324015087 -0.0009279226862206891 -0.0077418078591618145 -0.004278385085906777 -0.004355271185103371 -0.004843725074940852
          -0.005538587156912321 -0.000926332834115591 -0.0008608764823621398 0.0016965519177610522 -0.012999631595015868 -0.013287615916603969
          -0.004018194125950204 -0.01002307039639004 -0.01134310793886346 -0.005465708233686889 -0.001763535086891227 -0.0064118067932364305
          0.0008246594544577962 -0.0011495656342183913 0.002068746861187881 -0.0008339932251252291 -0.0004672561640466921 -0.0006227473871479594
          -0.005542489851582809 -0.001506712431492821 -0.0026401448455883186 0.00047396826795101724 -0.005252015173186103 -0.0036722893800628167
          -0.0016551293680283352 -0.0019293036007166087 -0.000611042457908717 -0.0014645772577953353 -0.007216625059604631 -0.0056643942954953536
          -0.006606647301681732 -0.010634109424529829 -0.014038718786602115 -0.012399134980166093 -0.01722548042250588 -0.014576621271869872
          -0.007961198758552307 -0.008920785201934012 -0.007427154814523322 -0.003160600086360585 -0.000039880628903435356 -0.007547061507249986
          -0.00187382730030684 -0.0002373760059137947 -0.0014181364289488282 0.016396068038216055 0.07824451162657076 0.0403265506538982
          0.06960408569236494 0.016001541911836267 0.01314560510536442 -0.011393982153718585 -0.00457360465506628 -0.011068162804242625
          -0.008265470683903847 -0.001525758935064736 -0.0021728380245742483 0.0013128966962602379 -0.008822118388998138 -0.00696426952092586
          -0.011836813187239711 -0.005530153758860679 -0.0035030920033252283 0.001204893395076484 -0.007542328414620061 -0.00414476811198386
          -0.005794566705572914 -0.0018589560140798156 -0.0007605639989723412 -0.0003453934858097694 -0.00889257577635972 -0.005286482775089604
          -0.003921467007018037 0.0011865022095341182 -0.002886441673200485 -0.11957320160352733 -0.06337137616421694 -0.007065106102569149
          -0.005010503414127204 -0.0002558910642000978 -0.003676422129838708 -0.0027915128604446143 -0.0010197739366072378 -0.0046651482171946035
          -0.0009720201943795997 0.002980024425781734 0.004967023314926024 -0.01840314724459212 -0.008419643197763046 -0.03631445133418079
          -0.02042353680640642 -0.023072004997796672 -0.011829766903364111 -0.00009977698823400438 -0.002278451612497026 0.008409095367870711
          0.005964877048229185 0.002018442194010976 0.01206691855755812 0.001177136173954929 -0.0031826151494084853 -0.0011960007362932165
          0.0021150851419675376 0.0032761546718879098 -0.0013690705904134334 -0.005758071620547367 -0.009344145427598441 -0.0009370958890293213
          -0.0015035764843168153 -0.006316552885430871 -0.005615083009230998 -0.005096791235529436 -0.004380105157409234 -0.00129293944593456
          -0.0005501834995335492 -0.009098834470356955 -0.007418391790583442 -0.002125149564316982 0.00016140637888370502 -0.0021823409938955124
          -0.016941813667803715 -0.024094863601975658 -0.0247945582688395 -0.006477416604877793 -0.002059671486024997 -0.005233353992522845
          -0.0043185624280849925 -0.004224923846122934 -0.001272107465688635 -0.0014408863170172481 -0.002195263825960518 -0.002511137681126485
          -0.003722576257482381 -0.0010049759043111312 -0.0024171739456897295 -0.0046468600524177135 -0.0005354517769194846 -0.002326518341382285
          -0.011709767558056472 -0.004310731782788485 -0.007261058873880552 -0.004882686618136962 -0.00019742804431402763 -0.0015761192332937766
          -0.004880628591540641 0.0017621801386905177 -0.0012769518092231417 -0.0098314316642681 0.002475836401754347 -0.007457122014260187
          -0.004809044488109815 -0.005486515757640031 -0.009227666074385632 -0.011007215332316522 -0.013327808473645009 -0.013613182892971865
          -0.026693041245517635 -0.03839211843231982 -0.031475931081182185 -0.03970643257600859 -0.05955689488898486 -0.04453811924578094
          -0.0285644698132948 -0.026726306143932177 -0.018216164022196307 0.0004031032925591038 -3.500378181612666 -0.00036952251010591297
          -7.002050524325086 -0.0006285872629598899 -3.509670752976894 0.000042189205713416555 -3.002160030583256 0.00008436456727412
          -6.004618466033032 -0.0002927085432460341 -3.012367247173006 0.00020497414220144172 -2.2584908271821624 0.00010923653013938939
          -4.5173599405988165 -0.0002665035442139807 -2.2668056719190255 0.0003129457542648817 -1.3717045465302111 0.00012621558295533575
          -2.7436878792019623 -0.0003278165292008861 -1.3780313901474983 0.0003676489106768377 -0.4322470777441784 0.00011273712005072101
          -0.8646895027998179 -0.00048456875306149283 -0.43588786900351756 0.00027682031565109955 0.48649410146115535 0.00008403649465724139
          0.9729345148914389 -0.00041944381408615117 0.48623514929762884 0.00023744250775148412 1.3310875033991754 0.00007442214041475381
          2.662224184751746 -0.0001945076784151123 1.3343997049429626 0.00022224536805082185 1.7057849212120408 0.00006568461463624109
          3.411652349320635 -0.0001711987757126443 1.7107718716250035 0.00007615671520766476 -0.000009128535168656526 -0.0017405331602977636
          -0.00006844198984223837 0.000045502328256841196 -0.0003833711508960391 -0.000006183743203713732 0.00003971306897287974 -0.00015643554671562754
          0.0000717892420423194 -0.000013369854075961918 -0.00023249788272838856 -0.000022666508435076338 0.0000017407163857008356 -0.0002861094455934854
          -0.00003462658441175798 0.000025334853175920657 -0.000460177329176574 0.00009120321693989464 0.00003323075359473737 -0.0005600213566050449
          0.00019036601261535058 0.00007232054038491809 -0.00054982842669693 0.00010803425019756396 0.00032831607164762744 -0.0003022467517390659
          -0.00048742556240499724 0.00025134562801931715 -0.00028212075246147883 -0.00013490384720027393 0.0002687426435910023 -0.0003496917130150212
          0.0000991459152012153 0.00023762238491598087 -0.00040579509732785457 0.00004148778008833398 0.00024083658692819476 -0.00016226166272093057
          -0.00007740560167729393 0.0002358523117153566 -0.00048646144665681623 -0.0001786659135446511 0.00017043242487821408 -0.0008408680300210081
          -0.00012558376923025444 0.00019361731774349134 -0.0009360341854031083 -0.000051207152662380295 0.00014642569408129802 -0.0007533270206416809
          -0.00024562945311945583 0.0005386300266665422 -0.0009618777346886986 -0.0006349373036260708 0.0006263284260281665 -0.0003252826344919413
          -0.00012810172878285897 0.0004658837231714674 -0.0004858186061631464 0.00007264783758864635 0.000455788189500983 -0.000617873774668598
          -0.000038955497540293926 0.00047156034647066747 -0.0006946336788222762 -0.0004954557378149538 0.00035448527519466033 -0.0009939674591935843
          -0.0004488042090132205 0.0003422705915887003 -0.0010563194683338994 -0.05842984666818918 -0.11638130746292497 -0.059215513953797316
          -0.00021754188601841307 0.0008042681174451616 -0.0011390719787396364 -0.0009071419958901483 0.0008031658582996481 -0.0005284212303298119
          -0.0005804192410436837 0.0008196882813695794 -0.0003321795224779933 -0.00038455436365714135 0.0008161290333139615 -0.00041065556872998954
          -0.0002516507842532656 0.0008120907027745483 -0.0005168009570553078 -0.0005256312253114626 0.0006331045267692348 -0.0006981112153081614
          -0.0004902260396146829 0.0005323960847202214 -0.0008233056353234014 0.04320925686029087 0.08683868827345531 0.04450983956452781
          -0.0010944029379347242 0.11624588315780215 0.12280425053993449 -0.041698752553076535 -0.0414708765732974 0.0005643105597541442
          -0.0002424111944878682 0.0015188596375939056 -0.0012145819634570287 -0.00013042152548603525 0.0011860519036508421 -0.0005085745624269222
          -0.0003920582054510735 0.00139909152678519 0.000019282055911284957 -0.00008864989475476648 0.0013657497623831283 0.00021564890141956283
          -0.00020054245632750156 0.001087068860016971 -0.00026692369224090573 -0.00025196410276961956 0.0008030816218849157 -0.0004254395188318938
          -0.020693730130239674 -0.037883358514789744 -0.021882843320850887 0.08289922619036272 0.008180223481744076 -0.094423082367034
          0.013574312965179303 0.031502341367637854 0.014599984621611384 -0.001167640950732629 0.0011663689354466378 -0.0006757608903407153
          -0.00031767878568800256 0.0016420374339078947 -0.000027839297454423928 0.0000068809611306619445 0.002086086407324217 0.0007911697022588982
          0.00046067110593228655 0.002262993786355416 0.0009876156166042094 0.0004547387087927568 0.0018756750311608172 0.0005117278049913132
          0.00007671256179753172 0.0011882664523998887 0.0000719562489290837 -0.026309841267840417 -0.0486087183984365 -0.027677320966393415
          0.01311619335905223 0.03436324602851393 0.015391569285466034 0.0017805224025315702 0.008855478114844662 0.005040622723111898
          -0.009931076902730762 -0.01716937096969673 -0.009228840626767543 -0.0003013297326033282 0.0015981215391382975 0.00046882067368869684
          0.0004951787692677456 0.0029412015591856466 0.0014265340822539052 0.0014491501928857176 0.0037041996557301005 0.002100050771684181
          0.0015065648757515149 0.0036925457326097977 0.0020273343223222717 0.0006260622541107708 0.0018013526580384909 0.000544013485684669
          -0.014066285692527769 -0.0238758489470694 -0.012537718757400507 -0.0021375207242724237 -0.003317540517564499 -0.002036383538772668
          0.006438428213548342 0.017407364254372837 0.010670196302536183 -0.002561899106161114 -0.0024686790295067595 -0.0004937828801190314
          -0.0040259140832761275 -0.006305894697796965 -0.0029968063896328445 -0.003727810506893192 -0.005967696845544879 -0.0027594822685435005
          -0.002757003008405867 -0.0048098753814214135 -0.0019412093235198213 -0.0013555471877926273 -0.0024409662627640216 -0.0009754420009095988
          -0.0005098268119707594 -0.0008108030628792839 -0.0006868462293498911 1.768723651252592 0.000048813935170866074 3.5375826035881826
          0.000012194559526945703 1.7739457060437491 -0.00021382337394093565 -0.00012458883081245542 -0.000001764739841259022 -0.0004974883653160456
          -0.00037596635055620053 0.00008457911853596012 -0.0006846528656628825 -0.0005657378288232429 0.0001807277429593801 -0.0006977148246109788
          -0.0005855027570371707 0.00029964123040360224 -0.0005633129851633223 -0.00042608962072865353 0.00043182807477593066 -0.0003289087035556193
          -0.000196847290766744 0.0005427683007388495 -0.00023273906187593063 -0.00010791617017291699 0.0005839929835438351 -0.0003124365340174684
          -0.0003659198047749612 -0.00025533677953770706 -0.0005603576096953056 2.0343741946630507 -0.00005313268681272909 4.06894913627644
          0.00007297911163761661 2.0400655895658555 -0.000245339933454658 -0.0003272882019881296 0.00014185514661213539 -0.0005476083659184949
          -0.000534449561723882 0.00018174776649093616 -0.0005872387128884049 -0.0005303583431829628 0.00025884929798099254 -0.0005235910806617866
          -0.0004329369226390156 0.00034455505814634524 -0.00044987571376908786 -0.00034714602831686925 0.00042388592212172505 -0.0003719505980576132
          -0.00029861174833589743 0.0005252230203565134 -0.00035120678491784574 -0.00037752883067376786 0.00048343928876970477 -0.000347164318509674
          -0.00033816889153004404 0.00005194063332569776 -0.00025813573576738413 2.2552075171019186 -0.00014505510706264158 4.5106603574274695
          0.00007437098868179337 2.2611713813870358 -0.00020518651271217436 -0.00043048085564489913 0.00015741379872036276 -0.00043100887070790517
          -0.0005531887474283792 0.00020329025336640605 -0.0004417911081632808 -0.0004194639930073171 0.00028081993098726804 -0.0003405594296710737
          -0.0002852407397598844 0.00036816070605610873 -0.00023947230164278466 -0.00026697785244145233 0.00046031789135725365 -0.00008648414148426653
          -0.00029121482468741355 0.000564468243442251 0.00009940964629584492 -0.00029545030951361184 0.00046590085610487275 0.00018943885373889913
          -0.00014763338330670006 0.00011913767581750445 0.00010377845104514449 2.4332975289027754 -0.00017786416857334952 4.8668669590890605
          0.00007645827844127151 2.43942559642388 -0.000029079922180264006 -0.00035167739684827115 0.00016133407557439305 -0.00007161002865452293
          -0.0003203338545515466 0.0002366959953744585 -0.0000613763696815095 -0.0002305725228756439 0.0003204853653636097 0.000013313901233297232
          -0.00006859916602969252 0.0004231902640193519 0.00023093404836693754 0.00005687354991046334 0.0005263058197627624 0.0005445097381930886
          0.0002052011745830029 0.0005856300065448794 0.0008155538176484178 0.0003277820231559758 0.0004428534284146579 0.0008721239309811835
          0.0002936677896958617 0.00012387473524555492 0.0003781198545836917 2.5718132466313666 -0.00011682440167204433 5.143904141362751
          0.000082264380642183 2.57801137592887 0.00015324454393339515 -0.000011925364929443738 0.00017084262391076077 0.0003413936261701389
          0.0001266721363165635 0.00028170826705886665 0.00041562497802261067 0.00018299259959464464 0.0003841485421078872 0.00045860214587678527
          0.0003222600962150546 0.0004936175682892369 0.0006160452462584537 0.0005677340145573417 0.0005810462924469295 0.0008948097007423494
          0.000799513841339472 0.0005829743799818932 0.0011142500702114866 0.0009569673158197345 0.00041425693982599654 0.001164787414727031
          0.0006993212814181415 0.00011776928505402573 0.00044376072844792835 2.6744199463231926 0.0000477246570806944 5.349070968354545
          0.00008630345168358922 2.6805954402744225 0.000289501131099712 0.00035688692682267487 0.00019201832053705736 0.000668168209602582
          0.000590572215775409 0.0003242572595669735 0.0008078136370399669 0.0006933952286697909 0.0004384508186874858 0.0008109570163067348
          0.0007654696155669494 0.0005508776818904104 0.0008386146001085615 0.0008641651526917482 0.0006191112793502151 0.0009141487087157285
          0.000968317723910872 0.0005776691025917158 0.0010046842237145248 0.0010456185259485329 0.0003847357040900057 0.0009896111573771127
          0.0007105910085915546 0.00011085925466380875 0.0003585999413922569 2.744651218648249 0.0001825147652922965 5.489479233299204
          0.000054033413705356637 2.7507862331315014 0.0004086547711310562 0.0006328275098446134 0.00024597119831804015 0.0007913790091540474
          0.000891700466641554 0.00035735743932485686 0.0009320853462391199 0.0010505546063336313 0.000473399380782058 0.0009904026709530722
          0.0010610260205816124 0.0005851198273439939 0.0010150747049109676 0.0010237301094725704 0.0006368900783129683 0.001022306204824311
          0.0009309787713306372 0.000572964217988553 0.0009813478731610648 0.0008345650265134674 0.0003557814689685024 0.0008295276732885742
          0.0005006162412257709 0.00009871451232226769 0.00030995988069790203 2.7855360499309807 0.00023412299732572528 5.5712099606911
          0.000013351949504913918 2.791620639465725 0.00041241384984447294 0.0006919589804854631 0.00030738275793207315 0.0006664423925737406
          0.0008561558710962203 0.0003770310379254127 0.0007813039470001559 0.0010781320155303087 0.0004983425647995254 0.0009904935200116816
          0.0011849848911736904 0.0006071893223595914 0.0011983910909727502 0.0012061267626091166 0.0006459458879138347 0.0012587050699798263
          0.0010649705805142323 0.0005620376474329142 0.0011551927129367229 0.0008478750334791696 0.00033452994654512036 0.0009104605448571924
          0.0004764677096844028 0.00008561062010932485 0.0003139379439276724 1.3995230810447579 0.00013188983826717404 2.7990778777851455
          -0.0001248685099701774 1.4025279161753053 0.00007740033467706908 0.00037493629120266547 0.00010706894419354462 0.00021173849656075383
          0.00047591820521453165 0.00019076882709634368 0.00028120564819844596 0.0006647059660529475 0.0002540936038031294 0.00040769812865093513
          0.0008243057535302079 0.0003058577353465264 0.0005024704492903043 0.0009239623858332546 0.00032326914851765753 0.0005293187478987438
          0.0008544199042752054 0.0002763671680623969 0.0004738158783929025 0.0006936469321682931 0.0001659868101205192 0.00035851991705382336
          0.0003555558715203286 0.000042733358375104426 0.00010086865337683229
        </DataArray>
        <DataArray type="Float64" Name="resid_z" format="ascii" RangeMin="0" RangeMax="0">
          0 0 0 0 0 0
          0 0 0 0 0 0
          0 0 0 0 0 0
          0 0 0 0 0 0
          0 0 0 0 0 0
          0 0 0 0 0 0
          0 0 0 0 0 0
          0 0 0 0 0 0
          0 0 0 0 0 0
          0 0 0 0 0 0
          0 0 0 0 0 0
          0 0 0 0 0 0
          0 0 0 0 0 0
          0 0 0 0 0 0
          0 0 0 0 0 0
          0 0 0 0 0 0
          0 0 0 0 0 0
          0 0 0 0 0 0
          0 0 0 0 0 0
          0 0 0 0 0 0
          0 0 0 0 0 0
          0 0 0 0 0 0
          0 0 0 0 0 0
          0 0 0 0 0 0
          0 0 0 0 0 0
          0 0 0 0 0 0
          0 0 0 0 0 0
          0 0 0 0 0 0
          0 0 0 0 0 0
          0 0 0 0 0 0
          0 0 0 0 0 0
          0 0 0 0 0 0
          0 0 0 0 0 0
          0 0 0 0 0 0
          0 0 0 0 0 0
          0 0 0 0 0 0
          0 0 0 0 0 0
          0 0 0 0 0 0
          0 0 0 0 0 0
          0 0 0 0 0 0
          0 0 0 0 0 0
          0 0 0 0 0 0
          0 0 0 0 0 0
          0 0 0 0 0 0
          0 0 0 0 0 0
          0 0 0 0 0 0
          0 0 0 0 0 0
          0 0 0 0 0 0
          0 0 0 0 0 0
          0 0 0 0 0 0
          0 0 0 0 0 0
          0 0 0 0 0 0
          0 0 0 0 0 0
          0 0 0 0 0 0
          0 0 0 0 0 0
          0 0 0 0 0 0
          0 0 0 0 0 0
          0 0 0 0 0 0
          0 0 0 0 0 0
          0 0 0 0 0 0
          0 0 0 0 0 0
          0 0 0 0 0 0
          0 0 0 0 0 0
          0 0 0 0 0 0
          0 0 0 0 0 0
          0 0 0 0 0 0
          0 0 0 0 0 0
          0 0 0 0 0 0
          0 0 0 0 0 0
          0 0 0 0 0 0
          0 0 0 0 0 0
          0 0 0 0 0 0
          0 0 0 0 0 0
          0 0 0 0 0 0
          0 0 0 0 0 0
          0 0 0 0 0 0
          0 0 0 0 0 0
          0 0 0 0 0 0
          0 0 0 0 0 0
          0 0 0 0 0 0
          0 0 0 0 0 0
          0 0 0 0 0 0
          0 0 0 0 0 0
          0 0 0 0 0 0
          0 0 0 0 0 0
          0 0 0 0 0 0
          0 0 0 0 0 0
          0 0 0 0 0 0
          0 0 0 0 0 0
          0 0 0 0 0 0
          0 0 0 0 0 0
          0 0 0 0 0 0
          0 0 0 0 0 0
          0 0 0 0 0 0
          0 0 0 0 0 0
          0 0 0 0 0 0
          0 0 0 0 0 0
          0 0 0 0 0 0
          0 0 0 0 0 0
          0 0 0 0 0 0
          0 0 0 0 0 0
          0 0 0 0 0 0
          0 0 0 0 0 0
          0 0 0 0 0 0
          0 0 0 0 0 0
          0 0 0 0 0 0
          0 0 0 0 0 0
          0 0 0 0 0 0
          0 0 0 0 0 0
          0 0 0 0 0 0
          0 0 0 0 0 0
          0 0 0 0 0 0
          0 0 0 0 0 0
          0 0 0 0 0 0
          0 0 0 0 0 0
          0 0 0 0 0 0
          0 0 0 0 0 0
          0 0 0 0 0 0
          0 0 0 0 0 0
          0 0 0 0 0 0
          0 0 0 0 0 0
          0 0 0 0 0 0
          0 0 0 0 0 0
          0 0 0 0 0 0
          0 0 0 0 0 0
          0 0 0 0 0 0
          0 0 0 0 0 0
          0 0 0 0 0 0
          0 0 0 0 0 0
          0 0 0 0 0 0
          0 0 0 0 0 0
          0 0 0 0 0 0
          0 0 0 0 0 0
          0 0 0 0 0 0
          0 0 0 0 0 0
          0 0 0 0 0 0
          0 0 0
        </DataArray>
        <DataArray type="Float64" Name="stress_zz" format="ascii" RangeMin="-5274516.6915455945" RangeMax="2545239.1159084626">
          1432741.1939204093 649118.5707183231 417915.29391127545 829028.5002637231 1434033.1913626373 657217.7115701512
          408872.4513971789 817710.0913062709 1435325.188804865 665316.8524219793 399829.60888308234 806391.682348819
          -340712.9968111885 121883.9057071945 356459.9254014889 7000.895916594343 -333440.387998315 114589.91557204323
          344294.0455986584 -349.9872106935436 -326167.7791854415 107295.92543689195 332128.1657958278 -7700.870337981425
          797619.2375666962 352344.4017246282 782376.2677518793 350367.01379121986 767133.2979370625 348389.6258578116
          816311.8910032369 1201631.9817357722 1373629.274169317 809601.8322987837 1183204.3491564998 1350743.108217325
          802891.7735943303 1164776.7165772277 1327856.9422653336 83258.8466828554 -94955.3081769389 -192870.75129056242
          -66012.22551984368 83956.5693774038 -121807.49732501291 -196535.6372629757 -69372.2382081539 84654.2920719522
          -148659.68647308694 -200200.5232353889 -72732.25089646407 -365635.56305568654 -163833.94853559654 -112771.69995590518
          -177399.4303405346 -364623.690612782 -175634.51393193094 -138005.2712616988 -159196.02849242394 -363611.8181698775
          -187435.0793282653 -163238.84256749245 -140992.62664431328 -398600.7724469126 231644.60003623978 922308.9589021723
          -399931.9840325043 248677.0303435709 925247.4185380567 -401263.19561809604 265709.46065090207 928185.878173941
          2150481.2331800843 2165748.1113959313 2181014.989611778 563022.7782657825 -134022.6476169658 564090.7316976778
          -116027.54238114864 565158.6851295731 -98032.43714533147 2494156.8710900038 1323427.7769304437 2519697.993499233
          1303558.3464803214 2545239.1159084626 1283688.9160301986 -324856.650534083 -459540.00476213126 -487753.624253047
          -417330.146788091 -650650.597972011 -375120.2888140507 -505798.21866757865 -376498.19021306577 -324199.6930502399
          -339550.2720363787 -520896.1562723077 -396631.05141977436 -344865.09680057655 -340472.58776766213 -535994.0938770366
          -416763.9126264828 -365530.50055091316 -341394.9034989455 683581.552381701 701375.3208305985 719169.0892794961
          27144.186816202273 37317.194920827125 47490.20302545199 781221.1914210322 788234.8067314007 795248.4220417694
          -111127.49905228302 -522020.7129982943 -112025.33583253268 -503341.1647753076 -112923.17261278236 -484661.6165523208
          -457406.1773550309 -1877777.1908788732 -1955183.262459163 -1506861.3247595686 -462422.5538945838 -2006396.672226635
          -2032449.9773094 -1547820.3527832436 -467438.9304341367 -2135016.153574397 -2109716.692159637 -1588779.3808069183
          131894.57198659793 252706.75199655752 136389.63695917494 254999.10143659503 140884.70193175194 257291.45087663256
          -361243.7221009977 -322168.68936043856 -283093.6566198796 -127081.04075344616 -124698.66334635255 -122316.28593925889
          957493.3999545693 1000516.8328722495 954444.0363953906 1029690.682597668 951394.672836212 1058864.5323230866
          -180737.53847456453 -374893.09572684707 -149247.54439339542 -356472.9913465084 -117757.55031222635 -338052.8869661697
          -1408497.8383229857 -2171054.0846174415 -1390186.8009959434 -2216555.936197126 -1371875.763668901 -2262057.7877768106
          -550453.3007638549 -529572.1117869284 -508690.92281000176 -612141.4623447004 -621737.998374725 -631334.5344047493
          -364812.6627645899 -353362.59008501016 -341912.51740543044 -1190104.311612377 -1107497.120863776 -1024889.9301151747
          295915.3266076316 330874.2091908612 365833.09177409083 -671676.7887243372 -167842.82025427005 -621032.2972306279
          -380261.0556637207 -570387.8057369184 -592679.2910731714 -114105.3419475164 -112558.11212998896 -111010.88231246149
          -387738.3573475266 -917871.8263488688 -373221.38178723643 -911887.0378746635 -358704.4062269462 -905902.2494004583
          -915718.8034431515 -753061.9437636684 -907352.0098762966 -722611.3728283932 -898985.2163094417 -692160.8018931183
          139152.8686643977 -200936.85755949726 136764.8795930894 -200837.47880634683 134376.8905217811 -200738.10005319637
          497609.25653537916 521955.17953738663 546301.1025393943 82544.83389980451 -376904.46981380275 -836353.7735274101
          -722630.3737446112 -741057.146376601 -759483.9190085907 29438.877563196234 231715.40071072607 89305.94891858014
          103716.86608914407 149173.02027396404 -24281.668532437954 477486.9454672169 -159583.40381663127 384258.01846975833
          -132392.99996824318 291029.0914722998 -105202.59611985504 -65810.58983498393 -252495.35976733748 -192039.24534909468
          23027.058908854262 -243842.36292220806 -146776.08484846918 111864.70765269245 -235189.36607707862 -101512.92434784373
          25878.899556283606 20013.703703743406 14148.507851203205 -953421.5623134545 -1026488.4545224754 -858289.3844575844
          -1034415.6451180403 -763157.206601714 -1042342.8357136049 37133.65690120436 318644.7369007484 27113.826599986365
          323402.77060438 17093.996298768354 328160.8043080116 -474362.1666789126 -461686.7710809599 -449011.37548300717
          706688.4036940025 485485.9445110433 264283.4853280841 -1026183.0909928432 -977713.8729876695 -929244.6549824962
          -372438.99128713435 -259395.69826113508 -364901.2747018252 -274483.1300277421 -357363.558116516 -289570.5617943492
          -450874.1902569304 -455490.80535347224 -460107.42045001406 -431794.6011910002 -426014.6579991051 -420234.7148072099
          -864536.9730522021 -851950.7454327685 -839364.5178133347 168500.86402314118 150599.41801375832 132697.97200437542
          671277.8753630605 660609.5131926712 649941.151022282 522896.5570834312 524451.3089920743 526006.0609007173
          2014063.1545415106 2004445.025704007 1994826.8968665032 1910547.345928417 1908358.115359348 1906168.884790279
          1463445.2708873702 1459362.842217104 1455280.4135468379 432957.81389914785 432047.58158212854 431137.3492651093
          -374233.93372812367 -370778.7488301289 -367323.56393213413 -46291.56909597284 -36583.6066269738 -43250.0043071086
          -33660.89679036368 -40208.439518244355 -30738.186953753568 -31154.593520466005 -23848.252809012654 -32456.65906570551
          -25179.87792274844 -33758.72461094502 -26511.50303648423 7015.687568910458 12994.947681783478 7497.719150660812
          13485.575684074705 7979.750732411159 13976.203686365932 34153.65386702057 42293.66065813852 33980.85641572762
          42177.67774694137 33808.05896443466 42061.694835744216 50724.04648612954 59237.183974863525 50760.671484213024
          59349.78196695863 50797.29648229649 59462.379959053746 59759.013040622405 65561.92202298823 59749.18977774118
          65608.24159617742 59739.366514859954 65654.5611693666 49301.48224911889 54630.75299145942 49335.175376983876
          54715.397123516756 49368.86850484888 54800.04125557408 7029.948898317558 16050.648154772683 6963.04873677977
          16080.30284171513 6896.14857524198 16109.957528657578 -113450.64166887783 -111177.69776868205 -108904.75386848628
          -17387.832320462345 -17944.34138208878 -18500.850443715222 6892.677802629416 6681.123168973663 6469.568535317911
          36106.13597988882 36216.225312815484 36326.314645742146 48986.50591254976 48895.12757567236 48803.74923879496
          60727.64119970117 60815.31857024975 60902.99594079831 42431.42738671197 42599.79626698912 42768.16514726627
          -18739.654828818362 -18770.186795640708 -18800.718762463046 -8254.9980938925 -9734.575855982417 -11214.153618072363
          -42920.780732136256 -40903.368043357776 -38885.95535457929 36510.669355076796 36546.14911785048 36581.628880624165
          51659.581302690756 51819.33274187288 51979.08418105499 57392.59561467671 57408.60466884459 57424.61372301245
          70161.25966213924 70164.5253510449 70167.79103995055 32604.80557439731 32594.41147157301 32584.017368748708
          -64799.73395460655 -65402.670305229854 -66005.60665585316 14172.50313303058 4138.855566396363 -5894.792000237838
          12512.550715469744 8676.263490101104 4839.976264732468 48246.540972351504 49021.09720905085 49795.6534457502
          67178.32360764989 66812.6881750827 66447.05274251553 49617.53518195118 49347.363321946905 49077.19146194261
          72143.40210069579 72435.4071803141 72727.4122599324 7520.744552866785 8338.45853886365 9156.172524860525
          -139403.88115576038 -139324.0015289432 -139244.12190212603 -871348.4397291731 -864024.0551400238 -856699.6705508746
          110572.33039009309 106735.46295322446 102898.59551635582 100796.31346546096 100967.98827265295 101139.6630798449
          52409.47528455592 53829.94194126087 55250.40859796581 33776.99572462322 33269.805272078534 32762.614819533832
          66728.72063309612 66552.14504705895 66375.56946102179 -52701.150896854146 -53336.257325459716 -53971.36375406533
          -280847.5154572528 -283472.68916512455 -286097.8628729963 -1227725.8606015616 -1283015.1808814434 -1338304.5011613255
          -1718974.30937223 -1875258.0992763864 -2031541.8891805424 -699895.8717700036 -793633.3403169181 -887370.8088638325
          67365.01104578628 61042.17193815116 54719.33283051606 69710.21674198471 69050.21747548299 68390.21820898128
          -2566.134643566087 -3533.2569174350447 -4500.379191304002 80399.33229483613 81349.81127511589 82300.29025539564
          -114137.20690470363 -111707.71299608733 -109278.21908747102 -460645.428676521 -460487.31401054043 -460329.1993445599
          1150088.489595408 1037647.231821576 925205.9740477441 -303884.07492371975 -601414.018390447 -898943.9618571745
          -1763473.5981681154 -1918884.8447466558 -2074296.0913251957 -741570.8138864029 -742319.0098329834 -743067.2057795636
          414175.5761446496 409638.5060926585 405101.4360406674 38823.325089531914 36277.62612021698 33731.92715090204
          42104.54654402117 43441.88758581993 44779.22862761871 -641938.8635580995 -640356.8502412476 -638774.8369243956
          -1282344.164074415 -1285171.8454247538 -1287999.5267750926 898172.144878759 854000.669472534 809829.1940663091
          -714921.7828019878 -819278.4116110019 -923635.040420016 -3647539.7080239193 -3685962.2327727666 -3724384.757521614
          -2994833.6640258795 -2982321.5187854217 -2969809.3735449635 -37642.19976277719 -42469.86163149281 -47297.523500208394
          320865.2388015642 315098.51356963813 309331.7883377121 549751.235874407 551115.2396438539 552479.2434133005
          -342907.41560645093 -343249.0467346443 -343590.67786283756 -1544410.3455336848 -1552413.6771267971 -1560417.0087199092
          -829825.2222705642 -826251.1424415552 -822677.0626125463 -2643373.9043615884 -2599966.2955825883 -2556558.6868035877
          -5274516.6915455945 -5231888.362081105 -5189260.032616615 -4537167.633734532 -4523054.370670779 -4508941.107607026
          -791797.9594062027 -797141.0579723215 -802484.1565384404 531609.5486499388 523531.86197589716 515454.1753018555
          1114098.0652025107 1117224.2994119145 1120350.5336213184 465913.3051111826 470205.42871005996 474497.55230893724
          -1068425.043058883 -1071741.7437654708 -1075058.4444720584 -16029.220158570875 -22872.284386293377 -15996.303567693772
          -22859.932342539803 -15963.386976816671 -22847.580298786233 -43114.38219790133 -42928.4863144478 -42742.59043099428
          -77165.71256862182 -77109.19355676456 -77052.67454490729 -125221.6247527464 -124248.23104441723 -123274.83733608804
          -212008.5269120927 -212120.70765931762 -212232.8884065426 -283628.84803999687 -280725.7053914983 -277822.56274299964
          -781155.6507325454 -777133.5847806511 -773111.5188287569 -401963.7082178244 -396822.425974295 -391681.1437307656
          462518.00262359786 473000.835661536 483483.6686994742 -27130.25904415817 -30700.56757041518 -27107.55662365999
          -30680.222269840702 -27084.854203161805 -30659.87696926623 -40424.67525351606 -40333.518889465486 -40242.3625254149
          -54855.66219207069 -54785.266087808915 -54714.86998354715 -73280.15551037298 -72871.28141631954 -72462.40732226611
          -101533.63738776199 -101428.00120294775 -101322.36501813348 -118269.33317651726 -117157.94100364415 -116046.54883077103
          -337259.77358525817 -335679.0020048243 -334098.23042439047 509759.22952992155 509190.9036837838 508622.5778376458
          1577139.1536058844 1575693.7512558924 1574248.3489059005 -39162.24085980312 -43062.47315273314 -39155.817329372396
          -43073.09345133501 -39149.39379894167 -43083.71374993686 -54045.00697460305 -54101.49133833257 -54157.975702062075
          -71057.2820056222 -71220.68862541793 -71384.09524521364 -94593.56254514394 -94869.06445207293 -95144.5663590019
          -126957.01093332445 -127585.80883337549 -128214.60673342657 -184248.50564675394 -185220.9104563598 -186193.31526596565
          -251141.22596827304 -253362.18935543852 -255583.15274260394 344189.3323101442 339879.3848781631 335569.437446182
          967878.257547389 962703.580464557 957528.9033817251 -51800.37560425111 -55527.3394474152 -51803.86330394297
          -55518.71745314532 -51807.35100363484 -55510.095458875454 -66127.67357642305 -66085.5405959824 -66043.40761554176
          -82634.8653081874 -82542.5830383833 -82450.30076857918 -104152.97981541278 -103984.1814215611 -103815.38302770941
          -133272.58099053733 -132969.01784596633 -132665.45470139536 -161139.61045513174 -160707.86395798463 -160276.11746083753
          -105968.91535810944 -104994.33035396464 -104019.74534981983 374987.701621263 377557.8945101727 380128.08739908243
          790141.9021528385 793806.0511482654 797470.2001436923 -64038.512830776875 -67746.80566556113 -64039.6885876788
          -67750.22160036319 -64040.864344580725 -67753.63753516524 -78449.93604517815 -78465.19367922108 -78480.451313264
          -94748.00670583657 -94784.91579716696 -94821.82488849733 -114274.91541562194 -114370.07332411694 -114465.23123261191
          -132642.24947492365 -132765.5814547811 -132888.91343463853 -123304.30994888741 -123711.53944045666 -124118.7689320259
          -9458.353882493946 -9919.064923105554 -10379.775963717155 354842.70408015855 353934.4815727656 353026.25906537264
          622779.4039677957 621175.2292210965 619571.0544743974 -74719.1666572082 -78465.71066489445 -74709.47900713664
          -78459.2926005113 -74699.79135706509 -78452.87453612816 -89264.80927348857 -89261.99195087374 -89259.17462825889
          -104952.68960525817 -104944.24100530628 -104935.79240535438 -120373.00085958891 -120377.02877322365 -120381.0566868584
          -124067.52317679237 -124028.52337567009 -123989.52357454783 -84388.61066017245 -84476.86067896949 -84565.11069776653
          52750.83515858312 52921.21664777614 53091.59813696917 333077.75679605326 333626.45178208174 334175.1467681103
          512853.68192512204 513333.34241831617 513813.0029115103 -82587.54731692579 -86472.63024498295 -82570.93086644093
          -86464.09696636304 -82554.31441595609 -86455.56368774312 -97449.57461579944 -97454.77028058816 -97459.9659453769
          -112202.25067931284 -112212.88023232612 -112223.50978533943 -122841.65813477577 -122882.376094501 -122923.09405422625
          -113524.2352524767 -113545.29405427237 -113566.35285606806 -54004.33438070709 -54181.268428929856 -54358.20247715262
          90042.00463823107 90051.50991132246 90061.01518441385 315522.57006548444 315579.52949609235 315636.4889267003
          444180.6816285614 443892.82120098395 443604.96077340655 -88513.73581083046 -92168.3746714585 -88494.36367293658
          -92157.4798947798 -88474.9915350427 -92146.58511810112 -102683.80300867335 -102687.6356101337 -102691.46821159404
          -116359.10342907949 -116367.87298071967 -116376.64253235984 -123409.85423818717 -123442.90344535213 -123475.95265251711
          -105719.58304469896 -105721.62504919662 -105723.66705369425 -35681.59278199466 -35807.8050177961 -35934.01725359754
          109054.45223924576 109139.68515273381 109224.91806622186 303614.8066705701 303816.6962525708 304018.5858345715
          405550.5952845817 405476.92622956575 405403.25717454974 -91394.24032372926 -94702.24353694057 -91373.52979947912
          -94690.68432728661 -91352.81927522899 -94679.12511763265 -104605.57077966511 -104610.00961693442 -104614.44845420374
          -117681.51545303302 -117691.81225582275 -117702.10905861248 -123416.67963395332 -123452.1099502972 -123487.5402666411
          -102881.47220216991 -102886.22552184542 -102890.97884152093 -29596.90942605374 -29725.513389196567 -29854.1173523394
          114884.60561888712 114958.53252370625 115032.45942852538 299606.20093830634 299754.70395293384 299903.20696756133
          393341.0930200519 393180.99135602923 393020.8896920066
        </DataArray>
        <DataArray type="Float64" Name="peeq" format="ascii" RangeMin="0" RangeMax="0.003180873312121741">
          0.0020775506032509536 0.0021612620899603328 0.0021792017928428647 0.00216858804986285 0.0020773891927966122 0.002161184922908609
          0.002179066354443164 0.002168336033085252 0.0020772277823422718 0.002161107755856885 0.0021789309160434637 0.002168084016307654
          0.0021312603896496895 0.002160416777925936 0.00212819989232009 0.002136883898054367 0.002131632614900494 0.0021607009755197056
          0.002127839259049078 0.0021366287605515118 0.002132004840151298 0.0021609851731134748 0.002127478625778066 0.002136373623048656
          0.002130166841501443 0.002153500479827725 0.002129735778508494 0.00215330571415522 0.0021293047155155455 0.0021531109484827157
          0.002107438769625961 0.0019371668377216804 0.002057173545340311 0.002107234245829467 0.001936871273772464 0.0020567339484600577
          0.002107029722032973 0.0019365757098232473 0.002056294351579804 0.0022068078390814886 0.0022704296015487045 0.0023326333664542473
          0.0022126076027105656 0.002207361394677345 0.0022708773323955136 0.0023332018450100073 0.0022132852667650048 0.0022079149502732018
          0.002271325063242322 0.002333770323565766 0.002213962930819444 0.0022579593637246584 0.00232405119072689 0.002293012533132406
          0.0022162454380086198 0.0022584173954180715 0.0023245142627490896 0.002293425838037943 0.002216786211691936 0.002258875427111484
          0.0023249773347712886 0.0022938391429434793 0.0022173269853752505 0.0021949510708679843 0.002315237326217124 0.0022237391053753167
          0.0021959286500252613 0.0023162639117952468 0.0022241383138156307 0.0021969062291825386 0.0023172904973733695 0.0022245375222559446
          0.001901232924160523 0.0019011727648660351 0.0019011126055715473 0.002385861331980256 0.0025501680365361355 0.0023863268771119545
          0.0025507739094883554 0.0023867924222436532 0.002551379782440575 0.0016905209283747554 0.0017793233293526545 0.0016905715151893815
          0.0017792527938114723 0.0016906221020040074 0.0017791822582702902 0.0027679344030172096 0.0029178115207306806 0.002768937553139727
          0.0029183169322045044 0.0027699407032622456 0.0029188223436783277 0.0023887576600153727 0.002502697112663185 0.0023689901621466417
          0.0022535822461134773 0.0023892910581170385 0.0025035327388349877 0.002369715031740757 0.002254247053268626 0.002389824456218704
          0.0025043683650067894 0.0023704399013348733 0.0022549118604237757 0.0031805046917677614 0.003180689001944751 0.003180873312121741
          0.0031091847679876384 0.003109378949874331 0.0031095731317610236 0.0021275497804502676 0.0021277831311162926 0.0021280164817823175
          0.002131961511898565 0.0021192883912033887 0.002132077259504882 0.00212000517761213 0.002132193007111198 0.0021207219640208713
          0.0031136577762536834 0.0027980112207369153 0.0027337515695870806 0.00305068617291163 0.003113970375204252 0.0027977385381959745
          0.0027338497745391793 0.003051159332022287 0.00311428297415482 0.0027974658556550337 0.0027339479794912785 0.0030516324911329445
          0.0021598214844983097 0.0021771776971117834 0.0021601287026602146 0.002177331199556088 0.002160435920822119 0.002177484702000392
          0.0028458801513432793 0.0028470608228105126 0.002848241494277746 0.0023792767875120626 0.0023799007942388916 0.00238052480096572
          0.0028793213343133867 0.002834871074004273 0.0028804568641141452 0.0028362180008477448 0.002881592393914904 0.002837564927691215
          0.0021974955525598397 0.0022153913370077626 0.0021979727469258656 0.0022158591866211935 0.002198449941291892 0.002216327036234624
          0.00247462510905337 0.0025599899992952793 0.0024757909206682806 0.0025607702231743306 0.0024769567322831913 0.002561550447053382
          0.002678402554510075 0.002679404338665759 0.002680406122821443 0.002789422862825734 0.00278953172377141 0.0027896405847170867
          0.0025567322393598457 0.0025573830493156044 0.0025580338592713623 0.0024384258106149473 0.002439843834373382 0.002441261858131817
          0.0026701742553237305 0.0026716424058715483 0.002673110556419366 0.0028608238552008075 0.0028386082451747983 0.0028614059314123353
          0.0028398629792978063 0.0028619880076238627 0.002841117713420814 0.002144071923982909 0.0021446498638251904 0.002145227803667472
          0.002152781250435121 0.0021945889492915576 0.0021536692483275634 0.0021955451101307167 0.002154557246220006 0.0021965012709698763
          0.0024034702852053016 0.002644462381060276 0.002404469175916491 0.0026452640114209345 0.0024054680666276795 0.0026460656417815935
          0.0021869051914184742 0.00219442309257467 0.0021869761400663363 0.002194689304656182 0.002187047088714198 0.0021949555167376936
          0.002612610684058517 0.002613836021999935 0.0026150613599413538 0.0028012647271323226 0.0028030428301025066 0.0028048209330726907
          0.002961729990799643 0.0029625514385087544 0.002963372886217866 0.002497901275601241 0.00263317373301835 0.0024983896712861297
          0.0026328633018169035 0.0024988780669710185 0.0026325528706154567 0.002702599462742481 0.0027208112716149944 0.002702106231457243
          0.002720904850133224 0.002701613000172006 0.002720998428651453 0.0025079136541563845 0.002418514721728315 0.00255089205235265
          0.0025082842787002707 0.0024192023584963087 0.0025510851904154835 0.0025086549032441573 0.002419889995264302 0.002551278328478317
          0.0025734016029990113 0.002573402402639784 0.002573403202280558 0.0022888715610686434 0.002239273896929382 0.002290620658969989
          0.0022403869410020554 0.002292369756871335 0.0022414999850747293 0.0021908602856983285 0.0021953735618302703 0.0021909840880909625
          0.002195376559192348 0.002191107890483597 0.002195379556554426 0.0024385300657362935 0.0024392153943095353 0.002439900722882777
          0.0026661254495236736 0.0026651858175066063 0.002664246185489539 0.0021308158946304924 0.0021319580733170297 0.0021331002520035666
          0.002225552829806948 0.0022738451047022226 0.0022260268045713014 0.002274204741151026 0.0022265007793356552 0.0022745643775998296
          0.0023411038677471838 0.002341632720570412 0.00234216157339364 0.002198140863695643 0.002198626416910333 0.002199111970125023
          0.0021511155791016714 0.0021520720577233093 0.002153028536344948 0.0021966125917857356 0.0021969173179229667 0.0021972220440601977
          0.002203057958853506 0.0022030381946498683 0.002203018430446231 0.002193400796500347 0.0021932544852852694 0.0021931081740701923
          0.001342000679849358 0.0013419299852650654 0.0013418592906807728 0.0016353507841853161 0.0016352532523208015 0.0016351557204562868
          0.0018818615723022283 0.0018817575459336392 0.0018816535195650503 0.002070084463643727 0.0020700021056579984 0.0020699197476722704
          0.0021484903228594044 0.002148436570865708 0.0021483828188720118 0 0 0
          0 0 0 0 0 0
          0 0 0 0 0 0
          0 0 0 0 0 0
          0 0 0 0 0 0
          0 0 0 0 0 0
          0 0 0 0 0 0
          0 0 0 0 0 0
          0 0 0 0 0 0
          0 0 0 0 0 0
          0 0 0 0 0 0
          0 0 0 0 0 0
          0 0 0 0 0 0
          0 0 0 0 0 0
          0 0 0 0 0 0
          0 0 0 0 0 0
          0 0 0 0 0 0
          0 0 0 0 0 0
          0 0 0 0 0 0
          0 0 0 0 0 0
          0 0 0 0.000019873779985686432 0.000019929015721312962 0.000019984251456939496
          0 0 0 0 0 0
          0 0 0 0 0 0
          0 0 0 0 0 0
          0 0 0 0.00040750616295739045 0.00040768836833931783 0.0004078705737212453
          0.00012774232446972783 0.00012820277455720587 0.0001286632246446839 0.000017125808033453485 0.000017387896035256837 0.000017649984037060187
          0 0 0 0 0 0
          0 0 0 0 0 0
          0 0 0 0 0 0
          0.0007967872824840156 0.0007967873936187912 0.0007967875047535666 0.0003830899330180917 0.00038368785738244153 0.0003842857817467913
          0.00010070667630987622 0.00010118684831521746 0.00010166702032055867 0.000004046501838618647 0.000004088299831834974 0.000004130097825051302
          0 0 0 0 0 0
          0 0 0 0 0 0
          0 0 0 0.001277448802915252 0.0012770397447933136 0.0012766306866713749
          0.0007790308793455423 0.0007790619202823505 0.0007790929612191587 0.00030641947067157707 0.00030673522457910074 0.00030705097848662436
          0.000050556229583314194 0.00005070642958820447 0.000050856629593094756 0 0 0
          0 0 0 0 0 0
          0 0 0 0 0 0
          0.0015387062141170773 0.0015380719973437423 0.0015374377805704074 0.0010076189816229841 0.0010072956434716038 0.0010069723053202236
          0.00044567720479030874 0.00044587254459828025 0.00044606788440625176 0.00009301945548939109 0.000093236259512739 0.00009345306353608692
          0 0 0 0 0 0
          0 0 0 0 0 0
          0 0 0 0 0 0
          0 0 0 0 0 0
          0 0 0 0 0 0
          0 0 0 0 0 0
          0 0 0 0 0 0
          0 0 0 0 0 0
          0 0 0 0 0 0
          0 0 0 0 0 0
          0 0 0 0 0 0
          0 0 0 0 0 0
          0 0 0 0 0 0
          0 0 0 0 0 0
          0 0 0 0 0 0
          0 0 0 0 0 0
          0 0 0 0 0 0
          0 0 0 0 0 0
          0 0 0 0 0 0
          0 0 0 0 0 0
          0 0 0 0 0 0
          0 0 0 0 0 0
          0 0 0 0 0 0
          0 0 0 0 0 0
          0 0 0 0 0 0
          0 0 0 0 0 0
          0 0 0 0 0 0
          0 0 0 0 0 0
          0 0 0 0 0 0
          0 0 0 0 0 0
          0 0 0 0 0 0
          0 0 0 0 0 0
          0 0 0 0 0 0
          0 0 0 0 0 0
          0 0 0 0 0 0
          0 0 0 0 0 0
          0 0 0 0 0 0
          0 0 0 0 0 0
          0 0 0 0 0 0
          0 0 0 0 0 0
          0 0 0 0 0 0
          0 0 0 0 0 0
          0 0 0 0 0 0
          0 0 0 0 0 0
          0 0 0 0 0 0
          0 0 0 0 0 0
          0 0 0 0 0 0
          0 0 0
        </DataArray>
        <DataArray type="Float64" Name="pe11" format="ascii" RangeMin="0" RangeMax="0.0031803563291221">
          0.002077372878311164 0.0021611466739153403 0.0021790944288222216 0.0021684814778690107 0.002077210248889432 0.0021610683672878108
          0.002178958000514475 0.0021682288801995824 0.0020770476194677005 0.002160990060660282 0.002178821572206729 0.0021679762825301536
          0.0021311388295550387 0.002160217316688827 0.002127926289644421 0.002136723537526105 0.0021315102873085117 0.002160497693950266
          0.0021275624426976567 0.002136467286371426 0.002131881745061984 0.0021607780712117053 0.002127198595750893 0.002136211035216747
          0.0021300014654924895 0.00215338227890709 0.002129569248864219 0.00215318720734202 0.0021291370322359493 0.00215299213577695
          0.002107024444007074 0.001936733142132043 0.0020569087731388182 0.0021068132004913257 0.0019364330424066784 0.002056466605666844
          0.0021066019569755774 0.0019361329426813142 0.002056024438194869 0.0022067494619604426 0.00227036123168226 0.0023325440907284857
          0.002212528640369609 0.00220730120643928 0.002270808988736442 0.0023331117027716756 0.0022132046771929136 0.0022078529509181165
          0.0022712567457906247 0.002333679314814866 0.0022138807140162178 0.0022579245855346443 0.002324019006659045 0.00229296834711929
          0.002216196371025422 0.002258382649428406 0.0023244821513831713 0.00229338179873503 0.002216735723244443 0.002258840713322168
          0.002324945296107297 0.0022937952503507704 0.0022172750754634635 0.0021948384336041 0.002314984004080799 0.002223426900923365
          0.0021958117905963815 0.002316003451649746 0.0022238177262037502 0.002196785147588663 0.0023170228992186936 0.0022242085514841354
          0.0019008918780088085 0.0019008296963086702 0.0019007675146085314 0.002385276560972941 0.00254967068286658 0.0023857304797572695
          0.0025502709313047255 0.0023861843985415977 0.0025508711797428713 0.0016899303605828844 0.0017786209891588892 0.0016899780060743307
          0.001778543240987929 0.0016900256515657774 0.0017784654928169694 0.0027677501250086825 0.0029175242921896235 0.0027687535011224457
          0.0029180297626904476 0.002769756877236209 0.0029185352331912717 0.002388606296084062 0.0025025006865184427 0.0023688614109703314
          0.002253477076630192 0.0023891387718978107 0.002503335328980938 0.0023695863380811142 0.0022541408020400723 0.002389671247711559
          0.0025041699714434327 0.002370311265191896 0.002254804527449952 0.0031800003230592925 0.0031801783260906966 0.0031803563291221
          0.003108938781919587 0.0031091329616258745 0.003109327141332162 0.0021268848933721136 0.00212710579318167 0.002127326692991226
          0.0021318611722036408 0.00211921306063174 0.0021319767376528466 0.0021199296401150543 0.002132092303102052 0.0021206462195983676
          0.0031132011426983673 0.0027977232478412026 0.0027334821151971172 0.003050287194068664 0.003113510668262276 0.002797447094863535
          0.0027335783895489855 0.0030507586066200526 0.003113820193826184 0.0027971709418858686 0.0027336746639008537 0.003051230019171441
          0.0021597488161232766 0.002177108104714001 0.0021600541244020843 0.00217725965832822 0.0021603594326808917 0.0021774112119424395
          0.0028456392538233717 0.0028468213545146948 0.0028480034552060174 0.002379234956344356 0.002379858382983072 0.0023804818096217874
          0.0028790145968110212 0.002834662949859733 0.0028801499891164305 0.0028360107449059645 0.0028812853814218393 0.0028373585399521953
          0.0021974466049316625 0.0022153591587990816 0.0021979211278673715 0.0022158255135231457 0.00219839565080308 0.002216291868247209
          0.0024744861875659356 0.0025597917731820003 0.0024756514225940224 0.002560570624720605 0.0024768166576221097 0.0025613494762592097
          0.0026781511982151766 0.0026791525091521035 0.0026801538200890295 0.0027890347899333966 0.002789140128671634 0.0027892454674098713
          0.002556531007107715 0.0025571813190786797 0.0025578316310496444 0.002438190070046583 0.002439604090601437 0.0024410181111562913
          0.002669966162833693 0.002671434834478742 0.0026729035061237917 0.002860757491143703 0.0028385517917655927 0.0028613363094471
          0.002839804491418173 0.0028619151277504964 0.002841057191070753 0.0021440050349766965 0.00214458148773872 0.002145157940500744
          0.0021527140917384866 0.002194526713903888 0.0021536008920837483 0.0021954815346260474 0.002154487692429011 0.002196436355348207
          0.0024033582947211897 0.002644210031921764 0.0024043578937602552 0.0026450126836622925 0.0024053574927993208 0.0026458153354028207
          0.002186837630225915 0.0021943723748654347 0.0021869062692592436 0.002194636609639476 0.0021869749082925713 0.0021949008444135166
          0.0026123989902970286 0.002613626088756813 0.0026148531872165976 0.0028012066073820176 0.0028029848598994625 0.0028047631124169074
          0.002961343598071909 0.002962164301793188 0.002962985005514467 0.00249778455123416 0.002633049391123241 0.0024982722484272473
          0.002632740061087111 0.002498759945620336 0.0026324307310509804 0.0027025286370804275 0.0027207281286765845 0.002702027109862109
          0.002720805443186268 0.00270152558264379 0.002720882757695951 0.0025078526145986503 0.0024184792147715494 0.002550834368524572
          0.0025082223627216206 0.002419167094665454 0.002551021784220823 0.0025085921108445905 0.0024198549745593594 0.002551209199917073
          0.00257334086135158 0.002573330511336085 0.0025733201613205906 0.0022887795966075406 0.002239214585022124 0.0022905250708141105
          0.0022403257694512246 0.002292270545020681 0.0022414369538803257 0.0021907713088962807 0.0021952818177770447 0.0021908945556779226
          0.0021952840912218404 0.0021910178024595645 0.002195286364666636 0.0024384919155194915 0.0024391777885399307 0.0024398636615603694
          0.0026660519815379273 0.0026651126470699647 0.002664173312602002 0.002130758334338718 0.0021318997524436096 0.002133041170548501
          0.0022255305403083353 0.002273820979982282 0.0022260037462941296 0.00227418054209652 0.0022264769522799236 0.0022745401042107575
          0.0023410720000332625 0.002341600706612398 0.002342129413191534 0.0021981103225284584 0.002198594666459175 0.0021990790103898917
          0.002151041802426028 0.0021519969573883654 0.002152952112350702 0.002196558329999536 0.0021968632439812036 0.0021971681579628713
          0.0022029886525876553 0.002202968575374773 0.002202948498161891 0.0021933214101555404 0.0021931739853141927 0.002193026560472845
          0.0013406962122803818 0.0013406238824283704 0.0013405515525763592 0.001634459744020255 0.001634360433999452 0.0016342611239786487
          0.0018813650478925162 0.0018812593528932675 0.0018811536578940188 0.0020698469799067757 0.002069763079191919 0.0020696791784770626
          0.002148343841512977 0.002148288668395261 0.002148233495277546 0 0 0
          0 0 0 0 0 0
          0 0 0 0 0 0
          0 0 0 0 0 0
          0 0 0 0 0 0
          0 0 0 0 0 0
          0 0 0 0 0 0
          0 0 0 0 0 0
          0 0 0 0 0 0
          0 0 0 0 0 0
          0 0 0 0 0 0
          0 0 0 0 0 0
          0 0 0 0 0 0
          0 0 0 0 0 0
          0 0 0 0 0 0
          0 0 0 0 0 0
          0 0 0 0 0 0
          0 0 0 0 0 0
          0 0 0 0 0 0
          0 0 0 0 0 0
          0 0 0 0.00001955098838048775 0.000019605616642144146 0.000019660244903800545
          0 0 0 0 0 0
          0 0 0 0 0 0
          0 0 0 0 0 0
          0 0 0 0.0004031760284479294 0.0004033544317814083 0.0004035328351148872
          0.00012553115646062274 0.00012598273601816296 0.00012643431557570319 0.000016727855487906837 0.000016984453254096987 0.00001724105102028714
          0 0 0 0 0 0
          0 0 0 0 0 0
          0 0 0 0 0 0
          0.0007893145193382807 0.0007893085332306943 0.0007893025471231079 0.00037588515986218367 0.000376472824715226 0.00037706048956826833
          0.00009769535440580164 0.00009816785601316446 0.00009864035762052726 0.0000038690054657490375 0.000003909294752616197 0.000003949584039483356
          0 0 0 0 0 0
          0 0 0 0 0 0
          0 0 0 0.0012664640529228594 0.0012660480506409494 0.0012656320483590393
          0.0007621983016529762 0.0007622344843860274 0.0007622706671190784 0.0002939724853556086 0.0002942908180053776 0.0002946091506551467
          0.00004719944126520346 0.000047346983148004065 0.000047494525030804676 0 0 0
          0 0 0 0 0 0
          0 0 0 0 0 0
          0.0015256912226301578 0.0015250497941139054 0.001524408365597653 0.0009845866197418552 0.0009842775580936403 0.0009839684964454256
          0.0004260099728754276 0.0004262148304926204 0.0004264196881098131 0.00008666087159890885 0.00008687537679077576 0.00008708988198264265
          0 0 0 0 0 0
          0 0 0 0 0 0
          0 0 0 0 0 0
          0 0 0 0 0 0
          0 0 0 0 0 0
          0 0 0 0 0 0
          0 0 0 0 0 0
          0 0 0 0 0 0
          0 0 0 0 0 0
          0 0 0 0 0 0
          0 0 0 0 0 0
          0 0 0 0 0 0
          0 0 0 0 0 0
          0 0 0 0 0 0
          0 0 0 0 0 0
          0 0 0 0 0 0
          0 0 0 0 0 0
          0 0 0 0 0 0
          0 0 0 0 0 0
          0 0 0 0 0 0
          0 0 0 0 0 0
          0 0 0 0 0 0
          0 0 0 0 0 0
          0 0 0 0 0 0
          0 0 0 0 0 0
          0 0 0 0 0 0
          0 0 0 0 0 0
          0 0 0 0 0 0
          0 0 0 0 0 0
          0 0 0 0 0 0
          0 0 0 0 0 0
          0 0 0 0 0 0
          0 0 0 0 0 0
          0 0 0 0 0 0
          0 0 0 0 0 0
          0 0 0 0 0 0
          0 0 0 0 0 0
          0 0 0 0 0 0
          0 0 0 0 0 0
          0 0 0 0 0 0
          0 0 0 0 0 0
          0 0 0 0 0 0
          0 0 0 0 0 0
          0 0 0 0 0 0
          0 0 0 0 0 0
          0 0 0 0 0 0
          0 0 0 0 0 0
          0 0 0
        </DataArray>
        <DataArray type="Float64" Name="pe22" format="ascii" RangeMin="-0.0015918664977957796" RangeMax="0">
          -0.0010333214869947195 -0.0010789767545584298 -0.0010877392873609594 -0.0010799767162509484 -0.0010334107309693404 -0.0010790078013611288
          -0.001087722484308144 -0.0010799496567271546 -0.0010334999749439613 -0.0010790388481638276 -0.001087705681255329 -0.0010799225972033609
          -0.001062890696210472 -0.0010734870940045725 -0.0010529781301523004 -0.0010603920553592312 -0.0010628138323835353 -0.0010734948453953988
          -0.0010529546857516003 -0.001060326491445116 -0.0010627369685565985 -0.001073502596786225 -0.0010529312413508998 -0.0010602609275310012
          -0.0010566024979604231 -0.0010715696171631735 -0.001056571399941591 -0.0010714647346340375 -0.0010565403019227588 -0.0010713598521049012
          -0.0010401317065732202 -0.000956809031000735 -0.0010178218544054148 -0.0010401329281744121 -0.0009568257574484877 -0.0010178221526191077
          -0.0010401341497756043 -0.0009568424838962404 -0.0010178224508328006 -0.00110594255422917 -0.0011403813245837845 -0.0011675722395457413
          -0.0011076061639931035 -0.0011058066429598264 -0.0011401942974372966 -0.0011673864422944206 -0.001107500969164198 -0.0011056707316904827
          -0.0011400072702908084 -0.0011672006450430996 -0.001107395774335293 -0.0011307322551198729 -0.0011623391218549544 -0.0011496377153287342
          -0.0011107778273526654 -0.001130580562802096 -0.001162125732132269 -0.001149422570869493 -0.001110610587782403 -0.001130428870484319
          -0.001161912342409584 -0.0011492074264102515 -0.001110443348212141 -0.0010934314560010427 -0.0011471237463883599 -0.0011005885592551574
          -0.00109332387883811 -0.00114702090946179 -0.0011005962669698114 -0.0010932163016751776 -0.0011469180725352203 -0.0011006039746844659
          -0.000942477780227585 -0.0009426072796791595 -0.0009427367791307341 -0.0011756898517428266 -0.001257927614156933 -0.0011757368811383055
          -0.0012578033392456264 -0.0011757839105337843 -0.0012576790643343196 -0.0008353185607575888 -0.0008776357045323737 -0.0008354558201292901
          -0.0008776921857630894 -0.0008355930795009917 -0.000877748666993805 -0.0013870703167911012 -0.0014652298090790106 -0.0013874293993071099
          -0.0014654785673509562 -0.0013877884818231186 -0.0014657273256229015 -0.0011940668113307792 -0.001252598518918943 -0.0011887860489697808
          -0.0011277479756320766 -0.0011938851208593032 -0.00125246447518102 -0.0011885819874819653 -0.0011276119184675949 -0.0011937034303878269
          -0.0012523304314430968 -0.0011883779259941496 -0.0011274758613031132 -0.0015918664977957796 -0.0015914661068721532 -0.001591065715948527
          -0.0015644325407976791 -0.0015646517688693812 -0.0015648709969410832 -0.001046255958971639 -0.0010463630013364156 -0.0010464700437011916
          -0.0010617981456118271 -0.001058737087705262 -0.0010616513617205904 -0.0010586269670386928 -0.0010615045778293538 -0.0010585168463721245
          -0.0015649593737805385 -0.0013955648829739311 -0.0013669302425843345 -0.0015340734632031776 -0.001564746121282778 -0.0013951383732150858
          -0.0013666097606007883 -0.0015339556595584628 -0.0015645328687850174 -0.0013947118634562406 -0.0013662892786172423 -0.001533837855913748
          -0.0010773937249178756 -0.0010860727988243409 -0.0010772701943458126 -0.001085970873806301 -0.0010771466637737497 -0.0010858689487882613
          -0.0014267646607595565 -0.001426917933288651 -0.0014270712058177455 -0.0011899300489261466 -0.0011896829832181853 -0.0011894359175102238
          -0.0014432115261887573 -0.0014193188010577099 -0.001442924275819701 -0.00141916898278779 -0.0014426370254506447 -0.0014190191645178697
          -0.0011003723586301363 -0.0011091375602165655 -0.001100159260604634 -0.0011089892397459793 -0.0010999461625791317 -0.0011088409192753928
          -0.0012375346670934102 -0.001275234735029559 -0.001237307048075654 -0.0012749414211016285 -0.0012370794290578976 -0.0012746481071736983
          -0.001340145668473571 -0.0013401953928659687 -0.0013402451172583663 -0.001384859851297397 -0.001384418772324177 -0.0013839776933509567
          -0.001277763733833879 -0.0012776298891878461 -0.0012774960445418133 -0.0012121104756272444 -0.0012119623698827195 -0.0012118142641381942
          -0.0013377630288426065 -0.0013377508722308645 -0.0013377387156191225 -0.0014308035437117087 -0.0014194206950517566 -0.0014306235108925655
          -0.0014199628814380992 -0.0014304434780734222 -0.0014205050678244417 -0.0010702294202878868 -0.0010700965930272451 -0.0010699637657666037
          -0.0010754371397717001 -0.0010986025293682157 -0.0010753522131569913 -0.00109853954244991 -0.0010752672865422827 -0.0010984765555316044
          -0.0012065818220186049 -0.001328320187954608 -0.0012063250314260708 -0.0013279458376344476 -0.0012060682408335367 -0.001327571487314287
          -0.0010921366746913636 -0.0010973637611822844 -0.001091989524387961 -0.0010972243497938193 -0.0010918423740845585 -0.0010970849384053544
          -0.0013134959094890718 -0.0013132514459420668 -0.0013130069823950618 -0.0014013226077406638 -0.0014023408998824277 -0.0014033591920241915
          -0.0014872704042836822 -0.0014870010777319862 -0.0014867317511802905 -0.0012499403300792703 -0.0013200713160428574 -0.0012496155752613793
          -0.001319474063824908 -0.0012492908204434884 -0.0013188768116069586 -0.0013522446465874397 -0.001361317827124185 -0.0013513737977903304
          -0.0013599990555672715 -0.0013505029489932212 -0.001358680284010358 -0.0012550682163558972 -0.0012084769838555602 -0.0012752051005002637
          -0.0012547295885389689 -0.0012084113124459497 -0.0012747916418086869 -0.0012543909607220407 -0.001208345641036339 -0.00127437818311711
          -0.0012857006105383424 -0.0012850726077742519 -0.0012844446050101616 -0.0011439081712728298 -0.0011220961982227875 -0.0011438291231198232
          -0.001121964892918473 -0.0011437500749668164 -0.0011218335876141583 -0.001095740102618229 -0.0010981450286904205 -0.0010956589440435436
          -0.0010980857379744577 -0.0010955777854688585 -0.001098026447258495 -0.0012178924012081803 -0.0012179902026503112 -0.001218088004092442
          -0.0013353998012844018 -0.001334791610356803 -0.0013341834194292041 -0.0010667543584300563 -0.0010667224726030973 -0.0010666905867761384
          -0.001112694151653193 -0.001136059104390965 -0.0011126698132439702 -0.0011359920787903492 -0.0011126454748347477 -0.0011359250531897333
          -0.0011695722067822658 -0.0011693881875997532 -0.0011692041684172407 -0.0010995120809289857 -0.0010994427300800563 -0.0010993733792311268
          -0.0010761772208066696 -0.0010760805796877237 -0.0010759839385687778 -0.0010989054867332148 -0.0010988120798749203 -0.001098718673016626
          -0.0011020714042405781 -0.0011019772285132553 -0.0011018830527859324 -0.001096058768221028 -0.0010960054174491648 -0.0010959520666773016
          -0.0006513583731274257 -0.0006513971926265683 -0.0006514360121257111 -0.0008015528440731068 -0.0008016150428586609 -0.0008016772416442152
          -0.0009303652227525229 -0.0009304362693316217 -0.0009305073159107206 -0.0010291615498290827 -0.001029192129906241 -0.0010292227099833995
          -0.001069990673861983 -0.00106999196635084 -0.001069993258839697 0 0 0
          0 0 0 0 0 0
          0 0 0 0 0 0
          0 0 0 0 0 0
          0 0 0 0 0 0
          0 0 0 0 0 0
          0 0 0 0 0 0
          0 0 0 0 0 0
          0 0 0 0 0 0
          0 0 0 0 0 0
          0 0 0 0 0 0
          0 0 0 0 0 0
          0 0 0 0 0 0
          0 0 0 0 0 0
          0 0 0 0 0 0
          0 0 0 0 0 0
          0 0 0 0 0 0
          0 0 0 0 0 0
          0 0 0 0 0 0
          0 0 0 0 0 0
          0 0 0 -0.000007805573751634682 -0.000007822383181731468 -0.000007839192611828253
          0 0 0 0 0 0
          0 0 0 0 0 0
          0 0 0 0 0 0
          0 0 0 -0.000173452924452392 -0.0001734977082236529 -0.00017354249199491378
          -0.00005177760480960133 -0.00005193260159281886 -0.000052087598376036374 -0.000006802625584475703 -0.000006899571571331161 -0.00000699651755818662
          0 0 0 0 0 0
          0 0 0 0 0 0
          0 0 0 0 0 0
          -0.0003540989507962624 -0.0003540719566007014 -0.0003540449624051403 -0.00016279544882536766 -0.000162986336017722 -0.00016317722321007632
          -0.00004156767070425516 -0.000041741466512703975 -0.0000419152623211528 -0.0000016393587967799024 -0.0000016556282561219974 -0.0000016718977154640924
          0 0 0 0 0 0
          0 0 0 0 0 0
          0 0 0 -0.0005903523948429055 -0.0005901095067873405 -0.0005898666187317755
          -0.00034556871982479307 -0.00034550923681141274 -0.0003454497537980324 -0.00013038137238509154 -0.00013046938815041212 -0.0001305574039157327
          -0.00002054171017382151 -0.000020594539063678813 -0.00002064736795353612 0 0 0
          0 0 0 0 0 0
          0 0 0 0 0 0
          -0.0007205859254141841 -0.0007202099143838151 -0.0007198339033534461 -0.0004534906041147842 -0.00045326623840955633 -0.0004530418727043285
          -0.00019123265453062412 -0.0001912549864180786 -0.00019127731830553303 -0.00003780470275408321 -0.000037877821615113635 -0.00003795094047614405
          0 0 0 0 0 0
          0 0 0 0 0 0
          0 0 0 0 0 0
          0 0 0 0 0 0
          0 0 0 0 0 0
          0 0 0 0 0 0
          0 0 0 0 0 0
          0 0 0 0 0 0
          0 0 0 0 0 0
          0 0 0 0 0 0
          0 0 0 0 0 0
          0 0 0 0 0 0
          0 0 0 0 0 0
          0 0 0 0 0 0
          0 0 0 0 0 0
          0 0 0 0 0 0
          0 0 0 0 0 0
          0 0 0 0 0 0
          0 0 0 0 0 0
          0 0 0 0 0 0
          0 0 0 0 0 0
          0 0 0 0 0 0
          0 0 0 0 0 0
          0 0 0 0 0 0
          0 0 0 0 0 0
          0 0 0 0 0 0
          0 0 0 0 0 0
          0 0 0 0 0 0
          0 0 0 0 0 0
          0 0 0 0 0 0
          0 0 0 0 0 0
          0 0 0 0 0 0
          0 0 0 0 0 0
          0 0 0 0 0 0
          0 0 0 0 0 0
          0 0 0 0 0 0
          0 0 0 0 0 0
          0 0 0 0 0 0
          0 0 0 0 0 0
          0 0 0 0 0 0
          0 0 0 0 0 0
          0 0 0 0 0 0
          0 0 0 0 0 0
          0 0 0 0 0 0
          0 0 0 0 0 0
          0 0 0 0 0 0
          0 0 0 0 0 0
          0 0 0
        </DataArray>
        <DataArray type="Float64" Name="pe33" format="ascii" RangeMin="-0.0015892906131735724" RangeMax="0">
          -0.0010440513913164446 -0.0010821699193569103 -0.0010913551414612618 -0.0010885047616180621 -0.0010437995179200916 -0.0010820605659266822
          -0.0010912355162063308 -0.0010882792234724274 -0.0010435476445237386 -0.0010819512124964539 -0.0010911158909513998 -0.0010880536853267926
          -0.0010682481333445664 -0.001086730222684254 -0.0010749481594921196 -0.001076331482166873 -0.0010686964549249758 -0.001087002848554867
          -0.0010746077569460564 -0.0010761407949263096 -0.0010691447765053853 -0.0010872754744254802 -0.001074267354399993 -0.0010759501076857457
          -0.001073398967532066 -0.0010818126617439157 -0.0010729978489226282 -0.001081722472707982 -0.0010725967303131902 -0.0010816322836720484
          -0.0010668927374338536 -0.0009799241111313074 -0.0010390869187334032 -0.0010666802723169133 -0.0009796072849581907 -0.0010386444530477356
          -0.0010664678071999729 -0.000979290458785074 -0.001038201987362068 -0.001100806907731272 -0.0011299799070984748 -0.001164971851182744
          -0.001104922476376505 -0.0011014945634794527 -0.0011306146912991454 -0.001165725260477255 -0.0011057037080287144 -0.0011021822192276336
          -0.0011312494754998164 -0.001166478669771766 -0.0011064849396809242 -0.0011271923304147712 -0.0011616798848040903 -0.0011433306317905553
          -0.0011054185436727558 -0.0011278020866263099 -0.0011623564192509016 -0.0011439592278655374 -0.001106125135462039 -0.0011284118428378485
          -0.0011630329536977129 -0.0011445878239405196 -0.0011068317272513225 -0.0011014069776030572 -0.0011678602576924392 -0.0011228383416682075
          -0.001102487911758271 -0.0011689825421879563 -0.0011232214592339386 -0.0011035688459134852 -0.0011701048266834731 -0.0011236045767996697
          -0.0009584140977812238 -0.0009582224166295104 -0.0009580307354777971 -0.0012095867092301133 -0.0012917430687096466 -0.0012099935986189633
          -0.001292467592059099 -0.0012104004880078133 -0.0012931921154085515 -0.0008546117998252954 -0.000900985284626515 -0.0008545221859450404
          -0.0009008510552248397 -0.0008544325720647854 -0.0009007168258231642 -0.0013806798082175806 -0.001452294483110612 -0.0013813241018153352
          -0.001452551195339491 -0.00138196839541309 -0.0014528079075683698 -0.0011945394847532823 -0.0012499021675994996 -0.0011800753620005505
          -0.001125729100998115 -0.001195253651038507 -0.0012508708537999175 -0.0011810043505991485 -0.0011265288835724768 -0.001195967817323732
          -0.0012518395400003357 -0.0011819333391977465 -0.0011273286661468386 -0.0015881338252635136 -0.001588712219218543 -0.0015892906131735724
          -0.001544506241121907 -0.001544481192756493 -0.001544456144391079 -0.0010806289344004742 -0.001080742791845254 -0.0010808566492900343
          -0.0010700630265918134 -0.001060475972926478 -0.0010703253759322558 -0.0010613026730763608 -0.001070587725272698 -0.0010621293732262433
          -0.0015482417689178293 -0.0014021583648672715 -0.0013665518726127827 -0.001516213730865486 -0.001548764546979498 -0.0014023087216484494
          -0.0013669686289481972 -0.0015168029470615896 -0.0015492873250411664 -0.0014024590784296274 -0.0013673853852836115 -0.0015173921632576932
          -0.0010823550912054006 -0.0010910353058896597 -0.001082783930056271 -0.0010912887845219187 -0.0010832127689071416 -0.0010915422631541777
          -0.0014188745930638143 -0.001419903421226043 -0.0014209322493882715 -0.0011893049074182096 -0.001190175399764887 -0.0011910458921115638
          -0.001435803070622264 -0.0014153441488020228 -0.0014372257132967288 -0.0014168417621181738 -0.0014386483559711935 -0.0014183393754343247
          -0.0010970742463015262 -0.0011062215985825161 -0.0010977618672627372 -0.001106836273777166 -0.001098449488223948 -0.0011074509489718157
          -0.0012369515204725256 -0.001284557038152441 -0.001238344374518369 -0.001285629203618976 -0.0012397372285642121 -0.001286701369085511
          -0.001338005529741605 -0.0013389571162861341 -0.001339908702830663 -0.0014041749386359994 -0.0014047213563474568 -0.0014052677740589144
          -0.0012787672732738357 -0.001279551429890833 -0.0012803355865078309 -0.0012260795944193381 -0.0012276417207187174 -0.001229203847018097
          -0.0013322031339910861 -0.0013336839622478775 -0.001335164790504669 -0.0014299539474319947 -0.001419131096713836 -0.0014307127985545343
          -0.0014198416099800739 -0.0014314716496770742 -0.0014205521232463116 -0.0010737756146888093 -0.0010744848947114747 -0.0010751941747341397
          -0.0010772769519667858 -0.0010959241845356718 -0.0010782486789267568 -0.001096941992176137 -0.0010792204058867277 -0.001097959799816602
          -0.0011967764727025848 -0.0013158898439671557 -0.0011980328623341842 -0.0013170668460278446 -0.0011992892519657834 -0.0013182438480885334
          -0.001094700955534551 -0.00109700861368315 -0.001094916744871282 -0.0010974122598456561 -0.001095132534208013 -0.0010978159060081622
          -0.0012989030808079568 -0.0013003746428147463 -0.0013018462048215358 -0.0013998839996413538 -0.0014006439600170346 -0.0014014039203927155
          -0.001474073193788226 -0.0014751632240612008 -0.001476253254334176 -0.0012478442211548892 -0.0013129780750803838 -0.001248656673165868
          -0.0013132659972622026 -0.001249469125176847 -0.0013135539194440214 -0.0013502839904929883 -0.0013594103015524 -0.0013506533120717784
          -0.0013608063876189964 -0.001351022633650569 -0.0013622024736855928 -0.0012527843982427529 -0.001210002230915989 -0.0012756292680243088
          -0.001253492774182651 -0.0012107557822195047 -0.0012762301424121356 -0.0012542011501225493 -0.0012115093335230201 -0.0012768310167999624
          -0.0012876402508132376 -0.0012882579035618331 -0.0012888755563104288 -0.0011448714253347106 -0.0011171183867993361 -0.0011466959476942873
          -0.0011183608765327512 -0.0011485204700538642 -0.0011196033662661665 -0.0010950312062780513 -0.0010971367890866238 -0.0010952356116343785
          -0.0010971983532473823 -0.0010954400169907058 -0.0010972599174081407 -0.0012205995143113112 -0.0012211875858896193 -0.001221775657467927
          -0.0013306521802535249 -0.0013303210367131614 -0.001329989893172798 -0.0010640039759086616 -0.0010651772798405121 -0.0010663505837723627
          -0.0011128363886551418 -0.001137761875591317 -0.0011133339330501586 -0.0011381884633061704 -0.0011138314774451754 -0.0011386150510210237
          -0.0011714997932509967 -0.0011722125190126444 -0.0011729252447742924 -0.0010985982415994727 -0.0010991519363791186 -0.0010997056311587642
          -0.0010748645816193582 -0.001075916377700641 -0.0010769681737819244 -0.001097652843266321 -0.001098051164106283 -0.001098449484946245
          -0.0011009172483470763 -0.0011009913468615173 -0.0011010654453759581 -0.0010972626419345117 -0.0010971685678650275 -0.001097074493795543
          -0.0006893378391529563 -0.0006892266898018021 -0.0006891155404506479 -0.0008329068999471478 -0.0008327453911407906 -0.0008325838823344335
          -0.000950999825139993 -0.0009508230835616456 -0.0009506463419832982 -0.0010406854300776926 -0.001040570949285678 -0.001040456468493663
          -0.0010783531676509938 -0.0010782967020444212 -0.0010782402364378485 0 0 0
          0 0 0 0 0 0
          0 0 0 0 0 0
          0 0 0 0 0 0
          0 0 0 0 0 0
          0 0 0 0 0 0
          0 0 0 0 0 0
          0 0 0 0 0 0
          0 0 0 0 0 0
          0 0 0 0 0 0
          0 0 0 0 0 0
          0 0 0 0 0 0
          0 0 0 0 0 0
          0 0 0 0 0 0
          0 0 0 0 0 0
          0 0 0 0 0 0
          0 0 0 0 0 0
          0 0 0 0 0 0
          0 0 0 0 0 0
          0 0 0 0 0 0
          0 0 0 -0.000011745414628853068 -0.000011783233460412683 -0.000011821052291972297
          0 0 0 0 0 0
          0 0 0 0 0 0
          0 0 0 0 0 0
          0 0 0 -0.00022972310399553734 -0.0002298567235577554 -0.00022999034311997345
          -0.0000737535516510214 -0.0000740501344253441 -0.00007434671719966681 -0.00000992522990343113 -0.000010084881682765822 -0.000010244533462100515
          0 0 0 0 0 0
          0 0 0 0 0 0
          0 0 0 0 0 0
          -0.0004352155685420181 -0.0004352365766299928 -0.00043525758471796744 -0.00021308971103681598 -0.00021348648869750397 -0.00021388326635819196
          -0.00005612768370154644 -0.00005642638950046043 -0.00005672509529937443 -0.000002229646668969134 -0.000002253666496494199 -0.000002277686324019264
          0 0 0 0 0 0
          0 0 0 0 0 0
          0 0 0 -0.0006761116580799538 -0.0006759385438536087 -0.0006757654296272636
          -0.00041662958182818314 -0.0004167252475746145 -0.00041682091332104584 -0.000163591112970517 -0.00016382142985496543 -0.00016405174673941387
          -0.000026657731091381938 -0.00002675244408432525 -0.000026847157077268556 0 0 0
          0 0 0 0 0 0
          0 0 0 0 0 0
          -0.0008051052972159735 -0.0008048398797300902 -0.000804574462244207 -0.0005310960156270709 -0.0005310113196840839 -0.0005309266237410968
          -0.00023477731834480338 -0.00023495984407454165 -0.00023514236980427992 -0.00004885616884482561 -0.000048997555175662094 -0.00004913894150649859
          0 0 0 0 0 0
          0 0 0 0 0 0
          0 0 0 0 0 0
          0 0 0 0 0 0
          0 0 0 0 0 0
          0 0 0 0 0 0
          0 0 0 0 0 0
          0 0 0 0 0 0
          0 0 0 0 0 0
          0 0 0 0 0 0
          0 0 0 0 0 0
          0 0 0 0 0 0
          0 0 0 0 0 0
          0 0 0 0 0 0
          0 0 0 0 0 0
          0 0 0 0 0 0
          0 0 0 0 0 0
          0 0 0 0 0 0
          0 0 0 0 0 0
          0 0 0 0 0 0
          0 0 0 0 0 0
          0 0 0 0 0 0
          0 0 0 0 0 0
          0 0 0 0 0 0
          0 0 0 0 0 0
          0 0 0 0 0 0
          0 0 0 0 0 0
          0 0 0 0 0 0
          0 0 0 0 0 0
          0 0 0 0 0 0
          0 0 0 0 0 0
          0 0 0 0 0 0
          0 0 0 0 0 0
          0 0 0 0 0 0
          0 0 0 0 0 0
          0 0 0 0 0 0
          0 0 0 0 0 0
          0 0 0 0 0 0
          0 0 0 0 0 0
          0 0 0 0 0 0
          0 0 0 0 0 0
          0 0 0 0 0 0
          0 0 0 0 0 0
          0 0 0 0 0 0
          0 0 0 0 0 0
          0 0 0 0 0 0
          0 0 0 0 0 0
          0 0 0
        </DataArray>
        <DataArray type="Float64" Name="disp_x" format="ascii" RangeMin="0.00007993663495330412" RangeMax="0.00015">
          0.00010520496275677844 0.00010284823533772622 0.0000991306782003275 0.00009959266401801109 0.0001052043495314255 0.00010284809312618713
          0.00009913049881478232 0.00009959253056288955 0.0001052025721962503 0.0001028477555912727 0.00009912998360993918 0.00009959218674709188
          0.00009672582553118622 0.00009795831216755554 0.00010103645488587493 0.00009912661513136642 0.00009672602892902066 0.00009795827689267932
          0.00010103635639474172 0.0000991268072056461 0.00009672670117506963 0.0000979581446757206 0.0001010362472300662 0.00009912763007207084
          0.00010173698127988225 0.00009852795781936904 0.00010173679194181793 0.0000985282642073989 0.00010173597307311171 0.00009852906524622741
          0.00010250859254130529 0.00010618109962811082 0.00010422504255508997 0.00010250818442764154 0.00010617967452502576 0.00010422417126119497
          0.00010250718895289005 0.00010617534965602212 0.00010422126182976089 0.00009262576245211623 0.00009070552366579182 0.00008881039860760408
          0.0000916325795339299 0.00009262532224230397 0.00009070485808776095 0.00008880939145398591 0.00009163195366009999 0.0000926241240128481
          0.00009070264852396565 0.00008880673415505702 0.00009163019302700111 0.00009203907511998202 0.0000899764326931115 0.0000904379887988814
          0.00009314446110995756 0.00009203843107969789 0.00008997545469855239 0.00009043727226419655 0.0000931441272884865 0.00009203662185591276
          0.00008997300942504127 0.00009043487200855043 0.00009314288266072149 0.000095103882825169 0.00009537384935499638 0.00009881015751590266
          0.00009510356487717806 0.00009537287876244525 0.00009880968123385289 0.00009510263591800886 0.00009537044940943853 0.00009880775583071837
          0.00010744540910904684 0.00010744450486480573 0.00010744170430446612 0.00009896953818027193 0.00009519802896049608 0.0000989680099083325
          0.00009519620023554428 0.00009896304333062376 0.00009519060915025835 0.0001094962762922263 0.00010799684404791046 0.00010949508972553734
          0.00010799516160159464 0.00010949141873042425 0.00010798997149701612 0.00008260672476400263 0.00008122030126013401 0.00008260433789515132
          0.00008121779507518714 0.00008259792606697097 0.00008121035187616711 0.00008761923408533555 0.0000861655394304222 0.00008891121256230247
          0.00009036654988450563 0.00008761793063316313 0.0000861640795969868 0.0000889098497072209 0.00009036555516371515 0.00008761383382408389
          0.00008615972379123704 0.00008890596684523334 0.00009036239425738827 0.00008755721399383795 0.00008755515595435904 0.00008754884718034394
          0.00007994948552599148 0.00007994635231918339 0.00007993663495330412 0.00010378097809293451 0.000103779562793626 0.0001037754619571529
          0.00009682316912725738 0.00009515460354602155 0.00009682353747330618 0.00009515470015979965 0.0000968243186859824 0.00009515528220679569
          0.00008660623879041449 0.00008906307490643725 0.00008796394793552361 0.0000854920008613236 0.0000866040908301377 0.00008906043163966717
          0.00008796104900826496 0.00008548937971386104 0.00008659804842858044 0.00008905337114385172 0.00008795212252472572 0.00008548163364904464
          0.00009542954854754846 0.00009615833269035397 0.00009542972097881579 0.00009615854955605702 0.00009543002718360594 0.00009615914766357378
          0.00008246220609434847 0.00008245939769064839 0.00008245072376274377 0.00008817095527453588 0.00008817001247242482 0.00008816745155303345
          0.00008377289316484662 0.00008326986899151115 0.00008376986518663314 0.00008326705306116145 0.00008376045113848906 0.00008325755239521142
          0.00009450854110444199 0.00009389653250236951 0.00009450854955969624 0.00009389626806683805 0.00009450840779765148 0.00009389512178890758
          0.00009019891321979443 0.00009058059194889869 0.00009019623065551525 0.000090577645284454 0.00009018798439329612 0.00009056602616280151
          0.00008375495355786753 0.00008375304685947555 0.00008374749887585828 0.00009125456634575122 0.00009125205415152018 0.00009124407176763977
          0.00008503880624495378 0.00008503732168549955 0.00008503254566348218 0.00009250429474928046 0.00009250203646795966 0.00009249477648982146
          0.00008452553692177602 0.00008452334290643504 0.00008451709658497686 0.00008164237857035447 0.00008175571497208537 0.00008163796660956915
          0.00008175489898851926 0.00008163408076298273 0.0000817516022965277 0.00009430006331583489 0.00009430018079902721 0.00009430023283460368
          0.00009301239413788849 0.00009215995569063203 0.00009301207371036107 0.00009215894388407166 0.00009301088511024723 0.00009215554736873934
          0.00008960312613753012 0.00008709882837255448 0.00008960157021550647 0.00008709640708310565 0.00008959715820158224 0.00008708889411466623
          0.00009630899586627834 0.00009584064845844546 0.00009630920746913133 0.00009584054713356713 0.00009630949495249674 0.00009584028033659475
          0.0000860358973236694 0.00008603386994426168 0.00008602753848091442 0.0000819708936380612 0.0000819743958089253 0.00008197338124880321
          0.00008454751735563139 0.00008454457410302644 0.00008453532128344516 0.00008587885853520725 0.00008418481027129456 0.00008587750057965877
          0.00008418357592662344 0.00008587297818894204 0.00008417887196087433 0.00008379651938404706 0.00008374263877328288 0.00008379485333848419
          0.0000837441531495931 0.00008379031464954293 0.00008373969443809006 0.00008603983388898783 0.00008793017598611116 0.00008586616057514931
          0.00008603831566566591 0.00008792917854934464 0.00008586415947769622 0.00008603341643830874 0.00008792560827426727 0.00008585913329472855
          0.00008577586789278856 0.00008577466140824668 0.0000857700419211572 0.00009252699702882533 0.00009217015291413586 0.00009252583821908069
          0.00009216910958430293 0.00009252226893395039 0.00009216546075655778 0.00009787320548202232 0.00009891167353613027 0.00009787325888433015
          0.00009891169701185976 0.0000978728958591114 0.00009891190105176452 0.00008772812485935846 0.00008772672791423375 0.00008772283179010087
          0.00008400982481011252 0.00008400790014319556 0.00008400305938017474 0.00009395713291946432 0.00009395692852643091 0.00009395575084778917
          0.00009329140450933664 0.00009147201159526344 0.0000932909238787035 0.00009147138514704648 0.00009328923984521115 0.0000914692899205875
          0.000089621216850494 0.00008962064102674958 0.00008961810007614498 0.00009508670449828223 0.00009508663620242255 0.00009508599999094034
          0.00009450252694577373 0.00009450227867538612 0.00009450094403309485 0.00009687220804132198 0.00009687251771918941 0.00009687305152756935
          0.0000986653918157488 0.00009866571485051008 0.00009866663520108256 0.00010047050441728582 0.00010047062999187535 0.0001004706521891667
          0.00011424600858113403 0.00011424493680192714 0.0001142417400571992 0.00011262233684697717 0.00011262151225105646 0.00011261901616406154
          0.00011070909453312699 0.00011070852353038735 0.00011070672252774599 0.00010857320833888311 0.00010857294529414934 0.00010857207618588951
          0.00010632273104948588 0.00010632276162371877 0.00010632273533198264 0.00012523061391191392 0.0001251798305823513 0.00012523056925318215
          0.00012517978729557975 0.00012523044764169177 0.000125179672656745 0.00012710112521936124 0.00012703392342268126 0.0001271010482368547
          0.00012703385018968778 0.0001271008119318139 0.00012703362369144235 0.00012896780459386716 0.0001288877664806986 0.00012896771559072664
          0.00012888768013829673 0.00012896745128120643 0.0001288874264779811 0.00013083541184785274 0.00013074677133771364 0.0001308353150854169
          0.00013074667669600682 0.00013083502659432848 0.00013074639677938666 0.00013270497553834656 0.00013261319479031312 0.0001327048779205703
          0.0001326130988266326 0.00013270458705974105 0.00013261281601921582 0.00013457491989096084 0.00013448670205593697 0.00013457482521552473
          0.00013448660936335235 0.00013457454310677748 0.00013448633539808806 0.00013644197121172555 0.00013636522498084258 0.00013644188484984566
          0.00013636514025609783 0.00013644162792967376 0.00013636488886362968 0.00013830212817534938 0.00013824584694124324 0.0001383020505314582
          0.00013824577062702546 0.0001383018195518443 0.00013824554435324271 0.00012533667009717223 0.00012533660610096562 0.00012533642485436461
          0.00012723552175196808 0.0001272354369252818 0.00012723517835572544 0.00012912673878744666 0.00012912663900967763 0.0001291263447156436
          0.00013101375548091115 0.00013101364881552437 0.00013101333353055092 0.00013289610806672245 0.0001328960022889304 0.00013289568937924087
          0.000134770597321974 0.00013477049528069055 0.00013477019200591492 0.0001366322891129474 0.0001366321992326383 0.00013663193242718908
          0.00013847554801020424 0.00013847546717376516 0.0001384752269880807 0.00012550894326431833 0.0001255088217542716 0.00012550843762190026
          0.0001274497406777404 0.00012744965189511942 0.0001274494006892587 0.00012937796697817138 0.000129377846665068 0.00012937748131211692
          0.0001312956063590242 0.00013129548665671617 0.0001312951336426798 0.0001332003072106819 0.00013320018927216398 0.00013319983809596304
          0.0001350868711404642 0.0001350867575454289 0.000135086418921386 0.0001369485580108782 0.0001369484622963082 0.00013694817765588514
          0.00013877798254202016 0.00013877789648364467 0.00013877764008668272 0.0001257676019620902 0.00012576758220069032 0.0001257675271043063
          0.00012776610575042276 0.0001277659318956733 0.00012776539022177065 0.0001297444949870953 0.00012974436932563062 0.0001297440089552891
          0.00013170454447809408 0.00013170439959930404 0.00013170396032290203 0.00013364034422596994 0.00013364021099920493 0.00013363981803914024
          0.00013554497589559665 0.00013554484541431825 0.00013554445562158078 0.00013741025331366705 0.0001374101510077336 0.0001374098491428717
          0.0001392272348271721 0.00013922714258918545 0.00013922686947949556 0.00012614727437225954 0.0001261471582561332 0.00012614688033486324
          0.0001282166142521872 0.00012821649649382642 0.00012821613843628723 0.00013026123828102564 0.00013026103935135866 0.00013026043729371157
          0.00013227419270549735 0.00013227403760219736 0.00013227358400581818 0.00013424731516999526 0.00013424715823941136 0.00013424668883953484
          0.0001361727687841529 0.0001361726167419834 0.0001361721636314905 0.00013804186057691782 0.00013804174676837296 0.00013804140885109286
          0.00013984395858285614 0.00013984385697212638 0.00013984355200343201 0.0001242346901118261 0.00012423319549287838 0.00012422868445819698
          0.00012668767020733882 0.00012668688382561427 0.00012668446658439217 0.00012885305974972463 0.00012885287068884691 0.0001288523578929386
          0.00013097461542664957 0.0001309744370647097 0.00013097389148902558 0.00013304671298569623 0.00013304650609067444 0.00013304588307050603
          0.0001350586905278958 0.00013505851780272192 0.00013505800997501443 0.00013700349222104804 0.00013700330913755766 0.00013700275787659677
          0.00013887057134650302 0.00013887046118599288 0.00013887014449220526 0.00014064686493052807 0.00014064676706711138 0.0001406464801248454
          0.00012421481771101323 0.00012421316860717106 0.00012420827253644114 0.00012727332497982646 0.0001272712347505848 0.00012726576232408393
          0.00012974080281193177 0.0001297404526719286 0.00012973841235764538 0.00013193416185062584 0.00013193388171288056 0.00013193332724623484
          0.00013406725675334718 0.00013406710508949966 0.00013406658066261346 0.00013611998405819257 0.0001361197594239585 0.00013611910472959945
          0.0001380775476710936 0.00013807731447869183 0.00013807660517728467 0.00013992694805745268 0.00013992678680403836 0.0001399263003500669
          0.00014164629180732875 0.0001416461548288848 0.00014164573676681865 0.00012395887656463055 0.00012395719309984046 0.0001239521435945153
          0.00012780336674711608 0.00012780124396821223 0.00012779466562345517 0.0001308072483650408 0.00013080535976814575 0.00013079995730479562
          0.0001331886726577806 0.00013318817224376614 0.00013318667080659363 0.00013539013902178762 0.00013538999473440238 0.00013538960737280545
          0.00013749048972953355 0.00013749022655604258 0.00013748942931883916 0.0001394558422040261 0.00013945554525989398 0.0001394546565434575
          0.00014124334625597733 0.0001412432731943261 0.00014124309679571352 0.00014281734985068444 0.00014281728370137812 0.00014281709909262245
          0.00012349410397028264 0.00012349234467627537 0.0001234870869740155 0.00012826932430551045 0.0001282663762909595 0.00012825757497862748
          0.0001319523243667802 0.00013194973047739222 0.0001319416810333005 0.000134731518964647 0.00013473024448505206 0.00013472633634850834
          0.00013708132283931626 0.0001370810438252004 0.00013708022100604645 0.00013928885258055666 0.00013928850303200182 0.0001392874674672328
          0.0001412668486077895 0.00014126626222904108 0.0001412644410996558 0.0001428949818712438 0.00014289470049069677 0.00014289384916329873
          0.00014405312558731818 0.00014405309404164773 0.00014405299085442177 0.0001395605333848711 0.0001396128969342549 0.00013956046471633892
          0.00013961282693336654 0.00013956026088403668 0.00013961261862630625 0.0001397735544243706 0.00013977348007057936 0.00013977325930298904
          0.00014005211308431746 0.00014005203240527125 0.00014005179259495986 0.00014046243382035765 0.00014046234491217589 0.00014046207872503254
          0.00014101914480840557 0.00014101904845122864 0.00014101875905468534 0.00014173210782046508 0.00014173199885096565 0.0001417316611281974
          0.00014259267917511448 0.00014259258211908585 0.0001425922892294972 0.00014355327903454 0.00014355313735096753 0.0001435526508910506
          0.0001443341147381713 0.00014433441902107405 0.00014433535338773527 0.00014087394786134374 0.00014092161519347495 0.00014087388690751565
          0.0001409215540133708 0.0001408737056754946 0.00014092137188880178 0.00014106741046032129 0.00014106734823783067 0.00014106716414863483
          0.00014131895422012374 0.00014131889087931574 0.00014131870540700376 0.000141686752748664 0.00014168669044647083 0.0001416865093311927
          0.00014218049822824135 0.00014218044211165525 0.00014218028099654078 0.00014280203694612713 0.00014280199527234947 0.00014280188122898086
          0.0001435313822571381 0.0001435313934112393 0.00014353144749516158 0.00014428787144041654 0.00014428796346867604 0.00014428827144224323
          0.0001447860715771431 0.00014478660570672262 0.0001447882972796707 0.00014218527021034745 0.00014222755803793447 0.00014218521815816197
          0.00014222750579952895 0.00014218506235852 0.00014222734963641127 0.00014235659576362892 0.00014235654260057664 0.00014235638434823854
          0.00014257829577640286 0.0001425782420855549 0.0001425780820407879 0.0001429003718292954 0.00014290031986425453 0.0001429001638405173
          0.0001433283945159339 0.00014332834877585552 0.00014332820883522027 0.0001438583333775364 0.00014385830587927725 0.00014385821792918215
          0.00014446060565587743 0.00014446061296094362 0.00014446062486925105 0.00014504091807544597 0.0001450410056486741 0.00014504124763311952
          0.00014536810402502673 0.0001453683389275173 0.0001453689960997355 0.00014349395905898234 0.00014353024496688397 0.00014349391625552833
          0.00014353020170563112 0.00014349378690543073 0.00014353007240178317 0.000143640765719419 0.00014364072214746138 0.000143640592999027
          0.00014382998820157747 0.00014382994561200831 0.00014382981940150105 0.00014410330283762452 0.00014410326361593746 0.00014410314743614416
          0.0001444631026461596 0.00014446307214713522 0.0001444629825299639 0.00014490116375420875 0.00014490115186090188 0.00014490111786428372
          0.0001453830267118559 0.0001453830507099397 0.00014538312794857566 0.00014581910793887815 0.00014581919473985317 0.0001458194617354011
          0.0001460367422418578 0.00014603693402212675 0.0001460375394936198 0.00014479977193608662 0.00014482950494341138 0.00014479973816955866
          0.0001448294707358212 0.00014479963567684068 0.00014482936811350582 0.00014491994792707914 0.00014491991365814 0.00014491981187245956
          0.00014507435162319942 0.00014507431886788994 0.00014507422120663336 0.0001452962473305317 0.0001452962183627215 0.0001452961319051884
          0.0001455857986190869 0.00014558577816111993 0.00014558571654396026 0.00014593272834705371 0.00014593272458874026 0.00014593271237075007
          0.00014630338133561377 0.00014630340684150948 0.0001463034817203285 0.00014662251475611318 0.00014662258720349653 0.00014662280063320232
          0.0001467672553777336 0.00014676738563603316 0.00014676776562583808 0.00014610278151812978 0.0001461254995690228 0.00014610275606276475
          0.0001461254740469605 0.00014610267976105848 0.00014612539779714786 0.00014619454500641103 0.00014619451975275642 0.00014619444462793285
          0.00014631215615264204 0.00014631213235827094 0.00014631206175165222 0.00014648045263818574 0.000146480432408148 0.0001464803721597589
          0.00014669837456026655 0.00014669836163700445 0.00014669832282541672 0.00014695589743691592 0.00014695589787618314 0.0001469558984999142
          0.00014722461285592955 0.00014722463505526448 0.00014722470192636962 0.00014744750011604744 0.00014744755369673385 0.00014744771444140224
          0.00014754131871340636 0.00014754140587544383 0.00014754167211145525 0.0001474033647635932 0.0001474187098893039 0.00014740334726722734
          0.00014741869268872424 0.00014740329622637595 0.00014741864177085046 0.00014746532742233452 0.00014746531074517392 0.00014746526130065155
          0.00014754460979110034 0.00014754459433940188 0.00014754454847308202 0.0001476576833405161 0.00014765767058819775 0.0001476576326640605
          0.0001478032175800653 0.00014780321037599623 0.00014780318786836914 0.00014797339819576675 0.00014797340038556411 0.00014797340520102532
          0.00014814796124613277 0.0001481479779065836 0.0001481480261406395 0.00014828906230028498 0.00014828909821575878 0.0001482892041840246
          0.00014834530414685324 0.0001483453592371497 0.00014834552353130533 0.00014870216406594964 0.00014870989422753546 0.00014870215464880097
          0.0001487098852080207 0.00014870212884823326 0.00014870985969808753 0.0001487333765927915 0.00014873336830452998 0.00014873334370835284
          0.00014877328311863817 0.0001487732752533104 0.00014877325249803598 0.00014883007723979146 0.00014883007101661842 0.00014883005266275954
          0.00014890289604654896 0.00014890289283756863 0.0001489028827123805 0.00014898749052015935 0.00014898749227453096 0.0001489874961589527
          0.0001490733726362949 0.00014907338169142415 0.00014907340718429185 0.00014914174835721326 0.00014914176647687623 0.00014914181932365703
          0.00014916810203933434 0.0001491681285173284 0.0001491682079190268 0.00015 0.00015 0.00015
          0.00015 0.00015 0.00015 0.00015 0.00015 0.00015
          0.00015 0.00015 0.00015 0.00015 0.00015 0.00015
          0.00015 0.00015 0.00015 0.00015 0.00015 0.00015
          0.00015 0.00015 0.00015 0.00015 0.00015 0.00015
          0.00015 0.00015 0.00015
        </DataArray>
        <DataArray type="Float64" Name="disp_y" format="ascii" RangeMin="-0.000024040445100333866" RangeMax="0">
          -0.000010492412295398631 -0.00001259589490924335 -0.000014460075074900629 -0.000013695878693012068 -0.000010491994655691202 -0.000012595725124582843
          -0.000014460141254569831 -0.000013695907513575938 -0.000010490707681541803 -0.000012595141099944263 -0.000014460364327757474 -0.000013695839094966476
          -0.000013684213174939235 -0.000012561341776101519 -0.000011096953995694806 -0.000012643005627482566 -0.000013684497312176679 -0.000012561648198078983
          -0.00001109689623877864 -0.000012643116143295377 -0.000013685377166459689 -0.000012562465878332624 -0.00001109668935464209 -0.000012643309342869863
          -0.000011635368998127185 -0.000013743455766006751 -0.00001163524725496396 -0.00001374345522202378 -0.000011635125834343143 -0.000013743702002896677
          -0.000009674877984000496 -0.000007981892455032173 -0.0000097268833604943 -0.000009674621828536908 -0.00000798131228109874 -0.00000972647014615243
          -0.000009673957958055097 -0.000007979457006891055 -0.000009725342896036293 -0.000017314678859365942 -0.000018454368889957202 -0.000019280292463379156
          -0.000017512348028815224 -0.000017314332097072705 -0.000018453845020249755 -0.00001927969844210441 -0.000017511994986494223 -0.000017313303769853745
          -0.000018452025787998302 -0.00001927791841319927 -0.000017510592886700994 -0.000018436450672012364 -0.000019448532533673657 -0.00001885751276725002
          -0.00001745962975729221 -0.000018435982084620826 -0.000019447943444071546 -0.000018856916444367212 -0.00001745926918617398 -0.00001843438947552145
          -0.000019446100712419002 -0.000018855313415992532 -0.00001745829434445082 -0.000013977086212084208 -0.000013266164218956894 -0.000011525810857212079
          -0.000013977672525702908 -0.000013267281283164709 -0.00001152630076831421 -0.000013979468412736571 -0.000013270597741199892 -0.000011527815884087011
          -0.000008475465360204947 -0.000008474657583223681 -0.000008472249647703263 -0.000010731325392280994 -0.000012575037811707833 -0.00001073244103426633
          -0.00001257656070140796 -0.000010736054815945347 -0.0000125816315445593 -0.000006591671665590851 -0.000006305398122673256 -0.000006590732890480129
          -0.000006304587093178634 -0.000006588018408338623 -0.0000063022789625308935 -0.000022591796396721503 -0.00002302774076258088 -0.00002259091719327892
          -0.000023026988752513857 -0.00002258817986106638 -0.000023024389676038096 -0.000019536659984870443 -0.000019989392429961656 -0.000018176285606767952
          -0.00001785631172952327 -0.00001953605448273675 -0.000019988968823833793 -0.00001817609178761648 -0.000017855846010707156 -0.000019534371019745467
          -0.000019987686164389932 -0.000018175416226522007 -0.000017854578256521363 -0.000015076864104822712 -0.000015077741551168208 -0.000015080823134031484
          -0.000023344007415569104 -0.00002334354601008096 -0.00002334210786902279 -0.000008168556191621936 -0.000008168462744138894 -0.000008168150735887697
          -0.00001425731258169673 -0.000014859128066285642 -0.000014257288031908987 -0.000014859146810840438 -0.000014257459012205116 -0.00001485913359820192
          -0.00001652709497974628 -0.000016050946997403127 -0.000017232851927652433 -0.000017963406626679597 -0.000016527687684899954 -0.00001605182884400545
          -0.000017233999150211107 -0.00001796412221500871 -0.000016528937486078884 -0.000016054034028251526 -0.000017238358660002197 -0.000017966179680593575
          -0.000015650052489366546 -0.000015674565798760318 -0.000015649871508858897 -0.000015674503108131073 -0.00001564943194797862 -0.000015674401910264946
          -0.000021860892618173418 -0.00002186042027568445 -0.000021859192750874407 -0.00002002016946814716 -0.000020019327323721837 -0.000020017165028262938
          -0.000020331361627022268 -0.00002097005522530181 -0.000020331694187001796 -0.000020969817377057557 -0.000020332711226677434 -0.000020969821997452017
          -0.000016972892822356034 -0.000017546302344083774 -0.00001697261066697196 -0.000017546011584809007 -0.000016972177068057156 -0.000017544927222888493
          -0.000016355978068249616 -0.00001570755087685753 -0.000016356744969980595 -0.000015708472585464708 -0.00001635917052045998 -0.000015711463356727115
          -0.000021500299897305327 -0.00002149969445284296 -0.000021497735487204435 -0.000014351107661284444 -0.000014352456850587206 -0.000014356286942647527
          -0.000021105710282055816 -0.00002110481548140584 -0.000021102480411891277 -0.00001470564324982524 -0.000014706601790593543 -0.000014710077703469073
          -0.00002055174554109407 -0.000020551343409715957 -0.000020549980395520652 -0.000024040445100333866 -0.000023693719292612843 -0.00002403995394749581
          -0.000023692795437706248 -0.000024036316838308653 -0.000023688615148344634 -0.000015878134241554148 -0.00001587782829531496 -0.000015877179916226463
          -0.000016235902492934263 -0.000016348013915958006 -0.000016235618975633833 -0.00001634792666125292 -0.00001623490867057599 -0.000016347700990285358
          -0.000017201365422436278 -0.000018323155941743602 -0.000017201389599225796 -0.000018323858414905436 -0.000017201618854526747 -0.000018326139113505218
          -0.000015980114117280522 -0.000016583846441473892 -0.00001598000345721517 -0.000016583781049428167 -0.000015980022641112038 -0.00001658364520608239
          -0.0000194126604805945 -0.000019412512971515295 -0.000019412194703290498 -0.000023290898455048602 -0.000023287833979527804 -0.00002328380122658864
          -0.000019269962919499953 -0.000019270570826079937 -0.000019272787077869427 -0.00002093060560767599 -0.00002192012182290096 -0.000020929701894862367
          -0.000021919404768028754 -0.00002092739951660593 -0.00002191580708098933 -0.000022620597258565233 -0.000022943041297885468 -0.00002261895320231302
          -0.000022941170914943083 -0.000022616298915839392 -0.000022935252371878593 -0.000021137707649205633 -0.000020482353354836224 -0.000021537934735471358
          -0.00002113642285933735 -0.0000204813196949858 -0.000021537037947223133 -0.000021132771144420035 -0.0000204786568625549 -0.000021533042661023665
          -0.00002189888857769033 -0.000021898113280490893 -0.000021895347637211098 -0.000015244045350818026 -0.000015914178138597342 -0.00001524438013281103
          -0.00001591408168369199 -0.000015244941235836642 -0.000015913819469540445 -0.000015566872562529527 -0.000015144129158604992 -0.000015566824677610952
          -0.000015143952794094072 -0.000015566928050513838 -0.000015143583405981945 -0.000020917731696935375 -0.000020916668164122654 -0.00002091392543043306
          -0.00002221937482240284 -0.000022218780912255826 -0.000022215750027129217 -0.00001531105743592445 -0.000015310862404481653 -0.000015310605109624823
          -0.000018188818081834967 -0.000019073794988836207 -0.00001818842220847787 -0.000019073173692243807 -0.000018187507584884667 -0.000019071786819409557
          -0.000019978488692072592 -0.00001997773995051982 -0.00001997546605534839 -0.00001732150268825417 -0.000017321399942712864 -0.000017321476364938156
          -0.000014737857337651332 -0.00001473790093983297 -0.000014738722360168847 -0.000016458216976763712 -0.00001645808921738969 -0.000016457974513717384
          -0.000015598360320107558 -0.000015597819899294403 -0.000015596419597590585 -0.000014742568679731388 -0.000014742160277998463 -0.000014741178449068697
          -0.000004481816908427319 -0.000004480629243186363 -0.000004477049162148032 -0.000006093496459745618 -0.000006092524010186696 -0.000006089624634912944
          -0.000007920176241403806 -0.00000791938648057557 -0.000007917074122914177 -0.000009918790706361898 -0.000009918236207253393 -0.000009916627840102215
          -0.000012029077027220647 -0.00001202862677602401 -0.000012027464022822125 -3.2537756523396943e-7 0 -3.253525322603345e-7
          0 -3.2527066036394884e-7 0 -3.5979990514300797e-7 0 -3.5978357941630406e-7
          0 -3.597371854814407e-7 0 -4.144109361249489e-7 0 -4.1440006997167283e-7
          0 -4.143662596151282e-7 0 -4.843561952438663e-7 0 -4.843512724812277e-7
          0 -4.843360620417561e-7 0 -5.65084565062816e-7 0 -5.650851512467608e-7
          0 -5.650859696924969e-7 0 -6.527681188136418e-7 0 -6.527733980400852e-7
          0 -6.527886299626694e-7 0 -7.442084123465964e-7 0 -7.442180183159836e-7
          0 -7.442464766919082e-7 0 -8.36894378746931e-7 0 -8.369062775098278e-7
          0 -8.369413737581282e-7 0 -6.514487036190448e-7 -6.514187039247714e-7 -6.51340361953432e-7
          -7.212610393208067e-7 -7.212255879272926e-7 -7.211134887594957e-7 -8.320057247478254e-7 -8.319879381992964e-7 -8.319364115131042e-7
          -9.726990201939198e-7 -9.726925578233739e-7 -9.726726210076617e-7 -0.000001133946214768367 -0.0000011339505225212274 -0.0000011339639407329108
          -0.0000013080387720850756 -0.0000013080521286754112 -0.0000013080924691352512 -0.000001488616206852946 -0.000001488637862814412 -0.000001488703149231638
          -0.000001670556606890546 -0.000001670582171524481 -0.0000016706585169607867 -9.77336710558458e-7 -9.77230402151905e-7 -9.768977134581391e-7
          -0.0000010848531204863949 -0.0000010848160275129557 -0.0000010847174598712135 -0.000001253714539581317 -0.0000012536859588328856 -0.0000012535970145941685
          -0.0000014658850905051426 -0.0000014658786573372106 -0.0000014658605788152846 -0.0000017066901920475765 -0.0000017066990298419426 -0.0000017067254709831738
          -0.000001964720639542657 -0.000001964743557911497 -0.000001964812391215752 -0.0000022305307109019434 -0.0000022305664694255334 -0.000002230673665325987
          -0.000002496043142064303 -0.0000024960844764859133 -0.0000024962072417110285 -0.0000013031939223537206 -0.0000013031449048708163 -0.0000013029869151590649
          -0.000001450593172482973 -0.0000014505084188166359 -0.0000014502427482928008 -0.0000016799090717336082 -0.0000016798856608624283 -0.00000167982143081318
          -0.0000019632287057598927 -0.0000019632236026676165 -0.000001963205640514576 -0.0000022806709313525035 -0.0000022806896313152036 -0.0000022807458833358898
          -0.000002618295957021627 -0.0000026183335217605207 -0.00000261844643847633 -0.000002963744584449695 -0.0000029638005267577158 -0.0000029639716283244648
          -0.0000033050172343896853 -0.0000033050815811873755 -0.0000033052776204118995 -0.0000016240720045849725 -0.0000016240286994410662 -0.0000016239523047570677
          -0.0000018183422396627739 -0.0000018183096749215007 -0.0000018182108863471902 -0.0000021100795629601945 -0.0000021100422018084495 -0.000002109933382118011
          -0.0000024607541147053387 -0.000002460765063485177 -0.000002460803590178524 -0.0000028482180383522074 -0.000002848250235981622 -0.0000028483482831837484
          -0.0000032587272772573714 -0.0000032587830991903294 -0.0000032589504896959857 -0.000003676729391505983 -0.000003676807977311383 -0.000003677041837492672
          -0.000004084098860606147 -0.000004084183392064898 -0.000004084430724999848 -0.0000020687110128594504 -0.0000020671848505257946 -0.000002062492306029938
          -0.0000019504905803468883 -0.0000019496136083361647 -0.000001947088700214426 -0.000002185722318216028 -0.000002185658431086867 -0.0000021855019487686116
          -0.0000025410360978191104 -0.0000025410400092219464 -0.0000025410356220105898 -0.0000029481323680611315 -0.000002948141480209337 -0.0000029481660784804006
          -0.0000033940899530079237 -0.000003394137186070434 -0.0000033942799787759693 -0.000003867839127746179 -0.000003867923152676633 -0.000003868177290151484
          -0.00000435010452936895 -0.000004350239284609554 -0.00000435065360572183 -0.0000048124414375687 -0.0000048125982566130265 -0.000004813079936892784
          -0.0000028151891797453623 -0.000002813512403888897 -0.0000028086004395830125 -0.0000024057656708355655 -0.0000024046539720462513 -0.000002400904556606033
          -0.000002552869805721438 -0.00000255245736538886 -0.0000025513543782850623 -0.0000029629848471243 -0.000002963116007702057 -0.00000296352395132915
          -0.0000034078233476921203 -0.000003407864619332706 -0.000003407989704968442 -0.000003893045786088044 -0.000003893121253859781 -0.000003893351566302187
          -0.000004415526624574654 -0.000004415627195638848 -0.000004415925811082052 -0.000004953100183427621 -0.000004953240849880625 -0.00000495365457897165
          -0.000005457662442147172 -0.000005457785458900022 -0.000005458135454806518 -0.000003940641388665842 -0.000003938598844432278 -0.000003932396090468286
          -0.0000031505140773722175 -0.0000031486172920644065 -0.0000031432420766314156 -0.0000030143413115928944 -0.000003013329781059184 -0.000003010253669405613
          -0.0000033600550488304013 -0.0000033598437593486993 -0.0000033592735815668763 -0.000003820519206379411 -0.000003820563848972976 -0.000003820708139220086
          -0.000004307817975676344 -0.000004307866789834697 -0.0000043080122163334925 -0.000004848653514439767 -0.000004848821187174215 -0.00000484932844063407
          -0.0000054225996959527035 -0.000005422947696932569 -0.000005424006547592953 -0.000005961644134913926 -0.000005962118070277579 -0.000005963531573463799
          -0.000005508605204335219 -0.000005505616577143522 -0.000005496637658274253 -0.000004280854415169904 -0.0000042785257644008665 -0.000004271233210524213
          -0.000003703105289828148 -0.0000037015190628924877 -0.000003696655952490571 -0.0000037754956564856913 -0.0000037749609522508756 -0.000003773262037595586
          -0.000004163665134785832 -0.000004163662540996212 -0.000004163656908520121 -0.000004583479781114674 -0.000004583475244902796 -0.000004583454056341378
          -0.000005064935244947844 -0.000005065183110397947 -0.000005065921420707473 -0.000005608907331409676 -0.000005609548500132992 -0.000005611469547080232
          -0.000006227666086343975 -0.000006228607938177853 -0.000006231478660711696 0 -8.67460732948165e-7 0
          -8.674746259845297e-7 0 -8.675161475292058e-7 -0.0000017301267389822327 -0.0000017301559809188077 -0.0000017302443244539066
          -0.0000025816999790860927 -0.000002581746766983321 -0.0000025818874702220724 -0.0000034131047459242685 -0.000003413176226644144 -0.000003413394118198175
          -0.00000421125130481544 -0.000004211346177639706 -0.000004211629221282814 -0.000004957012433159025 -0.0000049571760769664915 -0.000004957676653437108
          -0.000005623505771341228 -0.000005623674940615744 -0.000005624177349661291 -0.000006167800006063294 -0.000006168236388636943 -0.0000061695578401488454
          -0.000006508265310494798 -0.000006509052061045653 -0.000006511425937526315 0 -8.929346557959683e-7 0
          -8.929492395830102e-7 0 -8.929930187020351e-7 -0.0000017793185995248331 -0.0000017793487138928308 -0.0000017794398123558026
          -0.000002651293564732449 -0.0000026513416388219773 -0.0000026514869465491567 -0.0000034985865715489235 -0.0000034986564071996897 -0.0000034988670172975705
          -0.000004307392040315754 -0.000004307489444373995 -0.000004307782320409923 -0.000005058826551134943 -0.000005058964655975704 -0.000005059379480512803
          -0.0000057272289205346445 -0.0000057274047349161974 -0.00000572793332800814 -0.0000062661725098004 -0.0000062664504009528465 -0.000006267275374786277
          -0.000006637809320031086 -0.000006638166221362088 -0.000006639237783971871 0 -9.134826742712575e-7 0
          -9.134976532052653e-7 0 -9.135428358547673e-7 -0.000001818553419744116 -0.0000018185841303137368 -0.0000018186772732593089
          -0.00000270561081704499 -0.000002705659012314329 -0.000002705804906013367 -0.0000035628158537671503 -0.000003562884601481194 -0.000003563091883206386
          -0.000004375052622157509 -0.0000043751454722966306 -0.000004375424713311799 -0.000005122694878689001 -0.000005122817031833537 -0.000005123184709206228
          -0.000005778552448054809 -0.000005778704830379517 -0.0000057791631456552004 -0.000006305857472871707 -0.00000630604217026092 -0.000006306596879850923
          -0.000006700356710767787 -0.0000067005567987218254 -0.000006701160081931557 0 -9.294940147286084e-7 0
          -9.295091089469205e-7 0 -9.295547402118426e-7 -0.0000018487088455076668 -0.0000018487395262145693 -0.0000018488325381844387
          -0.0000027462363183999176 -0.0000027462839567976036 -0.000002746427666345451 -0.000003608521759096088 -0.0000036085878702422594 -0.000003608786973013983
          -0.00000441896908790808 -0.000004419055170341964 -0.0000044193139761169906 -0.000005156936936323255 -0.000005157043597807972 -0.000005157363735915032
          -0.000005797050906305955 -0.00000579717611930436 -0.0000057975524445302215 -0.000006316130459905342 -0.000006316253781712086 -0.000006316622221428203
          -0.0000067293160231840055 -0.0000067294280231667545 -0.000006729761811705292 0 -9.414873757113027e-7 0
          -9.415024070300138e-7 0 -9.415479298348466e-7 -0.000001870941181797826 -0.000001870971784642925 -0.000001871063724030224
          -0.0000027752324463204905 -0.000002775279115389275 -0.00000277541910827911 -0.000003639167336145406 -0.0000036392304367151293 -0.000003639419790786884
          -0.000004444820860923815 -0.000004444900068601674 -0.000004445137721220046 -0.000005171446051704192 -0.000005171539288330634 -0.000005171818150145395
          -0.00000579771474300152 -0.000005797816269098306 -0.00000579812022522054 -0.000006312301296688779 -0.000006312386016286336 -0.0000063126381695309814
          -0.000006740612991940719 -0.00000674067763505767 -0.000006740868049519282 0 -9.500342755762769e-7 0
          -9.50049290414809e-7 0 -9.500944562557817e-7 -0.0000018865201621018036 -0.0000018865504662411102 -0.0000018866408471406358
          -0.000002794831880963526 -0.0000027948774266858305 -0.00000279501326798 -0.0000036583857777709537 -0.0000036584460468279713 -0.0000036586259785023536
          -0.0000044583513564428285 -0.000004458424621524672 -0.000004458643627663999 -0.00000517468535031489 -0.0000051747674351490224 -0.000005175012515858374
          -0.000005790463485780587 -0.000005790546708968667 -0.0000057907956173915005 -0.000006303096262142064 -0.0000063031561788665775 -0.000006303333943465649
          -0.000006743043247853539 -0.000006743081098240585 -0.000006743191101694571 0 -9.556809165872315e-7 0
          -9.556958639844007e-7 0 -9.55740492255762e-7 -0.0000018966478379547427 -0.0000018966778626742718 -0.0000018967668609974167
          -0.00000280712060849772 -0.0000028071651836739757 -0.0000028072975149243386 -0.000003669489038719409 -0.000003669547035560545 -0.000003669719334410649
          -0.000004464437005074519 -0.0000044645056758361136 -0.000004464710325182931 -0.000005172901762768608 -0.000005172975676637578 -0.000005173195893225315
          -0.0000057815870066334006 -0.000005781657537809234 -0.000005781868489381237 -0.000006293620406247483 -0.000006293665052013433 -0.000006293797478767299
          -0.000006741779879665896 -0.000006741801780087585 -0.0000067418652161687576 0 -9.588730067572677e-7 0
          -9.588877947894394e-7 0 -9.589319360092954e-7 -0.0000019023013378203104 -0.0000019023310321537321 -0.0000019024191534399166
          -0.000002813776367144775 -0.0000028138200302242406 -0.0000028139500537384366 -0.0000036750668712334334 -0.0000036751230742738676 -0.0000036752903724094905
          -0.0000044666540609185485 -0.0000044667195606217465 -0.000004466914917004244 -0.000005170259548692058 -0.0000051703282719241824 -0.000005170533062222846
          -0.000005774897622749101 -0.00000577496070417587 -0.000005775149391741888 -0.0000062868706739707215 -0.000006286906857525971 -0.0000062870142818553454
          -0.000006739910801151731 -0.000006739924581775436 -0.000006739963887030056 0 -9.599044566354528e-7 0
          -9.59919578849699e-7 0 -9.599639979942499e-7 -0.000001904113170976726 -0.0000019041429588651727 -0.0000019042310362644876
          -0.0000028158717322743247 -0.0000028159153145969197 -0.000002816044768846769 -0.0000036767411370636384 -0.0000036767971828953306 -0.000003676963085550574
          -0.000004467152713900017 -0.0000044672179067309095 -0.000004467410732500003 -0.000005169121041678529 -0.0000051691890566058205 -0.000005169389414880651
          -0.000005772448417176868 -0.000005772510066750129 -0.000005772692186950876 -0.000006284449011845642 -0.000006284483378404546 -0.0000062845834795044046
          -0.000006739108109616533 -0.000006739120056498527 -0.000006739152342903888
        </DataArray>
        <DataArray type="Float64" Name="disp_z" format="ascii" RangeMin="-5.891266006489632e-7" RangeMax="0">
          0 0 0 0 -2.151001725108172e-7 -2.2028196398144541e-7
          -2.225096097010879e-7 -2.231716744219067e-7 -4.301204118029903e-7 -4.405751221453793e-7 -4.449295390171385e-7 -4.461646582074582e-7
          0 0 0 0 -2.1745684121828832e-7 -2.2090411382220098e-7
          -2.2075612438043868e-7 -2.202682654431858e-7 -4.350419518866025e-7 -4.419020113211212e-7 -4.4128054392656977e-7 -4.4037976610699617e-7
          0 0 -2.2269453074730785e-7 -2.2065363040221422e-7 -4.4522659812288544e-7 -4.412198858243832e-7
          0 0 0 -2.185430504856396e-7 -2.0952408844498084e-7 -2.1776506546566008e-7
          -4.368569177953486e-7 -4.189768144524313e-7 -4.3535358723042227e-7 0 0 0
          0 -2.213935426531194e-7 -2.2713533523509172e-7 -2.3146866200312514e-7 -2.2193712809996249e-7 -4.42971288613603e-7
          -4.5441125012346303e-7 -4.632114305834079e-7 -4.4414761496920706e-7 0 0 0
          0 -2.270427860241033e-7 -2.3094567829163985e-7 -2.2907819887908638e-7 -2.2200950937833857e-7 -4.542935810785691e-7
          -4.6201442955457165e-7 -4.582671051210061e-7 -4.443414348042996e-7 0 0 0
          -2.213945133893309e-7 -2.302017478105386e-7 -2.2455372923321007e-7 -4.4310030923076105e-7 -4.6091913606894077e-7 -4.49296804995388e-7
          0 -2.0151223463920369e-7 -4.0294578460756863e-7 0 0 -2.3922278312200295e-7
          -2.484610598641331e-7 -4.786568499696207e-7 -4.972583730958974e-7 0 0 -1.852570466146044e-7
          -1.9651279710831567e-7 -3.7049623954717503e-7 -3.9295640536612684e-7 0 0 -2.639509072316662e-7
          -2.7378076238093514e-7 -5.28042945200804e-7 -5.478574990655636e-7 0 0 0
          0 -2.358606468644078e-7 -2.449601408402832e-7 -2.3323674515419747e-7 -2.2392504763677631e-7 -4.7189111983629724e-7
          -4.902103812839273e-7 -4.666477362268002e-7 -4.4809261861376257e-7 0 -2.9448631307650423e-7 -5.891266006489632e-7
          0 -2.883951170569454e-7 -5.767454083135386e-7 0 -2.1783643188823887e-7 -4.357280194288003e-7
          0 0 -2.1837729480977036e-7 -2.1610160808682788e-7 -4.367977792414794e-7 -4.325182729043278e-7
          0 0 0 0 -2.872159483624077e-7 -2.741125470081568e-7
          -2.63875638319093e-7 -2.8758861187600294e-7 -5.745540566203822e-7 -5.478757538061888e-7 -5.275987604146241e-7 -5.75168088076417e-7
          0 0 -2.1916387449886975e-7 -2.2093598647025738e-7 -4.384889900123497e-7 -4.419708412209949e-7
          0 -2.674993876754112e-7 -5.354855082488612e-7 0 -2.3596167667787565e-7 -4.7225150587785194e-7
          0 0 -2.7233220690007025e-7 -2.6711202047819243e-7 -5.454748978073211e-7 -5.347067708987531e-7
          0 0 -2.2062118242594497e-7 -2.2309650393636274e-7 -4.414975825205861e-7 -4.464711217250287e-7
          0 0 -2.408554971067329e-7 -2.536434705268261e-7 -4.823189794178176e-7 -5.07834696368152e-7
          0 -2.5587684013891844e-7 -5.122409311957545e-7 0 -2.6798094996284707e-7 -5.361823780770775e-7
          0 -2.4857855546610203e-7 -4.974200376655241e-7 0 -2.3490466858073435e-7 -4.704461768103244e-7
          0 -2.5419033947101193e-7 -5.090133454721521e-7 0 0 -2.738068392309251e-7
          -2.712567579633174e-7 -5.476066233445324e-7 -5.424527209484606e-7 0 -2.1738923107181908e-7 -4.350504691430715e-7
          0 0 -2.16780606668026e-7 -2.2048423300263655e-7 -4.340074295116098e-7 -4.412361882116431e-7
          0 0 -2.3563829276386753e-7 -2.502776877909099e-7 -4.7180533371845107e-7 -5.011183331643466e-7
          0 0 -2.2252803578536489e-7 -2.2220232943672216e-7 -4.449982982923965e-7 -4.444757204211562e-7
          0 -2.4788304768914226e-7 -4.962919866944231e-7 0 -2.644358362539419e-7 -5.304478185368208e-7
          0 -2.7679165909212485e-7 -5.538758939913318e-7 0 0 -2.4288603556474936e-7
          -2.545088058222503e-7 -4.859892486335065e-7 -5.093856208744233e-7 0 0 -2.6028779143940776e-7
          -2.638142370146963e-7 -5.201579304748352e-7 -5.295380635526582e-7 0 0 0
          -2.4301372383459004e-7 -2.3875985039761213e-7 -2.4886146443368117e-7 -4.865243090114209e-7 -4.779144981047876e-7 -4.979279931670032e-7
          0 -2.522183273293912e-7 -5.036870385721742e-7 0 0 -2.25159409747225e-7
          -2.248202068193801e-7 -4.5118331907464665e-7 -4.4990388007788644e-7 0 0 -2.2164986188847787e-7
          -2.2128225296412035e-7 -4.43463780209236e-7 -4.425147190055201e-7 0 -2.4199569485796086e-7 -4.84407774260964e-7
          0 -2.5996960694681885e-7 -5.189427871568725e-7 0 -2.1515593661290322e-7 -4.307968581512566e-7
          0 0 -2.2526925756728828e-7 -2.2974744123682746e-7 -4.5061545971530523e-7 -4.594942342639254e-7
          0 -2.348161610011158e-7 -4.6992787881744773e-7 0 -2.223364787074416e-7 -4.44819190832644e-7
          0 -2.1679028617772628e-7 -4.3405611967607874e-7 0 -2.2219497951672132e-7 -4.446611411651449e-7
          0 -2.2458952208250415e-7 -4.492672754345053e-7 0 -2.2590227802909808e-7 -4.5173894154463484e-7
          0 -1.6572714986226276e-7 -3.314211110529099e-7 0 -1.8667197936097203e-7 -3.733139085474385e-7
          0 -2.0319991126093391e-7 -4.0634572377900136e-7 0 -2.1595836978026374e-7 -4.3183848508691727e-7
          0 -2.2420967173386915e-7 -4.484448925367034e-7 0 0 -6.10306603166326e-8
          -6.080579985504877e-8 -1.220649312794166e-7 -1.2162960405927e-7 0 0 -5.963140261374701e-8
          -5.947449974074332e-8 -1.1926123467338992e-7 -1.1894243999329755e-7 0 0 -5.787041598768101e-8
          -5.777636984660497e-8 -1.1574185722614647e-7 -1.1555479647999297e-7 0 0 -5.5895599344182555e-8
          -5.5859595899459296e-8 -1.1179118121123243e-7 -1.1171831469286542e-7 0 0 -5.3836066456844495e-8
          -5.385757868358576e-8 -1.0767233769712998e-7 -1.0771514240050793e-7 0 0 -5.180740256053382e-8
          -5.188181166576741e-8 -1.0361504854431708e-7 -1.0376358248409963e-7 0 0 -4.98899005384368e-8
          -5.001410158442862e-8 -9.977960979429991e-8 -1.0002811498736218e-7 0 0 -4.818804628984721e-8
          -4.833493567155286e-8 -9.637609340945387e-8 -9.666993616041873e-8 0 -6.166739684809834e-8 -1.233510210697764e-7
          0 -6.007657077323417e-8 -1.2014653996696968e-7 0 -5.8121789724539944e-8 -1.1624514695579822e-7
          0 -5.5954940331980906e-8 -1.1190911339452547e-7 0 -5.37252828041804e-8 -1.0745022837404372e-7
          0 -5.154705573382962e-8 -1.0309445191467766e-7 0 -4.9485007396107396e-8 -9.896968515111014e-8
          0 -4.771554930355045e-8 -9.543173982742413e-8 0 -6.256424016306578e-8 -1.2510422323375197e-7
          0 -6.08870726348164e-8 -1.2179231886098511e-7 0 -5.853049055903026e-8 -1.1705420199712822e-7
          0 -5.605584127692122e-8 -1.1211489305616409e-7 0 -5.353416534541358e-8 -1.0706714596238183e-7
          0 -5.109286285875955e-8 -1.0218693818165892e-7 0 -4.876737158817186e-8 -9.753315211286448e-8
          0 -4.6863871935816873e-8 -9.372771658956067e-8 0 -6.51302041408435e-8 -1.3025516285692693e-7
          0 -6.1688590937813e-8 -1.233509132152996e-7 0 -5.9096745790927336e-8 -1.1820627042054623e-7
          0 -5.61005101922504e-8 -1.1219463674767957e-7 0 -5.317683146282006e-8 -1.0635437934744378e-7
          0 -5.0352236657090774e-8 -1.0070605677132068e-7 0 -4.762951893621987e-8 -9.525915211132248e-8
          0 -4.55342370588344e-8 -9.10727842714464e-8 0 -6.475550843698732e-8 -1.2960204790789762e-7
          0 -6.365105598595305e-8 -1.2730669423806114e-7 0 -5.942713262532067e-8 -1.1884564009219628e-7
          0 -5.6043362141813304e-8 -1.1209711398637514e-7 0 -5.254787662718365e-8 -1.0509143206114179e-7
          0 -4.921465519308847e-8 -9.84327625148963e-8 0 -4.592335898612708e-8 -9.183827956063147e-8
          0 -4.3555425915696523e-8 -8.710728107505158e-8 0 -9.669841432241972e-8 -1.9349431716024057e-7
          0 -7.095420929782423e-8 -1.4198429132718483e-7 0 -6.336022563886726e-8 -1.267507758891822e-7
          0 -6.01163096296792e-8 -1.2021466820593688e-7 0 -5.554456142431671e-8 -1.110835649335306e-7
          0 -5.156862135846055e-8 -1.031351245243694e-7 0 -4.7556308651126096e-8 -9.512035582234497e-8
          0 -4.3434804108889065e-8 -8.687459796131067e-8 0 -4.077338786356493e-8 -8.156696961114383e-8
          0 -1.29456752812539e-7 -2.5831715513410983e-7 0 -9.369656391489594e-8 -1.896029503255322e-7
          0 -6.701541759816002e-8 -1.341704284693056e-7 0 -5.868920809664244e-8 -1.1740300218969396e-7
          0 -5.524737085889328e-8 -1.1050492387062186e-7 0 -5.0161640001897884e-8 -1.003125918284087e-7
          0 -4.523106405767489e-8 -9.047171809117579e-8 0 -3.9549504252840116e-8 -7.906964400309976e-8
          0 -3.626706770382767e-8 -7.252319455622276e-8 0 -1.6109595686531115e-7 -3.2227138079406656e-7
          0 -1.2177956443441747e-7 -2.430067392713917e-7 0 -7.892556861441743e-8 -1.5802148159070093e-7
          0 -5.7239545717679216e-8 -1.1458586414525724e-7 0 -5.375664145782698e-8 -1.0752696628323907e-7
          0 -4.8364336855828336e-8 -9.670238243749756e-8 0 -4.23183952872667e-8 -8.46731720454397e-8
          0 -3.4888597600564905e-8 -6.97583635763704e-8 0 -3.146933228968714e-8 -6.296743588687514e-8
          0 -2.1287292719095543e-7 -4.2560528095525585e-7 0 -1.6431418494548528e-7 -3.2895080736900906e-7
          0 -1.0680772382900142e-7 -2.1385986342026092e-7 0 -6.609161463284125e-8 -1.3236974896972482e-7
          0 -5.3317708433319524e-8 -1.0669000329817838e-7 0 -4.79786554895135e-8 -9.593687640251999e-8
          0 -3.705168157775145e-8 -7.413229450119378e-8 0 -2.1512365817082423e-8 -4.2993303193299523e-8
          0 -1.0750587466919696e-8 -2.1512261818445226e-8 0 0 -4.727424310906326e-8
          -4.709774463808441e-8 -9.45485409511955e-8 -9.419532990464635e-8 0 -4.654275102255094e-8 -9.308511089997348e-8
          0 -4.555690867583294e-8 -9.111171275623524e-8 0 -4.404227058905357e-8 -8.808341960044263e-8
          0 -4.182204346076007e-8 -8.363516876415823e-8 0 -3.871611450029588e-8 -7.74310032581398e-8
          0 -3.374755884985805e-8 -6.747063185696766e-8 0 -2.7705885784002668e-8 -5.5375331371345445e-8
          0 -1.0134874265758442e-8 -2.0207931210360135e-8 0 0 -4.6321243098579147e-8
          -4.6134418132803367e-8 -9.264239879738605e-8 -9.226890403091478e-8 0 -4.5557137553280766e-8 -9.11148220714756e-8
          0 -4.454557483330029e-8 -8.909241811582974e-8 0 -4.3018317625990786e-8 -8.60394601767402e-8
          0 -4.086099596308713e-8 -8.172585822395587e-8 0 -3.784522882661312e-8 -7.570068491571651e-8
          0 -3.371838097825661e-8 -6.744780769210633e-8 0 -2.8191297788723017e-8 -5.641897670509148e-8
          0 -1.9681112835787138e-8 -3.940054603226957e-8 0 0 -4.549208639050092e-8
          -4.5298475414978695e-8 -9.098423637553937e-8 -9.059693168363423e-8 0 -4.470544552393364e-8 -8.941063617219428e-8
          0 -4.367887085493481e-8 -8.735706543436962e-8 0 -4.2162912426457084e-8 -8.432457348172981e-8
          0 -4.006920578500187e-8 -8.013587516355009e-8 0 -3.729335216031074e-8 -7.45831326060622e-8
          0 -3.3711695992186154e-8 -6.741445184977758e-8 0 -2.9364114995241684e-8 -5.8713099981414605e-8
          0 -2.4294021296161813e-8 -4.852963878302844e-8 0 0 -4.479024760037723e-8
          -4.459367894244804e-8 -8.958055241202826e-8 -8.918739380202011e-8 0 -4.3996209575641145e-8 -8.799251817637421e-8
          0 -4.2976000715532704e-8 -8.595228057066301e-8 0 -4.149847926572586e-8 -8.299746067088257e-8
          0 -3.952148964646054e-8 -7.90440683232117e-8 0 -3.70179159510425e-8 -7.403699987039069e-8
          0 -3.399716006473209e-8 -6.799831846674949e-8 0 -3.068762926425522e-8 -6.137926098430025e-8
          0 -2.7705537509444364e-8 -5.542464638717689e-8 0 0 -4.421715546990321e-8
          -4.402012064164005e-8 -8.843434935556155e-8 -8.804026547948035e-8 0 -4.3425614760629383e-8 -8.685120279450147e-8
          0 -4.2422750308818785e-8 -8.484541458472743e-8 0 -4.099865437720499e-8 -8.199712594296243e-8
          0 -3.914946132484416e-8 -7.829863403675161e-8 0 -3.6907217974172904e-8 -7.381360339078465e-8
          0 -3.437070735996442e-8 -6.87408094387015e-8 0 -3.186655107224042e-8 -6.373007007999417e-8
          0 -3.004678115573059e-8 -6.00829159903984e-8 0 0 -4.3772422121214324e-8
          -4.3576661935926926e-8 -8.754479958633563e-8 -8.715331460849624e-8 0 -4.298878886410309e-8 -8.597759257446093e-8
          0 -4.200771189526914e-8 -8.4015461101514e-8 0 -4.063835262693954e-8 -8.12767300525002e-8
          0 -3.8906635709803126e-8 -7.781346402927896e-8 0 -3.6885583270216566e-8 -7.377100359575994e-8
          0 -3.473039508910611e-8 -6.946184907665833e-8 0 -3.27920992233205e-8 -6.558343282124988e-8
          0 -3.164924821999045e-8 -6.329884477796503e-8 0 0 -4.345546439104478e-8
          -4.3261469117158434e-8 -8.691085893355561e-8 -8.652290088816632e-8 0 -4.268091596468958e-8 -8.536182719763834e-8
          0 -4.172008059677598e-8 -8.344013766364675e-8 0 -4.039713602567824e-8 -8.079422171551459e-8
          0 -3.875839837232447e-8 -7.751684662649993e-8 0 -3.690344800663759e-8 -7.380658804816426e-8
          0 -3.5019523382157564e-8 -7.003961502361928e-8 0 -3.345047077900459e-8 -6.689977300023442e-8
          0 -3.270610209728374e-8 -6.541035726387219e-8 0 0 -4.3264761154647984e-8
          -4.3072471660916586e-8 -8.652951424522353e-8 -8.61449290178515e-8 0 -4.249778716589478e-8 -8.499556830568875e-8
          0 -4.155095850523571e-8 -8.310192149193865e-8 0 -4.025871337333284e-8 -8.051738933122063e-8
          0 -3.867928832756567e-8 -7.735864817863522e-8 0 -3.692668268981539e-8 -7.385307118140077e-8
          0 -3.520369319243746e-8 -7.040801831006473e-8 0 -3.384181174756497e-8 -6.768265486790846e-8
          0 -3.3306853720377406e-8 -6.661300355902806e-8 0 0 -4.320305034558856e-8
          -4.3010943606962004e-8 -8.640612843924977e-8 -8.602190479024473e-8 0 -4.243699038265709e-8 -8.487398767508328e-8
          0 -4.1495173979088005e-8 -8.299038723508254e-8 0 -4.0213705471172566e-8 -8.042736917410059e-8
          0 -3.8654529039504515e-8 -7.730909024572466e-8 0 -3.693644689028895e-8 -7.387254787530793e-8
          0 -3.526673313527884e-8 -7.053399741716597e-8 0 -3.397157632447613e-8 -6.794210999763026e-8
          0 -3.350251559880989e-8 -6.700418022266901e-8
        </DataArray>
      </PointData>
      <CellData>
        <DataArray type="Int32" Name="libmesh_elem_id" format="ascii" RangeMin="1398" RangeMax="3643">
          1398 1399 1422 1423 1460 1461
          1470 1471 1482 1483 1494 1495
          1502 1503 1506 1507 1520 1521
          1528 1529 1580 1581 1584 1585
          1612 1613 1636 1637 1652 1653
          1722 1723 1798 1799 1850 1851
          2298 2299 2406 2407 2442 2443
          2450 2451 2472 2473 2558 2559
          2610 2611 2646 2647 2648 2649
          2662 2663 2672 2673 2680 2681
          2748 2749 2756 2757 2776 2777
          2808 2809 2814 2815 2822 2823
          2828 2829 2836 2837 2852 2853
          2876 2877 2898 2899 2910 2911
          2926 2927 2936 2937 2950 2951
          2952 2953 2954 2955 2966 2967
          2980 2981 2982 2983 2990 2991
          3006 3007 3014 3015 3026 3027
          3068 3069 3074 3075 3104 3105
          3110 3111 3124 3125 3126 3127
          3168 3169 3194 3195 3204 3205
          3208 3209 3210 3211 3212 3213
          3220 3221 3222 3223 3224 3225
          3226 3227 3234 3235 3236 3237
          3240 3241 3252 3253 3254 3255
          3264 3265 3296 3297 3302 3303
          3308 3309 3314 3315 3324 3325
          3326 3327 3328 3329 3330 3331
          3332 3333 3334 3335 3336 3337
          3342 3343 3344 3345 3346 3347
          3348 3349 3350 3351 3352 3353
          3354 3355 3360 3361 3362 3363
          3364 3365 3366 3367 3368 3369
          3370 3371 3372 3373 3378 3379
          3380 3381 3382 3383 3384 3385
          3386 3387 3388 3389 3390 3391
          3396 3397 3398 3399 3400 3401
          3402 3403 3404 3405 3406 3407
          3408 3409 3414 3415 3416 3417
          3418 3419 3420 3421 3422 3423
          3424 3425 3426 3427 3430 3431
          3432 3433 3434 3435 3436 3437
          3438 3439 3440 3441 3442 3443
          3444 3445 3448 3449 3450 3451
          3452 3453 3454 3455 3456 3457
          3458 3459 3460 3461 3462 3463
          3466 3467 3468 3469 3470 3471
          3472 3473 3474 3475 3476 3477
          3478 3479 3480 3481 3482 3483
          3484 3485 3486 3487 3488 3489
          3490 3491 3492 3493 3494 3495
          3496 3497 3498 3499 3500 3501
          3502 3503 3504 3505 3506 3507
          3508 3509 3510 3511 3512 3513
          3514 3515 3516 3517 3518 3519
          3520 3521 3522 3523 3524 3525
          3526 3527 3528 3529 3530 3531
          3532 3533 3534 3535 3536 3537
          3538 3539 3540 3541 3542 3543
          3544 3545 3546 3547 3548 3549
          3550 3551 3552 3553 3554 3555
          3556 3557 3558 3559 3560 3561
          3562 3563 3564 3565 3566 3567
          3568 3569 3570 3571 3572 3573
          3574 3575 3576 3577 3578 3579
          3580 3581 3582 3583 3584 3585
          3586 3587 3588 3589 3590 3591
          3592 3593 3594 3595 3596 3597
          3598 3599 3600 3601 3602 3603
          3604 3605 3606 3607 3608 3609
          3610 3611 3612 3613 3614 3615
          3616 3617 3618 3619 3620 3621
          3622 3623 3624 3625 3626 3627
          3628 3629 3630 3631 3632 3633
          3634 3635 3636 3637 3638 3639
          3640 3641 3642 3643
        </DataArray>
        <DataArray type="Int32" Name="subdomain_id" format="ascii" RangeMin="107" RangeMax="110">
          107 107 107 107 107 107
          107 107 107 107 107 107
          107 107 107 107 107 107
          107 107 107 107 107 107
          107 107 107 107 107 107
          107 107 107 107 107 107
          107 107 107 107 107 107
          107 107 107 107 107 107
          107 107 107 107 107 107
          107 107 107 107 107 107
          107 107 107 107 107 107
          107 107 107 107 107 107
          107 107 107 107 107 107
          107 107 107 107 107 107
          107 107 107 107 107 107
          107 107 107 107 107 107
          107 107 107 107 107 107
          107 107 107 107 107 107
          107 107 107 107 107 107
          107 107 107 107 107 107
          107 107 107 107 107 107
          107 107 107 107 107 107
          107 107 107 107 107 107
          107 107 107 107 107 107
          107 107 107 107 107 107
          107 107 108 108 108 108
          108 108 108 108 109 109
          109 109 109 109 109 109
          109 109 109 109 109 109
          109 109 109 109 109 109
          109 109 109 109 109 109
          109 109 109 109 109 109
          109 109 109 109 109 109
          109 109 109 109 109 109
          109 109 109 109 109 109
          109 109 109 109 109 109
          109 109 109 109 109 109
          109 109 109 109 109 109
          109 109 109 109 109 109
          109 109 109 109 109 109
          109 109 109 109 109 109
          109 109 109 109 109 109
          109 109 109 109 109 109
          109 109 109 109 109 109
          109 109 109 109 109 109
          109 109 109 109 109 109
          109 109 109 109 109 109
          109 109 109 109 109 109
          109 109 109 109 110 110
          110 110 110 110 110 110
          110 110 110 110 110 110
          110 110 110 110 110 110
          110 110 110 110 110 110
          110 110 110 110 110 110
          110 110 110 110 110 110
          110 110 110 110 110 110
          110 110 110 110 110 110
          110 110 110 110 110 110
          110 110 110 110 110 110
          110 110 110 110 110 110
          110 110 110 110 110 110
          110 110 110 110 110 110
          110 110 110 110 110 110
          110 110 110 110 110 110
          110 110 110 110 110 110
          110 110 110 110 110 110
          110 110 110 110 110 110
          110 110 110 110 110 110
          110 110 110 110 110 110
          110 110 110 110 110 110
          110 110 110 110 110 110
          110 110 110 110 110 110
          110 110 110 110 110 110
          110 110 110 110 110 110
          110 110 110 110 110 110
          110 110 110 110
        </DataArray>
        <DataArray type="Int32" Name="processor_id" format="ascii" RangeMin="0" RangeMax="0">
          0 0 0 0 0 0
          0 0 0 0 0 0
          0 0 0 0 0 0
          0 0 0 0 0 0
          0 0 0 0 0 0
          0 0 0 0 0 0
          0 0 0 0 0 0
          0 0 0 0 0 0
          0 0 0 0 0 0
          0 0 0 0 0 0
          0 0 0 0 0 0
          0 0 0 0 0 0
          0 0 0 0 0 0
          0 0 0 0 0 0
          0 0 0 0 0 0
          0 0 0 0 0 0
          0 0 0 0 0 0
          0 0 0 0 0 0
          0 0 0 0 0 0
          0 0 0 0 0 0
          0 0 0 0 0 0
          0 0 0 0 0 0
          0 0 0 0 0 0
          0 0 0 0 0 0
          0 0 0 0 0 0
          0 0 0 0 0 0
          0 0 0 0 0 0
          0 0 0 0 0 0
          0 0 0 0 0 0
          0 0 0 0 0 0
          0 0 0 0 0 0
          0 0 0 0 0 0
          0 0 0 0 0 0
          0 0 0 0 0 0
          0 0 0 0 0 0
          0 0 0 0 0 0
          0 0 0 0 0 0
          0 0 0 0 0 0
          0 0 0 0 0 0
          0 0 0 0 0 0
          0 0 0 0 0 0
          0 0 0 0 0 0
          0 0 0 0 0 0
          0 0 0 0 0 0
          0 0 0 0 0 0
          0 0 0 0 0 0
          0 0 0 0 0 0
          0 0 0 0 0 0
          0 0 0 0 0 0
          0 0 0 0 0 0
          0 0 0 0 0 0
          0 0 0 0 0 0
          0 0 0 0 0 0
          0 0 0 0 0 0
          0 0 0 0 0 0
          0 0 0 0 0 0
          0 0 0 0 0 0
          0 0 0 0 0 0
          0 0 0 0 0 0
          0 0 0 0 0 0
          0 0 0 0 0 0
          0 0 0 0 0 0
          0 0 0 0 0 0
          0 0 0 0 0 0
          0 0 0 0 0 0
          0 0 0 0 0 0
          0 0 0 0 0 0
          0 0 0 0 0 0
          0 0 0 0 0 0
          0 0 0 0 0 0
          0 0 0 0 0 0
          0 0 0 0 0 0
          0 0 0 0 0 0
          0 0 0 0 0 0
          0 0 0 0 0 0
          0 0 0 0
        </DataArray>
      </CellData>
      <Points>
        <DataArray type="Float64" Name="Points" NumberOfComponents="3" format="ascii" RangeMin="0.019949534490770096" RangeMax="0.057059767276955435">
          0.025 0.010111111111103 0 0.025 0.011555555555552 0
          0.023969654121399 0.011643457228511 0 0.023712354871128 0.010827306146479 0
          0.025 0.010111111111103 0.00015 0.025 0.011555555555552 0.00015
          0.023969654121399 0.011643457228511 0.00015 0.023712354871128 0.010827306146479 0.00015
          0.025 0.010111111111103 0.0003 0.025 0.011555555555552 0.0003
          0.023969654121399 0.011643457228511 0.0003 0.023712354871128 0.010827306146479 0.0003
          0.021832836898909 0.0086447924127183 0 0.021823224979211 0.0078559681587773 0
          0.022737846371709 0.0079006862580081 0 0.022634898807434 0.0088549234284915 0
          0.021832836898909 0.0086447924127183 0.00015 0.021823224979211 0.0078559681587773 0.00015
          0.022737846371709 0.0079006862580081 0.00015 0.022634898807434 0.0088549234284915 0.00015
          0.021832836898909 0.0086447924127183 0.0003 0.021823224979211 0.0078559681587773 0.0003
          0.022737846371709 0.0079006862580081 0.0003 0.022634898807434 0.0088549234284915 0.0003
          0.023595500831214 0.0092794942281182 0 0.023071107871262 0.010124307969263 0
          0.023595500831214 0.0092794942281182 0.00015 0.023071107871262 0.010124307969263 0.00015
          0.023595500831214 0.0092794942281182 0.0003 0.023071107871262 0.010124307969263 0.0003
          0.022679909737796 0.0068405181074087 0 0.023816654948859 0.0069324696013164 0
          0.023805320189621 0.0081867285281858 0 0.022679909737796 0.0068405181074087 0.00015
          0.023816654948859 0.0069324696013164 0.00015 0.023805320189621 0.0081867285281858 0.00015
          0.022679909737796 0.0068405181074087 0.0003 0.023816654948859 0.0069324696013164 0.0003
          0.023805320189621 0.0081867285281858 0.0003 0.021890570917318 0.011219591567605 0
          0.021490495874743 0.011513015985888 0 0.020878683694742 0.011349585571751 0
          0.021380466308845 0.010767094219468 0 0.021890570917318 0.011219591567605 0.00015
          0.021490495874743 0.011513015985888 0.00015 0.020878683694742 0.011349585571751 0.00015
          0.021380466308845 0.010767094219468 0.00015 0.021890570917318 0.011219591567605 0.0003
          0.021490495874743 0.011513015985888 0.0003 0.020878683694742 0.011349585571751 0.0003
          0.021380466308845 0.010767094219468 0.0003 0.022336312736143 0.012467557709352 0
          0.021763745105177 0.012476629724541 0 0.021622459990569 0.011931223094182 0
          0.02233098651665 0.011816769005978 0 0.022336312736143 0.012467557709352 0.00015
          0.021763745105177 0.012476629724541 0.00015 0.021622459990569 0.011931223094182 0.00015
          0.02233098651665 0.011816769005978 0.00015 0.022336312736143 0.012467557709352 0.0003
          0.021763745105177 0.012476629724541 0.0003 0.021622459990569 0.011931223094182 0.0003
          0.02233098651665 0.011816769005978 0.0003 0.021047379294988 0.0079667793778881 0
          0.020813290684512 0.007243328880283 0 0.021666975794544 0.0069715825078724 0
          0.021047379294988 0.0079667793778881 0.00015 0.020813290684512 0.007243328880283 0.00015
          0.021666975794544 0.0069715825078724 0.00015 0.021047379294988 0.0079667793778881 0.0003
          0.020813290684512 0.007243328880283 0.0003 0.021666975794544 0.0069715825078724 0.0003
          0.025 0.0086666666666559 0 0.025 0.0086666666666559 0.00015
          0.025 0.0086666666666559 0.0003 0.021356284292895 0.0061182113295331 0
          0.020489019208248 0.0065103794253073 0 0.021356284292895 0.0061182113295331 0.00015
          0.020489019208248 0.0065103794253073 0.00015 0.021356284292895 0.0061182113295331 0.0003
          0.020489019208248 0.0065103794253073 0.0003 0.025 0.0072222222222063 0
          0.023829479378086 0.0056593315311521 0 0.025 0.0072222222222063 0.00015
          0.023829479378086 0.0056593315311521 0.00015 0.025 0.0072222222222063 0.0003
          0.023829479378086 0.0056593315311521 0.0003 0.019357361519954 0.01157618305141 0
          0.01884046117173 0.011223113854601 0 0.019357361519954 0.01157618305141 0.00015
          0.01884046117173 0.011223113854601 0.00015 0.019357361519954 0.01157618305141 0.0003
          0.01884046117173 0.011223113854601 0.0003 0.020274347850796 0.01080512315655 0
          0.019692191057164 0.010418143528135 0 0.020104676199583 0.0097475599042502 0
          0.020792052735599 0.010316149813733 0 0.020274347850796 0.01080512315655 0.00015
          0.019692191057164 0.010418143528135 0.00015 0.020104676199583 0.0097475599042502 0.00015
          0.020792052735599 0.010316149813733 0.00015 0.020274347850796 0.01080512315655 0.0003
          0.019692191057164 0.010418143528135 0.0003 0.020104676199583 0.0097475599042502 0.0003
          0.020792052735599 0.010316149813733 0.0003 0.018734278863615 0.0068564365277259 0
          0.018734278863615 0.0068564365277259 0.00015 0.018734278863615 0.0068564365277259 0.0003
          0.018384253973557 0.010894663204421 0 0.018384253973557 0.010894663204421 0.00015
          0.018384253973557 0.010894663204421 0.0003 0.022477642087048 0.0055533155338694 0
          0.022477642087048 0.0055533155338694 0.00015 0.022477642087048 0.0055533155338694 0.0003
          0.022333445868241 0.0096250088550796 0 0.021678233976573 0.0092839168226163 0
          0.022333445868241 0.0096250088550796 0.00015 0.021678233976573 0.0092839168226163 0.00015
          0.022333445868241 0.0096250088550796 0.0003 0.021678233976573 0.0092839168226163 0.0003
          0.018696511924608 0.0075816988835645 0 0.019307778433714 0.0076950261479263 0
          0.019244919669154 0.0083241905034728 0 0.018643245907353 0.0082916041839039 0
          0.018696511924608 0.0075816988835645 0.00015 0.019307778433714 0.0076950261479263 0.00015
          0.019244919669154 0.0083241905034728 0.00015 0.018643245907353 0.0082916041839039 0.00015
          0.018696511924608 0.0075816988835645 0.0003 0.019307778433714 0.0076950261479263 0.0003
          0.019244919669154 0.0083241905034728 0.0003 0.018643245907353 0.0082916041839039 0.0003
          0.02247089481133 0.010746063389313 0 0.022956441030322 0.011313723369763 0
          0.02247089481133 0.010746063389313 0.00015 0.022956441030322 0.011313723369763 0.00015
          0.02247089481133 0.010746063389313 0.0003 0.022956441030322 0.011313723369763 0.0003
          0.018817000838468 0.010560792840001 0 0.018817000838468 0.010560792840001 0.00015
          0.018817000838468 0.010560792840001 0.0003 0.021028725472558 0.011993213484042 0
          0.021028725472558 0.011993213484042 0.00015 0.021028725472558 0.011993213484042 0.0003
          0.018719100515555 0.0096191331103102 0 0.018769006148643 0.010016813571171 0
          0.018719100515555 0.0096191331103102 0.00015 0.018769006148643 0.010016813571171 0.00015
          0.018719100515555 0.0096191331103102 0.0003 0.018769006148643 0.010016813571171 0.0003
          0.022845614094026 0.012068678060928 0 0.022870050818517 0.012481997757377 0
          0.022845614094026 0.012068678060928 0.00015 0.022870050818517 0.012481997757377 0.00015
          0.022845614094026 0.012068678060928 0.0003 0.022870050818517 0.012481997757377 0.0003
          0.01980903614198 0.0082923028866096 0 0.019733887771193 0.007830319872041 0
          0.01980903614198 0.0082923028866096 0.00015 0.019733887771193 0.007830319872041 0.00015
          0.01980903614198 0.0082923028866096 0.0003 0.019733887771193 0.007830319872041 0.0003
          0.019287865107188 0.010870204720027 0 0.019287865107188 0.010870204720027 0.00015
          0.019287865107188 0.010870204720027 0.0003 0.019611341590458 0.0069319215290848 0
          0.019611341590458 0.0069319215290848 0.00015 0.019611341590458 0.0069319215290848 0.0003
          0.019793192887703 0.011218191570876 0 0.019793192887703 0.011218191570876 0.00015
          0.019793192887703 0.011218191570876 0.0003 0.02014052068744 0.0075597001530957 0
          0.02014052068744 0.0075597001530957 0.00015 0.02014052068744 0.0075597001530957 0.0003
          0.019142781766586 0.010156284019367 0 0.019142781766586 0.010156284019367 0.00015
          0.019142781766586 0.010156284019367 0.0003 0.019871794871807 0.013 0
          0.019671681078705 0.012567114388191 0 0.019871794871807 0.013 0.00015
          0.019671681078705 0.012567114388191 0.00015 0.019871794871807 0.013 0.0003
          0.019671681078705 0.012567114388191 0.0003 0.02189605775595 0.01024368797285 0
          0.02189605775595 0.01024368797285 0.00015 0.02189605775595 0.01024368797285 0.0003
          0.021306208963658 0.0098107932917518 0 0.020830530356293 0.0093484326970494 0
          0.021306208963658 0.0098107932917518 0.00015 0.020830530356293 0.0093484326970494 0.00015
          0.021306208963658 0.0098107932917518 0.0003 0.020830530356293 0.0093484326970494 0.0003
          0.019927087042343 0.0089401115508047 0 0.019284140679376 0.0089915496868705 0
          0.019927087042343 0.0089401115508047 0.00015 0.019284140679376 0.0089915496868705 0.00015
          0.019927087042343 0.0089401115508047 0.0003 0.019284140679376 0.0089915496868705 0.0003
          0.023272296973232 0.01187913061167 0 0.023408043049707 0.012441583397961 0
          0.023272296973232 0.01187913061167 0.00015 0.023408043049707 0.012441583397961 0.00015
          0.023272296973232 0.01187913061167 0.0003 0.023408043049707 0.012441583397961 0.0003
          0.019291729405334 0.009640079412969 0 0.019291729405334 0.009640079412969 0.00015
          0.019291729405334 0.009640079412969 0.0003 0.019497075330812 0.012129782091497 0
          0.019497075330812 0.012129782091497 0.00015 0.019497075330812 0.012129782091497 0.0003
          0.018655444813331 0.0089912542068827 0 0.018655444813331 0.0089912542068827 0.00015
          0.018655444813331 0.0089912542068827 0.0003 0.020217772280624 0.01161574996656 0
          0.019866459267603 0.011787315550137 0 0.020217772280624 0.01161574996656 0.00015
          0.019866459267603 0.011787315550137 0.00015 0.020217772280624 0.01161574996656 0.0003
          0.019866459267603 0.011787315550137 0.0003 0.020169909004412 0.012559422291794 0
          0.020384615384626 0.013 0 0.020169909004412 0.012559422291794 0.00015
          0.020384615384626 0.013 0.00015 0.020169909004412 0.012559422291794 0.0003
          0.020384615384626 0.013 0.0003 0.02048968364866 0.012063778985416 0
          0.021216890903006 0.012503701361908 0 0.020684692364028 0.012535095885709 0
          0.02048968364866 0.012063778985416 0.00015 0.021216890903006 0.012503701361908 0.00015
          0.020684692364028 0.012535095885709 0.00015 0.02048968364866 0.012063778985416 0.0003
          0.021216890903006 0.012503701361908 0.0003 0.020684692364028 0.012535095885709 0.0003
          0.020897435897446 0.013 0 0.020897435897446 0.013 0.00015
          0.020897435897446 0.013 0.0003 0.020387511226442 0.0081443073342907 0
          0.02056343795537 0.0087688297792787 0 0.020387511226442 0.0081443073342907 0.00015
          0.02056343795537 0.0087688297792787 0.00015 0.020387511226442 0.0081443073342907 0.0003
          0.02056343795537 0.0087688297792787 0.0003 0.023967653117571 0.012391671962311 0
          0.024322147732379 0.012509260561901 0 0.023967653117571 0.012391671962311 0.00015
          0.024322147732379 0.012509260561901 0.00015 0.023967653117571 0.012391671962311 0.0003
          0.024322147732379 0.012509260561901 0.0003 0.021410256410266 0.013 0
          0.021410256410266 0.013 0.00015 0.021410256410266 0.013 0.0003
          0.019993073529409 0.012116879865089 0 0.019993073529409 0.012116879865089 0.00015
          0.019993073529409 0.012116879865089 0.0003 0.02122910202584 0.0090825003429501 0
          0.02122910202584 0.0090825003429501 0.00015 0.02122910202584 0.0090825003429501 0.0003
          0.022948717948721 0.013 0 0.022435897435903 0.013 0
          0.022948717948721 0.013 0.00015 0.022435897435903 0.013 0.00015
          0.022948717948721 0.013 0.0003 0.022435897435903 0.013 0.0003
          0.021923076923085 0.013 0 0.021923076923085 0.013 0.00015
          0.021923076923085 0.013 0.0003 0.023461538461539 0.013 0
          0.023461538461539 0.013 0.00015 0.023461538461539 0.013 0.0003
          0.021171209164951 0.0086229949315581 0 0.021171209164951 0.0086229949315581 0.00015
          0.021171209164951 0.0086229949315581 0.0003 0.023974358974358 0.013 0
          0.023974358974358 0.013 0.00015 0.023974358974358 0.013 0.0003
          0.024487179487177 0.013 0 0.024487179487177 0.013 0.00015
          0.024487179487177 0.013 0.0003 0.025 0.013 0
          0.025 0.013 0.00015 0.025 0.013 0.0003
          0.026666666666667 0.0072222222222063 0 0.026666666666667 0.0072222222222063 0.00015
          0.026666666666667 0.0072222222222063 0.0003 0.026666666666668 0.0086666666666559 0
          0.026666666666668 0.0086666666666559 0.00015 0.026666666666668 0.0086666666666559 0.0003
          0.026666666666669 0.010111111111103 0 0.026666666666669 0.010111111111103 0.00015
          0.026666666666669 0.010111111111103 0.0003 0.026666666666669 0.011555555555552 0
          0.026666666666669 0.011555555555552 0.00015 0.026666666666669 0.011555555555552 0.0003
          0.02666666666667 0.013 0 0.02666666666667 0.013 0.00015
          0.02666666666667 0.013 0.0003 0.033201501647561 0.0014698753983525 0
          0.033179797338052 0 0 0.033201501647561 0.0014698753983525 0.00015
          0.033179797338052 0 0.00015 0.033201501647561 0.0014698753983525 0.0003
          0.033179797338052 0 0.0003 0.034800103200053 0.0015015548376625 0
          0.034769696007096 0 0 0.034800103200053 0.0015015548376625 0.00015
          0.034769696007096 0 0.00015 0.034800103200053 0.0015015548376625 0.0003
          0.034769696007096 0 0.0003 0.03639613666046 0.0015457026119765 0
          0.036359594676111 0 0 0.03639613666046 0.0015457026119765 0.00015
          0.036359594676111 0 0.00015 0.03639613666046 0.0015457026119765 0.0003
          0.036359594676111 0 0.0003 0.037988764334349 0.001602116400018 0
          0.037949493345121 0 0 0.037988764334349 0.001602116400018 0.00015
          0.037949493345121 0 0.00015 0.037988764334349 0.001602116400018 0.0003
          0.037949493345121 0 0.0003 0.039577164134098 0.001670537667151 0
          0.039539392014149 0 0 0.039577164134098 0.001670537667151 0.00015
          0.039539392014149 0 0.00015 0.039577164134098 0.001670537667151 0.0003
          0.039539392014149 0 0.0003 0.041160533348121 0.0017506528505884 0
          0.041129290683195 0 0 0.041160533348121 0.0017506528505884 0.00015
          0.041129290683195 0 0.00015 0.041160533348121 0.0017506528505884 0.0003
          0.041129290683195 0 0.0003 0.042738092320879 0.0018420947973532 0
          0.042719189352233 0 0 0.042738092320879 0.0018420947973532 0.00015
          0.042719189352233 0 0.00015 0.042738092320879 0.0018420947973532 0.0003
          0.042719189352233 0 0.0003 0.044309088021254 0.0019444444444413 0
          0.044309088021254 0 0 0.044309088021254 0.0019444444444413 0.00015
          0.044309088021254 0 0.00015 0.044309088021254 0.0019444444444413 0.0003
          0.044309088021254 0 0.0003 0.033223205957069 0.0029397507967035 0
          0.033223205957069 0.0029397507967035 0.00015 0.033223205957069 0.0029397507967035 0.0003
          0.03483051039301 0.0030031096753234 0 0.03483051039301 0.0030031096753234 0.00015
          0.03483051039301 0.0030031096753234 0.0003 0.036432678644808 0.0030914052239513 0
          0.036432678644808 0.0030914052239513 0.00015 0.036432678644808 0.0030914052239513 0.0003
          0.038028035323577 0.0032042328000343 0 0.038028035323577 0.0032042328000343 0.00015
          0.038028035323577 0.0032042328000343 0.0003 0.039614936254047 0.0033410753343001 0
          0.039614936254047 0.0033410753343001 0.00015 0.039614936254047 0.0033410753343001 0.0003
          0.041191776013048 0.0035013057011749 0 0.041191776013048 0.0035013057011749 0.00015
          0.041191776013048 0.0035013057011749 0.0003 0.042756995289524 0.0036841895947044 0
          0.042756995289524 0.0036841895947044 0.00015 0.042756995289524 0.0036841895947044 0.0003
          0.044309088021254 0.0038888888888803 0 0.044309088021254 0.0038888888888803 0.00015
          0.044309088021254 0.0038888888888803 0.0003 0.033244910266578 0.0044096261950543 0
          0.033244910266578 0.0044096261950543 0.00015 0.033244910266578 0.0044096261950543 0.0003
          0.034860917585967 0.004504664512984 0 0.034860917585967 0.004504664512984 0.00015
          0.034860917585967 0.004504664512984 0.0003 0.036469220629156 0.0046371078359259 0
          0.036469220629156 0.0046371078359259 0.00015 0.036469220629156 0.0046371078359259 0.0003
          0.038067306312805 0.0048063492000502 0 0.038067306312805 0.0048063492000502 0.00015
          0.038067306312805 0.0048063492000502 0.0003 0.039652708373995 0.0050116130014489 0
          0.039652708373995 0.0050116130014489 0.00015 0.039652708373995 0.0050116130014489 0.0003
          0.041223018677975 0.005251958551761 0 0.041223018677975 0.005251958551761 0.00015
          0.041223018677975 0.005251958551761 0.0003 0.04277589825817 0.0055262843920551 0
          0.04277589825817 0.0055262843920551 0.00015 0.04277589825817 0.0055262843920551 0.0003
          0.044309088021254 0.0058333333333189 0 0.044309088021254 0.0058333333333189 0.00015
          0.044309088021254 0.0058333333333189 0.0003 0.033266614576087 0.0058795015934051 0
          0.033266614576087 0.0058795015934051 0.00015 0.033266614576087 0.0058795015934051 0.0003
          0.034891324778924 0.0060062193506447 0 0.034891324778924 0.0060062193506447 0.00015
          0.034891324778924 0.0060062193506447 0.0003 0.036505762613504 0.0061828104479004 0
          0.036505762613504 0.0061828104479004 0.00015 0.036505762613504 0.0061828104479004 0.0003
          0.038106577302032 0.0064084656000662 0 0.038106577302032 0.0064084656000662 0.00015
          0.038106577302032 0.0064084656000662 0.0003 0.039690480493944 0.0066821506685977 0
          0.039690480493944 0.0066821506685977 0.00015 0.039690480493944 0.0066821506685977 0.0003
          0.041254261342902 0.0070026114023471 0 0.041254261342902 0.0070026114023471 0.00015
          0.041254261342902 0.0070026114023471 0.0003 0.042794801226816 0.0073683791894058 0
          0.042794801226816 0.0073683791894058 0.00015 0.042794801226816 0.0073683791894058 0.0003
          0.044309088021254 0.0077777777777574 0 0.044309088021254 0.0077777777777574 0.00015
          0.044309088021254 0.0077777777777574 0.0003 0.033288318885596 0.0073493769917596 0
          0.033288318885596 0.0073493769917596 0.00015 0.033288318885596 0.0073493769917596 0.0003
          0.034921731971881 0.0075077741883091 0 0.034921731971881 0.0075077741883091 0.00015
          0.034921731971881 0.0075077741883091 0.0003 0.036542304597852 0.0077285130598789 0
          0.036542304597852 0.0077285130598789 0.00015 0.036542304597852 0.0077285130598789 0.0003
          0.03814584829126 0.0080105820000862 0 0.03814584829126 0.0080105820000862 0.00015
          0.03814584829126 0.0080105820000862 0.0003 0.039728252613893 0.0083526883357508 0
          0.039728252613893 0.0083526883357508 0.00015 0.039728252613893 0.0083526883357508 0.0003
          0.041285504007829 0.0087532642529377 0 0.041285504007829 0.0087532642529377 0.00015
          0.041285504007829 0.0087532642529377 0.0003 0.042813704195461 0.0092104739867613 0
          0.042813704195461 0.0092104739867613 0.00015 0.042813704195461 0.0092104739867613 0.0003
          0.044309088021254 0.0097222222222011 0 0.044309088021254 0.0097222222222011 0.00015
          0.044309088021254 0.0097222222222011 0.0003 0.031657595460571 0.0087048568522863 0
          0.031657595460571 0.0087048568522863 0.00015 0.031657595460571 0.0087048568522863 0.0003
          0.033310023195106 0.0088192523901195 0 0.033310023195106 0.0088192523901195 0.00015
          0.033310023195106 0.0088192523901195 0.0003 0.034952139164838 0.009009329025979 0
          0.034952139164838 0.009009329025979 0.00015 0.034952139164838 0.009009329025979 0.0003
          0.0365788465822 0.0092742156718627 0 0.0365788465822 0.0092742156718627 0.00015
          0.0365788465822 0.0092742156718627 0.0003 0.038185119280488 0.0096126984001116 0
          0.038185119280488 0.0096126984001116 0.00015 0.038185119280488 0.0096126984001116 0.0003
          0.039766024733842 0.010023226002909 0 0.039766024733842 0.010023226002909 0.00015
          0.039766024733842 0.010023226002909 0.0003 0.041316746672756 0.010503917103534 0
          0.041316746672756 0.010503917103534 0.00015 0.041316746672756 0.010503917103534 0.0003
          0.042832607164107 0.011052568784123 0 0.042832607164107 0.011052568784123 0.00015
          0.042832607164107 0.011052568784123 0.0003 0.044309088021254 0.011666666666651 0
          0.044309088021254 0.011666666666651 0.00015 0.044309088021254 0.011666666666651 0.0003
          0.031668878259163 0.010155666327672 0 0.031668878259163 0.010155666327672 0.00015
          0.031668878259163 0.010155666327672 0.0003 0.033331727504615 0.010289127788478 0
          0.033331727504615 0.010289127788478 0.00015 0.033331727504615 0.010289127788478 0.0003
          0.034982546357795 0.010510883863647 0 0.034982546357795 0.010510883863647 0.00015
          0.034982546357795 0.010510883863647 0.0003 0.036615388566549 0.010819918283845 0
          0.036615388566549 0.010819918283845 0.00015 0.036615388566549 0.010819918283845 0.0003
          0.038224390269716 0.011214814800136 0 0.038224390269716 0.011214814800136 0.00015
          0.038224390269716 0.011214814800136 0.0003 0.039803796853791 0.011693763670067 0
          0.039803796853791 0.011693763670067 0.00015 0.039803796853791 0.011693763670067 0.0003
          0.041347989337683 0.012254569954129 0 0.041347989337683 0.012254569954129 0.00015
          0.041347989337683 0.012254569954129 0.0003 0.042851510132752 0.012894663581483 0
          0.042851510132752 0.012894663581483 0.00015 0.042851510132752 0.012894663581483 0.0003
          0.044309088021254 0.0136111111111 0 0.044309088021254 0.0136111111111 0.00015
          0.044309088021254 0.0136111111111 0.0003 0.031680161057755 0.011606475803059 0
          0.031680161057755 0.011606475803059 0.00015 0.031680161057755 0.011606475803059 0.0003
          0.033353431814124 0.011759003186837 0 0.033353431814124 0.011759003186837 0.00015
          0.033353431814124 0.011759003186837 0.0003 0.035012953550752 0.012012438701317 0
          0.035012953550752 0.012012438701317 0.00015 0.035012953550752 0.012012438701317 0.0003
          0.036651930550897 0.012365620895829 0 0.036651930550897 0.012365620895829 0.00015
          0.036651930550897 0.012365620895829 0.0003 0.038263661258944 0.012816931200161 0
          0.038263661258944 0.012816931200161 0.00015 0.038263661258944 0.012816931200161 0.0003
          0.03984156897374 0.013364301337225 0 0.03984156897374 0.013364301337225 0.00015
          0.03984156897374 0.013364301337225 0.0003 0.04137923200261 0.014005222804725 0
          0.04137923200261 0.014005222804725 0.00015 0.04137923200261 0.014005222804725 0.0003
          0.042870413101398 0.014736758378844 0 0.042870413101398 0.014736758378844 0.00015
          0.042870413101398 0.014736758378844 0.0003 0.044309088021254 0.015555555555549 0
          0.044309088021254 0.015555555555549 0.00015 0.044309088021254 0.015555555555549 0.0003
          0.031691443856347 0.013057285278446 0 0.031691443856347 0.013057285278446 0.00015
          0.031691443856347 0.013057285278446 0.0003 0.033375136123633 0.013228878585196 0
          0.033375136123633 0.013228878585196 0.00015 0.033375136123633 0.013228878585196 0.0003
          0.035043360743709 0.013513993538986 0 0.035043360743709 0.013513993538986 0.00015
          0.035043360743709 0.013513993538986 0.0003 0.036688472535245 0.013911323507812 0
          0.036688472535245 0.013911323507812 0.00015 0.036688472535245 0.013911323507812 0.0003
          0.038302932248172 0.014419047600187 0 0.038302932248172 0.014419047600187 0.00015
          0.038302932248172 0.014419047600187 0.0003 0.039879341093689 0.015034839004384 0
          0.039879341093689 0.015034839004384 0.00015 0.039879341093689 0.015034839004384 0.0003
          0.041410474667538 0.015755875655322 0 0.041410474667538 0.015755875655322 0.00015
          0.041410474667538 0.015755875655322 0.0003 0.042889316070044 0.016578853176207 0
          0.042889316070044 0.016578853176207 0.00015 0.042889316070044 0.016578853176207 0.0003
          0.044309088021254 0.0175 0 0.044309088021254 0.0175 0.00015
          0.044309088021254 0.0175 0.0003 0.045420199132363 0 0
          0.045420199132363 0.0019444444444413 0 0.045420199132363 0 0.00015
          0.045420199132363 0.0019444444444413 0.00015 0.045420199132363 0 0.0003
          0.045420199132363 0.0019444444444413 0.0003 0.045420199132363 0.0038888888888803 0
          0.045420199132363 0.0038888888888803 0.00015 0.045420199132363 0.0038888888888803 0.0003
          0.045420199132363 0.0058333333333189 0 0.045420199132363 0.0058333333333189 0.00015
          0.045420199132363 0.0058333333333189 0.0003 0.045420199132363 0.0077777777777574 0
          0.045420199132363 0.0077777777777574 0.00015 0.045420199132363 0.0077777777777574 0.0003
          0.045420199132363 0.0097222222222011 0 0.045420199132363 0.0097222222222011 0.00015
          0.045420199132363 0.0097222222222011 0.0003 0.045420199132363 0.011666666666651 0
          0.045420199132363 0.011666666666651 0.00015 0.045420199132363 0.011666666666651 0.0003
          0.045420199132363 0.0136111111111 0 0.045420199132363 0.0136111111111 0.00015
          0.045420199132363 0.0136111111111 0.0003 0.045420199132363 0.015555555555549 0
          0.045420199132363 0.015555555555549 0.00015 0.045420199132363 0.015555555555549 0.0003
          0.045420199132363 0.0175 0 0.045420199132363 0.0175 0.00015
          0.045420199132363 0.0175 0.0003 0.046531310243475 0 0
          0.046531310243475 0.0019444444444413 0 0.046531310243475 0 0.00015
          0.046531310243475 0.0019444444444413 0.00015 0.046531310243475 0 0.0003
          0.046531310243475 0.0019444444444413 0.0003 0.046531310243475 0.0038888888888803 0
          0.046531310243475 0.0038888888888803 0.00015 0.046531310243475 0.0038888888888803 0.0003
          0.046531310243475 0.0058333333333189 0 0.046531310243475 0.0058333333333189 0.00015
          0.046531310243475 0.0058333333333189 0.0003 0.046531310243475 0.0077777777777574 0
          0.046531310243475 0.0077777777777574 0.00015 0.046531310243475 0.0077777777777574 0.0003
          0.046531310243475 0.0097222222222011 0 0.046531310243475 0.0097222222222011 0.00015
          0.046531310243475 0.0097222222222011 0.0003 0.046531310243475 0.011666666666651 0
          0.046531310243475 0.011666666666651 0.00015 0.046531310243475 0.011666666666651 0.0003
          0.046531310243475 0.0136111111111 0 0.046531310243475 0.0136111111111 0.00015
          0.046531310243475 0.0136111111111 0.0003 0.046531310243475 0.015555555555549 0
          0.046531310243475 0.015555555555549 0.00015 0.046531310243475 0.015555555555549 0.0003
          0.046531310243475 0.0175 0 0.046531310243475 0.0175 0.00015
          0.046531310243475 0.0175 0.0003 0.04764242135458 0 0
          0.04764242135458 0.0019444444444413 0 0.04764242135458 0 0.00015
          0.04764242135458 0.0019444444444413 0.00015 0.04764242135458 0 0.0003
          0.04764242135458 0.0019444444444413 0.0003 0.04764242135458 0.0038888888888803 0
          0.04764242135458 0.0038888888888803 0.00015 0.04764242135458 0.0038888888888803 0.0003
          0.04764242135458 0.0058333333333189 0 0.04764242135458 0.0058333333333189 0.00015
          0.04764242135458 0.0058333333333189 0.0003 0.04764242135458 0.0077777777777574 0
          0.04764242135458 0.0077777777777574 0.00015 0.04764242135458 0.0077777777777574 0.0003
          0.04764242135458 0.0097222222222011 0 0.04764242135458 0.0097222222222011 0.00015
          0.04764242135458 0.0097222222222011 0.0003 0.04764242135458 0.011666666666651 0
          0.04764242135458 0.011666666666651 0.00015 0.04764242135458 0.011666666666651 0.0003
          0.04764242135458 0.0136111111111 0 0.04764242135458 0.0136111111111 0.00015
          0.04764242135458 0.0136111111111 0.0003 0.04764242135458 0.015555555555549 0
          0.04764242135458 0.015555555555549 0.00015 0.04764242135458 0.015555555555549 0.0003
          0.04764242135458 0.0175 0 0.04764242135458 0.0175 0.00015
          0.04764242135458 0.0175 0.0003 0.048753532465692 0 0
          0.048753532465692 0.0019444444444413 0 0.048753532465692 0 0.00015
          0.048753532465692 0.0019444444444413 0.00015 0.048753532465692 0 0.0003
          0.048753532465692 0.0019444444444413 0.0003 0.048753532465692 0.0038888888888803 0
          0.048753532465692 0.0038888888888803 0.00015 0.048753532465692 0.0038888888888803 0.0003
          0.048753532465692 0.0058333333333189 0 0.048753532465692 0.0058333333333189 0.00015
          0.048753532465692 0.0058333333333189 0.0003 0.048753532465692 0.0077777777777574 0
          0.048753532465692 0.0077777777777574 0.00015 0.048753532465692 0.0077777777777574 0.0003
          0.048753532465692 0.0097222222222011 0 0.048753532465692 0.0097222222222011 0.00015
          0.048753532465692 0.0097222222222011 0.0003 0.048753532465692 0.011666666666651 0
          0.048753532465692 0.011666666666651 0.00015 0.048753532465692 0.011666666666651 0.0003
          0.048753532465692 0.0136111111111 0 0.048753532465692 0.0136111111111 0.00015
          0.048753532465692 0.0136111111111 0.0003 0.048753532465692 0.015555555555549 0
          0.048753532465692 0.015555555555549 0.00015 0.048753532465692 0.015555555555549 0.0003
          0.048753532465692 0.0175 0 0.048753532465692 0.0175 0.00015
          0.048753532465692 0.0175 0.0003 0.0498646435768 0 0
          0.0498646435768 0.0019444444444413 0 0.0498646435768 0 0.00015
          0.0498646435768 0.0019444444444413 0.00015 0.0498646435768 0 0.0003
          0.0498646435768 0.0019444444444413 0.0003 0.0498646435768 0.0038888888888803 0
          0.0498646435768 0.0038888888888803 0.00015 0.0498646435768 0.0038888888888803 0.0003
          0.0498646435768 0.0058333333333189 0 0.0498646435768 0.0058333333333189 0.00015
          0.0498646435768 0.0058333333333189 0.0003 0.0498646435768 0.0077777777777574 0
          0.0498646435768 0.0077777777777574 0.00015 0.0498646435768 0.0077777777777574 0.0003
          0.0498646435768 0.0097222222222011 0 0.0498646435768 0.0097222222222011 0.00015
          0.0498646435768 0.0097222222222011 0.0003 0.0498646435768 0.011666666666651 0
          0.0498646435768 0.011666666666651 0.00015 0.0498646435768 0.011666666666651 0.0003
          0.0498646435768 0.0136111111111 0 0.0498646435768 0.0136111111111 0.00015
          0.0498646435768 0.0136111111111 0.0003 0.0498646435768 0.015555555555549 0
          0.0498646435768 0.015555555555549 0.00015 0.0498646435768 0.015555555555549 0.0003
          0.0498646435768 0.0175 0 0.0498646435768 0.0175 0.00015
          0.0498646435768 0.0175 0.0003 0.050975754687912 0 0
          0.050975754687912 0.0019444444444413 0 0.050975754687912 0 0.00015
          0.050975754687912 0.0019444444444413 0.00015 0.050975754687912 0 0.0003
          0.050975754687912 0.0019444444444413 0.0003 0.050975754687912 0.0038888888888803 0
          0.050975754687912 0.0038888888888803 0.00015 0.050975754687912 0.0038888888888803 0.0003
          0.050975754687912 0.0058333333333189 0 0.050975754687912 0.0058333333333189 0.00015
          0.050975754687912 0.0058333333333189 0.0003 0.050975754687912 0.0077777777777574 0
          0.050975754687912 0.0077777777777574 0.00015 0.050975754687912 0.0077777777777574 0.0003
          0.050975754687912 0.0097222222222011 0 0.050975754687912 0.0097222222222011 0.00015
          0.050975754687912 0.0097222222222011 0.0003 0.050975754687912 0.011666666666651 0
          0.050975754687912 0.011666666666651 0.00015 0.050975754687912 0.011666666666651 0.0003
          0.050975754687912 0.0136111111111 0 0.050975754687912 0.0136111111111 0.00015
          0.050975754687912 0.0136111111111 0.0003 0.050975754687912 0.015555555555549 0
          0.050975754687912 0.015555555555549 0.00015 0.050975754687912 0.015555555555549 0.0003
          0.050975754687912 0.0175 0 0.050975754687912 0.0175 0.00015
          0.050975754687912 0.0175 0.0003 0.052086865799025 0 0
          0.052086865799025 0.0019444444444413 0 0.052086865799025 0 0.00015
          0.052086865799025 0.0019444444444413 0.00015 0.052086865799025 0 0.0003
          0.052086865799025 0.0019444444444413 0.0003 0.052086865799025 0.0038888888888803 0
          0.052086865799025 0.0038888888888803 0.00015 0.052086865799025 0.0038888888888803 0.0003
          0.052086865799025 0.0058333333333189 0 0.052086865799025 0.0058333333333189 0.00015
          0.052086865799025 0.0058333333333189 0.0003 0.052086865799025 0.0077777777777574 0
          0.052086865799025 0.0077777777777574 0.00015 0.052086865799025 0.0077777777777574 0.0003
          0.052086865799025 0.0097222222222011 0 0.052086865799025 0.0097222222222011 0.00015
          0.052086865799025 0.0097222222222011 0.0003 0.052086865799025 0.011666666666651 0
          0.052086865799025 0.011666666666651 0.00015 0.052086865799025 0.011666666666651 0.0003
          0.052086865799025 0.0136111111111 0 0.052086865799025 0.0136111111111 0.00015
          0.052086865799025 0.0136111111111 0.0003 0.052086865799025 0.015555555555549 0
          0.052086865799025 0.015555555555549 0.00015 0.052086865799025 0.015555555555549 0.0003
          0.052086865799025 0.0175 0 0.052086865799025 0.0175 0.00015
          0.052086865799025 0.0175 0.0003 0.05319797691014 0 0
          0.05319797691014 0.0019444444444413 0 0.05319797691014 0 0.00015
          0.05319797691014 0.0019444444444413 0.00015 0.05319797691014 0 0.0003
          0.05319797691014 0.0019444444444413 0.0003 0.05319797691014 0.0038888888888803 0
          0.05319797691014 0.0038888888888803 0.00015 0.05319797691014 0.0038888888888803 0.0003
          0.05319797691014 0.0058333333333189 0 0.05319797691014 0.0058333333333189 0.00015
          0.05319797691014 0.0058333333333189 0.0003 0.05319797691014 0.0077777777777574 0
          0.05319797691014 0.0077777777777574 0.00015 0.05319797691014 0.0077777777777574 0.0003
          0.05319797691014 0.0097222222222011 0 0.05319797691014 0.0097222222222011 0.00015
          0.05319797691014 0.0097222222222011 0.0003 0.05319797691014 0.011666666666651 0
          0.05319797691014 0.011666666666651 0.00015 0.05319797691014 0.011666666666651 0.0003
          0.05319797691014 0.0136111111111 0 0.05319797691014 0.0136111111111 0.00015
          0.05319797691014 0.0136111111111 0.0003 0.05319797691014 0.015555555555549 0
          0.05319797691014 0.015555555555549 0.00015 0.05319797691014 0.015555555555549 0.0003
          0.05319797691014 0.0175 0 0.05319797691014 0.0175 0.00015
          0.05319797691014 0.0175 0.0003 0.054309088021254 0 0
          0.054309088021254 0.0019444444444413 0 0.054309088021254 0 0.00015
          0.054309088021254 0.0019444444444413 0.00015 0.054309088021254 0 0.0003
          0.054309088021254 0.0019444444444413 0.0003 0.054309088021254 0.0038888888888803 0
          0.054309088021254 0.0038888888888803 0.00015 0.054309088021254 0.0038888888888803 0.0003
          0.054309088021254 0.0058333333333189 0 0.054309088021254 0.0058333333333189 0.00015
          0.054309088021254 0.0058333333333189 0.0003 0.054309088021254 0.0077777777777574 0
          0.054309088021254 0.0077777777777574 0.00015 0.054309088021254 0.0077777777777574 0.0003
          0.054309088021254 0.0097222222222011 0 0.054309088021254 0.0097222222222011 0.00015
          0.054309088021254 0.0097222222222011 0.0003 0.054309088021254 0.011666666666651 0
          0.054309088021254 0.011666666666651 0.00015 0.054309088021254 0.011666666666651 0.0003
          0.054309088021254 0.0136111111111 0 0.054309088021254 0.0136111111111 0.00015
          0.054309088021254 0.0136111111111 0.0003 0.054309088021254 0.015555555555549 0
          0.054309088021254 0.015555555555549 0.00015 0.054309088021254 0.015555555555549 0.0003
          0.054309088021254 0.0175 0 0.054309088021254 0.0175 0.00015
          0.054309088021254 0.0175 0.0003
          <InformationKey name="L2_NORM_RANGE" location="vtkDataArray" length="2">
            <Value index="0">
              0.019949534491
            </Value>
            <Value index="1">
              0.057059767277
            </Value>
          </InformationKey>
        </DataArray>
      </Points>
      <Cells>
        <DataArray type="Int64" Name="connectivity" format="ascii" RangeMin="0" RangeMax="818">
          0 1 2 3 4 5
          6 7 4 5 6 7
          8 9 10 11 12 13
          14 15 16 17 18 19
          16 17 18 19 20 21
          22 23 24 0 3 25
          26 4 7 27 26 4
          7 27 28 8 11 29
          30 31 32 14 33 34
          35 18 33 34 35 18
          36 37 38 22 39 40
          41 42 43 44 45 46
          43 44 45 46 47 48
          49 50 51 52 53 54
          55 56 57 58 55 56
          57 58 59 60 61 62
          13 63 64 65 17 66
          67 68 17 66 67 68
          21 69 70 71 0 24
          32 72 4 26 35 73
          4 26 35 73 8 28
          38 74 24 15 14 32
          26 19 18 35 26 19
          18 35 28 23 22 38
          13 65 30 14 17 68
          33 18 17 68 33 18
          21 71 36 22 93 94
          95 96 97 98 99 100
          97 98 99 100 101 102
          103 104 72 32 31 81
          73 35 34 83 73 35
          34 83 74 38 37 85
          53 40 39 54 57 44
          43 58 57 44 43 58
          61 48 47 62 31 30
          111 82 34 33 112 84
          34 33 112 84 37 36
          113 86 12 15 114 115
          16 19 116 117 16 19
          116 117 20 23 118 119
          120 121 122 123 124 125
          126 127 124 125 126 127
          128 129 130 131 64 76
          75 65 67 78 77 68
          67 78 77 68 70 80
          79 71 132 133 54 39
          134 135 58 43 134 135
          58 43 136 137 62 47
          53 141 41 40 57 142
          45 44 57 142 45 44
          61 143 49 48 111 30
          65 75 112 33 68 77
          112 33 68 77 113 36
          71 79 54 150 151 51
          58 152 153 55 58 152
          153 55 62 154 155 59
          156 122 121 157 158 126
          125 159 158 126 125 159
          160 130 129 161 162 88
          108 138 163 90 109 139
          163 90 109 139 164 92
          110 140 168 87 88 162
          169 89 90 163 169 89
          90 163 170 91 92 164
          121 165 171 157 125 166
          172 159 125 166 172 159
          129 167 173 161 132 39
          42 183 134 43 46 184
          134 43 46 184 136 47
          50 185 186 96 95 187
          188 100 99 189 188 100
          99 189 190 104 103 191
          192 193 122 156 194 195
          126 158 194 195 126 158
          196 197 130 160 183 42
          96 186 184 46 100 188
          184 46 100 188 185 50
          104 190 151 150 198 199
          153 152 200 201 153 152
          200 201 155 154 202 203
          174 145 144 204 175 147
          146 205 175 147 146 205
          176 149 148 206 193 192
          95 204 195 194 99 205
          195 194 99 205 197 196
          103 206 123 122 193 210
          127 126 195 211 127 126
          195 211 131 130 197 212
          93 96 42 41 97 100
          46 45 97 100 46 45
          101 104 50 49 213 214
          87 168 215 216 89 169
          215 216 89 169 217 218
          91 170 178 219 220 177
          180 221 222 179 180 221
          222 179 182 223 224 181
          225 141 226 227 228 142
          229 230 228 142 229 230
          231 143 232 233 120 105
          165 121 124 106 166 125
          124 106 166 125 128 107
          167 129 210 193 204 144
          211 195 205 146 211 195
          205 146 212 197 206 148
          219 227 234 220 221 230
          235 222 221 230 235 222
          223 233 236 224 94 174
          204 95 98 175 205 99
          98 175 205 99 102 176
          206 103 192 156 237 238
          194 158 239 240 194 158
          239 240 196 160 241 242
          243 2 1 244 245 6
          5 246 245 6 5 246
          247 10 9 248 227 226
          249 234 230 229 250 235
          230 229 250 235 233 232
          251 236 238 187 95 192
          240 189 99 194 240 189
          99 194 242 191 103 196
          252 207 87 214 253 208
          89 216 253 208 89 216
          254 209 91 218 187 255
          115 186 189 256 117 188
          189 256 117 188 191 257
          119 190 94 162 138 174
          98 163 139 175 98 163
          139 175 102 164 140 176
          64 63 237 171 67 66
          239 172 67 66 239 172
          70 69 241 173 41 213
          168 93 45 215 169 97
          45 215 169 97 49 217
          170 101 2 198 133 3
          6 200 135 7 6 200
          135 7 10 202 137 11
          25 114 15 24 27 116
          19 26 27 116 19 26
          29 118 23 28 114 183
          186 115 116 184 188 117
          116 184 188 117 118 185
          190 119 51 151 258 259
          55 153 260 261 55 153
          260 261 59 155 262 263
          226 52 264 249 229 56
          265 250 229 56 265 250
          232 60 266 251 198 150
          54 133 200 152 58 135
          200 152 58 135 202 154
          62 137 64 171 165 76
          67 172 166 78 67 172
          166 78 70 173 167 80
          52 51 259 264 56 55
          261 265 56 55 261 265
          60 59 263 266 171 237
          156 157 172 239 158 159
          172 239 158 159 173 241
          160 161 252 214 213 225
          253 216 215 228 253 216
          215 228 254 218 217 231
          151 199 267 258 153 201
          268 260 153 201 268 260
          155 203 269 262 63 13
          12 270 66 17 16 271
          66 17 16 271 69 21
          20 272 270 255 187 238
          271 256 189 240 271 256
          189 240 272 257 191 242
          199 198 2 243 201 200
          6 245 201 200 6 245
          203 202 10 247 225 213
          41 141 228 215 45 142
          228 215 45 142 231 217
          49 143 52 226 141 53
          56 229 142 57 56 229
          142 57 60 232 143 61
          25 132 183 114 27 134
          184 116 27 134 184 116
          29 136 185 118 252 225
          227 219 253 228 230 221
          253 228 230 221 254 231
          233 223 219 178 207 252
          221 180 208 253 221 180
          208 253 223 182 209 254
          25 3 133 132 27 7
          135 134 27 7 135 134
          29 11 137 136 93 168
          162 94 97 169 163 98
          97 169 163 98 101 170
          164 102 270 12 115 255
          271 16 117 256 271 16
          117 256 272 20 119 257
          199 243 273 267 201 245
          274 268 201 245 274 268
          203 247 275 269 63 270
          238 237 66 271 240 239
          66 271 240 239 69 272
          242 241 243 244 276 273
          245 246 277 274 245 246
          277 274 247 248 278 275
          276 244 1 279 277 246
          5 280 277 246 5 280
          278 248 9 281 285 72
          81 282 286 73 83 283
          286 73 83 283 287 74
          85 284 288 0 72 285
          289 4 73 286 289 4
          73 286 290 8 74 287
          291 1 0 288 292 5
          4 289 292 5 4 289
          293 9 8 290 294 279
          1 291 295 280 5 292
          295 280 5 292 296 281
          9 293 303 297 298 304
          305 299 300 306 305 299
          300 306 307 301 302 308
          309 303 304 310 311 305
          306 312 311 305 306 312
          313 307 308 314 315 309
          310 316 317 311 312 318
          317 311 312 318 319 313
          314 320 321 315 316 322
          323 317 318 324 323 317
          318 324 325 319 320 326
          327 321 322 328 329 323
          324 330 329 323 324 330
          331 325 326 332 333 327
          328 334 335 329 330 336
          335 329 330 336 337 331
          332 338 339 333 334 340
          341 335 336 342 341 335
          336 342 343 337 338 344
          348 345 297 303 349 346
          299 305 349 346 299 305
          350 347 301 307 351 348
          303 309 352 349 305 311
          352 349 305 311 353 350
          307 313 354 351 309 315
          355 352 311 317 355 352
          311 317 356 353 313 319
          357 354 315 321 358 355
          317 323 358 355 317 323
          359 356 319 325 360 357
          321 327 361 358 323 329
          361 358 323 329 362 359
          325 331 363 360 327 333
          364 361 329 335 364 361
          329 335 365 362 331 337
          366 363 333 339 367 364
          335 341 367 364 335 341
          368 365 337 343 372 369
          345 348 373 370 346 349
          373 370 346 349 374 371
          347 350 375 372 348 351
          376 373 349 352 376 373
          349 352 377 374 350 353
          378 375 351 354 379 376
          352 355 379 376 352 355
          380 377 353 356 381 378
          354 357 382 379 355 358
          382 379 355 358 383 380
          356 359 384 381 357 360
          385 382 358 361 385 382
          358 361 386 383 359 362
          387 384 360 363 388 385
          361 364 388 385 361 364
          389 386 362 365 390 387
          363 366 391 388 364 367
          391 388 364 367 392 389
          365 368 396 393 369 372
          397 394 370 373 397 394
          370 373 398 395 371 374
          399 396 372 375 400 397
          373 376 400 397 373 376
          401 398 374 377 402 399
          375 378 403 400 376 379
          403 400 376 379 404 401
          377 380 405 402 378 381
          406 403 379 382 406 403
          379 382 407 404 380 383
          408 405 381 384 409 406
          382 385 409 406 382 385
          410 407 383 386 411 408
          384 387 412 409 385 388
          412 409 385 388 413 410
          386 389 414 411 387 390
          415 412 388 391 415 412
          388 391 416 413 389 392
          420 417 393 396 421 418
          394 397 421 418 394 397
          422 419 395 398 423 420
          396 399 424 421 397 400
          424 421 397 400 425 422
          398 401 426 423 399 402
          427 424 400 403 427 424
          400 403 428 425 401 404
          429 426 402 405 430 427
          403 406 430 427 403 406
          431 428 404 407 432 429
          405 408 433 430 406 409
          433 430 406 409 434 431
          407 410 435 432 408 411
          436 433 409 412 436 433
          409 412 437 434 410 413
          438 435 411 414 439 436
          412 415 439 436 412 415
          440 437 413 416 447 444
          417 420 448 445 418 421
          448 445 418 421 449 446
          419 422 450 447 420 423
          451 448 421 424 451 448
          421 424 452 449 422 425
          453 450 423 426 454 451
          424 427 454 451 424 427
          455 452 425 428 456 453
          426 429 457 454 427 430
          457 454 427 430 458 455
          428 431 459 456 429 432
          460 457 430 433 460 457
          430 433 461 458 431 434
          462 459 432 435 463 460
          433 436 463 460 433 436
          464 461 434 437 465 462
          435 438 466 463 436 439
          466 463 436 439 467 464
          437 440 471 468 441 444
          472 469 442 445 472 469
          442 445 473 470 443 446
          474 471 444 447 475 472
          445 448 475 472 445 448
          476 473 446 449 477 474
          447 450 478 475 448 451
          478 475 448 451 479 476
          449 452 480 477 450 453
          481 478 451 454 481 478
          451 454 482 479 452 455
          483 480 453 456 484 481
          454 457 484 481 454 457
          485 482 455 458 486 483
          456 459 487 484 457 460
          487 484 457 460 488 485
          458 461 489 486 459 462
          490 487 460 463 490 487
          460 463 491 488 461 464
          492 489 462 465 493 490
          463 466 493 490 463 466
          494 491 464 467 498 495
          468 471 499 496 469 472
          499 496 469 472 500 497
          470 473 501 498 471 474
          502 499 472 475 502 499
          472 475 503 500 473 476
          504 501 474 477 505 502
          475 478 505 502 475 478
          506 503 476 479 507 504
          477 480 508 505 478 481
          508 505 478 481 509 506
          479 482 510 507 480 483
          511 508 481 484 511 508
          481 484 512 509 482 485
          513 510 483 486 514 511
          484 487 514 511 484 487
          515 512 485 488 516 513
          486 489 517 514 487 490
          517 514 487 490 518 515
          488 491 519 516 489 492
          520 517 490 493 520 517
          490 493 521 518 491 494
          525 522 495 498 526 523
          496 499 526 523 496 499
          527 524 497 500 528 525
          498 501 529 526 499 502
          529 526 499 502 530 527
          500 503 531 528 501 504
          532 529 502 505 532 529
          502 505 533 530 503 506
          534 531 504 507 535 532
          505 508 535 532 505 508
          536 533 506 509 537 534
          507 510 538 535 508 511
          538 535 508 511 539 536
          509 512 540 537 510 513
          541 538 511 514 541 538
          511 514 542 539 512 515
          543 540 513 516 544 541
          514 517 544 541 514 517
          545 542 515 518 546 543
          516 519 547 544 517 520
          547 544 517 520 548 545
          518 521 340 549 550 339
          342 551 552 341 342 551
          552 341 344 553 554 343
          339 550 555 366 341 552
          556 367 341 552 556 367
          343 554 557 368 366 555
          558 390 367 556 559 391
          367 556 559 391 368 557
          560 392 390 558 561 414
          391 559 562 415 391 559
          562 415 392 560 563 416
          414 561 564 438 415 562
          565 439 415 562 565 439
          416 563 566 440 438 564
          567 465 439 565 568 466
          439 565 568 466 440 566
          569 467 465 567 570 492
          466 568 571 493 466 568
          571 493 467 569 572 494
          492 570 573 519 493 571
          574 520 493 571 574 520
          494 572 575 521 519 573
          576 546 520 574 577 547
          520 574 577 547 521 575
          578 548 549 579 580 550
          551 581 582 552 551 581
          582 552 553 583 584 554
          550 580 585 555 552 582
          586 556 552 582 586 556
          554 584 587 557 555 585
          588 558 556 586 589 559
          556 586 589 559 557 587
          590 560 558 588 591 561
          559 589 592 562 559 589
          592 562 560 590 593 563
          561 591 594 564 562 592
          595 565 562 592 595 565
          563 593 596 566 564 594
          597 567 565 595 598 568
          565 595 598 568 566 596
          599 569 567 597 600 570
          568 598 601 571 568 598
          601 571 569 599 602 572
          570 600 603 573 571 601
          604 574 571 601 604 574
          572 602 605 575 573 603
          606 576 574 604 607 577
          574 604 607 577 575 605
          608 578 579 609 610 580
          581 611 612 582 581 611
          612 582 583 613 614 584
          580 610 615 585 582 612
          616 586 582 612 616 586
          584 614 617 587 585 615
          618 588 586 616 619 589
          586 616 619 589 587 617
          620 590 588 618 621 591
          589 619 622 592 589 619
          622 592 590 620 623 593
          591 621 624 594 592 622
          625 595 592 622 625 595
          593 623 626 596 594 624
          627 597 595 625 628 598
          595 625 628 598 596 626
          629 599 597 627 630 600
          598 628 631 601 598 628
          631 601 599 629 632 602
          600 630 633 603 601 631
          634 604 601 631 634 604
          602 632 635 605 603 633
          636 606 604 634 637 607
          604 634 637 607 605 635
          638 608 609 639 640 610
          611 641 642 612 611 641
          642 612 613 643 644 614
          610 640 645 615 612 642
          646 616 612 642 646 616
          614 644 647 617 615 645
          648 618 616 646 649 619
          616 646 649 619 617 647
          650 620 618 648 651 621
          619 649 652 622 619 649
          652 622 620 650 653 623
          621 651 654 624 622 652
          655 625 622 652 655 625
          623 653 656 626 624 654
          657 627 625 655 658 628
          625 655 658 628 626 656
          659 629 627 657 660 630
          628 658 661 631 628 658
          661 631 629 659 662 632
          630 660 663 633 631 661
          664 634 631 661 664 634
          632 662 665 635 633 663
          666 636 634 664 667 637
          634 664 667 637 635 665
          668 638 639 669 670 640
          641 671 672 642 641 671
          672 642 643 673 674 644
          640 670 675 645 642 672
          676 646 642 672 676 646
          644 674 677 647 645 675
          678 648 646 676 679 649
          646 676 679 649 647 677
          680 650 648 678 681 651
          649 679 682 652 649 679
          682 652 650 680 683 653
          651 681 684 654 652 682
          685 655 652 682 685 655
          653 683 686 656 654 684
          687 657 655 685 688 658
          655 685 688 658 656 686
          689 659 657 687 690 660
          658 688 691 661 658 688
          691 661 659 689 692 662
          660 690 693 663 661 691
          694 664 661 691 694 664
          662 692 695 665 663 693
          696 666 664 694 697 667
          664 694 697 667 665 695
          698 668 669 699 700 670
          671 701 702 672 671 701
          702 672 673 703 704 674
          670 700 705 675 672 702
          706 676 672 702 706 676
          674 704 707 677 675 705
          708 678 676 706 709 679
          676 706 709 679 677 707
          710 680 678 708 711 681
          679 709 712 682 679 709
          712 682 680 710 713 683
          681 711 714 684 682 712
          715 685 682 712 715 685
          683 713 716 686 684 714
          717 687 685 715 718 688
          685 715 718 688 686 716
          719 689 687 717 720 690
          688 718 721 691 688 718
          721 691 689 719 722 692
          690 720 723 693 691 721
          724 694 691 721 724 694
          692 722 725 695 693 723
          726 696 694 724 727 697
          694 724 727 697 695 725
          728 698 699 729 730 700
          701 731 732 702 701 731
          732 702 703 733 734 704
          700 730 735 705 702 732
          736 706 702 732 736 706
          704 734 737 707 705 735
          738 708 706 736 739 709
          706 736 739 709 707 737
          740 710 708 738 741 711
          709 739 742 712 709 739
          742 712 710 740 743 713
          711 741 744 714 712 742
          745 715 712 742 745 715
          713 743 746 716 714 744
          747 717 715 745 748 718
          715 745 748 718 716 746
          749 719 717 747 750 720
          718 748 751 721 718 748
          751 721 719 749 752 722
          720 750 753 723 721 751
          754 724 721 751 754 724
          722 752 755 725 723 753
          756 726 724 754 757 727
          724 754 757 727 725 755
          758 728 729 759 760 730
          731 761 762 732 731 761
          762 732 733 763 764 734
          730 760 765 735 732 762
          766 736 732 762 766 736
          734 764 767 737 735 765
          768 738 736 766 769 739
          736 766 769 739 737 767
          770 740 738 768 771 741
          739 769 772 742 739 769
          772 742 740 770 773 743
          741 771 774 744 742 772
          775 745 742 772 775 745
          743 773 776 746 744 774
          777 747 745 775 778 748
          745 775 778 748 746 776
          779 749 747 777 780 750
          748 778 781 751 748 778
          781 751 749 779 782 752
          750 780 783 753 751 781
          784 754 751 781 784 754
          752 782 785 755 753 783
          786 756 754 784 787 757
          754 784 787 757 755 785
          788 758 759 789 790 760
          761 791 792 762 761 791
          792 762 763 793 794 764
          760 790 795 765 762 792
          796 766 762 792 796 766
          764 794 797 767 765 795
          798 768 766 796 799 769
          766 796 799 769 767 797
          800 770 768 798 801 771
          769 799 802 772 769 799
          802 772 770 800 803 773
          771 801 804 774 772 802
          805 775 772 802 805 775
          773 803 806 776 774 804
          807 777 775 805 808 778
          775 805 808 778 776 806
          809 779 777 807 810 780
          778 808 811 781 778 808
          811 781 779 809 812 782
          780 810 813 783 781 811
          814 784 781 811 814 784
          782 812 815 785 783 813
          816 786 784 814 817 787
          784 814 817 787 785 815
          818 788
        </DataArray>
        <DataArray type="Int64" Name="offsets" format="ascii" RangeMin="8" RangeMax="3632">
          8 16 24 32 40 48
          56 64 72 80 88 96
          104 112 120 128 136 144
          152 160 168 176 184 192
          200 208 216 224 232 240
          248 256 264 272 280 288
          296 304 312 320 328 336
          344 352 360 368 376 384
          392 400 408 416 424 432
          440 448 456 464 472 480
          488 496 504 512 520 528
          536 544 552 560 568 576
          584 592 600 608 616 624
          632 640 648 656 664 672
          680 688 696 704 712 720
          728 736 744 752 760 768
          776 784 792 800 808 816
          824 832 840 848 856 864
          872 880 888 896 904 912
          920 928 936 944 952 960
          968 976 984 992 1000 1008
          1016 1024 1032 1040 1048 1056
          1064 1072 1080 1088 1096 1104
          1112 1120 1128 1136 1144 1152
          1160 1168 1176 1184 1192 1200
          1208 1216 1224 1232 1240 1248
          1256 1264 1272 1280 1288 1296
          1304 1312 1320 1328 1336 1344
          1352 1360 1368 1376 1384 1392
          1400 1408 1416 1424 1432 1440
          1448 1456 1464 1472 1480 1488
          1496 1504 1512 1520 1528 1536
          1544 1552 1560 1568 1576 1584
          1592 1600 1608 1616 1624 1632
          1640 1648 1656 1664 1672 1680
          1688 1696 1704 1712 1720 1728
          1736 1744 1752 1760 1768 1776
          1784 1792 1800 1808 1816 1824
          1832 1840 1848 1856 1864 1872
          1880 1888 1896 1904 1912 1920
          1928 1936 1944 1952 1960 1968
          1976 1984 1992 2000 2008 2016
          2024 2032 2040 2048 2056 2064
          2072 2080 2088 2096 2104 2112
          2120 2128 2136 2144 2152 2160
          2168 2176 2184 2192 2200 2208
          2216 2224 2232 2240 2248 2256
          2264 2272 2280 2288 2296 2304
          2312 2320 2328 2336 2344 2352
          2360 2368 2376 2384 2392 2400
          2408 2416 2424 2432 2440 2448
          2456 2464 2472 2480 2488 2496
          2504 2512 2520 2528 2536 2544
          2552 2560 2568 2576 2584 2592
          2600 2608 2616 2624 2632 2640
          2648 2656 2664 2672 2680 2688
          2696 2704 2712 2720 2728 2736
          2744 2752 2760 2768 2776 2784
          2792 2800 2808 2816 2824 2832
          2840 2848 2856 2864 2872 2880
          2888 2896 2904 2912 2920 2928
          2936 2944 2952 2960 2968 2976
          2984 2992 3000 3008 3016 3024
          3032 3040 3048 3056 3064 3072
          3080 3088 3096 3104 3112 3120
          3128 3136 3144 3152 3160 3168
          3176 3184 3192 3200 3208 3216
          3224 3232 3240 3248 3256 3264
          3272 3280 3288 3296 3304 3312
          3320 3328 3336 3344 3352 3360
          3368 3376 3384 3392 3400 3408
          3416 3424 3432 3440 3448 3456
          3464 3472 3480 3488 3496 3504
          3512 3520 3528 3536 3544 3552
          3560 3568 3576 3584 3592 3600
          3608 3616 3624 3632
        </DataArray>
        <DataArray type="UInt8" Name="types" format="ascii" RangeMin="12" RangeMax="12">
          12 12 12 12 12 12
          12 12 12 12 12 12
          12 12 12 12 12 12
          12 12 12 12 12 12
          12 12 12 12 12 12
          12 12 12 12 12 12
          12 12 12 12 12 12
          12 12 12 12 12 12
          12 12 12 12 12 12
          12 12 12 12 12 12
          12 12 12 12 12 12
          12 12 12 12 12 12
          12 12 12 12 12 12
          12 12 12 12 12 12
          12 12 12 12 12 12
          12 12 12 12 12 12
          12 12 12 12 12 12
          12 12 12 12 12 12
          12 12 12 12 12 12
          12 12 12 12 12 12
          12 12 12 12 12 12
          12 12 12 12 12 12
          12 12 12 12 12 12
          12 12 12 12 12 12
          12 12 12 12 12 12
          12 12 12 12 12 12
          12 12 12 12 12 12
          12 12 12 12 12 12
          12 12 12 12 12 12
          12 12 12 12 12 12
          12 12 12 12 12 12
          12 12 12 12 12 12
          12 12 12 12 12 12
          12 12 12 12 12 12
          12 12 12 12 12 12
          12 12 12 12 12 12
          12 12 12 12 12 12
          12 12 12 12 12 12
          12 12 12 12 12 12
          12 12 12 12 12 12
          12 12 12 12 12 12
          12 12 12 12 12 12
          12 12 12 12 12 12
          12 12 12 12 12 12
          12 12 12 12 12 12
          12 12 12 12 12 12
          12 12 12 12 12 12
          12 12 12 12 12 12
          12 12 12 12 12 12
          12 12 12 12 12 12
          12 12 12 12 12 12
          12 12 12 12 12 12
          12 12 12 12 12 12
          12 12 12 12 12 12
          12 12 12 12 12 12
          12 12 12 12 12 12
          12 12 12 12 12 12
          12 12 12 12 12 12
          12 12 12 12 12 12
          12 12 12 12 12 12
          12 12 12 12 12 12
          12 12 12 12 12 12
          12 12 12 12 12 12
          12 12 12 12 12 12
          12 12 12 12 12 12
          12 12 12 12 12 12
          12 12 12 12 12 12
          12 12 12 12 12 12
          12 12 12 12 12 12
          12 12 12 12 12 12
          12 12 12 12 12 12
          12 12 12 12 12 12
          12 12 12 12 12 12
          12 12 12 12 12 12
          12 12 12 12 12 12
          12 12 12 12
        </DataArray>
      </Cells>
    </Piece>
  </UnstructuredGrid>
</VTKFile>
