<?xml version="1.0"?>
<VTKFile type="UnstructuredGrid" version="0.1" byte_order="LittleEndian" header_type="UInt32" compressor="vtkZLibDataCompressor">
  <UnstructuredGrid>
    <Piece NumberOfPoints="798" NumberOfCells="454">
      <PointData>
        <DataArray type="Int32" Name="libmesh_node_id" format="ascii" RangeMin="2250" RangeMax="5441">
          2250 2251 2252 2253 2254 2255
          2256 2257 2258 2259 2260 2261
          2274 2275 2276 2277 2278 2279
          2280 2281 2282 2283 2284 2285
          2298 2299 2300 2301 2302 2303
          2304 2305 2306 2307 2308 2309
          2328 2329 2330 2331 2332 2333
          2334 2335 2336 2337 2338 2339
          2352 2353 2354 2355 2356 2357
          2358 2359 2360 2361 2362 2363
          2376 2377 2378 2379 2380 2381
          2382 2383 2384 2385 2386 2387
          2424 2425 2426 2427 2428 2429
          2430 2431 2432 2445 2446 2447
          2448 2449 2450 2451 2452 2453
          2454 2455 2456 2457 2458 2459
          2460 2461 2462 2481 2482 2483
          2484 2485 2486 2493 2494 2495
          2496 2497 2498 2535 2536 2537
          2538 2539 2540 2541 2542 2543
          2544 2545 2546 2547 2548 2549
          2562 2563 2564 2565 2566 2567
          2568 2569 2570 2571 2572 2573
          2604 2605 2606 2607 2608 2609
          2610 2611 2612 2615 2619 2623
          2625 2626 2627 2628 2629 2630
          2631 2632 2633 2664 2665 2666
          2667 2668 2669 2670 2671 2672
          2787 2788 2789 2790 2791 2792
          2793 2794 2795 2820 2821 2822
          2823 2824 2825 2850 2851 2854
          2855 2858 2859 2880 2882 2884
          2886 2887 2888 2889 2890 2891
          2892 2893 2894 2895 2896 2897
          2898 2899 2900 2928 2929 2930
          2931 2932 2933 2934 2935 2936
          2937 2938 2939 2972 2975 2978
          2979 2980 2981 2982 2983 2984
          2985 2986 2987 2988 2989 2990
          3078 3079 3080 3111 3112 3113
          3114 3115 3116 3129 3130 3131
          3132 3133 3134 3135 3136 3137
          3138 3139 3140 3141 3142 3143
          3144 3145 3146 3147 3148 3149
          3150 3151 3152 3153 3154 3155
          3156 3157 3158 3159 3160 3161
          3162 3163 3164 3165 3166 3167
          3186 3188 3189 3191 3192 3194
          3259 3261 3263 3342 3343 3344
          3345 3346 3347 3435 3436 3437
          3438 3439 3440 3447 3448 3449
          3450 3451 3452 3513 3514 3515
          3519 3520 3521 3522 3523 3524
          3537 3538 3539 3540 3541 3542
          3714 3715 3716 3717 3718 3719
          3720 3721 3722 3792 3793 3794
          3822 3823 3824 3825 3826 3827
          3828 3829 3830 3831 3832 3833
          3855 3856 3857 3858 3859 3860
          3867 3868 3869 3870 3871 3872
          3873 3874 3875 3876 3877 3878
          3879 3880 3881 3883 3886 3889
          3921 3922 3923 3957 3961 3965
          4065 4066 4067 4077 4078 4079
          4086 4087 4088 4119 4120 4121
          4191 4192 4193 4206 4207 4210
          4211 4214 4215 4224 4225 4226
          4227 4228 4229 4251 4252 4253
          4260 4261 4262 4263 4264 4265
          4275 4276 4277 4278 4279 4280
          4296 4297 4298 4347 4348 4349
          4401 4402 4403 4404 4405 4406
          4407 4408 4409 4410 4411 4412
          4413 4414 4415 4431 4432 4433
          4452 4453 4454 4461 4462 4463
          4464 4465 4466 4533 4534 4535
          4551 4552 4553 4554 4555 4556
          4557 4558 4559 4560 4561 4562
          4590 4591 4592 4593 4594 4595
          4608 4609 4610 4617 4618 4619
          4620 4621 4622 4623 4624 4625
          4626 4627 4628 4629 4630 4631
          4665 4666 4667 4668 4669 4670
          4680 4681 4682 4683 4684 4685
          4719 4720 4721 4728 4729 4730
          4731 4732 4733 4734 4735 4736
          4752 4753 4754 4761 4762 4763
          4764 4765 4766 4767 4768 4769
          4773 4774 4775 4785 4786 4787
          4869 4870 4871 4881 4882 4883
          4887 4888 4889 4890 4891 4892
          4893 4894 4895 4917 4918 4919
          4920 4921 4922 4926 4927 4928
          4929 4930 4931 4962 4963 4964
          4965 4966 4967 4971 4972 4973
          4974 4975 4976 4995 4996 4997
          4998 4999 5000 5001 5002 5003
          5004 5005 5006 5022 5023 5024
          5031 5032 5033 5037 5038 5039
          5046 5047 5048 5049 5050 5051
          5052 5053 5054 5058 5059 5060
          5064 5065 5066 5067 5068 5069
          5070 5071 5072 5076 5077 5078
          5082 5083 5084 5085 5086 5087
          5091 5092 5093 5097 5098 5099
          5100 5101 5102 5106 5107 5108
          5109 5110 5111 5112 5113 5114
          5115 5116 5117 5118 5119 5120
          5121 5122 5123 5124 5125 5126
          5127 5128 5129 5130 5131 5132
          5133 5134 5135 5136 5137 5138
          5139 5140 5141 5142 5143 5144
          5145 5146 5147 5148 5149 5150
          5154 5155 5156 5157 5158 5159
          5163 5164 5165 5166 5167 5168
          5172 5173 5174 5175 5176 5177
          5181 5182 5183 5184 5185 5186
          5190 5191 5192 5193 5194 5195
          5196 5197 5198 5199 5200 5201
          5250 5251 5252 5277 5278 5279
          5304 5305 5306 5331 5332 5333
          2852 2853 2856 2857 2860 2861
          2970 2644 2971 2973 2647 2974
          2976 2650 2977 3187 3190 3193
          4662 4663 4664 3270 3271 3272
          5151 5152 5153 5160 5161 5162
          5169 5170 5171 5178 5179 5180
          5187 5188 5189 5202 5203 5204
          5205 5206 5207 5253 5254 5255
          5280 5281 5282 5307 5308 5309
          5334 5335 5336 5358 5359 5360
          5361 5362 5363 5385 5386 5387
          5412 5413 5414 5439 5440 5441
        </DataArray>
        <DataArray type="Float64" Name="resid_x" format="ascii" RangeMin="-0.5237433329700094" RangeMax="0.48780112385119523">
          -0.000058844285955039766 0.0005086870290416101 0.000024408978321899255 0.0015613129115141788 -0.004017435640032652 -0.0050197314904742996
          -0.007063469268532185 -0.003062338916869134 -0.010266667856289935 -0.010035527493072571 -0.012066541748347537 -0.01344337535723028
          -0.00014062420747240623 0.001007098276265772 0.0011000959632168072 0.0012216025157947286 -0.002329183033566551 -0.0021788099503403657
          -0.0015126846824993212 -0.0044056927372180255 -0.013050190833999942 -0.012537749221918304 -0.011953900366673764 -0.01492028317124161
          0.0006566582579576874 -0.000031394652482141794 -0.004674349776623288 -0.00010652225432572493 0.0006537076159727206 -0.0005808145430394873
          -0.007258606896147768 0.00005243081598571564 0.000652269167373376 -0.0015961490968088299 -0.0014584214629920211 -0.0004234495441046704
          -0.00549971298936569 0.0010145498922176088 0.000508484444053714 -0.00837086688171973 -0.012661691568498057 -0.00020515879532201353
          -0.004580582459089655 -0.0223525784112244 -0.012837374150286074 -0.00886895804544352 -0.01282403105637031 -0.017779308977819763
          0.000008329711742582901 0.0003385443218002493 0.00036439026882462144 0.0010261212073334747 -0.0017760916067048882 -0.0012623294023255127
          -0.0030668420872457247 -0.0019602971479697473 -0.00834091058189479 -0.009159100937090159 -0.011212286761709045 -0.010258471150347503
          -0.00019788846187207554 0.0015781076819534334 0.0015652776333023866 0.0017483217730296374 -0.002762943304915666 -0.0038933633311009075
          -0.000674252947931997 -0.003179295761580825 -0.014290584132122142 -0.019218296387671252 -0.01856172333160444 -0.017602520077957706
          -0.006667853851504368 -0.0012115989040983877 -0.0023074924871906433 -0.0034120622970847947 -0.0015962000738150017 -0.0031570781126069036
          -0.01286834008025961 -0.012674139521913652 -0.015197927397314182 -0.011342944309244984 -0.007305518026545776 -0.005764638876710748
          -0.0019328169698882292 -0.018013738583357863 -0.01519718983315066 -0.00020776872747596542 0.0003447975130297376 0.000394730080386374
          0.0021622848608084944 -0.0009479497720890073 -0.00016018576863285894 -0.0002873932915843369 0.000678879440044744 -0.008045276301694493
          -0.007036310570920801 -0.00688542652055002 -0.009075507680115669 -0.0038957257297793646 -0.006381769413341232 -0.001905354356518174
          -0.0054809554041410635 -0.011232771715393497 -0.014730697214869082 -0.013687870272680147 -0.007972827117415537 -0.004248075629442294
          -0.0013516471248107287 -0.012067847347888794 -0.012128834702616054 -0.048375922830981466 -0.21643365451690144 -0.00015829711685277914
          -0.08504749699222458 -0.3834059613439944 0.00005977136111745551 -0.031186564159906283 -0.18244470853653194 0.00004930312231987699
          -0.00956674835575444 -0.0063058270488038914 -0.005395937207377077 -0.0036372248217171332 -0.01396892268680161 -0.013879290291259672
          -0.000004504346742706389 0.000909644229563078 0.0010007623471572913 0.0015162812162508033 -0.001227962723200804 -0.0016609407739256454
          -0.00036980448743939576 -0.0013873308687601948 -0.010028433539881476 -0.012877530031838447 -0.011571468381248451 -0.011475471868398479
          -0.007614583421524657 -0.011244516648380554 -0.004197677323628746 -0.002072037911100999 -0.00517840261959801 -0.0014151604654948358
          -0.010058378646853328 -0.012008991061993157 -0.009165887275076834 -0.012087090595556127 -0.012334876146901763 -0.015685273422051615
          -0.008234976588222587 -0.00287660300506154 -0.0033036771565584377 -0.003509969935542756 -0.0009688821986406637 -0.0014906957405578236
          -0.012574272616191706 -0.01482515640480564 -0.009246158950414696 -0.00875893966868424 -0.001513186318413684 -0.0074782451397577
          -0.0014455374393511633 0.00011748962773827643 -0.002354644969300157 -0.00960313751212194 -0.00854918668936655 -0.012691808850525454
          -0.007662769738189468 -0.002844112155499623 -0.008017665707064303 -0.003875106263254935 -0.002244846982283555 -0.004680996265894244
          -0.01274404568032228 -0.008521979993285633 -0.010356805399920788 -0.009677279839232833 -0.007565039418563124 -0.00738774033208367
          -0.003848909451087401 -0.010783815938405272 -0.01273714036934237 -0.003864000019820679 -0.002042232970465463 -0.007824176042136699
          -0.006396846885628804 -0.010126136628515248 -0.01246450982380587 -0.014275531596021018 -0.026865566518663897 -0.012131494462877868
          -0.001622593236742631 -0.0007256886453870237 -0.0013221605022097904 -0.002237637456423691 -0.0061304083536910525 -0.006707099937557359
          -0.007024526182817237 -0.01235560984871853 -0.00021549542757570705 -0.002453935654793682 -0.009913727253062277 -0.010785983238466024
          -0.016465993462304596 -0.0047481010941190505 -0.014006045105313447 -0.00020170713318989897 0.0008306893462046716 0.0009296054537077936
          0.0015773275138717402 -0.0027794260491482703 -0.004936116748152308 -0.0030828549739378985 -0.0033254947824485903 -0.012979664209515462
          -0.015696971327259668 -0.016628807909622623 -0.015396496446257402 -0.0021222160639631227 -0.004396805263681358 -0.002976558004686325
          -0.0004804764972057285 -0.0002507004156555581 0.00013599838432831746 0.0002153856099624818 -0.0007572304767116123 -0.0010387234567321713
          -0.010054732571210145 -0.010497928612718255 -0.006945978461604829 -0.006923825301651476 -0.008363978366815239 -0.007232636442846996
          -0.00869344989159515 -0.0017256522358852777 -0.009116948080045262 -0.006391269581238035 -0.010920007177453783 -0.0023845880408099873
          -0.0015081511837911066 -0.008136712795236534 -0.008800691005000694 -0.007921406711599133 -0.005771790294467394 -0.006152188623735455
          -0.0029003287654401078 -0.003082830007780757 -0.0010355747416461725 -0.008564032209694261 -0.0022268311559754395 -0.006750204670559867
          -0.002902644638639984 -0.006984617139714544 -0.0043584231239846005 -0.009586462128040374 -0.009502460204116825 -0.0021563469041199212
          -0.002093507694457597 -0.004968862147648245 -0.00370381729052216 -0.001925020056809501 -0.0004114174065987797 0.02324282534413946
          0.015598270803922176 -0.0010980522392660674 0.0005070342496376057 0.03997487079362383 0.027344395579078196 -0.002634498609127789
          -0.0019592945608417622 0.022087725843334738 0.012152304039076967 -0.011091639298136613 -0.0043017321525589125 -0.013048703375110549
          -0.0073690610849173055 -0.00846432214350834 -0.004512224312545499 -0.009455634624922382 -0.010461618854417765 -0.01766815018770984
          -0.008901857713980554 -0.012998297807084391 -0.006233328380128356 -0.023794768639312736 -0.011256307703438218 -0.01228264939471746
          -0.012829488443337311 -0.011675700240404652 -0.007458702897236158 -0.011587931395359075 -0.009733167571517765 -0.00436911055019662
          -0.005841545041108009 -0.013020338041759949 -0.012312589910183913 -0.008033028388310937 -0.014434743912278059 -0.0024106777916639843
          -0.010095528151298439 -0.012573931846587283 -0.010756864548048028 -0.009350049314321929 -0.008179398631585233 -0.0008297029025152725
          -0.0024828011658160065 -0.009044061219320554 -0.008331884444103821 -0.008104140807159155 -0.004247120180725261 -0.008263587850656506
          -0.015521418598096748 -0.008710526200296442 -0.004540017442920874 -0.006439793743756361 -0.015389462986874491 -0.00951842609075193
          -0.014400406707163249 -0.012081035104537285 -0.013668391831362925 -0.006231639390682275 -0.006788947528228562 -0.0048811679851636924
          -0.004670870379301806 -0.01572179808587504 -0.008501486982028794 -0.0022377891940472683 -0.008364301551566644 -0.006560078963693039
          -0.0071812678806746355 -0.015804618800394188 -0.011838030366802643 -0.010279870999302165 -0.0018587693777725178 -0.010403504886336012
          -0.018484990619858088 -0.013942570256552322 -0.007101861154058753 -0.00551906190182283 -0.016682306207182585 -0.013821741725906556
          -0.007784058935695448 -0.01075393281095316 -0.0007195993744208984 -0.0028606519055012214 -0.009014127551062234 -0.010741613855889565
          0.0001257935464822335 -0.002960678678119777 0.0009141786705748611 -0.001591950943572229 0.0032085916888804356 -0.0033023983754389974
          -0.015403241388059374 -0.005845993276396122 -0.0044069238383821485 -0.002727956131073128 -0.010929496130330119 -0.004700295163299728
          -0.014891137155041534 -0.011785172569522384 -0.013515004762846061 -0.02439095547260095 -0.003187432259894485 -0.013052090335424538
          -0.0139906762099411 -0.007311159747196538 -0.011547077362939362 -0.016997855550329177 -0.02613834283665284 -0.014470568856804533
          -0.012902097003510082 -0.0019261772123635446 -0.011569169946541003 -0.016300819971458935 -0.024090138225179913 -0.012912606233646873
          -0.011529977271410807 -0.005164426647799036 -0.006788274240982606 -0.015098794908797508 -0.0023935349874690814 -0.011168748353147073
          -0.011504269300608438 -0.0027273428282903467 -0.008967294186706276 -0.011728045957319466 -0.0137554983932624 -0.008887018974539806
          -0.01087039690731384 -0.002408959851891712 -0.008328550499436815 -0.007587184531153923 -0.01917079098442187 -0.016418121639386385
          -0.03250762290915077 -0.009652450164821857 -0.02068442480709365 -0.0001970727216447088 -0.006120151912774041 -0.0006560307549241529
          -0.003538236503478398 -0.0027502310565648003 -0.008783610835354505 -0.02246037211475116 -0.029156066788932122 -0.015386406878940662
          -0.005084320899550576 -0.012127370401809223 -0.0019239205356580413 -0.0032765709123987463 -0.005573947160564252 -0.010139579959155931
          -0.00013006865859033212 -0.0005812832358884634 -0.0013985486603491637 -0.001260388665867751 0.0003434267422957049 -0.0005127457574936045
          -0.0042855196448172705 -0.0011617020993472948 -0.003492183396499371 -0.016941106123277372 -0.016980449072447 -0.009955649621019802
          -0.0030892700097142622 -0.0016274949913208658 -0.0025982508969519813 -0.0006219616945060125 -0.005054519056407969 -0.003823001821776195
          -0.003646582827530942 -0.0025534735739611847 -0.002447481382263028 -0.0029255060468313943 -0.007304153688044934 -0.008096451823835338
          -0.013857895078107418 -0.006899374957902715 -0.007269953514425609 -0.013802449859632748 -0.01285622985504098 -0.009479117675681437
          -0.007241649633824565 -0.0014762170754154536 -0.003360548729335333 -0.009260801755351267 -0.0041292104489008 -0.0054539667516388946
          -0.0019715170121132886 -0.012180602745703872 -0.00622516969037612 -0.012540171404765932 -0.003247488859914771 -0.009537426347397293
          -0.0023312424241010987 -0.006505588156629827 0.000199926583960508 0.0009514666780710002 -0.002704755635434708 -0.004746457446126229
          -0.00027359465283183226 0.00012579399615475495 -0.004884946156868075 -0.010755432062323322 -0.0071349707116730166 -0.004140502222123921
          -0.012743227003268132 -0.0025260955653925166 -0.008028752613808976 0.0009240683835569641 -0.014779795775110571 -0.0063029493123654134
          -0.011933713881719932 -0.004841472650761958 -0.007656126231608162 -0.006506843391065331 -0.012144631416427742 -0.002990979201322297
          -0.007407491981043179 -0.009431676936191735 -0.01215902852842099 -0.007528400166332716 -0.003116278687292251 -0.0007925218060229611
          -0.001993291371599426 -0.008729148158526101 -0.00770737290072443 -0.016028214207420177 -0.000499928555374396 -0.005232882691091234
          -0.017309522793238052 0.00007339374274284438 -0.005967443891223834 -0.008366619143266696 -0.0014867267634626757 -0.006952774748270163
          -0.01455598351759635 -0.007554450120786704 -0.0002990690305484378 -0.0002133115381885986 -0.004830759378757765 -0.0028072471946138933
          -0.009085706090762757 -0.0020069552875841 -0.007186707041388241 -0.00022790442900166852 -0.003937309452135995 -0.008126010228076908
          0.0004953944555161627 -0.005164796735781296 -0.0014107215986656207 -0.00408282197432186 -0.009943283442150896 -0.00655180274234457
          -0.006680315804680426 -0.0024717332826127425 -0.00443014448315282 -0.0019323161240887288 -0.0012344913699906535 -0.0059425093834590825
          -0.00043024862587071055 -0.002144194486308759 -0.004455097919037865 -0.0050587304615490325 -0.005281696605366815 -0.008898516557632963
          -0.0044087275661102154 -0.0029754518689308895 -0.005060106752268645 -0.01643066267893145 -0.0032969891804293106 -0.009619833579378678
          -0.0030836429088783035 -0.0006793230465707012 0.0007988898078483686 -0.009629913651749256 -0.0060339838826939385 -0.006825923146612567
          -0.012470443888928262 -0.006414325765231599 -0.00445544557597044 -0.002732393058790361 -0.008141151069519736 -0.004795775120125079
          -0.00502951590508971 0.0009250255975796762 -0.005644450775953658 -0.01364908873684545 -0.015363357792055776 -0.002150766697548434
          -0.007588056127852294 -0.005298226308339871 -0.010023770435940715 -0.011363315036416743 -0.010340165496881326 -0.0037599765584568345
          -0.005300332674562647 -0.00789105195742934 -0.005744166166443243 -0.007396971049015377 -0.007849823611026707 -0.0005144777414063384
          -0.0005680168742046021 -0.0033093889455670933 -0.004288158814267362 -0.0020142126651530035 -0.0020061724976416784 -0.0008352878596147306
          -0.00011669375660172676 -0.003355721202790818 -0.005528676174307634 -0.010143684129245933 -0.00237548468674742 -0.0010190747822651502
          -0.0042765586005053535 -0.0013431470290381498 -0.00016691695952175678 -0.006051085140698298 -0.0022677261441197416 -0.0017431364148450257
          -0.008085891918749866 0.0004967443488590462 -0.004396488697553824 -0.0027202228559168873 -0.0011277833020040262 -0.002148392812500788
          -0.004229162471799164 -0.0006029526875455105 -0.0026580607371862186 -0.006784767998521346 -0.003475677258046872 0.0012513874187245477
          0.009345040170209096 0.294062899183829 0.1823726570783144 0.020808746653835364 0.48780112385119523 0.33537539253841286
          0.012085189322707635 0.22718228498891424 0.157931147610344 -0.002250031918064721 -0.00021702539411361244 -0.00016012709674129155
          -0.003915551112068094 -0.0009826154848813218 -0.0033541034865951502 -0.005581067690515695 -0.0061383494329199095 -0.002373227446520687
          -0.0004564753670557309 -0.003406354869536443 -0.0004515678783789667 -0.31737899410140624 -0.5237433329700094 -0.24546697154487607
          0.03880796327792391 0.07417980345298747 0.041053956293811034 -0.0012213208916467266 -0.0009126736472069297 0.00005290554199355313
          -0.00005227142511277094 -0.00016386533686496563 -0.0002959611126973627 -0.00087243350461641 -0.0000358105536211184 -0.0008885429683225254
          -0.0008982448321344094 0.00007002071845008118 -0.0008696302083102125 -0.0008411185013006417 -0.0007445412992534983 0.0010480950896205599
          0.0003674727404980871 -0.0011781615859582928 -0.000686782805637165 0.0005155590484307027 0.0004332060485232603 0.0005550900842656858
          0.00003516310072093631 0.0006807020179611101 0.00039061283716179673 -0.0001658007562426178 -0.00012433489370522466 0.0005648520406769109
          0.0003494669045771559 0.00032090784708849185 0.000260757052185312 -0.00011073827603524933 0.0006887551460543762 -0.0012500587478108116
          0.0015640901501416948 0.00048112420674151224 -0.00008812899038979083 0.00019692326710796237 0.00040024912103220345 0.000591715136524229
          0.00026702178631765605 0.0008354490315571894 -0.0006715258888192466 0.0001700258747447947 0.00048637296752218617 0.0005216704153472307
          0.0013169560978951722 0.0006474651856009928 0.0009978623905446682 0.0006675073309079238 0.0008015869138233711 -0.0002610797068278714
          0.02984889726165818 0.06129955657866404 0.03265173428260937 -0.024921316246194536 -0.054018340008097354 -0.027588299584913045
          0.02187090333087305 0.04244611205464466 0.020781138116117148 -0.02317342422830393 -0.046544425979176296 -0.02122487992399691
          0.00039227654656492916 0.00040100071278281746 -0.0011304420926752101 0.005926205993215916 0.01628166266987563 0.011349842701646295
          -0.0024348300692818015 -0.0050004844125481895 -0.005363510277474504 0.002449924861192443 0.007735321274166651 0.002238520492044316
          -0.0033040689418175617 -0.005103106354699349 -0.009568049627434405 -0.003255064675542485 -0.0003301469773830945 -0.004083774136157459
          0.0004790447956803945 0.0023992098149339114 -0.002688439339349813 -0.000682212407825844 0.004724081522601509 -0.0003944543667646627
          0.0014890555121755966 0.002347029393442668 0.001512740408863067 -0.00030409668321418337 0.000529564477981026 0.0005624496635263654
          0.00004879081750885916 0.0014079253765437727 -0.00024773914652165274 0.0010048628470595844 0.0002531626286490507 0.00039210707019954327
          0.0015524445718870794 0.0015543767481727144 0.0013540634479625169 0.0009810742666438443 -0.0007483725684220843 0.0005443634062771707
          -0.011863295743584246 -0.01064216926259931 -0.010493579433902056 -0.009387925342736025 -0.009327691339340305 -0.008637845883619377
          -0.005195620385302746 -0.0007574441904285578 -0.0037960289824017224 0.0002596015119031847 0.00016009806615358002 -0.004648178036784856
          -0.004052689136358367 -0.00897312325859545 -0.003399217397605625 -0.014324809351421663 -0.017354500723106625 -0.009340403152558352
          -0.009022636764863812 -0.0033478962327144757 -0.007370667753034965 -0.006739671955535265 -0.009486191261602883 -0.007266155576997058
          -0.004034918671916188 -0.0011067767971653097 -0.0005579494041079158 -0.0060244039598806864 -0.001925933260601198 -0.0030241111199593718
          -0.006848531526514989 -0.004592656780694426 -0.007200353494887679 -0.009140653786644748 -0.007440621924203583 -0.010834819039310162
          -0.0038461306920414273 0.005026070445087072 -0.00041513822975680625 -0.00005088129668351371 0.0014709333998546015 0.00043677861096114157
          -0.0014782119301415264 0.000570069563167408 0.0006069272452720043 -0.001917636606922457 0.0015924678768826084 0.0008232719268832511
          0.000520289267051055 0.00040305838704313146 0.0013842526207135109 0.0007151483588359042 0.0012001129590402115 0.0014725391117345055
          0.0018371769302376606 0.0020211364348625693 0.002255016014895972 -0.0057943206019732685 -0.01896989209087252 -0.009991973259852571
          0.0009401407622924296 0.001316654194052802 0.00416734735394364 -0.0011076115975576784 -0.00229745390143421 0.0001631490352664855
          0.008376214288098538 0.018040243918562737 0.00991421750647703 0.0018277712863969953 0.0032806414310435628 0.000527526276554724
        </DataArray>
        <DataArray type="Float64" Name="resid_y" format="ascii" RangeMin="-6.709340172545402" RangeMax="1.0382067834357789">
          0.00009281540170501257 0.00048046394176190846 -0.00048610176980659614 0.00005721034991634788 0.0008026890587579105 0.002591046577876094
          -0.0024450328944553013 0.00031271856241277263 0.0007496652467953863 0.0017766181626391285 -0.00016027959818618043 0.0003165354427197009
          0.00008581759172646142 0.0002676383720523808 -0.00004760328677341774 0.00044792282533673983 -0.00046189078166069403 -0.00010846470708924562
          -0.0000657563167246536 0.0007994573878917985 -0.0016554845243183236 -0.0007279833114171297 -0.00011582099126295625 -0.0008713645644482029
          -0.0007927765782558549 0.0010407571287084916 0.00010729328329639465 -0.00008021948444758564 -0.0016678088064077945 0.002418707953602356
          -0.0003365021674365809 -0.0008453690193693797 0.00006116172185768876 0.002341360257999886 -0.00004337192972198034 -0.00019353118904519295
          0.004572995412572334 0.0006944981027412617 0.00015946684610240736 -0.001642807123922313 0.009622004567291731 0.0008626927467456913
          -0.004109832232738531 -0.004798547673107889 0.003784836845099726 -0.002151103782556521 -0.006231979859355363 -0.0038116399504575516
          0.0000556024202335581 -0.00002367331145098489 0.00026325495130365834 -0.00012064112894254186 -0.00032273311191094445 -0.0005117903893337578
          0.0003004557837915228 -0.001692934079871044 -0.0012906510191740966 -0.0014535688191339366 -0.0013378716264537197 -0.0015126471914575779
          -0.00010115551911532572 0.0003128461491646098 -0.0004331802287538544 0.00023726361708724386 -0.00005057809966762389 -0.0012653141665154369
          -0.0018318291531763536 0.00055224008139719 -0.000537049444937876 -0.0029781441063091614 -0.003057676763286221 -0.0015596108957007804
          -0.0035837544196586496 -0.0016345968737254066 0.0004940547591938856 -0.0019903872209420526 -0.0003304435495559144 -0.0008777969445539768
          -0.002019820540993103 -0.001035239601654317 -0.0017868391994567343 -0.0011842123604884347 -0.0043144234144180185 0.00038849385903473935
          -0.002127187008328958 -0.001852799616972045 -0.001911113252184224 -0.00040941605354230526 0.00016103084364031683 0.000014115886052545878
          0.0005113340773728603 -0.0012037841151618517 0.000011884530105185642 0.000014359675460123844 0.0007570847635391537 -0.004480214613577782
          -0.0028099692371880425 -0.001508038359909425 -0.004047857357148105 0.002038572131039487 0.0032827843841178282 0.0013162672116085739
          -0.0010198458955925328 -0.0010115083760737914 -0.003949968235452305 -0.00028975503472511085 -0.003960808480209951 0.0017079250024953103
          -0.000723961959301439 -0.000727335845172556 -0.0012453820657205156 0.030084465080455956 0.16920303404787895 -0.0004295338031316681
          0.05656396014603116 0.28034792005249587 0.00010338733147320645 0.031486409079346196 0.12908807230196317 0.00017954466414221715
          -0.002833788654696745 -0.00445515002273672 0.00042351481831011395 -0.000506464588071659 0.0002490310168761639 0.00029223282857589183
          6.372480871527642e-7 0.00037525242108327195 0.00021069170248329272 0.000918560335694936 -0.0007551131216981047 -0.00036502409373045247
          -0.0010729501999293262 -0.0001161309877182222 -0.005468876525250202 -0.005345508060062738 -0.004157379401034972 -0.005395246855841224
          -0.0009472799194506776 0.00045422499590821314 0.002869473772717443 -0.00004409927186298235 0.0006458971966379137 0.001467642759925794
          -0.0021269443079357103 -0.0018042465725301854 -0.0024248214133213153 -0.0059603814449987885 -0.0016820845905680948 -0.002096731092939244
          -0.002467046506315282 0.0007270913912802157 0.0007063204811380633 -0.00020851412552928827 -0.0005660993192223712 -0.00012452106862955586
          -0.0035903809182644825 -0.008250553358871746 -0.004679342703971082 -0.0025501140979496545 -0.0016759160106369908 -0.0024408661598205803
          -0.0006457353715035447 0.00019249920984568125 -0.0007172611151328445 -0.0031511504928468242 -0.0015027026938191912 -0.002457936277811462
          0.0026117111396025267 0.0008210914193290744 -0.0014351757737821602 0.00006441588628655626 -0.0011624929384321178 0.0023138134282878614
          -0.0018609091834638075 -0.001495388715226753 0.0018226676147273108 -0.00044311045265332805 0.0030470278648082605 -0.0006123326422637285
          0.0023901757654737964 -0.0004730640080576748 0.0008367504482673788 -0.005500641509536011 -0.005345930304253874 -0.011343352992530545
          -0.009555141791714489 -0.009453822049161571 -0.007906250365928014 0.0019351413898363798 0.0016264629982997991 -0.00022089201290962507
          -0.0018457914710671985 -0.0009629812488380508 -0.00003166385377231795 0.0003396918988123124 -0.0006907679248724374 -0.001532515832282623
          -0.003585327362832673 0.0016106878116608908 -0.001007831459220572 0.0030135958325726506 -0.002712300870034351 -0.0012924744710821473
          0.0018261207752420933 -0.00022248156814018427 -0.002431285563940358 0.000014356038793739145 -0.000022695775742980796 -0.0004885740819439454
          0.0002931522211947618 -0.00016386064204912398 -0.00018959693404782367 -0.0023400309294930345 0.0010328144556332047 -0.00016704411807638144
          -0.0003367859659275177 -0.0014906401098919962 -0.0003243091067333323 -0.0033123136722266744 -0.004289216923267503 -0.0028105718571542204
          -0.0016955336463844173 -0.002156993881449465 0.0004608688358780366 -0.0014706171618916464 -0.002139770081250769 -0.0034146887400143683
          -0.005335793333277633 -0.002643254746912113 -0.003196625321809893 0.0013060722627661857 0.0001363555625805979 0.002070879624109085
          -0.0018700351829663772 -0.00212657481844343 -0.0029036341981469177 -0.0003079358051131728 -0.007877772947005944 0.0005484644033773127
          -0.0023452023164485802 -0.003178835653951051 -0.005728527593918075 -0.0036036195684921377 -0.004236891467258454 -0.004526850314862274
          -0.006994348346364615 -0.001975735045017593 -0.0008236440743662476 -0.00888688657100456 -0.010697986123893 -0.003264323138242209
          -0.0007891848794840325 -0.00472830204256286 -0.006030154801193316 -0.002035293402527002 -0.0014193483771910986 -0.0012095396239194568
          0.00024324882170984052 -0.002055178633612844 -0.0009787174534932885 -0.00015124454103296325 0.0009779888697011574 -0.005975860538219788
          0.002946994201566744 0.00031115849098595216 0.0017245994063932457 -0.01196234725886433 0.007945251748787024 -0.0010080436884120914
          -0.0002136761771584922 -0.0063893957007637725 0.0006128554929679397 -0.002117896463919973 -0.0006562353867869894 -0.003774051489414631
          0.0024260112849216475 0.004351273281118201 0.0020563124065301613 0.0017670980467304476 -0.00005678804882060934 -0.0014047988792972171
          -0.005218531810419286 -0.003112966468697298 -0.004495632705096231 -0.00696792824275505 -0.006235853823678639 -0.005351526120596806
          -0.00264846050439857 -0.0030496380615832597 -0.004292303190776614 0.00268880970770409 0.001339932036055036 0.0019966058059965597
          -0.0011002790934166728 -0.002135743498709819 -0.0030503574961959767 -0.0010702913240163842 -0.0020290268908201015 -0.00255486110781962
          -0.002471490734345466 -0.0025411051989428363 -0.0017680420412796785 -0.003133665396281635 -0.002706924379643611 -0.0014671786142322757
          0.0016846624600389826 -0.00394346973888739 -0.00013708991466001783 0.00008932289984556196 0.0020395268795767585 -0.0025399019781200405
          -0.0015495221315566694 -0.0017414473789622714 -0.001258518625330711 -0.00011918875637694296 -0.0027706054173521656 -0.0006446068328880283
          -0.004360374173971733 -0.0023535727997066047 -0.0027351169149502363 0.0026647208646661813 -0.002007421306145632 0.0002649641631525257
          -0.0009467607597872241 -0.002323828393050009 -0.0020938944602258563 -0.0014721763732603865 -0.0006679235028345248 -0.004862549236615402
          -0.0004832843611922155 0.0003818915391810701 -0.004207426476564968 -0.00045220471564128006 -0.002420162727408276 -0.0010464826931712856
          -0.0020489268998872545 -0.003881667002134749 -0.0021576070600123065 -0.0019510439823486186 -0.0013976980281302648 -0.0007686310452198093
          -0.00529352959441487 -0.0003246486936268368 -0.001833917999575857 0.0020357022984203964 -0.0026790755346357206 -0.0006993168358173955
          0.008130710663260321 -0.0013674312163252725 0.020056338481099473 -0.000026001428255893744 0.005029830899173859 -0.0022370974546669503
          -0.0025426975573683286 -0.0011673703103909985 0.0006247711151221025 0.00011164543467468563 0.0002932959692175108 -0.00029286567923677426
          0.003526332402240734 0.002113613561407157 0.004852948520002655 0.005839052568574421 0.002383399850232115 0.004349727830716438
          0.0011860224914979622 -0.00040326521540631766 0.001158313877478557 0.0024509666708586175 0.005631821439705614 0.0019640182799545713
          -0.002625227770325575 -0.001636823131873362 -0.0005306348498260172 0.0034001909048118617 0.004397685393103534 0.0026792941967815898
          -0.0013013923272611194 -0.0010751178921556692 -0.0015351809766772084 -0.0002341374367060972 0.0010912642248070564 -0.0025737632405802707
          0.0007116070861545032 0.0012821304063770356 0.0005789423224997758 0.008380615551731557 0.012726518194971392 0.00563333341154354
          -0.0004279628617674114 -0.000882413724058978 -0.000814017485216062 0.5307372498738187 -0.008542288705891885 1.0382067834357789
          -0.01224236806940162 0.43545190926478733 -0.0037358159206213534 0.36914854877148945 -0.0013829323714985853 0.7223467750200117
          -0.0015426428811315812 0.33318641652103587 0.00006217742959239991 -0.008493146685231656 -0.016420985366394913 -0.007008009385917391
          0.27462904327474913 -0.0015244504716998564 0.5185581702153076 -0.0008128006043333635 0.18628022108890574 -0.0002108807380635791
          -0.0025728056823199896 -0.0017840950655695353 -0.0005532178949856636 -0.00008239093867357106 0.0006435210472163222 -0.0004314639354781047
          -0.002426088646902476 -0.0005445987689112614 -0.0032560960504166847 0.0040032288380307535 0.007067244965022201 0.0033479366673990485
          0.000045869300790542245 -0.0013974798829632373 0.00009185612277232136 -0.00038007742917725573 -0.0007072557526509177 -0.00018390849524820008
          0.09108554850760464 0.020243587177614656 0.169929978633479 0.029316619513076257 0.06279272752147955 -0.004657065689407294
          -0.0028299697377951183 -0.002410565163369266 -0.0016262993882394383 0.0013561076891369234 0.004181868389784543 0.002177108857075033
          -0.0029184327864509307 -0.0014013243822709742 -0.0023209685005445985 -0.001457692757459942 0.17193622848760343 -0.001360230802185728
          0.329662666431466 -0.0010963609175980455 0.13766840482389575 -0.002978769824897925 -0.00046136146792228553 -0.0021316690786629677
          -0.13232621278017404 -0.00273606489358319 -0.00008856881749515211 -0.12393543309354302 -0.2604506547088943 -0.002302681655887054
          0.0002690799296589247 -0.24350788622451644 -0.1252795712775084 -0.0014552900815597083 -0.00009549770375393007 -0.11279347440881284
          -0.0014820489558695082 0.0003542304902962555 0.0007042813835419146 0.0005384232001406399 0.0008011362743361207 0.0003147562631585256
          -0.0029418809995460267 -0.0016856672301935952 -0.0017068477539943436 0.0034946186872830687 -0.0009085837014327219 0.0018294694841607465
          -0.002690026952684832 -0.000916685674162511 -0.003056815413974512 -0.003314341191580847 -0.00243945387723083 0.00010361191033944617
          -0.0012624469527346303 -0.001313762167402338 -0.002835395433507357 -0.005690470240686479 -0.000701702415800802 -0.0030661820167154647
          -0.005516232877499597 0.0009145852124529952 -0.0005662399624457026 -0.0011937054927492058 0.00048203140243850695 -0.002478757245309743
          0.0002975954647227372 0.2219366087918283 -0.00020448215165929338 0.4183971777153137 -0.00025523966415448573 0.15823478559342685
          -0.002604602295552108 -0.0006204831287454776 -0.003259145659806742 -0.001072781726766045 -0.0023680223136742645 -0.006503240839900018
          0.00005984933255846758 -0.006529682933013176 0.0005884296177993895 -0.0026654545941689617 -0.007121861867716135 -0.0032956243563308785
          -0.00403840769733408 -0.0019577602543831285 -0.002878367929930084 -0.04703207553981024 -0.09502615745414099 0.00030903753871098366
          -0.0953872154449468 -0.19009416875732982 -0.0010569298307442007 -0.043843916054850295 -0.08700555658206997 -0.0001523693790959138
          -0.13798801052335916 -0.2726634831245134 -0.13475532713162552 -0.00641788501527283 -0.0017931391203875394 -0.003316274132876093
          -0.0024902774553650572 -0.0006287938107962243 -0.002322648178521014 -0.02148757743297102 -0.047686534375322644 -0.03276798947832332
          -0.003870882900976584 -0.11452374419581114 -0.0013941359997718325 -0.2241420270359943 -0.0004639025957731968 -0.10119912255190505
          -0.0019763132729847255 -0.00024175847463948907 -0.003513465722795074 -0.00027175716515505377 -0.0001523259329895138 -0.0011863728700986648
          0.0002357155020286522 -0.0006998530656691093 -0.0000392973910706626 0.0009503772026638983 -0.001123290292259657 0.0009244980778620199
          -0.0016651861719385104 0.00023909044694793696 -0.0002443834054947445 -0.002669355253221697 -0.004138242903274088 -0.00012179683768117483
          -0.00015373123027320051 -0.0016275723036520643 -0.0013559695663903984 -0.0027619254306724336 -0.0030690601270739262 -0.00033785085744575394
          -0.00037335133912899665 -0.003028613259910124 -0.0039304769065341555 -0.001530719716400751 -0.14493190021108657 -0.16469627733227316
          6.857725232678469e-7 -0.2845184220991726 -0.3286323690834107 -0.0007680117353260976 -0.14246868854467934 -0.17875384304108788
          -0.005982156860227288 -0.00042886303186388114 -0.0027300433055317402 -0.1754248879521648 -0.359917670957178 -0.21445132382117796
          -0.1425200489493894 -0.28028347071129933 -0.13977781013624088 -0.004638487237799721 0.00016137592390912114 -0.001753509862006758
          -0.0884141386358128 -0.09898319654588894 0.03229877316156615 -0.1718238927291708 -0.2269266776521966 0.05738013844866706
          -0.05297570725698224 -0.19491397323005882 0.024635151761611622 -0.1212020965352721 -0.24950940407588248 -0.1314310618447113
          -0.00293706491725549 0.0008723416469432217 -0.0010217185864341179 -0.004674612732889313 -0.0048495215792594415 -0.0021734789260543924
          -0.003761450079557138 -0.0024182445790055934 -0.0035591650606580233 -0.2632349944275093 -0.5392232503126589 -0.397406253008885
          0.012776442094507207 0.03229782360091418 0.017373439584129846 0.00008834210028858813 0.0003123988027636526 -0.00007535774746533774
          -0.22412068553124126 -0.44662224504603604 -0.23368855120219378 -0.3188055095392571 -0.6330431439776514 -0.32546925896903633
          -1.0247658665267274 -2.0484771191713813 -1.0145885840555358 0.00009578014044309135 -2.2155586292809177 -0.00031496698595456785
          -4.432379854221941 -0.001289221842807775 -2.207520602704215 -0.00020911545527990683 -2.9300610625253647 -0.00003234502073867773
          -5.859734226708113 -0.0009715996263575111 -2.9377614961026333 0.0000871281618188835 -3.302823437168289 0.00012358470703199842
          -6.605703777527217 -0.00046681898890521545 -3.313699956741952 -0.0016559543770013896 -0.0004125040213664999 -0.0002416188484293258
          -0.0006487866733555503 -0.0000974727290201649 0.0001326394025380484 0.0002173936487941397 -0.00004835969314376243 -0.0005780656957932173
          -0.0005000470476519414 -0.00023642610174912093 -0.001276892483095926 -0.0006401644206728285 -0.0006849785420333099 -0.0015756156545072564
          -0.00046226366327539736 -0.000003216799143945792 -0.0008907117015364285 -0.000660803111527386 -0.0046073534422597096 -0.002403578693188857
          -0.013761210300745619 -0.030913695153507392 -0.01673705617734944 -0.009648990725833695 -0.018049770338156357 -0.010034056604342645
          0.015017867105390437 0.03382437346599598 0.016018263373294817 0.0017432910794652479 0.0028813862190077977 -0.000679055583803656
          -0.00044556161636233327 0.003134919017019566 -0.0010342430051442086 0.0004793608821418438 0.0034646218668261675 0.0013236334061148547
          -0.0024946283328159957 -0.0016635045674996407 -0.004757042265622569 -0.00012024843442781652 0.00366885561103536 -0.0009460901604239069
          -0.003288503041648849 -0.0020413586687388907 -0.006669820655438752 -0.003839130213088904 -0.002826182337949401 -0.003964741505924296
          -0.004432993125695117 -0.0034694620541877996 -0.0030964820859336606 -0.004799327301847869 -0.0017481231997470287 -0.0014538993796325422
          -0.00035357036565208944 -3.354304009956418 -0.0006602837376130655 -6.709340172545402 -0.0001934251054360736 -3.3625685439864093
          -0.000004962336490610397 -0.0010068997669567814 -0.00030061842165096664 -0.0007007129806413381 0.0008738521781550546 -0.0008634417974922037
          -0.00013111808621513177 0.00019106695695203513 0.00020803797203372554 -0.0004999419463902477 -0.002969186049636363 -0.001752996614848179
          -0.012144244872029072 -0.013007031879605273 -0.011007445910684033 -0.012756378619370613 -0.006968464021047047 -0.010002298000298681
          -0.005649713291749708 -0.00031380866672747754 -0.006235213140045298 -0.0003344342718687998 0.0008522954447975628 -0.0023709349719249484
          -0.004434374203233116 -0.005280914538296835 -0.003467680284211752 -0.009769357642799709 -0.011311151420409393 -0.008155766288121119
          -0.009331317660335035 -0.013211099284793786 -0.011256867626346631 -0.00858277063662563 -0.008064308683131294 -0.005537204084923322
          -0.0034222738725293578 -0.0030370615574647486 -0.0034007039640452097 -0.0035881697125474954 -0.002930149343853272 -0.0034623733017829506
          -0.004715134527138953 -0.0010453075812293933 -0.006216752096652262 -0.005305231781304404 -0.0025237589417881345 -0.009927153592047766
          -0.008170463837656239 -0.000775017075832718 -0.00322316474310691 0.0008559450624883169 -3.1769306367844363 0.0009714973997618781
          -6.3543579959778524 -0.0013059716834902257 -3.1856906160190586 0.00033385817110720417 -0.0005052477916924758 -0.0004085579943728934
          -0.0007776359730400362 -0.00046122774798407207 0.0008459569911651865 0.0005031222785567557 -0.0004672931459315244 0.00031377717910729963
          0.00023779971378501408 0.0002503496995576171 -0.0004905787096465275 -0.0038930308547309167 -0.0070066262079953034 -0.005162059407682218
          0.00021479578580629877 0.0002056745577192487 -0.00044175768390397607 -0.000004922484911240588 -0.0022406881052736694 -0.0017059146583111584
          -0.00016061522522514693 0.0031097488101519133 0.00023230651977179662 -0.0010669586416071075 -0.0005551807590939983 -0.0007173961158779552
        </DataArray>
        <DataArray type="Float64" Name="resid_z" format="ascii" RangeMin="0" RangeMax="0">
          0 0 0 0 0 0
          0 0 0 0 0 0
          0 0 0 0 0 0
          0 0 0 0 0 0
          0 0 0 0 0 0
          0 0 0 0 0 0
          0 0 0 0 0 0
          0 0 0 0 0 0
          0 0 0 0 0 0
          0 0 0 0 0 0
          0 0 0 0 0 0
          0 0 0 0 0 0
          0 0 0 0 0 0
          0 0 0 0 0 0
          0 0 0 0 0 0
          0 0 0 0 0 0
          0 0 0 0 0 0
          0 0 0 0 0 0
          0 0 0 0 0 0
          0 0 0 0 0 0
          0 0 0 0 0 0
          0 0 0 0 0 0
          0 0 0 0 0 0
          0 0 0 0 0 0
          0 0 0 0 0 0
          0 0 0 0 0 0
          0 0 0 0 0 0
          0 0 0 0 0 0
          0 0 0 0 0 0
          0 0 0 0 0 0
          0 0 0 0 0 0
          0 0 0 0 0 0
          0 0 0 0 0 0
          0 0 0 0 0 0
          0 0 0 0 0 0
          0 0 0 0 0 0
          0 0 0 0 0 0
          0 0 0 0 0 0
          0 0 0 0 0 0
          0 0 0 0 0 0
          0 0 0 0 0 0
          0 0 0 0 0 0
          0 0 0 0 0 0
          0 0 0 0 0 0
          0 0 0 0 0 0
          0 0 0 0 0 0
          0 0 0 0 0 0
          0 0 0 0 0 0
          0 0 0 0 0 0
          0 0 0 0 0 0
          0 0 0 0 0 0
          0 0 0 0 0 0
          0 0 0 0 0 0
          0 0 0 0 0 0
          0 0 0 0 0 0
          0 0 0 0 0 0
          0 0 0 0 0 0
          0 0 0 0 0 0
          0 0 0 0 0 0
          0 0 0 0 0 0
          0 0 0 0 0 0
          0 0 0 0 0 0
          0 0 0 0 0 0
          0 0 0 0 0 0
          0 0 0 0 0 0
          0 0 0 0 0 0
          0 0 0 0 0 0
          0 0 0 0 0 0
          0 0 0 0 0 0
          0 0 0 0 0 0
          0 0 0 0 0 0
          0 0 0 0 0 0
          0 0 0 0 0 0
          0 0 0 0 0 0
          0 0 0 0 0 0
          0 0 0 0 0 0
          0 0 0 0 0 0
          0 0 0 0 0 0
          0 0 0 0 0 0
          0 0 0 0 0 0
          0 0 0 0 0 0
          0 0 0 0 0 0
          0 0 0 0 0 0
          0 0 0 0 0 0
          0 0 0 0 0 0
          0 0 0 0 0 0
          0 0 0 0 0 0
          0 0 0 0 0 0
          0 0 0 0 0 0
          0 0 0 0 0 0
          0 0 0 0 0 0
          0 0 0 0 0 0
          0 0 0 0 0 0
          0 0 0 0 0 0
          0 0 0 0 0 0
          0 0 0 0 0 0
          0 0 0 0 0 0
          0 0 0 0 0 0
          0 0 0 0 0 0
          0 0 0 0 0 0
          0 0 0 0 0 0
          0 0 0 0 0 0
          0 0 0 0 0 0
          0 0 0 0 0 0
          0 0 0 0 0 0
          0 0 0 0 0 0
          0 0 0 0 0 0
          0 0 0 0 0 0
          0 0 0 0 0 0
          0 0 0 0 0 0
          0 0 0 0 0 0
          0 0 0 0 0 0
          0 0 0 0 0 0
          0 0 0 0 0 0
          0 0 0 0 0 0
          0 0 0 0 0 0
          0 0 0 0 0 0
          0 0 0 0 0 0
          0 0 0 0 0 0
          0 0 0 0 0 0
          0 0 0 0 0 0
          0 0 0 0 0 0
          0 0 0 0 0 0
          0 0 0 0 0 0
          0 0 0 0 0 0
          0 0 0 0 0 0
          0 0 0 0 0 0
          0 0 0 0 0 0
          0 0 0 0 0 0
          0 0 0 0 0 0
          0 0 0 0 0 0
          0 0 0 0 0 0
          0 0 0 0 0 0
        </DataArray>
        <DataArray type="Float64" Name="stress_zz" format="ascii" RangeMin="-1942114.977509205" RangeMax="2204263.53190681">
          22912.444262449906 556902.1855839938 957779.6387599354 -208636.64814461747 47993.05620489543 584026.4875427665
          1064357.8588701182 -71457.80241570369 73073.668147341 611150.789501539 1170936.078980301 65721.04331321025
          121297.67153004697 -93508.44340090088 -8266.24349345293 91916.92498533982 117125.11223515961 -96201.88194845112
          -17119.945448370305 93747.58739981794 112952.55294027226 -98895.32049600135 -25973.647403287683 95578.24981429608
          -372594.4875161365 -921000.5840048642 -438040.05912000255 -142176.08107293738 -365558.0926513142 -929396.1985463585
          -435441.74095039326 -142599.791521189 -358521.69778649183 -937791.8130878526 -432843.4227807839 -143023.50196944072
          234266.5553439667 -227606.19004538195 -475994.3922690384 1100992.8065694293 205520.5082578357 -229988.20237792094
          -457801.38573483686 1094668.0460587763 176774.46117170464 -232370.21471046002 -439608.3792006354 1088343.2855481235
          303883.44028095226 277127.2204314301 233034.03295835102 291492.7911370147 301210.3508870015 268466.13772574987
          230161.61604774118 287588.29276199604 298537.2614930507 259805.0550200696 227289.19913713142 283683.7943869775
          -335296.81385388214 -178331.51633947887 -401010.06955989555 -461856.83934487693 -328156.3449378838 -169637.20605487213
          -405671.5695474007 -477057.2193737886 -321015.87602188555 -160942.89577026546 -410333.06953490584 -492257.5994027003
          283377.74687913345 266715.62451776955 105875.59737846631 281885.3498316213 261162.59839243884 103668.15002529639
          280392.95278410916 255609.57226710801 101460.70267212646 -44131.459467138586 -303920.6179443678 -39520.83495856674
          -321077.1913390824 -34910.21044999489 -338233.7647337968 136716.842597551 542296.0424418878 403361.87997925904
          173363.35403536703 136750.7760298189 551147.3796169079 434231.05889867526 161550.75418024854 136784.70946208682
          559998.7167919283 465100.23781809147 149738.15432513002 -411515.4725382654 -742159.831148383 -389538.9041357652
          -708527.9210778087 -367562.3357332651 -674896.0110072345 -37451.2689775605 -68134.35428996662 -26978.683849057532
          -71639.44881815054 -16506.098720554557 -75144.54334633447 -137320.36930033777 1056243.116714267 645505.1540744307
          -137403.1784549264 878420.3317917228 553368.5282959124 -137485.98760951502 700597.5468691785 461231.90251739405
          -616183.752688292 -295962.66990428994 -625883.4970346658 -298314.56416427944 -635583.2413810396 -300666.45842426893
          -285272.6660522168 -197988.43986550733 -84929.33593466913 -295128.59618358954 -281789.0517177924 -184919.29312196272
          -85463.70227394786 -291445.4383083968 -278305.43738336803 -171850.1463784181 -85998.06861322657 -287762.28043320397
          364273.871544192 252227.83133578778 246171.42548495607 366306.3327653097 254693.2647602853 251788.9307144039
          368338.7939864273 257158.69818478278 257406.43594385174 108266.01475933194 128372.081650923 148478.14854251416
          -134593.76668447544 -130441.6480077528 -281828.06351113913 -122838.27758892257 -127819.89902777625 -290641.41070734896
          -111082.78849336972 -125198.15004779976 -299454.7579035589 291918.4509193574 -9336.210419307768 318201.8453799832
          279013.6190805735 -9529.842191036838 317326.6759444642 266108.78724178957 -9723.473962765915 316451.50650894525
          -741421.936443642 -1273737.518172842 -645823.8514265384 -687453.1182470322 -1206030.0089333004 -605613.4601664091
          -633484.3000504223 -1138322.4996937586 -565403.0689062797 164487.56043963842 -652939.5831096689 171574.41303865344
          -681453.2253799468 178661.26563766843 -709966.8676502245 -779212.2991200523 -29696.63955603326 -771309.7580085174
          -32805.09142715015 -763407.2168969827 -35913.54329826703 -464036.7360759467 -532342.7591348288 -600648.7821937107
          -79255.3441989802 -117116.42688867841 -60678.534416369934 -188896.2870389506 -42101.72463375967 -260676.1471892228
          99597.21803833748 71256.82541686881 98612.91789530417 74620.78151926756 97628.61775227089 77984.73762166633
          -101186.39605260052 -96261.006898398 -91335.61774419548 -382908.1752852439 -302266.9295911553 -98327.12030280201
          -225468.75795491436 -389814.4398297839 -298893.2901031485 -103909.10181190488 -240185.03236280126 -396720.70437432383
          -295519.6506151417 -109491.08332100775 -254901.30677068816 245777.88408048422 249601.4859537839 253425.08782708365
          -58841.07624956539 511028.7728020404 -51803.71943137864 508878.59087832825 -44766.3626131919 506728.4089546161
          -973085.7808598024 -532931.406053232 -982702.1085974649 -481859.9363119318 -992318.4363351272 -430788.46657063166
          226999.50740720733 208516.24086306646 190032.97431892564 -359216.5494208612 -457638.64473209705 -359322.4092903656
          -451511.7685140306 -359428.26915987 -445384.89229596395 -749622.115466649 -840598.1206609743 -677444.5227031527
          -298884.96135118895 -752968.0763877389 -826576.0400879233 -664875.0102748865 -305820.82720108447 -756314.0373088289
          -812553.9595148722 -652305.49784662 -312756.69305098 408238.36095426104 631156.34549504 403217.4731895155
          617011.0606245213 398196.58542477 602865.7757540025 58356.52330855668 -150236.24204866405 483436.68905402755
          1443.196845002612 -22218.54930368834 -165104.86172945253 478741.2584910587 15184.42600836879 -102793.62191593333
          -179973.48141024107 474045.82792808965 28925.65517173498 -49018.49382756278 -24844.195594652876 -669.8973617428564
          -400762.73250297195 -192740.8551017208 -351495.8960800946 -185768.86652118363 -302229.05965721747 -178796.87794064646
          -61909.73001937762 18935.809572473663 -64789.669105655805 26949.150983542007 -67669.60819193396 34962.49239461035
          237836.14921544096 264889.8765018627 291943.60378828447 33826.79587635361 -401435.1465139503 38424.416252492214
          -407517.03523598966 43022.03662863079 -413598.9239580291 -116238.17536087453 -474826.08656269993 -111859.12605551016
          -483790.8207122192 -107480.07675014582 -492755.5548617385 277811.6088077617 -581013.6517246545 268053.72768702643
          -593451.0230623886 258295.8465662913 -605888.394400123 191516.0912167035 216360.5052346718 241204.91925264007
          -197443.51253947843 -331791.5210631741 -198965.21146825774 -332792.4965900211 -200486.91039703708 -333793.47211686807
          -515818.1880002767 -674628.90062289 -500225.44506224035 -680085.2805020626 -484632.702124204 -685541.6603812352
          272477.19356541295 -198375.37495578878 178591.50505415493 285307.93206558295 -200473.22179585954 165051.4995329169
          298138.67056575284 -202571.0686359303 151511.49401167885 45281.34982063074 89119.76980332352 132958.1897860163
          -58384.06682981742 -144100.154650713 -59034.58516479659 -138580.1606078752 -59685.10349977576 -133060.16656503742
          223467.71492245345 241771.19871898912 223544.17172576743 236539.40051926844 223620.6285290814 231307.6023195478
          -54514.91159932529 197707.43661276996 -44654.15400021202 196174.0684625709 -34793.396401098755 194640.70031237183
          -225142.6067549198 -935856.7872331018 -242354.25156834262 -893007.2544711666 -259565.89638176543 -850157.7217092315
          26348.090325962985 -245548.98643973278 145160.51410924678 -13378.752373332438 -239166.97527003853 112547.04276610725
          -53105.59507262786 -232784.96410034422 79933.57142296768 -628482.3997866975 -668601.7226796898 -708721.0455726818
          -110687.96803997371 -108596.29026252936 -106504.612485085 -78479.8504282547 -113783.87591516468 -149087.90140207467
          -56156.353135830585 -95148.97405103731 -134141.594966244 199491.9587724165 187260.29105669836 175028.6233409802
          -973601.6964452858 -1048483.4705282205 -1123365.2446111555 -869889.7324773071 -952527.8458381952 -1035165.9591990835
          423521.97046412004 429690.97334636486 435859.9762286097 104627.54427740688 -1438910.7598891393 202567.91193789802
          -1370155.0862379293 300508.27959838905 -1301399.4125867195 -1824750.316631413 -1715644.0840868484 -1883432.6470703091
          -1769016.5268550452 -1942114.977509205 -1822388.9696232413 -1126214.70547223 -1178213.837291557 -1230212.969110884
          -1738799.0787535263 -1484141.6632283842 -1681688.118013478 -1502753.3544431715 -1624577.1572734294 -1521365.0456579588
          439265.9677786976 -268946.99183011247 453704.9225184298 -263162.96982321306 468143.87725816196 -257378.94781631365
          393059.8574232482 378188.2367766304 363316.61613001267 -499517.399082179 -512032.1134595621 -524546.8278369451
          -220869.79716841775 112596.30598078389 -252966.36118646426 117336.60666047336 -285062.9252045107 122076.90734016284
          -433407.5682642221 -369186.9996490142 -432980.89909997955 -361487.6981000857 -432554.2299357371 -353788.3965511572
          593716.3519119667 587989.2730024123 582262.194092858 99476.61840688909 93755.43046884437 88034.24253079966
          -342340.5031776074 -351593.97151574894 -360847.4398538906 -593102.6525167665 -372533.2618377387 -598307.9857983392
          -387304.2177218453 -603513.3190799119 -402075.17360595195 170858.7896538476 167232.84969105932 163606.909728271
          247377.92114954084 226561.68412719452 141529.8767583032 190952.64765558793 250163.13465954637 224588.39053246935
          139218.61746667756 186219.20370234194 252948.34816955187 222615.09693774418 136907.35817505192 181485.75974909595
          -121540.11413198023 29897.85870432443 -113496.64375868451 38247.91576937695 -105453.17338538879 46597.97283442948
          309265.94713471964 308206.5067216358 307147.0663085519 86513.61068888739 211337.46830207488 90137.93346851066
          210080.23797643208 93762.25624813393 208823.00765078928 -111097.52246939196 -485607.13826123043 -114671.59347058093
          -479771.45572150097 -118245.66447176995 -473935.7731817715 -235296.4344041092 -259563.28898602963 -283830.14356795
          137877.65258567446 130050.90510227632 122224.15761887819 53867.23618508394 51224.02554412142 48580.81490315889
          -969565.2120122279 -822740.66348475 -951467.6788742642 -769781.0985869274 -933370.1457363006 -716821.5336891047
          -348912.0415363421 -344754.5882361183 -340597.1349358946 256410.3377880357 323931.4967425876 -34237.78935413498
          247732.67206596676 316754.275351179 -34414.340559206095 239055.0063438979 309577.05395977054 -34590.89176427723
          -543307.0946863265 -539660.683525695 -536014.2723650635 19307.6553430763 15763.868279498669 37919.183135088155
          14822.472489452124 15897.114913195139 39121.62179195353 10337.289635827943 16030.361546891607 40324.0604488189
          325759.3394086737 328266.5926302838 330773.845851894 124795.11913433134 126547.378248193 128299.63736205462
          548875.1345338424 545923.9283601879 542972.7221865334 -119263.60609879778 -117777.97290578324 -116292.33971276869
          87149.6232922501 119836.22847972038 77172.85009663136 112517.75533626346 67196.0769010126 105199.28219280655
          -3497.7985342223983 -2403.6256485368976 -1309.4527628514043 -1284151.4077817877 -710654.657116962 -1271561.0367251593
          -678519.0811643917 -1258970.665668531 -646383.5052118213 -15192.737924204772 -30758.260406584228 -28395.86221051214
          -38690.943547997835 -41598.986496819496 -46623.62668941144 -203737.7447790772 -59084.57546084636 -203984.84615886514
          -61598.60710193252 -204231.94753865304 -64112.63874301866 526443.3189713013 281185.97196100635 519729.16758144845
          285844.2151562176 513015.0161915956 290502.45835142885 357138.3455725127 493715.58346534777 447440.229011158
          353266.10454623797 495350.876246818 461521.29863033234 349393.8635199632 496986.1690282882 475602.36824950663
          190431.22292897053 193196.50575577246 195961.78858257443 35833.17427632843 78294.22124248103 120755.26820863363
          367008.6716393812 368280.7051231163 369552.73860685155 1012764.7183759869 1010448.9884244142 1008133.2584728416
          1345384.7324542345 1976118.540109382 839169.7619700239 1283225.5136905387 1773775.9666141665 723731.4734444363
          1221066.2949268431 1571433.3931189508 608293.1849188488 -72460.67380512466 -34937.77399988432 2585.125805356023
          261464.78381395564 253772.34109214274 246079.89837032979 410762.21593339206 720069.4064679001 406701.1797143879
          714797.8302683785 402640.14349538373 709526.254068857 2204263.53190681 1870264.1177208102 1536264.7035348103
          -128841.6975676181 -134119.95462069954 -139398.211673781 22227.420598382596 27096.231118121603 31965.041637860628
          1183317.8129811108 987528.0495181781 791738.2860552454 -177137.12490420928 -160577.2717471508 -144017.41859009233
          311636.74558693473 322509.1239649389 333381.5023429431 139380.14550198833 132170.7442232791 136621.98257371143
          130583.8736899553 133863.81964543453 128997.0031566315 -6335.3629061475895 -19973.28631047065 -5448.652906304419
          -20096.07534970312 -4561.942906461249 -20218.864388935588 -34605.57615942584 -40101.8410983065 -34193.35243689866
          -40502.129190117485 -33781.12871437149 -40902.41728192849 32958.105097432424 29497.037419396627 26035.9697413608
          50759.433624782956 48738.15218611401 46716.87074744507 -40893.22302869908 -40947.583978769726 -41001.94492884037
          -124966.81360424384 -123197.41494653892 -121428.01628883401 40152.02394045824 39891.26852820055 39630.51311594282
          65513.95404982909 64374.430746277285 63234.90744272548 -6693.35829589871 -3406.936869223573 -120.51544254843611
          -1246.6735982695245 5549.666028988841 12346.005656247202 96569.24759470152 100013.34810945521 103457.44862420892
          112596.24635080247 116512.73425003218 120429.2221492619 293951.2506475093 302380.3791258056 310809.5076041019
          152433.8261847162 153301.64988606446 154169.47358741268 641691.2612432258 644479.4890199722 647267.7167967184
          18722.626912627326 21032.821276501447 23343.015640375597 974232.9770930292 973635.9111198039 973038.8451465787
          -728123.000437774 -722880.0361651485 -717637.0718925229 408830.3065249381 411041.88085751695 413253.45519009576
          -1402597.1833590404 -1394653.553774525 -1386709.9241900095 -425891.8676918574 -423722.5982837448 -421553.32887563226
          -60377.675267574166 -61057.46867451226 -60838.370462299834 -61179.972337764 -61299.06565702551 -61302.47600101575
          -61431.2343107357 -60974.59022814793 -60517.946145560156 -50080.458678336916 -51195.18397302718 -52309.909267717456
          14164.642091977588 10336.479381364277 6508.316670750966 152295.21611787437 156823.67189098554 161352.1276640967
          -142771.4964225774 -994712.4571787836 -147577.5306799091 -989416.5770890319 -152383.56493724085 -984120.6969992801
          283407.0462954079 247806.75050425355 380453.73166449345 284901.25417682505 243377.56103979266 375272.95388242847
          286395.4620582423 238948.37157533184 370092.17610036355 -31119.771545809752 -30452.823802400904 -29785.876058992057
          -468149.7157202886 -470317.589687497 -472485.4636547055 347844.83824369137 344598.6602272981 341352.48221090494
          109803.55556910903 109539.98663043235 109276.41769175569 -23335.040873234604 -23215.394331285497 -23095.74778933639
          -290019.16671262146 -289316.01751386526 -288612.86831510917 -836168.2175592687 -834956.3291832331 -833744.4408071976
          -1202701.720547124 -1200876.445726215 -1199051.1709053058 -54299.448665835014 -51580.76874226169 -54288.29537115473
          -51452.24965591164 -54277.14207647444 -51323.73056956161 -49382.65170700279 -49491.231606338624 -49599.81150567445
          -52508.97109828387 -51517.44498624078 -50525.91887419767 -4438.741138475241 -7150.814723946192 -9862.888309417141
          -44406.240522172215 -43181.731837729014 -41957.22315328582 812119.8000607581 812859.4602639168 813599.1204670754
          35687.15198776468 40307.629554851694 44928.107121938716 2079824.8520966917 2069954.7772237703 2060084.7023508488
          1728580.798496163 1722916.3397215465 1717251.8809469305 682486.6754645038 679605.616580738 676724.557696972
        </DataArray>
        <DataArray type="Float64" Name="peeq" format="ascii" RangeMin="0" RangeMax="0.002277199667403871">
          0.0012963015697350657 0.0015729921304667774 0.0016863074230948035 0.0013377712049508085 0.001297677308179729 0.0015744808095146628
          0.001687603643636764 0.0013400072779565116 0.0012990530466243922 0.001575969488562548 0.0016888998641787242 0.0013422433509622143
          0.0005192329746445697 0.0005065922458588187 0.0005134650084543798 0.0005308425645786485 0.000519166477379314 0.000506718376473056
          0.0005134152807314271 0.000530660498702944 0.0005190999801140581 0.0005068445070872933 0.0005133655530084743 0.0005304784328272396
          0.00004156215688974623 0.00003313287078526394 0.000009117784573934296 5.962629276819975e-7 0.00004175222210179605 0.00003340370635922164
          0.00000932035235037561 6.125398559438387e-7 0.000041942287313845864 0.00003367454193317935 0.000009522920126816927 6.288167842056798e-7
          0.0015185672733574618 0.0012367978364291351 0.001201479378355287 0.0014853156591615295 0.0015179737158821389 0.0012369850965411474
          0.0012020805031022893 0.001485073820666837 0.0015173801584068161 0.0012371723566531596 0.0012026816278492914 0.0014848319821721447
          0.0005108309912097626 0.0005093729904617674 0.0005394921148906115 0.0005434375112396971 0.0005104885727876599 0.0005089971770131401
          0.000539144166770434 0.0005430906647005975 0.0005101461543655571 0.0005086213635645128 0.0005387962186502565 0.000542743818161498
          0.0006803746379207403 0.0006314980607860514 0.0007920769812459477 0.0008401284464416456 0.0006811844207294905 0.0006320615204537521
          0.000792722335929725 0.0008407292373894807 0.0006819942035382406 0.0006326249801214527 0.0007933676906135024 0.0008413300283373156
          0.0005207834478974031 0.0005092989864693587 0.0005178508030766835 0.0005206434716604839 0.0005092602789800359 0.0005179322231388356
          0.0005205034954235645 0.0005092215714907128 0.0005180136432009878 0.0005929124042100003 0.0006883389723156732 0.0005932520041975176
          0.0006887811979221839 0.0005935916041850348 0.0006892234235286945 0.00030375425973643217 0.0003814471064060417 0.00037709353896257303
          0.0002795681670628007 0.00030367265274312914 0.0003813466681709976 0.00037698608499371795 0.00027936920250781685 0.0003035910457498261
          0.00038124622993595354 0.0003768786310248629 0.0002791702379528329 0.0009967909544730561 0.0009570918461234511 0.0009974624759379203
          0.0009578018056644661 0.000998133997402784 0.0009585117652054814 0.0005622319143217863 0.0006349710778494807 0.0005625170734845529
          0.0006352428728402062 0.0005628022326473194 0.0006355146678309318 0.000041716166071739644 0.000015734466112167793 8.368107792854875e-7
          0.00004212003905994206 0.000016103794718161906 9.310472113221606e-7 0.000042523912048144466 0.00001647312332415602 0.0000010252836433588339
          0.0009062527193818607 0.0007507940169660018 0.0009069830043824819 0.00075156184099116 0.0009077132893831033 0.0007523296650163184
          0.00036968409289456195 0.0004398684439699362 0.000419593398678732 0.00036678969823860166 0.0003699921260223217 0.0004403130096240472
          0.0004198575875396088 0.0003669839133428073 0.0003703001591500815 0.00044075757527815807 0.00042012177640048554 0.00036717812844701286
          0.000504470333989858 0.0005366667119414422 0.0005247982424938417 0.0005042918994605176 0.0005364526017848704 0.0005245165589700186
          0.0005041134649311773 0.0005362384916282985 0.0005242348754461957 0.001161600473759721 0.0011619884232209378 0.0011623763726821541
          0.0005221859620137371 0.0005367671302277089 0.0006132232946749026 0.000522629265781742 0.0005373284304191142 0.0006136930536035235
          0.0005230725695497471 0.0005378897306105195 0.0006141628125321443 0.0004608637728996232 0.00044270082770412646 0.00048494098163928153
          0.00046060604232333176 0.0004426118293296045 0.000484874362272516 0.00046034831174704026 0.00044252283095508246 0.0004848077429057504
          0.0011114980948791365 0.0011922104974711584 0.0009997737653866 0.0011124410067497145 0.0011932889855383803 0.0010008284523420306
          0.001113383918620292 0.0011943674736056027 0.0010018831392974612 0.0010712145044364401 0.0010619997200874696 0.0010721087337165652
          0.0010631664837457472 0.0010730029629966904 0.0010643332474040243 0.00027907440037285556 0.00027094223434920826 0.0002793686270588458
          0.0002710298177452346 0.0002796628537448362 0.00027111740114126086 0.002277199667403871 0.0022756888802540473 0.0022741780931042235
          0.00038640944983925243 0.00031203177668011946 0.0003862717139395071 0.00031164945909932897 0.00038613397803976163 0.0003112671415185386
          0.000590491470713197 0.0005389424097919984 0.0005906962587523223 0.0005391545653199556 0.0005909010467914479 0.0005393667208479127
          0.0005187466229045448 0.0005189990206585481 0.0005192514184125514 0.0004706572800948809 0.00045017604217713705 0.00048126130246527974
          0.0005063854972744304 0.0004712565724473146 0.00045059391016192337 0.00048164895645311023 0.0005070533399480117 0.0004718558647997483
          0.0004510117781467097 0.00048203661044094083 0.0005077211826215929 0.0001362129909250009 0.00013628184593821637 0.0001363507009514318
          0.00006212087227121593 0.00013879325010341705 0.00006222505030726358 0.00013886866285009399 0.00006232922834331124 0.00013894407559677095
          0.0012623540451747164 0.0010913376665674726 0.0012632705623847422 0.0010924701410960271 0.0012641870795947678 0.0010936026156245814
          0.0004966909450454458 0.0004963153318455304 0.000495939718645615 0.00033376267010253475 0.0003119544847353205 0.00033385206735067407
          0.00031218194579866315 0.0003339414645988134 0.0003124094068620058 0.0004028752554482905 0.0003351813320622945 0.00033923900373771876
          0.00045373945842037977 0.0004032896518732685 0.0003355662060438855 0.0003396451902583849 0.00045418428077670484 0.0004037040482982463
          0.00033595108002547634 0.00034005137677905117 0.0004546291031330299 0.0004478152077816276 0.000436323663768116 0.00044760025384247583
          0.00043608845048550746 0.00044738529990332414 0.00043585323720289875 0.00024727982533344085 0.0002191946152964603 0.00013573353663665457
          0.00017003246788796375 0.0002470514430896813 0.00021908295952852307 0.00013593420551536226 0.00017017116812611925 0.00024682306084592174
          0.0002189713037605859 0.00013613487439407 0.0001703098683642748 0.0008936022672456865 0.0008940153379803931 0.0008944284087150995
          0.0006314997185591844 0.0005719226102095371 0.0006325882431246394 0.0005727339867513993 0.0006336767676900943 0.0005735453632932615
          0.00060258653619341 0.0006921010878523038 0.000603166810837079 0.00069277191581671 0.0006037470854807481 0.0006934427437811163
          0.0007871070954935153 0.0007878129423971761 0.0007885187893008369 0.0007388414485308874 0.0007987664272377539 0.00073914905908783
          0.0007993527291051073 0.0007394566696447727 0.0007999390309724607 0.001018084984759834 0.000852070794266177 0.0010185588876153954
          0.00085283476874895 0.0010190327904709571 0.0008535987432317229 0.0008089889439739972 0.0009643718416768397 0.0008090842175658138
          0.0009643800641669631 0.0008091794911576304 0.0009643882866570866 0.0007272087845717925 0.0007278612717555158 0.0007285137589392389
          0.0005132461750558266 0.0004930317749341728 0.0005135382710774704 0.0004932904901740389 0.0005138303670991142 0.0004935492054139052
          0.0009097701600583939 0.0008166131177882006 0.0009100907431526175 0.0008168334449067078 0.000910411326246841 0.0008170537720252149
          0.0013010889068130692 0.0010536410404008163 0.0012583429838446377 0.0013015391667942646 0.0010541740546943905 0.0012584230639614933
          0.00130198942677546 0.0010547070689879649 0.0012585031440783489 0.001377594284570359 0.0013780500019795984 0.001378505719388838
          0.0005366551741647772 0.0004747787958380374 0.000537082609925816 0.0004750773207022876 0.000537510045686855 0.00047537584556653774
          0.0005419262270443526 0.0005128523089223225 0.0005421824639434735 0.0005129829452314179 0.0005424387008425942 0.0005131135815405134
          0.00010831151210459752 0.00020343969777878186 0.00010860266114955344 0.00020348332644933457 0.00010889381019450938 0.00020352695511988728
          0.000861720108646246 0.0007028723064968183 0.000862364476716281 0.000703805599452477 0.0008630088447863161 0.0007047388924081359
          0.0017469045365341045 0.0014704707241160557 0.0016109006301054099 0.0017459799599705192 0.0014705904712268116 0.0016102453561537954
          0.0017450553834069335 0.0014707102183375673 0.001609590082202181 0.0017776493180031157 0.0017774089581089254 0.001777168598214735
          0.0004890258658720103 0.000489201018538096 0.0004893761712041814 0.0017383022321085784 0.0017370564506183188 0.0017358106691280591
          0.0015311179462697009 0.0015316237101187288 0.0015321294739677569 0.000677543124747786 0.0006776589312092274 0.000677774737670669
          0.0008485764934011949 0.0008492116803519529 0.0008498468673027108 0.001938651775231696 0.0019379179871490356 0.0019371841990663754
          0.0015128362110677512 0.0015127128110893726 0.0015125894111109937 0.0014220022091977016 0.0014885908548823445 0.0014242340075640307
          0.0014909244628155474 0.0014264658059303596 0.0014932580707487507 0.0010686025691464798 0.0010647238249314763 0.001069692053220563
          0.0010659954144851798 0.0010707815372946465 0.0010672670040388832 0.0019224047783528194 0.0019225328546855693 0.0019226609310183194
          0.0007961014348261853 0.0008145658226390567 0.0007969270406799518 0.00081535773368296 0.0007977526465337184 0.0008161496447268635
          0.00007562030078061879 0.000014497901226467415 0.00007578928939710496 0.000014577993255865296 0.00007595827801359109 0.000014658085285263182
          0.0002188842391441836 0.00021882932660913308 0.0002187744140740826 0.001772592480105004 0.001773251981998582 0.0017739114838921596
          0.00030344816657497186 0.0003864374088238357 0.00030313300430178503 0.0003861863765882196 0.00030281784202859825 0.0003859353443526036
          0.0004590614221782202 0.00044033845714849297 0.0004596569918263521 0.00044077116075564535 0.0004602525614744839 0.00044120386436279774
          0.00143820603167987 0.0014380238326159684 0.0014378416335520672 0.0016533971490837694 0.0016525037760055424 0.0016516104029273156
          0.0007113775049455042 0.0007118661248134041 0.000712354744681304 0.0005293581899428077 0.0005171015344155093 0.0005303233996394137
          0.0005179409639259024 0.0005312886093360196 0.0005187803934362953 0.0004740979276095865 0.0004742008159877007 0.00047430370436581484
          0.000558733140856031 0.0005571306973450045 0.0005534835877790019 0.0005574317228410376 0.0005584070007647952 0.0005568067648170402
          0.000553151221017014 0.0005570701499813043 0.0005580808606735593 0.0005564828322890758 0.0005528188542550262 0.000556708577121571
          0.00045676980409321843 0.0004786654273139672 0.00045708089997727533 0.0004788417306413753 0.00045739199586133217 0.0004790180339687834
          0.0004572781859441637 0.00045707001337464103 0.00045686184080511843 0.0005435962235147159 0.000550074515770377 0.0005433344061658084
          0.0005497922790030278 0.0005430725888169009 0.0005495100422356785 0.00042603471917859596 0.00038066829662614896 0.00042611845248715323
          0.00038072224254069765 0.00042620218579571067 0.00038077618845524635 0.0007076843818727338 0.0007078414306711087 0.0007079984794694833
          0.0006059079283163096 0.0006061235110812905 0.0006063390938462713 0.0003940333186408428 0.0003938949162402774 0.00039375651383971187
          0.000639130309086865 0.0006213247321279608 0.0006402210446241 0.0006223596260478152 0.000641311780161335 0.0006233945199676696
          0.0003934986443708161 0.000393400703397528 0.00039330276242423984 0.0002903982593358797 0.00027069277726492376 0.0002942611019233453
          0.00029037941054949236 0.00027062044074155584 0.0002943498428477056 0.0002903605617631051 0.0002705481042181879 0.0002944385837720658
          0.00035281762811214813 0.00035282077776384394 0.0003528239274155397 0.0004784550410688434 0.000509958804230308 0.0005074393465165853
          0.0004785778070813053 0.0005099010430392919 0.000507404122838078 0.0004787005730937672 0.0005098432818482757 0.0005073688991595707
          0.0005426687353629542 0.00054233718847112 0.0005420056415792859 0.000482280088150724 0.0004825904916078457 0.0004829008950649675
          0.0001291909364208395 0.00012938110152112663 0.00012957126662141376 0.00045170715769435945 0.0004519987441954349 0.00045229033069651037
          0.0005354225977058628 0.000539380456541438 0.0005351482390316155 0.0005390974258823985 0.0005348738803573683 0.0005388143952233588
          0.00034204031638176405 0.00034202207770169055 0.00034200383902161717 0.0006761272473793784 0.0005632260971282541 0.0006771918716226705
          0.0005643763021902234 0.0006782564958659625 0.0005655265072521925 0.0005251498749451039 0.0005056083467625769 0.0005249483256858594
          0.0005055878302519253 0.0005247467764266148 0.0005055673137412736 0.0003527069083705629 0.0003212456957979962 0.0003526506939298422
          0.00032128369419379745 0.00035259447948912144 0.00032132169258959875 0.00023653813050381864 0.00028301017598920497 0.00023640933511299088
          0.00028292809886522617 0.00023628053972216313 0.0002828460217412472 0.0004585498026891214 0.00045631682203440405 0.0003811922737926084
          0.00045826502650197424 0.00045594757949922265 0.000380830118776441 0.00045798025031482716 0.00045557833696404125 0.00038046796376027363
          0.0003099122295462808 0.0003099311982338643 0.0003099501669214479 0.000290662740528807 0.0002903985917368498 0.0002901344429448926
          0.0005090534353124108 0.0005087052860050751 0.0005083571366977395 0.00016531097277919888 0.00016535100112298338 0.0001653910294667679
          0.00012300985482240596 0.00004987414952166048 0.00006209536851899472 0.0001230329049234426 0.00005025832112285879 0.0000625019758755071
          0.00012305595502447924 0.0000506424927240571 0.00006290858323201947 0.0002042710318280427 0.00020413414836701984 0.00020399726490599696
          0.0002795765925944293 0.0002794697737467282 0.0002793629548990272 0.0002555450169461525 0.00021012330339991868 0.00025542120085790337
          0.0002100666329103967 0.00025529738476965427 0.00021000996242087467 0.000009305567931230457 0.000009618483936435652 0.000009931399941640846
          0.00007934907185160366 0.00007974532864669631 0.00008014158544178894 0 0 0
          0 0 0 0 0 0
          0 0 0 0 0 0
          0 0 0 0 0 0
          0 0 0 0 0 0
          0 0 0 3.371890916931179e-7 3.4238620076508666e-7 3.4758330983705546e-7
          0 0 0 0 0 0
          0.000015646621173158347 0.000015672481397133567 0.00001569834162110879 0.0000012513354638260308 0.000001251649028034983 0.0000012519625922439354
          0 0 0 0.00007035212173995002 0.00007038976581718916 0.00007042740989442829
          0.000025324616830718302 0.000025318715953918364 0.000025312815077118427 0.0000052190925071836915 0.000005213258564636022 0.000005207424622088353
          0.00009922523197163916 0.00009921469702930999 0.00009920416208698081 0.000054246980669130735 0.000054204454244577165 0.00005416192782002359
          0.00020399608771620633 0.00020399847664092686 0.00020400086556564742 0.00016961339516147412 0.000169533552044088 0.0001694537089267019
          0.0003037220677681058 0.000303747213377029 0.0003037723589859522 0.00032007708181798744 0.00031997484568421644 0.00031987260955044556
          0.00038509261537374607 0.00038516196524059304 0.00038523131510744007 0.0004807941823379116 0.00048066243852449983 0.0004805306947110881
          0.00042042936943419943 0.00042053119680212866 0.000420633024170058 0.0005626052150389026 0.0005624598984088605 0.0005623145817788184
          0 0 0 0 0 0
          0 0 0 0 0 0
          0 0 0 0.00002109293188985004 0.000021054506451467822 0.000021016081013085607
          0.00025345033974637525 0.0002625181904098374 0.000253531345382148 0.0002628964908243485 0.00025361235101792074 0.00026327479123885945
          0.0002028388557677093 0.0002359840936279372 0.00020081350274712728 0.0002028577073746667 0.00023592136980419453 0.00020078753727200243
          0.00020287655898162412 0.00023585864598045186 0.00020076157179687763 0.0005226560469757339 0.0005230740296424508 0.0005234920123091677
          0.00036800514515599185 0.00036841724858722573 0.00036882935201845956 0.0002462954589439277 0.0002462091427629865 0.0002461228265820453
          0.0001529372649076621 0.0001529685660767468 0.0001529998672458315 0.00022779739268341596 0.0002278304371127814 0.0002278634815421468
          0.0002778471058870085 0.0002778992047204034 0.00027795130355379833 0.0003042706309455441 0.0003043682677873256 0.00030446590462910694
          0.0003126526849855486 0.0003127812094475548 0.00031290973390956105 0 0 0
          0 0 0 0 0 0
          0 0 0 0 0 0
          0.0000034979979636080317 0.0000034872857726023896 0.000003476573581596748 0.00011494448004283247 0.00011482513895924439 0.0001147057978756563
          0.00004833969271000944 0.00004829056244118222 0.00004824143217235499 0.000290829266834628 0.0002906021352637485 0.000290375003692869
          0.0005161667629373828 0.0005158053038181107 0.0005154438446988384 0.0006383780885114746 0.0006379476021242776 0.0006375171157370804
        </DataArray>
        <DataArray type="Float64" Name="pe11" format="ascii" RangeMin="0" RangeMax="0.0022757390336937545">
          0.0012957866628875094 0.0015721304710657647 0.0016853538669702774 0.0013371687152161785 0.001297180563872495 0.0015736320284506832
          0.0016866656140735968 0.001339427768944286 0.0012985744648574805 0.0015751335858356014 0.0016879773611769163 0.0013416868226723937
          0.0005192118142184957 0.0005065770697767181 0.0005134543624740624 0.0005308256810671496 0.0005191448228091077 0.000506702530750582
          0.000513404328781097 0.000530643604160744 0.0005190778313997197 0.000506827991724446 0.0005133542950881316 0.0005304615272543386
          0.00004155306429332018 0.00003312721040407093 0.000009115828495700979 5.959476374371959e-7 0.00004174305996739221 0.000033397974564792994
          0.000009318359347864105 6.122126787990563e-7 0.00004193305564146424 0.000033668738725515055 0.000009520890200027232 6.284777201609167e-7
          0.0015180837676198248 0.001236320023634341 0.0012009851244331828 0.0014848230019116238 0.001517487243272392 0.0012365041883311727
          0.0012015849555678734 0.001484579734648587 0.0015168907189249583 0.0012366883530280045 0.001202184786702564 0.0014843364673855501
          0.0005107895416864482 0.0005093323367748491 0.0005394598785040509 0.0005434034135050611 0.0005104483100221575 0.0005089577169671383
          0.000539113018741968 0.0005430576580442908 0.000510107078357867 0.0005085830971594276 0.000538766158979885 0.0005427119025835207
          0.0006802083207043312 0.0006313760680932769 0.0007918562295105285 0.0008398667359200411 0.0006810192212314911 0.0006319384716772801
          0.0007925001153383886 0.0008404684685808573 0.0006818301217586508 0.0006325008752612832 0.0007931440011662487 0.0008410702012416735
          0.0005207572555029373 0.0005092679533919337 0.0005178211865785784 0.0005206170535504238 0.0005092284243560091 0.0005179013978409016
          0.0005204768515979102 0.0005091888953200845 0.0005179816091032247 0.0005928333784674339 0.0006881844596050147 0.0005931715338583247
          0.0006886248978490594 0.0005935096892492156 0.0006890653360931041 0.00030373032781096446 0.0003814214174956103 0.0003770597143693847
          0.0002795381839769803 0.0003036485442550174 0.0003813212022982175 0.0003769525720718676 0.00027933903893002465 0.0003035667606990704
          0.0003812209871008246 0.0003768454297743505 0.0002791398938830689 0.000996499884485396 0.000956780667580529 0.0009971682734858456
          0.0009574873399478805 0.0009978366624862948 0.000958194012315232 0.0005621805062993683 0.0006348819122907965 0.0005624639437028124
          0.0006351516236657457 0.0005627473811062565 0.0006354213350406949 0.00004170817764245671 0.000015733383888804547 8.367417780503465e-7
          0.00004211186388296614 0.00001610262829827074 9.30968503887145e-7 0.000042515550123475584 0.00001647187270773693 0.0000010251952297239435
          0.0009059752590997457 0.0007505813116454542 0.000906710703341427 0.000751353937413546 0.0009074461475831083 0.0007521265631816379
          0.00036966679147943315 0.00043983115324852255 0.0004195695268001847 0.0003667728917680485 0.0003699741473647622 0.0004402743267522877
          0.0004198328612093132 0.0003669667564847061 0.00037028150325009115 0.0004407175002560529 0.00042009619561844176 0.0003671606212013636
          0.0005044412610616962 0.0005366432594289418 0.0005247674855741367 0.000504262998339941 0.0005364294245827094 0.0005244865248649156
          0.0005040847356181856 0.0005362155897364771 0.0005242055641556947 0.0011610964010101573 0.001161483221949649 0.0011618700428891408
          0.0005221259609648583 0.0005366768088891409 0.0006131085142359086 0.0005225667660579922 0.0005372368152590102 0.0006135755439209443
          0.0005230075711511262 0.0005377968216288795 0.0006140425736059799 0.0004608353135369333 0.00044267633362071615 0.00048491280246073035
          0.00046057806493437803 0.00044258740858707903 0.00048484588856717093 0.0004603208163318226 0.0004424984835534419 0.0004847789746736115
          0.0011110950814353828 0.001191769923459797 0.0009994434145603375 0.0011120440671963739 0.001192855398953392 0.0010005059682586792
          0.0011129930529573653 0.0011939408744469871 0.0010015685219570212 0.001070831866898898 0.0010615758397676403 0.0010717377558645952
          0.0010627568819639396 0.0010726436448302923 0.0010639379241602386 0.00027906885113996997 0.0002709370361323441 0.00027936284621071176
          0.00027102452055355905 0.00027965684128145355 0.000271112004974774 0.0022757390336937545 0.002274191155275732 0.002272643276857709
          0.0003863665302121388 0.0003119893504406878 0.00038622955894402586 0.000311607466782609 0.00038609258767591297 0.00031122558312453037
          0.000590416213421518 0.0005388963677190907 0.000590618119757895 0.0005391063548681414 0.000590820026094272 0.0005393163420171923
          0.0005187203509724919 0.0005189715778772393 0.0005192228047819868 0.0004706190852376791 0.0004501584998664594 0.0004812302650324861
          0.0005063272901690501 0.00047122013226108094 0.00045057688692473505 0.0004816183602569341 0.0005069969056541953 0.0004718211792844828
          0.00045099527398301064 0.0004820064554813821 0.0005076665211393405 0.0001361569515938733 0.00013622567399672108 0.0001362943963995689
          0.0000620817847140416 0.00013875764534297325 0.0000621858782844193 0.00013883288285350423 0.00006228997185479702 0.0001389081203640352
          0.0012618894044675207 0.0010909737156282906 0.0012628146601022902 0.0010921149032345632 0.0012637399157370598 0.0010932560908408356
          0.0004966552694619561 0.0004962806342609205 0.0004959059990598848 0.0003337506815169799 0.00031194672550408277 0.0003338400159770223
          0.000312173943086857 0.0003339293504370648 0.00031240116066963116 0.00040284349015577833 0.00033517185743930765 0.00033922594727477367
          0.00045369303447218777 0.00040325703898628774 0.000335556255512148 0.0003396317226065516 0.00045413716321806154 0.0004036705878167971
          0.0003359406535849883 0.00034003749793832947 0.0004545812919639353 0.00044777988483692187 0.0004362944524343914 0.00044756558808058507
          0.00043605975229145383 0.00044735129132424817 0.0004358250521485162 0.0002472435365083595 0.00021916070577519538 0.00013571838206231766
          0.00017000954267984777 0.000247014978715556 0.00021904893837042038 0.00013591869757825363 0.00017014781859440043 0.0002467864209227526
          0.0002189371709656454 0.0001361190130941896 0.00017028609450895312 0.0008933124982028666 0.0008937220494674018 0.0008941316007319368
          0.0006313602471538821 0.0005718248686971945 0.0006324524689870267 0.0005726377354303052 0.000633544690820171 0.0005734506021634158
          0.0006024799113795137 0.0006919817540332498 0.0006030587722816325 0.0006926516675152545 0.0006036376331837513 0.0006933215809972592
          0.0007869406912679522 0.0007876446117219035 0.0007883485321758547 0.000738692116049594 0.0007985671193386316 0.0007389970710441696
          0.0007991508491942721 0.0007393020260387452 0.0007997345790499125 0.001017761724629029 0.0008518594297806859 0.001018233735105462
          0.0008526209823305327 0.0010187057455818948 0.0008533825348803796 0.0008087667889077515 0.0009639857693563294 0.0008088572435999261
          0.0009639875117670646 0.0008089476982921005 0.0009639892541777998 0.000727059308883957 0.0007277093291476128 0.0007283593494112686
          0.0005132169893693941 0.0004930186398581259 0.0005135083153541183 0.0004932766501335315 0.0005137996413388426 0.0004935346604089371
          0.0009095508866867566 0.0008164132815905316 0.0009098658823618946 0.0008166272524044631 0.0009101808780370329 0.000816841223218395
          0.0013005251025383746 0.0010532549598550023 0.0012578229148899845 0.00130097906651969 0.0010537895257121837 0.0012579019037558539
          0.0013014330305010056 0.0010543240915693649 0.0012579808926217228 0.0013770163518738309 0.0013774778690720565 0.0013779393862702826
          0.0005365967064931774 0.00047476233198526127 0.0005370240444854141 0.0004750607045813762 0.0005374513824776507 0.0004753590771774911
          0.000541867712343448 0.000512811960950511 0.0005421211680309507 0.0005129408347046263 0.0005423746237184534 0.0005130697084587414
          0.00010829383059078642 0.00020341239466184174 0.000108584773406574 0.00020345567652239947 0.00010887571622236164 0.0002034989583829572
          0.0008614296238794988 0.0007026774346426322 0.0008620814648587592 0.0007036156535780844 0.0008627333058380197 0.0007045538725135369
          0.0017463125772282557 0.0014698516994501377 0.0016103507731822816 0.0017453748164076514 0.0014699736456027838 0.0016096952038983899
          0.0017444370555870473 0.00147009559175543 0.0016090396346144981 0.0017768671631502825 0.001776606984836894 0.0017763468065235051
          0.0004890172064732463 0.0004891919897609749 0.0004893667730487038 0.0017379387240937113 0.0017366864193765876 0.0017354341146594635
          0.0015304085471409862 0.0015309169139113752 0.0015314252806817637 0.0006774203629932535 0.0006775326837543521 0.000677645004515451
          0.0008482680385149364 0.0008489105345362653 0.0008495530305575942 0.0019376347357484786 0.001936884051328065 0.0019361333669076519
          0.001512281499566364 0.0015121597502402437 0.0015120380009141232 0.0014206034451195618 0.001487455391386091 0.0014228799356082581
          0.0014898116497749502 0.0014251564260969543 0.001492167908163809 0.0010678651995313262 0.0010641344070401238 0.0010689784251868687
          0.0010654254929301815 0.0010700916508424108 0.0010667165788202395 0.0019210797509118238 0.0019211935317458063 0.001921307312579789
          0.0007957882740198529 0.0008142541352574256 0.0007966270188490862 0.0008150565690491172 0.0007974657636783195 0.0008158590028408086
          0.00007559434580685495 0.000014488112237109842 0.00007576321030364426 0.000014568168377256677 0.0000759320748004336 0.000014648224517403508
          0.000218857408457882 0.00021880210738408097 0.00021874680631028 0.001771608514128109 0.0017722587176379606 0.001772908921147812
          0.0003033981941369839 0.0003863885416419417 0.0003030834601598554 0.0003861383548396925 0.000302768726182727 0.00038588816803744336
          0.0004590289759464362 0.0004403253072116402 0.0004596262221909804 0.00044075860236919643 0.0004602234684355246 0.00044119189752675264
          0.001437645851384219 0.0014374630358758996 0.0014372802203675803 0.0016529975500194413 0.0016521014883458297 0.0016512054266722184
          0.0007112271588878668 0.000711712274344923 0.0007121973898019792 0.0005292743610960795 0.0005170272995786449 0.0005302435248064515
          0.0005178708126089174 0.0005312126885168235 0.00051871432563919 0.0004740675088681206 0.00047416949993932484 0.00047427149101052896
          0.0005587057647426344 0.0005571049079390907 0.0005534652206931443 0.0005574113802854362 0.0005583805169091141 0.0005567818567544553
          0.0005531335004975413 0.0005570505368168303 0.0005580552690755938 0.0005564588055698196 0.0005528017803019386 0.0005566896933482244
          0.0004567602563162079 0.0004786593416829611 0.00045707140708209734 0.0004788355597503254 0.0004573825578479867 0.0004790117778176897
          0.00045723593989069615 0.00045702865991099076 0.0004568213799312854 0.0005435801248839955 0.0005500511567556579 0.0005433186436238582
          0.0005497696006629254 0.000543057162363721 0.0005494880445701929 0.0004260120203837662 0.0003806500664435269 0.00042609544488439097
          0.00038070397788680927 0.00042617886938501584 0.0003807578893300917 0.0007075308185584204 0.0007076830689693762 0.000707835319380332
          0.0006058170034161699 0.0006060289871830589 0.0006062409709499478 0.00039401111302388815 0.0003938729829199426 0.00039373485281599704
          0.0006389658450973357 0.000621176042146452 0.0006400629546852385 0.0006222189855816901 0.0006411600642731414 0.0006232619290169281
          0.0003934779398641249 0.0003933801830920796 0.0003932824263200343 0.00029039035909065745 0.0002706853992283975 0.0002942550881243863
          0.00029037134921374363 0.00027061291542036466 0.0002943437472113569 0.00029035233933682975 0.0002705404316123319 0.00029443240629832746
          0.00035280255429046735 0.00035280579238981054 0.00035280903048915383 0.00047844932740857794 0.0005099509676264283 0.0005074325776039375
          0.0004785720588416399 0.0005098932680991438 0.0005073973651650684 0.0004786947902747018 0.0005098355685718592 0.0005073621527261991
          0.0005426337785268095 0.0005423032586430454 0.0005419727387592813 0.000482242457169168 0.00048255110635308965 0.0004828597555370113
          0.00012916912882718427 0.00012935907157086946 0.00012954901431455466 0.000451700070300361 0.00045199175473474655 0.0004522834391691321
          0.0005354109334714881 0.0005393668641765167 0.0005351368985240083 0.0005390842215864509 0.0005348628635765286 0.0005388015789963851
          0.0003420235191265973 0.0003420053136525964 0.0003419871081785956 0.0006759332806710423 0.0005631188925914005 0.0006770027508528324
          0.0005642728559133353 0.0006780722210346225 0.0005654268192352701 0.0005251398292583446 0.0005056018782987493 0.0005249383202053968
          0.0005055812349973245 0.0005247368111524491 0.0005055605916958996 0.00035269190340006887 0.00032123640883150416 0.00035263581158535574
          0.0003212743998922996 0.0003525797197706426 0.0003213123909530949 0.0002365142069591704 0.00028299294752011166 0.00023638510800400326
          0.0002829106506309309 0.00023625600904883613 0.0002828283537417502 0.0004585051254946986 0.00045627203279026917 0.0003811417145384258
          0.0004582214435849887 0.0004559039328197829 0.00038078014607802917 0.0004579377616752788 0.00045553583284929666 0.0003804185776176324
          0.00030990044082644734 0.00030991925809832957 0.0003099380753702118 0.00029061612965490286 0.0002903518690165638 0.0002900876083782247
          0.0005090126096530699 0.0005086656300531182 0.0005083186504531667 0.0001652802255631763 0.00016531995970637696 0.00016535969384957755
          0.00012300060306642574 0.00004987008959481413 0.00006208946388904459 0.00012302343297790588 0.00005025408595350215 0.00006249584802758056
          0.00012304626288938601 0.000050638082312190184 0.00006290223216611652 0.00020424592805634155 0.00020410878186916446 0.00020397163568198738
          0.0002795650493911506 0.00027945804450562136 0.0002793510396200921 0.0002555304754717666 0.00021009860549640118 0.0002554064546306548
          0.0002100416691654339 0.00025528243378954304 0.00020998473283446667 0.000009305077116605045 0.000009617943238905554 0.000009930809361206065
          0.00007933688624792211 0.00007973282854800093 0.00008012877084807975 0 0 0
          0 0 0 0 0 0
          0 0 0 0 0 0
          0 0 0 0 0 0
          0 0 0 0 0 0
          0 0 0 3.367525354567473e-7 3.4194296107908556e-7 3.471333867014238e-7
          0 0 0 0 0 0
          0.000015622191873293455 0.000015648011040833453 0.00001567383020837345 0.0000012465479355905679 0.0000012468605026409415 0.0000012471730696913152
          0 0 0 0.00007025197347351412 0.00007028950206004345 0.00007032703064657277
          0.00002522486023926046 0.000025218933904592035 0.000025213007569923615 0.000005178835848984445 0.000005173022576844996 0.000005167209304705546
          0.00009890315037694741 0.00009889227794026446 0.00009888140550358151 0.000053841516222754927 0.0000537989651615433 0.000053756414100331646
          0.00020354721132283683 0.00020354878479394867 0.0002035503582650606 0.00016856552504599547 0.00016848490005395413 0.0001684042750619128
          0.00030337426380937444 0.0003033983232675105 0.0003034223827256466 0.000318689843492318 0.00031858541087931405 0.00031848097826631
          0.00038492274708681467 0.00038499093799137135 0.0003850591288959279 0.0004794839742123261 0.000479347836147166 0.00047921169808200583
          0.00042034171305399906 0.00042044238995899227 0.0004205430668639855 0.0005613939507844663 0.0005612427654742157 0.000561091580163965
          0 0 0 0 0 0
          0 0 0 0 0 0
          0 0 0 0.00002083820570650249 0.00002080011367149583 0.000020762021636489176
          0.0002534465132877188 0.00026251286523683965 0.00025352744611129366 0.0002628908643821183 0.0002536083789348685 0.00026326886352739693
          0.00020280224623069152 0.0002359763945219629 0.00020079061692340812 0.00020282100573688157 0.00023591361225050477 0.00020076450870847316
          0.00020283976524307161 0.00023585082997904669 0.00020073840049353818 0.0005225916169787967 0.0005230091917503717 0.0005234267665219466
          0.00036797987811412655 0.00036839162326347824 0.0003688033684128299 0.0002462860010437718 0.0002461995517683836 0.0002461131024929954
          0.00015278982959495568 0.00015282091634229183 0.00015285200308962798 0.00022769167717099723 0.0002277244726116403 0.0002277572680522834
          0.00027780427376431074 0.00027785618104231573 0.0002779080883203208 0.00030425981889586223 0.0003043573377485715 0.0003044548566012808
          0.00031264785368654083 0.0003127762939117866 0.00031290473413703244 0 0 0
          0 0 0 0 0 0
          0 0 0 0 0 0
          0.0000034431569594591577 0.0000034326290739841446 0.000003422101188509132 0.00011357072186014132 0.00011345209102341 0.00011333346018667866
          0.00004748174161025784 0.00004743372456182339 0.00004738570751338894 0.0002876905677233556 0.0002874630012883541 0.0002872354348533527
          0.0005111377684951182 0.000510772012753231 0.0005104062570113439 0.0006323594338508028 0.0006319219776335821 0.0006314845214163613
        </DataArray>
        <DataArray type="Float64" Name="pe22" format="ascii" RangeMin="-0.0012007557168044302" RangeMax="0">
          -0.0006769668677771485 -0.0008280832605971774 -0.0008865590017347574 -0.0006999733404206465 -0.0006769762739994949 -0.0008283597736494994
          -0.0008866179826583376 -0.00070030770733787 -0.000676985680221841 -0.0008286362867018215 -0.0008866769635819179 -0.0007006420742550936
          -0.0002580677536996454 -0.00025287245834178365 -0.0002556685254935973 -0.0002631802565625228 -0.00025804986596755775 -0.0002529198099357953
          -0.00025565889497429744 -0.00026313675336785803 -0.0002580319782354701 -0.000252967161529807 -0.00025564926445499766 -0.0002630932501731933
          -0.00002047169690343929 -0.000016253207614245076 -0.000004454421176845354 -2.8687836011813163e-7 -0.000020559355777393834 -0.000016381204702299468
          -0.000004552353502673007 -2.9457528871360036e-7 -0.00002064701465134838 -0.00001650920179035386 -0.000004650285828500662 -3.022722173090691e-7
          -0.0007802345464751434 -0.0006340301170347882 -0.0006136831643205443 -0.0007628480073985138 -0.0007802758921106571 -0.0006340843727139945
          -0.0006139018810894591 -0.0007629277403550501 -0.0007803172377461708 -0.0006341386283932007 -0.0006141205978583739 -0.0007630074733115863
          -0.000249847722147231 -0.00024922854680893574 -0.0002648961784701691 -0.0002665050652010075 -0.00024976566058014407 -0.00024913117854123896
          -0.0002648182469157626 -0.00026642329944535437 -0.00024968359901305715 -0.0002490338102735422 -0.00026474031536135613 -0.0002663415336897013
          -0.00034774819168954335 -0.00032097722423957993 -0.00040374349573526195 -0.00042990427662342593 -0.00034793421641997926 -0.00032111114640347
          -0.0004038850861495331 -0.000429970487658853 -0.00034812024115041506 -0.00032124506856736013 -0.00040402667656380426 -0.00043003669869428
          -0.0002578774836498347 -0.0002529299945399104 -0.00025812036859005076 -0.00025784469901316145 -0.0002529207882289755 -0.00025813709009434136
          -0.00025781191437648825 -0.00025291158191804053 -0.0002581538115986318 -0.0002997708563379726 -0.00034891358251515516 -0.0002998350462087487
          -0.00034900259994137745 -0.0002998992360795248 -0.00034909161736759985 -0.00014926069031523495 -0.00018724547987203732 -0.000184414838876802
          -0.00013696211590433373 -0.0001492367237767662 -0.0001872182848707808 -0.00018439135642158642 -0.00013687896682665845 -0.00014921275723829745
          -0.00018719108986952433 -0.0001843678739663708 -0.00013679581774898321 -0.0005080882250425313 -0.0004857822172853396 -0.0005082139545553692
          -0.00048591706898115205 -0.000508339684068207 -0.0004860519206769646 -0.0002825303323796448 -0.0003196136328344113 -0.000282585600841104
          -0.0003196521277630478 -0.00028264086930256306 -0.0003196906226916843 -0.00002035942684352757 -0.000007740532381083724 -4.106419232895733e-7
          -0.000020548817816216048 -0.000007917441198316012 -4.5674154526016404e-7 -0.000020738208788904524 -0.0000080943500155483 -5.028411672307548e-7
          -0.00046587104010217795 -0.00038593909156115305 -0.00046589113144108606 -0.00038604109934401023 -0.00046591122277999406 -0.00038614310712686763
          -0.00018403396173306713 -0.0002193191013731159 -0.0002085789495440994 -0.000181831479794813 -0.00018412262017560184 -0.00021945242371401876
          -0.00020866403386433766 -0.00018189714878095607 -0.0001842112786181365 -0.00021958574605492162 -0.00020874911818457594 -0.0001819628177670991
          -0.00024900478384918103 -0.0002650799394520253 -0.00025820643729667584 -0.00024896376322222 -0.00026503203162713684 -0.0002581428041531897
          -0.000248922742595259 -0.0002649841238022484 -0.0002580791710097036 -0.0005908621456077738 -0.0005909393111838921 -0.0005910164767600104
          -0.0002611375279907332 -0.0002698692499451501 -0.0003086547180972142 -0.00026127746669741734 -0.0002700227682371461 -0.00030879902117845115
          -0.00026141740540410136 -0.0002701762865291422 -0.000308943324259688 -0.00022676869563729632 -0.0002185951311200416 -0.0002401900348763259
          -0.00022668556609391563 -0.00021856747962050956 -0.00024017673081395003 -0.00022660243655053493 -0.00021853982812097743 -0.0002401634267515742
          -0.0005725891341720605 -0.0006172519593565159 -0.0005172750032087342 -0.000572694575271497 -0.0006174408904091845 -0.0005173739548433107
          -0.0005728000163709336 -0.000617629821461853 -0.0005174729064778873 -0.0005575311668393758 -0.0005540248895047181 -0.0005574649249310402
          -0.0005541056694444833 -0.0005573986830227047 -0.0005541864493842486 -0.0001392014634874321 -0.00013499271101456497 -0.00013930946216894076
          -0.0001350283390329172 -0.00013941746085044946 -0.0001350639670512694 -0.0012007557168044302 -0.0012005293029747645 -0.0012003028891450988
          -0.00018847408920134423 -0.0001520130898288998 -0.000188462230184807 -0.00015187167545924202 -0.00018845037116826978 -0.00015173026108958424
          -0.00029581285000118696 -0.0002694043138988768 -0.00029583824456286945 -0.0002694512693509857 -0.00029586363912455194 -0.0002694982248030946
          -0.0002597901693232133 -0.0002598605128742795 -0.0002599308564253457 -0.00023974985770274418 -0.00022767681283746217 -0.00024369402982065194
          -0.000258192382605133 -0.00023989120995683693 -0.00022777890205914202 -0.00024377660247606198 -0.0002583428434636404 -0.00024003256221092972
          -0.00022788099128082193 -0.00024385917513147207 -0.0002584933043221479 -0.00006637331647057858 -0.00006641056766489034 -0.00006644781885920211
          -0.000030058345692637286 -0.00006819176296996188 -0.00003010717629105443 -0.00006823196749357395 -0.000030156006889471575 -0.00006827217201718603
          -0.0006565788030432472 -0.0005662618954801274 -0.0006566349460465782 -0.0005663394117388301 -0.0006566910890499092 -0.0005664169279975327
          -0.00024356581665125715 -0.00024345963217168432 -0.00024335344769211157 -0.0001652303382213004 -0.00015523979666217953 -0.00016526343701038336
          -0.0001553166004833361 -0.00016529653579946632 -0.00015539340430449267 -0.00020164871120495546 -0.0001673443149610352 -0.00016974767600674308
          -0.00022808550924120416 -0.00020177009184267055 -0.0001674737646459537 -0.00016987606566378418 -0.00022820132852971193 -0.00020189147248038568
          -0.0001676032143308722 -0.00017000445532082525 -0.00022831714781821968 -0.0002192236465091387 -0.0002141430553308437 -0.00021916850732665207
          -0.00021406618126016322 -0.00021911336814416546 -0.00021398930718948277 -0.00012047227772224309 -0.00010672153556241989 -0.00006650483904371752
          -0.000083224850751179 -0.0001203793845404967 -0.00010666815597941342 -0.00006658922623412912 -0.00008328720008639423 -0.00012028649135875028
          -0.00010661477639640694 -0.00006667361342454074 -0.00008334954942160948 -0.00045158050188344185 -0.000451606919745204 -0.0004516333376069661
          -0.00032416419366871165 -0.0002920675102948523 -0.0003244356916083487 -0.0002922598115072904 -0.0003247071895479858 -0.00029245211271972853
          -0.00030382759420474173 -0.000349703186589715 -0.000303971323158633 -0.00034988258476362905 -0.00030411505211252424 -0.0003500619829375431
          -0.0003972263857112193 -0.0003973999395686212 -0.00039757349342602294 -0.00037265975637306846 -0.00040516698702082997 -0.0003726761394237816
          -0.0004052701065312109 -0.00037269252247449476 -0.0004053732260415918 -0.0005208994910152016 -0.0004334558351880898 -0.0005209430356330869
          -0.000433621641014228 -0.0005209865802509721 -0.0004337874468403661 -0.00040791842157637695 -0.00048722929309810985 -0.0004078592695662154
          -0.0004871661293471223 -0.00040780011755605364 -0.0004871029655961348 -0.0003670409783158485 -0.0003671991681055685 -0.0003673573578952885
          -0.00025828883570265434 -0.0002468952574918786 -0.0002583583326489213 -0.000246982047080594 -0.0002584278295951882 -0.0002470688366693094
          -0.00045833230944645423 -0.00041184993713940275 -0.00045839995671744654 -0.0004118901910225359 -0.0004584676039884388 -0.000411930444905669
          -0.0006730213549587625 -0.000541271704958501 -0.0006483706938850144 -0.0006730924529956329 -0.0005412739619734201 -0.0006483218578683625
          -0.0006731635510325031 -0.0005412762189883391 -0.0006482730218517108 -0.0007135315899114259 -0.0007136480264751897 -0.0007137644630389533
          -0.00027212006607566435 -0.00023900704559181026 -0.00027220557094150997 -0.0002390793903979926 -0.0002722910758073555 -0.000239151735204175
          -0.00027082583688175913 -0.00025551120499875087 -0.0002708909062208413 -0.00025554723901339036 -0.00027095597555992345 -0.00025558327302802975
          -0.00005317408199796764 -0.00010002789644525234 -0.00005330973970227799 -0.00010005164790659686 -0.000053445397406588324 -0.0001000753993679414
          -0.00044662589854585125 -0.00036251063102314506 -0.0004466305150660874 -0.00036271649806539076 -0.0004466351315863235 -0.0003629223651076365
          -0.000907007102817629 -0.000765107515512934 -0.0008335199750253205 -0.0009069919858123653 -0.0007651989769275162 -0.0008335351266970691
          -0.0009069768688071015 -0.0007652904383420986 -0.0008335502783688179 -0.0009306404042692729 -0.0009309143864283864 -0.0009311883685874998
          -0.00024468807602683615 -0.0002447396243225813 -0.0002447911726183265 -0.0008930460756741813 -0.0008930270019905911 -0.0008930079283070008
          -0.0008023465726269769 -0.0008025481589581467 -0.0008027497452893167 -0.00034019842319311586 -0.0003401647822821293 -0.0003401311413711428
          -0.00044115625434927114 -0.0004412077887591587 -0.00044125932316904626 -0.001017525424427968 -0.0010173072843969277 -0.0010170891443658874
          -0.0007819796150559847 -0.0007821214398330267 -0.0007822632646100686 -0.0007581609416148287 -0.0007869062342430667 -0.0007583682250956624
          -0.0007875291597708644 -0.0007585755085764961 -0.0007881520852986625 -0.0005645899751096122 -0.0005590383434497487 -0.0005645286819576871
          -0.0005591219370327826 -0.000564467388805762 -0.0005592055306158167 -0.0010148448751209787 -0.0010150473884504697 -0.0010152499017799608
          -0.0004148897467596847 -0.00042394434842596944 -0.0004148332284208498 -0.0004239675324502892 -0.000414776710082015 -0.0004239907164746088
          -0.000037113448609881836 -0.000006993606165477186 -0.000037192034852391236 -0.00000703086739660753 -0.000037270621094900636 -0.0000070681286277378715
          -0.00010772908776651763 -0.00010771135547248112 -0.00010769362317844465 -0.0009330750605127442 -0.0009334272461549619 -0.0009337794317971793
          -0.00014738318175410396 -0.00018819928171307174 -0.000147260839648204 -0.00018813587289764818 -0.00014713849754230407 -0.0001880724640822246
          -0.0002337852149529152 -0.00022258972768391002 -0.00023393272920359866 -0.00022269835112297538 -0.00023408024345428213 -0.00022280697456204075
          -0.0007424774386469746 -0.0007425109702351914 -0.0007425445018234082 -0.0008488923702034868 -0.0008489871645563439 -0.000849081958909201
          -0.00035932647821130544 -0.0003594593087744294 -0.00035959213933755337 -0.00027202249729336346 -0.00026565145053704983 -0.0002722654814682654
          -0.0002658378521022016 -0.0002725084656431673 -0.0002660242536673533 -0.00023555652069435305 -0.00023559414180518483 -0.00023563176291601656
          -0.0002746210411669077 -0.00027405755390710553 -0.0002731595012253193 -0.00027476615633396874 -0.0002745435149476285 -0.00027398317833796717
          -0.00027307613863840357 -0.00027466988601817675 -0.0002744659887283493 -0.0002739088027688288 -0.00027299277605148783 -0.00027457361570238476
          -0.00022990939058277222 -0.00023974480043833542 -0.00022999429789128195 -0.00023980018493214406 -0.00023007920519979162 -0.0002398555694259527
          -0.00022335608201153295 -0.00022331500864551627 -0.0002232739352794996 -0.0002689007454998788 -0.00027110967168769907 -0.00026884111953086266
          -0.00027104932857717495 -0.0002687814935618465 -0.00027098898546665083 -0.00021100865962756185 -0.00018797760922578652 -0.000211041944875919
          -0.0001880029432449306 -0.0002110752301242761 -0.00018802827726407468 -0.00035629076483233613 -0.0003563078879327174 -0.00035632501103309875
          -0.0003035976358744102 -0.00030363680393001683 -0.00030367597198562333 -0.0001939020060003716 -0.00019385727213398288 -0.00019381253826759417
          -0.0003305618069889894 -0.0003214563727464314 -0.0003307882487356632 -0.0003216043169573323 -0.000331014690482337 -0.00032175226116823327
          -0.00019384167742908726 -0.00019380784675071376 -0.00019377401607234023 -0.00014411362195185205 -0.00013452500868240788 -0.00014630336078033722
          -0.00014411522845243088 -0.0001345023551028054 -0.00014634032189794427 -0.00014411683495300974 -0.00013447970152320293 -0.00014637728301555137
          -0.00017402310594507274 -0.000174031161703247 -0.00017403921746142123 -0.00023960042877926887 -0.0002536666565694833 -0.0002526482955675912
          -0.0002396420844447126 -0.0002536556377588511 -0.00025264086978837484 -0.00023968374011015635 -0.00025364461894821893 -0.0002526334440091585
          -0.0002660338760859673 -0.0002659525276624203 -0.0002658711792388733 -0.00024049536823544072 -0.0002405952916744587 -0.00024069521511347675
          -0.0000637017717851212 -0.00006379058674480365 -0.0000638794017044861 -0.00022729851643544467 -0.0002273800864627801 -0.00022746165649011556
          -0.00026524692849206824 -0.000266811710727913 -0.00026516617658846277 -0.00026672769508361726 -0.0002650854246848573 -0.00026664367943932154
          -0.0001685457680929717 -0.00016855102797926817 -0.00016855628786556457 -0.00034961413020164487 -0.0002894360955260537 -0.0003498816575497447
          -0.00028974826871918047 -0.00035014918489784466 -0.0002900604419123071 -0.0002608625737695835 -0.0002520129311163258 -0.0002608037190264833
          -0.00025200334037875946 -0.00026074486428338307 -0.0002519937496411932 -0.0001739196905356841 -0.00015902739209475337 -0.00017390370176468325
          -0.00015904815420737168 -0.00017388771299368233 -0.00015906891631998997 -0.00011668623184733704 -0.00013959135388006474 -0.00011664016777268658
          -0.00013956594331396844 -0.00011659410369803612 -0.0001395405327478722 -0.0002238714355667301 -0.00022281979126680714 -0.0001856127667272753
          -0.00022380611018920794 -0.00022271834880627217 -0.0001854800677530499 -0.0002237407848116858 -0.00022261690634573717 -0.00018534736877882455
          -0.00015320172310436076 -0.00015321855142991537 -0.00015323537975546996 -0.0001412997669304928 -0.00014116457330915868 -0.0001410293796878246
          -0.00024902825540607486 -0.00024894253267825317 -0.0002488568099504315 -0.00008154923843111291 -0.00008157328359477618 -0.00008159732875843946
          -0.000060545008126750924 -0.000024582627022823043 -0.00003052623362889324 -0.00006053627247185967 -0.000024758304534549063 -0.000030712302805695205
          -0.000060527536816968425 -0.00002493398204627508 -0.00003089837198249716 -0.0000998169669497973 -0.00009972585864126468 -0.00009963475033273207
          -0.00013837531596553148 -0.0001383412530564815 -0.00013830719014743152 -0.0001264748744685053 -0.000103858603514333 -0.0001264349612002329
          -0.00010384527802867482 -0.00012639504793196052 -0.00010383195254301666 -0.0000045849676472432045 -0.000004736280819969812 -0.0000048875939926964184
          -0.00003880335886665519 -0.00003898274081185703 -0.00003916212275705887 0 0 0
          0 0 0 0 0 0
          0 0 0 0 0 0
          0 0 0 0 0 0
          0 0 0 0 0 0
          0 0 0 -1.5870276966104047e-7 -1.6111363147794976e-7 -1.6352449329485904e-7
          0 0 0 0 0 0
          -0.000007369006368322563 -0.000007380277540706972 -0.00000739154871309138 -5.615556447463104e-7 -5.615880329053697e-7 -5.61620421064429e-7
          0 0 0 -0.00003332769685176945 -0.00003334502007287323 -0.000033362343293977
          -0.000011450157090344912 -0.00001144635970083061 -0.000011442562311316311 -0.000002239506519187975 -0.000002236493333696981 -0.0000022334801482059864
          -0.000045561446989547975 -0.000045556357827724905 -0.000045551268665901834 -0.000023582768214421376 -0.00002356181163793019 -0.000023540855061439007
          -0.00009564849791488027 -0.00009565541501917929 -0.00009566233212347832 -0.00007546338920089735 -0.00007543105792918584 -0.00007539872665747433
          -0.0001458434231268935 -0.0001458626094133595 -0.00014588179569982552 -0.0001473690080060121 -0.00014733346294085292 -0.00014729791787569378
          -0.00018871553879612628 -0.0001887458016332349 -0.0001887760644703435 -0.0002292270242807975 -0.00022916346628857234 -0.00022909990829634723
          -0.00020769553608032738 -0.00020773404215851005 -0.0002077725482366927 -0.00027195628756089877 -0.0002718714859453441 -0.00027178668432978944
          0 0 0 0 0 0
          0 0 0 0 0 0
          0 0 0 -0.000008722324402093574 -0.000008704201009008385 -0.000008686077615923196
          -0.0001263273056991695 -0.00013108472148229514 -0.00012636158584752936 -0.00013123246786380532 -0.00012639586599588927 -0.0001313802142453155
          -0.00009973397666586858 -0.00011709481199886454 -0.00009914508526034284 -0.00009975359052039417 -0.00011707929762044704 -0.00009914495862360301
          -0.00009977320437491977 -0.00011706378324202957 -0.00009914483198686319 -0.0002630192161778849 -0.0002631044745360915 -0.00026318973289429814
          -0.0001846447265911036 -0.00018476537305671858 -0.00018488601952233358 -0.0001223090657431087 -0.00012228134481623022 -0.0001222536238893517
          -0.00007334702858549697 -0.00007336603801324143 -0.0000733850474409859 -0.00011089902014470865 -0.00011092319604734524 -0.00011094737194998182
          -0.00013702185275435208 -0.0001370529270442998 -0.0001370840013342475 -0.00015139748641078893 -0.0001514417798784917 -0.0001514860733461944
          -0.00015609003693751295 -0.00015614373406387975 -0.00015619743119024658 0 0 0
          0 0 0 0 0 0
          0 0 0 0 0 0
          -0.0000013900937710700964 -0.000001385350663530057 -0.0000013806075559900178 -0.00004860399843480691 -0.00004855076947033636 -0.00004849754050586579
          -0.00001972744740213042 -0.00001970342958174538 -0.00001967941176136035 -0.0001280703095461167 -0.0001279759531505005 -0.00012788159675488432
          -0.00023775898960459258 -0.00023758960909110317 -0.00023742022857761377 -0.0002991407081823785 -0.0002989204488038613 -0.00029870018942534406
        </DataArray>
        <DataArray type="Float64" Name="pe33" format="ascii" RangeMin="-0.0010749833168893243" RangeMax="0">
          -0.0006188197951103607 -0.0007440472104685871 -0.0007987948652355196 -0.0006371953747955321 -0.000620204289873 -0.0007452722548011834
          -0.000800047631415259 -0.000639120061606416 -0.0006215887846356392 -0.0007464972991337796 -0.0008013003975949982 -0.0006410447484173
          -0.0002611440605188502 -0.00025370461143493436 -0.0002577858369804651 -0.0002676454245046266 -0.00026109495684154986 -0.00025378272081478663
          -0.00025774543380679944 -0.00026750685079288594 -0.00026104585316424954 -0.0002538608301946389 -0.00025770503063313383 -0.0002673682770811452
          -0.000021081367389880898 -0.00001687400278982585 -0.000004661407318855626 -3.0906927731906426e-7 -0.000021183704189998377 -0.000017016769862493522
          -0.000004766005845191097 -3.176373900854559e-7 -0.000021286040990115855 -0.000017159536935161195 -0.0000048706043715265685 -3.2620550285184764e-7
          -0.0007378492211446814 -0.0006022899065995528 -0.0005873019601126386 -0.0007219749945131101 -0.0007372113511617344 -0.0006024198156171783
          -0.0005876830744784143 -0.0007216519942935368 -0.0007365734811787875 -0.0006025497246348038 -0.00058806418884419 -0.0007213289940739635
          -0.0002609418195392172 -0.00026010378996591335 -0.0002745637000338818 -0.00027689834830405344 -0.00026068264944201344 -0.00025982653842589935
          -0.0002742947718262053 -0.0002766343585989364 -0.0002604234793448097 -0.0002595492868858853 -0.00027402584361852883 -0.0002763703688938193
          -0.0003324601290147878 -0.00031039884385369697 -0.0003881127337752666 -0.00040996245929661516 -0.00033308500481151176 -0.00031082732527381
          -0.00038861502918885547 -0.00041049798092200417 -0.0003337098806082357 -0.000311255806693923 -0.00038911732460244434 -0.00041103350254739323
          -0.0002628797718531026 -0.0002563379588520233 -0.0002597008179885277 -0.00026277235453726216 -0.0002563076361270336 -0.0002597643077465602
          -0.0002626649372214218 -0.00025627731340204386 -0.00025982779750459276 -0.00029306252212946127 -0.00033927087708985953 -0.0002933364876495761
          -0.0003396222979076819 -0.0002936104531696908 -0.0003399737187255043 -0.0001544696374957295 -0.00019417593762357293 -0.00019264487549258268
          -0.00014257606807264658 -0.00015441182047825123 -0.00019410291742743662 -0.00019256121565028122 -0.00014246007210336615 -0.00015435400346077295
          -0.00019402989723130032 -0.0001924775558079797 -0.00014234407613408567 -0.0004884116594428647 -0.0004709984502951894 -0.0004889543189304762
          -0.0004715702709667283 -0.0004894969784180877 -0.0004721420916382672 -0.00027965017391972334 -0.00031526827945638523 -0.0002798783428617084
          -0.0003154994959026979 -0.0002801065118036934 -0.0003157307123490105 -0.00002134875079892914 -0.000007992851507720824 -4.26099854760773e-7
          -0.000021563046066750092 -0.000008185187099954726 -4.742269586269808e-7 -0.00002177734133457105 -0.00000837752269218863 -5.223540624931886e-7
          -0.00044010421899756783 -0.000364642220084301 -0.00044081957190034095 -0.00036531283806953566 -0.00044153492480311407 -0.0003659834560547703
          -0.00018563282974636602 -0.00022051205187540658 -0.0002109905772560853 -0.00018494141197323546 -0.0001858515271891603 -0.00022082190303826895
          -0.0002111688273449756 -0.00018506960770374995 -0.00018607022463195462 -0.00022113175420113135 -0.00021134707743386585 -0.00018519780343426447
          -0.0002554364772125152 -0.0002715633199769164 -0.0002665610482774607 -0.0002552992351177209 -0.0002713973929555724 -0.0002663437207117258
          -0.00025516199302292653 -0.0002712314659342285 -0.00026612639314599096 -0.0005702342554023832 -0.0005705439107657568 -0.0005708535661291304
          -0.00026098843297412506 -0.00026680755894399074 -0.0003044537961386943 -0.00026128929936057496 -0.0002672140470218641 -0.0003047765227424931
          -0.0002615901657470248 -0.00026762053509973735 -0.00030509924934629185 -0.00023406661789963692 -0.00022408120250067446 -0.0002447227675844043
          -0.0002338924988404623 -0.0002240199289665694 -0.0002446691577532208 -0.0002337183797812876 -0.0002239586554324644 -0.0002446155479220372
          -0.0005385059472633222 -0.0005745179641032812 -0.00048216841135160317 -0.0005393494919248769 -0.0005754145085442076 -0.00048313201341536853
          -0.0005401930365864316 -0.000576311052985134 -0.0004840956154791339 -0.0005133007000595222 -0.0005075509502629221 -0.000514272830933555
          -0.000508651212519456 -0.0005152449618075878 -0.0005097514747759899 -0.00013986738765253784 -0.00013594432511777906 -0.00014005338404177097
          -0.00013599618152064182 -0.00014023938043100404 -0.0001360480379235046 -0.0010749833168893243 -0.001073661852300967 -0.0010723403877126096
          -0.00019789244101079456 -0.00015997626061178794 -0.00019776732875921888 -0.00015973579132336698 -0.00019764221650764318 -0.00015949532203494602
          -0.00029460336342033104 -0.0002694920538202139 -0.0002947798751950255 -0.0002696550855171558 -0.00029495638696971997 -0.0002698181172140976
          -0.0002589301816492786 -0.0002591110650029598 -0.00025929194835664103 -0.0002308692275349348 -0.00022248168702899718 -0.0002375362352118341
          -0.00024813490756391704 -0.00023132892230424393 -0.0002227979848655929 -0.00023784175778087204 -0.00024865406219055485 -0.00023178861707355306
          -0.00022311428270218862 -0.00023814728034991 -0.00024917321681719256 -0.00006978363512329472 -0.00006981510633183073 -0.00006984657754036675
          -0.000032023439021404295 -0.00007056588237301133 -0.00003207870199336486 -0.00007060091535993025 -0.000032133964965325424 -0.00007063594834684915
          -0.0006053106014242733 -0.0005247118201481632 -0.0006061797140557118 -0.0005257754914957331 -0.0006070488266871504 -0.000526839162843303
          -0.00025308945281069895 -0.0002528210020892361 -0.0002525525513677732 -0.00016852034329567953 -0.00015670692884190324 -0.000168576578966639
          -0.00015685734260352082 -0.00016863281463759842 -0.00015700775636513838 -0.00020119477895082281 -0.0001678275424782724 -0.0001694782712680306
          -0.0002256075252309836 -0.00020148694714361713 -0.00016808249086619422 -0.0001697556569427674 -0.00022593583468834958 -0.00020177911533641148
          -0.000168337439254116 -0.0001700330426175042 -0.0002262641441457156 -0.00022855623832778317 -0.0002221513971035476 -0.00022839708075393295
          -0.0002219935710312905 -0.00022823792318008268 -0.00022183574495903343 -0.00012677125878611637 -0.00011243917021277547 -0.00006921354301860015
          -0.00008678469192866873 -0.0001266355941750593 -0.00011238078239100695 -0.00006932947134412451 -0.0000868606185080062 -0.00012649992956400227
          -0.00011232239456923845 -0.00006944539966964888 -0.00008693654508734365 -0.00044173199631942475 -0.00044211512972219764 -0.0004424982631249705
          -0.0003071960534851703 -0.00027975735840234204 -0.00030801677737867775 -0.0002803779239230146 -0.0003088375012721852 -0.0002809984894436872
          -0.00029865231717477185 -0.0003422785674435348 -0.0002990874491229995 -0.0003427690827516254 -0.0002995225810712271 -0.000343259598059716
          -0.00038971430555673295 -0.0003902446721532824 -0.0003907750387498318 -0.0003660323596765254 -0.0003934001323178015 -0.0003663209316203879
          -0.0003938807426630611 -0.0003666095035642504 -0.0003943613530083207 -0.0004968622336138273 -0.00041840359459259605 -0.0004972906994723749
          -0.0004189993413163047 -0.0004977191653309227 -0.0004195950880400134 -0.0004008483673313745 -0.0004767564762582195 -0.00040099797403371067
          -0.0004768213824199422 -0.00040114758073604684 -0.0004768862885816649 -0.0003600183305681084 -0.00036051016104204426 -0.00036100199151598006
          -0.0002549281536667396 -0.00024612338236624734 -0.000255149982705197 -0.00024629460305293743 -0.00025537181174365434 -0.00024646582373962764
          -0.0004512185772403024 -0.0004045633444511288 -0.0004514659256444481 -0.0004047370613819273 -0.0004517132740485939 -0.00040491077831272576
          -0.0006275037475796121 -0.0005119832548965014 -0.0006094522210049701 -0.0006278866135240571 -0.0005125155637387635 -0.0006095800458874912
          -0.0006282694794685023 -0.0005130478725810258 -0.000609707870770012 -0.0006634847619624048 -0.000663829842596867 -0.000664174923231329
          -0.00026447664041751305 -0.00023575528639345093 -0.0002648184735439041 -0.00023598131418338345 -0.0002651603066702952 -0.00023620734197331604
          -0.00027104187546168895 -0.0002573007559517601 -0.00027123026181010936 -0.00025739359569123594 -0.00027141864815852983 -0.0002574864354307117
          -0.00005511974859281877 -0.00010338449821658943 -0.00005527503370429602 -0.00010340402861580259 -0.000055430318815773304 -0.00010342355901501576
          -0.00041480372533364747 -0.000340166803619487 -0.0004154509497926718 -0.0003408991555126937 -0.00041609817425169613 -0.00034163150740590035
          -0.0008393054744106265 -0.0007047441839372036 -0.0007768307981569607 -0.000838382830595286 -0.0007047746686752673 -0.0007761600772013203
          -0.0008374601867799456 -0.0007048051534133311 -0.0007754893562456801 -0.0008462267588810094 -0.0008456925984085072 -0.0008451584379360049
          -0.00024432913044641 -0.0002444523654383936 -0.00024457560043037715 -0.0008448926484195297 -0.0008436594173859963 -0.0008424261863524626
          -0.0007280619745140093 -0.000728368754953228 -0.0007286755353924468 -0.00033722193980013763 -0.00033736790147222286 -0.0003375138631443081
          -0.00040711178416566517 -0.00040770274577710654 -0.0004082937073885479 -0.0009201093113205105 -0.0009195767669311372 -0.000919044222541764
          -0.0007303018845103792 -0.0007300383104072169 -0.0007297747363040545 -0.0006624425035047332 -0.0007005491571430243 -0.0006645117105125956
          -0.0007022824900040854 -0.0006665809175204582 -0.0007040158228651465 -0.0005032752244217141 -0.0005050960635903752 -0.0005044497432291813
          -0.0005063035558973988 -0.0005056242620366485 -0.0005075110482044225 -0.0009062348757908449 -0.0009061461432953364 -0.0009060574107998278
          -0.00038089852726016815 -0.00039030978683145603 -0.0003817937904282362 -0.0003910890365988278 -0.00038268905359630434 -0.00039186828636619966
          -0.000038480897196973105 -0.000007494506071632652 -0.000038571175451253034 -0.000007537300980649144 -0.00003866145370553297 -0.000007580095889665635
          -0.00011112832069136443 -0.00011109075191159986 -0.00011105318313183531 -0.0008385334536153647 -0.0008388314714829984 -0.0008391294893506325
          -0.00015601501238287992 -0.00019818925992886994 -0.00015582262051165138 -0.0001980024819420443 -0.00015563022864042286 -0.00019781570395521872
          -0.00022524376099352094 -0.00021773557952773015 -0.00022569349298738164 -0.00021806025124622097 -0.00022614322498124231 -0.00021838492296471178
          -0.0006951684127372444 -0.0006949520656407082 -0.0006947357185441719 -0.0008041051798159541 -0.0008031143237894856 -0.0008021234677630173
          -0.0003519006806765612 -0.0003522529655704935 -0.00035260525046442587 -0.0002572518638027159 -0.0002513758490415949 -0.00025797804333818603
          -0.00025203296050671574 -0.0002587042228736561 -0.0002526900719718365 -0.00023851098817376747 -0.00023857535813413995 -0.0002386397280945124
          -0.00028408472357572656 -0.00028304735403198496 -0.00028030571946782473 -0.0002826452239514673 -0.0002838370019614855 -0.00028279867841648793
          -0.0002800573618591377 -0.00028238065079865346 -0.00028358928034724444 -0.00028255000280099084 -0.00027980900425045064 -0.00028211607764583964
          -0.00022685086573343564 -0.00023891454124462565 -0.00022707710919081533 -0.00023903537481818134 -0.00022730335264819509 -0.00023915620839173702
          -0.0002338798578791632 -0.0002337136512654745 -0.0002335474446517858 -0.0002746793793841166 -0.00027894148506795856 -0.0002744775240929955
          -0.00027872027208575024 -0.00027427566880187433 -0.00027849905910354197 -0.00021500336075620433 -0.0001926724572177404 -0.00021505350000847203
          -0.00019270103464187868 -0.00021510363926073974 -0.00019272961206601697 -0.0003512400537260843 -0.00035137518103665877 -0.0003515103083472332
          -0.0003022193675417597 -0.0003023921832530421 -0.0003025649989643244 -0.00020010910702351645 -0.0002000157107859597 -0.00019992231454840287
          -0.00030840403810834626 -0.0002997196694000206 -0.0003092747059495753 -0.00030061466862435764 -0.00031014537379080436 -0.0003015096678486948
          -0.00019963626243503757 -0.0001995723363413658 -0.0001995084102476941 -0.00014627673713880538 -0.0001361603905459896 -0.00014795172734404906
          -0.00014625612076131267 -0.00013611056031755927 -0.00014800342531341254 -0.00014623550438382001 -0.00013606073008912893 -0.00014805512328277607
          -0.00017877944834539456 -0.00017877463068656355 -0.00017876981302773252 -0.00023884889862930904 -0.00025628431105694503 -0.00025478428203634624
          -0.00023892997439692727 -0.00025623763034029264 -0.00025475649537669347 -0.00023901105016454547 -0.00025619094962364025 -0.00025472870871704064
          -0.0002765999024408421 -0.000276350730980625 -0.00027610155952040793 -0.0002417470889337273 -0.00024195581467863084 -0.00024216454042353446
          -0.0000654673570420631 -0.00006556848482606582 -0.00006566961261006855 -0.00022440155386491633 -0.0002246116682719664 -0.00022482178267901648
          -0.00027016400497941964 -0.0002725551534486035 -0.00026997072193554543 -0.0002723565265028335 -0.00026977743889167123 -0.0002721578995570636
          -0.00017347775103362557 -0.0001734542856733283 -0.00017343082031303102 -0.0003263191504693973 -0.0002736827970653466 -0.0003271210933030875
          -0.00027452458719415474 -0.0003279230361367778 -0.0002753663773229629 -0.000264277255488761 -0.00025358894718242354 -0.0002641346011789134
          -0.000253577894618565 -0.0002639919468690657 -0.0002535668420547065 -0.00017877221286438479 -0.0001622090167367508 -0.00017873210982067252
          -0.00016222624568492788 -0.00017869200677696025 -0.00016224347463310494 -0.00011982797511183335 -0.00014340159364004693 -0.00011974494023131666
          -0.00014334470731696244 -0.00011966190535079999 -0.00014328782099387794 -0.00023463368992796848 -0.000233452241523462 -0.00019552894781115057
          -0.0002344153333957807 -0.00023318558401351074 -0.0001953000783249792 -0.00023419697686359294 -0.00023291892650355946 -0.0001950712088388078
          -0.0001566987177220866 -0.0001567007066684142 -0.0001567026956147418 -0.00014931636272441 -0.00014918729570740502 -0.00014905822869040007
          -0.00025998435424699485 -0.000259723097374865 -0.0002594618405027352 -0.0000837309871320634 -0.00008374667611160073 -0.00008376236509113808
          -0.00006245559493967482 -0.000025287462571991087 -0.00003156323026015135 -0.0000624871605060462 -0.000025495781418953093 -0.00003178354522188535
          -0.00006251872607241758 -0.000025704100265915098 -0.000032003860183619346 -0.00010442896110654426 -0.00010438292322789979 -0.00010433688534925532
          -0.00014118973342561904 -0.0001411167914491398 -0.00014104384947266057 -0.00012905560100326125 -0.00010624000198206813 -0.00012897149343042184
          -0.00010619639113675903 -0.00012888738585758243 -0.00010615278029144995 -0.000004720109469361837 -0.00000488166241893574 -0.000005043215368509643
          -0.00004053352738126692 -0.000040750087736143906 -0.00004096664809102088 0 0 0
          0 0 0 0 0 0
          0 0 0 0 0 0
          0 0 0 0 0 0
          0 0 0 0 0 0
          0 0 0 -1.7804976579570686e-7 -1.8082932960113585e-7 -1.8360889340656485e-7
          0 0 0 0 0 0
          -0.00000825318550497089 -0.000008267733500126478 -0.000008282281495282067 -6.849922908442573e-7 -6.852724697355717e-7 -6.855526486268861e-7
          0 0 0 -0.00003692427662174466 -0.000036944481987170205 -0.000036964687352595746
          -0.000013774703148915545 -0.00001377257420376142 -0.000013770445258607296 -0.0000029393293297964697 -0.0000029365292431480144 -0.000002933729156499559
          -0.000053341703387399435 -0.000053335920112539535 -0.00005333013683767964 -0.000030258748008333547 -0.00003023715352361309 -0.000030215559038892626
          -0.0001078987134079565 -0.00010789336977476938 -0.00010788802614158225 -0.00009310213584509811 -0.00009305384212476828 -0.00009300554840443845
          -0.0001575308406824809 -0.00015753571385415096 -0.00015754058702582103 -0.00017132083548630582 -0.000171251947938461 -0.00017118306039061616
          -0.00019620720829068835 -0.00019624513635813637 -0.0001962830644255844 -0.0002502569499315286 -0.00025018436985859354 -0.00025011178978565855
          -0.00021264617697367165 -0.0002127083478004822 -0.00021277051862729273 -0.00028943766322356756 -0.0002893712795288716 -0.0002893048958341755
          0 0 0 0 0 0
          0 0 0 0 0 0
          0 0 0 -0.000012115881304408915 -0.000012095912662487445 -0.000012075944020565976
          -0.0001271192075885492 -0.00013142814375454446 -0.0001271658602637642 -0.0001316583965183129 -0.0001272125129389792 -0.00013188864928208137
          -0.00010306826956482289 -0.0001188815825230983 -0.00010164553166306525 -0.00010306741521648735 -0.00011883431463005769 -0.0001016195500848701
          -0.00010306656086815183 -0.00011878704673701707 -0.00010159356850667494 -0.0002595724008009118 -0.00025990471721428014 -0.0002602370336276485
          -0.00018333515152302296 -0.00018362625020675963 -0.0001839173488904963 -0.00012397693530066307 -0.00012391820695215337 -0.00012385947860364365
          -0.0000794428010094587 -0.00007945487832905038 -0.00007946695564864205 -0.00011679265702628855 -0.00011680127656429505 -0.00011680989610230155
          -0.00014078242100995866 -0.00014080325399801595 -0.00014082408698607324 -0.00015286233248507325 -0.00015291555787007983 -0.0001529687832550864
          -0.00015655781674902788 -0.00015663255984790683 -0.0001567073029467858 0 0 0
          0 0 0 0 0 0
          0 0 0 0 0 0
          -0.0000020530631883890606 -0.000002047278410454087 -0.0000020414936325191135 -0.00006496672342533441 -0.00006490132155307363 -0.00006483591968081285
          -0.000027754294208127416 -0.000027730294980078003 -0.00002770629575202859 -0.00015962025817723889 -0.00015948704813785355 -0.00015935383809846827
          -0.00027337877889052555 -0.00027318240366212777 -0.00027298602843373 -0.0003332187256684243 -0.00033300152882972077 -0.0003327843319910173
        </DataArray>
        <DataArray type="Float64" Name="disp_x" format="ascii" RangeMin="0.00003086020114397357" RangeMax="0.00006679935786080217">
          0.00003488338426658053 0.000033840353748272504 0.000033314018107778975 0.00003458733967998408 0.00003488047234350005 0.00003383680702356962
          0.00003330917626797181 0.00003458406636438427 0.0000348720818438942 0.00003382692192575402 0.000033294703155799764 0.000034574706300801263
          0.000043872730514833496 0.000042936908771642035 0.00004331845313060429 0.00004422685397484894 0.00004387291361355195 0.000042937042343534385
          0.00004331873650150497 0.00004422695802205273 0.00004387341900069333 0.000042937706541347095 0.00004331975104494945 0.00004422750198811178
          0.00005394690226160987 0.00005360536519011941 0.000053951812712770134 0.00005552470103316084 0.00005394667650012744 0.00005360501817185392
          0.000053951787023194756 0.00005552476672444775 0.00005394603066729534 0.00005360380143091919 0.00005395177582873843 0.0000555249707432952
          0.000036133988982095316 0.00003763972905323147 0.000038396340740865505 0.00003696845011268916 0.0000361318239505377 0.00003763749759270716
          0.000038394224333999556 0.00003696604139401854 0.00003612538814334326 0.00003763075282226667 0.00003838792811973633 0.00003695882138124033
          0.00004778698072387416 0.00004750821117538814 0.00004651399707336777 0.000046806168531945376 0.000047786479817017396 0.00004750775480336019
          0.000046513808629696 0.00004680588143682758 0.00004778511791602993 0.00004750650214093786 0.00004651330902494276 0.00004680515743409439
          0.000038917567156625375 0.000039937319813781286 0.00003931423071120318 0.000038257228672384674 0.00003891655817956646 0.00003993661632145735
          0.0000393130172136921 0.00003825566520185915 0.00003891352769608216 0.00003993476287378602 0.0000393095001879236 0.000038251240635134835
          0.000044894541641876865 0.000044500632798700596 0.000043478893737492447 0.00004489459103087728 0.00004450052354753642 0.00004347885432466137
          0.00004489465486536829 0.00004450027885308186 0.000043478913746556093 0.00004102324824802261 0.00004061071973657728 0.00004102283691190234
          0.000040609997267793 0.000041021425458272534 0.00004060763116614984 0.000050145362819406926 0.000048989271076824536 0.00004935352538278416
          0.000050667094180986924 0.00005014490386953182 0.00004898864610211302 0.000049352894318974254 0.000050666245189512986 0.00005014356952425722
          0.000048986828371810106 0.00004935109768955777 0.000050663695148271485 0.00003873283684747494 0.000039501902112572326 0.00003873106643783582
          0.00003950039255259566 0.00003872579865235723 0.0000394956235889766 0.00004206412183103265 0.00004165023064525513 0.000042063787622078174
          0.00004164959267131556 0.000042062585780164384 0.000041647520668422944 0.000053056836806759256 0.0000533680251647056 0.00005413781310189123
          0.000053056426365431515 0.00005336785256532386 0.00005413801561358898 0.000053054959805485575 0.000053367383888776046 0.00005413874384416855
          0.00003734959630547793 0.000038017819622719825 0.00003734806728663886 0.00003801630364386788 0.00003734324707911373 0.00003801151849774874
          0.000046177478662403396 0.000045166081203752585 0.00004562907715399356 0.00004656686669875194 0.00004617697445253141 0.000045165359373094995
          0.000045628580993195534 0.000046566531757979454 0.00004617552355829858 0.00004516324992430915 0.00004562722768430853 0.00004656559604831229
          0.00004598911981022471 0.00004521797249826699 0.00004626914760370733 0.00004598903449431031 0.00004521809673197889 0.00004626906555309544
          0.00004598863878288591 0.000045218197723208255 0.00004626878790820191 0.00003942501335215541 0.00003942342492195227 0.00003941844368202364
          0.00004419135446105043 0.000044462113490095463 0.000043603317967921215 0.000044190366852700434 0.00004446096519054058 0.000043601866454570836
          0.000044187304797214305 0.00004445754535482486 0.000043597450329597285 0.000047335163170881314 0.00004662063605427949 0.00004556132221226616
          0.000047334852467430634 0.000046620363364635504 0.00004556118013845178 0.000047333897233073044 0.00004661963267752238 0.00004556063245524289
          0.00003648152636117465 0.000035762720647154006 0.0000365255449948698 0.000036479533883515705 0.00003576001605416024 0.00003652358737892357
          0.0000364736066694339 0.00003575186264340758 0.00003651794355754726 0.00003591420987398394 0.00003583268081860166 0.00003591195747876616
          0.0000358305165255542 0.000035905111265343655 0.00003582404341820259 0.00004786966507789594 0.00004916458286621335 0.000047869424188374705
          0.00004916456535126995 0.000047868769457880295 0.000049164576369977847 0.000030873958124414586 0.00003087042803056946 0.00003086020114397357
          0.000049502632440468385 0.00005041309747776841 0.000049501992464180146 0.000050412194997004164 0.00004949996234252183 0.000050410001330289117
          0.00004265667572127173 0.00004307271808981132 0.00004265603806136572 0.00004307255687264686 0.00004265409020462258 0.00004307181322890315
          0.000042503772139491325 0.000042503877236979885 0.000042503716285981553 0.000039696772678332376 0.000040570563395052744 0.00004046955225305641
          0.00003955288483340279 0.00003969645968790209 0.00004057050687499519 0.00004046935000373449 0.000039552435252204365 0.000039695547307713803
          0.000040570555516438466 0.00004046891499156602 0.000039551373826094945 0.00005526747037667673 0.000055267206966342743 0.00005526642522380445
          0.000055446624084622194 0.000053908519057834596 0.000055446387942736045 0.00005390804138822111 0.00005544565999142497 0.00005390658139843217
          0.000035235088895445256 0.00003590645909210323 0.000035232392911278116 0.0000359042162573137 0.00003522321273594397 0.00003589656631402268
          0.00004732669250767085 0.00004732640586124304 0.000047325480530198855 0.00004749013445888753 0.000047364173477233097 0.00004748992720269582
          0.00004736393744853721 0.000047489275164122863 0.000047363134087933906 0.000045772156512934355 0.00004657024005092379 0.00004666748293736631
          0.00004550443085671811 0.000045771433185539935 0.00004656971191103755 0.000046666874982029766 0.00004550330888247881 0.00004576912360493819
          0.00004656792696690129 0.00004666512356722118 0.00004549985777610389 0.000048346294429206094 0.000048263494901789765 0.000048345675940467036
          0.00004826304515541484 0.00004834348038220048 0.000048261197699845736 0.00005104586602901428 0.00005122856861513407 0.000051882376942812544
          0.00005149732425807834 0.00005104465706051143 0.00005122734615544019 0.000051881198143641516 0.00005149617062885651 0.00005104018017025063
          0.000051223557508274356 0.00005187790207007031 0.000051492598472792815 0.00004053805893399701 0.000040536854081306444 0.00004053313278801497
          0.0000384673995383627 0.000039328268236487506 0.000038466200485315226 0.0000393277218107961 0.00003846276924332022 0.000039325977279146335
          0.00004429513058636068 0.000044053451560785325 0.000044293807408159914 0.000044051775387643994 0.000044289823910254735 0.0000440467102687805
          0.00004304688233503981 0.000043045088739723406 0.00004303951635954642 0.000041196111016222064 0.0000401927713825524 0.00004119525556406406
          0.000040191757702060696 0.00004119256435037486 0.000040188494143149944 0.00003808965604698253 0.000039441306522215186 0.00003808795973944121
          0.00003944024337485046 0.00003808250245933728 0.00003943653866353029 0.000041691811283678845 0.000041113343779677866 0.00004169062289298947
          0.000041111763006979945 0.00004168704872751834 0.0000411069220396854 0.00004312350876731886 0.000043121760887401076 0.00004311646441928436
          0.00004152038490120333 0.000042297262990251075 0.00004152028545306346 0.00004229745685047695 0.00004151992355812562 0.00004229772930722046
          0.000041970278012326674 0.00004227018238660233 0.000041968146347780874 0.00004226852340593875 0.00004196135270859955 0.000042263439794013014
          0.000036273469639551264 0.00003732184390531528 0.00003700371978255223 0.000036271387137887115 0.00003732031388318035 0.00003700179193300451
          0.0000362653627332566 0.000037315189882158944 0.00003699565298020011 0.00003540817239949875 0.00003540578127866835 0.0000353980944822366
          0.00004029956392369609 0.000041415758492026825 0.00004029949197616012 0.0000414159646419661 0.00004029878261101447 0.00004141632437613182
          0.00004366145856043246 0.00004406559381299547 0.00004366081394191852 0.00004406539830839835 0.00004365889430689525 0.00004406459177110742
          0.000052550727806788005 0.00005157988254108559 0.000052550079214625 0.000051579006508161816 0.00005254830028715462 0.00005157624620946106
          0.000037108856613917194 0.00003785408271424465 0.00003710710309761968 0.000037852504418352034 0.00003710132355906904 0.00003784711428915977
          0.00003300972834225018 0.0000346591988689198 0.000034331992161188514 0.000033007772085911444 0.000034656424974277274 0.00003432981775204854
          0.00003300210993846338 0.000034647164769993204 0.000034322797500931844 0.00003290389614923078 0.000032901013233976885 0.00003289222187803702
          0.00004246067960071215 0.00004246112021815457 0.000042462167332047904 0.000033467453788803195 0.00003346631566836307 0.00003346284586615369
          0.00003417585250161068 0.000034173014306994994 0.000034164061510263754 0.000042225939675630015 0.000042225111045776595 0.00004222225019427133
          0.00003692843891085966 0.00003692649402782429 0.000036920367606683895 0.0000322159441888706 0.00003221198537065603 0.00003219931979573018
          0.000035377065744961115 0.00003537514227765857 0.000035368657703432675 0.00003458873227619111 0.00003415270302379916 0.00003458542401582635
          0.00003414844402125571 0.00003457693200989972 0.00003413565928412974 0.00003587522556373137 0.000035760925606793445 0.000035872678252282644
          0.00003575851085444874 0.00003586451482049831 0.00003575124564791224 0.000032650064829550766 0.00003264488049827498 0.00003262713761146224
          0.00003698073139396888 0.00003692880610620284 0.00003697860267161864 0.00003692686733685569 0.00003697178376322808 0.00003692050262993422
          0.000054099256985786057 0.00005550400263323045 0.000054098891928108136 0.000055504020552916244 0.00005409780827266108 0.00005550409314162563
          0.00005157456827208861 0.00005157393480349271 0.00005157201486703964 0.00003298679272396555 0.00003298354120000783 0.000032971628619479224
          0.00005050696427906764 0.000049648204255348424 0.00005050594537557226 0.00004964738398757855 0.00005050286660966351 0.00004964495171481067
          0.00003981534017176399 0.00004069716684409634 0.0000398151382968587 0.000040697268254894514 0.00003981435363317156 0.00004069752886984753
          0.000036167413201542265 0.00003616576070496761 0.0000361599747712039 0.00003469793300620932 0.00003469639593948923 0.00003469130666069934
          0.000043035947270485194 0.00004303440232074509 0.00004302937612966347 0.000038811017021406465 0.00003891563884802035 0.00003881026560682383
          0.00003891501568344046 0.00003880793182673835 0.00003891292304535623 0.000045081619897168086 0.00004508136590064057 0.00004508044998240959
          0.00004622938397662934 0.00004585449885614153 0.00004489604780309608 0.000045278025702613326 0.000046229262006707136 0.000045854518529835685
          0.00004489616590638501 0.000045278056439306126 0.00004622887309186896 0.00004585441925213875 0.00004489669538733891 0.00004527825773758532
          0.00004147682231755753 0.00004231459103861386 0.00004147712281458587 0.00004231499576883322 0.00004147774728684913 0.00004231623234790993
          0.00004852180397831295 0.000048521199503757636 0.00004851911748359552 0.00004456836606533657 0.00004552599145306322 0.00004456862843586367
          0.00004552611626484814 0.000044569246069272536 0.000045526255354338624 0.00004607021643994879 0.000046948627194780193 0.000046069997014196234
          0.00004694837122574818 0.000046069130788432854 0.00004694761769061992 0.00004273158543681438 0.00004273034154761148 0.00004272607901402331
          0.00004323521174594954 0.000043234287952180193 0.000043231066960391625 0.0000482859828057867 0.00004828554847297279 0.000048284130957423434
          0.000037915219686475966 0.00003797804729386024 0.00003791386282198443 0.00003797688871971591 0.00003790939703850736 0.00003797336992476363
          0.00004752107521382044 0.00004752085283908549 0.0000475199849534827 0.0000497685956557624 0.00005038999971826147 0.00004872004494284977
          0.000049768454898138094 0.00005038989558427748 0.00004871997923481776 0.00004976817971953716 0.00005038954011655778 0.00004871967882210932
          0.00004753103706362777 0.00004753088710968453 0.00004753014410955394 0.00004247917167138355 0.00004339637888697764 0.00004301985406821098
          0.00004247963194773101 0.00004339677579803724 0.000043020335011549655 0.000042480943031399626 0.00004339806461277751 0.00004302176267655107
          0.00004717527226375893 0.00004717505341929032 0.000047174135730975436 0.00004466121198834914 0.0000446608036642362 0.00004465921540807388
          0.000052749099061715386 0.000052748423374648616 0.000052746282511425426 0.00004158060972249117 0.00004158109014477431 0.00004158214826999394
          0.00004399425100766137 0.000044330493909896364 0.00004399472821280891 0.00004433092893343411 0.0000439957570439549 0.000044331802978361936
          0.00004898799421789506 0.000048987611141939915 0.00004898639163721128 0.00003787102194558006 0.000038699351222858505 0.00003786951202936665
          0.000038698612280168116 0.000037864153695183786 0.00003869593641833271 0.00004366488416196096 0.000043081776080018626 0.00004366539361614074
          0.00004308238557371732 0.000043666422763958855 0.00004308382608583666 0.00004810674386986357 0.0000484386255506004 0.00004810648284855249
          0.00004843841056933516 0.00004810563736589801 0.000048437650938892744 0.000051504579577002446 0.000050412664725111954 0.00005150413890055357
          0.00005041235217826617 0.00005150289794794011 0.00005041141058810134 0.000048715900499620784 0.00004901745838035109 0.00004989391232180289
          0.00004871533455357593 0.000049016718446600206 0.00004989294174673714 0.00004871336456331605 0.00004901451364130496 0.00004988992655531669
          0.000049402799028462216 0.00004940260255806013 0.00004940182988385813 0.00005072238196459915 0.000050721330961802016 0.00005071792983093138
          0.00004810743579357432 0.00004810705391697957 0.000048105586553604496 0.00005273004172255811 0.00005272941380325572 0.000052727432606041246
          0.00005224056109149947 0.00005293631699659759 0.000052640162459132976 0.00005223957549134129 0.00005293393679503946 0.00005263937041822559
          0.00005223591121579683 0.000052929762876538295 0.00005263672926607701 0.00005149966529745249 0.000051498671801305856 0.000051496012844478264
          0.000050461352316834876 0.00005046116685254537 0.00005046045644753189 0.00005118510504502938 0.00005240869747813178 0.000051184820707851244
          0.00005240837081544821 0.000051183873318480034 0.00005240739892462112 0.000053560994344093604 0.000053562542648632036 0.00005356443747414163
          0.00005242866610758596 0.000052427820316620226 0.00005242559867632711 0.00005475476674770648 0.00005475481398984301 0.00005475484951623409
          0.000054218822611469646 0.000054219226812171946 0.00005422085947670407 0.00005487614887624639 0.000054876083280105855 0.00005487552729407833
          0.000055523368318018036 0.000055523388837308994 0.000055523510299163016 0.000057608681986868394 0.000057605663994091537 0.00005760873172206436
          0.000057605710377322946 0.000057608876875700504 0.00005760582647436409 0.000059655022388780666 0.00005964545930911351 0.00005965503301263183
          0.000059645465177861585 0.00005965506411895045 0.00005964549281039636 0.00006166213175118484 0.00006164591656865084 0.00006166212564530528
          0.00006164591239598602 0.00006166210707098276 0.00006164589263447846 0.000057614146461255885 0.0000576142058165861 0.00005761438100254422
          0.00005968365182034108 0.00005968366105022166 0.00005968369119135078 0.00006171139774969365 0.00006171139317983332 0.00006171138019693503
          0.00005762070772243553 0.00005762074456882876 0.00005762087071801982 0.000059730097446641914 0.00005973014039132853 0.000059730272650398805
          0.00006179592048754354 0.0000617959122088192 0.00006179588328751697 0.00005759232157214982 0.00005759218905694022 0.00005759178089013798
          0.00005979463221433443 0.00005979458765584175 0.00005979444134205765 0.00006191669102298086 0.00006191673080841867 0.00006191688183973682
          0.00005980517141465286 0.00005980505810716363 0.00005980470913510892 0.00006207184563036804 0.0000620717388454118 0.00006207140776285217
          0.00005968288396063316 0.00005968293006797509 0.000059683070079264546 0.00006216004428421773 0.00006216001351118677 0.00006215990811365511
          0.000059439493634782435 0.00005943970834173796 0.000059440357079154616 0.00006212979596897988 0.00006212998554582172 0.00006213055721321406
          0.00005911299734320185 0.00005911343804834945 0.00005911476274389332 0.00006199931850583866 0.00006199972943259922 0.00006200092571957141
          0.00005877290138851655 0.000058773610416787444 0.00005877577097753721 0.00006181597870451801 0.00006181685223880242 0.00006181949382100119
          0.00006355890747347378 0.00006352393316928607 0.00006355887442818065 0.00006352389533226251 0.00006355877423784926 0.00006352379818218028
          0.00006363871952472819 0.00006363868533557674 0.00006363858251828513 0.0000637680203196922 0.00006376797899236844 0.0000637678568668372
          0.00006395475182311302 0.00006395471526111927 0.00006395459958030007 0.00006421874382307388 0.00006421866647461076 0.00006421844766696865
          0.00004965441964502983 0.00004823821667846638 0.00004965452879629912 0.000048238030055641754 0.000049654807556274946 0.00004823741781029203
          0.00005497158683144615 0.00005324174680076568 0.00005356789475461766 0.0000549714476455947 0.000053241605083508954 0.00005356760739310931
          0.000054971005650904745 0.00005324118358229508 0.00005356672546013769 0.0000452779631638425 0.00004527682528997982 0.000045273367112914875
          0.000046766047916627086 0.000046765138063655754 0.000046762289948030575 0.00005152928555417363 0.00005152919444048877 0.00005152894151694676
          0.000057435493466785285 0.000057435430006601576 0.00005743524018005874 0.000057156772493658714 0.00005715679228778337 0.00005715684107447086
          0.000056793007529321665 0.00005679315273517509 0.00005679357162123448 0.000056401491215389976 0.00005640172700985023 0.00005640241775689345
          0.00005603769870008931 0.00005603795240037257 0.00005603866193330723 0.00006543279585524483 0.0000653807805091499 0.00006543274355300857
          0.00006538072469595146 0.00006543258439506429 0.0000653805711783588 0.0000655403267104102 0.00006554027142720717 0.00006554009479890104
          0.00006571040762529229 0.00006571033959766467 0.00006571014094377063 0.00006595712618438524 0.00006595703112817776 0.00006595674085520211
          0.00006630341982273808 0.00006630332837304001 0.00006630306952045668 0.00006454373629633275 0.00006454341762801572 0.00006454245652459724
          0.00006679935786080217 0.00006679902226420766 0.00006679801225895766 0.00006482323466554643 0.00006482303555861593 0.0000648224458745583
          0.00006504575000323807 0.00006504573780338066 0.000065045705602361 0.0000652525675037394 0.00006525273088728854 0.00006525324375033027
        </DataArray>
        <DataArray type="Float64" Name="disp_y" format="ascii" RangeMin="-0.000005296447505277294" RangeMax="0">
          -0.0000015655399846049184 -0.0000020031623882462796 -0.0000017531258598404522 -0.0000012266617368854676 -0.0000015643364091814658 -0.0000020018543646989215
          -0.0000017525344651319374 -0.0000012257693840187898 -0.0000015601094288501305 -0.0000019971503927474225 -0.0000017498584754790763 -0.0000012233740161572167
          -0.000001112254824473475 -9.750522261849197e-7 -7.205952424147335e-7 -8.229512222235144e-7 -0.0000011123472594792933 -9.750179985014819e-7
          -7.206192021337356e-7 -8.230628862399856e-7 -0.0000011126163501393235 -9.749210280303249e-7 -7.207410418256484e-7 -8.234205769631196e-7
          -8.162368478464451e-7 -6.293850606517604e-7 -4.384852157554182e-7 -4.788253797747157e-7 -8.161028364210805e-7 -6.291970882863375e-7
          -4.383788829592506e-7 -4.788377428287536e-7 -8.157643451870625e-7 -6.286763515229523e-7 -4.379303968782076e-7 -4.788835399049788e-7
          -0.0000035837297816585694 -0.0000029451893299123954 -0.0000031447988374218913 -0.000003793507948365019 -0.0000035820452634173752 -0.0000029434351091512587
          -0.0000031432717788951744 -0.000003792062264251161 -0.000003576682401461143 -0.0000029380322272499647 -0.0000031385553988115055 -0.000003787852405540799
          -3.1694226506245205e-7 -6.472424362792492e-7 -6.361310410184837e-7 -3.115984978047626e-7 -3.170108080324281e-7 -6.474192787311952e-7
          -6.362834786750758e-7 -3.11682563014857e-7 -3.1722338335760436e-7 -6.478829263695826e-7 -6.36828850706641e-7 -3.118282675801773e-7
          -0.000001251319402456822 -0.0000013234764246436313 -0.0000018199617620163813 -0.0000016688733552371299 -0.0000012502501926418024 -0.0000013225954020093526
          -0.0000018188009946160418 -0.0000016675234762609746 -0.0000012468648540138217 -0.0000013198996171699108 -0.0000018152529576346624 -0.0000016634768319522998
          -0.000001237256608207644 -0.0000015568144040791807 -0.000001406605754800087 -0.0000012374317108311581 -0.000001556971702126036 -0.0000014065877391962828
          -0.0000012380635049633833 -0.0000015574819365499753 -0.000001406505128328478 -0.00000141855498763648 -0.0000018153278537140894 -0.000001417897847609934
          -0.000001814468898746147 -0.0000014160192771629512 -0.0000018118765633490614 -0.0000013913915024162464 -0.0000012765322003968158 -9.314425719989535e-7
          -8.541137685437644e-7 -0.0000013914744427953285 -0.0000012767167465154195 -9.316790138398585e-7 -8.541307337208265e-7 -0.0000013917376744621035
          -0.0000012771689796074878 -9.32382433556364e-7 -8.542078875953586e-7 -0.0000024637738960293118 -0.000002624118433471867 -0.000002462348808261454
          -0.0000026228092398792315 -0.000002458070863727999 -0.000002618652343594545 -0.0000015542642511897878 -0.0000019089124148679474 -0.0000015538005836266313
          -0.0000019082013573400083 -0.0000015524053384606244 -0.0000019061103044839116 -3.9566675125912703e-7 -1.8599668236917458e-7 -2.0764515453237615e-7
          -3.9536134272829514e-7 -1.858095247969264e-7 -2.075814800368454e-7 -3.9451344963092284e-7 -1.8443696443384061e-7 -2.078639818387164e-7
          -0.0000015950500222686936 -0.0000011858439695573647 -0.0000015936750314104836 -0.0000011847061915829854 -0.0000015896459204091173 -0.000001181312448548361
          -0.0000029191550610206243 -0.0000028497064887807004 -0.0000024861272756019014 -0.0000025608901777479773 -0.0000029192342864223793 -0.000002849692103510521
          -0.0000024863935723019452 -0.000002561183360689748 -0.000002919427609533559 -0.0000028496890865197466 -0.0000024871912066832707 -0.0000025620889035765885
          -0.0000013400604105442535 -9.130670869140192e-7 -9.819001554709026e-7 -0.0000013403782787279358 -9.132710853865743e-7 -9.821841603939826e-7
          -0.0000013413341642513765 -9.138740612363518e-7 -9.829818188361298e-7 -0.0000034030216337078484 -0.0000034014470101289237 -0.0000033967960063463835
          -0.000002707005636191678 -0.0000033202846519587614 -0.000003049133277278309 -0.000002706833226350283 -0.0000033199267192360387 -0.000003048789100741579
          -0.0000027063586580699346 -0.0000033187623679589716 -0.000003047641003529735 -0.0000014080262643716422 -0.0000018175881481626972 -0.000001693433837176467
          -0.0000014083954192369218 -0.0000018179748036634131 -0.0000016937381129483008 -0.0000014095651359425773 -0.0000018191535367325267 -0.0000016947208920233214
          -0.0000020796556916553325 -0.0000019894352190443984 -0.0000015535548767444228 -0.0000020781011485378956 -0.000001987949707696636 -0.0000015522960988821888
          -0.0000020731902153286586 -0.0000019833602847977224 -0.000001548972120063973 -0.000001271435961260601 -9.08946583757591e-7 -0.0000012704485109160538
          -9.083827243656225e-7 -0.0000012678082796151458 -9.066743264168204e-7 -0.0000032513913475977676 -0.000002870515593522322 -0.0000032515195844758098
          -0.0000028706719269403174 -0.0000032519124410947032 -0.0000028711189718881244 -0.000002359792868872655 -0.000002360576057868031 -0.0000023626352469746086
          -5.968444211044379e-7 -5.176758058288241e-7 -5.970388822277018e-7 -5.177105973942469e-7 -5.977895099915814e-7 -5.179706468646866e-7
          -0.0000020407638181028106 -0.0000017131172520714348 -0.000002040276133266769 -0.0000017128902761367861 -0.0000020388511472209104 -0.0000017122049752649742
          -0.0000012426263689460262 -0.0000012424351500740078 -0.0000012418589072658892 -2.82397038567353e-7 -2.8797700829806323e-7 -5.966788149126087e-7
          -5.758666255968407e-7 -2.821738667868045e-7 -2.8776869382014247e-7 -5.963043800483434e-7 -5.753680525761803e-7 -2.8143930426969627e-7
          -2.871068229158272e-7 -5.950994650261457e-7 -5.738955862674694e-7 -0.0000020853232998560264 -0.0000020850051889563736 -0.0000020840303807664263
          -0.000001489914264399312 -0.0000016865503215694115 -0.000001489628440478313 -0.0000016861672200002932 -0.0000014887757529052836 -0.000001684982680610791
          -0.0000018246738485759556 -0.0000015415692686402564 -0.0000018231756227379665 -0.0000015402477836863793 -0.0000018187775663311609 -0.0000015364216348473408
          -9.93196319764664e-7 -9.934597845458057e-7 -9.942803802103049e-7 -0.000002516619313451531 -0.0000029327088269182912 -0.0000025169376406824796
          -0.0000029328733209767083 -0.0000025179170583252826 -0.0000029334360479149164 -0.000003312249727010002 -0.0000032857529866103015 -0.0000035408591949203892
          -0.0000037303283356884193 -0.0000033120432463528135 -0.0000032856979069921 -0.000003540672948881152 -0.0000037299547402765842 -0.0000033114285783761693
          -0.0000032857946980436607 -0.0000035400233784424268 -0.00000372885778900957 -9.594340475681885e-7 -0.000001203481313848755 -9.596799517233199e-7
          -0.0000012037625875663283 -9.603645057201676e-7 -0.0000012048666255915636 -4.294688410979742e-7 -2.3438802483496964e-7 -2.2753837803376067e-7
          -5.354244211067288e-7 -4.294458382578366e-7 -2.3431511185731322e-7 -2.2754045523453376e-7 -5.353463381569567e-7 -4.2970226137796006e-7
          -2.3365571005314692e-7 -2.2808130492289367e-7 -5.349489782822714e-7 -0.000002731977258954982 -0.000002730766151695415 -0.0000027270865411201253
          -8.540822323736653e-7 -8.919373928466246e-7 -8.532846518503373e-7 -8.912003250458093e-7 -8.506458629710778e-7 -8.889532694836702e-7
          -0.000003875327960106794 -0.000004386009984757286 -0.000003874681162871203 -0.00000438527289780056 -0.000003872830245468341 -0.000004383054278352006
          -0.000004044501397945082 -0.00000404362473647565 -0.000004040940935016034 -0.0000022888820739913927 -0.000002203609855591451 -0.0000022880242390215162
          -0.000002202582785280457 -0.0000022854912920843053 -0.000002199612576536488 -0.0000022812797767192987 -0.0000021707830169695396 -0.0000022797125708877825
          -0.000002169524262929394 -0.0000022749830813481985 -0.000002165910992019281 -0.0000028074155984154727 -0.000003297939673964647 -0.0000028064226910977368
          -0.000003296648569807273 -0.0000028035243679001117 -0.0000032927001986823366 -0.000003585179173449984 -0.0000035845765038011068 -0.0000035828914114984064
          -9.968409542802208e-7 -8.55636715556969e-7 -9.964503299085327e-7 -8.554302709580064e-7 -9.952593195237539e-7 -8.549236934513745e-7
          -0.000003718615764955007 -0.0000032858394567121746 -0.0000037176952280785865 -0.000003285024663421709 -0.0000037150189447361073 -0.0000032827219553584784
          -0.0000026983714002161724 -0.0000021508875601707976 -0.00000277827478506553 -0.0000026965094517540076 -0.0000021491627409408482 -0.000002776505797661256
          -0.0000026906582614789734 -0.0000021441206655136796 -0.0000027709942480587812 -0.0000026644457650649464 -0.0000026626866137296646 -0.0000026571349639433074
          -9.407941874647237e-7 -6.015281702638269e-7 -9.4014828424979e-7 -6.012346470470271e-7 -9.382846361327445e-7 -6.004025842624001e-7
          -0.000002196311194032248 -0.000001870893332655337 -0.000002196106726684044 -0.0000018708986405738577 -0.000002195569783456342 -0.0000018709865058461948
          -6.876972662560182e-7 -9.241918518244385e-7 -6.873667275544769e-7 -9.239794179932459e-7 -6.863076512280772e-7 -9.23326795744123e-7
          -0.0000010828091727363222 -8.270629086357699e-7 -0.0000010819670379045848 -8.262581169489181e-7 -0.0000010795902142825222 -8.238298830862721e-7
          -0.000003421787379828445 -0.0000025528893378795865 -0.0000033679978151755967 -0.0000034209930533423877 -0.0000025513389146286403 -0.0000033665777176458576
          -0.000003418655878424688 -0.0000025465399692275276 -0.0000033618610660559075 -0.0000028068878086255508 -0.0000028060440628994887 -0.000002803076465862032
          -5.806918256019461e-7 -5.806061937994744e-7 -5.803332601073221e-7 -0.000004100766212358855 -0.00000409979466784716 -0.000004096950059534834
          -0.0000022882010967266223 -0.0000022866993851229975 -0.000002282018466300265 -0.0000024003449082989747 -0.0000023996281313215523 -0.000002397354976686891
          -7.064994202562179e-7 -7.05763668424648e-7 -7.03541304733143e-7 -0.00000245387015790611 -0.00000245340075965937 -0.000002451487810951835
          -0.0000032796732306241614 -0.000003277920300028624 -0.0000032724130021155198 0 -7.489563026674349e-7 0
          -7.483654343463811e-7 0 -7.469162748542219e-7 0 -4.723445016098628e-7 0
          -4.71990060808616e-7 0 -4.711110388085143e-7 -0.0000014899231895736885 -0.0000014896972712126805 -0.0000014900124627258115
          0 -3.558048542785745e-7 0 -3.552701500962256e-7 0 -3.5302309952017986e-7
          -0.0000011809505146344443 -9.679753749278343e-7 -0.0000011805813464056086 -9.67898699414748e-7 -0.0000011794246087034511 -9.6769074778035e-7
          -0.0000011985449641613813 -0.0000011983295436211449 -0.0000011976779358699542 -0.0000024166253772367765 -0.000002415765657199212 -0.0000024127212387465557
          -2.532173009173485e-7 -2.867596380418257e-7 -2.531279125488347e-7 -2.868012413134398e-7 -2.525419564717679e-7 -2.869358539443356e-7
          0 0 0 0 0 0
          -0.000003194192115293078 -0.0000031922604927283973 -0.0000031865049224717243 -0.0000038743628452618114 -0.000003872940043049886 -0.000003868635094510586
          -0.0000033033152405548057 -0.0000033027216587904322 -0.000003301414334312658 -2.836774069461312e-7 0 -2.834233010896549e-7
          0 -2.8279728915310806e-7 0 -0.0000020232299594324945 -0.000002023469857204012 -0.0000020242172903600537
          0 -2.9424442861810926e-7 -2.688840828662811e-7 0 0 -2.942991499229305e-7
          -2.689359363899681e-7 0 0 -2.9449486841910504e-7 -2.69133423017788e-7 0
          -2.881767499546066e-7 -2.703741724268898e-7 -2.880332117817701e-7 -2.7032384475816185e-7 -2.8769406404150284e-7 -2.702676360925528e-7
          -6.326304170179417e-7 -6.327851526396854e-7 -6.333379979955395e-7 -5.436857862884505e-7 -5.982906315813048e-7 -5.438103047035483e-7
          -5.984406465328477e-7 -5.4413659602621e-7 -5.988796884816489e-7 -0.000002151869946399024 -0.000002242250736584853 -0.0000021521802369995774
          -0.000002242606659237216 -0.0000021532180466299507 -0.000002243713561327864 -0.0000029040397231618894 -0.0000029033518382618433 -0.0000029014206157316766
          -0.000002541235818278932 -0.000002540760572589371 -0.0000025394782042911016 -0.000001616719263971642 -0.0000016169954107382835 -0.0000016178316812064656
          -3.0289900382533453e-7 0 -3.0251019032826653e-7 0 -3.011356790410483e-7 0
          -0.000001939756756254175 -0.0000019401038940317542 -0.000001941245528059958 -0.0000022600540139671436 -0.0000024215135869543456 -0.00000259707212163616
          -0.0000022601905789050012 -0.0000024216091660950954 -0.000002597266764281166 -0.000002260571739188857 -0.000002421903585646438 -0.0000025979721311228936
          -0.0000022856847519692795 -0.000002285965036598116 -0.000002286938435938914 0 0 -2.3690451018282694e-7
          0 0 -2.3693514469772332e-7 0 0 -2.3695706788378867e-7
          0 0 0 -0.0000023567945194443757 -0.000002356844750209676 -0.0000023572047875818097
          -0.000001022141263808648 -0.0000010217969792482428 -0.000001020753681986918 0 0 0
          -2.453448812726269e-7 0 -2.4533784316118276e-7 0 -2.4544203492315487e-7 0
          -0.000001796550233461449 -0.0000017967777575691763 -0.0000017974939589727166 -6.042857923030826e-7 -5.688188404459688e-7 -6.03625658193791e-7
          -5.682887546049318e-7 -6.017777009704603e-7 -5.668096519220543e-7 -4.810410093661134e-7 -4.2630489496453353e-7 -4.810839045613291e-7
          -4.2633306840117047e-7 -4.812022246658999e-7 -4.263587320752232e-7 -0.000002097387827784444 -0.0000023233712252360734 -0.0000020976744025252226
          -0.0000023236190592151805 -0.0000020985742536565914 -0.0000023244423488148356 -0.0000015776270538353603 -0.000001769344705149293 -0.000001577505633873089
          -0.0000017693639568862998 -0.0000015771716894908874 -0.0000017694520314784859 -3.082915463456688e-7 0 0
          -3.0837575673369154e-7 0 0 -3.0867655182976593e-7 0 0
          -0.0000020362101605318894 -0.0000020363190454908897 -0.000002036738096505538 0 0 0
          0 0 0 -0.000001397021128337214 -0.0000013966969886713873 -0.0000013957313764742183
          0 0 -1.9118874629493874e-7 0 0 -1.9092973007143559e-7
          0 0 -1.8984215672875856e-7 0 0 0
          -0.0000020069715121173984 -0.0000020069518653173877 -0.0000020069291471512125 -0.0000019796977416349342 -0.000001880345722536631 -0.0000019796404837162338
          -0.000001880181396904869 -0.0000019795222179213307 -0.0000018797162075686333 0 0 0
          -3.534678186122732e-7 -3.531923280965476e-7 -3.527511861438353e-7 -2.0096966274097023e-7 -2.0102991730105974e-7 -2.0115610093798872e-7
          0 0 0 0 0 0
          0 0 0 -4.244508030669041e-7 0 -4.244304088243777e-7
          0 -4.243595230636301e-7 0 -3.769542023948705e-7 0 -3.769373093129005e-7
          0 -3.768934655742254e-7 0 -3.439157415429725e-7 0 -3.438981144818868e-7
          0 -3.4384561757158644e-7 0 -8.543743140376572e-7 -8.543722408262001e-7 -8.543774706800313e-7
          -7.584903544986895e-7 -7.584416823560252e-7 -7.582829102483607e-7 -6.898607270455263e-7 -6.898126347629018e-7 -6.896672431575743e-7
          -0.0000012989699954258558 -0.0000012988503933489233 -0.0000012984974778789002 -0.0000011502134012041557 -0.000001150202158380516 -0.0000011501922531055568
          -0.0000010403894317975538 -0.0000010403361062708554 -0.00000104017092233284 -0.0000017877911398886566 -0.0000017874656345460594 -0.0000017864665361999691
          -0.000001562363500845108 -0.000001562169829684131 -0.0000015615842836248383 -0.0000014004908381034373 -0.0000014003994683037078 -0.0000014001453064245835
          -0.0000020340542693068213 -0.0000020336369654246558 -0.000002032368322422152 -0.0000017865767694213266 -0.0000017861988135678352 -0.0000017850583870339023
          -0.000002611341053114551 -0.000002610987380107502 -0.0000026099412199157433 -0.0000022621309130089046 -0.0000022615463151186937 -0.000002259772139073207
          -0.0000032978953743574362 -0.0000032976315325965886 -0.0000032968319719339804 -0.000002873167599795103 -0.0000028726803504280105 -0.0000028712433468793973
          -0.0000040783306532390536 -0.000004078156915362841 -0.000004077653167421625 -0.000003643593629495473 -0.0000036430482546193785 -0.0000036414073335938135
          -0.000004922654378259641 -0.0000049225309834001055 -0.000004922151724094478 -0.000004577976948685791 -0.00000457727492361906 -0.000004575194689005613
          -3.312902092825817e-7 0 -3.3126835132315856e-7 0 -3.3120185845439037e-7 0
          -6.6252938701307e-7 -6.624926954457298e-7 -6.623855966301659e-7 -9.941980492384721e-7 -9.941130746297412e-7 -9.938530685834807e-7
          -0.0000013276525856553416 -0.0000013275921576859396 -0.0000013274187808689727 -0.0000016681542914920068 -0.0000016679189601597906 -0.000001667227776249065
          -0.0000031549324763010424 -0.0000035493232836988533 -0.0000031550459063530837 -0.00000354933350338588 -0.000003155438896777104 -0.000003549493996093305
          -0.0000027558504749458426 -0.0000029257049908907313 -0.000002293888615431746 -0.000002755654250805011 -0.00000292566176982221 -0.000002293679453141678
          -0.000002755089805482514 -0.0000029255097234489796 -0.0000022930922304294547 -0.000004188451746169561 -0.000004187759498563009 -0.000004185803021710672
          -0.000003970501958914714 -0.0000039701167926975895 -0.0000039689137537444814 -0.0000025813272604624948 -0.000002581311728455183 -0.0000025812596772069318
          -0.000002363932652276812 -0.0000023636381470669187 -0.0000023627609948155625 -0.0000030277180985129323 -0.0000030275327917423527 -0.0000030269750242065943
          -0.0000037569924211891743 -0.000003756913816349829 -0.0000037567014404163456 -0.00000452210037010023 -0.000004522097297869915 -0.000004522104148553714
          -0.000005296447505277294 -0.000005296434445525353 -0.000005296426771566546 -3.4085658832759275e-7 0 -3.4083968875166117e-7
          0 -3.4078865172666237e-7 0 -6.814447381673488e-7 -6.814088452899015e-7 -6.812966814765744e-7
          -0.0000010215174834273066 -0.0000010214574903844357 -0.0000010212866368215873 -0.000001361770134726439 -0.0000013616775113047359 -0.0000013613798650004313
          -0.0000017036743935196942 -0.0000017036041616923252 -0.0000017034238225593374 -0.0000020517693657182587 -0.000002051097789624243 -0.0000020490449658253173
          -0.0000020520260364678214 -0.0000020516262147396846 -0.000002050421106982596 -0.000002566631527507563 -0.00000256590715004669 -0.000002563734061064397
          -0.0000032830913191399806 -0.000003282241838119577 -0.000003279710159631473 -0.000004246074536507856 -0.000004244817899883915 -0.000004241016124534435
        </DataArray>
        <DataArray type="Float64" Name="disp_z" format="ascii" RangeMin="-4.3926061239788137e-7" RangeMax="0">
          0 0 0 0 -1.4726372940412224e-7 -1.6428264931094276e-7
          -1.7110885168569217e-7 -1.4649590439228262e-7 -2.952652948371478e-7 -3.290508843499391e-7 -3.43305373542294e-7 -2.938184283370636e-7
          0 0 0 0 -9.765563179262505e-8 -9.602234888699083e-8
          -9.71314566925519e-8 -9.894822162231527e-8 -1.9527688914523203e-7 -1.9213775537341604e-7 -1.9421122601000628e-7 -1.9781328256680035e-7
          0 0 0 0 -5.996252380258703e-8 -6.113467979637168e-8
          -5.852680556460812e-8 -5.920163700028218e-8 -1.1997242779807645e-7 -1.2240442055697512e-7 -1.1709196415696349e-7 -1.1840275571914582e-7
          0 0 0 0 -1.6866867821580407e-7 -1.4667479145152207e-7
          -1.4458910003485826e-7 -1.6516681164291433e-7 -3.369225237396168e-7 -2.9341400449077936e-7 -2.895249753115527e-7 -3.3014917797849993e-7
          0 0 0 0 -9.881752410759747e-8 -9.870885583778274e-8
          -1.0071137938033172e-7 -1.0107091469849112e-7 -1.9755251011393386e-7 -1.9723361773377516e-7 -2.012980153356492e-7 -2.02028099272758e-7
          0 0 0 0 -1.050729372874137e-7 -1.021681745653598e-7
          -1.1369853207530601e-7 -1.1753242049737692e-7 -2.1048697956087134e-7 -2.0447649068169838e-7 -2.2761924681588346e-7 -2.3535640423899087e-7
          0 0 0 -9.82753648324176e-8 -9.684426205691471e-8 -9.696273976866825e-8
          -1.9649785786162942e-7 -1.936681374734036e-7 -1.9398468661225026e-7 0 0 -1.0072151160307086e-7
          -1.0752439090133938e-7 -2.015826866057905e-7 -2.1516591719110585e-7 0 0 0
          0 -8.217120053788048e-8 -8.75942275365232e-8 -8.740793455263212e-8 -8.125995466470312e-8 -1.643291513442606e-7
          -1.7516899087535425e-7 -1.7472933729097615e-7 -1.6250088221003125e-7 0 0 -1.2844658175732295e-7
          -1.259863846538663e-7 -2.5702981017694954e-7 -2.522140331223768e-7 0 0 -9.884168686287293e-8
          -1.0444166288653174e-7 -1.9781388623424864e-7 -2.0896595657845782e-7 0 0 0
          -5.989529185567769e-8 -5.7396486460263915e-8 -5.881013432096101e-8 -1.198057361946675e-7 -1.149750575009287e-7 -1.1767587730122716e-7
          0 0 -1.2173304895316973e-7 -1.0947462370900749e-7 -2.437238703660042e-7 -2.1916571748466735e-7
          0 0 0 0 -8.499186980584582e-8 -8.95600714344489e-8
          -8.93980861917853e-8 -8.565642095154715e-8 -1.7012099621967432e-7 -1.792913657331574e-7 -1.7891051318674243e-7 -1.7138644134826054e-7
          0 0 0 -9.736071140372048e-8 -9.981438028080419e-8 -9.913978831914734e-8
          -1.9466838456734526e-7 -1.995820925126832e-7 -1.981744112929797e-7 0 -1.4082513395325575e-7 -2.81820213521898e-7
          0 0 0 -9.57927138003942e-8 -9.549072105880051e-8 -1.028152598775889e-7
          -1.9174313326972454e-7 -1.9117766733077018e-7 -2.0584270577532262e-7 0 0 0
          -9.443292594337404e-8 -9.238808219942812e-8 -9.521042582782304e-8 -1.887674101724173e-7 -1.8478283005926352e-7 -1.9039644422887625e-7
          0 0 0 -1.3546153408352838e-7 -1.4000485025284648e-7 -1.2719516360328416e-7
          -2.713984740474479e-7 -2.8045630573171667e-7 -2.5490347512977883e-7 0 0 -1.3127072857026848e-7
          -1.304242458071323e-7 -2.6285911016460334e-7 -2.6121305954438434e-7 0 0 -7.811479207415668e-8
          -7.819339469085474e-8 -1.5634019698387417e-7 -1.5641077934152178e-7 0 -2.1998784119383418e-7 -4.3926061239788137e-7
          0 0 -8.882690356188465e-8 -8.466018700099464e-8 -1.775996602736684e-7 -1.6907663262528225e-7
          0 0 -1.0154968528523117e-7 -9.789414932808792e-8 -2.0320667788131734e-7 -1.9589721551443372e-7
          0 -9.611177834058366e-8 -1.9231122553007724e-7 0 0 0
          0 -9.075877061135058e-8 -9.01970807780037e-8 -9.235904939817435e-8 -9.330756261839029e-8 -1.81762312055329e-7
          -1.8052663521633675e-7 -1.8486928475729e-7 -1.8687084576879987e-7 0 -6.973119857054844e-8 -1.3945954026606655e-7
          0 0 -6.285682195125391e-8 -7.000405272041982e-8 -1.2574577817978114e-7 -1.4004420466087838e-7
          0 0 -1.4635520623435898e-7 -1.3338686534755275e-7 -2.930323399472616e-7 -2.671540444147245e-7
          0 -9.792168713723048e-8 -1.9568217570407847e-7 0 0 -8.384768096033675e-8
          -8.077241001810622e-8 -1.6773748940793174e-7 -1.616186697735758e-7 0 0 0
          0 -8.714222965125572e-8 -8.252983533435332e-8 -8.170713583200958e-8 -9.058791755227991e-8 -1.7443374048015973e-7
          -1.6518846666066715e-7 -1.6355771022416216e-7 -1.813689312358706e-7 0 0 -9.399735127705883e-8
          -9.261099349066686e-8 -1.8798093748378962e-7 -1.8520283654697786e-7 0 0 0
          0 -8.008972841969947e-8 -7.61016512797717e-8 -6.88096426591255e-8 -7.197523222365316e-8 -1.6060179468302433e-7
          -1.5202011809838037e-7 -1.375872452701602e-7 -1.4382917284419179e-7 0 -1.2139900702887015e-7 -2.428975571387987e-7
          0 0 -1.0082908610739458e-7 -9.755355457347771e-8 -2.021921302751002e-7 -1.9545340418143587e-7
          0 0 -1.0152547580703949e-7 -1.0716929838944788e-7 -2.0324922090637544e-7 -2.1456434700618895e-7
          0 -1.1379485793140703e-7 -2.2786514756756376e-7 0 0 -1.1151166703819204e-7
          -1.1558333953414638e-7 -2.2317797745576335e-7 -2.314137868485268e-7 0 0 -1.3018668878058232e-7
          -1.1964849117874083e-7 -2.60530015363196e-7 -2.3976429042135037e-7 0 0 -1.1705241173360526e-7
          -1.2800146333185514e-7 -2.342968067018454e-7 -2.5598550138333465e-7 0 -1.0944249226982555e-7 -2.1911492660421992e-7
          0 0 -9.557687576083695e-8 -9.46930279077349e-8 -1.9127002606435654e-7 -1.8947094817861372e-7
          0 0 -1.2454871319060619e-7 -1.1770909662980149e-7 -2.4923811666725467e-7 -2.3545741574729083e-7
          0 0 0 -1.499469757267025e-7 -1.3229184021147195e-7 -1.484155236492301e-7
          -3.001679935999047e-7 -2.646527138096149e-7 -2.9694044522058076e-7 0 -1.5462513608106853e-7 -3.096026022878376e-7
          0 0 -9.604709255433708e-8 -9.25154945195795e-8 -1.9221070889357426e-7 -1.851394414840554e-7
          0 0 -9.808646845703535e-8 -9.651663816605492e-8 -1.9631023163591502e-7 -1.9307293254322334e-7
          0 0 -6.591523680395676e-8 -7.368315361449217e-8 -1.3201866927289814e-7 -1.4737268324275432e-7
          0 0 -1.1766044486106262e-7 -1.0607295354373734e-7 -2.3565569543620691e-7 -2.121924055987924e-7
          0 0 0 -1.8459423028254182e-7 -1.6172568532296005e-7 -1.7358715622799788e-7
          -3.686727570900879e-7 -3.2327214993971177e-7 -3.468127885064899e-7 0 -1.830228638753864e-7 -3.6579733272700787e-7
          0 -9.428500700887129e-8 -1.8866424720100626e-7 0 -1.857597832584205e-7 -3.7087975458084e-7
          0 -1.653685212917112e-7 -3.308323706286473e-7 0 -1.078661701254628e-7 -2.1575619999129904e-7
          0 -1.1714967976778067e-7 -2.344077051304032e-7 0 -1.962599494293443e-7 -3.9217997090710527e-7
          0 -1.6564787298525714e-7 -3.3122461153230014e-7 0 0 -1.458198721113308e-7
          -1.5499930083202506e-7 -2.9237235282744126e-7 -3.1102909694295017e-7 0 0 -1.2898293968058759e-7
          -1.2962953901233076e-7 -2.58354977420592e-7 -2.598346350487675e-7 0 -1.9153088517319225e-7 -3.826113809211257e-7
          0 0 -1.089656790912476e-7 -1.1338061740651601e-7 -2.182218937962195e-7 -2.2708237946081972e-7
          0 0 -6.25187508027834e-8 -5.972789899904065e-8 -1.2511691264913272e-7 -1.1950559864347336e-7
          0 -7.550680091709895e-8 -1.5094692856434003e-7 0 -1.8044223703205446e-7 -3.6122817768100355e-7
          0 0 -8.352788316085679e-8 -8.969969049631937e-8 -1.6696802109681945e-7 -1.7932801847267317e-7
          0 0 -8.976173538421365e-8 -8.950261181019113e-8 -1.7978847119411516e-7 -1.7917716952978398e-7
          0 -1.5997831583186183e-7 -3.198175724012156e-7 0 -1.7876578472062915e-7 -3.572010179282587e-7
          0 -1.099835774296499e-7 -2.2018776149199815e-7 0 0 -9.38913785139849e-8
          -9.279647938706078e-8 -1.8818167655728664e-7 -1.8578718632733838e-7 0 -9.386962785425178e-8 -1.877613859111501e-7
          0 0 0 0 -1.0178005318318306e-7 -1.0183025675842669e-7
          -1.0119805416531682e-7 -1.0188517567139393e-7 -2.0345097173028207e-7 -2.0356358324955158e-7 -2.0227241168263715e-7 -2.036478485841743e-7
          0 0 -9.14533168113274e-8 -9.337169145402507e-8 -1.830784614199413e-7 -1.8674524881213524e-7
          0 -9.458904086837287e-8 -1.8911849070057064e-7 0 0 -1.0013523793012355e-7
          -1.0106905840643526e-7 -2.0018270858442892e-7 -2.0202469161117633e-7 0 0 -9.050977098481046e-8
          -8.755160178805053e-8 -1.810296256650969e-7 -1.7514353510395644e-7 0 -1.0991462465330537e-7 -2.1979017839587897e-7
          0 -1.0256625459530098e-7 -2.0520287174623616e-7 0 -8.916564985922551e-8 -1.782821456910052e-7
          0 0 -1.0083022351833537e-7 -9.877200503642919e-8 -2.0208199642131615e-7 -1.9817887705779477e-7
          0 -8.885738590614484e-8 -1.776655932862094e-7 0 0 0
          -8.052171434991992e-8 -7.911789028872273e-8 -7.99464715442629e-8 -1.6103375642660356e-7 -1.582157814046924e-7 -1.5991213225916573e-7
          0 -8.564315966740611e-8 -1.7125160983353822e-7 0 0 0
          -9.431200540797506e-8 -9.777245638790342e-8 -9.628616237014536e-8 -1.8866970301500494e-7 -1.955816198862743e-7 -1.925242182608439e-7
          0 -1.0036266941150039e-7 -2.0061876715392964e-7 0 -9.369181337883666e-8 -1.8751657708048144e-7
          0 -6.761102160727526e-8 -1.3527712595222854e-7 0 -9.137186500224022e-8 -1.8284865273531622e-7
          0 0 -9.92990272808645e-8 -1.0040922743933766e-7 -1.9847946999315923e-7 -2.0074474858849501e-7
          0 -8.485782066680985e-8 -1.6974127969279726e-7 0 0 -1.0412520864380595e-7
          -9.583730241122177e-8 -2.0876530949420602e-7 -1.9206401624494935e-7 0 0 -9.837825194373452e-8
          -9.658738944271409e-8 -1.9668277869869313e-7 -1.9328382043726422e-7 0 0 -8.561776481475227e-8
          -8.286396851722725e-8 -1.711929973275995e-7 -1.6575455485450067e-7 0 0 -7.695419091458851e-8
          -7.992172936758582e-8 -1.5382137520992885e-7 -1.5981188137880268e-7 0 0 0
          -9.503393386788498e-8 -9.364534658505689e-8 -8.76536311959216e-8 -1.900016418503494e-7 -1.8710638243361405e-7 -1.7514632158991964e-7
          0 -8.184217783602546e-8 -1.6369301726486606e-7 0 -7.989774824505606e-8 -1.598195122929596e-7
          0 -9.773705487548304e-8 -1.95324515045035e-7 0 -7.122916136109875e-8 -1.4249728299917838e-7
          0 0 0 -6.715504300885149e-8 -5.604843611248842e-8 -6.162217171708345e-8
          -1.3423781703540297e-7 -1.1256214098395669e-7 -1.236566246003581e-7 0 -7.278991149262375e-8 -1.4568204389374426e-7
          0 -7.986180946550063e-8 -1.596824939643949e-7 0 0 -7.81094840168265e-8
          -7.490614419990155e-8 -1.5617875226478376e-7 -1.4973624214875708e-7 0 -5.19292321211e-8 -1.0607153851025863e-7
          0 -6.438773685122286e-8 -1.2909668220132453e-7 0 -6.001178920924889e-8 -1.200833010352204e-7
          0 -6.077536715562568e-8 -1.2106069647191547e-7 0 -5.935210990907841e-8 -1.18555088081812e-7
          0 -5.9534879146101075e-8 -1.1908524285800069e-7 0 0 -6.074521537570422e-8
          -6.064521608154863e-8 -1.214845128029899e-7 -1.212937218256383e-7 0 0 -6.122616724718889e-8
          -6.106020649575442e-8 -1.2245559803639848e-7 -1.2211618901417388e-7 0 0 -6.134810022011642e-8
          -6.114856401501179e-8 -1.2269892423433415e-7 -1.2229694936147915e-7 0 -6.122136936234275e-8 -1.2244726327124897e-7
          0 -6.178763751462706e-8 -1.235614936631581e-7 0 -6.190782497364844e-8 -1.2381544416878685e-7
          0 -6.145336095677816e-8 -1.2293136579462467e-7 0 -6.274864182518017e-8 -1.255177630634051e-7
          0 -6.307548295056567e-8 -1.2614728990597828e-7 0 -6.630946821109163e-8 -1.3266683913975763e-7
          0 -6.336281823730988e-8 -1.2670085684027788e-7 0 -6.41676221088946e-8 -1.283612779045949e-7
          0 -7.053602357824005e-8 -1.4108210737994784e-7 0 -6.792754130407621e-8 -1.3587701188367878e-7
          0 -7.781306310988851e-8 -1.5561708293662576e-7 0 -7.844482771311184e-8 -1.568392256483691e-7
          0 -8.391197998804865e-8 -1.6782452855609438e-7 0 -8.874225655204718e-8 -1.7746046496664995e-7
          0 -8.797612167045438e-8 -1.7596446848652265e-7 0 -9.797108220828594e-8 -1.9592165934964602e-7
          0 -9.06923488098327e-8 -1.8143978765667215e-7 0 -1.1037319700875331e-7 -2.2073515874428442e-7
          0 0 -6.089448069238347e-8 -6.070537592579919e-8 -1.2178586411993456e-7 -1.2141237443878086e-7
          0 -6.149352014281333e-8 -1.2299132518430686e-7 0 -6.249269402589572e-8 -1.2497626380846785e-7
          0 -6.437513270155485e-8 -1.2875494354318775e-7 0 -6.593621290971987e-8 -1.318962517358153e-7
          0 0 -7.727383468312078e-8 -7.574254510012878e-8 -1.5457009879421846e-7 -1.5162021273957896e-7
          0 0 0 -7.435976042543192e-8 -7.71224249665103e-8 -7.514928300958672e-8
          -1.4869507673183976e-7 -1.5421675143912105e-7 -1.5028333962964465e-7 0 -9.494861874434254e-8 -1.9001885451242958e-7
          0 -8.37345396039099e-8 -1.6765101675147022e-7 0 -7.758165777459268e-8 -1.551046853524194e-7
          0 -7.275887706843498e-8 -1.455225245998794e-7 0 -7.718895118573966e-8 -1.5437116216481433e-7
          0 -7.984986855350686e-8 -1.597052085846407e-7 0 -8.013430911638461e-8 -1.6027732394569085e-7
          0 -8.013446781738618e-8 -1.6031172502821228e-7 0 0 -5.998674624001491e-8
          -5.98239652814011e-8 -1.1997470166338473e-7 -1.196471176735919e-7 0 -6.05081980491938e-8 -1.2101497407130026e-7
          0 -6.142078563625267e-8 -1.2284709906444148e-7 0 -6.282538464047507e-8 -1.256363033283584e-7
          0 -6.475558996258171e-8 -1.2954140210649572e-7 0 -7.500267175718704e-8 -1.500016494291529e-7
          0 -6.74329512037396e-8 -1.3488035218070617e-7 0 -9.015048465817151e-8 -1.802426834175241e-7
          0 -1.0331988058844873e-7 -2.0654007307113525e-7 0 -1.2506256501164477e-7 -2.5007521723694194e-7
        </DataArray>
      </PointData>
      <CellData>
        <DataArray type="Int32" Name="libmesh_elem_id" format="ascii" RangeMin="1386" RangeMax="3465">
          1386 1387 1390 1391 1394 1395
          1400 1401 1406 1407 1410 1411
          1420 1421 1424 1425 1426 1427
          1432 1433 1436 1437 1444 1445
          1446 1447 1450 1451 1462 1463
          1466 1467 1474 1475 1498 1499
          1504 1505 1508 1509 1514 1515
          1524 1525 1526 1527 1530 1531
          1540 1541 1550 1551 1552 1553
          1554 1555 1578 1579 1588 1589
          1592 1593 1594 1595 1596 1597
          1598 1599 1600 1601 1606 1607
          1662 1663 1698 1699 1702 1703
          1712 1713 1726 1727 1730 1731
          1734 1735 1748 1749 1752 1753
          1774 1775 1778 1779 1834 1835
          1854 1855 1872 1873 1892 1893
          1894 1895 1896 1897 1902 1903
          1914 1915 1920 1921 1922 1923
          1932 1933 1942 1943 1944 1945
          1988 1989 2000 2001 2010 2011
          2024 2025 2070 2071 2100 2101
          2112 2113 2132 2133 2140 2141
          2150 2151 2166 2167 2206 2207
          2218 2219 2238 2239 2242 2243
          2244 2245 2256 2257 2258 2259
          2268 2269 2278 2279 2284 2285
          2306 2307 2334 2335 2340 2341
          2360 2361 2372 2373 2392 2393
          2396 2397 2398 2399 2418 2419
          2422 2423 2426 2427 2432 2433
          2434 2435 2436 2437 2476 2477
          2480 2481 2482 2483 2518 2519
          2534 2535 2540 2541 2542 2543
          2546 2547 2556 2557 2562 2563
          2568 2569 2574 2575 2584 2585
          2588 2589 2598 2599 2612 2613
          2638 2639 2656 2657 2664 2665
          2678 2679 2682 2683 2702 2703
          2704 2705 2708 2709 2720 2721
          2724 2725 2734 2735 2738 2739
          2742 2743 2746 2747 2774 2775
          2788 2789 2790 2791 2804 2805
          2806 2807 2834 2835 2840 2841
          2844 2845 2850 2851 2854 2855
          2858 2859 2872 2873 2888 2889
          2892 2893 2896 2897 2908 2909
          2912 2913 2916 2917 2918 2919
          2924 2925 2932 2933 2944 2945
          2972 2973 2984 2985 2996 2997
          3000 3001 3002 3003 3022 3023
          3024 3025 3030 3031 3032 3033
          3044 3045 3048 3049 3080 3081
          3092 3093 3108 3109 3120 3121
          3130 3131 3136 3137 3140 3141
          3142 3143 3146 3147 3150 3151
          3160 3161 3162 3163 3164 3165
          3170 3171 3172 3173 3174 3175
          3178 3179 3186 3187 3188 3189
          3198 3199 3216 3217 3218 3219
          3228 3229 3232 3233 3238 3239
          3242 3243 3246 3247 3250 3251
          3256 3257 3260 3261 3262 3263
          3266 3267 3268 3269 3270 3271
          3272 3273 3274 3275 3276 3277
          3278 3279 3280 3281 3282 3283
          3284 3285 3286 3287 3288 3289
          3290 3291 3292 3293 3294 3295
          3298 3299 3300 3301 3304 3305
          3306 3307 3310 3311 3312 3313
          3316 3317 3318 3319 3320 3321
          3322 3323 3338 3339 3340 3341
          3356 3357 3358 3359 3374 3375
          3376 3377 3392 3393 3394 3395
          3410 3411 3412 3413 3428 3429
          3446 3447 3464 3465
        </DataArray>
        <DataArray type="Int32" Name="subdomain_id" format="ascii" RangeMin="107" RangeMax="109">
          107 107 107 107 107 107
          107 107 107 107 107 107
          107 107 107 107 107 107
          107 107 107 107 107 107
          107 107 107 107 107 107
          107 107 107 107 107 107
          107 107 107 107 107 107
          107 107 107 107 107 107
          107 107 107 107 107 107
          107 107 107 107 107 107
          107 107 107 107 107 107
          107 107 107 107 107 107
          107 107 107 107 107 107
          107 107 107 107 107 107
          107 107 107 107 107 107
          107 107 107 107 107 107
          107 107 107 107 107 107
          107 107 107 107 107 107
          107 107 107 107 107 107
          107 107 107 107 107 107
          107 107 107 107 107 107
          107 107 107 107 107 107
          107 107 107 107 107 107
          107 107 107 107 107 107
          107 107 107 107 107 107
          107 107 107 107 107 107
          107 107 107 107 107 107
          107 107 107 107 107 107
          107 107 107 107 107 107
          107 107 107 107 107 107
          107 107 107 107 107 107
          107 107 107 107 107 107
          107 107 107 107 107 107
          107 107 107 107 107 107
          107 107 107 107 107 107
          107 107 107 107 107 107
          107 107 107 107 107 107
          107 107 107 107 107 107
          107 107 107 107 107 107
          107 107 107 107 107 107
          107 107 107 107 107 107
          107 107 107 107 107 107
          107 107 107 107 107 107
          107 107 107 107 107 107
          107 107 107 107 107 107
          107 107 107 107 107 107
          107 107 107 107 107 107
          107 107 107 107 107 107
          107 107 107 107 107 107
          107 107 107 107 107 107
          107 107 107 107 107 107
          107 107 107 107 107 107
          107 107 107 107 107 107
          107 107 107 107 107 107
          107 107 107 107 107 107
          107 107 107 107 107 107
          107 107 107 107 107 107
          107 107 107 107 107 107
          107 107 107 107 107 107
          107 107 107 107 107 107
          107 107 107 107 107 107
          107 107 107 107 107 107
          107 107 107 107 107 107
          108 108 108 108 108 108
          108 108 108 108 108 108
          108 108 108 108 108 108
          108 108 108 108 108 108
          108 108 108 108 108 108
          108 108 108 108 108 108
          108 108 108 108 108 108
          108 108 108 108 109 109
          109 109 109 109 109 109
          109 109 109 109 109 109
          109 109 109 109 109 109
          109 109 109 109 109 109
          109 109 109 109
        </DataArray>
        <DataArray type="Int32" Name="processor_id" format="ascii" RangeMin="1" RangeMax="1">
          1 1 1 1 1 1
          1 1 1 1 1 1
          1 1 1 1 1 1
          1 1 1 1 1 1
          1 1 1 1 1 1
          1 1 1 1 1 1
          1 1 1 1 1 1
          1 1 1 1 1 1
          1 1 1 1 1 1
          1 1 1 1 1 1
          1 1 1 1 1 1
          1 1 1 1 1 1
          1 1 1 1 1 1
          1 1 1 1 1 1
          1 1 1 1 1 1
          1 1 1 1 1 1
          1 1 1 1 1 1
          1 1 1 1 1 1
          1 1 1 1 1 1
          1 1 1 1 1 1
          1 1 1 1 1 1
          1 1 1 1 1 1
          1 1 1 1 1 1
          1 1 1 1 1 1
          1 1 1 1 1 1
          1 1 1 1 1 1
          1 1 1 1 1 1
          1 1 1 1 1 1
          1 1 1 1 1 1
          1 1 1 1 1 1
          1 1 1 1 1 1
          1 1 1 1 1 1
          1 1 1 1 1 1
          1 1 1 1 1 1
          1 1 1 1 1 1
          1 1 1 1 1 1
          1 1 1 1 1 1
          1 1 1 1 1 1
          1 1 1 1 1 1
          1 1 1 1 1 1
          1 1 1 1 1 1
          1 1 1 1 1 1
          1 1 1 1 1 1
          1 1 1 1 1 1
          1 1 1 1 1 1
          1 1 1 1 1 1
          1 1 1 1 1 1
          1 1 1 1 1 1
          1 1 1 1 1 1
          1 1 1 1 1 1
          1 1 1 1 1 1
          1 1 1 1 1 1
          1 1 1 1 1 1
          1 1 1 1 1 1
          1 1 1 1 1 1
          1 1 1 1 1 1
          1 1 1 1 1 1
          1 1 1 1 1 1
          1 1 1 1 1 1
          1 1 1 1 1 1
          1 1 1 1 1 1
          1 1 1 1 1 1
          1 1 1 1 1 1
          1 1 1 1 1 1
          1 1 1 1 1 1
          1 1 1 1 1 1
          1 1 1 1 1 1
          1 1 1 1 1 1
          1 1 1 1 1 1
          1 1 1 1 1 1
          1 1 1 1 1 1
          1 1 1 1 1 1
          1 1 1 1 1 1
          1 1 1 1 1 1
          1 1 1 1 1 1
          1 1 1 1
        </DataArray>
      </CellData>
      <Points>
        <DataArray type="Float64" Name="Points" NumberOfComponents="3" format="ascii" RangeMin="0.011720201602553146" RangeMax="0.03445906060790294">
          0.012969222910182 0.0014853020742274 0 0.012627852011276 0.0016898182928561 0
          0.01236786906931 0.0013587217336166 0 0.012783325134333 0.0011067100297067 0
          0.012969222910182 0.0014853020742274 0.00015 0.012627852011276 0.0016898182928561 0.00015
          0.01236786906931 0.0013587217336166 0.00015 0.012783325134333 0.0011067100297067 0.00015
          0.012969222910182 0.0014853020742274 0.0003 0.012627852011276 0.0016898182928561 0.0003
          0.01236786906931 0.0013587217336166 0.0003 0.012783325134333 0.0011067100297067 0.0003
          0.017563073004652 0.0017425656775748 0 0.017044554764736 0.0015497457581888 0
          0.017260149731535 0.0011385367421141 0 0.017760141546291 0.0012815461285561 0
          0.017563073004652 0.0017425656775748 0.00015 0.017044554764736 0.0015497457581888 0.00015
          0.017260149731535 0.0011385367421141 0.00015 0.017760141546291 0.0012815461285561 0.00015
          0.017563073004652 0.0017425656775748 0.0003 0.017044554764736 0.0015497457581888 0.0003
          0.017260149731535 0.0011385367421141 0.0003 0.017760141546291 0.0012815461285561 0.0003
          0.023776898874178 0.0022456328082928 0 0.023504823460796 0.0016933718681226 0
          0.023764932341086 0.0012053538973125 0 0.025 0.0014444444444417 0
          0.023776898874178 0.0022456328082928 0.00015 0.023504823460796 0.0016933718681226 0.00015
          0.023764932341086 0.0012053538973125 0.00015 0.025 0.0014444444444417 0.00015
          0.023776898874178 0.0022456328082928 0.0003 0.023504823460796 0.0016933718681226 0.0003
          0.023764932341086 0.0012053538973125 0.0003 0.025 0.0014444444444417 0.0003
          0.014128459199836 0.0039835282877348 0 0.014611363502717 0.0036877867763913 0
          0.015005639561329 0.0040763460944633 0 0.014554004584986 0.0044253882271801 0
          0.014128459199836 0.0039835282877348 0.00015 0.014611363502717 0.0036877867763913 0.00015
          0.015005639561329 0.0040763460944633 0.00015 0.014554004584986 0.0044253882271801 0.00015
          0.014128459199836 0.0039835282877348 0.0003 0.014611363502717 0.0036877867763913 0.0003
          0.015005639561329 0.0040763460944633 0.0003 0.014554004584986 0.0044253882271801 0.0003
          0.019696280766899 0.00050763342021358 0 0.019550033943553 0.0010320458815065 0
          0.01900444612813 0.00098950685152215 0 0.019158982336274 0.00048623495360749 0
          0.019696280766899 0.00050763342021358 0.00015 0.019550033943553 0.0010320458815065 0.00015
          0.01900444612813 0.00098950685152215 0.00015 0.019158982336274 0.00048623495360749 0.00015
          0.019696280766899 0.00050763342021358 0.0003 0.019550033943553 0.0010320458815065 0.0003
          0.01900444612813 0.00098950685152215 0.0003 0.019158982336274 0.00048623495360749 0.0003
          0.014859009547347 0.0018414606933245 0 0.015407964407671 0.0020438178723745 0
          0.01515544156871 0.0026588338800995 0 0.014598102610542 0.0022982704245768 0
          0.014859009547347 0.0018414606933245 0.00015 0.015407964407671 0.0020438178723745 0.00015
          0.01515544156871 0.0026588338800995 0.00015 0.014598102610542 0.0022982704245768 0.00015
          0.014859009547347 0.0018414606933245 0.0003 0.015407964407671 0.0020438178723745 0.0003
          0.01515544156871 0.0026588338800995 0.0003 0.014598102610542 0.0022982704245768 0.0003
          0.018126604709057 0.0019215066283495 0 0.017910174904861 0.0024312076221655 0
          0.017342980714859 0.0022157520731189 0 0.018126604709057 0.0019215066283495 0.00015
          0.017910174904861 0.0024312076221655 0.00015 0.017342980714859 0.0022157520731189 0.00015
          0.018126604709057 0.0019215066283495 0.0003 0.017910174904861 0.0024312076221655 0.0003
          0.017342980714859 0.0022157520731189 0.0003 0.015995561521593 0.0022418351865966 0
          0.01581460170494 0.0027743126456578 0 0.015995561521593 0.0022418351865966 0.00015
          0.01581460170494 0.0027743126456578 0.00015 0.015995561521593 0.0022418351865966 0.0003
          0.01581460170494 0.0027743126456578 0.0003 0.021203243478062 0.0026574159093233 0
          0.020454986610371 0.0022211941162512 0 0.020632218270446 0.001642443645643 0
          0.021442904813338 0.0016925342242502 0 0.021203243478062 0.0026574159093233 0.00015
          0.020454986610371 0.0022211941162512 0.00015 0.020632218270446 0.001642443645643 0.00015
          0.021442904813338 0.0016925342242502 0.00015 0.021203243478062 0.0026574159093233 0.0003
          0.020454986610371 0.0022211941162512 0.0003 0.020632218270446 0.001642443645643 0.0003
          0.021442904813338 0.0016925342242502 0.0003 0.015000171033694 0.0033600360828681 0
          0.015396645228865 0.0036775895732469 0 0.015000171033694 0.0033600360828681 0.00015
          0.015396645228865 0.0036775895732469 0.00015 0.015000171033694 0.0033600360828681 0.0003
          0.015396645228865 0.0036775895732469 0.0003 0.016564676280502 0.0024636417082771 0
          0.016363912484153 0.0029730068966809 0 0.016564676280502 0.0024636417082771 0.00015
          0.016363912484153 0.0029730068966809 0.00015 0.016564676280502 0.0024636417082771 0.0003
          0.016363912484153 0.0029730068966809 0.0003 0.023072410624366 0.001035238244058 0
          0.023303887517976 0.00051385162283572 0 0.023907474886085 0.00057797945625648 0
          0.023072410624366 0.001035238244058 0.00015 0.023303887517976 0.00051385162283572 0.00015
          0.023907474886085 0.00057797945625648 0.00015 0.023072410624366 0.001035238244058 0.0003
          0.023303887517976 0.00051385162283572 0.0003 0.023907474886085 0.00057797945625648 0.0003
          0.014126846853415 0.0020250855845452 0 0.014376196219822 0.0016213258676016 0
          0.014126846853415 0.0020250855845452 0.00015 0.014376196219822 0.0016213258676016 0.00015
          0.014126846853415 0.0020250855845452 0.0003 0.014376196219822 0.0016213258676016 0.0003
          0.018981322625637 0.0048047339747308 0 0.018357141436072 0.0045551651420339 0
          0.018591751365599 0.0039752866369835 0 0.01916753543825 0.0042045163914746 0
          0.018981322625637 0.0048047339747308 0.00015 0.018357141436072 0.0045551651420339 0.00015
          0.018591751365599 0.0039752866369835 0.00015 0.01916753543825 0.0042045163914746 0.00015
          0.018981322625637 0.0048047339747308 0.0003 0.018357141436072 0.0045551651420339 0.0003
          0.018591751365599 0.0039752866369835 0.0003 0.01916753543825 0.0042045163914746 0.0003
          0.018733892370512 0.0020905204418308 0 0.018302277235643 0.001411928503633 0
          0.018878430913296 0.0015272195647153 0 0.018733892370512 0.0020905204418308 0.00015
          0.018302277235643 0.001411928503633 0.00015 0.018878430913296 0.0015272195647153 0.00015
          0.018733892370512 0.0020905204418308 0.0003 0.018302277235643 0.001411928503633 0.0003
          0.018878430913296 0.0015272195647153 0.0003 0.015535554193674 0.0045828394817383 0
          0.015535554193674 0.0045828394817383 0.00015 0.015535554193674 0.0045828394817383 0.0003
          0.017780760549951 0.0042442262797048 0 0.018018112537919 0.0052480329433742 0
          0.017497318700769 0.0047182001999379 0 0.017780760549951 0.0042442262797048 0.00015
          0.018018112537919 0.0052480329433742 0.00015 0.017497318700769 0.0047182001999379 0.00015
          0.017780760549951 0.0042442262797048 0.0003 0.018018112537919 0.0052480329433742 0.0003
          0.017497318700769 0.0047182001999379 0.0003 0.019494677591535 0.00226139088066 0
          0.019117853172676 0.0029004952170283 0 0.018505903140776 0.002650294613165 0
          0.019494677591535 0.00226139088066 0.00015 0.019117853172676 0.0029004952170283 0.00015
          0.018505903140776 0.002650294613165 0.00015 0.019494677591535 0.00226139088066 0.0003
          0.019117853172676 0.0029004952170283 0.0003 0.018505903140776 0.002650294613165 0.0003
          0.013829014690192 0.0024142080164891 0 0.013458574547778 0.0021218274131508 0
          0.013711742209243 0.0017918189860839 0 0.013829014690192 0.0024142080164891 0.00015
          0.013458574547778 0.0021218274131508 0.00015 0.013711742209243 0.0017918189860839 0.00015
          0.013829014690192 0.0024142080164891 0.0003 0.013458574547778 0.0021218274131508 0.0003
          0.013711742209243 0.0017918189860839 0.0003 0.0133672983588 0.0013583262253912 0
          0.013268156677071 0.00095273786274694 0 0.0133672983588 0.0013583262253912 0.00015
          0.013268156677071 0.00095273786274694 0.00015 0.0133672983588 0.0013583262253912 0.0003
          0.013268156677071 0.00095273786274694 0.0003 0.020151989638292 0.0057951577471947 0
          0.020929132214341 0.005368110675239 0 0.020151989638292 0.0057951577471947 0.00015
          0.020929132214341 0.005368110675239 0.00015 0.020151989638292 0.0057951577471947 0.0003
          0.020929132214341 0.005368110675239 0.0003 0.011634800364854 0.0014122839921498 0
          0.011634800364854 0.0014122839921498 0.00015 0.011634800364854 0.0014122839921498 0.0003
          0.020690070611507 0.0010537467946972 0 0.021241463234904 0.0010007048777636 0
          0.020690070611507 0.0010537467946972 0.00015 0.021241463234904 0.0010007048777636 0.00015
          0.020690070611507 0.0010537467946972 0.0003 0.021241463234904 0.0010007048777636 0.0003
          0.01690585017332 0.0031962434076044 0 0.017120511962154 0.0027019865785896 0
          0.01690585017332 0.0031962434076044 0.00015 0.017120511962154 0.0027019865785896 0.00015
          0.01690585017332 0.0031962434076044 0.0003 0.017120511962154 0.0027019865785896 0.0003
          0.016801656731456 0.0019822328720047 0 0.016801656731456 0.0019822328720047 0.00015
          0.016801656731456 0.0019822328720047 0.0003 0.015193226280812 0.00045041659473928 0
          0.015698309574236 0.00047366638839958 0 0.015648437383567 0.00097128418016613 0
          0.015127663000402 0.00090574444628299 0 0.015193226280812 0.00045041659473928 0.00015
          0.015698309574236 0.00047366638839958 0.00015 0.015648437383567 0.00097128418016613 0.00015
          0.015127663000402 0.00090574444628299 0.00015 0.015193226280812 0.00045041659473928 0.0003
          0.015698309574236 0.00047366638839958 0.0003 0.015648437383567 0.00097128418016613 0.0003
          0.015127663000402 0.00090574444628299 0.0003 0.025 0.0057777777777625 0
          0.025 0.0057777777777625 0.00015 0.025 0.0057777777777625 0.0003
          0.025 0.0043333333333224 0 0.023896353247243 0.0043894596145303 0
          0.025 0.0043333333333224 0.00015 0.023896353247243 0.0043894596145303 0.00015
          0.025 0.0043333333333224 0.0003 0.023896353247243 0.0043894596145303 0.0003
          0.013179014717582 0.001822526704721 0 0.013420070576712 0.0016525675047962 0
          0.013179014717582 0.001822526704721 0.00015 0.013420070576712 0.0016525675047962 0.00015
          0.013179014717582 0.001822526704721 0.0003 0.013420070576712 0.0016525675047962 0.0003
          0.01946472134525 0.0015844882179861 0 0.01946472134525 0.0015844882179861 0.00015
          0.01946472134525 0.0015844882179861 0.0003 0.019738918970445 0.0042679072806348 0
          0.019737200842686 0.0050366958134185 0 0.019738918970445 0.0042679072806348 0.00015
          0.019737200842686 0.0050366958134185 0.00015 0.019738918970445 0.0042679072806348 0.0003
          0.019737200842686 0.0050366958134185 0.0003 0.018801022408002 0.0054477015438504 0
          0.019301386887175 0.0055580415356932 0 0.019427042946373 0.0060730727381959 0
          0.018733542944404 0.0061279994653871 0 0.018801022408002 0.0054477015438504 0.00015
          0.019301386887175 0.0055580415356932 0.00015 0.019427042946373 0.0060730727381959 0.00015
          0.018733542944404 0.0061279994653871 0.00015 0.018801022408002 0.0054477015438504 0.0003
          0.019301386887175 0.0055580415356932 0.0003 0.019427042946373 0.0060730727381959 0.0003
          0.018733542944404 0.0061279994653871 0.0003 0.020038894590203 0.0015918984718873 0
          0.020014763899096 0.0020069766457038 0 0.020038894590203 0.0015918984718873 0.00015
          0.020014763899096 0.0020069766457038 0.00015 0.020038894590203 0.0015918984718873 0.0003
          0.020014763899096 0.0020069766457038 0.0003 0.02163606673442 0.0008902471917336 0
          0.021744201350165 0.00049421716196859 0 0.022190644598282 0.0005058615377216 0
          0.021944604947084 0.0011684672971015 0 0.02163606673442 0.0008902471917336 0.00015
          0.021744201350165 0.00049421716196859 0.00015 0.022190644598282 0.0005058615377216 0.00015
          0.021944604947084 0.0011684672971015 0.00015 0.02163606673442 0.0008902471917336 0.0003
          0.021744201350165 0.00049421716196859 0.0003 0.022190644598282 0.0005058615377216 0.0003
          0.021944604947084 0.0011684672971015 0.0003 0.015913060403389 0.0039637658470315 0
          0.015913060403389 0.0039637658470315 0.00015 0.015913060403389 0.0039637658470315 0.0003
          0.014558693053864 0.0012292895498017 0 0.015031644896308 0.0013689537442351 0
          0.014558693053864 0.0012292895498017 0.00015 0.015031644896308 0.0013689537442351 0.00015
          0.014558693053864 0.0012292895498017 0.0003 0.015031644896308 0.0013689537442351 0.0003
          0.018057579772584 0.0060827128421873 0 0.018070157245618 0.0068021820766994 0
          0.018057579772584 0.0060827128421873 0.00015 0.018070157245618 0.0068021820766994 0.00015
          0.018057579772584 0.0060827128421873 0.0003 0.018070157245618 0.0068021820766994 0.0003
          0.017413401850906 0.0060417176080878 0 0.017413401850906 0.0060417176080878 0.00015
          0.017413401850906 0.0060417176080878 0.0003 0.016169389215855 0.0034677229039223 0
          0.015655980876909 0.003250339095381 0 0.016169389215855 0.0034677229039223 0.00015
          0.015655980876909 0.003250339095381 0.00015 0.016169389215855 0.0034677229039223 0.0003
          0.015655980876909 0.003250339095381 0.0003 0.014652329158707 0.0030238496825634 0
          0.015285307382498 0.0031101507370722 0 0.014652329158707 0.0030238496825634 0.00015
          0.015285307382498 0.0031101507370722 0.00015 0.014652329158707 0.0030238496825634 0.0003
          0.015285307382498 0.0031101507370722 0.0003 0.016487808895433 0.0042010147125967 0
          0.016291762387835 0.0047307906783276 0 0.016487808895433 0.0042010147125967 0.00015
          0.016291762387835 0.0047307906783276 0.00015 0.016487808895433 0.0042010147125967 0.0003
          0.016291762387835 0.0047307906783276 0.0003 0.017341722495578 0.0054175123203669 0
          0.017341722495578 0.0054175123203669 0.00015 0.017341722495578 0.0054175123203669 0.0003
          0.016251164393845 0.0016133033435965 0 0.016687160352932 0.001374608348519 0
          0.016251164393845 0.0016133033435965 0.00015 0.016687160352932 0.001374608348519 0.00015
          0.016251164393845 0.0016133033435965 0.0003 0.016687160352932 0.001374608348519 0.0003
          0.01678493258985 0.0053840721103251 0 0.016848637368385 0.0048798435935376 0
          0.01678493258985 0.0053840721103251 0.00015 0.016848637368385 0.0048798435935376 0.00015
          0.01678493258985 0.0053840721103251 0.0003 0.016848637368385 0.0048798435935376 0.0003
          0.013915703094631 0.0030656560250288 0 0.01425441565673 0.0027053116394345 0
          0.014277331184122 0.0033493109511997 0 0.013915703094631 0.0030656560250288 0.00015
          0.01425441565673 0.0027053116394345 0.00015 0.014277331184122 0.0033493109511997 0.00015
          0.013915703094631 0.0030656560250288 0.0003 0.01425441565673 0.0027053116394345 0.0003
          0.014277331184122 0.0033493109511997 0.0003 0.013503308513005 0.0027817056572273 0
          0.013503308513005 0.0027817056572273 0.00015 0.013503308513005 0.0027817056572273 0.0003
          0.015571407447371 0.001500509245043 0 0.016188320748251 0.0009824473909215 0
          0.015571407447371 0.001500509245043 0.00015 0.016188320748251 0.0009824473909215 0.00015
          0.015571407447371 0.001500509245043 0.0003 0.016188320748251 0.0009824473909215 0.0003
          0.017456683820944 0.0034405145363726 0 0.017671289470578 0.0029336357035204 0
          0.017456683820944 0.0034405145363726 0.00015 0.017671289470578 0.0029336357035204 0.00015
          0.017456683820944 0.0034405145363726 0.0003 0.017671289470578 0.0029336357035204 0.0003
          0.022716879195272 0.001694170750475 0 0.022069698771397 0.0020298487038736 0
          0.022716879195272 0.001694170750475 0.00015 0.022069698771397 0.0020298487038736 0.00015
          0.022716879195272 0.001694170750475 0.0003 0.022069698771397 0.0020298487038736 0.0003
          0.013893710777701 0.0013389894450257 0 0.014229820502632 0.0011148528015907 0
          0.013893710777701 0.0013389894450257 0.00015 0.014229820502632 0.0011148528015907 0.00015
          0.013893710777701 0.0013389894450257 0.0003 0.014229820502632 0.0011148528015907 0.0003
          0.012674188674928 0.0028095410694266 0 0.013119330518162 0.0024349279719224 0
          0.013248150362312 0.0031919567697963 0 0.012674188674928 0.0028095410694266 0.00015
          0.013119330518162 0.0024349279719224 0.00015 0.013248150362312 0.0031919567697963 0.00015
          0.012674188674928 0.0028095410694266 0.0003 0.013119330518162 0.0024349279719224 0.0003
          0.013248150362312 0.0031919567697963 0.0003 0.012451479243686 0.0021914486022899 0
          0.012451479243686 0.0021914486022899 0.00015 0.012451479243686 0.0021914486022899 0.0003
          0.016782084774574 0.00093367828557597 0 0.016782084774574 0.00093367828557597 0.00015
          0.016782084774574 0.00093367828557597 0.0003 0.013121586466294 0.0036708577033715 0
          0.013121586466294 0.0036708577033715 0.00015 0.013121586466294 0.0036708577033715 0.0003
          0.012837862818801 0.0020433604618052 0 0.012837862818801 0.0020433604618052 0.00015
          0.012837862818801 0.0020433604618052 0.0003 0.016706746155521 0.0036970402910047 0
          0.016706746155521 0.0036970402910047 0.00015 0.016706746155521 0.0036970402910047 0.0003
          0.013749164985008 0.00086088989331873 0 0.013749164985008 0.00086088989331873 0.00015
          0.013749164985008 0.00086088989331873 0.0003 0.012096711335481 0.0017058387426491 0
          0.012096711335481 0.0017058387426491 0.00015 0.012096711335481 0.0017058387426491 0.0003
          0.013693266362936 0.0034326845509566 0 0.013693266362936 0.0034326845509566 0.00015
          0.013693266362936 0.0034326845509566 0.0003 0.012692307692288 0 0
          0.012542896420733 0.00061304595643839 0 0.012692307692288 0 0.00015
          0.012542896420733 0.00061304595643839 0.00015 0.012692307692288 0 0.0003
          0.012542896420733 0.00061304595643839 0.0003 0.013205128205107 0 0
          0.013181655749567 0.00048421972568225 0 0.013205128205107 0 0.00015
          0.013181655749567 0.00048421972568225 0.00015 0.013205128205107 0 0.0003
          0.013181655749567 0.00048421972568225 0.0003 0.012087580163866 0.0010424427844857 0
          0.012087580163866 0.0010424427844857 0.00015 0.012087580163866 0.0010424427844857 0.0003
          0.013717948717925 0 0 0.013709151553936 0.00043508888993868 0
          0.013717948717925 0 0.00015 0.013709151553936 0.00043508888993868 0.00015
          0.013717948717925 0 0.0003 0.013709151553936 0.00043508888993868 0.0003
          0.023934294716764 0.0032087575652495 0 0.025 0.0028888888888822 0
          0.023934294716764 0.0032087575652495 0.00015 0.025 0.0028888888888822 0.00015
          0.023934294716764 0.0032087575652495 0.0003 0.025 0.0028888888888822 0.0003
          0.022119784948444 0.002618759724243 0 0.022119784948444 0.002618759724243 0.00015
          0.022119784948444 0.002618759724243 0.0003 0.012384518900215 0.0018567382086698 0
          0.012384518900215 0.0018567382086698 0.00015 0.012384518900215 0.0018567382086698 0.0003
          0.021279978971931 0.00049482730399591 0 0.020757556768826 0.00050973095909409 0
          0.021279978971931 0.00049482730399591 0.00015 0.020757556768826 0.00050973095909409 0.00015
          0.021279978971931 0.00049482730399591 0.0003 0.020757556768826 0.00050973095909409 0.0003
          0.015256410256382 0 0 0.015769230769205 0 0
          0.015256410256382 0 0.00015 0.015769230769205 0 0.00015
          0.015256410256382 0 0.0003 0.015769230769205 0 0.0003
          0.014025581742285 0.0035717972510793 0 0.014025581742285 0.0035717972510793 0.00015
          0.014025581742285 0.0035717972510793 0.0003 0.013590285783394 0.0038446716816234 0
          0.013590285783394 0.0038446716816234 0.00015 0.013590285783394 0.0038446716816234 0.0003
          0.017243082343815 0.0050067004105205 0 0.017243082343815 0.0050067004105205 0.00015
          0.017243082343815 0.0050067004105205 0.0003 0.014691316585943 0.00042340821879555 0
          0.014743589743561 0 0 0.014691316585943 0.00042340821879555 0.00015
          0.014743589743561 0 0.00015 0.014691316585943 0.00042340821879555 0.0003
          0.014743589743561 0 0.0003 0.018245486290569 0.0031782516753476 0
          0.018245486290569 0.0031782516753476 0.00015 0.018245486290569 0.0031782516753476 0.0003
          0.018846153846135 0 0 0.018644197304734 0.00045373129675669 0
          0.01812656348281 0.00041497632726255 0 0.018333333333313 0 0
          0.018846153846135 0 0.00015 0.018644197304734 0.00045373129675669 0.00015
          0.01812656348281 0.00041497632726255 0.00015 0.018333333333313 0 0.00015
          0.018846153846135 0 0.0003 0.018644197304734 0.00045373129675669 0.0003
          0.01812656348281 0.00041497632726255 0.0003 0.018333333333313 0 0.0003
          0.016222123693441 0.00047331176344161 0 0.016700854199337 0.00043557402690065 0
          0.016222123693441 0.00047331176344161 0.00015 0.016700854199337 0.00043557402690065 0.00015
          0.016222123693441 0.00047331176344161 0.0003 0.016700854199337 0.00043557402690065 0.0003
          0.020119253581834 0.0010505613075795 0 0.020119253581834 0.0010505613075795 0.00015
          0.020119253581834 0.0010505613075795 0.0003 0.017948162073368 0.00084248305268282 0
          0.018468108748109 0.00092264731154686 0 0.017948162073368 0.00084248305268282 0.00015
          0.018468108748109 0.00092264731154686 0.00015 0.017948162073368 0.00084248305268282 0.0003
          0.018468108748109 0.00092264731154686 0.0003 0.018823294200687 0.0034327213803771 0
          0.019357958441624 0.0036753812238739 0 0.018823294200687 0.0034327213803771 0.00015
          0.019357958441624 0.0036753812238739 0.00015 0.018823294200687 0.0034327213803771 0.0003
          0.019357958441624 0.0036753812238739 0.0003 0.017020820655581 0.0044256808272369 0
          0.017020820655581 0.0044256808272369 0.00015 0.017020820655581 0.0044256808272369 0.0003
          0.017246333426457 0.0039469397271967 0 0.017246333426457 0.0039469397271967 0.00015
          0.017246333426457 0.0039469397271967 0.0003 0.020078691259254 0.0027314397537426 0
          0.020078691259254 0.0027314397537426 0.00015 0.020078691259254 0.0027314397537426 0.0003
          0.014206101807249 0.00041708713844452 0 0.014230769230743 0 0
          0.014206101807249 0.00041708713844452 0.00015 0.014230769230743 0 0.00015
          0.014206101807249 0.00041708713844452 0.0003 0.014230769230743 0 0.0003
          0.019663480844036 0.0032045589214632 0 0.019663480844036 0.0032045589214632 0.00015
          0.019663480844036 0.0032045589214632 0.0003 0.021168425648455 0.0043064684914555 0
          0.021635594211814 0.0048272474453844 0 0.020555573714582 0.0046911399787169 0
          0.021168425648455 0.0043064684914555 0.00015 0.021635594211814 0.0048272474453844 0.00015
          0.020555573714582 0.0046911399787169 0.00015 0.021168425648455 0.0043064684914555 0.0003
          0.021635594211814 0.0048272474453844 0.0003 0.020555573714582 0.0046911399787169 0.0003
          0.019723975353689 0.0038421555098755 0 0.019723975353689 0.0038421555098755 0.00015
          0.019723975353689 0.0038421555098755 0.0003 0.01679487179485 0 0
          0.017307692307672 0 0 0.017098243235352 0.00037703288126221 0
          0.01679487179485 0 0.00015 0.017307692307672 0 0.00015
          0.017098243235352 0.00037703288126221 0.00015 0.01679487179485 0 0.0003
          0.017307692307672 0 0.0003 0.017098243235352 0.00037703288126221 0.0003
          0.019358974358957 0 0 0.019358974358957 0 0.00015
          0.019358974358957 0 0.0003 0.018021318366412 0.0037089471112668 0
          0.018021318366412 0.0037089471112668 0.00015 0.018021318366412 0.0037089471112668 0.0003
          0.022914230268928 0.0025172233828488 0 0.022914230268928 0.0025172233828488 0.00015
          0.022914230268928 0.0025172233828488 0.0003 0.016282051282027 0 0
          0.016282051282027 0 0.00015 0.016282051282027 0 0.0003
          0.017636327566636 0.00038375181151782 0 0.017820512820494 0 0
          0.017636327566636 0.00038375181151782 0.00015 0.017820512820494 0 0.00015
          0.017636327566636 0.00038375181151782 0.0003 0.017820512820494 0 0.0003
          0.020545307319607 0.0031941956482125 0 0.020545307319607 0.0031941956482125 0.00015
          0.020545307319607 0.0031941956482125 0.0003 0.014207774647908 0.00082121811907846 0
          0.014649951203035 0.00083908958777153 0 0.014207774647908 0.00082121811907846 0.00015
          0.014649951203035 0.00083908958777153 0.00015 0.014207774647908 0.00082121811907846 0.0003
          0.014649951203035 0.00083908958777153 0.0003 0.017453973974276 0.00075538641526017 0
          0.017131504825278 0.00067680946789985 0 0.017453973974276 0.00075538641526017 0.00015
          0.017131504825278 0.00067680946789985 0.00015 0.017453973974276 0.00075538641526017 0.0003
          0.017131504825278 0.00067680946789985 0.0003 0.020049549059284 0.0035870308776452 0
          0.020306231316884 0.0040846257713005 0 0.020049549059284 0.0035870308776452 0.00015
          0.020306231316884 0.0040846257713005 0.00015 0.020049549059284 0.0035870308776452 0.0003
          0.020306231316884 0.0040846257713005 0.0003 0.022163023796879 0.0034061119862663 0
          0.021471654866651 0.0034951402573089 0 0.022163023796879 0.0034061119862663 0.00015
          0.021471654866651 0.0034951402573089 0.00015 0.022163023796879 0.0034061119862663 0.0003
          0.021471654866651 0.0034951402573089 0.0003 0.020216848120139 0.00051365536395203 0
          0.020384615384602 0 0 0.020897435897425 0 0
          0.020216848120139 0.00051365536395203 0.00015 0.020384615384602 0 0.00015
          0.020897435897425 0 0.00015 0.020216848120139 0.00051365536395203 0.0003
          0.020384615384602 0 0.0003 0.020897435897425 0 0.0003
          0.020867240059882 0.0037570922548429 0 0.020867240059882 0.0037570922548429 0.00015
          0.020867240059882 0.0037570922548429 0.0003 0.021410256410247 0 0
          0.021410256410247 0 0.00015 0.021410256410247 0 0.0003
          0.01987179487178 0 0 0.01987179487178 0 0.00015
          0.01987179487178 0 0.0003 0.022975084693504 0.003367305376383 0
          0.022975084693504 0.003367305376383 0.00015 0.022975084693504 0.003367305376383 0.0003
          0.022435897435893 0 0 0.022948717948713 0 0
          0.022737844672879 0.00047743690091317 0 0.022435897435893 0 0.00015
          0.022948717948713 0 0.00015 0.022737844672879 0.00047743690091317 0.00015
          0.022435897435893 0 0.0003 0.022948717948713 0 0.0003
          0.022737844672879 0.00047743690091317 0.0003 0.02192307692307 0 0
          0.02192307692307 0 0.00015 0.02192307692307 0 0.0003
          0.021567010772127 0.0039949981403974 0 0.021567010772127 0.0039949981403974 0.00015
          0.021567010772127 0.0039949981403974 0.0003 0.02205136800235 0.0041574599345453 0
          0.022874799944018 0.0043411431204517 0 0.02205136800235 0.0041574599345453 0.00015
          0.022874799944018 0.0043411431204517 0.00015 0.02205136800235 0.0041574599345453 0.0003
          0.022874799944018 0.0043411431204517 0.0003 0.023461538461532 0 0
          0.023461538461532 0 0.00015 0.023461538461532 0 0.0003
          0.022597273609822 0.0008601076908125 0 0.022597273609822 0.0008601076908125 0.00015
          0.022597273609822 0.0008601076908125 0.0003 0.024392416230449 0.00057909033861659 0
          0.024392416230449 0.00057909033861659 0.00015 0.024392416230449 0.00057909033861659 0.0003
          0.023974358974355 0 0 0.023974358974355 0 0.00015
          0.023974358974355 0 0.0003 0.024487179487177 0 0
          0.024487179487177 0 0.00015 0.024487179487177 0 0.0003
          0.025 0 0 0.025 0 0.00015
          0.025 0 0.0003 0.026666666666664 0.0014444444444417 0
          0.026666666666663 0 0 0.026666666666664 0.0014444444444417 0.00015
          0.026666666666663 0 0.00015 0.026666666666664 0.0014444444444417 0.0003
          0.026666666666663 0 0.0003 0.028333333333331 0.0014444444444417 0
          0.02833333333333 0 0 0.028333333333331 0.0014444444444417 0.00015
          0.02833333333333 0 0.00015 0.028333333333331 0.0014444444444417 0.0003
          0.02833333333333 0 0.0003 0.03 0.0014444444444417 0
          0.03 0 0 0.03 0.0014444444444417 0.00015
          0.03 0 0.00015 0.03 0.0014444444444417 0.0003
          0.03 0 0.0003 0.026666666666665 0.0028888888888822 0
          0.026666666666665 0.0028888888888822 0.00015 0.026666666666665 0.0028888888888822 0.0003
          0.028333333333331 0.0028888888888822 0 0.028333333333331 0.0028888888888822 0.00015
          0.028333333333331 0.0028888888888822 0.0003 0.03 0.0028888888888822 0
          0.03 0.0028888888888822 0.00015 0.03 0.0028888888888822 0.0003
          0.026666666666666 0.0043333333333224 0 0.026666666666666 0.0043333333333224 0.00015
          0.026666666666666 0.0043333333333224 0.0003 0.028333333333332 0.0043333333333224 0
          0.028333333333332 0.0043333333333224 0.00015 0.028333333333332 0.0043333333333224 0.0003
          0.03 0.0043333333333224 0 0.03 0.0043333333333224 0.00015
          0.03 0.0043333333333224 0.0003 0.026666666666666 0.0057777777777625 0
          0.026666666666666 0.0057777777777625 0.00015 0.026666666666666 0.0057777777777625 0.0003
          0.028333333333333 0.0057777777777625 0 0.028333333333333 0.0057777777777625 0.00015
          0.028333333333333 0.0057777777777625 0.0003 0.03 0.0057777777777625 0
          0.03 0.0057777777777625 0.00015 0.03 0.0057777777777625 0.0003
          0.028333333333334 0.0072222222222063 0 0.028333333333334 0.0072222222222063 0.00015
          0.028333333333334 0.0072222222222063 0.0003 0.03 0.0072222222222063 0
          0.03 0.0072222222222063 0.00015 0.03 0.0072222222222063 0.0003
          0.028333333333334 0.0086666666666559 0 0.028333333333334 0.0086666666666559 0.00015
          0.028333333333334 0.0086666666666559 0.0003 0.03 0.0086666666666559 0
          0.03 0.0086666666666559 0.00015 0.03 0.0086666666666559 0.0003
          0.028333333333335 0.010111111111103 0 0.028333333333335 0.010111111111103 0.00015
          0.028333333333335 0.010111111111103 0.0003 0.03 0.010111111111103 0
          0.03 0.010111111111103 0.00015 0.03 0.010111111111103 0.0003
          0.028333333333336 0.011555555555552 0 0.028333333333336 0.011555555555552 0.00015
          0.028333333333336 0.011555555555552 0.0003 0.03 0.011555555555552 0
          0.03 0.011555555555552 0.00015 0.03 0.011555555555552 0.0003
          0.028333333333337 0.013 0 0.028333333333337 0.013 0.00015
          0.028333333333337 0.013 0.0003 0.03 0.013 0
          0.03 0.013 0.00015 0.03 0.013 0.0003
          0.031601181467612 0.0014508094753802 0 0.03158989866902 0 0
          0.031601181467612 0.0014508094753802 0.00015 0.03158989866902 0 0.00015
          0.031601181467612 0.0014508094753802 0.0003 0.03158989866902 0 0.0003
          0.031612464266204 0.0029016189507591 0 0.031612464266204 0.0029016189507591 0.00015
          0.031612464266204 0.0029016189507591 0.0003 0.031623747064796 0.0043524284261377 0
          0.031623747064796 0.0043524284261377 0.00015 0.031623747064796 0.0043524284261377 0.0003
          0.031635029863388 0.0058032379015163 0 0.031635029863388 0.0058032379015163 0.00015
          0.031635029863388 0.0058032379015163 0.0003 0.031646312661979 0.0072540473768985 0
          0.031646312661979 0.0072540473768985 0.00015 0.031646312661979 0.0072540473768985 0.0003
          0.021356284292895 0.0061182113295331 0 0.020489019208248 0.0065103794253073 0
          0.021356284292895 0.0061182113295331 0.00015 0.020489019208248 0.0065103794253073 0.00015
          0.021356284292895 0.0061182113295331 0.0003 0.020489019208248 0.0065103794253073 0.0003
          0.025 0.0072222222222063 0 0.023816654948859 0.0069324696013164 0
          0.023829479378086 0.0056593315311521 0 0.025 0.0072222222222063 0.00015
          0.023816654948859 0.0069324696013164 0.00015 0.023829479378086 0.0056593315311521 0.00015
          0.025 0.0072222222222063 0.0003 0.023816654948859 0.0069324696013164 0.0003
          0.023829479378086 0.0056593315311521 0.0003 0.018734278863615 0.0068564365277259 0
          0.018734278863615 0.0068564365277259 0.00015 0.018734278863615 0.0068564365277259 0.0003
          0.019611341590458 0.0069319215290848 0 0.019611341590458 0.0069319215290848 0.00015
          0.019611341590458 0.0069319215290848 0.0003 0.022477642087048 0.0055533155338694 0
          0.022477642087048 0.0055533155338694 0.00015 0.022477642087048 0.0055533155338694 0.0003
          0.026666666666667 0.0072222222222063 0 0.026666666666667 0.0072222222222063 0.00015
          0.026666666666667 0.0072222222222063 0.0003 0.026666666666668 0.0086666666666559 0
          0.026666666666668 0.0086666666666559 0.00015 0.026666666666668 0.0086666666666559 0.0003
          0.026666666666669 0.010111111111103 0 0.026666666666669 0.010111111111103 0.00015
          0.026666666666669 0.010111111111103 0.0003 0.026666666666669 0.011555555555552 0
          0.026666666666669 0.011555555555552 0.00015 0.026666666666669 0.011555555555552 0.0003
          0.02666666666667 0.013 0 0.02666666666667 0.013 0.00015
          0.02666666666667 0.013 0.0003 0.033201501647561 0.0014698753983525 0
          0.033179797338052 0 0 0.033201501647561 0.0014698753983525 0.00015
          0.033179797338052 0 0.00015 0.033201501647561 0.0014698753983525 0.0003
          0.033179797338052 0 0.0003 0.033223205957069 0.0029397507967035 0
          0.033223205957069 0.0029397507967035 0.00015 0.033223205957069 0.0029397507967035 0.0003
          0.033244910266578 0.0044096261950543 0 0.033244910266578 0.0044096261950543 0.00015
          0.033244910266578 0.0044096261950543 0.0003 0.033266614576087 0.0058795015934051 0
          0.033266614576087 0.0058795015934051 0.00015 0.033266614576087 0.0058795015934051 0.0003
          0.033288318885596 0.0073493769917596 0 0.033288318885596 0.0073493769917596 0.00015
          0.033288318885596 0.0073493769917596 0.0003 0.031657595460571 0.0087048568522863 0
          0.031657595460571 0.0087048568522863 0.00015 0.031657595460571 0.0087048568522863 0.0003
          0.033310023195106 0.0088192523901195 0 0.033310023195106 0.0088192523901195 0.00015
          0.033310023195106 0.0088192523901195 0.0003 0.031668878259163 0.010155666327672 0
          0.031668878259163 0.010155666327672 0.00015 0.031668878259163 0.010155666327672 0.0003
          0.031680161057755 0.011606475803059 0 0.031680161057755 0.011606475803059 0.00015
          0.031680161057755 0.011606475803059 0.0003 0.031691443856347 0.013057285278446 0
          0.031691443856347 0.013057285278446 0.00015 0.031691443856347 0.013057285278446 0.0003
          <InformationKey name="L2_NORM_RANGE" location="vtkDataArray" length="2">
            <Value index="0">
              0.011720201603
            </Value>
            <Value index="1">
              0.034459060608
            </Value>
          </InformationKey>
        </DataArray>
      </Points>
      <Cells>
        <DataArray type="Int64" Name="connectivity" format="ascii" RangeMin="0" RangeMax="797">
          0 1 2 3 4 5
          6 7 4 5 6 7
          8 9 10 11 12 13
          14 15 16 17 18 19
          16 17 18 19 20 21
          22 23 24 25 26 27
          28 29 30 31 28 29
          30 31 32 33 34 35
          36 37 38 39 40 41
          42 43 40 41 42 43
          44 45 46 47 48 49
          50 51 52 53 54 55
          52 53 54 55 56 57
          58 59 60 61 62 63
          64 65 66 67 64 65
          66 67 68 69 70 71
          72 73 74 12 75 76
          77 16 75 76 77 16
          78 79 80 20 61 81
          82 62 65 83 84 66
          65 83 84 66 69 85
          86 70 87 88 89 90
          91 92 93 94 91 92
          93 94 95 96 97 98
          37 99 100 38 41 101
          102 42 41 101 102 42
          45 103 104 46 81 105
          106 82 83 107 108 84
          83 107 108 84 85 109
          110 86 26 111 112 113
          30 114 115 116 30 114
          115 116 34 117 118 119
          63 120 121 60 67 122
          123 64 67 122 123 64
          71 124 125 68 126 127
          128 129 130 131 132 133
          130 131 132 133 134 135
          136 137 138 72 139 140
          141 75 142 143 141 75
          142 143 144 78 145 146
          150 127 151 152 153 131
          154 155 153 131 154 155
          156 135 157 158 159 160
          161 138 162 163 164 141
          162 163 164 141 165 166
          167 144 120 168 169 170
          122 171 172 173 122 171
          172 173 124 174 175 176
          15 139 72 12 19 142
          75 16 19 142 75 16
          23 145 78 20 177 0
          3 178 179 4 7 180
          179 4 7 180 181 8
          11 182 183 184 726 727
          185 186 728 729 185 186
          728 729 187 188 730 731
          192 193 90 89 194 195
          94 93 194 195 94 93
          196 197 98 97 198 106
          105 199 200 108 107 201
          200 108 107 201 202 110
          109 203 204 13 12 74
          205 17 16 77 205 17
          16 77 206 21 20 80
          207 208 209 210 211 212
          213 214 211 212 213 214
          215 216 217 218 732 733
          734 219 735 736 737 220
          735 736 737 220 738 739
          740 221 222 219 734 223
          224 220 737 225 224 220
          737 225 226 221 740 227
          228 229 170 169 230 231
          173 172 230 231 173 172
          232 233 176 175 234 140
          50 49 235 143 54 53
          235 143 54 53 236 146
          58 57 129 237 238 126
          133 239 240 130 133 239
          240 130 137 241 242 134
          243 244 245 246 247 248
          249 250 247 248 249 250
          251 252 253 254 255 256
          159 234 257 258 162 235
          257 258 162 235 259 260
          165 236 261 262 263 264
          265 266 267 268 265 266
          267 268 269 270 271 272
          273 147 38 100 274 148
          42 102 274 148 42 102
          275 149 46 104 121 276
          277 60 123 278 279 64
          123 278 279 64 125 280
          281 68 282 246 741 283
          284 250 742 285 284 250
          742 285 286 254 743 287
          291 292 82 106 293 294
          84 108 293 294 84 108
          295 296 86 110 99 297
          62 298 101 299 66 300
          101 299 66 300 103 301
          70 302 303 304 147 273
          305 306 148 274 305 306
          148 274 307 308 149 275
          105 204 74 199 107 205
          77 201 107 205 77 201
          109 206 80 203 288 309
          151 282 289 310 154 284
          289 310 154 284 290 311
          157 286 312 313 13 204
          314 315 17 205 314 315
          17 205 316 317 21 206
          99 298 292 100 101 300
          294 102 101 300 294 102
          103 302 296 104 292 298
          62 82 294 300 66 84
          294 300 66 84 296 302
          70 86 151 127 126 243
          154 131 130 247 154 131
          130 247 157 135 134 251
          246 282 151 243 250 284
          154 247 250 284 154 247
          254 286 157 251 100 292
          291 273 102 294 293 274
          102 294 293 274 104 296
          295 275 324 325 297 326
          327 328 299 329 327 328
          299 329 330 331 301 332
          325 63 62 297 328 67
          66 299 328 67 66 299
          331 71 70 301 333 168
          325 324 334 171 328 327
          334 171 328 327 335 174
          331 330 168 120 63 325
          171 122 67 328 171 122
          67 328 174 124 71 331
          312 336 209 337 314 338
          213 339 314 338 213 339
          316 340 217 341 88 256
          255 89 92 258 257 93
          92 258 257 93 96 260
          259 97 342 198 199 343
          344 200 201 345 344 200
          201 345 346 202 203 347
          90 264 348 349 94 268
          350 351 94 268 350 351
          98 272 352 353 354 355
          276 121 356 357 278 123
          356 357 278 123 358 359
          280 125 360 361 333 362
          363 364 334 365 363 364
          334 365 366 367 335 368
          336 277 210 209 338 279
          214 213 338 279 214 213
          340 281 218 217 73 72
          138 161 76 75 141 164
          76 75 141 164 79 78
          144 167 372 14 13 313
          373 18 17 315 373 18
          17 315 374 22 21 317
          168 333 361 169 171 334
          364 172 171 334 364 172
          174 335 367 175 378 361
          360 369 379 364 363 370
          379 364 363 370 380 367
          366 371 381 291 106 198
          382 293 108 200 382 293
          108 200 383 295 110 202
          354 177 178 384 356 179
          180 385 356 179 180 385
          358 181 182 386 37 326
          297 99 41 329 299 101
          41 329 299 101 45 332
          301 103 324 390 362 333
          327 391 365 334 327 391
          365 334 330 392 368 335
          394 393 399 400 396 395
          401 402 396 395 401 402
          398 397 403 404 2 387
          189 405 6 388 190 406
          6 388 190 406 10 389
          191 407 400 399 408 409
          402 401 410 411 402 401
          410 411 404 403 412 413
          414 24 27 415 416 28
          31 417 416 28 31 417
          418 32 35 419 420 87
          90 349 421 91 94 351
          421 91 94 351 422 95
          98 353 199 74 73 343
          201 77 76 345 201 77
          76 345 203 80 79 347
          336 61 60 277 338 65
          64 279 338 65 64 279
          340 69 68 281 426 193
          192 427 428 195 194 429
          428 195 194 429 430 197
          196 431 207 432 433 208
          211 434 435 212 211 434
          435 212 215 436 437 216
          326 438 390 324 329 439
          391 327 329 439 391 327
          332 440 392 330 441 375
          362 390 442 376 365 391
          442 376 365 391 443 377
          368 392 381 303 273 291
          382 305 274 293 382 305
          274 293 383 307 275 295
          348 111 26 25 350 114
          30 29 350 114 30 29
          352 117 34 33 319 444
          309 318 321 445 310 320
          321 445 310 320 323 446
          311 322 432 207 447 448
          434 211 449 450 434 211
          449 450 436 215 451 452
          238 244 243 126 240 248
          247 130 240 248 247 130
          242 252 251 134 140 234
          159 138 143 235 162 141
          143 235 162 141 146 236
          165 144 161 453 343 73
          164 454 345 76 164 454
          345 76 167 455 347 79
          456 457 458 459 460 461
          462 463 460 461 462 463
          464 465 466 467 61 336
          312 81 65 338 314 83
          65 338 314 83 69 340
          316 85 81 312 204 105
          83 314 205 107 83 314
          205 107 85 316 206 109
          468 469 372 337 470 471
          373 339 470 471 373 339
          472 473 374 341 468 337
          209 208 470 339 213 212
          470 339 213 212 472 341
          217 216 474 255 234 49
          475 257 235 53 475 257
          235 53 476 259 236 57
          372 313 312 337 373 315
          314 339 373 315 314 339
          374 317 316 341 152 151
          309 444 155 154 310 445
          155 154 310 445 158 157
          311 446 477 478 139 15
          479 480 142 19 479 480
          142 19 481 482 145 23
          483 484 129 128 485 486
          133 132 485 486 133 132
          487 488 137 136 489 319
          304 303 490 321 306 305
          490 321 306 305 491 323
          308 307 744 741 246 245
          745 742 250 249 745 742
          250 249 746 743 254 253
          492 381 198 342 493 382
          200 344 493 382 200 344
          494 383 202 346 88 495
          159 256 92 496 162 258
          92 496 162 258 96 497
          165 260 498 499 448 447
          500 501 450 449 500 501
          450 449 502 503 452 451
          223 414 415 222 225 416
          417 224 225 416 417 224
          227 418 419 226 354 121
          120 170 356 123 122 173
          356 123 122 173 358 125
          124 176 394 3 2 405
          396 7 6 406 396 7
          6 406 398 11 10 407
          453 161 160 483 454 164
          163 485 454 164 163 485
          455 167 166 487 495 504
          160 159 496 505 163 162
          496 505 163 162 497 506
          166 165 492 489 303 381
          493 490 305 382 493 490
          305 382 494 491 307 383
          264 90 193 261 268 94
          195 265 268 94 195 265
          272 98 197 269 507 508
          184 509 510 511 186 512
          510 511 186 512 513 514
          188 515 237 129 484 516
          239 133 486 517 239 133
          486 517 241 137 488 518
          469 519 520 521 471 522
          523 524 471 522 523 524
          473 525 526 527 457 456
          528 51 461 460 529 55
          461 460 529 55 465 464
          530 59 531 342 343 453
          532 344 345 454 532 344
          345 454 533 346 347 455
          238 183 245 244 240 185
          249 248 240 185 249 248
          242 187 253 252 1 378
          369 423 5 379 370 424
          5 379 370 424 9 380
          371 425 504 484 483 160
          505 486 485 163 505 486
          485 163 506 488 487 166
          453 483 128 531 454 485
          132 532 454 485 132 532
          455 487 136 533 747 726
          184 508 748 728 186 511
          748 728 186 511 749 730
          188 514 478 457 51 50
          480 461 55 54 480 461
          55 54 482 465 59 58
          400 409 384 178 402 411
          385 180 402 411 385 180
          404 413 386 182 420 349
          348 534 421 351 350 535
          421 351 350 535 422 353
          352 536 468 537 519 469
          470 538 522 471 470 538
          522 471 472 539 525 473
          509 184 183 238 512 186
          185 240 512 186 185 240
          515 188 187 242 170 229
          177 354 173 231 179 356
          173 231 179 356 176 233
          181 358 499 498 409 408
          501 500 411 410 501 500
          411 410 503 502 413 412
          540 541 459 458 542 543
          463 462 542 543 463 462
          544 545 467 466 87 546
          495 88 91 547 496 92
          91 547 496 92 95 548
          497 96 228 169 361 378
          230 172 364 379 230 172
          364 379 232 175 367 380
          549 550 276 355 551 552
          278 357 551 552 278 357
          553 554 280 359 478 50
          140 139 480 54 143 142
          480 54 143 142 482 58
          146 145 540 555 556 521
          542 557 558 524 542 557
          558 524 544 559 560 527
          36 441 390 438 40 442
          391 439 40 442 391 439
          44 443 392 440 561 562
          237 516 563 564 239 517
          563 564 239 517 565 566
          241 518 152 444 319 489
          155 445 321 490 155 445
          321 490 158 446 323 491
          567 568 87 420 569 570
          91 421 569 570 91 421
          571 572 95 422 150 492
          342 531 153 493 344 532
          153 493 344 532 156 494
          346 533 477 15 14 555
          479 19 18 557 479 19
          18 557 481 23 22 559
          531 128 127 150 532 132
          131 153 532 132 131 153
          533 136 135 156 24 534
          348 25 28 535 350 29
          28 535 350 29 32 536
          352 33 504 495 546 561
          505 496 547 563 505 496
          547 563 506 497 548 565
          474 192 89 255 475 194
          93 257 475 194 93 257
          476 196 97 259 573 574
          575 427 576 577 578 429
          576 577 578 429 579 580
          581 431 546 582 562 561
          547 583 564 563 547 583
          564 563 548 584 566 565
          561 516 484 504 563 517
          486 505 563 517 486 505
          565 518 488 506 555 540
          458 477 557 542 462 479
          557 542 462 479 559 544
          466 481 550 210 277 276
          552 214 279 278 552 214
          279 278 554 218 281 280
          744 245 183 727 745 249
          185 729 745 249 185 729
          746 253 187 731 210 550
          447 207 214 552 449 211
          214 552 449 211 218 554
          451 215 427 575 585 426
          429 578 586 428 429 578
          586 428 431 581 587 430
          150 152 489 492 153 155
          490 493 153 155 490 493
          156 158 491 494 48 588
          574 573 52 589 577 576
          52 589 577 576 56 590
          580 579 573 474 49 48
          576 475 53 52 576 475
          53 52 579 476 57 56
          562 509 238 237 564 512
          240 239 564 512 240 239
          566 515 242 241 372 556
          555 14 373 558 557 18
          373 558 557 18 374 560
          559 22 534 591 567 420
          535 592 569 421 535 592
          569 421 536 593 571 422
          521 556 372 469 524 558
          373 471 524 558 373 471
          527 560 374 473 178 3
          394 400 180 7 396 402
          180 7 396 402 182 11
          398 404 263 594 595 596
          267 597 598 599 267 597
          598 599 271 600 601 602
          549 355 354 384 551 357
          356 385 551 357 356 385
          553 359 358 386 0 228
          378 1 4 230 379 5
          4 230 379 5 8 232
          380 9 426 585 603 262
          428 586 604 266 428 586
          604 266 430 587 605 270
          582 546 87 568 583 547
          91 570 583 547 91 570
          584 548 95 572 474 573
          427 192 475 576 429 194
          475 576 429 194 476 579
          431 196 262 603 594 263
          266 604 597 267 266 604
          597 267 270 605 600 271
          537 468 208 433 538 470
          212 435 538 470 212 435
          539 472 216 437 36 438
          326 37 40 439 329 41
          40 439 329 41 44 440
          332 45 541 540 521 520
          543 542 524 523 543 542
          524 523 545 544 527 526
          1 423 387 2 5 424
          388 6 5 424 388 6
          9 425 389 10 498 447
          550 549 500 449 552 551
          500 449 552 551 502 451
          554 553 228 0 177 229
          230 4 179 231 230 4
          179 231 232 8 181 233
          507 582 568 606 510 583
          570 607 510 583 570 607
          513 584 572 608 588 48
          51 528 589 52 55 529
          589 52 55 529 590 56
          59 530 609 567 591 610
          611 569 592 612 611 569
          592 612 613 571 593 614
          596 595 615 112 599 598
          616 115 599 598 616 115
          602 601 617 118 414 591
          534 24 416 592 535 28
          416 592 535 28 418 593
          536 32 262 261 193 426
          266 265 195 428 266 265
          195 428 270 269 197 430
          223 610 591 414 225 612
          592 416 225 612 592 416
          227 614 593 418 477 458
          457 478 479 462 461 480
          479 462 461 480 481 466
          465 482 610 747 508 609
          612 748 511 611 612 748
          511 611 614 749 514 613
          549 384 409 498 551 385
          411 500 551 385 411 500
          553 386 413 502 223 734
          747 610 225 737 748 612
          225 737 748 612 227 740
          749 614 596 618 264 263
          599 619 268 267 599 619
          268 267 602 620 272 271
          507 606 609 508 510 607
          611 511 510 607 611 511
          513 608 613 514 582 507
          509 562 583 510 512 564
          583 510 512 564 584 513
          515 566 113 621 27 26
          116 622 31 30 116 622
          31 30 119 623 35 34
          112 615 624 113 115 616
          625 116 115 616 625 116
          118 617 626 119 609 606
          568 567 611 607 570 569
          611 607 570 569 613 608
          572 571 112 111 618 596
          115 114 619 599 115 114
          619 599 118 117 620 602
          113 624 627 621 116 625
          628 622 116 625 628 622
          119 626 629 623 111 348
          264 618 114 350 268 619
          114 350 268 619 117 352
          272 620 27 621 627 630
          31 622 628 631 31 622
          628 631 35 623 629 632
          633 27 630 634 635 31
          631 636 635 31 631 636
          637 35 632 638 639 633
          634 640 641 635 636 642
          641 635 636 642 643 637
          638 644 645 639 640 646
          647 641 642 648 647 641
          642 648 649 643 644 650
          651 415 27 633 652 417
          31 635 652 417 31 635
          653 419 35 637 654 651
          633 639 655 652 635 641
          655 652 635 641 656 653
          637 643 657 654 639 645
          658 655 641 647 658 655
          641 647 659 656 643 649
          660 222 415 651 661 224
          417 652 661 224 417 652
          662 226 419 653 663 660
          651 654 664 661 652 655
          664 661 652 655 665 662
          653 656 666 663 654 657
          667 664 655 658 667 664
          655 658 668 665 656 659
          669 219 222 660 670 220
          224 661 670 220 224 661
          671 221 226 662 672 669
          660 663 673 670 661 664
          673 670 661 664 674 671
          662 665 675 672 663 666
          676 673 664 667 676 673
          664 667 677 674 665 668
          750 732 219 669 751 735
          220 670 751 735 220 670
          752 738 221 671 678 750
          669 672 679 751 670 673
          679 751 670 673 680 752
          671 674 681 678 672 675
          682 679 673 676 682 679
          673 676 683 680 674 677
          684 753 750 678 685 754
          751 679 685 754 751 679
          686 755 752 680 687 684
          678 681 688 685 679 682
          688 685 679 682 689 686
          680 683 690 756 753 684
          691 757 754 685 691 757
          754 685 692 758 755 686
          693 690 684 687 694 691
          685 688 694 691 685 688
          695 692 686 689 696 759
          756 690 697 760 757 691
          697 760 757 691 698 761
          758 692 699 696 690 693
          700 697 691 694 700 697
          691 694 701 698 692 695
          702 762 759 696 703 763
          760 697 703 763 760 697
          704 764 761 698 705 702
          696 699 706 703 697 700
          706 703 697 700 707 704
          698 701 708 645 646 709
          710 647 648 711 710 647
          648 711 712 649 650 713
          765 708 709 766 767 710
          711 768 767 710 711 768
          769 712 713 770 714 657
          645 708 715 658 647 710
          715 658 647 710 716 659
          649 712 771 714 708 765
          772 715 710 767 772 715
          710 767 773 716 712 769
          717 666 657 714 718 667
          658 715 718 667 658 715
          719 668 659 716 774 717
          714 771 775 718 715 772
          775 718 715 772 776 719
          716 773 720 675 666 717
          721 676 667 718 721 676
          667 718 722 677 668 719
          777 720 717 774 778 721
          718 775 778 721 718 775
          779 722 719 776 723 681
          675 720 724 682 676 721
          724 682 676 721 725 683
          677 722 780 723 720 777
          781 724 721 778 781 724
          721 778 782 725 722 779
          783 687 681 723 784 688
          682 724 784 688 682 724
          785 689 683 725 786 783
          723 780 787 784 724 781
          787 784 724 781 788 785
          725 782 789 693 687 783
          790 694 688 784 790 694
          688 784 791 695 689 785
          792 699 693 789 793 700
          694 790 793 700 694 790
          794 701 695 791 795 705
          699 792 796 706 700 793
          796 706 700 793 797 707
          701 794
        </DataArray>
        <DataArray type="Int64" Name="offsets" format="ascii" RangeMin="8" RangeMax="3632">
          8 16 24 32 40 48
          56 64 72 80 88 96
          104 112 120 128 136 144
          152 160 168 176 184 192
          200 208 216 224 232 240
          248 256 264 272 280 288
          296 304 312 320 328 336
          344 352 360 368 376 384
          392 400 408 416 424 432
          440 448 456 464 472 480
          488 496 504 512 520 528
          536 544 552 560 568 576
          584 592 600 608 616 624
          632 640 648 656 664 672
          680 688 696 704 712 720
          728 736 744 752 760 768
          776 784 792 800 808 816
          824 832 840 848 856 864
          872 880 888 896 904 912
          920 928 936 944 952 960
          968 976 984 992 1000 1008
          1016 1024 1032 1040 1048 1056
          1064 1072 1080 1088 1096 1104
          1112 1120 1128 1136 1144 1152
          1160 1168 1176 1184 1192 1200
          1208 1216 1224 1232 1240 1248
          1256 1264 1272 1280 1288 1296
          1304 1312 1320 1328 1336 1344
          1352 1360 1368 1376 1384 1392
          1400 1408 1416 1424 1432 1440
          1448 1456 1464 1472 1480 1488
          1496 1504 1512 1520 1528 1536
          1544 1552 1560 1568 1576 1584
          1592 1600 1608 1616 1624 1632
          1640 1648 1656 1664 1672 1680
          1688 1696 1704 1712 1720 1728
          1736 1744 1752 1760 1768 1776
          1784 1792 1800 1808 1816 1824
          1832 1840 1848 1856 1864 1872
          1880 1888 1896 1904 1912 1920
          1928 1936 1944 1952 1960 1968
          1976 1984 1992 2000 2008 2016
          2024 2032 2040 2048 2056 2064
          2072 2080 2088 2096 2104 2112
          2120 2128 2136 2144 2152 2160
          2168 2176 2184 2192 2200 2208
          2216 2224 2232 2240 2248 2256
          2264 2272 2280 2288 2296 2304
          2312 2320 2328 2336 2344 2352
          2360 2368 2376 2384 2392 2400
          2408 2416 2424 2432 2440 2448
          2456 2464 2472 2480 2488 2496
          2504 2512 2520 2528 2536 2544
          2552 2560 2568 2576 2584 2592
          2600 2608 2616 2624 2632 2640
          2648 2656 2664 2672 2680 2688
          2696 2704 2712 2720 2728 2736
          2744 2752 2760 2768 2776 2784
          2792 2800 2808 2816 2824 2832
          2840 2848 2856 2864 2872 2880
          2888 2896 2904 2912 2920 2928
          2936 2944 2952 2960 2968 2976
          2984 2992 3000 3008 3016 3024
          3032 3040 3048 3056 3064 3072
          3080 3088 3096 3104 3112 3120
          3128 3136 3144 3152 3160 3168
          3176 3184 3192 3200 3208 3216
          3224 3232 3240 3248 3256 3264
          3272 3280 3288 3296 3304 3312
          3320 3328 3336 3344 3352 3360
          3368 3376 3384 3392 3400 3408
          3416 3424 3432 3440 3448 3456
          3464 3472 3480 3488 3496 3504
          3512 3520 3528 3536 3544 3552
          3560 3568 3576 3584 3592 3600
          3608 3616 3624 3632
        </DataArray>
        <DataArray type="UInt8" Name="types" format="ascii" RangeMin="12" RangeMax="12">
          12 12 12 12 12 12
          12 12 12 12 12 12
          12 12 12 12 12 12
          12 12 12 12 12 12
          12 12 12 12 12 12
          12 12 12 12 12 12
          12 12 12 12 12 12
          12 12 12 12 12 12
          12 12 12 12 12 12
          12 12 12 12 12 12
          12 12 12 12 12 12
          12 12 12 12 12 12
          12 12 12 12 12 12
          12 12 12 12 12 12
          12 12 12 12 12 12
          12 12 12 12 12 12
          12 12 12 12 12 12
          12 12 12 12 12 12
          12 12 12 12 12 12
          12 12 12 12 12 12
          12 12 12 12 12 12
          12 12 12 12 12 12
          12 12 12 12 12 12
          12 12 12 12 12 12
          12 12 12 12 12 12
          12 12 12 12 12 12
          12 12 12 12 12 12
          12 12 12 12 12 12
          12 12 12 12 12 12
          12 12 12 12 12 12
          12 12 12 12 12 12
          12 12 12 12 12 12
          12 12 12 12 12 12
          12 12 12 12 12 12
          12 12 12 12 12 12
          12 12 12 12 12 12
          12 12 12 12 12 12
          12 12 12 12 12 12
          12 12 12 12 12 12
          12 12 12 12 12 12
          12 12 12 12 12 12
          12 12 12 12 12 12
          12 12 12 12 12 12
          12 12 12 12 12 12
          12 12 12 12 12 12
          12 12 12 12 12 12
          12 12 12 12 12 12
          12 12 12 12 12 12
          12 12 12 12 12 12
          12 12 12 12 12 12
          12 12 12 12 12 12
          12 12 12 12 12 12
          12 12 12 12 12 12
          12 12 12 12 12 12
          12 12 12 12 12 12
          12 12 12 12 12 12
          12 12 12 12 12 12
          12 12 12 12 12 12
          12 12 12 12 12 12
          12 12 12 12 12 12
          12 12 12 12 12 12
          12 12 12 12 12 12
          12 12 12 12 12 12
          12 12 12 12 12 12
          12 12 12 12 12 12
          12 12 12 12 12 12
          12 12 12 12 12 12
          12 12 12 12 12 12
          12 12 12 12 12 12
          12 12 12 12 12 12
          12 12 12 12 12 12
          12 12 12 12 12 12
          12 12 12 12 12 12
          12 12 12 12 12 12
          12 12 12 12 12 12
          12 12 12 12
        </DataArray>
      </Cells>
    </Piece>
  </UnstructuredGrid>
</VTKFile>
