<?xml version="1.0"?>
<VTKFile type="UnstructuredGrid" version="0.1" byte_order="LittleEndian" header_type="UInt32" compressor="vtkZLibDataCompressor">
  <UnstructuredGrid>
    <Piece NumberOfPoints="798" NumberOfCells="454">
      <PointData>
        <DataArray type="Int32" Name="libmesh_node_id" format="ascii" RangeMin="2250" RangeMax="5441">
          2250 2251 2252 2253 2254 2255
          2256 2257 2258 2259 2260 2261
          2274 2275 2276 2277 2278 2279
          2280 2281 2282 2283 2284 2285
          2298 2299 2300 2301 2302 2303
          2304 2305 2306 2307 2308 2309
          2328 2329 2330 2331 2332 2333
          2334 2335 2336 2337 2338 2339
          2352 2353 2354 2355 2356 2357
          2358 2359 2360 2361 2362 2363
          2376 2377 2378 2379 2380 2381
          2382 2383 2384 2385 2386 2387
          2424 2425 2426 2427 2428 2429
          2430 2431 2432 2445 2446 2447
          2448 2449 2450 2451 2452 2453
          2454 2455 2456 2457 2458 2459
          2460 2461 2462 2481 2482 2483
          2484 2485 2486 2493 2494 2495
          2496 2497 2498 2535 2536 2537
          2538 2539 2540 2541 2542 2543
          2544 2545 2546 2547 2548 2549
          2562 2563 2564 2565 2566 2567
          2568 2569 2570 2571 2572 2573
          2604 2605 2606 2607 2608 2609
          2610 2611 2612 2615 2619 2623
          2625 2626 2627 2628 2629 2630
          2631 2632 2633 2664 2665 2666
          2667 2668 2669 2670 2671 2672
          2787 2788 2789 2790 2791 2792
          2793 2794 2795 2820 2821 2822
          2823 2824 2825 2850 2851 2854
          2855 2858 2859 2880 2882 2884
          2886 2887 2888 2889 2890 2891
          2892 2893 2894 2895 2896 2897
          2898 2899 2900 2928 2929 2930
          2931 2932 2933 2934 2935 2936
          2937 2938 2939 2972 2975 2978
          2979 2980 2981 2982 2983 2984
          2985 2986 2987 2988 2989 2990
          3078 3079 3080 3111 3112 3113
          3114 3115 3116 3129 3130 3131
          3132 3133 3134 3135 3136 3137
          3138 3139 3140 3141 3142 3143
          3144 3145 3146 3147 3148 3149
          3150 3151 3152 3153 3154 3155
          3156 3157 3158 3159 3160 3161
          3162 3163 3164 3165 3166 3167
          3186 3188 3189 3191 3192 3194
          3259 3261 3263 3342 3343 3344
          3345 3346 3347 3435 3436 3437
          3438 3439 3440 3447 3448 3449
          3450 3451 3452 3513 3514 3515
          3519 3520 3521 3522 3523 3524
          3537 3538 3539 3540 3541 3542
          3714 3715 3716 3717 3718 3719
          3720 3721 3722 3792 3793 3794
          3822 3823 3824 3825 3826 3827
          3828 3829 3830 3831 3832 3833
          3855 3856 3857 3858 3859 3860
          3867 3868 3869 3870 3871 3872
          3873 3874 3875 3876 3877 3878
          3879 3880 3881 3883 3886 3889
          3921 3922 3923 3957 3961 3965
          4065 4066 4067 4077 4078 4079
          4086 4087 4088 4119 4120 4121
          4191 4192 4193 4206 4207 4210
          4211 4214 4215 4224 4225 4226
          4227 4228 4229 4251 4252 4253
          4260 4261 4262 4263 4264 4265
          4275 4276 4277 4278 4279 4280
          4296 4297 4298 4347 4348 4349
          4401 4402 4403 4404 4405 4406
          4407 4408 4409 4410 4411 4412
          4413 4414 4415 4431 4432 4433
          4452 4453 4454 4461 4462 4463
          4464 4465 4466 4533 4534 4535
          4551 4552 4553 4554 4555 4556
          4557 4558 4559 4560 4561 4562
          4590 4591 4592 4593 4594 4595
          4608 4609 4610 4617 4618 4619
          4620 4621 4622 4623 4624 4625
          4626 4627 4628 4629 4630 4631
          4665 4666 4667 4668 4669 4670
          4680 4681 4682 4683 4684 4685
          4719 4720 4721 4728 4729 4730
          4731 4732 4733 4734 4735 4736
          4752 4753 4754 4761 4762 4763
          4764 4765 4766 4767 4768 4769
          4773 4774 4775 4785 4786 4787
          4869 4870 4871 4881 4882 4883
          4887 4888 4889 4890 4891 4892
          4893 4894 4895 4917 4918 4919
          4920 4921 4922 4926 4927 4928
          4929 4930 4931 4962 4963 4964
          4965 4966 4967 4971 4972 4973
          4974 4975 4976 4995 4996 4997
          4998 4999 5000 5001 5002 5003
          5004 5005 5006 5022 5023 5024
          5031 5032 5033 5037 5038 5039
          5046 5047 5048 5049 5050 5051
          5052 5053 5054 5058 5059 5060
          5064 5065 5066 5067 5068 5069
          5070 5071 5072 5076 5077 5078
          5082 5083 5084 5085 5086 5087
          5091 5092 5093 5097 5098 5099
          5100 5101 5102 5106 5107 5108
          5109 5110 5111 5112 5113 5114
          5115 5116 5117 5118 5119 5120
          5121 5122 5123 5124 5125 5126
          5127 5128 5129 5130 5131 5132
          5133 5134 5135 5136 5137 5138
          5139 5140 5141 5142 5143 5144
          5145 5146 5147 5148 5149 5150
          5154 5155 5156 5157 5158 5159
          5163 5164 5165 5166 5167 5168
          5172 5173 5174 5175 5176 5177
          5181 5182 5183 5184 5185 5186
          5190 5191 5192 5193 5194 5195
          5196 5197 5198 5199 5200 5201
          5250 5251 5252 5277 5278 5279
          5304 5305 5306 5331 5332 5333
          2852 2853 2856 2857 2860 2861
          2970 2644 2971 2973 2647 2974
          2976 2650 2977 3187 3190 3193
          4662 4663 4664 3270 3271 3272
          5151 5152 5153 5160 5161 5162
          5169 5170 5171 5178 5179 5180
          5187 5188 5189 5202 5203 5204
          5205 5206 5207 5253 5254 5255
          5280 5281 5282 5307 5308 5309
          5334 5335 5336 5358 5359 5360
          5361 5362 5363 5385 5386 5387
          5412 5413 5414 5439 5440 5441
        </DataArray>
        <DataArray type="Float64" Name="resid_x" format="ascii" RangeMin="-2.4243531711395434" RangeMax="2.3432903753161796">
          0.0031197320277769336 0.0035319444872712324 0.004093353628751767 0.004127889366487558 0.0008144370780627241 -0.0005996225927882293
          -0.002306259197521837 0.00027096669032644627 -0.01387444615814104 -0.012062452264291146 -0.014728327482834147 -0.0191646709432729
          -0.007714937920343168 0.005154150315200834 0.004515195935747007 -0.007109493525641053 -0.01514523151324898 -0.008667704816255117
          -0.006031813875475356 -0.012527210067588612 -0.041946038961237164 -0.040598314658617074 -0.03791760457270188 -0.04551733510563993
          -0.023717451847264037 -0.005660850072906065 0.015652873960616986 0.06855308224611534 -0.029301628080895092 -0.024234277532644732
          0.03952769556996927 0.04717733859249584 -0.012992737148971756 -0.027593656500936703 0.002902188900664626 -0.05796378119702972
          -0.01427672453979767 0.005686478057135069 0.0033058739236784263 -0.021540050788594778 -0.02121048839421391 0.00021715212933060002
          -0.00811690635014184 -0.04901710241810875 -0.020302592800813812 -0.021937457882946987 -0.03767998849704379 -0.040951512882792196
          -0.0005952177530206271 0.003781973469180855 0.0007049303168260579 -0.0021490038258740185 -0.011638043254321495 -0.004024504378576488
          -0.03056685736433895 -0.008853532117147012 -0.041092876567990544 -0.04964390859875856 -0.06318545271363973 -0.04737588297982498
          0.0005832231056981385 0.0032640026969517066 0.004066474429428979 0.005216484739436034 -0.0027539188004794823 -0.006954654386726489
          0.000921049351314096 -0.0034306797340848405 -0.03313904531333378 -0.04757448983425849 -0.04780206553257038 -0.04106713326322886
          -0.022135961772346224 -0.00025836302924631127 -0.01006617925959219 -0.00745041514139233 -0.007455497554371693 -0.021030646897235883
          -0.05021920053315476 -0.050111062808681606 -0.055298456715444644 -0.02455268209789807 -0.01054022089705331 -0.010759260486299382
          0.00365428252856681 -0.04937302984271241 -0.04121010084647203 0.00549980338222289 0.006861024541920724 0.004720805739885314
          0.01898140022669348 0.0040052942321473495 0.0034115261639265926 -0.0029904643511917683 0.012661436056979225 -0.05550950392200793
          -0.04992852461321473 -0.05652559288958514 -0.06972334745094066 -0.008913576990681626 -0.01407244982707656 -0.0020021143617672266
          -0.004147111202474463 -0.030833774976725792 -0.036541683441615014 -0.039136569095464147 -0.015906109390524836 -0.01637632494545649
          -0.0017494334808452194 -0.033980870710908384 -0.0349562333647615 -0.022193394567734614 -0.0039590629396668575 -0.03165141715303843
          -0.005443620575320551 -0.0011381675320940587 -0.02123581618033832 -0.030465592194895308 -0.025641072677024646 -0.03510032336053914
          -0.014650587599021936 -0.009002474101920122 -0.004981040435767969 -0.0015466326734108193 -0.027457585699708575 -0.026462397573860486
          -0.02212718321233531 0.018612439973491934 0.01829620872573834 0.00373819688457111 -0.021625913172571565 -0.0018188752071721659
          0.014375735465309347 -0.0071235926180950315 -0.04000917983718644 -0.06947525335404503 -0.05046253190738703 -0.045963344688193075
          -0.032368502554423806 -0.048527124106134245 -0.006013963210699913 -0.01450977752932392 -0.015676551244153458 -0.0032073630680491405
          -0.048324871264425084 -0.046796057959657134 -0.04586336547214387 -0.029998183773150444 -0.03280408728938866 -0.04651714410773611
          -0.039593402854444015 -0.01420864563112989 -0.02132111069730147 -0.02235965402768869 -0.007070498893645194 -0.013806635950561308
          -0.04459069835304774 -0.06433061284500585 -0.02811563895214353 -0.04313901604719117 -0.00845303278543641 -0.03430879308611523
          -0.00197989063233428 -0.0004924110595410092 -0.023310158810632142 -0.047450002620804455 -0.0454355326150675 -0.06723473441631533
          -0.013661038584253937 -0.004393808930593934 -0.012048342951432645 -0.005088182945808484 -0.0011644150444460877 -0.003411626028779313
          -0.02370676043180797 -0.014557753549996555 -0.016824046109292112 -0.010049644990852702 -0.006552707982163675 -0.001713484845852653
          0.00427629813200614 -0.014506156067099818 -0.01703040936228728 -0.0195165694979913 -0.020400383359218566 -0.025434862477609954
          -0.03439584687812669 -0.029934512434891758 -0.061103672789197816 -0.009062394314852007 -0.015586179553693569 -0.007715283031633824
          -0.006530023800908502 -0.0120492584045504 -0.0028795765262410455 -0.021579352094788895 -0.04744287161210092 -0.051789759994238516
          -0.018887262715980846 -0.04578147995621773 -0.0032449565922711976 -0.022236567991337886 -0.034060846554678115 -0.0403628154541229
          -0.050585557508911805 -0.027313423283809257 -0.04366291240547504 -0.0021998951939883327 0.0003227467709026044 0.0006802057841515108
          0.002543065444088999 -0.010662739868085858 -0.011342320291397812 -0.00839015437132673 -0.010226255411314611 -0.032394016788265034
          -0.03789357675236271 -0.04195434522645325 -0.03737541610217976 0.02737972340952588 0.0545945529190206 -0.10769012266024447
          -0.14226276986913433 -0.026290275809353503 -0.23695143672734176 -0.07603308387615293 -0.1183478527056927 -0.08212353185408183
          -0.011954555014796142 -0.013531233546572707 -0.0042216598314166465 -0.005044026046578942 -0.012578965952767973 -0.009844222591732787
          -0.04113781399511218 -0.00656485438938148 -0.04685941770173141 -0.03130702862075729 -0.04370515489819127 -0.023264897760022052
          -0.01044193277251182 -0.043623408770114835 -0.042668295271640844 -0.033502359368452694 -0.026250599710781586 -0.033476642846565596
          -0.01753443781015207 -0.009979526499074076 -0.002009362314344898 -0.032630297160649135 -0.005320363828403174 -0.02968233763761674
          -0.010141243899479235 -0.031143819037589893 -0.02577364229621182 -0.06628764920181673 -0.05828895531845235 -0.027522479199933336
          -0.014912404512036348 -0.03804764374384373 -0.024617538180256915 -0.026023039766251088 -0.001678872349410554 0.0034220491212639814
          -0.025283040296054438 -0.018644767179341493 -0.005329495223221237 -0.014084579963657973 -0.003605179359837507 -0.02501887613984266
          -0.02652487666533343 -0.03335484537832745 -0.04126773897558067 -0.029388343641254977 -0.0138741702225893 -0.03653383336357763
          -0.012388513719432837 -0.019171631698099212 -0.005150602711053054 -0.01651054634873539 -0.020755160515356863 -0.03842937331365803
          -0.04351619577132482 -0.044427319119719755 -0.03270851228470484 -0.07264230014036777 -0.046407245291394617 -0.03574565744552238
          -0.03860547898465949 -0.04272387267086408 -0.023250420719238996 -0.03319553481130777 -0.020068688866097473 -0.011254286426689575
          -0.0033402316712300983 -0.03425838403422654 -0.029767787785055955 -0.020948681913704248 -0.031164047853992294 -0.009348905446092848
          -0.013381912243960237 -0.03452068305543898 -0.022678054546203086 -0.02647097746359961 -0.01568463266769138 -0.010082971530437135
          -0.01715958851584709 -0.03330264315582987 -0.037429203739874684 -0.01979474507950041 0.011646243869332551 -0.013462143142199956
          -0.037966784337186255 -0.020330364547584523 -0.011503818397624599 -0.012694459776280809 -0.043963203481608204 -0.01936309953641402
          -0.024647761785738354 -0.03722589961391076 -0.023284486391451864 -0.011935753441065344 -0.021159267203461063 -0.01258024050000106
          -0.010127176830599605 -0.031371137034426066 -0.010150102477596734 -0.0030873526237608084 -0.01729051494310374 0.00013475032486476302
          -0.014785130225550502 -0.034697856160473606 -0.015274884517303633 -0.012809465302286993 0.004426157793242291 -0.015317160770923044
          -0.04439852190421423 -0.03196976631372461 -0.014862823027304017 -0.012407903144748822 -0.04197099504960278 -0.03738774395090694
          -0.016488884292756634 -0.04098011742266294 0.002647056288977989 -0.01638921321353326 -0.03587112560139927 -0.041378033945741244
          -0.05817736080783442 -0.03194732867671668 -0.005427614322515373 -0.006310712969513688 -0.0318551363476276 -0.02780046087526422
          -0.018783633772201824 -0.007903012894367123 0.0032631816349550924 -0.0016149717357132332 -0.01723665061027324 -0.008382711106778906
          -0.011605847355951937 -0.012593428546939789 -0.015090040287148554 -0.016641056985577052 0.003971970940804925 -0.013411834815343582
          -0.015599379263683488 -0.011214991651394834 -0.017429448728458752 -0.017394360631886485 -0.023331136355537296 -0.014409854203709216
          -0.031532389251448745 0.0028186462087473885 -0.025133338441138964 -0.023727798799271227 -0.03759713337149506 -0.019531160428537753
          -0.01375480952684871 -0.002854717200570178 -0.010461250082633766 -0.05311391922744546 -0.02312180191643254 -0.044029658522720005
          -0.011892922031996545 0.006453519411496966 -0.011650811307700959 -0.011066046555241904 -0.008046442925536468 -0.007480166304689284
          -0.006704332374484867 0.0071230413867402476 -0.019273103632260202 -0.0041252059784406825 -0.0177825403130889 -0.009879351986375795
          -0.02654257794829107 -0.00808527319318042 -0.023012394317660778 0.0006688027343653147 -0.008148391065766258 0.0014583709964588465
          -0.00231871541337636 -0.004286680698891487 -0.014485583008082337 -0.01836155626997904 -0.018879985774580277 -0.013462241437616207
          -0.004895707357454704 -0.012727845044661734 0.0017695565224258303 0.004900595166465571 -0.008052659021298147 -0.014034259668123106
          0.008053322920900996 -0.002757855970779488 0.07370260290194963 0.057957031499519474 0.0396234674713245 -0.006977404494993067
          -0.046276775676576065 -0.011705057931020946 -0.04437998632056406 -0.018087759088517785 -0.014313225131013851 -0.010244282454286768
          -0.03278742910912147 -0.010048097729121075 -0.024916762660802227 -0.006269543973377978 -0.03740305241424835 -0.0349583471565964
          -0.008505501054669296 -0.007566574825277783 -0.00802575456842991 -0.006784898515856952 -0.018315494624197015 -0.018414034730957596
          -0.02670695644777865 -0.005131268153683699 -0.008655103720728974 -0.022941105316010457 -0.013335349451295997 -0.018657167277745135
          -0.024190844407584677 -0.007775511375794242 -0.014410457043206426 -0.018201811250884603 -0.008416016134955129 -0.012242864284588428
          -0.00535173807915168 -0.02524930224210742 -0.013071423267731141 -0.05259721265947448 -0.01642969273391559 -0.043469386202210636
          -0.005266832752230499 -0.017626320527572403 0.007254321620589366 0.005988862399026296 -0.007513245414759062 -0.015817385903848624
          0.004471026570921133 0.0027950849141298306 -0.020744179416050557 -0.04969644626918335 -0.03179607937854012 -0.01788469172862328
          -0.030434265478817224 -0.00796076084931574 -0.020660961545345025 0.0004701168313232529 -0.039066174034235956 -0.016694652422017953
          -0.06460118098872236 -0.017094142146705238 -0.0467793413116846 -0.02514242710965675 -0.054778952777401635 -0.00668915251155866
          -0.038253446765841304 -0.03435877765808382 -0.057439642673331015 -0.028767440131057143 -0.01933103849096085 -0.005846958778365163
          -0.011762913880790649 -0.046499499678683165 -0.04053672967580724 -0.04837975005350614 -0.0021130282544410406 -0.019780645770337557
          -0.053386129519072956 -0.0013456007282723892 -0.028675898704997316 -0.03861856184679979 0.008212463937687264 -0.03604596095788504
          -0.01839239730365394 -0.010030417528643198 0.006842239092991864 0.0024684498681928346 -0.007818390624692473 -0.004996755502960859
          -0.04625881079567207 0.0046069116401953325 -0.03264595501031664 -0.005231308421883796 -0.013419397740495942 -0.0397242067811856
          0.02039015918453302 0.009495894559438778 -0.0065405488137213474 -0.00806792999970618 -0.028276811874693886 -0.03363023012275068
          -0.03844678964107073 -0.016102486496998858 -0.023578763953978843 -0.007717396500614093 0.001321934821979287 -0.014485675517769359
          -0.0008465411989391214 -0.0005961746662013212 -0.005798476679506059 -0.013916366408176728 -0.016456879896261434 -0.02938874690201887
          -0.026085518605380997 -0.015163398390125593 -0.02214039677142754 -0.05669323907303969 -0.005686225810908052 -0.03380057556260496
          -0.07622323253383811 -0.018072105821650197 -0.0283181619637336 -0.02440058236753817 -0.014594091514810614 -0.01725267031946931
          -0.03991482005401625 -0.022133606810457174 -0.008406251790086916 -0.01204613134412913 -0.020809464380355802 -0.019877019127152007
          -0.03733140452231254 0.0062901875722563005 -0.031026933043680316 -0.0172989178578149 -0.028076242451190225 0.003514093070053903
          -0.013788428661576813 -0.008217249128766646 -0.021429056379458356 -0.03663343675940656 -0.03421182524639299 -0.012527427826708681
          -0.015582863211395903 -0.02445791902619021 -0.01585404182849981 -0.04146580352085216 -0.0541549155356531 0.007185474001116354
          -0.013413545344027611 -0.009162592663616742 -0.029285746129508183 -0.028385971047653946 -0.01860892225379196 -0.017858433971787768
          -0.009957766069577545 -0.04256065396084807 -0.043296202050104426 -0.06585828240010105 -0.015998308600270406 -0.007882950943383982
          -0.032954053221515345 -0.0034113796167689614 0.00006344748348841023 -0.04720397213234495 -0.0127733232618219 -0.014662865994321983
          -0.059503374523715014 -0.003483215168523124 -0.02782888076510659 -0.02282614518605719 -0.011440938808313206 -0.01715377809789409
          -0.028090643297121076 -0.00984259634246154 -0.01486825487282939 -0.10496073692533159 -0.060147668542189336 -0.06341026603441158
          -0.002809295412361301 -0.011080828587046732 -0.03574396281936787 0.00026439647014786516 -0.009975450100000671 -0.014208112616028501
          -0.013519345773674196 -0.015048739838556813 -0.026379919161700904 -0.02089563932580063 -0.011275451525406766 -0.014978061059282233
          -0.03392468210177224 -0.006278777828533144 -0.020999102341558995 -0.0370846827650686 -0.013079544963611411 0.010031731638074248
          0.06669869976283316 -0.0035728412191833314 -0.058139363654204246 -0.016218787330783968 -0.0013625873115756804 -0.010549160790432666
          -0.051632531250637825 -0.016225352204852994 -0.020053497217709326 -0.0742148683791406 -0.030303843305343747 -0.02542375868123692
          -0.020592779539520656 0.008524350087075305 0.004811665709163471 0.02659722250077312 0.0009452618159526693 -0.004672295583554309
          0.010446765500701005 0.04447341075786326 -0.007698192145127791 -0.03483280728960558 -0.028821936652478897 0.02007844386508495
          0.010825431598677326 0.06304151672538616 0.05286700226403873 0.02345365992333548 0.041538521804232786 -0.005413999376679968
          0.011535721330437454 -0.025633508221641677 -0.058299676388090305 0.28672306342291876 0.4682203772714839 0.6575255074076232
          0.9831310232706691 0.32065837767131633 0.4899456317507287 -0.08530087611383586 -0.10083877505494776 -0.0867755620134254
          -0.07807795801430828 -0.047675424779207276 0.020285017976492625 0.017944314055569066 0.017656488002613102 -0.004230875784321242
          -0.05888356549870011 -0.036543432704755574 -0.015029679668506546 0.053886401003770956 0.0712888338435107 0.015801089687659697
          0.04146869584641166 0.12251569435219878 0.07343015287602839 -0.059983602626301646 -0.10119154832381483 -0.05167390675714856
          -0.03482458048675241 -0.042145651951376095 0.026236029760207558 -0.040190366990877635 -0.014316809816094178 0.0034743246704493913
          -0.05313454006335405 -0.09564884511875249 -0.019241953168485537 -0.08220399253096211 -0.06466214361768863 -0.00059720806121355
          -0.8451636349754814 -1.6876062876262257 -0.812000352690724 -0.017472283744222494 0.008639605585575083 -0.015726786563440953
          -1.2055727232215538 -2.4243531711395434 -1.2734080133466694 -0.02219086540280024 -0.001301690148016732 -0.07289143312902091
          -0.0946389476700844 -0.1828087083517893 -0.10712090722185863 -0.8448740811249245 -1.6366675666019503 -0.6336602664032878
          0.9401535154631926 1.9167502348061127 1.0359676107544278 -1.0094180336175178 -1.994952398351959 -0.9909271194435689
          -0.3979587025661733 -0.5023461383791847 -0.7441834641260598 -0.9689906743116126 -0.29405048325379113 -0.44900023546072276
          0.369863459685174 0.7226812815840855 0.43750342979523715 0.46048080300790417 0.9168673886493757 0.5083034710956014
          -0.04233815883375769 -0.07900675586390804 -0.021620941255065418 0.04895196911729016 0.057218761375620986 0.04455949418938587
          -0.07373298781396365 -0.05524989889030074 -0.07488211405167888 -0.047569310517086905 -0.04188719316639755 -0.022574746386942124
          -0.045017083211961406 -0.011596467828644208 0.03569155438855276 0.010194248751016488 0.005869315028636635 0.10060805618511637
          -0.04573652922471538 -0.0903252507673411 -0.12748221060562237 -0.04461793783555379 -0.04145524099496356 -0.02068027573378295
          -0.0445747464996078 -0.022004673349957038 -0.026366254155759883 -0.0426085031453054 -0.0516129161453307 -0.03137352769819479
          -0.01488347795271494 0.02380306476547034 0.023012475128652454 0.816571468890757 1.719431819203166 0.8874539378514292
          1.1317466662864604 2.3432903753161796 1.2112769641292118 0.7960322981908767 1.6506860251610576 0.8144245702353459
          0.11511052667288979 0.29009881106754776 0.15268809053955934 -0.001072195957632971 0.0005970491107643028 -0.003723990847262826
          0.004187691783190672 0.013325280528935224 0.0026946453128822156 -0.3361343817586153 -0.6723711900889882 -0.32302674407193877
          -0.44915983567438644 -0.8889834331726973 -0.44296692330549803 0.18662312331137088 0.37682961739998433 0.2019963118602064
          0.04557128465656746 0.09345539212578302 0.06566983077733468 0.0380650902682067 -0.000021786435183912545 -0.011604410682316768
          -0.00859826567437949 0.000799417934480573 0.028783435384019285 -0.08351735611786637 -0.17924842559955323 -0.08909211281111595
          0.0723041285732009 0.10641427657338909 0.016808020465191476 0.02042472807511686 -0.004082713582910458 -0.03621673918449986
        </DataArray>
        <DataArray type="Float64" Name="resid_y" format="ascii" RangeMin="-6.264778872902472" RangeMax="2.6920943336485426">
          -0.0004319671005059561 0.000955775547301637 0.002562891829541253 0.0001335752623884412 0.0007084296562101938 0.004676223517929273
          0.00284547559312634 -0.00007282779229500491 0.0004070087994347965 0.0034453273835424285 0.0029699906704410417 -0.0006734595577163327
          0.0008337402068583771 -0.0006514239204765404 -0.003132053584351452 -0.002708432160454022 -0.00024484518421022394 -0.002492684324689326
          0.0003997379668637946 0.0013795915837934158 0.004190453735382488 0.00430273512535051 0.005722409589288213 0.0026159569364823665
          0.002617370089971205 0.0023650545189183303 -0.00648098461997848 0.018541800018460286 -0.005245974541759901 0.0006763862450041014
          -0.01085061965815548 0.052169484992422355 -0.022941144554234683 -0.006041981510191641 -0.0021483397271713223 0.015704167769818866
          0.014185846195864993 -0.0008232284906170839 0.008029915637507046 0.0021631953245067753 0.03861385336982631 0.0005266015452920769
          0.010725616790837916 0.009966890585311527 0.01971128904118416 0.00008657528595429342 0.0072791185129185 0.010183407798880467
          0.00006626555546429547 -0.0005050715835391573 -0.0029504211415437576 -0.0031837438211058805 -0.0003643597294004097 0.0018359849955059543
          -0.006725049083203649 -0.019728406673397453 -0.004327007516698567 0.00008003220287479407 -0.0052520051942826496 -0.01226848829952687
          0.0003867734613912932 0.000534104298740623 -0.0008168465100840405 -0.0013315746269651901 0.0015397544532058383 -0.0008016709716988091
          0.0006895633673048851 0.0011646407401231657 0.0029934398864598644 0.0019255289828977173 0.006328361221929452 0.0026386413727585434
          -0.008126491554211357 0.0019205629865807206 0.008002786560712405 0.003660710717441895 0.012430373749202972 0.002185706352472727
          0.011480244130963602 0.016977499141297203 0.00603957191434179 -0.0014795920565767728 -0.007975982499162426 0.003315355416490917
          -0.0007803152803990687 0.005480398172324263 0.006227061454942673 -0.0010412088634107475 0.006197264013671044 0.00029428085583382835
          0.00724026415076684 -0.006037725429120955 0.008326207809415176 0.00200716316081917 0.016811821799452398 -0.009958668216439537
          -0.0010011732622321468 -0.0005451471978592526 -0.004533177952319112 0.012437568774934876 0.012064152381694643 0.00561546563725282
          -0.001549949911974241 0.005861048555646536 0.0019444693423484871 -0.00015389272212616711 -0.008303702781735589 0.0036941857622565383
          -0.00078850231083194 0.005711448927316912 0.004691936917634393 -0.009450555754689005 -0.0029288042546527504 -0.004675695213263498
          -0.0003654240199412184 0.01014036825328929 -0.001988438715918972 -0.004147843568398757 0.008339706001964375 0.002370129712104929
          -0.004453410911336858 -0.00693759790336736 0.0018857811717174766 -0.00010720021964948437 0.0020592109252050572 0.0016702044256605778
          -0.006940082252196944 0.005070583780393156 0.005743463230352491 -0.0023120291677756477 -0.013663932557968994 0.015751824302013467
          0.019226616525550577 -0.009806144040481704 -0.0036296746957719117 0.01784539693341386 0.019191250364444856 -0.0017097663444501504
          -0.007720860108757943 0.017176261955584998 0.005849446818531334 -0.011925034469183082 0.019516238622375864 -0.002111553161904589
          -0.004982401170070677 0.00707522912804201 -0.004520971973568988 0.006937224266131303 0.03243844211736069 0.022555888135713187
          -0.001951409302516749 0.015296287523223678 -0.003079825461924507 0.001306193633049707 0.017321124147529315 -0.011039500536984326
          0.007022090641308376 0.01648216533208685 -0.00006024417343422628 -0.005127492882158247 0.001902992678220583 -0.0037505310340211206
          -0.003324115784751114 0.015169464639575414 -0.012728370659401966 -0.00663317414866893 0.014405230961903659 0.0006771551166910861
          0.004633315064540483 0.0020685855683484633 -0.0009658115531538114 0.0025812123607809184 0.0008578172108147444 0.006356376196925195
          -0.001989835747870747 -0.001533705014010553 0.0030658626445464188 -0.0007520297425772926 0.004478514569413977 0.00009095625394922591
          0.003268432528879539 -0.0010507286327753468 0.0002819667766191941 -0.007685987842183661 -0.002332238110247409 -0.014635588321137094
          -0.014058648841624333 -0.018926662130933303 -0.01910312275950038 0.00783440150401913 0.01233960213684457 0.0040272962242758545
          -0.006774791233056743 -0.0023875549558540175 -0.0011313846966866103 -0.0036592744393956524 0.0012522771091570961 -0.006856708629835777
          -0.008335570237053558 0.009056745585773712 -0.007663849186305749 0.00999039543293087 -0.001910649740568482 0.00836283786547043
          0.011364691618548889 -0.00023021080970751784 -0.00011267160042019442 0.00021047107177456226 -0.0006975400814659971 -0.001178694351022802
          0.0006502237886912149 0.00035218505015450347 -0.00008484809255648873 -0.005199673638592028 0.002454724679398307 0.0010553245836487507
          0.002287497984087783 0.00016655016489319774 0.0014911873268105974 -0.04122712327933742 -0.07410711081815868 -0.07307085863059248
          -0.06415237272511187 0.03205640667105536 -0.08506588196358722 0.0652803938627946 -0.05893415834394378 0.09429160969537687
          -0.007380570179379001 -0.004017857665333829 -0.0027032433758249624 0.0028002854653682713 0.0006680041959103711 0.0024330742552009996
          -0.0008939517326397861 -0.0020368496566707944 -0.002787774366797696 0.008365715444324726 -0.014797133183044126 0.008683303644641427
          0.0033601618347896545 0.00375833726045649 0.01663552034845514 0.005523487525101553 -0.0024600729697601305 0.0076572112587657
          -0.004211956902450575 -0.0013455797881739909 0.003215704454650657 0.004714325044196138 -0.0064287930413005345 0.00929160293435955
          0.015555274815931738 0.0013937863486142565 -0.0017617588852386346 -0.010463973875572227 -0.00828116045702254 -0.006843690778854515
          -0.009050817887798268 -0.006438640090430284 -0.0076369806093562476 0.004229245039251706 0.006587305384842146 0.002037790665770471
          0.01663789836142812 0.000025721019642932497 0.004509381754431108 -0.0022967137825600156 0.006881380451236319 -0.0034645699742942293
          -0.0015377265106318316 -0.008054662694268952 -0.004044325250677924 0.00007323881972562396 0.000604229827392333 0.0001223748391601942
          0.006420749540443554 0.013525350058776323 0.005560962115369356 0.007476001647269567 0.0011372122850113742 0.001713894349658296
          0.005106983831689782 0.008006100379442119 -0.00983036179375274 0.007257529288450401 -0.0033725874117261356 0.0002885107560629957
          0.01208064444723271 0.012329222787789751 0.0069872830022497875 0.020591694645353514 0.015913787947568897 0.015025963290335537
          0.004950746298816658 0.007550665234443837 0.0027784964742108426 0.007701990039644245 0.008128300016862933 0.001200814722465457
          -0.0006784325736767793 0.002715746992014656 0.0014770826628451583 -0.00919045113523101 0.003264110932314296 -0.005954274851822594
          0.025054977149984226 0.0015570857233016544 0.02096209282346033 0.022695345952513046 0.036533159816881655 0.016302109285178334
          0.002123519391418527 0.00022839148392785058 -0.0014382343446839307 0.0024082117448910208 0.0013517361652251592 0.0028521970435793284
          0.015996458890101053 0.004022972523359647 0.036066516398805426 0.013150392744961048 0.01653477628867288 0.011171881532534955
          -0.0013740533558181337 -0.0020975962950964266 0.005317983515144953 0.00009026888660869023 -0.002292625731612513 -0.0035613167242942376
          0.0015344808115210565 0.001297247475608651 -0.0012038022940394771 -0.0005582477932635777 -0.002523107845006936 -0.0009077643042008504
          0.0036434683459750095 -0.005106782322333386 -0.00024828892970704675 -0.0044607558418917614 0.004296909533412885 0.0012449687167102597
          -0.004589620536402689 0.01371753517772123 0.002896813632651818 0.02117220122857777 0.007003388772524155 0.020460742329845627
          0.0007325208802475558 -0.0006888316372422598 0.010671326459547714 0.008073443238950317 0.0004351026331026464 -0.0019076001648782315
          -0.004136266327854965 -0.0010107263104606884 0.0020661098588690696 0.0015888185519269127 0.0001431012143005908 0.00042342465730463297
          0.010825970047404654 0.0033252771864042963 0.00973030584314859 0.018906930839234115 0.005304374882636853 0.008099195125640272
          0.005547548028862231 -0.00018818609127821406 -0.0011308509093597326 0.005188529274821656 0.011252060066786737 0.0044349519080091535
          0.00007711775120144981 -0.002525260364679316 0.002784404167522181 0.009998869481479529 0.020492785740301063 0.011158694497681504
          -0.0015123090135526485 -0.000042781680434228475 -0.0019273957721255147 0.016533096457716404 0.008466180337072998 0.006090710729018317
          -0.00003275840740443736 0.0011137748673589049 0.00010571600842840256 0.014764629033291482 0.024454731923922723 0.011769823523300332
          0.003482225477407168 0.0008304786562866456 -0.0016509857443537147 0.33987041608711277 -0.009049428319705906 0.676015353777445
          -0.011165882941061772 0.3002342799674038 -0.0019072458280396352 0.253736021666679 -0.0023687041040774126 0.501472197617304
          -0.0027177669730724385 0.28508934187466345 -0.001306363391876758 -0.005958866979424132 -0.01200580075887786 -0.005309489465518957
          0.20419323679062812 -0.0018222469968115218 0.40117666711478683 0.00008471448397259773 0.19585760619242554 0.0001262506432598981
          0.0005815257836350174 -0.031803714022204055 0.05751088647095304 -0.028829929416297473 0.06414468782580007 -0.011416844629261735
          -0.005796993045065868 -0.002091490541417773 -0.009510366624058575 0.006474512380204238 0.010924496175182714 0.005443669818096311
          -0.005791064820939329 -0.0070101162892152735 -0.009517863072685345 -0.00009963921389011254 -0.008452617871421486 0.0027865969490972198
          -0.17235274270367373 -0.23194971066685127 -0.3419569069677897 -0.47018718797188663 -0.17023234223126277 -0.23064392173188425
          -0.0008436858039631151 -0.006782199504391767 -0.004811429440628526 -0.0016847116749109728 0.009924674514175488 0.010921628883774924
          0.004215756486410385 -0.003934107609775764 0.0010564965627543124 -0.00281175023723796 -0.06550878897927986 -0.0018083641776035914
          -0.13069005338745937 -0.0009176265276814519 -0.08549126799180662 0.0033044806052308084 -0.012849026710946787 -0.0016518946357188535
          -0.5880857440680385 -0.003944687228149668 -0.002398033747303241 -0.5618364306503952 -1.1870944708455877 0.002879294412460154
          -0.00708547235432716 -1.1335385585399207 -0.6202541413637304 -0.000028167107078647113 -0.004199925370303392 -0.5841025187032993
          -0.0013107422170470472 0.0027058672814992413 0.0017584893633839811 0.003268391835373946 0.003355004937922998 0.0030555820821113466
          -0.011354190931682606 -0.008060728738937664 -0.004938779082201639 0.01505134042985709 0.008612090471456835 -0.0007175858265447421
          0.004236168347271196 -0.005766419070006107 -0.003020941183867587 0.026649976296704764 -0.0027043023335783963 0.032355487887216094
          -0.014697315053453883 0.020962507525667612 -0.0017186647736309457 0.0031983552479415422 0.016981486159343334 0.01832584353157163
          0.010225122028716532 0.01708590103246263 0.017635686237988724 0.004809355817858574 0.008782766137057085 0.0025634895320660878
          0.000750585829809497 0.08804891275072743 0.0007422454635827164 0.17158875211926136 0.0004742899324905042 0.0485556355235337
          -0.005134080534513308 -0.017562438908803324 -0.011444059987003707 -0.004066548799589675 -0.010589979453781484 -0.0088465908844646
          0.00406618717020113 -0.03356656208562481 0.018658770828170357 -0.009586598335572294 -0.026850681538108323 0.01311225194616128
          -0.0050034426178230396 0.000999207411066405 0.00153532963263453 -0.34721016904271523 -0.5410595991854604 0.0006631599046902359
          -0.6963684274485524 -1.0917446895574716 -0.0037467566483928016 -0.3647805219533996 -0.5429450599340891 0.0024053433174708316
          -0.6069307205489562 -1.224666492349241 -0.6335028849737651 -0.0002538504169034006 -0.009999078202347828 -0.003023344474167994
          -0.006606642999606449 -0.0016269752999474307 -0.009387086809576783 -0.27618582695487515 -0.5537476033798204 -0.2770078120290732
          -0.011289516157398038 -0.5734424264073245 -0.007055002520279741 -1.146277842386882 -0.003482336861765467 -0.5698711960238174
          0.00041093516154482035 0.00042259936093612394 -0.006503772314085568 -0.0004377763964072412 0.00013128179119932526 -0.0009517098703278881
          0.0005062902151711651 -0.0009680275503970853 0.00002934476569796396 0.0036919602566716225 0.003125389944575018 0.004008221446243191
          -0.0008005529847073314 0.004692196397324565 0.0006983992511387267 0.0036978357116540725 -0.010664519814750612 0.008449849566185517
          -0.006176524991280033 0.002332950335367418 0.00011837819066357058 -0.012566539061925841 -0.012867408715712583 -0.009816618646497188
          -0.012836216660117139 -0.0120314481592656 -0.01871834144616319 -0.007742991198495641 -0.5615252361422816 -0.5249425917662578
          -0.0019082106944259547 -1.1250254675227793 -1.0613455815494635 -0.0031313885576218503 -0.5749288234915653 -0.5653362979669843
          -0.006340143008922938 0.006816071555738934 -0.00448101766992437 -0.5392696611678589 -1.076234040582534 -0.5518261993820339
          -0.6115586963626565 -1.2278728226349511 -0.6184353599136 -0.021239261934527243 0.0034737184998409054 0.02548894452606676
          -0.20982455418837065 -0.13145370541723594 -0.007822743166581936 -0.4258469422532596 -0.26173192775451715 -0.0008485191050073004
          -0.2741348365668138 -0.1928261018919757 -0.0003011778512323482 -0.3957223867262039 -0.7859016654815567 -0.39180620025361157
          -0.001479576254651338 0.005887538024573369 -0.003185744060631157 -0.013067257823476286 -0.036400436989854 -0.02136504202686451
          -0.056216876708999344 -0.02103606596822427 -0.044195245717650045 -0.0012173142054711095 0.0450798233822986 0.22232934898123147
          -0.0034961662143244143 0.005824289453140563 0.0013232953803628544 0.019053173204637952 0.056583539022210284 0.0227061325106217
          -0.2762973332212378 -0.5120397198102017 -0.027526271431486005 -0.10155339604860747 -0.14543453043557997 -0.6522061493530509
          1.4000536938774082 2.6920943336485426 0.1143260030137696 0.011068824197641325 -1.3251827918846824 0.011028630990699728
          -2.6600899287005415 0.005324518814173729 -0.9892533099985208 -0.019581742071665853 -2.8994540775732474 -0.06195926940377283
          -5.813834653941536 -0.028094826231938874 -2.8000606915315065 0.14003837376507894 -2.695634023014006 0.25028162296913864
          -5.441634992235725 0.11616517737794452 -3.0982813180735604 -0.07775676852647861 -0.12842557221677064 -0.07363107801661428
          -0.03658888208694011 -0.05910208694112273 -0.05740440601024366 -0.010026651527370811 -0.013373269957788536 -0.02486499045502566
          -0.026765335351033093 -0.0023615345591510017 -0.037761689760366535 -0.03996930946370947 -0.019233732708118456 -0.01967128389361905
          0.0009056667619520287 0.04503336117665194 0.002213750810985071 -0.023731630231113243 0.02006818168843827 -0.018198482174456743
          -0.0044098147208393446 0.050338197669463236 -0.013319845272956155 -0.02841928159400331 0.0016885248443810341 -0.02184906240341966
          -0.014181373080976112 0.018863504254576835 -0.009275331941693832 -0.02263270853286392 -0.005686212297732196 -0.04088006959166235
          -0.4675102773972204 -0.8995566413759024 -0.4825915840618129 0.001118485974324096 0.06596424867472411 0.012777028787629652
          -0.000005825503394868425 0.05364917970161119 0.025407130354423713 -0.021671898574306514 0.0044204719206009935 0.06042477304626437
          -0.5027552343468217 -0.9939083603659868 -0.48505058151355157 -0.45266661266895525 -0.8367086892981435 -0.501863957323053
          0.7843531767269034 1.5758334110503651 0.785730203964461 0.38212068912203295 0.8083785529227663 0.3779741260534919
          0.2457249862463402 -2.6739432284636293 0.4862662353166436 -5.36718455162791 0.234042138478729 -2.873357724763814
          -0.1662472286293537 -0.32061448410664517 -0.15170952357413636 0.2415939625515544 0.4953826475755009 0.21393467642088293
          -0.05124194534482418 -0.07077354825357007 -0.05913503330911207 -0.04253311110476021 -0.05480933367846852 -0.033134948180922996
          -0.03550392346275233 -0.030005981351198918 -0.03975255594439009 -0.030185972183578214 -0.02316266737164685 -0.011397641176775775
          -0.042968235853307224 -0.0006149871429537157 0.012166474308518804 -0.049051809010889125 -0.002451938241385232 0.028235861176530097
          -0.05791146546399517 -0.02877474996632401 -0.11176698906649696 0.012539764501927064 0.021619933300651706 0.013077615719452595
          -0.003323908361460348 -0.020605022717448906 -0.0091815733740791 -0.032938984684095174 -0.041859930373635335 -0.06786780344260634
          -0.027782908051326327 -0.048599523752179685 -0.035559566672922927 -0.4780872232528175 -0.9411872242274495 -0.49400774910689793
          0.15929187496010533 0.38592746942671075 0.16570228962865907 0.2612525946623975 0.5606391496802261 0.24681867377716393
          0.015607345010066997 0.07691573314110389 0.023637301526409304 0.0015379734217026986 -3.132009959888472 0.003058207731461815
          -6.264778872902472 -0.0012373090378885454 -3.1283194074359626 -0.1824795057548878 -0.34513811825717977 -0.16164711487212458
          0.10494826970283255 0.21209254461891325 0.0863841483851937 -0.02338042828028697 -0.051658908260028724 -0.0178640228959277
          0.019928567361152005 0.0488247332629026 0.010626124674744775 -0.02897312949426778 -0.0602794899182737 -0.04752545856911661
          -0.01517278415258172 -0.008804759538278972 -0.019290400863193113 -0.0239167397144584 -0.03465660006516025 -0.017874851741413345
          -0.00693083871917155 0.0045823166267577875 -0.023227895020844436 0.0015074025402297409 0.03597502174373268 -0.0008547141461203722
        </DataArray>
        <DataArray type="Float64" Name="resid_z" format="ascii" RangeMin="0" RangeMax="0">
          0 0 0 0 0 0
          0 0 0 0 0 0
          0 0 0 0 0 0
          0 0 0 0 0 0
          0 0 0 0 0 0
          0 0 0 0 0 0
          0 0 0 0 0 0
          0 0 0 0 0 0
          0 0 0 0 0 0
          0 0 0 0 0 0
          0 0 0 0 0 0
          0 0 0 0 0 0
          0 0 0 0 0 0
          0 0 0 0 0 0
          0 0 0 0 0 0
          0 0 0 0 0 0
          0 0 0 0 0 0
          0 0 0 0 0 0
          0 0 0 0 0 0
          0 0 0 0 0 0
          0 0 0 0 0 0
          0 0 0 0 0 0
          0 0 0 0 0 0
          0 0 0 0 0 0
          0 0 0 0 0 0
          0 0 0 0 0 0
          0 0 0 0 0 0
          0 0 0 0 0 0
          0 0 0 0 0 0
          0 0 0 0 0 0
          0 0 0 0 0 0
          0 0 0 0 0 0
          0 0 0 0 0 0
          0 0 0 0 0 0
          0 0 0 0 0 0
          0 0 0 0 0 0
          0 0 0 0 0 0
          0 0 0 0 0 0
          0 0 0 0 0 0
          0 0 0 0 0 0
          0 0 0 0 0 0
          0 0 0 0 0 0
          0 0 0 0 0 0
          0 0 0 0 0 0
          0 0 0 0 0 0
          0 0 0 0 0 0
          0 0 0 0 0 0
          0 0 0 0 0 0
          0 0 0 0 0 0
          0 0 0 0 0 0
          0 0 0 0 0 0
          0 0 0 0 0 0
          0 0 0 0 0 0
          0 0 0 0 0 0
          0 0 0 0 0 0
          0 0 0 0 0 0
          0 0 0 0 0 0
          0 0 0 0 0 0
          0 0 0 0 0 0
          0 0 0 0 0 0
          0 0 0 0 0 0
          0 0 0 0 0 0
          0 0 0 0 0 0
          0 0 0 0 0 0
          0 0 0 0 0 0
          0 0 0 0 0 0
          0 0 0 0 0 0
          0 0 0 0 0 0
          0 0 0 0 0 0
          0 0 0 0 0 0
          0 0 0 0 0 0
          0 0 0 0 0 0
          0 0 0 0 0 0
          0 0 0 0 0 0
          0 0 0 0 0 0
          0 0 0 0 0 0
          0 0 0 0 0 0
          0 0 0 0 0 0
          0 0 0 0 0 0
          0 0 0 0 0 0
          0 0 0 0 0 0
          0 0 0 0 0 0
          0 0 0 0 0 0
          0 0 0 0 0 0
          0 0 0 0 0 0
          0 0 0 0 0 0
          0 0 0 0 0 0
          0 0 0 0 0 0
          0 0 0 0 0 0
          0 0 0 0 0 0
          0 0 0 0 0 0
          0 0 0 0 0 0
          0 0 0 0 0 0
          0 0 0 0 0 0
          0 0 0 0 0 0
          0 0 0 0 0 0
          0 0 0 0 0 0
          0 0 0 0 0 0
          0 0 0 0 0 0
          0 0 0 0 0 0
          0 0 0 0 0 0
          0 0 0 0 0 0
          0 0 0 0 0 0
          0 0 0 0 0 0
          0 0 0 0 0 0
          0 0 0 0 0 0
          0 0 0 0 0 0
          0 0 0 0 0 0
          0 0 0 0 0 0
          0 0 0 0 0 0
          0 0 0 0 0 0
          0 0 0 0 0 0
          0 0 0 0 0 0
          0 0 0 0 0 0
          0 0 0 0 0 0
          0 0 0 0 0 0
          0 0 0 0 0 0
          0 0 0 0 0 0
          0 0 0 0 0 0
          0 0 0 0 0 0
          0 0 0 0 0 0
          0 0 0 0 0 0
          0 0 0 0 0 0
          0 0 0 0 0 0
          0 0 0 0 0 0
          0 0 0 0 0 0
          0 0 0 0 0 0
          0 0 0 0 0 0
          0 0 0 0 0 0
          0 0 0 0 0 0
          0 0 0 0 0 0
          0 0 0 0 0 0
          0 0 0 0 0 0
        </DataArray>
        <DataArray type="Float64" Name="stress_zz" format="ascii" RangeMin="-7902656.298593856" RangeMax="11864426.148312882">
          -114287.06021757668 -650566.2292908593 -190099.2141399145 -450748.10745776154 -60093.32398556941 -589131.9861683237
          -64814.01624713589 -360833.6397075483 -5899.587753562133 -527697.7430457879 60471.18164564279 -270919.1719573351
          432452.3187152619 188935.54708898463 470098.43660397484 430967.61698393465 432319.07661128335 95306.58433685201
          406785.9819090943 478828.2909573885 432185.8345073048 1677.6215847193962 343473.52721421386 526688.9649308425
          3749036.449556661 -3954608.4796251804 2861635.211731551 5693085.544493925 3588812.665301352 -4326890.3021485275
          2784181.1831553513 5975785.10105031 3428588.8810460432 -4699172.124671874 2706727.1545791505 6258484.657606696
          696427.2699089833 442640.42606451694 489683.6946199961 250618.5667528786 663589.3916943175 465104.8837900631
          479202.8149827659 200633.15293897633 630751.513479652 487569.34151560924 468721.9353455358 150647.7391250741
          735238.2588703048 1668536.5632524453 1655894.49692258 1510816.8027894327 741139.323636474 1695249.8142466336
          1623012.8508666032 1479689.0422186353 747040.388402643 1721963.0652408216 1590131.204810626 1448561.2816478377
          -744395.0193559866 -135365.2775993958 220944.27328313902 196613.1459311557 -776923.2475729249 -136374.7649320077
          171191.5007332457 161935.4862160328 -809451.4757898634 -137384.25226461963 121438.7281833523 127257.8265009099
          521367.81257877836 522805.50576747395 886463.2430042867 546370.7293275277 527509.8632485812 849622.8149260087
          571373.6460762769 532214.2207296884 812782.3868477307 468697.2799744564 209385.4743738933 544386.086965488
          208887.72180389398 620074.8939565199 208389.9692338947 1803210.220015296 2667293.452196245 1611814.4265875947
          -182044.79352176338 1790305.987208678 2714081.417090838 1769078.6801089314 -157262.53847136683 1777401.7544020594
          2760869.38198543 1926342.9336302683 -132480.28342097066 23316.601959744177 166876.25712193255 -19356.693228562595
          137470.12991345586 -62029.98841686937 108064.00270497918 907435.495822988 611404.7951916128 957818.2844209509
          638106.8693818345 1008201.0730189139 664808.9435720562 8058958.564102975 6104018.240757845 8259055.653676385
          8173961.1582275955 6357750.643618981 7838092.7245748155 8288963.752352216 6611483.046480118 7417129.795473248
          -384411.30979897757 -1093726.3711307934 -396765.0311555036 -1094286.9510386782 -409118.7525120295 -1094847.5309465628
          581919.3455961213 802485.3011019161 704186.8051311269 662132.1898144311 643220.4078710261 828224.3997068263
          756474.9741590314 711894.5685831511 704521.470145931 853963.4983117365 808763.1431869357 761656.9473518711
          725485.9307048934 803777.225394499 1388550.024990855 742265.13873679 860229.7932775854 1410807.9389137758
          759044.3467686867 916682.3611606719 1433065.852836697 627652.7896834763 638457.5345376985 649262.2793919208
          877410.9634998507 157845.94127877738 624829.9612443154 833833.2164660636 170984.05166228968 564764.0580486939
          790255.4694322767 184122.16204580193 504698.15485307225 974170.5670928312 9071.798486161817 196351.90155338324
          937434.0253932381 26601.154070849443 200195.85446851252 900697.4836936448 44130.50965553707 204039.80738364186
          41684.537159253945 -380831.44925171207 -549344.3552802278 43163.61320535986 -375284.46769724484 -544394.0271776568
          44642.68925146581 -369737.48614277755 -539443.6990750856 -406664.2303467087 -386148.2141192146 -404588.7952308236
          -404582.82093593647 -402513.36011493846 -423017.4277526582 263932.60008367954 -206589.7849952327 237078.1716174646
          -314390.48644712666 210223.7431512496 -422191.1878990208 -1065970.3094660444 -1144906.041430455 -1223841.7733948652
          -1438183.8441163362 805259.4149803726 -1460663.5850474979 553430.8294267458 -1483143.32597866 301602.24387311866
          861291.9988014443 1005335.0349253711 859353.9460186717 990354.1063386841 857415.8932358993 975373.1777519973
          132208.25647297292 96984.93168824835 61761.60690352367 -562022.7162369471 70172.30082156078 -229368.49168246204
          -915308.347131502 -610559.6862590989 51075.336442462474 -229681.10331993652 -966598.9706526555 -659096.6562812506
          31978.37206336415 -229993.714957411 -1017889.594173809 4348268.567919848 4407107.060746889 4465945.553573928
          6061072.298855909 5213318.241322252 6127556.837311475 5149906.2480904255 6194041.375767039 5086494.2548586
          -398670.0191461491 -256564.58136508474 -367434.27450133994 -238916.04611084366 -336198.5298565307 -221267.5108566026
          1750014.68011722 1707919.8028890302 1665824.9256608402 321762.63451675244 -425295.82431999256 257544.4650521355
          -394785.32928564434 193326.29558751849 -364274.8342512961 -1130028.1486442457 -1100892.5324623792 -365307.9776989616
          225838.724914713 -1128448.1179492422 -1227689.248549234 -468736.5956764534 178107.5662352743 -1126868.0872542392
          -1354485.9646360883 -572165.2136539456 130376.4075558355 2053781.6047573127 2253655.463308636 2023222.3757130757
          2166710.8553419826 1992663.146668839 2079766.2473753293 3296214.4595116745 1436804.84079201 1197729.2921815345
          2787003.009010885 2948644.189430363 1302889.7480400666 1291239.1761501345 2827155.708247085 2601073.9193490515
          1168974.655288123 1384749.0601187346 2867308.4074832834 523278.23370530806 559672.5544510831 596066.875196858
          -1494274.7181379218 -1048581.533998014 -1525462.7712190526 -1069632.1568130748 -1556650.824300184 -1090682.779628136
          336522.40994172334 511091.4851867488 368700.1679102708 572693.6315097047 400877.92587881815 634295.7778326607
          139731.8432928902 145688.05288070525 151644.26246852032 354835.8435390072 -260378.6291368155 337962.9451013764
          -335007.87202529097 321090.04666374554 -409637.11491376645 185297.7660689817 -505175.6726330542 196077.44383288184
          -634022.9734414422 206857.12159678203 -762870.2742498303 755055.7303631379 598915.5955102979 802918.0701454818
          592773.1088803443 850780.4099278257 586630.6222503907 -232006.36487153938 -265483.11168245226 -298959.8584933653
          -274346.86327573087 361877.9010000311 -245560.8870064253 301580.254520447 -216774.91073711932 241282.6080408628
          -212929.63791302417 105198.10669737362 -296016.40735449584 44581.107229491434 -379103.1767959675 -16035.892238390752
          -220035.448629059 370916.69857653824 75738.19680462012 -184386.6205421315 388307.2168970057 142693.20912015246
          -148737.79245520392 405697.7352174733 209648.22143568477 -247175.23999172868 -242258.94359731372 -237342.64720289863
          -609969.6935500252 540121.8527350427 -603917.5798687086 635051.7470885592 -597865.4661873919 729981.6414420756
          621490.6497827711 590187.3642311607 630058.4358038276 605643.3591671163 638626.221824884 621099.3541030721
          890908.1281975613 -1749954.9771769072 896088.110593925 -1689458.205645661 901268.0929902885 -1628961.4341144145
          -1047693.6095671526 -1530838.8600443508 -1037978.4262918665 -1543816.6895128125 -1028263.2430165805 -1556794.5189812745
          -898405.1570736868 -556061.6711650571 -277512.88329536235 -900582.2743849775 -478771.6641198403 -317811.40827988135
          -902759.3916962683 -401481.6570746236 -358109.93326440034 -1698034.054375725 -1724193.0369079525 -1750352.01944018
          810802.0434132401 835716.7945601055 860631.545706971 739360.8841916922 740117.4086407938 740873.9330898954
          -766388.3430726735 -701730.2508446263 -637072.1586165795 720209.0877471567 724592.3501915006 728975.6126358447
          -805022.434121465 -829953.1524041044 -854883.8706867438 -1601772.6987937707 -1614455.9760689256 -1627139.2533440804
          310165.6620295308 310050.87833379384 309936.09463805694 -1751615.8577076916 -1945258.4214382886 -1587178.6165096185
          -1912694.8634307943 -1422741.3753115453 -1880131.3054233 -2562367.2514557187 -1483757.3180257815 -2620265.4763619793
          -1502807.0906094888 -2678163.70126824 -1521856.863193196 -1597694.6788672337 -1704405.489043922 -1811116.29922061
          -1639862.788456814 -1188985.960941427 -1636068.853010953 -1196694.4334484744 -1632274.9175650915 -1204402.9059555214
          10314050.274292203 8288868.635424029 10359260.351436647 8462609.079408756 10404470.42858109 8636349.523393482
          1124370.8303790698 1165531.3406401898 1206691.85090131 -1823472.0480864558 -1810600.9752350375 -1797729.90238362
          1760355.5912438417 420579.16311523714 1562343.2803346426 408612.1159612874 1364330.9694254438 396645.0688073379
          -462167.02465997735 71457.61288390523 -497445.2477195775 40562.59538893137 -532723.4707791777 9667.577893957496
          698953.7267222983 751488.9354657229 804024.1442091474 991229.521742479 940605.4341585529 889981.3465746269
          -258929.9437216647 -297209.82980700117 -335489.71589233767 -1039796.520998021 -887815.7941078183 -1042705.0316003625
          -885242.8219175808 -1045613.542202704 -882669.8497273432 367927.7426892435 384882.5274339841 401837.3121787248
          1760715.1999934984 1688602.6921370802 1798419.5626728646 2411017.963708371 1804810.277397042 1698259.409117422
          1794298.041602591 2406895.6273468602 1848905.3548005857 1707916.126097764 1790176.5205323175 2402773.2909853496
          524143.2707806207 819405.8638732365 603243.7150987354 920978.6375980286 682344.1594168502 1022551.4113228206
          879255.8180981543 899893.9638764535 920532.1096547528 922749.1684104712 1307831.11403109 963336.726816911
          1334184.8860268844 1003924.285223351 1360538.6580226787 415249.5637960095 421513.9538566549 467714.9390797409
          441059.6995884956 520180.3143634724 460605.4453203364 738154.2590846044 741317.3123043914 744480.3655241784
          821646.8468234602 818006.0915337546 814365.336244049 697272.7679142078 637072.5376279613 576872.3073417147
          -1168783.830279507 -1183949.5228103437 -1111428.4812319817 -1095658.9070834673 -1054073.1321844559 -1007368.2913565909
          1248985.9332470503 1235597.382796235 1222208.8323454196 4500850.981693304 2751019.826949849 1042479.1865626719
          4325755.681712816 2785638.283515256 977075.6112675294 4150660.381732326 2820256.740080664 911672.0359723871
          1125069.703480702 962491.2077646257 799912.7120485496 731064.5938090994 1421640.8559918972 1458798.6978168373
          809004.6199416466 1454105.5266355053 1424331.0886063545 886944.6460741938 1486570.1972791133 1389863.4793958715
          1195552.0289134881 1210688.3541163725 1225824.679319257 546597.5139551021 545106.7042816954 543615.8946082887
          1430156.961288631 1305798.4635362956 1181439.9657839604 553428.829019977 588457.5539047915 623486.2787896058
          1945824.916918376 2525575.6187362093 1836350.4330437651 2474676.4808603954 1726875.9491691543 2423777.3429845814
          2056115.3617095402 1970049.7738660248 1883984.1860225094 -1309873.778993072 -1338880.7174361923 -1303018.1391614026
          -1372195.2633141847 -1296162.4993297327 -1405509.8091921774 482372.45483634097 418648.09393641487 378387.6130005452
          322097.58313139615 274402.7711647495 225547.0723263775 3295572.897824671 2764295.506655227 3160624.736435445
          2661622.599529238 3025676.575046218 2558949.692403249 6572533.129485525 5582402.813527488 6788258.360647227
          5617527.856329966 7003983.591808926 5652652.899132445 38856.65939445264 651863.6367089523 1577330.7682909546
          45904.9434557036 684441.6206242671 1762186.6052706446 52953.22751695459 717019.604539582 1947042.4422503344
          3948970.386489367 3784435.614114194 3619900.841739022 1879210.918255144 1948278.5249515658 2017346.1316479875
          487816.90440794063 462115.44448605913 436413.9845641777 7376850.438793132 7293631.452979761 7210412.46716639
          2307197.6503867037 3824316.531773297 2820119.0320503204 2538349.89160439 3791698.975655637 2687567.0519321836
          2769502.132822077 3759081.419537977 2555015.0718140462 696307.7004335965 807201.4888944534 918095.2773553103
          6955630.568176414 7079337.477023922 7203044.385871429 8611081.587156031 7250677.74257319 8938840.00817446
          7242351.62394691 9266598.429192893 7234025.505320632 2375696.8744731657 2746257.7165671107 3116818.5586610558
          5236556.743152166 5223018.594876456 5209480.446600746 7437840.151625376 6983448.777209899 6529057.4027944235
          8643213.879694806 7692372.336591766 6741530.793488725 10905525.304996517 10487080.78186328 10068636.258730043
          9872985.935163436 10868706.04173816 11864426.148312882 3801192.2371209846 6588376.682263948 3696495.5035809875
          6436943.227545414 3591798.77004099 6285509.772826882 -2769498.9985264377 -3246384.827873624 -2797052.357679491
          -3299771.8637104346 -2824605.7168325437 -3353158.8995472454 -7902656.298593856 -7684983.777502064 -7876308.118429318
          -7674251.920686422 -7849959.93826478 -7663520.063870779 2726027.168448844 2655695.1718560643 2585363.1752632842
          -2511455.261244165 -2520464.6746618915 -2529474.0880796183 -6702973.562807714 -6664254.134666169 -6625534.706524625
          4346697.557207428 4310104.592553694 4273511.627899962 -1144562.25895378 -1154613.2504037083 -1164664.2418536367
          -3889877.8958911365 -3879125.7602505875 -3868373.624610038 3912987.938153495 3895099.379310555 3877210.8204676155
          1030520.9844641318 1009819.8410217138 989118.697579296 -1374155.4804864395 -1391398.2276116349 -1408640.97473683
          1636876.3293007733 1623479.073533391 1610081.817766008 1245509.9018813153 1241102.653790798 1236695.4057002803
          2275856.39983788 2289879.742935014 2303903.086032148 4244781.76263611 4239931.675916149 4235081.589196188
          2383857.167717039 2414833.7176350737 2445810.2675531073 6062711.829837511 6049786.968158097 6036862.106478682
          -225754.451607035 -174599.0425967367 -123443.6335864387 3489106.2208391596 3504248.719779673 3519391.2187201874
          -2321393.9640471903 -2263794.496484766 -2206195.0289223413 597159.028392503 631892.6596116384 666626.2908307738
          -3701245.0264521553 -2227480.6511596087 -3753652.7191395797 -2312045.245353105 -3806060.411827003 -2396609.8395466004
          -5192191.451675485 -5199999.549354949 -5207807.647034413 -5849684.507089613 -5843634.315625239 -5837584.124160866
          -4758515.034995103 -4767694.049620524 -4776873.064245946 -1430778.1054043565 -1447563.519624759 -1464348.933845162
          1822033.530315891 2785248.157071617 1838048.4580500813 2802632.872213372 1854063.3857842716 2820017.587355127
          3691286.722666203 2566425.0110831084 2382401.1907807672 3746561.861022208 2546931.8918417366 2331965.412562678
          3801836.9993782123 2527438.7726003644 2281529.6343445894 1448923.150536335 1502881.3891951996 1556839.6278540636
          910723.3702406582 867433.8607335236 824144.3512263892 2067733.7845193925 2083541.4185929417 2099349.0526664904
          2960749.086681178 2932536.168468602 2904323.250256026 2003506.127581325 2010303.2654968214 2017100.4034123179
          1815616.0524503423 1836107.9769447087 1856599.901439075 1853565.195770205 1847059.5052577946 1840553.8147453843
          1732039.6752518197 1702769.3882918998 1673499.10133198 1063533.2280942136 1635833.879429751 1039019.5838141785
          1614195.1048165262 1014505.9395341433 1592556.3302033008 -166212.70456854335 -193674.03955560678 -221135.37454266998
          -2615529.763903468 -2624819.2742001098 -2634108.7844967525 -5288274.795783816 -5281047.8835629225 -5273820.971342029
          -5162293.617682406 -5144910.95521366 -5127528.292744915 1497878.631520412 1470937.1541436985 1443995.6767669853
          -2312300.4170388924 -2310981.068340132 -2309661.7196413716 5095760.16844498 5060158.550488793 5024556.932532607
          5443130.395562701 5411178.285973607 5379226.176384512 3525019.3706677305 3486182.4447321286 3447345.5187965264
        </DataArray>
        <DataArray type="Float64" Name="peeq" format="ascii" RangeMin="0" RangeMax="0.010504442906187458">
          0.009116005548742496 0.009345901397132407 0.009433637966976039 0.009109862556603562 0.009121058392190047 0.009350352411321296
          0.009436921203282777 0.009115630526385875 0.0091261112356376 0.009354803425510183 0.009440204439589516 0.00912139849616819
          0.01040011175540526 0.010254351878722081 0.010374959232347183 0.010478546898085084 0.010397682178272968 0.01025211988914114
          0.010371276025118564 0.010475603556511535 0.010395252601140676 0.010249887899560198 0.010367592817889945 0.01047266021493799
          0.005879093565813717 0.0064728558982133505 0.0062088465525876125 0.004416070288771384 0.005878781879816255 0.0064702726720053255
          0.006207127322651898 0.00442053341218306 0.005878470193818794 0.0064676894457973005 0.006205408092716185 0.0044249965355947374
          0.009921712053004527 0.009854192394982177 0.00999465680286599 0.0100713228303051 0.009921931249727397 0.009854573265233268
          0.009994627750838769 0.010071327693062617 0.009922150446450263 0.009854954135484359 0.009994598698811547 0.010071332555820132
          0.010049815592361375 0.010118754286818155 0.01031881800234654 0.010246306068990768 0.010049646653976951 0.01011769850615906
          0.010316786164040019 0.010245204337200851 0.01004947771559253 0.010116642725499968 0.0103147543257335 0.010244102605410935
          0.00941799624414866 0.009634644495524433 0.00969667435590484 0.00944011139713096 0.009417611909286704 0.009634473908888663
          0.009695938148710465 0.009440246755520382 0.009417227574424751 0.009634303322252891 0.009695201941516091 0.009440382113909802
          0.010450020613021697 0.010362838550445827 0.010286722784216525 0.010448566792451992 0.01036147247253111 0.010284688664729518
          0.010447112971882288 0.010360106394616393 0.010282654545242511 0.009824882503812454 0.009867135653082315 0.009825862463262522
          0.009867228284292803 0.009826842422712586 0.009867320915503292 0.008887724089034094 0.009646002419066326 0.009515731890447772
          0.008955102702594597 0.008886521672404692 0.009643226892372524 0.009514399789382318 0.00895284167721171 0.008885319255775294
          0.009640451365678725 0.009513067688316865 0.008950580651828821 0.00981935941910933 0.009952614546781882 0.009818969141062558
          0.009952104409124021 0.009818578863015785 0.00995159427146616 0.010014363306201108 0.009997070288402795 0.010014920095931029
          0.00999792922601383 0.01001547688566095 0.009998788163624869 0.0072710117285123025 0.007160070897149911 0.006185629803054265
          0.007268824921115026 0.0071576517825948675 0.006178930177420745 0.007266638113717753 0.007155232668039824 0.006172230551787226
          0.009219046875551837 0.009200001778448636 0.009220712166504604 0.00920077827421107 0.009222377457457374 0.009201554769973508
          0.009817285595139362 0.009982566755150009 0.010103014504766568 0.00998828914168425 0.009816009324076872 0.009982399002154424
          0.010102850301985083 0.009987188489979662 0.009814733053014382 0.00998223124915884 0.010102686099203602 0.009986087838275074
          0.010423907150728794 0.010475160499371357 0.010389036082664721 0.010422517261646029 0.010473248642571679 0.010387065417530665
          0.010421127372563264 0.010471336785772 0.010385094752396608 0.01010552616551873 0.010106037717070096 0.010106549268621461
          0.01008236608837802 0.009842615190594447 0.010035815118213096 0.010081782091284554 0.009842881323677524 0.01003526952672755
          0.010081198094191089 0.009843147456760602 0.010034723935242002 0.010261873505465396 0.010329736723366057 0.010374865435825073
          0.010258555043810565 0.010327803312197462 0.010373958225507077 0.010255236582155734 0.01032586990102887 0.010373051015189084
          0.009270974715614166 0.009162564366812575 0.009086621764650464 0.009273113337197512 0.00916550002702989 0.00908924514999685
          0.00927525195878086 0.009168435687247206 0.009091868535343234 0.009030722239477238 0.00898031843335025 0.00903437793748903
          0.008984507954500044 0.009038033635500823 0.008988697475649834 0.00872553487991123 0.008282949529078175 0.008722522394291762
          0.008280810627560512 0.008719509908672296 0.008278671726042849 0.010153302783338711 0.010150327419079497 0.01014735205482028
          0.00959245576590065 0.009356855652039248 0.009591120255169441 0.009352395677690493 0.009589784744438234 0.00934793570334174
          0.010099670025181189 0.010168305794597127 0.010099822532672623 0.010167347406388779 0.010099975040164057 0.01016638901818043
          0.010117077710911266 0.01011627858394821 0.010115479456985156 0.009324200931244836 0.009582448376482346 0.009580058623985206
          0.009342774326351215 0.009323426680058424 0.009582410614879085 0.009580306804560223 0.009342016670339466 0.009322652428872013
          0.009582372853275824 0.00958055498513524 0.009341259014327719 0.0046352879569246655 0.004636032005059791 0.004636776053194917
          0.004382299327080247 0.005331127450492282 0.004383571775461571 0.0053320200787866055 0.0043848442238428945 0.005332912707080927
          0.009131817920121008 0.009052740398309557 0.009135810871721571 0.00905611076846941 0.009139803823322135 0.009059481138629264
          0.010220812738479332 0.010218369333423578 0.010215925928367826 0.009826545309782688 0.009424919577208951 0.0098226248790147
          0.009421462863910468 0.009818704448246712 0.00941800615061198 0.009630655404757636 0.009413613130209308 0.009067161217333895
          0.009353715585467305 0.009629405383904745 0.009410573876760982 0.009064156968402876 0.00935266388381261 0.009628155363051854
          0.009407534623312659 0.00906115271947186 0.009351612182157912 0.009923897816312071 0.009996011774536727 0.00992183206936612
          0.009992062345943872 0.00991976632242017 0.00998811291735102 0.009101448472273668 0.008963949204531467 0.00847623093728185
          0.008501721905418296 0.009097294084538396 0.008960740636913357 0.008476568983254155 0.008500667033892876 0.009093139696803124
          0.008957532069295246 0.008476907029226459 0.008499612162367453 0.010051763439507977 0.01005201995990548 0.010052276480302984
          0.009171449955269627 0.009374869913519265 0.0091716850333271 0.009374372240338933 0.009171920111384575 0.009373874567158602
          0.009579312586752082 0.009293456280713036 0.00958036317849358 0.009294711158367268 0.00958141377023508 0.0092959660360215
          0.00975047129860741 0.00975123360523893 0.009751995911870452 0.010019003752421679 0.009917404985927844 0.010019341357358158
          0.009916775827633586 0.010019678962294637 0.009916146669339328 0.009648688340423086 0.009825777274224299 0.009649088827219352
          0.009824705718332551 0.009649489314015621 0.009823634162440803 0.0100940379220428 0.010109280967497055 0.010094599044900197
          0.010109969290859808 0.010095160167757597 0.01011065761422256 0.009918910160104965 0.009919395894026536 0.009919881627948105
          0.009867640939051589 0.010078362952080776 0.009868617976874956 0.010077869546786083 0.009869595014698324 0.010077376141491389
          0.010018468364547731 0.010068851184071971 0.010018503909895178 0.010068498824496758 0.010018539455242625 0.010068146464921546
          0.009548818350887604 0.009454539281552021 0.009695764840783803 0.009550591499561322 0.009455856279068964 0.009696909056353668
          0.009552364648235038 0.009457173276585906 0.009698053271923534 0.00942155777465798 0.009423530711303946 0.009425503647949914
          0.009592057129400394 0.009812920138015383 0.009592481258818791 0.009814586706961795 0.00959290538823719 0.009816253275908205
          0.010153283661418919 0.010245110578958546 0.010152784017064383 0.010244029324757592 0.010152284372709847 0.010242948070556639
          0.007524315859784978 0.00820164873446129 0.007522601563522638 0.008201048624996798 0.007520887267260297 0.008200448515532305
          0.00904561952970095 0.009048496349825843 0.00904800223783941 0.009050174663412234 0.00905038494597787 0.009051852976998625
          0.0095657291155735 0.009353296891376406 0.009600535527155354 0.009565864757055564 0.009356088530426668 0.00960117319517252
          0.009566000398537628 0.009358880169476932 0.009601810863189685 0.00957845675500415 0.009579391030742249 0.009580325306480347
          0.01012077776208206 0.010120207185686552 0.010119636609291039 0.00972049369848105 0.009719671172182743 0.009718848645884435
          0.009340988112999696 0.00934480238125637 0.009348616649513045 0.010084766304591233 0.010085307326287547 0.010085848347983862
          0.00895854190071095 0.008961445841158931 0.00896434978160691 0.009735711038027148 0.009734382737417425 0.009733054436807704
          0.009700297206770634 0.009701143339019882 0.009701989471269129 0.009252962051123578 0.0092971611795413 0.009258499278070109
          0.009302416272697548 0.009264036505016641 0.009307671365853793 0.008984063099997205 0.008964476510508296 0.008987796232647498
          0.00896864640146066 0.008991529365297792 0.00897281629241302 0.009762033643037557 0.009762749307775365 0.009763464972513174
          0.008878743494904535 0.00890022158206555 0.008881262216880782 0.008902891340442169 0.00888378093885703 0.008905561098818788
          0.005391976793266105 0.004160542227387771 0.005393093629135028 0.004163029751822947 0.00539421046500395 0.0041655172762581245
          0.007935176727409303 0.007935227907445039 0.007935279087480774 0.00956471408922178 0.009566486958573513 0.009568259827925245
          0.009346110209834368 0.009623971936364967 0.009341397673277522 0.0096219578635585 0.009336685136720674 0.009619943790752032
          0.009319482821741217 0.009588196568756892 0.009318846446951187 0.00958803264459912 0.009318210072161152 0.009587868720441345
          0.00977237201064383 0.009773255047586313 0.009774138084528795 0.00983356499688344 0.009833333802436667 0.009833102607989894
          0.010019524851344259 0.01001928114814697 0.010019037444949683 0.009096904438862975 0.009082526315781443 0.009097413806261069
          0.009083261989816363 0.00909792317365916 0.009083997663851283 0.010260805077265516 0.010260229882252721 0.010259654687239928
          0.010380692347228486 0.01040561050409778 0.010492580681091516 0.010485266890271686 0.010379443784529919 0.010403733317653905
          0.010489058231567436 0.010481763298841807 0.01037819522183135 0.01040185613121003 0.010485535782043354 0.010478259707411926
          0.00983040851203336 0.010069288548833846 0.009831993409988344 0.010070102855644433 0.00983357830794333 0.01007091716245502
          0.009866066570730424 0.00986587340117665 0.009865680231622875 0.010504442906187458 0.010451268079276268 0.010501108157842184
          0.010448985776028666 0.01049777340949691 0.010446703472781066 0.010233118626615103 0.010167591088176888 0.010232534961555484
          0.010165224439755406 0.010231951296495867 0.010162857791333923 0.010088942212586854 0.010088623898317873 0.01008830558404889
          0.010107255130134168 0.010107094028526947 0.010106932926919722 0.009999187949554112 0.009994613292831222 0.009990038636108334
          0.008947124341529914 0.008922941125356184 0.008949196229793444 0.008925203435250379 0.008951268118056976 0.008927465745144574
          0.01022530529874208 0.010220870851136802 0.010216436403531521 0.008568466736968788 0.007641591462615382 0.009102153557674231
          0.008565438243979134 0.007642562251385087 0.009097475369184354 0.008562409750989475 0.007643533040154793 0.009092797180694478
          0.01006012236434109 0.01005533380816692 0.010050545251992749 0.010091428431519747 0.010311466095601227 0.01030598629801839
          0.010091731113136956 0.010308529613148562 0.01030318062192425 0.010092033794754169 0.010305593130695895 0.010300374945830108
          0.010212938314103807 0.010212560214859924 0.010212182115616041 0.010156313434674472 0.010155791417699237 0.010155269400724002
          0.007001281702787436 0.006999846374898519 0.006998411047009604 0.009851514000067296 0.009852687092304342 0.009853860184541386
          0.010468140698169648 0.010466936366564782 0.010463203248853867 0.010461990152322544 0.010458265799538086 0.010457043938080307
          0.009554021556817975 0.00954971705285408 0.009545412548890185 0.009001342931614233 0.009135395016868735 0.009003250324798323
          0.009135597896031824 0.009005157717982415 0.009135800775194913 0.010452731062803842 0.010320840103776376 0.010448008521659372
          0.010317504214626858 0.010443285980514899 0.010314168325477338 0.009981960913868191 0.009608629479381724 0.00997591903421655
          0.009603001129911711 0.009969877154564911 0.009597372780441702 0.007515432204078176 0.008339989278210733 0.007517059151544478
          0.00833964552017671 0.007518686099010779 0.008339301762142686 0.009846713825300916 0.00984004427965421 0.00960181670833966
          0.009846609522176763 0.009839286531644642 0.009599403245935336 0.009846505219052608 0.009838528783635073 0.009596989783531015
          0.0090900564381579 0.009085479737587538 0.009080903037017182 0.00928320002632214 0.009278653182056014 0.009274106337789887
          0.01002901088368707 0.010028731237495262 0.010028451591303457 0.006533824544355897 0.006533261100655276 0.006532697656954658
          0.008430019929926029 0.007857042097357731 0.007895087626057267 0.008429671596301074 0.007857678927064212 0.007895224609509323
          0.00842932326267612 0.00785831575677069 0.007895361592961378 0.0088930763249752 0.008889902968485715 0.008886729611996231
          0.008034869719272931 0.008035736153127944 0.008036602586982954 0.007262927703747514 0.006269321122593719 0.007266080717179458
          0.006270601889063353 0.0072692337306114 0.006271882655532987 0.007152344409088596 0.007149628917082976 0.0071469134250773565
          0.007907387550509576 0.007907125363931353 0.007906863177353132 0.005138847443293209 0.005138517133921216 0.005138186824549221
          0.006247585664726106 0.006235589632413444 0.006223593600100783 0.004944320169425169 0.004944534575957665 0.00494474898249016
          0.003569365256266566 0.0035800147115008086 0.003590664166735052 0.0025128835177672913 0.002353372643062039 0.0025136335097081814
          0.0023543522877555365 0.002514383501649072 0.0023553319324490342 0.0012763738531875873 0.0011530047159419318 0.0012764098807807214
          0.001152960642465588 0.0012764459083738553 0.0011529165689892443 0.0003646985909628607 0.00028765952225173714 0.0003654782798238668
          0.0002883121688787045 0.0003662579686848728 0.0002889648155056719 0.0029002345461464595 0.002900461058264832 0.002900687570383205
          0.0016399768093188672 0.0016400749633896025 0.0016401731174603372 0.0006213408007557614 0.0006221980668149564 0.0006230553328741515
          0.0033349034347646975 0.003334821088673768 0.0033347387425828375 0.002155998595725003 0.002155921582519554 0.002155844569314106
          0.0010591296287388932 0.001059768635985057 0.0010604076432312206 0.0037458633714754306 0.0037458172195810276 0.0037457710676866247
          0.0027114573499186665 0.002711202070706416 0.002710946791494166 0.0016244437732006285 0.0016247209322692827 0.0016249980913379362
          0.0032542684532927656 0.0032539975151706954 0.003253726577048625 0.00227080312638304 0.002270676753634186 0.0022705503808853316
          0.0037638695176814138 0.003763657907385112 0.0037634462970888094 0.002965625799035698 0.002965189579894498 0.002964753360753298
          0.004259666693779069 0.00425956456909965 0.00425946244442023 0.0036715210557876753 0.003670939772664053 0.0036703584895404315
          0.0047569729077598395 0.004757016152853003 0.004757059397946167 0.004370133200471055 0.004369509023365049 0.004368884846259043
          0.005004942693330655 0.005005075735992612 0.00500520877865457 0.004718441865433084 0.004717820489351951 0.004717199113270818
          0.000019160777388628127 0 0.000019389964547720676 0 0.000019619151706813225 0
          0.00010542148266063812 0.00010590322583809789 0.00010638496901555766 0.0003108487964389149 0.00031151787055765437 0.00031218694467639386
          0.0006998597807046851 0.0007005304581048336 0.0007012011355049818 0.0012819170986023156 0.0012821330990735176 0.0012823490995447192
          0.00734539183430858 0.007950366083920626 0.007346112384008272 0.00794927989949688 0.007346832933707966 0.007948193715073135
          0.004894110402785219 0.005579108078437066 0.005439844470158 0.004894687577537197 0.005578925904187173 0.0054401774482372815
          0.004895264752289175 0.00557874372993728 0.005440510426316563 0.009012153958864984 0.009011162303735812 0.009010170648606639
          0.00843957380325537 0.008436597901540034 0.0084336219998247 0.006467731327168327 0.006469173894517131 0.006470616461865937
          0.004134869929551765 0.0041349162627609655 0.004134962595970166 0.004478317457261346 0.00447846675646331 0.004478616055665274
          0.004807359115221879 0.004807494900546182 0.004807630685870485 0.005157110857958815 0.005157054642470965 0.005156998426983115
          0.005336393114134877 0.005336220117937614 0.005336047121740349 0 0 0
          0 0 0 0 0 0
          0.000027001370736919443 0.000027221086587249695 0.000027440802437579947 0.00016114193552991662 0.00016166586898688548 0.00016218980244385434
          0.0004869838017149948 0.00048758344494219 0.00048818308816938515 0.0020035169023006243 0.00200323038923062 0.0020029438761606155
          0.0010242395351872688 0.0010246565607070022 0.0010250735862267356 0.0028223189655732506 0.002821554113059067 0.002820789260544883
          0.0037238382849856576 0.003722500896040864 0.00372116350709607 0.004196781625296992 0.0041951398439529115 0.0041934980626088325
        </DataArray>
        <DataArray type="Float64" Name="pe11" format="ascii" RangeMin="0" RangeMax="0.0104993102886748">
          0.009112340774842454 0.0093415014232451 0.009429214784722029 0.009105929597438996 0.009117488616934104 0.009346052445811466
          0.009432579748709723 0.009111802440874934 0.009122636459025755 0.00935060346837783 0.009435944712697417 0.009117675284310872
          0.010396348289127066 0.010251134132251032 0.010371274124512341 0.010474187414655483 0.010393961760659811 0.010248936922526375
          0.010367647491366575 0.01047131157988608 0.010391575232192559 0.010246739712801718 0.010364020858220808 0.010468435745116678
          0.005873151702259445 0.006466488091845693 0.006204848443677711 0.004410788556082791 0.0058728242422274235 0.006463928240111959
          0.006203033315247692 0.004414994127142466 0.005872496782195401 0.006461368388378225 0.006201218186817674 0.0044191996982021415
          0.009916123623135138 0.009847702632918015 0.009987867005206003 0.010065596642694408 0.009916294785033797 0.009848018018552503
          0.009987750241199585 0.01006554527842832 0.009916465946932457 0.009848333404186994 0.00998763347719317 0.010065493914162232
          0.010043607300209926 0.010111692972912997 0.010312366601980521 0.010240016370151522 0.010043430461894853 0.01011065033316279
          0.01031036780124265 0.010238924355277935 0.01004325362357978 0.010109607693412584 0.010308369000504778 0.010237832340404346
          0.009414961514729238 0.009631174840590964 0.009691752109030364 0.009435901580234394 0.009414564186041174 0.009630982013682031
          0.009690997233498453 0.009436019766591761 0.009414166857353109 0.009630789186773096 0.009690242357966542 0.009436137952949127
          0.010446094555320879 0.010359585792893457 0.010283333928890854 0.010444680584493563 0.010358244306263427 0.010281314487788488
          0.010443266613666248 0.010356902819633394 0.010279295046686121 0.009821454011408721 0.00986264505763345 0.009822401234657972
          0.009862711331333417 0.00982334845790722 0.009862777605033388 0.008880721323168228 0.009639555976804118 0.009510016086566868
          0.008950043522096825 0.00887958836665884 0.009636826745559626 0.009508702309556933 0.008947804318175922 0.008878455410149453
          0.009634097514315133 0.009507388532546998 0.008945565114255014 0.009813415732852104 0.009946361297123129 0.009812979038941908
          0.009945791996943325 0.009812542345031712 0.00994522269676352 0.01001105016487172 0.009993091741715055 0.01001157078829255
          0.009993910824162809 0.010012091411713381 0.009994729906610565 0.00726853871475912 0.007158361631050713 0.006182162071672766
          0.007266344180558774 0.007155937005565882 0.006175295652957476 0.007264149646358429 0.0071535123800810525 0.006168429234242187
          0.009215853151779998 0.009197541783237596 0.009217515358227867 0.009198323448627895 0.009219177564675734 0.009199105114018195
          0.009815134185988969 0.009980608897905573 0.010101079654360513 0.009985505194014957 0.009813868819767807 0.00998043703089925
          0.010100920834027872 0.009984439401830237 0.009812603453546644 0.009980265163892929 0.010100762013695232 0.009983373609645515
          0.010419579824081596 0.01047038629374993 0.01038336715729948 0.010418235144918638 0.010468525345660864 0.010381442722145357
          0.010416890465755675 0.010466664397571797 0.01037951828699123 0.01009868345208148 0.010099106548704755 0.010099529645328032
          0.010079974436564188 0.009840016100524781 0.010032991375164288 0.010079377704810601 0.009840275295145914 0.010032417456056528
          0.010078780973057018 0.009840534489767048 0.010031843536948767 0.010256353588896535 0.010326343750067635 0.010371774250866366
          0.01025309901020626 0.010324450755386138 0.010370892889662413 0.010249844431515985 0.010322557760704645 0.01037001152845846
          0.009267089917312267 0.009159168751800204 0.009083789844933894 0.00926922774823906 0.009162130323227113 0.009086440250432816
          0.009271365579165854 0.009165091894654021 0.00908909065593174 0.009027533395644908 0.008976755414852032 0.009031248230567062
          0.008981021763186185 0.009034963065489215 0.008985288111520339 0.008721544139203462 0.008279065302610146 0.008718579176734537
          0.008276944281025163 0.008715614214265614 0.00827482325944018 0.010147716543352055 0.010144617346038264 0.010141518148724474
          0.009587023102332618 0.009352061553077636 0.009585752178964277 0.009347684233108333 0.009584481255595936 0.009343306913139027
          0.010096179690718254 0.010165079356438953 0.010096303984567057 0.010164104578198397 0.010096428278415859 0.010163129799957843
          0.01011400524279922 0.01011320359668312 0.010112401950567021 0.009323486021833962 0.009581415395691947 0.0095783775214473
          0.009341504594062402 0.00932270887695326 0.009581371631578963 0.009578616758910675 0.00934074180070698 0.009321931732072561
          0.009581327867465976 0.009578855996374053 0.009339979007351553 0.004631920080928123 0.004632645105587133 0.004633370130246143
          0.004378795738349888 0.005326846818960348 0.004380045962275356 0.005327683752838985 0.004381296186200823 0.00532852068671762
          0.009128420428333237 0.009049753517727745 0.009132472498216467 0.009053173056933136 0.009136524568099701 0.009056592596138526
          0.010213855319525534 0.010211465589219796 0.010209075858914056 0.009822214794552581 0.009421395560485693 0.009818384152975783
          0.009417985033488261 0.009814553511398984 0.009414574506490829 0.009628470306837202 0.009410838086502895 0.009064238842351992
          0.00935128098288544 0.009627246891383195 0.009407850261292585 0.009061284941731763 0.009350253479372166 0.009626023475929186
          0.009404862436082273 0.009058331041111534 0.009349225975858891 0.009916887755458795 0.009989281697915612 0.009914860177246531
          0.009985379607392176 0.009912832599034265 0.009981477516868743 0.009097129247350804 0.008959885265682574 0.00847389649257638
          0.008498458666361617 0.009093038529832034 0.008956739115022544 0.00847424457639663 0.008497413285557826 0.009088947812313264
          0.008953592964362513 0.008474592660216884 0.008496367904754032 0.010045569600078963 0.010045761405183831 0.0100459532102887
          0.009169796711391898 0.009372870421081925 0.009170037457773903 0.00937236605976558 0.009170278204155906 0.009371861698449233
          0.009576228465572847 0.009290033115045993 0.00957727100038529 0.009291286778926119 0.009578313535197733 0.009292540442806245
          0.00974663367332701 0.009747379264739335 0.00974812485615166 0.01001406549734554 0.00991210099627834 0.010014372181492313
          0.009911449868562645 0.010014678865639084 0.009910798740846952 0.009643025401228713 0.0098203880034939 0.00964339034142091
          0.009819291668889446 0.009643755281613108 0.009818195334284992 0.01008890819339098 0.010103483117617882 0.010089416927792383
          0.010104094057305895 0.010089925662193789 0.01010470499699391 0.009915753911719517 0.00991621059464787 0.009916667277576221
          0.009865110713862858 0.010075830403143903 0.00986607268663613 0.010075348770643694 0.009867034659409397 0.010074867138143484
          0.010014761819532312 0.010065017132840411 0.010014742916036662 0.01006460393256721 0.01001472401254101 0.01006419073229401
          0.009543334742356902 0.009449551333102546 0.009689563506830631 0.009545093862654836 0.009450848275617003 0.009690662580380021
          0.009546852982952766 0.00945214521813146 0.009691761653929409 0.009417248355567846 0.009419229425083834 0.00942121049459982
          0.009589659743981944 0.009811047804540765 0.009590067134561463 0.00981270460244777 0.009590474525140984 0.009814361400354774
          0.010150488382681129 0.010242282329826562 0.010149979280493496 0.010241204170797427 0.010149470178305866 0.010240126011768292
          0.007519334970886476 0.008195374338249064 0.007517643877410027 0.008194810618226371 0.007515952783933577 0.008194246898203675
          0.009043134618396368 0.009046707233925153 0.009045549906808647 0.009048404303257991 0.009047965195220928 0.009050101372590831
          0.009563070576764726 0.009349605362543511 0.009596625793427838 0.009563192790617509 0.009352423890134721 0.009597275668205757
          0.00956331500447029 0.00935524241772593 0.009597925542983672 0.009575059637894057 0.009575972181497121 0.009576884725100184
          0.010118157285567673 0.01011759680616265 0.010117036326757629 0.009717501761029694 0.009716678972896636 0.009715856184763576
          0.009337110894418158 0.00934098375045039 0.009344856606482621 0.010080602858437926 0.010081111082649046 0.010081619306860166
          0.008955867564305615 0.00895881682159774 0.008961766078889866 0.009731540826411231 0.009730185250175629 0.009728829673940025
          0.009695003051120536 0.009695841504658539 0.009696679958196541 0.009245194579780448 0.009291254211834096 0.009250949822852558
          0.00929660989232492 0.009256705065924669 0.00930196557281574 0.008979449635043019 0.00896027319008804 0.008983299952625114
          0.008964547351083983 0.008987150270207212 0.008968821512079925 0.009756887327191738 0.009757529711516095 0.009758172095840453
          0.008876366751015129 0.008897647601165515 0.00887894353103402 0.008900372559219123 0.008881520311052913 0.00890309751727273
          0.005387956996884398 0.004156737416342848 0.005389002017566391 0.004159195210555939 0.005390047038248384 0.00416165300476903
          0.00792917085288199 0.00792926313570023 0.007929355418518469 0.009560299901228538 0.00956209756620767 0.0095638952311868
          0.009340655923285238 0.009618798487189589 0.009336043785056538 0.009616848898116025 0.009331431646827834 0.00961489930904246
          0.009318942375648852 0.009587314664516391 0.009318306403272953 0.00958715129712153 0.009317670430897054 0.009586987929726669
          0.009766316280981164 0.009767160036371294 0.009768003791761423 0.009829096410716685 0.009828848880273003 0.009828601349829321
          0.010016598287313036 0.010016314390707822 0.010016030494102606 0.009096254039593576 0.009082082575381768 0.009096775448488477
          0.009082830807914494 0.009097296857383377 0.00908357904044722 0.010258397955486586 0.010257828939949335 0.010257259924412088
          0.010374797388324579 0.010399619449750711 0.01048681259197344 0.010479267222475417 0.010373567654166449 0.010397779690067792
          0.010483366175036406 0.010475828824241092 0.010372337920008318 0.010395939930384873 0.010479919758099374 0.010472390426006768
          0.009829047548108285 0.010066975971048487 0.009830625250840148 0.010067789601979385 0.009832202953572011 0.010068603232910284
          0.009859535215472708 0.009859365779743777 0.009859196344014845 0.0104993102886748 0.01044560676717371 0.01049605738982248
          0.010443380657570873 0.010492804490970155 0.010441154547968035 0.010230686126818142 0.0101642707804517 0.010230119562365393
          0.010161965981464736 0.010229552997912643 0.010159661182477776 0.010085205262619886 0.010084849110705552 0.010084492958791222
          0.010104077778615703 0.010103897445399601 0.010103717112183502 0.009993231126747732 0.009988744887069276 0.009984258647390824
          0.008945832902545615 0.008921870997317886 0.008947938045299855 0.008924170481969921 0.008950043188054096 0.008926469966621955
          0.010221042486256875 0.010216688417493198 0.010212334348729521 0.008564927447365586 0.007638536165635607 0.009098328612711436
          0.008561926312138637 0.0076394780432650754 0.009093700254215378 0.008558925176911685 0.007640419920894546 0.009089071895719317
          0.010055594937452651 0.010050928117328543 0.010046261297204434 0.010089124325050896 0.010306960671469812 0.010301796983813078
          0.010089430126636975 0.010304073162293518 0.01029903952895947 0.010089735928223056 0.010301185653117223 0.01029628207410586
          0.010207053342863844 0.010206668690506803 0.010206284038149764 0.010154180537435362 0.010153655531917358 0.010153130526399354
          0.006995188074052812 0.006993772851710333 0.006992357629367855 0.009850318953615534 0.00985148795816379 0.00985265696271205
          0.010462656697081466 0.010461016141048652 0.010457812751891197 0.010456156868270353 0.010452968806700925 0.01045129759549205
          0.00954680218285138 0.009542609061492196 0.009538415940133011 0.008999673018058806 0.009134284032220287 0.00900160584740065
          0.009134494515335304 0.009003538676742499 0.009134704998450326 0.010448196603148592 0.01031707815587996 0.010443555491468477
          0.010313786577850243 0.010438914379788361 0.010310494999820523 0.009976476405169276 0.0096032862243858 0.00997056393830751
          0.009597767705148835 0.009964651471445742 0.00959224918591187 0.007511603622181567 0.008334727413016874 0.007513213800016816
          0.008334425102931945 0.007514823977852066 0.008334122792847015 0.009841255701449628 0.009835029713576634 0.009596962401689292
          0.009841158498067628 0.009834276074472294 0.009594577931241596 0.009841061294685627 0.009833522435367954 0.0095921934607939
          0.00908371453125803 0.009079225274564609 0.009074736017871187 0.00927847220265457 0.009273969631989893 0.009269467061325217
          0.010023334867050402 0.01002304764190869 0.010022760416766979 0.006529323885941002 0.006528701292688444 0.006528078699435885
          0.008428553194769536 0.007855914801517207 0.007893418099760621 0.008428196974467731 0.007856533270081432 0.007893556014136731
          0.008427840754165925 0.007857151738645657 0.007893693928512843 0.008890163403479305 0.00888701859463434 0.008883873785789375
          0.008031628651690693 0.008032492624584902 0.008033356597479108 0.0072601021669269905 0.006265184247361746 0.007263199517253022
          0.00626638756761917 0.007266296867579056 0.006267590887876595 0.007150685272040408 0.007147968102434394 0.007145250932828379
          0.007904992140802794 0.007904741926032759 0.007904491711262724 0.00513286736681666 0.00513195153191186 0.005131035697007061
          0.006243067391702644 0.006230917500670433 0.006218767609638222 0.004936875462954795 0.004936373182247253 0.004935870901539711
          0.0035629740907963483 0.003573058420215585 0.0035831427496348218 0.002508087551391973 0.0023490217729041233 0.002508820562010573
          0.002349973913701782 0.0025095535726291735 0.002350926054499441 0.0012726138690000817 0.0011499016459765254 0.0012726197673453427
          0.0011498211401788562 0.0012726256656906034 0.0011497406343811871 0.0003631758179602447 0.0002866858108623255 0.00036394207922593416
          0.00028732541058091904 0.00036470834049162355 0.00028796501029951265 0.002895398077319 0.002895618445555173 0.0028958388137913463
          0.0016346957987550096 0.0016347769453821152 0.0016348580920092209 0.0006179645339671729 0.0006188097510307565 0.0006196549680943399
          0.003330157577899239 0.003330063821189074 0.003329970064478909 0.0021489615061427427 0.0021488733567287333 0.002148785207314724
          0.0010527135618934843 0.0010533442597243016 0.001053974957555119 0.003740753685283712 0.0037406928695004216 0.0037406320537171304
          0.0027031188575252245 0.0027028518970345743 0.002702584936543923 0.0016146989932420397 0.001614969056207483 0.001615239119172926
          0.0032459409219317056 0.003245658013349565 0.0032453751047674248 0.002258704440890578 0.0022585698497017974 0.002258435258513017
          0.0037568154692338472 0.0037565933633693627 0.0037563712575048773 0.002952632541733116 0.002952189370291545 0.0029517461988499737
          0.004254451404863143 0.004254339166941799 0.004254226929020454 0.003659177126463289 0.0036585808647476886 0.003657984603032088
          0.004753393277314545 0.004753421560000284 0.004753449842686024 0.0043586889445427586 0.004358030669943992 0.004357372395345227
          0.0050020130477584305 0.005002128063020649 0.005002243078282867 0.004707113943417307 0.0047064489987290285 0.00470578405404075
          0.00001906561039141033 0 0.00001929326118602883 0 0.000019520911980647328 0
          0.00010465219693086528 0.00010513035474062646 0.00010560851255038764 0.00030813009148238964 0.0003087927749703612 0.00030945545845833286
          0.000693172682428688 0.0006938366897608829 0.0006945006970930775 0.0012696963694818993 0.0012699107255110648 0.00127012508154023
          0.007341835104548489 0.007946982877198775 0.007342533218446299 0.007945905847839232 0.007343231332344109 0.007944828818479691
          0.004891221547726246 0.005576866999384833 0.005436302314530815 0.0048917848505713865 0.005576667903127734 0.005436605830667025
          0.004892348153416527 0.005576468806870633 0.005436909346803236 0.009009202036133554 0.009008227589801944 0.009007253143470336
          0.00843673884699805 0.008433796553543491 0.008430854260088933 0.006464217203922594 0.006465614617238369 0.006467012030554146
          0.004130102600697389 0.004130138250036421 0.004130173899375453 0.00447459143529829 0.004474733064241307 0.004474874693184324
          0.004805023548940248 0.00480515348462882 0.0048052834203173925 0.005155865074629265 0.005155802719225904 0.005155740363822542
          0.005335495760106963 0.005335315875017618 0.005335135989928273 0 0 0
          0 0 0 0 0 0
          0.000026692644175578044 0.00002690973547381354 0.000027126826772049034 0.000159057863226972 0.00015957634450019078 0.00016009482577340956
          0.00048016836029571807 0.00048076600516012486 0.00048136365002453166 0.0019855631199146642 0.0019852821450353744 0.0019850011701560847
          0.001008796758231004 0.0010092311622614176 0.001009665566291831 0.002799378596020876 0.002798611737925535 0.002797844879830194
          0.0036935124828070785 0.003692152738485262 0.0036907929941634447 0.004161259629409441 0.004159586856858312 0.004157914084307181
        </DataArray>
        <DataArray type="Float64" Name="pe22" format="ascii" RangeMin="-0.0053357482062601795" RangeMax="0">
          -0.004749733383141136 -0.004898245215230217 -0.004942295556395377 -0.004759044461638932 -0.004748748155109674 -0.004897211665190972
          -0.004941066436415357 -0.00475840731392762 -0.004747762927078213 -0.004896178115151726 -0.004939837316435336 -0.0047577701662163095
          -0.004995886728598088 -0.004951029717297021 -0.00497163549015014 -0.004996889188512111 -0.004996465535609727 -0.004951768817915007
          -0.004972273352780592 -0.0049978013150740715 -0.004997044342621367 -0.004952507918532993 -0.004972911215411044 -0.004998713441636032
          -0.002888781752194885 -0.003143478192140184 -0.0030516042839944992 -0.0022156772403430602 -0.0028889356694280152 -0.0031437404825165292
          -0.0030515787873328973 -0.002216404773640364 -0.002889089586661146 -0.003144002772892875 -0.0030515532906712967 -0.0022171323069376677
          -0.005009718413314441 -0.0049533590237330815 -0.00500638503840135 -0.005071876811209901 -0.005010519504237285 -0.004953528220349434
          -0.005006241459372908 -0.0050723423339875 -0.00501132059516013 -0.004953697416965785 -0.005006097880344466 -0.005072807856765098
          -0.004732696766230293 -0.00475334280575791 -0.004859847762029575 -0.00482620309161488 -0.004732698070162233 -0.0047535250049071795
          -0.004860189351867356 -0.004826218766642652 -0.004732699374094171 -0.004753707204056447 -0.004860530941705137 -0.004826234441670423
          -0.004704648677297583 -0.004776382765847491 -0.004832345072129783 -0.004739851706911066 -0.004704090445639316 -0.004775992896461351
          -0.0048318626972749705 -0.004739207856843756 -0.004703532213981049 -0.004775603027075212 -0.004831380322420156 -0.004738564006776446
          -0.005000396249064576 -0.004996413339626811 -0.004979150735397576 -0.005001148821002802 -0.004996837643023131 -0.0049791199006457955
          -0.005001901392941028 -0.004997261946419451 -0.004979089065894015 -0.004841971563258663 -0.004886536288580366 -0.004841826170914877
          -0.004886410023478501 -0.004841680778571091 -0.004886283758376636 -0.004205629301560833 -0.004558753525564232 -0.004504964877256684
          -0.004276445535009792 -0.004206158003517054 -0.004558437579217523 -0.0045045251451327414 -0.00427632041900854 -0.004206686705473272
          -0.004558121632870813 -0.004504085413008799 -0.004276195303007288 -0.004904399698403708 -0.004957391468166168 -0.0049043315486535215
          -0.004957116523314399 -0.004904263398903333 -0.004956841578462629 -0.004908167232174427 -0.004930391101919889 -0.004908048858743219
          -0.004930578017792082 -0.004907930485312011 -0.004930764933664274 -0.003517121802385986 -0.0035245933645534936 -0.0030395831500856004
          -0.0035169675093156575 -0.0035259033727749103 -0.0030390766136096994 -0.0035168132162453286 -0.003527213380996328 -0.003038570077133799
          -0.004668354688436589 -0.0046424661750829165 -0.004667697482313971 -0.004641673005233117 -0.004667040276191353 -0.004640879835383317
          -0.0047719244818226455 -0.004894242698910475 -0.004911204216172396 -0.00481158321139233 -0.00477205966135761 -0.004894631129952699
          -0.004911593289494488 -0.004812511199924679 -0.004772194840892573 -0.004895019560994923 -0.00491198236281658 -0.004813439188457029
          -0.0049702853178276215 -0.004976966835275054 -0.004914085644402132 -0.004971249169684116 -0.004977705283694212 -0.004914851336099137
          -0.004972213021540612 -0.004978443732113371 -0.004915617027796143 -0.005057146524085922 -0.005056415413684747 -0.005055684303283572
          -0.004963047555268297 -0.0048705419145381795 -0.004973597963789173 -0.004963042906527044 -0.004870834436783312 -0.004973547316139048
          -0.004963038257785792 -0.004871126959028443 -0.004973496668488923 -0.0048646699076144604 -0.004952679209908714 -0.004990798706114224
          -0.004865283374607506 -0.004953425339600049 -0.004991385769469904 -0.004865896841600552 -0.004954171469291382 -0.004991972832825584
          -0.00471162265424182 -0.004696091784220532 -0.004648540730976124 -0.004710968946870427 -0.004695314397803742 -0.004647569178268353
          -0.004710315239499033 -0.004694537011386954 -0.004646597625560581 -0.004676581236677061 -0.004667500711430371 -0.0046757274664653075
          -0.0046667525151537085 -0.004674873696253554 -0.004666004318877048 -0.004208320324434503 -0.004015248560206564 -0.004208641811608414
          -0.004015500803731637 -0.004208963298782325 -0.00401575304725671 -0.005335058205936596 -0.005335403206098388 -0.0053357482062601795
          -0.0045368091854676605 -0.004443512119784401 -0.0045379251149704 -0.004444771887163948 -0.00453904104447314 -0.004446031654543495
          -0.004957858819756047 -0.004955656676025152 -0.004957949310306711 -0.004955476436865377 -0.004958039800857375 -0.0049552961977056015
          -0.004924327578956124 -0.00492450534622191 -0.004924683113487696 -0.004617326700862201 -0.0047090473933757045 -0.004720349877432273
          -0.004636823003214149 -0.0046165475122808865 -0.004708883840551315 -0.004719910506975568 -0.004636120003727376 -0.004615768323699573
          -0.004708720287726924 -0.004719471136518863 -0.004635417004240601 -0.002292156749726368 -0.0022924391439283712 -0.0022927215381303746
          -0.0021727087677185907 -0.002613969895756894 -0.002172969300912945 -0.002613590299854619 -0.0021732298341073 -0.0026132107039523443
          -0.004725014581223078 -0.004667572679916019 -0.004724165704693192 -0.004666540276187999 -0.004723316828163305 -0.004665507872459978
          -0.004810392927841443 -0.004811092189435254 -0.004811791451029065 -0.004690730585783736 -0.004534943663924517 -0.004691824737767317
          -0.00453497157572916 -0.004692918889750895 -0.004534999487533803 -0.0047145562098472715 -0.004556305442816051 -0.004406071806836379
          -0.004603670315256417 -0.0047149629720646775 -0.004556798895907166 -0.004406612998150178 -0.004604233227708697 -0.004715369734282083
          -0.004557292348998282 -0.0044071541894639766 -0.004604796140160974 -0.0046707169764117545 -0.004711273428226932 -0.004670632261793341
          -0.004710835351923845 -0.004670547547174929 -0.004710397275620757 -0.004335481130012174 -0.004277915443369062 -0.004107885981409713
          -0.0040882200611294574 -0.004337446175680405 -0.004279008134800276 -0.004109774102707747 -0.004089378433708434 -0.004339411221348636
          -0.00428010082623149 -0.0041116622240057795 -0.004090536806287412 -0.005006414816090489 -0.0050057955776698386 -0.00500517633924919
          -0.004607830180922416 -0.004664146516082171 -0.004607120480153305 -0.004663555656568775 -0.004606410779384194 -0.004662964797055379
          -0.004770288910446883 -0.004661349418325809 -0.004770565817966168 -0.00466168281486497 -0.004770842725485453 -0.004662016211404131
          -0.004875892418164861 -0.004876107940634332 -0.004876323463103803 -0.004966031202226076 -0.00492148172886618 -0.0049662728509523545
          -0.004921519321180037 -0.004966514499678632 -0.004921556913493893 -0.004841712121303506 -0.004887371409478918 -0.004841513165244979
          -0.004887203583402014 -0.00484131420918645 -0.004887035757325109 -0.005024611514634856 -0.005047121200776203 -0.005024025871703645
          -0.005046667390760638 -0.005023440228772435 -0.005046213580745073 -0.004936186181312414 -0.00493652519218411 -0.0049368642030558066
          -0.004829280227540293 -0.004889431298745553 -0.00482955561914905 -0.004890183346806171 -0.004829831010757807 -0.004890935394866788
          -0.004993961068498644 -0.005014413739785348 -0.004994651433264458 -0.00501418884218126 -0.004995341798030272 -0.0050139639445771714
          -0.004855674198279301 -0.004773697851988206 -0.004901275309124503 -0.004855515963517192 -0.004773244241036888 -0.004901145205785738
          -0.0048553577287550834 -0.0047727906300855695 -0.0049010151024469735 -0.004815129988263059 -0.0048150161098507996 -0.00481490223143854
          -0.004734640100315432 -0.004802110177666805 -0.004734355767356953 -0.004802164461631327 -0.004734071434398474 -0.0048022187455958485
          -0.004965984004187183 -0.0049739342616112025 -0.004965955197237946 -0.004973952243193666 -0.004965926390288708 -0.0049739702247761294
          -0.0036096423116240796 -0.003917768027139589 -0.0036100648858029536 -0.003918755380658899 -0.003610487459981826 -0.003919742734178208
          -0.004627803416799631 -0.0045880251967447515 -0.004627070408260539 -0.004587502397885082 -0.004626337399721447 -0.0045869795990254114
          -0.004920583992963123 -0.0048190261633821434 -0.004906377541201546 -0.004921322136426041 -0.004819262328384181 -0.004906745099940608
          -0.00492206027988896 -0.004819498493386221 -0.004907112658679671 -0.004982655468427588 -0.004983554823907617 -0.004984454179387646
          -0.004891308227121507 -0.004891742924457541 -0.004892177621793575 -0.00493214269254167 -0.004932551146372305 -0.004932959600202941
          -0.004862887984138046 -0.004862834454491975 -0.0048627809248459036 -0.0049872999411592605 -0.004987410264241048 -0.004987520587322835
          -0.004611102462364758 -0.004610565907773425 -0.004610029353182091 -0.005087886505804789 -0.005087062786588456 -0.005086239067372123
          -0.004940513045440675 -0.00494068232745147 -0.004940851609462264 -0.004927267566581486 -0.004902166296387331 -0.004925361504357053
          -0.004902195008758696 -0.00492345544213262 -0.004902223721130061 -0.004717498103549711 -0.004686124197697399 -0.004715969065587376
          -0.004684984271773092 -0.004714440027625043 -0.004683844345848786 -0.00512508161727172 -0.005126238369401723 -0.005127395121531727
          -0.004591487090584641 -0.004595392461307491 -0.0045899411793814335 -0.004594242116449733 -0.0045883952681782265 -0.004593091771591974
          -0.0026526809415704884 -0.002075776367812291 -0.0026520425245090524 -0.002076131737548185 -0.002651404107447617 -0.0020764871072840784
          -0.0038004071687419635 -0.0038017000622943423 -0.00380299295584672 -0.005010688067208796 -0.005010361926451793 -0.005010035785694791
          -0.004413836010312835 -0.004550557296187143 -0.004414739873969996 -0.004551691627280536 -0.004415643737627158 -0.00455282595837393
          -0.004609734099283343 -0.004703405848447206 -0.004608953535359053 -0.0047034703701229665 -0.004608172971434763 -0.004703534891798727
          -0.0049599446554177695 -0.004959968576617356 -0.004959992497816941 -0.004980201173026389 -0.004981111635837272 -0.004982022098648155
          -0.004979319320108658 -0.004979423498162663 -0.004979527676216668 -0.004563685511509624 -0.00455538034653899 -0.004562496548531174
          -0.004554025455286966 -0.004561307585552723 -0.004552670564034941 -0.004970817049800081 -0.00497093203519681 -0.00497104702059354
          -0.004898337885593657 -0.004908389449221535 -0.0049548674329429375 -0.0049451387439713055 -0.004898536888935535 -0.004908780708196446
          -0.004955487604221911 -0.00494547255649764 -0.004898735892277414 -0.0049091719671713555 -0.0049561077755008835 -0.004945806369023974
          -0.00480616319677975 -0.004872716580260891 -0.004806477736644873 -0.004873225961025118 -0.004806792276509996 -0.0048737353417893465
          -0.0046441574250597846 -0.004644583705729836 -0.004645009986399886 -0.004980413685706418 -0.0049393065919919885 -0.0049814177304252135
          -0.004940027046495895 -0.0049824217751440105 -0.004940747500999804 -0.004940875270665237 -0.004874866679558808 -0.004941431876236611
          -0.0048762323450514565 -0.004941988481807985 -0.004877598010544106 -0.0050088902131272435 -0.00500837037821913 -0.005007850543311015
          -0.004983169716787038 -0.004983084187715983 -0.004982998658644928 -0.004744533318562838 -0.00474512968603431 -0.004745726053505783
          -0.004556661964927541 -0.004548323876760331 -0.00455547743650257 -0.004546829955438902 -0.004554292908077597 -0.004545336034117474
          -0.004886028405497997 -0.0048870980117580705 -0.004888167618018144 -0.004135102972331078 -0.0037148068479808992 -0.004388123248999984
          -0.004135006430013967 -0.0037151224449211723 -0.004388266355652231 -0.004134909887696854 -0.003715438041861445 -0.004388409462304479
          -0.004787591947704193 -0.004789507901556959 -0.004791423855409725 -0.004880944456975738 -0.004907543292008008 -0.004914751563022361
          -0.004881378654533972 -0.004907778439095936 -0.004915189737307949 -0.004881812852092204 -0.004908013586183863 -0.004915627911593537
          -0.004817848108228934 -0.0048177315490568196 -0.004817614989884705 -0.004956682369592654 -0.004956630289246959 -0.004956578208901263
          -0.0033795027776500255 -0.0033800819408852985 -0.0033806611041205725 -0.004811852808222952 -0.004812394983332861 -0.004812937158442767
          -0.004951208075260718 -0.004938143673473727 -0.004951640738598069 -0.004938314724250815 -0.004952073401935421 -0.004938485775027901
          -0.004521233109865078 -0.0045221408734520034 -0.004523048637038929 -0.004574995985138742 -0.004583580982981875 -0.00457438708137496
          -0.004582789978055421 -0.004573778177611176 -0.004581998973128966 -0.004976558886236331 -0.00493795650786364 -0.004977086849774884
          -0.004938282756020151 -0.0049776148133134366 -0.004938609004176662 -0.004749650900252522 -0.0045833019224809715 -0.004751140769931796
          -0.0045844433963554785 -0.004752630639611071 -0.004585584870229985 -0.0036402132046562587 -0.003975527549076991 -0.0036401011703498178
          -0.00397532856780492 -0.003639989136043377 -0.0039751295865328475 -0.004650564505064709 -0.004658452794195219 -0.0045487567414537085
          -0.0046510041099117475 -0.0046585501675443595 -0.004548767679115573 -0.004651443714758786 -0.004658647540893501 -0.004548778616777438
          -0.004316550724102576 -0.004316861295396086 -0.0043171718666895975 -0.004401452166624065 -0.004400401218997001 -0.004399350271369937
          -0.004733478900093409 -0.004733417040797321 -0.004733355181501234 -0.0031777810570731996 -0.0031767207930503867 -0.003175660529027574
          -0.0041287607504713044 -0.0038772989170987532 -0.0038602983727045507 -0.004129226593724209 -0.0038783956382396198 -0.0038613562813469434
          -0.004129692436977114 -0.0038794923593804863 -0.0038624141899893352 -0.004280346872064866 -0.0042793081606447275 -0.00427826944922459
          -0.0038746876365713116 -0.0038741711868285236 -0.003873654737085734 -0.0035216628402985686 -0.0030365033915661743 -0.00352126065111875
          -0.0030356712076442674 -0.0035208584619389324 -0.00303483902372236 -0.0035480526094698595 -0.0035506286254748734 -0.0035532046414798873
          -0.0038233887851782064 -0.003824135022340436 -0.003824881259502666 -0.002523942285444805 -0.002522861729443567 -0.0025217811734423285
          -0.0030484733198512847 -0.003047546507721529 -0.0030466196955917734 -0.00240057684677195 -0.0023995053447515772 -0.002398433842731205
          -0.0017937341195987172 -0.0017954793956988957 -0.0017972246717990743 -0.0012232077816503161 -0.001147465388309306 -0.0012227049822457344
          -0.001146810684809654 -0.0012222021828411523 -0.0011461559813100018 -0.0005754502471204746 -0.0005145640240110806 -0.0005750648347946919
          -0.0005141878240352124 -0.0005746794224689093 -0.0005138116240593442 -0.0001604357330559804 -0.0001256451800838759 -0.00016061991349030985
          -0.00012581265332520133 -0.0001608040939246393 -0.00012598012656652675 -0.0014074445535003615 -0.001407268249822693 -0.001407091946145025
          -0.000752707836151401 -0.0007524479104406812 -0.0007521879847299616 -0.0002757405784057649 -0.0002758758842321795 -0.0002760111900585941
          -0.0016183401266622014 -0.001618288975017876 -0.0016182378233735506 -0.0010025332074013378 -0.0010023696653882882 -0.0010022061233752387
          -0.00047202860561909257 -0.0004720441730408561 -0.00047205974046261965 -0.001822996810341416 -0.0018229927506017915 -0.0018229886908621672
          -0.0012715504823033394 -0.0012714416127123619 -0.0012713327431213839 -0.0007275090534282996 -0.0007274452460875315 -0.0007273814387467633
          -0.0015389219393199542 -0.001538957241747661 -0.0015389925441753678 -0.0010269710271417515 -0.0010268717752117522 -0.0010267725232817526
          -0.0017994646650391095 -0.0017996094715321135 -0.0017997542780251179 -0.0013631780530426055 -0.0013631396069166612 -0.0013631011607907171
          -0.0020654058149092436 -0.002065562174173789 -0.0020657185334383345 -0.0017286862370830174 -0.001728561600668313 -0.0017284369642536091
          -0.0023254098501246214 -0.002325450914108583 -0.0023254919780925443 -0.0020879665348841033 -0.0020875271646649957 -0.002087087794445888
          -0.0024482072737460024 -0.00244817980941383 -0.002448152345081659 -0.002258190413805739 -0.002257593532305475 -0.0022569966508052108
          -0.000008314170510752494 0 -0.000008402570985229657 0 -0.000008490971459706821 0
          -0.00004511626674873268 -0.00004526512324954922 -0.000045413979750365765 -0.00013181717959443338 -0.00013195477318183802 -0.00013209236676924263
          -0.00029580969390269335 -0.00029586040504087535 -0.00029591111617905736 -0.0005462798968771722 -0.0005461396179780977 -0.000545999339079023
          -0.0035706966286961086 -0.003864933584437916 -0.003570872610593018 -0.0038646100269853424 -0.003571048592489927 -0.003864286469532769
          -0.0024234981595026104 -0.002744215664577468 -0.0026646856257097843 -0.0024237888183446933 -0.002744261614158787 -0.002664658764705134
          -0.002424079477186776 -0.0027443075637401068 -0.002664631903700484 -0.004480123318046256 -0.004479900380849111 -0.0044796774436519655
          -0.0041387361556037994 -0.004138109953189235 -0.004137483750774671 -0.003141025099661414 -0.0031411881332884762 -0.0031413511669155384
          -0.0020208439708652663 -0.0020209935485787996 -0.002021143126292333 -0.0022007502729288054 -0.00220099696720282 -0.0022012436614768354
          -0.0023766425484871567 -0.0023768828927447647 -0.0023771232370023727 -0.0025564984121333872 -0.0025566008895572447 -0.0025567033669811035
          -0.0026447766307873656 -0.0026447876020044055 -0.0026447985732214463 0 0 0
          0 0 0 0 0 0
          -0.00001064263199728323 -0.000010714689234391046 -0.000010786746471498864 -0.00006388040320569135 -0.00006400917804406802 -0.0000641379528824447
          -0.00019508030265823017 -0.0001951402265962751 -0.00019520015053431996 -0.0008719328996153021 -0.0008717461494505863 -0.0008715593992858705
          -0.0004199239707889443 -0.0004199032795455448 -0.0004198825883021454 -0.0012734021355580607 -0.001273030664124967 -0.0012726591926918729
          -0.001720313839050019 -0.0017194333222218428 -0.0017185528053936666 -0.0019467186335526566 -0.001945554747385443 -0.0019443908612182294
        </DataArray>
        <DataArray type="Float64" Name="pe33" format="ascii" RangeMin="-0.00553412847850411" RangeMax="0">
          -0.004362607391701316 -0.0044432562080148836 -0.004486919228326651 -0.004346885135800063 -0.004368740461824428 -0.004448840780620494
          -0.004491513312294366 -0.004353395126947312 -0.00437487353194754 -0.004454425353226104 -0.004496107396262081 -0.004359905118094562
          -0.005400461560528976 -0.005300104414954011 -0.005399638634362199 -0.00547729822614337 -0.0053974962250500835 -0.005297168104611367
          -0.005395374138585982 -0.005473510264812009 -0.005394530889571191 -0.005294231794268724 -0.005391109642809765 -0.005469722303480647
          -0.0029843699500645597 -0.0033230098997055076 -0.0031532441596832115 -0.00219511131573973 -0.002983888572799407 -0.003320187757595428
          -0.003151454527914794 -0.0021985893535021016 -0.0029834071955342537 -0.003317365615485349 -0.0031496648961463762 -0.0022020673912644738
          -0.004906405209820696 -0.004894343609184932 -0.004981481966804651 -0.004993719831484505 -0.00490577528079651 -0.004894489798203069
          -0.004981508781826677 -0.004993202944440819 -0.004905145351772325 -0.0048946359872212054 -0.004981535596848703 -0.004992686057397133
          -0.005310910533979634 -0.005358350167155089 -0.005452518839950947 -0.005413813278536641 -0.00531073239173262 -0.005357125328255612
          -0.005450178449375296 -0.0054127055886352814 -0.005310554249485606 -0.005355900489356135 -0.005447838058799643 -0.005411597898733923
          -0.0047103128374316565 -0.004854792074743475 -0.004859407036900582 -0.004696049873323329 -0.004710473740401858 -0.004854989117220678
          -0.004859134536223483 -0.004696811909748004 -0.004710634643372058 -0.004855186159697882 -0.004858862035546384 -0.004697573946172678
          -0.0054456983062562995 -0.005363172453266643 -0.005304183193493276 -0.005443531763490759 -0.0053614066632402925 -0.005302194587142691
          -0.005441365220725219 -0.005359640873213941 -0.005300205980792106 -0.004979482448150057 -0.0049761087690530816 -0.004980575063743092
          -0.004976301307854916 -0.004981667679336128 -0.00497649384665675 -0.004675092021607395 -0.005080802451239884 -0.005005051209310181
          -0.004673597987087033 -0.004673430363141787 -0.005078389166342101 -0.00500417716442419 -0.004671483899167379 -0.004671768704676179
          -0.0050759758814443185 -0.005003303119538199 -0.004669369811247727 -0.004909016034448394 -0.00498896982895696 -0.004908647490288385
          -0.004988675473628924 -0.004908278946128376 -0.004988381118300889 -0.005102882932697293 -0.005062700639795165 -0.005103521929549332
          -0.0050633328063707265 -0.005104160926401371 -0.005063964972946289 -0.003751416912373134 -0.003633768266497219 -0.0031425789215871664
          -0.0037493766712431162 -0.0036300336327909715 -0.0031362190393477763 -0.0037473364301130988 -0.003626298999084723 -0.0031298591571083862
          -0.0045474984633434076 -0.004555075608154679 -0.004549817875913893 -0.004556650443394778 -0.004552137288484379 -0.004558225278634876
          -0.0050432097041663215 -0.005086366198995097 -0.005189875438188117 -0.005173921982622628 -0.005041809158410195 -0.0050858059009465505
          -0.005189327544533383 -0.0051719282019055575 -0.005040408612654069 -0.0050852456028980045 -0.005188779650878651 -0.005169934421188486
          -0.005449294506253972 -0.0054934194584748755 -0.005469281512897348 -0.005446985975234518 -0.00549082006196665 -0.005466591386046218
          -0.005444677444215063 -0.005488220665458424 -0.0054639012591950874 -0.005041536927995557 -0.005042691135020008 -0.005043845342044459
          -0.005116926881295891 -0.004969474185986599 -0.005059393411375115 -0.0051163347982835575 -0.0049694408583626 -0.005058870139917478
          -0.005115742715271225 -0.004969407530738603 -0.005058346868459842 -0.005391683681282072 -0.005373664540158916 -0.0053809755447521415
          -0.005387815635598754 -0.0053710254157860885 -0.005379507120192507 -0.005383947589915433 -0.00536838629141326 -0.005378038695632875
          -0.004555467263070445 -0.00446307696757967 -0.004435249113957769 -0.004558258801368632 -0.004466815925423369 -0.004438871072164463
          -0.004561050339666818 -0.004470554883267067 -0.004442493030371158 -0.0043509521589678475 -0.004309254703421661 -0.004355520764101754
          -0.004314269248032477 -0.004360089369235661 -0.004319283792643291 -0.004513223814768958 -0.0042638167424035815 -0.004509937365126124
          -0.004261443477293525 -0.004506650915483289 -0.004259070212183471 -0.004812658337415459 -0.0048092141399398766 -0.004805769942464293
          -0.0050502139168649585 -0.004908549433293233 -0.0050478270639938766 -0.004902912345944382 -0.0050454402111227955 -0.004897275258595533
          -0.005138320870962207 -0.005209422680413802 -0.005138354674260344 -0.0052086281413330215 -0.005138388477558483 -0.005207833602252242
          -0.005189677663843095 -0.00518869825046121 -0.005187718837079325 -0.004706159320971759 -0.004872368002316241 -0.004858027644015025
          -0.004704681590848251 -0.0047061613646723725 -0.004872487791027645 -0.0048587062519351056 -0.0047046217969796 -0.004706163408372986
          -0.00487260757973905 -0.004859384859855187 -0.004704562003110951 -0.002339763331201754 -0.0023402059616587615 -0.0023406485921157686
          -0.0022060869706312975 -0.002712876923203454 -0.00220707666136241 -0.002714093452984365 -0.002208066352093523 -0.0027153099827652762
          -0.004403405847110158 -0.004382180837811725 -0.0044083067935232765 -0.004386632780745137 -0.004413207739936395 -0.004391084723678548
          -0.005403462391684091 -0.005400373399784542 -0.005397284407884993 -0.005131484208768843 -0.004886451896561175 -0.005126559415208466
          -0.004883013457759101 -0.005121634621648089 -0.004879575018957026 -0.004913914096989929 -0.004854532643686844 -0.0046581670355156125
          -0.004747610667629023 -0.004912283919318515 -0.004851051365385416 -0.0046546719435815835 -0.004746020251663468 -0.0049106537416471014
          -0.004847570087083989 -0.0046511768516475545 -0.004744429835697913 -0.00524617077904704 -0.0052780082696886775 -0.005244227915453187
          -0.005274544255468332 -0.005242285051859336 -0.005271080241247984 -0.004761648117338626 -0.004681969822313511 -0.004366010511166666
          -0.004410238605232158 -0.004755592354151628 -0.004677730980222267 -0.0043644704736888855 -0.0044080348518493895 -0.004749536590964629
          -0.0046734921381310236 -0.004362930436211105 -0.004405831098466621 -0.005039154783988472 -0.005039965827513991 -0.005040776871039508
          -0.00456196653046948 -0.004708723904999754 -0.004562916977620597 -0.004708810403196805 -0.0045638674247717136 -0.004708896901393856
          -0.004805939555125963 -0.004628683696720186 -0.004806705182419121 -0.004629603964061148 -0.004807470809712279 -0.0046305242314021115
          -0.00487074125516215 -0.004871271324105002 -0.004871801393047856 -0.005048034295119463 -0.004990619267412157 -0.005048099330539957
          -0.004989930547382606 -0.005048164365960451 -0.004989241827353057 -0.004801313279925206 -0.004933016594014981 -0.004801877176175932
          -0.004932088085487431 -0.004802441072426656 -0.004931159576959881 -0.005064296678756124 -0.005056361916841678 -0.0050653910560887385
          -0.0050574266665452585 -0.005066485433421353 -0.005058491416248839 -0.004979567730407102 -0.004979685402463758 -0.004979803074520413
          -0.005035830486322565 -0.005186399104398349 -0.0050365170674870775 -0.005185165423837522 -0.0050372036486515896 -0.005183931743276695
          -0.005020800751033666 -0.005050603393055061 -0.005020091482772203 -0.00505041509038595 -0.00501938221451074 -0.005050226787716841
          -0.0046876605440776 -0.004675853481114339 -0.004788288197706128 -0.004689577899137641 -0.004677604034580114 -0.004789517374594281
          -0.004691495254197682 -0.004679354588045888 -0.004790746551482435 -0.004602118367304785 -0.004604213315233033 -0.004606308263161281
          -0.004855019643666512 -0.00500893762687396 -0.00485571136720451 -0.00501054014081644 -0.0048564030907425094 -0.005012142654758921
          -0.005184504378493943 -0.005268348068215359 -0.00518402408325555 -0.005267251927603761 -0.005183543788017157 -0.005266155786992161
          -0.003909692659262397 -0.004277606311109476 -0.0039075789916070735 -0.004276055237567471 -0.0039054653239517503 -0.004274504164025467
          -0.0044153312015967365 -0.004458682037180398 -0.004418479498548109 -0.004460901905372908 -0.004421627795499481 -0.00446312177356542
          -0.004642486583801602 -0.004530579199161368 -0.004690248252226292 -0.004641870654191466 -0.0045331615617505375 -0.004690530568265147
          -0.004641254724581329 -0.004535743924339707 -0.004690812884304001 -0.004592404169466468 -0.004592417357589502 -0.004592430545712536
          -0.005226849058446162 -0.005225853881705107 -0.005224858704964052 -0.004785359068488021 -0.004784127826524329 -0.004782896584560635
          -0.004474222910280112 -0.004478149295958413 -0.004482075681636716 -0.005093302917278662 -0.005093700818407997 -0.005094098719537331
          -0.004344765101940858 -0.004348250913824316 -0.004351736725707774 -0.004643654320606441 -0.004643122463587172 -0.004642590606567902
          -0.00475449000567986 -0.004755159177207069 -0.004755828348734276 -0.00431792701319896 -0.004389087915446763 -0.0043255883184955025
          -0.004394414883566221 -0.004333249623792046 -0.004399741851685678 -0.004261951531493306 -0.004274148992390641 -0.004267330887037736
          -0.00427956307931089 -0.004272710242582165 -0.004284977166231139 -0.004631805709920018 -0.004631291342114371 -0.0046307769743087245
          -0.004284879660430487 -0.004302255139858022 -0.004289002351652586 -0.004306130442769389 -0.004293125042874683 -0.0043100057456807546
          -0.0027352760553139093 -0.0020809610485305564 -0.0027369594930573378 -0.0020830634730077536 -0.002738642930800766 -0.0020851658974849517
          -0.0041287636841400265 -0.004127563073405886 -0.004126362462671748 -0.00454961183401974 -0.004551735639755874 -0.004553859445492008
          -0.004926819912972403 -0.005068241191002446 -0.00492130391108654 -0.0050651572708354875 -0.004915787909200675 -0.005062073350668529
          -0.004709208276365507 -0.004883908816069182 -0.0047093528679139 -0.004883680926998562 -0.004709497459462291 -0.0048834530379279414
          -0.004806371625563394 -0.004807191459753938 -0.004808011293944481 -0.004848895237690294 -0.00484773724443573 -0.0048465792511811654
          -0.005037278967204377 -0.005036890892545157 -0.005036502817885938 -0.004532568528083951 -0.004526702228842775 -0.0045342788999573015
          -0.0045288053526275265 -0.004535989271830651 -0.004530908476412276 -0.005287580905686503 -0.005286896904752526 -0.005286212903818548
          -0.0054764595027309215 -0.005491230000529176 -0.005531945159030504 -0.00553412847850411 -0.005475030765230913 -0.005488998981871348
          -0.005527878570814496 -0.005530356267743451 -0.0054736020277309045 -0.005486767963213519 -0.005523811982598489 -0.005526584056982791
          -0.005022884351328532 -0.005194259390787595 -0.005024147514195272 -0.0051945636409542655 -0.005025410677062012 -0.005194867891120935
          -0.0052153777904129246 -0.005214782074013942 -0.0052141863576149585 -0.005518896602968382 -0.005506300175181722 -0.0055146396593972625
          -0.005503353611074976 -0.005510382715826144 -0.005500407046968232 -0.005289810856152904 -0.005289404100892889 -0.0052886876861287825
          -0.0052857336364132805 -0.005287564516104659 -0.005282063171933671 -0.005076315049492644 -0.0050764787324864245 -0.005076642415480207
          -0.005120908061828665 -0.005120813257683619 -0.005120718453538573 -0.00524869780818489 -0.005243615201034965 -0.00523853259388504
          -0.004389170937618073 -0.004373547120557553 -0.004392460608797286 -0.004377340526531015 -0.004395750279976499 -0.004381133932504479
          -0.005335014080758876 -0.005329590405735126 -0.005324166730711375 -0.004429824475034505 -0.003923729317654706 -0.004710205363711451
          -0.004426919882124667 -0.003924355598343903 -0.004705433898563144 -0.00442401528921483 -0.0039249818790331 -0.004700662433414838
          -0.005268002989748458 -0.005261420215771583 -0.005254837441794709 -0.0052081798680751554 -0.005399417379461801 -0.005387045420790715
          -0.005208051472103003 -0.00539629472319758 -0.005383849791651519 -0.005207923076130851 -0.00539317206693336 -0.005380654162512323
          -0.00538920523463491 -0.005388937141449985 -0.005388669048265059 -0.0051974981678427085 -0.0051970252426703995 -0.0051965523174980904
          -0.003615685296402786 -0.0036136909108250336 -0.003611696525247281 -0.00503846614539258 -0.005039092974830931 -0.005039719804269281
          -0.005511448621820746 -0.005522872467574923 -0.0055061720132931246 -0.005517842144019534 -0.005500895404765503 -0.005512811820464146
          -0.005025569072986301 -0.005020468188040191 -0.00501536730309408 -0.004424677032920061 -0.00455070304923841 -0.004427218766025693
          -0.004551704537279884 -0.0044297604991313235 -0.004552706025321359 -0.005471637716912259 -0.005379121648016319 -0.005466468641693592
          -0.00537550382183009 -0.005461299566474925 -0.00537188599564386 -0.0052268255049167526 -0.0050199843019048266 -0.00521942316837571
          -0.005013324308793356 -0.005212020831834669 -0.005006664315681886 -0.0038713904175253075 -0.004359199863939884 -0.003873112629666998
          -0.004359096535127025 -0.0038748348418086885 -0.0043589932063141665 -0.00519069119638492 -0.005176576919381416 -0.0050482056602355815
          -0.00519015438815588 -0.005175725906927933 -0.005045810252126021 -0.005189617579926839 -0.0051748748944744506 -0.005043414844016462
          -0.004767163807155453 -0.004762363979168521 -0.004757564151181589 -0.004877020036030504 -0.004873568412992891 -0.004870116789955277
          -0.005289855966956995 -0.005289630601111369 -0.005289405235265741 -0.003351542828867803 -0.0033519804996380567 -0.0033524181704083105
          -0.004299792444298232 -0.003978615884418455 -0.00403311972705607 -0.004298970380743522 -0.003978137631841813 -0.004032199732789789
          -0.004298148317188812 -0.003977659379265171 -0.0040312797385235076 -0.0046098165314144394 -0.004607710433989612 -0.004605604336564783
          -0.004156941015119381 -0.004158321437756376 -0.004159701860393371 -0.003738439326628422 -0.003228680855795572 -0.0037419388661342713
          -0.003230716359974903 -0.003745438405640121 -0.003232751864154234 -0.0036026326625705485 -0.0035973394769595194 -0.003592046291348491
          -0.004081603355624588 -0.004080606903692323 -0.0040796104517600565 -0.0026089250813718535 -0.002609089802468293 -0.0026092545235647316
          -0.003194594071851358 -0.0031833709929489024 -0.0031721479140464463 -0.0025362986161828437 -0.0025368678374956747 -0.002537437058808506
          -0.0017692399711976303 -0.0017775790245166886 -0.0017859180778357472 -0.001284879769741657 -0.0012015563845948166 -0.001286115579764839
          -0.0012031632288921278 -0.0012873513897880213 -0.001204770073189439 -0.0006971636218796072 -0.0006353376219654446 -0.0006975549325506505
          -0.0006356333161436437 -0.0006979462432216938 -0.0006359290103218428 -0.00020274008490426428 -0.00016104063077844948 -0.00020332216573562423
          -0.0001615127572557177 -0.0002039042465669842 -0.0001619848837329859 -0.0014879535238186382 -0.0014883501957324797 -0.0014887468676463213
          -0.0008819879626036089 -0.0008823290349414339 -0.0008826701072792592 -0.00034222395556140795 -0.00034293386679857684 -0.0003436437780357458
          -0.0017118174512370373 -0.0017117748461711977 -0.0017117322411053584 -0.0011464282987414048 -0.001146503691340445 -0.0011465790839394854
          -0.0005806849562743916 -0.0005813000866834455 -0.0005819152170924994 -0.0019177568749422962 -0.0019177001188986295 -0.0019176433628549632
          -0.001431568375221885 -0.0014314102843222122 -0.0014312521934225393 -0.0008871899398137402 -0.0008875238101199514 -0.0008878576804261625
          -0.001707018982611752 -0.0017067007716019041 -0.0017063825605920565 -0.0012317334137488265 -0.0012316980744900455 -0.0012316627352312644
          -0.0019573508041947378 -0.001956983891837249 -0.00195661697947976 -0.0015894544886905103 -0.0015890497633748832 -0.0015886450380592563
          -0.0021890455899538997 -0.002188776992768009 -0.002188508395582119 -0.0019304908893802717 -0.0019300192640793754 -0.0019295476387784789
          -0.0024279834271899235 -0.002427970645891701 -0.002427957864593478 -0.002270722409658655 -0.0022705035052789967 -0.002270284600899339
          -0.002553805774012428 -0.0025539482536068177 -0.002554090733201207 -0.0024489235296115677 -0.0024488554664235528 -0.0024487874032355383
          -0.000010751439880657835 0 -0.000010890690200799169 0 -0.000011029940520940504 0
          -0.000059535930182132564 -0.000059865231491077226 -0.00006019453280002188 -0.00017631291188795623 -0.0001768380017885232 -0.00017736309168909017
          -0.00039736298852599474 -0.0003979762847200074 -0.00039858958091402015 -0.0007234164726047274 -0.0007237711075329672 -0.000724125742461207
          -0.003771138475852379 -0.004082049292760858 -0.00377166060785328 -0.0040812958208538905 -0.0037721827398541803 -0.004080542348946923
          -0.002467723388223635 -0.0028326513348073657 -0.0027716166888210303 -0.002467996032226692 -0.0028324062889689455 -0.0027719470659618908
          -0.0024682686762297493 -0.002832161243130525 -0.0027722774431027507 -0.004529078718087299 -0.004528327208952833 -0.004527575699818367
          -0.004298002691394251 -0.004295686600354256 -0.00429337050931426 -0.0033231921042611787 -0.0033244264839498924 -0.003325660863638607
          -0.0021092586298321224 -0.002109144701457621 -0.0021090307730831197 -0.0022738411623694846 -0.0022737360970384868 -0.002273631031707489
          -0.002428381000453091 -0.002428270591884055 -0.002428160183315019 -0.0025993666624958786 -0.002599201829668658 -0.0025990369968414383
          -0.002690719129319596 -0.002690528273013211 -0.0026903374167068263 0 0 0
          0 0 0 0 0 0
          -0.000016050012178294814 -0.00001619504623942249 -0.000016340080300550168 -0.00009517746002128066 -0.00009556716645612276 -0.00009595687289096487
          -0.00028508805763748785 -0.0002856257785638498 -0.00028616349949021176 -0.001113630220299362 -0.0011135359955847884 -0.0011134417708702146
          -0.0005888727874420596 -0.0005893278827158728 -0.0005897829779896858 -0.0015259764604628155 -0.0015255810738005681 -0.0015251856871383207
          -0.0019731986437570596 -0.0019727194162634186 -0.0019722401887697777 -0.0022145409958567843 -0.0022140321094728677 -0.002213523223088951
        </DataArray>
        <DataArray type="Float64" Name="disp_x" format="ascii" RangeMin="0.00007725665748619685" RangeMax="0.00023558907983952106">
          0.00009170741176140395 0.00008798797457443456 0.00008546211128378182 0.0000899826767738445 0.00009170582813510531 0.00008798475071620389
          0.0000854563486548396 0.00008998040688711865 0.00009170231634005277 0.00008797604538821365 0.00008544025679742971 0.00008997486900158556
          0.00014176533222199242 0.00013571483771921935 0.0001382398490166996 0.00014416069655762565 0.00014176718690854688 0.0001357173767030777
          0.0001382422822438728 0.00014416075494658363 0.00014177233781395473 0.0001357261173755368 0.0001382518714554153 0.00014416248034781565
          0.00020653337488023678 0.00020479456492206746 0.00020742904669736515 0.00021547143698453502 0.00020652150087086373 0.00020478523835148834
          0.0002074169765920043 0.00021546232695693028 0.00020648292618290854 0.0002047611802545691 0.0002073769090961594 0.00021543565985555554
          0.00010223926263099191 0.00010784962171408781 0.00011210811695719582 0.00010680097296518309 0.00010223934359870008 0.0001078509521301246
          0.00011210851252745923 0.00010680129481072803 0.00010224072100949104 0.00010785457200578736 0.0001121111995212112 0.00010680186874432307
          0.00016690234154511247 0.0001652425954099007 0.00015891949983541697 0.0001607209128779674 0.00016689876358964942 0.00016523893663497426
          0.0001589167488624385 0.00016071767620901356 0.00016689051319253702 0.0001652292145227098 0.00015891026995959676 0.0001607097581861185
          0.00011134468847553283 0.00011727970248451117 0.00011430915764201182 0.0001083593621826189 0.00011134731548336377 0.00011728084133927592
          0.00011431085650038454 0.00010836146578209382 0.00011135570568629996 0.00011728554134754692 0.00011431689154863694 0.00010836932346615777
          0.00014838540591951218 0.00014570284328777278 0.0001391048986799747 0.00014838647939857916 0.00014570310080550854 0.00013910644797561855
          0.0001483885081054645 0.0001457051706883207 0.00013911158026982192 0.00012374845271394613 0.000121626159752186 0.00012375066334283124
          0.00012162778880732719 0.0001237554432158184 0.00012163117873433427 0.00018327962481992484 0.0001754173672335887 0.00017739418680900082
          0.00018596956643050064 0.00018327220175596478 0.0001754110520488235 0.00017738948026926437 0.00018596340647308605 0.00018325186186224888
          0.00017539166747579854 0.00017737558808404402 0.00018594905610750317 0.00011233680806188859 0.00011668330274138182 0.00011233888280190839
          0.00011668478803030844 0.00011234468571013903 0.00011668782620409222 0.0001301174499357563 0.00012779375287597805 0.00013012074418789147
          0.00012779541534345827 0.00013012897511012012 0.0001277992446490185 0.00020189198551439066 0.0002042105584200315 0.00020896435978822055
          0.00020188383902108476 0.00020420361924324243 0.00020895376172664268 0.00020186048707086638 0.0002041716715793467 0.00020894123770450208
          0.0001034658475183186 0.00010627932140765654 0.00010346858509743684 0.00010628246626579447 0.00010347552268054669 0.00010629142223821533
          0.00015711973932474633 0.0001502233873571759 0.0001531544131514392 0.00015961444462164103 0.00015711917575500742 0.00015022256239137998
          0.00015315399650172692 0.00015961416861498271 0.00015711768968180482 0.00015022205636305315 0.00015315386120107568 0.00015961497415475096
          0.0001555348485752962 0.000150582456425184 0.0001573784430135963 0.0001555354823664319 0.00015058320755485 0.00015737798455200331
          0.0001555348335414188 0.00015058153669073588 0.00015737551393743454 0.00011795692032459201 0.00011795612089064226 0.00011795373215191844
          0.00014376793471230842 0.00014605100827139874 0.00014037922103779735 0.00014376840295455323 0.00014605081318399274 0.00014037940679996624
          0.00014376890498964047 0.00014604889689971262 0.0001403782970767154 0.00016444049276731428 0.0001597162215690414 0.00015263236408720321
          0.0001644395522890092 0.00015971600386311001 0.0001526333572911817 0.00016443603381333227 0.00015971633432099543 0.00015263475129955744
          0.00010010353287731665 0.00009641907765766769 0.00009925248561897201 0.00010010497293193614 0.00009641958513349674 0.00009925433213175047
          0.00010010862971430134 0.00009642141847228271 0.00009925887223058427 0.0000959040134857336 0.00009507007929843796 0.00009590475431946797
          0.00009507060959220696 0.00009590605671389695 0.00009507167543595001 0.00016858039023469998 0.00017703443479446195 0.0001685754331282139
          0.00017702639824414065 0.00016856157861390184 0.00017700428229985106 0.0000772715682640902 0.00007726767453767615 0.00007725665748619685
          0.00017800707641515433 0.00018402817258114093 0.0001780049085552482 0.00018402288872472735 0.00017799709144449496 0.0001840108965128071
          0.00013394723714264895 0.00013645922487174407 0.00013394883183051248 0.0001364628026149452 0.00013395280430049928 0.00013646990075567947
          0.00013285062904658642 0.00013285535302530658 0.00013286534529023417 0.00011516248079975334 0.00012061318969930759 0.00012004283816682177
          0.0001144205698950261 0.00011516581720079237 0.00012061564012375104 0.00012004468047810421 0.0001144229503586056 0.00011517661341064191
          0.00012062459143161405 0.00012005162359283645 0.00011443211483815867 0.00020652062074656536 0.0002065172449741927 0.0002065076723699519
          0.00021007656438418168 0.00020308595309937637 0.00021007253685388186 0.00020308027718245387 0.00021006046899785344 0.0002030627203044744
          0.00009369492404229571 0.00009629538500773042 0.00009369527804848299 0.00009629722291253487 0.0000936948731961798 0.00009629894962091812
          0.000164224593324402 0.00016422320572818534 0.00016421712973612194 0.00016601626452391748 0.0001652747381608292 0.0001660154372708079
          0.0001652726441805078 0.00016601157292448268 0.00016526380287834233 0.0001545830725680933 0.00015993384805977243 0.00016065042906620835
          0.000153226926599523 0.00015458356096824158 0.00015993338776597668 0.0001606481629770264 0.00015322652485104981 0.00015458431211748982
          0.00015992932943528418 0.0001606401940934732 0.0001532254376329412 0.00017083672190563513 0.000170502641379233 0.00017083386482482203
          0.00017050159384148563 0.0001708187032889543 0.000170488887724554 0.00018826574391914803 0.00018939173615271278 0.0001938887443202034
          0.0001914261122967499 0.00018825968616912217 0.00018938397973891388 0.00019388006036153734 0.00019141866690368807 0.00018823544980106527
          0.00018935901093257418 0.00019385873055928978 0.00019139116010569347 0.00012246770512280703 0.00012246879124508357 0.0001224701304051879
          0.00010833219381761028 0.00011331539253013575 0.00010833544474126211 0.00011331848785492775 0.00010834429131140485 0.00011332623534896154
          0.00014592681628698107 0.00014547215269860913 0.00014592699813075155 0.00014547022057424637 0.00014592506727509398 0.0001454656976995816
          0.00013886036068216294 0.00013885849843769805 0.00013885380908539556 0.000125502128663453 0.00011973913277425771 0.00012550328110818375
          0.00011974064765322923 0.00012550509986514142 0.00011974269508224211 0.00010862039595600529 0.00011561418596558043 0.00010862342699706986
          0.00011561734110878124 0.00010863071172597927 0.00011562183514360385 0.00012897647758936193 0.0001265908431308809 0.00012897685871368785
          0.00012659284923576263 0.0001289763360670056 0.00012659712106441738 0.0001383593064170673 0.00013835943895881405 0.00013835637797348404
          0.00012663307845785107 0.0001316006642402176 0.0001266368507462606 0.0001316047240153056 0.0001266472289959236 0.00013161574690458177
          0.00013204869879642563 0.0001329141799089318 0.00013204821037260977 0.00013291539824498527 0.00013204575894231648 0.0001329154763564889
          0.00010057837812560335 0.00010446660372310243 0.00010433472908450496 0.00010057931304512072 0.00010446959601816652 0.00010433661227132157
          0.00010058226660413606 0.00010447545904396417 0.00010434088109287141 0.00009635217583272655 0.00009635335302572018 0.000096354732445106
          0.0001191308107002801 0.00012600160297196892 0.00011913508894306624 0.00012600604331206272 0.0001191430016884331 0.00012601543582950656
          0.00014023484161139563 0.0001428015082975855 0.00014023589501238175 0.00014280378679220237 0.00014023893570693231 0.0001428071905868196
          0.00019833088224829404 0.00019212452519018586 0.0001983244924579468 0.00019211803448898642 0.00019830523819845924 0.000192092644096416
          0.00010136706406332109 0.00010493050099508472 0.00010136998956247352 0.00010493390203368266 0.00010137606772833265 0.00010494312952545587
          0.00008736103999081672 0.00009257886660540138 0.00009318274530857231 0.00008735969248062879 0.00009257889844717002 0.0000931830059263694
          0.00008735640732885643 0.00009257686662143267 0.00009318236374575384 0.00008561423683009798 0.00008561163843518045 0.0000856011071713369
          0.00013268537386102022 0.00013269136871537626 0.00013270658615126328 0.00009126148260327584 0.00009126249456171089 0.00009126546821282412
          0.00008993802155432219 0.00008993663310569458 0.00008993053187092821 0.00013159078173577237 0.00013159304182497613 0.0001315960322867081
          0.00010006206408339121 0.00010006449478591276 0.00010006903161461615 0.00008220850645609753 0.00008220473680692023 0.00008219025607030432
          0.00009783261909147612 0.00009783374086680192 0.00009783432723257053 0.00008934996130504364 0.00008777289896063996 0.00008934703445916633
          0.00008776830715797014 0.0000893436369759877 0.00008775481334075686 0.00009470869333943837 0.00009439532980469493 0.00009471003594609669
          0.00009439534179248632 0.00009471113672335872 0.00009439502762775792 0.00008266386567296627 0.00008265894872766209 0.00008263791950890454
          0.00009994804592815081 0.00009978876902358556 0.00009994938548521938 0.00009979140677054348 0.00009995109595947782 0.00009979636588953338
          0.00020597739719985467 0.00021291767751041436 0.00020596865939075698 0.00021291430994456855 0.00020594116467185535 0.00021290502368741688
          0.00019225852525274305 0.00019225226706112074 0.0001922295465498568 0.00008521266901198056 0.00008520985502084588 0.00008519815557746941
          0.00018449523451275694 0.0001788074193352924 0.0001844903350402986 0.00017880483290923547 0.00018447589298704732 0.00017879707423730062
          0.00011584869717358674 0.00012139160453472574 0.0001158529180802405 0.00012139534236178217 0.00011586417742326308 0.0001214050746100516
          0.00010139060171402674 0.00010139302078888153 0.00010139534392460834 0.00009630987265101371 0.00009631106444508334 0.00009631244184598203
          0.00013736879437666307 0.00013736988735275047 0.00013736927126857106 0.00010988051443122319 0.00011044695067240888 0.00010988436885810096
          0.00011045133339492407 0.00010989506760205021 0.00011046336908167755 0.00014941715111556464 0.00014941864946369738 0.0001494204135430038
          0.00015705674153393694 0.00015469370671429474 0.0001485623944660573 0.00015100476505185194 0.0001570544358850539 0.00015469237112913036
          0.00014856156148509018 0.00015100287364593653 0.00015704773008200462 0.00015468666024783342 0.00014856002547135636 0.00015099784708172358
          0.00012640915986507532 0.0001318215380796672 0.00012641301200916715 0.0001318260626997196 0.00012642134530149366 0.0001318398208302224
          0.00017168576792829803 0.00017168429977238188 0.000171674603276578 0.00014643920480517483 0.0001526036149121514 0.00014644055454319916
          0.0001526040060918604 0.0001464409945568012 0.00015260142044926602 0.00015603366659300887 0.00016210481852598887 0.00015603570843056443
          0.00016210532906344282 0.00015603779032340406 0.00016210796022659126 0.00013501965740385266 0.00013502139459536821 0.00013502294077472597
          0.00013772025395709922 0.00013772296611233874 0.00013772531973238507 0.0001710004813573961 0.00017099696193525126 0.00017098443792366012
          0.00010487182898305856 0.00010516286758040373 0.00010487540670903349 0.00010516611686871852 0.00010488366753876846 0.00010517462407971277
          0.00016594338125856331 0.00016594378952643053 0.00016594106909311493 0.00018142489336404384 0.000184955043863659 0.00017442990159896842
          0.00018141423954637695 0.00018494532663301743 0.00017442489600700054 0.00018138466394874826 0.00018491302293725795 0.00017441025994383103
          0.00016621372384822711 0.00016621419134514958 0.00016621053119578408 0.00013290583670146696 0.0001388624233254579 0.00013639499267226123
          0.00013291035555869346 0.00013886540562580086 0.00013639971220413184 0.00013292281376148194 0.00013887562412156422 0.00013641343956437342
          0.00016302276740122576 0.00016302235054701584 0.00016301576534862172 0.0001466784216550157 0.0001466807461431801 0.0001466824421261267
          0.00019936183002388985 0.00019935493533921567 0.00019933450019904675 0.00012707736510246382 0.0001270826220377959 0.00012709292931112988
          0.0001427289343581699 0.00014491356062505597 0.00014273218698844105 0.00014491592772732329 0.00014273698477984114 0.00014491694684759084
          0.00017606231555422153 0.0001760564159252772 0.00017603607379093768 0.00010479467337925886 0.00010938141145731387 0.00010479875266006059
          0.00010938605357176245 0.00010480715897610347 0.00010939650451245867 0.0001405730613862677 0.0001367633922896873 0.00014057747438334597
          0.00013676944623681976 0.00014058312003390185 0.00013678281860351433 0.00017017095310276376 0.00017256089612339266 0.00017016881237546621
          0.00017255700946075149 0.000170158335316028 0.0001725414009132055 0.0001918238530989937 0.00018532428506481258 0.00019181616282614347
          0.00018531478572090534 0.00019179422132810739 0.00018528609100317846 0.00017278751997428676 0.00017468535014668866 0.00018036005829646888
          0.00017278680584856788 0.00017468262744904577 0.00018035696061100017 0.00017277887733862827 0.0001746732943713787 0.0001803461085516917
          0.00017903875610888757 0.00017903180623865783 0.00017900668042139737 0.00018587174860778332 0.00018586772926697332 0.0001858532019471307
          0.00016889749549414953 0.00016889749443471267 0.0001688905876602991 0.0001987333225599613 0.00019872607767914852 0.00019870224426954427
          0.00019631206490201988 0.0002011290943138352 0.00019916692564431743 0.00019630447903093033 0.000201121778283206 0.00019915910469031127
          0.00019628010657406152 0.00020110112835918873 0.00019913454570804883 0.00019119230350631223 0.00019118696129703707 0.0001911648236036346
          0.0001856756927747208 0.00018566623294303936 0.00018562739484000106 0.0001897771391044768 0.0001959238937437221 0.00018976950498877414
          0.00019591962322937996 0.00018974584163444208 0.00019590725044877017 0.00020564548241036677 0.00020564184080148782 0.00020562562048419093
          0.0001977148188289383 0.00019770933329605085 0.0001976903317026582 0.00021240705164646563 0.00021239575591549685 0.0002123472600850763
          0.0002098985481601214 0.00020988162250792198 0.00020984083517332116 0.00021350804388684433 0.00021348576535071547 0.00021339190721681502
          0.0002160561054438932 0.0002160481986025372 0.00021603154468644167 0.00022273067858221256 0.0002230643519151319 0.0002227282040160239
          0.00022306407271773933 0.00022272048327460204 0.00022306134362048494 0.00022780837562630027 0.00022809187775695898 0.00022780402201861072
          0.00022808625096437906 0.00022779114251126727 0.00022806972924650573 0.00023101976575277624 0.00023109347418722717 0.0002310175223722889
          0.0002310915855252713 0.00023101056839347996 0.00023108576323965113 0.00022112609448494093 0.00022112250754997557 0.00022111138862407852
          0.00022701215807659477 0.0002270075623985279 0.00022699328524880972 0.00023078124959500235 0.0002307782959790749 0.00023076964903113136
          0.00021875267178259557 0.00021874962090135013 0.00021874032090594254 0.00022551831582965352 0.00022551399100488747 0.00022550119934268772
          0.00023021385508909735 0.00023021020019306702 0.00023019903236176268 0.00021574469620702413 0.00021574219620064394 0.00021573446146805358
          0.00022336388467101507 0.00022336022138018011 0.00022334905916186103 0.0002290937988337347 0.00022908995866141585 0.0002290784040882454
          0.00022054913862439105 0.00022054602112041207 0.00022053660743052338 0.00022732786323116717 0.00022732456432962545 0.00022731446625221118
          0.00021701954027037712 0.00021701750846317473 0.00021701143413514455 0.00022487101495784003 0.00022486842857305682 0.00022486066312649554
          0.0002128984472491961 0.00021289722370023122 0.00021289381632710294 0.00022180626830429727 0.00022180442400319313 0.00022179864099587521
          0.00020839742350270069 0.00020839622130008868 0.00020839269812589586 0.00021818021863462454 0.00021817964930531157 0.00021817774705164004
          0.0002034642187117947 0.00020346356188932085 0.0002034614563396798 0.00021409980653730446 0.0002141004763868945 0.00021410229099689878
          0.0002330352038442372 0.00023299986855001664 0.00023303516212537886 0.00023300006903175262 0.00023303504903185625 0.00023300068637901103
          0.00023310899973506076 0.00023310830249480816 0.00023310619356603423 0.00023314072761251392 0.00023313883154935688 0.0002331330996738789
          0.00023289849629292916 0.0002328955808838118 0.0002328867645655026 0.00023226531037413782 0.0002322616125158968 0.00023225048986753378
          0.00017930143033592028 0.00017052458138018404 0.00017929499284661033 0.00017051878902989655 0.00017927347341573722 0.00017050112559966968
          0.00020239748395843728 0.00019552338547763228 0.00019942196893546759 0.0002023946471298136 0.00019551905580144006 0.0001994176731101698
          0.00020238555604601793 0.0001955057454686049 0.0001994037166883893 0.00015241030960777595 0.00015240959541275886 0.00015240661245804864
          0.00016125517871849634 0.00016125176934743185 0.00016123938220490898 0.00019010746440551108 0.0001901023008997322 0.00019008780369735012
          0.0002121345165872988 0.00021213250902393945 0.00021212659882967628 0.00020801084979129038 0.0002080089025531983 0.00020800280455253673
          0.000203286913073632 0.00020328536586719376 0.00020328028742787368 0.00019799559381154127 0.0001979942305940617 0.00019798962415646024
          0.00019228010379620383 0.00019227961542313612 0.00019227797929196463 0.0002349446710434722 0.00023489139131755435 0.00023494487618739947
          0.000234891617601991 0.0002349455175850833 0.00023489230488705297 0.00023503177556675334 0.00023503197215160747 0.0002350326295108248
          0.00023515892179921832 0.00023515892640609275 0.00023515901598198402 0.00023540260269762215 0.0002354014771375824 0.0002353980520146698
          0.00023558907983952106 0.00023558649840981616 0.00023557873610406416 0.0002311178697263656 0.000231113977034111 0.00023110230914442632
          0.00023556144683361388 0.0002355574375745222 0.00023554560907296056 0.00022942749024581043 0.00022942390177366616 0.00022941329830424557
          0.00022723903816161827 0.00022723575360472458 0.0002272258824585533 0.0002246976258384345 0.00022469507270254192 0.00022468781552494602
        </DataArray>
        <DataArray type="Float64" Name="disp_y" format="ascii" RangeMin="-0.000035816555132654455" RangeMax="0">
          -0.000007621965505475703 -0.00000886146872014476 -0.000007301039056255725 -0.000005735013535293341 -0.000007620320655674604 -0.000008860281381462543
          -0.000007300899933177962 -0.0000057337863932738315 -0.000007615579402882638 -0.000008854960754296898 -0.000007299226384853637 -0.000005730553217485343
          -0.000009234901541826146 -0.000008136110619883445 -0.0000059898190848147085 -0.000006787594560604392 -0.000009236148801033235 -0.000008137197012153905
          -0.00000599039572293139 -0.000006788328395855202 -0.000009239963667916807 -0.00000814065687438241 -0.000005992613179317182 -0.000006791365863193162
          -0.000007678544325599592 -0.0000061824975467118455 -0.000004299736043056439 -0.000003448423713469616 -0.000007681812391448793 -0.0000061847059739311795
          -0.000004301992064193462 -0.0000034463855046799456 -0.00000769507744439421 -0.000006186745209378494 -0.000004307910500399057 -0.0000034396580358915862
          -0.000020252816002251706 -0.000018685382175888448 -0.000020842376735459867 -0.000022644445628979845 -0.000020250591502406562 -0.000018683550123499716
          -0.000020842052049268278 -0.000022643007214667347 -0.000020243346012512654 -0.000018678326166948864 -0.00002083969133352334 -0.000022638940176299314
          -0.0000025644556213328404 -0.000005223128605524886 -0.000005116179474904478 -0.0000025029938565604213 -0.000002564031217449372 -0.000005222731772211012
          -0.000005115664911396752 -0.000002503088458680748 -0.000002563345806836216 -0.000005221050460917073 -0.000005115252503329964 -0.0000025017908186839963
          -0.000009151969159547372 -0.000010293985582530615 -0.000013406970221157196 -0.000011451218827605261 -0.000009151088048319877 -0.000010293166808969948
          -0.000013405838195500544 -0.000011449769389012915 -0.000009147371640059073 -0.000010290887407847146 -0.000013402044989826615 -0.000011446358873782606
          -0.000010180477436049277 -0.000012914884254531293 -0.000011730835234613502 -0.000010181197305736515 -0.000012916268039330716 -0.000011732426778838222
          -0.000010184607541441649 -0.000012920968245188967 -0.000011736284408163252 -0.000011488728096662625 -0.000014214374634588667 -0.00001148820994330036
          -0.000014213492352773658 -0.00001148728673536351 -0.000014210339043238044 -0.000012531377741280047 -0.00001088502226313221 -0.000008021432450269643
          -0.000008001720036420097 -0.00001253298439103973 -0.000010884514553530057 -0.000008022415715434115 -0.000008003125691971411 -0.000012537196399137437
          -0.000010880709723835446 -0.000008026686044759595 -0.000008007265546034893 -0.00001703733997803708 -0.000018836713245626223 -0.000017036470144073592
          -0.00001883629340404284 -0.000017033308400022982 -0.000018834403393821303 -0.000012834563955831115 -0.00001544634223329566 -0.000012834911064145495
          -0.000015446048553781317 -0.00001283578315922781 -0.000015445366181922182 -0.000004202944854477249 -0.0000020557413948128082 -0.000002070163840533581
          -0.0000042036231441725745 -0.000002056149279166125 -0.000002071792299414774 -0.000004204981214036628 -0.000002059593667031184 -0.0000020817792369907247
          -0.00001007072055082822 -0.000008022249576058698 -0.000010069007852760483 -0.000008020607957498248 -0.000010064005249508765 -0.000008016463754894378
          -0.00002512118077848923 -0.0000241140899366581 -0.000020991413718848093 -0.000021918271924945803 -0.00002512376395502958 -0.00002411582456413455
          -0.00002099295570678539 -0.00002192081358258927 -0.000025131139379518114 -0.000024121434526047134 -0.000020997914562928586 -0.000021928011085564694
          -0.000010960533950980253 -0.000007445974008201782 -0.000007946821320319825 -0.000010961447403932948 -0.000007447078231550019 -0.000007947161771120112
          -0.000010964150741679788 -0.000007449386627377599 -0.000007947309118961983 -0.00002374114280290182 -0.000023740152643033643 -0.000023737897756120095
          -0.000022539782677623357 -0.000027839650164913588 -0.000025044811268157768 -0.00002254091691957581 -0.000027841817571887415 -0.000025046067208262342
          -0.000022545101567340847 -0.000027847938077092052 -0.00002504932276843661 -0.00001154339130300275 -0.000015103432966246842 -0.000014003795698690203
          -0.00001154360651084905 -0.00001510444819254355 -0.000014005510477880523 -0.000011544882522256162 -0.000015108110896213202 -0.000014010694644099653
          -0.000012075479662039304 -0.00001070479131068815 -0.00000897516022632718 -0.000012073725510826449 -0.0000107027846444013 -0.00000897332655609719
          -0.00001206811277750286 -0.000010696884729420837 -0.000008968312360544166 -0.000006863460537242788 -0.000004822108594054326 -0.000006861967417449183
          -0.000004821386164040512 -0.0000068584779887582595 -0.000004817971189308966 -0.000028550837394758403 -0.00002516565354423727 -0.0000285550951436504
          -0.000025169446856408605 -0.0000285670501310029 -0.00002518170421508566 -0.000008278003429677652 -0.000008279569659369164 -0.000008283347733164971
          -0.0000051707270285208834 -0.0000047516733427941246 -0.00000517189591325339 -0.00000475248789508023 -0.000005178108359354214 -0.000004758288846460111
          -0.000016816948692066212 -0.000014263764780722282 -0.00001681785878055542 -0.000014264517152196567 -0.000016820159177099573 -0.000014267403979424598
          -0.000010373440725380568 -0.000010374716126758934 -0.000010377789391552344 -0.0000022296680178843396 -0.000002387888115897318 -0.000004896953049793632
          -0.000004489889878871332 -0.000002229430810791878 -0.000002387868909626164 -0.000004896945147766823 -0.000004489065123812296 -0.0000022284602479022343
          -0.000002387995266540494 -0.000004896516852267448 -0.0000044873151588682566 -0.000014701920206148872 -0.000014701053657572089 -0.000014698410556655083
          -0.00001086659478324523 -0.00001390235177500198 -0.000010865276580888655 -0.000013901465220845706 -0.000010861298577154718 -0.000013899047695403993
          -0.00000927787920219495 -0.000008346316051573499 -0.000009275958771558763 -0.000008344721296530921 -0.00000927043029564202 -0.000008340314396046836
          -0.000008052673111185574 -0.000008052342193269924 -0.00000805083457781215 -0.000021784074820893815 -0.0000256321282202657 -0.000021787149321784263
          -0.00002563528995033646 -0.000021798983836354155 -0.00002564452188881537 -0.00002852653050466384 -0.00002863165404567908 -0.00003097447848404125
          -0.00003199910455589905 -0.000028528958651575432 -0.000028634429126659456 -0.00003097813266683247 -0.0000320020370197744 -0.000028535781382060787
          -0.0000286411919859993 -0.000030990807654525744 -0.0000320105793699756 -0.00000791939011372206 -0.00000998953803170882 -0.000007919231397408006
          -0.000009989008653825476 -0.000007916898551748376 -0.000009990083665696711 -0.000004103557833755941 -0.000002280805102499846 -0.000002306376621554945
          -0.000005314550415331603 -0.000004104581431455973 -0.0000022808949071853794 -0.0000023067731398144355 -0.000005316978313953686 -0.000004109315931175176
          -0.000002277262162316876 -0.0000023073327401110457 -0.000005324049475065969 -0.000020552223971131066 -0.000020552175160313546 -0.000020551784003026694
          -0.000006062660897413544 -0.000006793941676731464 -0.000006061662783595793 -0.000006793272202597431 -0.000006058480734877924 -0.000006790317102855247
          -0.00003213737886056856 -0.00003580281907993967 -0.00003213948092005574 -0.00003580644550361508 -0.000032145798689590415 -0.000035816555132654455
          -0.00003205042769751919 -0.00003205268852960157 -0.00003205931707469876 -0.00001799963718624777 -0.000016659188297887683 -0.000017999787299296298
          -0.000016658767042098585 -0.000017999264734979244 -0.000016656648470705198 -0.000015203236892828594 -0.000015810969577908025 -0.000015201752406545321
          -0.000015810391180544838 -0.000015196704233237396 -0.000015807069000516146 -0.000022053652693446644 -0.000024855409579014515 -0.000022053987355190673
          -0.000024854924595069377 -0.00002205511506458157 -0.000024853885228903466 -0.0000287507718171078 -0.000028752253561717638 -0.00002875792231895004
          -0.00000832558660702434 -0.000007161579259347918 -0.000008325298990186776 -0.000007162005160199761 -0.000008324937214145028 -0.000007162158153556931
          -0.00002851390073789323 -0.00002581452377291543 -0.0000285146663457804 -0.000025814504788544908 -0.000028516624625094265 -0.000025815114565752443
          -0.000015417582779722428 -0.000013523486369864116 -0.000016865890920848877 -0.000015415300733512014 -0.000013521554131698436 -0.000016864533212652935
          -0.000015408549964442777 -0.000013516002109618289 -0.000016859038773603874 -0.000014058465774065642 -0.000014056133775306498 -0.000014048244549623854
          -0.000007568619872178182 -0.000005065073442226723 -0.000007568030889625226 -0.0000050650194477946394 -0.000007565879937065825 -0.00000506480085548096
          -0.00001824440401673721 -0.000015582550466631574 -0.00001824525545889262 -0.00001558372740580532 -0.000018248669524423917 -0.00001558782141943539
          -0.000007058331675727046 -0.000008983701112308274 -0.000007059479532552592 -0.000008985705118828785 -0.000007062762760553766 -0.000008990311513013817
          -0.000006656189874783228 -0.000005512866533259928 -0.000006654806924281794 -0.000005511628775458662 -0.0000066514177272146144 -0.0000055078707958263555
          -0.00001478889200570139 -0.000012465356874733775 -0.000016349722476294535 -0.000014787480138029146 -0.000012462952247759122 -0.000016347942078793063
          -0.000014783062208882918 -0.000012455060517087396 -0.000016341013163027195 -0.00001171352183150436 -0.000011712373594486797 -0.000011707538198046928
          -0.000004875803527865755 -0.0000048761706882656435 -0.0000048758210922044295 -0.000018976117607367427 -0.00001897395129252846 -0.000018967630613249323
          -0.00001058290429553957 -0.000010580505538462026 -0.000010573695486692826 -0.00001941775181424552 -0.00001941833825438274 -0.000019419790149511492
          -0.000004282127502301819 -0.0000042809971874001115 -0.000004277589642742282 -0.000009473624146840735 -0.00000947270345662393 -0.0000094683053519433
          -0.0000174154787997549 -0.000017412910049943083 -0.000017405223618460233 0 -0.0000032878826336046794 0
          -0.0000032866921659924173 0 -0.000003283162387977202 0 -0.000002462615722306479 0
          -0.000002461939331192359 0 -0.0000024608615281320806 -0.000005828885004470319 -0.0000058281987496476625 -0.000005829734053641193
          0 -0.000002164089421923287 0 -0.0000021633268989541962 0 -0.000002160583801799604
          -0.000010310473675186773 -0.000007143498391182549 -0.000010311750216683908 -0.000007142216221919343 -0.000010314693809687499 -0.000007138641791915394
          -0.0000114438783053402 -0.00001144737265634918 -0.000011458935135647126 -0.000009981570662051745 -0.0000099804917010828 -0.00000997570402922286
          -0.0000023343299176257166 -0.0000025039132329709196 -0.0000023350944638776026 -0.00000250431625747627 -0.0000023339424447970534 -0.000002502918426457581
          0 0 0 0 0 0
          -0.000018083796195408638 -0.00001808167611731462 -0.000018073693497686297 -0.000019656996926630884 -0.000019654648938241853 -0.00001964688773789345
          -0.000026557222762303158 -0.000026558508496837616 -0.000026560363601054735 -0.0000020801138859969502 0 -0.0000020795250635660032
          0 -0.0000020774252367348374 0 -0.000016862389856683495 -0.00001686426510642089 -0.000016869322624245184
          0 -0.000002372877688842565 -0.00000218920447701052 0 0 -0.0000023729195133754805
          -0.00000218905053670144 0 0 -0.000002372541270158633 -0.0000021894913016322657 0
          -0.000002438383370027186 -0.000002285958102420456 -0.0000024383374942467126 -0.00000228543687661772 -0.000002439874011285664 -0.0000022851792742807873
          -0.00000522497924667207 -0.000005224493628410489 -0.0000052233757396471 -0.000004449849714437333 -0.0000048431870663148955 -0.000004450445527318821
          -0.000004843662349336919 -0.000004451905963455595 -0.000004844371413046753 -0.000018050844707432167 -0.000019052850357992094 -0.000018052529342524775
          -0.000019054878432601284 -0.000018057803859690018 -0.000019060074776474154 -0.00002340733950263369 -0.000023407944658952734 -0.000023410335812735832
          -0.000020895817724888954 -0.000020896882064433817 -0.000020899444425457032 -0.000013612648039681366 -0.00001361250761335496 -0.000013611310207644701
          -0.0000020557142185925167 0 -0.000002055032789301346 0 -0.0000020525396140537715 0
          -0.00001636585672425902 -0.00001636698803941368 -0.000016370823851516837 -0.000019833451980422413 -0.000021222432801713262 -0.000022764220237051687
          -0.000019836245291172107 -0.000021224598366882998 -0.000022767359777131705 -0.00001984406930771893 -0.0000212293409869491 -0.000022779146365120294
          -0.00001963340665618795 -0.000019635885255707126 -0.000019642234158591337 0 0 -0.0000019633295601921227
          0 0 -0.000001963965745835395 0 0 -0.000001963855304308172
          0 0 0 -0.000019697076887858207 -0.00001969885329003513 -0.000019703393955212725
          -0.000009961185581980867 -0.00000996361348301272 -0.000009971537697872985 0 0 0
          -0.000002012272801882474 0 -0.000002012207345188113 0 -0.0000020123982173773585 0
          -0.00001552410611820174 -0.00001552471518736092 -0.000015527432320122107 -0.000004055224611294265 -0.000004128841241648961 -0.000004054039918687065
          -0.00000412801644647341 -0.000004050165611812903 -0.000004124780341266806 -0.000003968500663459733 -0.0000035359066711373054 -0.000003968759982815136
          -0.0000035368090915380347 -0.000003969931702975378 -0.000003538603701586547 -0.00001802832855013196 -0.00002021074749816217 -0.000018029733433758852
          -0.000020213231576145136 -0.000018033264744173112 -0.00002022178737621406 -0.000014647747876906773 -0.00001588768353605712 -0.000014652172135121659
          -0.000015890189166498467 -0.000014666780573583185 -0.000015898532729036322 -0.0000025591227370305427 0 0
          -0.0000025588178141715305 0 0 -0.000002559393440915554 0 0
          -0.00001777935061979298 -0.00001778113100759834 -0.000017785582783803427 0 0 0
          0 0 0 -0.000012977588716785646 -0.000012980449572574343 -0.000012990116614974614
          0 0 -0.0000020473312487090264 0 0 -0.00000204878632887292
          0 0 -0.000002050379031467155 0 0 0
          -0.000017890278942175086 -0.000017892465218743886 -0.0000178997927902405 -0.000017803214631660344 -0.000016575141993428686 -0.000017805219358425626
          -0.000016576684832223535 -0.000017811772935176766 -0.00001658129110788833 0 0 0
          -0.00000369055994521095 -0.0000036909373630025117 -0.000003697318207857498 -0.0000015418359649629672 -0.000001541005990677298 -0.0000015372448387097106
          0 0 0 0 0 0
          0 0 0 -0.0000020630721731450886 0 -0.0000020620032304523253
          0 -0.000002058972768224476 0 -0.000001091772961031614 0 -0.000001090940589469603
          0 -0.000001088431339134694 0 -5.288356223595682e-7 0 -5.280035019653099e-7
          0 -5.254409993093476e-7 0 -0.000004369297008370192 -0.0000043670145585242816 -0.00000435990792732862
          -0.000002388565646359974 -0.0000023865994124308392 -0.000002380669283016659 -0.0000011741193580973845 -0.000001172450623013069 -0.0000011674009899706927
          -0.000007076806195457647 -0.000007075544329560864 -0.000007072160279458567 -0.000004075611789718256 -0.000004073245892122506 -0.0000040662170712951485
          -0.0000020725276233559232 -0.0000020701526119521424 -0.0000020629614363543917 -0.000010113432262807974 -0.000010111751924709468 -0.000010106766303395423
          -0.00000621586546130074 -0.000006213596478528406 -0.00000620683657587058 -0.0000033421370846571184 -0.0000033394431124198804 -0.000003331476217589387
          -0.000008793608539573742 -0.000008791661780054385 -0.000008786027416018884 -0.000005050122872309831 -0.0000050471732551681545 -0.0000050383424086241
          -0.000011776957717418919 -0.00001177521659451815 -0.000011770016596334246 -0.0000072574357050441656 -0.0000072544626391884575 -0.000007245681656568749
          -0.000015123292403457362 -0.000015121773966679366 -0.000015117354754738434 -0.000010024681329860227 -0.00001002221433333312 -0.000010015006605851899
          -0.000018870640380940293 -0.000018868747092061226 -0.000018863147633743005 -0.000013368771788156579 -0.00001336613453230535 -0.000013358543685166542
          -0.000022919525904246365 -0.00002291672169150953 -0.000022908198146144056 -0.000017186465243608173 -0.000017182889901569005 -0.000017172517844419812
          -3.694504367264114e-7 0 -3.692445129086148e-7 0 -3.6864464995689553e-7 0
          -7.546138859264292e-7 -7.541741332695045e-7 -7.529207341318189e-7 -0.0000011792496687011322 -0.000001177880476259703 -0.0000011737608376804409
          -0.0000017775409436154274 -0.0000017750442644198183 -0.0000017674642380522586 -0.000002700416180036274 -0.0000026973149470199846 -0.000002688056237008801
          -0.000027137351991567127 -0.000031025532586180515 -0.000027141322533935713 -0.000031030215206682186 -0.00002715430600797507 -0.000031045936098547586
          -0.000018703465776915146 -0.000021851906028211946 -0.000017916932011477647 -0.000018702266725324337 -0.000021851428974047515 -0.000017916561268882258
          -0.00001869895518677497 -0.000021849538320461616 -0.00001791572817136799 -0.000035562908442086634 -0.000035566509128120466 -0.00003557868619579292
          -0.00003474482009906937 -0.000034749243005985555 -0.00003476148604121624 -0.000021726197289519135 -0.000021726852468978344 -0.00002172883309277977
          -0.000013460534656719254 -0.000013459314834867902 -0.000013455606932830692 -0.00001708849041031584 -0.00001708768926096187 -0.000017085382190510024
          -0.000020918167574392956 -0.000020916810339132002 -0.000020913022327606216 -0.000025023322977523928 -0.000025021494137618525 -0.000025015994186212634
          -0.000029425997048514196 -0.000029424134093640788 -0.000029419189314958486 -3.5154950606795073e-7 0 -3.515653837543273e-7
          0 -3.5159845769578194e-7 0 -6.909902772600364e-7 -6.9111482147279e-7 -6.915513266711504e-7
          -0.0000010037011450175084 -0.0000010035491549132692 -0.0000010031592777332287 -0.0000013183623928545314 -0.0000013173732357709798 -0.0000013143879615910705
          -0.0000017363744442267842 -0.0000017343212527895773 -0.0000017281250714456827 -0.000004078505991888652 -0.000004075145553209319 -0.0000040649178963148315
          -0.000002431524634945423 -0.0000024285395926862565 -0.0000024194184939030313 -0.00000602577277275277 -0.0000060226761553051055 -0.000006013440214696011
          -0.000008683320844082782 -0.000008679359923872613 -0.000008667319981274535 -0.000012067372113025636 -0.000012061242960216316 -0.000012043008197519665
        </DataArray>
        <DataArray type="Float64" Name="disp_z" format="ascii" RangeMin="-0.000001786970384215054" RangeMax="0">
          0 0 0 0 -7.058720411177487e-7 -7.169704327538305e-7
          -7.166863764122145e-7 -6.98580767898295e-7 -0.0000014133419999982284 -0.0000014363132046770416 -0.0000014360691687418542 -0.0000013995445120854703
          0 0 0 0 -8.699683117952835e-7 -8.548439742535713e-7
          -8.756630823126005e-7 -8.860209875916049e-7 -0.0000017391504445177303 -0.0000017085325252953296 -0.000001749432226612073 -0.0000017708600610621831
          0 0 0 0 -5.253084540645157e-7 -5.967431158480717e-7
          -5.337197866012911e-7 -3.278006936234283e-7 -0.0000010504037645521296 -0.0000011910948463520962 -0.000001067488577359281 -6.569732569335909e-7
          0 0 0 0 -7.934450355278889e-7 -7.885922395090337e-7
          -8.0317434020051e-7 -8.06563742193946e-7 -0.0000015866280679943003 -0.000001577594355313983 -0.0000016056493749121436 -0.0000016133599625118507
          0 0 0 0 -8.580601717509702e-7 -8.643132999941061e-7
          -8.804567672593267e-7 -8.733439115482187e-7 -0.000001716405793569744 -0.0000017285705901030514 -0.0000017599140616854895 -0.000001746401346481685
          0 0 0 0 -7.659625621883264e-7 -7.874132565981212e-7
          -7.86709243598951e-7 -7.601355953758422e-7 -0.000001531593238261632 -0.0000015747096891168205 -0.0000015730738867540856 -0.0000015203851601418075
          0 0 0 -8.79141652300072e-7 -8.642901111591833e-7 -8.574020552389623e-7
          -0.0000017575884041152649 -0.0000017281558595832183 -0.0000017139917870119567 0 0 -7.993606556828836e-7
          -8.038990364733594e-7 -0.0000015994484864923311 -0.0000016078212234047575 0 0 0
          0 -7.65495128313697e-7 -8.183174786812908e-7 -7.960678984298551e-7 -7.68791775019582e-7 -0.0000015305876680810275
          -0.0000016362288603661776 -0.0000015930609192346358 -0.0000015367779154381543 0 0 -7.934802414699696e-7
          -8.058145770065297e-7 -0.0000015867707523549233 -0.0000016114820459299534 0 0 -8.18912860413666e-7
          -8.167001736952316e-7 -0.0000016385586711673872 -0.0000016337251445067195 0 0 0
          -6.266409773286971e-7 -5.935069375743312e-7 -5.197452747091317e-7 -0.0000012516571311836734 -0.0000011879064521950158 -0.000001035558369418391
          0 0 -7.366950576700069e-7 -7.369977375348861e-7 -0.000001474024668045787 -0.0000014745452570172951
          0 0 0 0 -8.17490155352304e-7 -8.216303952775057e-7
          -8.368046298463313e-7 -8.345832510702003e-7 -0.0000016345584773211623 -0.0000016430874595696372 -0.0000016735376076926482 -0.0000016688536604464563
          0 0 0 -8.824434498327949e-7 -8.864469003262278e-7 -8.80427332571642e-7
          -0.0000017642433634193673 -0.0000017723985294918892 -0.0000017601575461092766 0 -8.135281765874375e-7 -0.000001628224772688448
          0 0 0 -8.255163981543882e-7 -8.014656796622597e-7 -8.163882211548467e-7
          -0.0000016508185847236675 -0.000001603079448633364 -0.000001632200236685109 0 0 0
          -8.735757019436608e-7 -8.696995377371317e-7 -8.666816159162656e-7 -0.000001746011695123788 -0.000001738803933607797 -0.0000017330796935562054
          0 0 0 -7.35903003914051e-7 -7.206157825912949e-7 -7.177905472924573e-7
          -0.0000014728495164071126 -0.0000014423733803405324 -0.0000014366072494720376 0 0 -7.047401048695162e-7
          -6.998271417192314e-7 -0.0000014108242468224973 -0.0000014009641215796621 0 0 -7.438645026323896e-7
          -7.162414365795431e-7 -0.0000014864553376434216 -0.0000014309605605314577 0 -7.81839341566665e-7 -0.0000015623891309558354
          0 0 -8.214890455749641e-7 -8.068299034166505e-7 -0.000001642410662288178 -0.000001611260060655078
          0 0 -8.278530787846467e-7 -8.40450673527129e-7 -0.0000016556861592187437 -0.0000016804854361713223
          0 -8.387933139555509e-7 -0.0000016772409609660944 0 0 0
          0 -7.621588022951466e-7 -7.891301545357134e-7 -7.872289918578864e-7 -7.632716965983517e-7 -0.0000015241731715558841
          -0.000001577947048933647 -0.0000015747913412031301 -0.0000015262063325371624 0 -4.0042878550753545e-7 -8.010017451327725e-7
          0 0 -3.815373370824453e-7 -4.742799048200379e-7 -7.634074798236094e-7 -9.488350732786423e-7
          0 0 -7.136424136949676e-7 -7.095224675507431e-7 -0.0000014291033696637302 -0.0000014203055486775355
          0 -8.768335504215883e-7 -0.0000017522385201417583 0 0 -8.392831098316814e-7
          -7.948228230882364e-7 -0.0000016770686988048013 -0.0000015889750307827002 0 0 0
          0 -7.950514649764361e-7 -8.01021914977385e-7 -7.686042739844634e-7 -7.750712664633773e-7 -0.0000015899034982607752
          -0.0000016004486876358819 -0.000001535723911413298 -0.0000015491311898066833 0 0 -8.569514995539995e-7
          -8.636431415983833e-7 -0.000001712980011691137 -0.0000017259020549929705 0 0 0
          0 -8.035186181938178e-7 -7.642439016418943e-7 -7.127074346409697e-7 -7.234945063068572e-7 -0.0000016039502752242585
          -0.000001526968964342224 -0.000001424972513705034 -0.0000014469497311624048 0 -8.134980481501665e-7 -0.000001626978015110095
          0 0 -7.419043175255493e-7 -7.619466059676188e-7 -0.0000014838593532360085 -0.0000015238484962089347
          0 0 -7.763391451462218e-7 -7.534170835060899e-7 -0.0000015532525188846238 -0.0000015073205639183784
          0 -7.848005543426235e-7 -0.0000015703053186783523 0 0 -8.136751231674273e-7
          -8.068271596168514e-7 -0.0000016273379335582802 -0.0000016129775383154964 0 0 -7.754663865640279e-7
          -8.019957427456084e-7 -0.0000015509775803766203 -0.0000016036535116054556 0 0 -8.135225127422553e-7
          -8.145498788287689e-7 -0.0000016272461631265521 -0.0000016297302210353438 0 -8.074356688868539e-7 -0.0000016146806492570158
          0 0 -8.117355846937635e-7 -8.384180019149247e-7 -0.000001623724647328005 -0.0000016764320108089421
          0 0 -8.128619414272357e-7 -8.10409640067042e-7 -0.0000016254961397912347 -0.000001620245455533332
          0 0 0 -7.582885148195363e-7 -7.531100570016966e-7 -7.723568609279883e-7
          -0.0000015172921954389162 -0.0000015069775600024963 -0.000001545011570994873 0 -7.429693589764516e-7 -0.0000014865679223167617
          0 0 -7.84746664487594e-7 -8.03328018164161e-7 -0.000001569851356697807 -0.0000016076626555052217
          0 0 -8.355849554651752e-7 -8.498769541590634e-7 -0.0000016712138647924756 -0.0000016992420282986697
          0 0 -6.370330163091851e-7 -7.219018385056613e-7 -0.0000012739126201430622 -0.0000014434853055044718
          0 0 -7.143554624089092e-7 -7.236551597653571e-7 -0.0000014296759929528877 -0.0000014479406768574558
          0 0 0 -7.523444083601356e-7 -7.302731490331769e-7 -7.583607663546843e-7
          -0.00000150442186395701 -0.0000014614299806365745 -0.0000015169425980241796 0 -7.432663078216055e-7 -0.0000014866107058681802
          0 -8.375663068525111e-7 -0.0000016751637311807491 0 -7.75443561124145e-7 -0.0000015506040815998337
          0 -7.209826194253757e-7 -0.0000014433879934517087 0 -8.213097829251475e-7 -0.0000016429336088844707
          0 -7.066961777872414e-7 -0.000001414316887345237 0 -7.531282088700793e-7 -0.0000015056898336892365
          0 -7.657872376946252e-7 -0.0000015320400385168844 0 0 -6.899819133825564e-7
          -7.014181566991581e-7 -0.0000013829050459240317 -0.000001404987260191371 0 0 -6.982129513674354e-7
          -6.869895813787319e-7 -0.0000013973405368824815 -0.0000013759097538846719 0 -7.502112448681614e-7 -0.0000014994848729740483
          0 0 -6.916755641585481e-7 -6.979101665057393e-7 -0.0000013846626499817787 -0.0000013967545970682366
          0 0 -4.5150052326289163e-7 -3.507131150914213e-7 -9.051450835026052e-7 -7.018430422481412e-7
          0 -6.791717263080399e-7 -0.000001357693452939379 0 -7.357992445554521e-7 -0.0000014723590200300573
          0 0 -8.100475181767044e-7 -8.240189689045592e-7 -0.000001617602404965034 -0.0000016465400797851962
          0 0 -7.661779085006434e-7 -7.933723167321926e-7 -0.0000015323191036899169 -0.0000015865881003563523
          0 -7.727450762007959e-7 -0.0000015461363607783389 0 -7.848956230046013e-7 -0.0000015692009790747723
          0 -8.172087446761964e-7 -0.0000016343767768010863 0 0 -7.343778069309049e-7
          -7.350696949041371e-7 -0.0000014693686507776826 -0.000001470817256425286 0 -8.51526026232449e-7 -0.000001702941149712504
          0 0 0 0 -8.778519099776893e-7 -8.865392046794835e-7
          -8.928529140047991e-7 -8.899091661916577e-7 -0.0000017557947463313442 -0.0000017725483163465027 -0.0000017844541755663458 -0.0000017787036990749965
          0 0 -8.105297501322319e-7 -8.289776490977568e-7 -0.0000016217396383467785 -0.0000016588039856484984
          0 -8.391223015620084e-7 -0.0000016785277289819084 0 0 -8.881460767669025e-7
          -8.882069126380832e-7 -0.0000017750399090047423 -0.0000017753666215014695 0 0 -8.50682554114032e-7
          -8.534133920365624e-7 -0.0000017014427046323904 -0.0000017058762021954413 0 -8.194520368377447e-7 -0.0000016394264822344929
          0 -8.258188073186645e-7 -0.0000016513189663245482 0 -8.617439303892959e-7 -0.0000017210175798168892
          0 0 -7.106161782145476e-7 -7.068701483110909e-7 -0.000001422294539262893 -0.000001415361451422068
          0 -8.65060712266553e-7 -0.0000017282684738560339 0 0 0
          -7.427318510743508e-7 -6.476946931710733e-7 -7.730916686811638e-7 -0.0000014832648146338236 -0.0000012962445904366785 -0.0000015445212371267236
          0 -8.629892896071867e-7 -0.0000017235506843549053 0 0 0
          -8.417738523092241e-7 -8.811027936565869e-7 -8.668768435361634e-7 -0.0000016832891255682902 -0.0000017611787762506803 -0.000001732445203525522
          0 -8.6315214661147e-7 -0.0000017266948437088043 0 -8.388450037415656e-7 -0.0000016775227617568177
          0 -6.047457698029844e-7 -0.0000012077703125865313 0 -8.17389553646156e-7 -0.0000016348360577674676
          0 0 -8.896855626457795e-7 -8.943583359658209e-7 -0.0000017776465651780753 -0.000001786970384215054
          0 -8.255667104588878e-7 -0.0000016499509546524746 0 0 -7.167503464207203e-7
          -7.385844363109108e-7 -0.0000014344041517860261 -0.0000014773036652694072 0 0 -8.850151487605409e-7
          -8.751367554522796e-7 -0.000001767966360597404 -0.0000017491939579748605 0 0 -8.505116934494302e-7
          -8.233489559004988e-7 -0.0000016977733715395534 -0.000001644254862352571 0 0 -6.383500065411922e-7
          -7.085744444265e-7 -0.000001277994887208761 -0.000001417173057420209 0 0 0
          -8.421580809068749e-7 -8.333924571736338e-7 -8.07988381724137e-7 -0.0000016848608844601116 -0.000001666107856055798 -0.0000016158215772303577
          0 -7.801348546577118e-7 -0.0000015584630249268435 0 -7.839988565222475e-7 -0.0000015673042011406182
          0 -8.505776809154349e-7 -0.0000017008658675440135 0 -5.616390076256841e-7 -0.0000011225543379118984
          0 0 0 -6.853438405222098e-7 -6.355261034176128e-7 -6.832804730174015e-7
          -0.0000013701757669076121 -0.000001271384637162089 -0.0000013655162166377407 0 -7.429874507831623e-7 -0.0000014864146855864887
          0 -6.749804547270971e-7 -0.0000013511130527801792 0 0 -5.893366442453739e-7
          -5.335374992982685e-7 -0.0000011812693146507122 -0.0000010675384439605144 0 -5.977034077876025e-7 -0.0000011954428884917324
          0 -6.738155545047092e-7 -0.0000013480492707791704 0 -5.284014263572845e-7 -0.0000010588016717354018
          0 -5.582610757667206e-7 -0.0000011037703778578582 0 -4.0911806114358443e-7 -8.24277941248145e-7
          0 -2.399454836525696e-7 -4.830526088018094e-7 0 0 -2.4468467619459895e-7
          -2.652513904154741e-7 -4.898980519851266e-7 -5.304018724048155e-7 0 0 -1.5983473622544515e-7
          -1.5211688525175878e-7 -3.19664956370396e-7 -3.040416431756906e-7 0 0 -7.808277538350314e-8
          -6.882837019085461e-8 -1.5674424440465498e-7 -1.3839576458430716e-7 0 -2.981597294361782e-7 -5.961499695922717e-7
          0 -1.880197966284374e-7 -3.76187524939794e-7 0 -1.0157063879427766e-7 -2.0355116445166728e-7
          0 -3.212947981041142e-7 -6.423632397739927e-7 0 -2.32124353906988e-7 -4.641370491885281e-7
          0 -1.434161871419253e-7 -2.8723183258611095e-7 0 -3.52193072849073e-7 -7.044784814612768e-7
          0 -2.763809569822412e-7 -5.525411572867433e-7 0 -1.9223972866068774e-7 -3.8466986447919703e-7
          0 -3.184941027099347e-7 -6.368273785230745e-7 0 -2.4657138562311975e-7 -4.931485606688841e-7
          0 -3.503317885481434e-7 -7.004624201420441e-7 0 -3.0508953301152673e-7 -6.099883745500266e-7
          0 -3.856713269219263e-7 -7.712772066267403e-7 0 -3.575334391470118e-7 -7.148409816768312e-7
          0 -4.1173685389955833e-7 -8.234872481129582e-7 0 -4.003098736053012e-7 -8.006680177740687e-7
          0 -4.607015654912036e-7 -9.216485600452053e-7 0 -4.610064143617631e-7 -9.219997458976841e-7
          0 0 -5.52499712194024e-8 -5.2872537664260126e-8 -1.106206781467021e-7 -1.0580313585488642e-7
          0 -6.055192400950334e-8 -1.2129962101699316e-7 0 -7.519846412397792e-8 -1.50741880140464e-7
          0 -1.149718768080405e-7 -2.303459105865321e-7 0 -1.6974343141941632e-7 -3.396503074532688e-7
          0 0 -6.248328684787265e-7 -6.735557357061532e-7 -0.0000012502047054224267 -0.0000013467347765572883
          0 0 0 -4.201873777908095e-7 -4.935979310955891e-7 -4.747334168700773e-7
          -8.406836177397395e-7 -9.871783331755704e-7 -9.494424053364758e-7 0 -7.409323766620684e-7 -0.0000014816476100203595
          0 -7.099919310569435e-7 -0.0000014191615063429334 0 -5.432416827459596e-7 -0.0000010870977226188312
          0 -3.7969332045325475e-7 -7.592485140481563e-7 0 -4.002047669797577e-7 -8.004318323539181e-7
          0 -4.148561106669508e-7 -8.297725718887419e-7 0 -4.495136035479575e-7 -8.989969148391627e-7
          0 -4.821792802279457e-7 -9.643378608213083e-7 0 0 -6.234992400947056e-8
          -6.272041178718073e-8 -1.246860102149776e-7 -1.2547045933167062e-7 0 -6.154349454307062e-8 -1.2314253033390253e-7
          0 -5.8876108013441075e-8 -1.1790153109492042e-7 0 -6.983482346502425e-8 -1.3994002928342024e-7
          0 -9.811357791045436e-8 -1.9662631201041334e-7 0 -2.3252767775765434e-7 -4.64852458444779e-7
          0 -1.4977451558416455e-7 -2.998961301708352e-7 0 -2.9811924814009893e-7 -5.959983251114624e-7
          0 -3.582863406568019e-7 -7.163407457346441e-7 0 -4.6234426994290143e-7 -9.244847877890982e-7
        </DataArray>
      </PointData>
      <CellData>
        <DataArray type="Int32" Name="libmesh_elem_id" format="ascii" RangeMin="1386" RangeMax="3465">
          1386 1387 1390 1391 1394 1395
          1400 1401 1406 1407 1410 1411
          1420 1421 1424 1425 1426 1427
          1432 1433 1436 1437 1444 1445
          1446 1447 1450 1451 1462 1463
          1466 1467 1474 1475 1498 1499
          1504 1505 1508 1509 1514 1515
          1524 1525 1526 1527 1530 1531
          1540 1541 1550 1551 1552 1553
          1554 1555 1578 1579 1588 1589
          1592 1593 1594 1595 1596 1597
          1598 1599 1600 1601 1606 1607
          1662 1663 1698 1699 1702 1703
          1712 1713 1726 1727 1730 1731
          1734 1735 1748 1749 1752 1753
          1774 1775 1778 1779 1834 1835
          1854 1855 1872 1873 1892 1893
          1894 1895 1896 1897 1902 1903
          1914 1915 1920 1921 1922 1923
          1932 1933 1942 1943 1944 1945
          1988 1989 2000 2001 2010 2011
          2024 2025 2070 2071 2100 2101
          2112 2113 2132 2133 2140 2141
          2150 2151 2166 2167 2206 2207
          2218 2219 2238 2239 2242 2243
          2244 2245 2256 2257 2258 2259
          2268 2269 2278 2279 2284 2285
          2306 2307 2334 2335 2340 2341
          2360 2361 2372 2373 2392 2393
          2396 2397 2398 2399 2418 2419
          2422 2423 2426 2427 2432 2433
          2434 2435 2436 2437 2476 2477
          2480 2481 2482 2483 2518 2519
          2534 2535 2540 2541 2542 2543
          2546 2547 2556 2557 2562 2563
          2568 2569 2574 2575 2584 2585
          2588 2589 2598 2599 2612 2613
          2638 2639 2656 2657 2664 2665
          2678 2679 2682 2683 2702 2703
          2704 2705 2708 2709 2720 2721
          2724 2725 2734 2735 2738 2739
          2742 2743 2746 2747 2774 2775
          2788 2789 2790 2791 2804 2805
          2806 2807 2834 2835 2840 2841
          2844 2845 2850 2851 2854 2855
          2858 2859 2872 2873 2888 2889
          2892 2893 2896 2897 2908 2909
          2912 2913 2916 2917 2918 2919
          2924 2925 2932 2933 2944 2945
          2972 2973 2984 2985 2996 2997
          3000 3001 3002 3003 3022 3023
          3024 3025 3030 3031 3032 3033
          3044 3045 3048 3049 3080 3081
          3092 3093 3108 3109 3120 3121
          3130 3131 3136 3137 3140 3141
          3142 3143 3146 3147 3150 3151
          3160 3161 3162 3163 3164 3165
          3170 3171 3172 3173 3174 3175
          3178 3179 3186 3187 3188 3189
          3198 3199 3216 3217 3218 3219
          3228 3229 3232 3233 3238 3239
          3242 3243 3246 3247 3250 3251
          3256 3257 3260 3261 3262 3263
          3266 3267 3268 3269 3270 3271
          3272 3273 3274 3275 3276 3277
          3278 3279 3280 3281 3282 3283
          3284 3285 3286 3287 3288 3289
          3290 3291 3292 3293 3294 3295
          3298 3299 3300 3301 3304 3305
          3306 3307 3310 3311 3312 3313
          3316 3317 3318 3319 3320 3321
          3322 3323 3338 3339 3340 3341
          3356 3357 3358 3359 3374 3375
          3376 3377 3392 3393 3394 3395
          3410 3411 3412 3413 3428 3429
          3446 3447 3464 3465
        </DataArray>
        <DataArray type="Int32" Name="subdomain_id" format="ascii" RangeMin="107" RangeMax="109">
          107 107 107 107 107 107
          107 107 107 107 107 107
          107 107 107 107 107 107
          107 107 107 107 107 107
          107 107 107 107 107 107
          107 107 107 107 107 107
          107 107 107 107 107 107
          107 107 107 107 107 107
          107 107 107 107 107 107
          107 107 107 107 107 107
          107 107 107 107 107 107
          107 107 107 107 107 107
          107 107 107 107 107 107
          107 107 107 107 107 107
          107 107 107 107 107 107
          107 107 107 107 107 107
          107 107 107 107 107 107
          107 107 107 107 107 107
          107 107 107 107 107 107
          107 107 107 107 107 107
          107 107 107 107 107 107
          107 107 107 107 107 107
          107 107 107 107 107 107
          107 107 107 107 107 107
          107 107 107 107 107 107
          107 107 107 107 107 107
          107 107 107 107 107 107
          107 107 107 107 107 107
          107 107 107 107 107 107
          107 107 107 107 107 107
          107 107 107 107 107 107
          107 107 107 107 107 107
          107 107 107 107 107 107
          107 107 107 107 107 107
          107 107 107 107 107 107
          107 107 107 107 107 107
          107 107 107 107 107 107
          107 107 107 107 107 107
          107 107 107 107 107 107
          107 107 107 107 107 107
          107 107 107 107 107 107
          107 107 107 107 107 107
          107 107 107 107 107 107
          107 107 107 107 107 107
          107 107 107 107 107 107
          107 107 107 107 107 107
          107 107 107 107 107 107
          107 107 107 107 107 107
          107 107 107 107 107 107
          107 107 107 107 107 107
          107 107 107 107 107 107
          107 107 107 107 107 107
          107 107 107 107 107 107
          107 107 107 107 107 107
          107 107 107 107 107 107
          107 107 107 107 107 107
          107 107 107 107 107 107
          107 107 107 107 107 107
          107 107 107 107 107 107
          107 107 107 107 107 107
          107 107 107 107 107 107
          107 107 107 107 107 107
          107 107 107 107 107 107
          108 108 108 108 108 108
          108 108 108 108 108 108
          108 108 108 108 108 108
          108 108 108 108 108 108
          108 108 108 108 108 108
          108 108 108 108 108 108
          108 108 108 108 108 108
          108 108 108 108 109 109
          109 109 109 109 109 109
          109 109 109 109 109 109
          109 109 109 109 109 109
          109 109 109 109 109 109
          109 109 109 109
        </DataArray>
        <DataArray type="Int32" Name="processor_id" format="ascii" RangeMin="1" RangeMax="1">
          1 1 1 1 1 1
          1 1 1 1 1 1
          1 1 1 1 1 1
          1 1 1 1 1 1
          1 1 1 1 1 1
          1 1 1 1 1 1
          1 1 1 1 1 1
          1 1 1 1 1 1
          1 1 1 1 1 1
          1 1 1 1 1 1
          1 1 1 1 1 1
          1 1 1 1 1 1
          1 1 1 1 1 1
          1 1 1 1 1 1
          1 1 1 1 1 1
          1 1 1 1 1 1
          1 1 1 1 1 1
          1 1 1 1 1 1
          1 1 1 1 1 1
          1 1 1 1 1 1
          1 1 1 1 1 1
          1 1 1 1 1 1
          1 1 1 1 1 1
          1 1 1 1 1 1
          1 1 1 1 1 1
          1 1 1 1 1 1
          1 1 1 1 1 1
          1 1 1 1 1 1
          1 1 1 1 1 1
          1 1 1 1 1 1
          1 1 1 1 1 1
          1 1 1 1 1 1
          1 1 1 1 1 1
          1 1 1 1 1 1
          1 1 1 1 1 1
          1 1 1 1 1 1
          1 1 1 1 1 1
          1 1 1 1 1 1
          1 1 1 1 1 1
          1 1 1 1 1 1
          1 1 1 1 1 1
          1 1 1 1 1 1
          1 1 1 1 1 1
          1 1 1 1 1 1
          1 1 1 1 1 1
          1 1 1 1 1 1
          1 1 1 1 1 1
          1 1 1 1 1 1
          1 1 1 1 1 1
          1 1 1 1 1 1
          1 1 1 1 1 1
          1 1 1 1 1 1
          1 1 1 1 1 1
          1 1 1 1 1 1
          1 1 1 1 1 1
          1 1 1 1 1 1
          1 1 1 1 1 1
          1 1 1 1 1 1
          1 1 1 1 1 1
          1 1 1 1 1 1
          1 1 1 1 1 1
          1 1 1 1 1 1
          1 1 1 1 1 1
          1 1 1 1 1 1
          1 1 1 1 1 1
          1 1 1 1 1 1
          1 1 1 1 1 1
          1 1 1 1 1 1
          1 1 1 1 1 1
          1 1 1 1 1 1
          1 1 1 1 1 1
          1 1 1 1 1 1
          1 1 1 1 1 1
          1 1 1 1 1 1
          1 1 1 1 1 1
          1 1 1 1
        </DataArray>
      </CellData>
      <Points>
        <DataArray type="Float64" Name="Points" NumberOfComponents="3" format="ascii" RangeMin="0.011720201602553146" RangeMax="0.03445906060790294">
          0.012969222910182 0.0014853020742274 0 0.012627852011276 0.0016898182928561 0
          0.01236786906931 0.0013587217336166 0 0.012783325134333 0.0011067100297067 0
          0.012969222910182 0.0014853020742274 0.00015 0.012627852011276 0.0016898182928561 0.00015
          0.01236786906931 0.0013587217336166 0.00015 0.012783325134333 0.0011067100297067 0.00015
          0.012969222910182 0.0014853020742274 0.0003 0.012627852011276 0.0016898182928561 0.0003
          0.01236786906931 0.0013587217336166 0.0003 0.012783325134333 0.0011067100297067 0.0003
          0.017563073004652 0.0017425656775748 0 0.017044554764736 0.0015497457581888 0
          0.017260149731535 0.0011385367421141 0 0.017760141546291 0.0012815461285561 0
          0.017563073004652 0.0017425656775748 0.00015 0.017044554764736 0.0015497457581888 0.00015
          0.017260149731535 0.0011385367421141 0.00015 0.017760141546291 0.0012815461285561 0.00015
          0.017563073004652 0.0017425656775748 0.0003 0.017044554764736 0.0015497457581888 0.0003
          0.017260149731535 0.0011385367421141 0.0003 0.017760141546291 0.0012815461285561 0.0003
          0.023776898874178 0.0022456328082928 0 0.023504823460796 0.0016933718681226 0
          0.023764932341086 0.0012053538973125 0 0.025 0.0014444444444417 0
          0.023776898874178 0.0022456328082928 0.00015 0.023504823460796 0.0016933718681226 0.00015
          0.023764932341086 0.0012053538973125 0.00015 0.025 0.0014444444444417 0.00015
          0.023776898874178 0.0022456328082928 0.0003 0.023504823460796 0.0016933718681226 0.0003
          0.023764932341086 0.0012053538973125 0.0003 0.025 0.0014444444444417 0.0003
          0.014128459199836 0.0039835282877348 0 0.014611363502717 0.0036877867763913 0
          0.015005639561329 0.0040763460944633 0 0.014554004584986 0.0044253882271801 0
          0.014128459199836 0.0039835282877348 0.00015 0.014611363502717 0.0036877867763913 0.00015
          0.015005639561329 0.0040763460944633 0.00015 0.014554004584986 0.0044253882271801 0.00015
          0.014128459199836 0.0039835282877348 0.0003 0.014611363502717 0.0036877867763913 0.0003
          0.015005639561329 0.0040763460944633 0.0003 0.014554004584986 0.0044253882271801 0.0003
          0.019696280766899 0.00050763342021358 0 0.019550033943553 0.0010320458815065 0
          0.01900444612813 0.00098950685152215 0 0.019158982336274 0.00048623495360749 0
          0.019696280766899 0.00050763342021358 0.00015 0.019550033943553 0.0010320458815065 0.00015
          0.01900444612813 0.00098950685152215 0.00015 0.019158982336274 0.00048623495360749 0.00015
          0.019696280766899 0.00050763342021358 0.0003 0.019550033943553 0.0010320458815065 0.0003
          0.01900444612813 0.00098950685152215 0.0003 0.019158982336274 0.00048623495360749 0.0003
          0.014859009547347 0.0018414606933245 0 0.015407964407671 0.0020438178723745 0
          0.01515544156871 0.0026588338800995 0 0.014598102610542 0.0022982704245768 0
          0.014859009547347 0.0018414606933245 0.00015 0.015407964407671 0.0020438178723745 0.00015
          0.01515544156871 0.0026588338800995 0.00015 0.014598102610542 0.0022982704245768 0.00015
          0.014859009547347 0.0018414606933245 0.0003 0.015407964407671 0.0020438178723745 0.0003
          0.01515544156871 0.0026588338800995 0.0003 0.014598102610542 0.0022982704245768 0.0003
          0.018126604709057 0.0019215066283495 0 0.017910174904861 0.0024312076221655 0
          0.017342980714859 0.0022157520731189 0 0.018126604709057 0.0019215066283495 0.00015
          0.017910174904861 0.0024312076221655 0.00015 0.017342980714859 0.0022157520731189 0.00015
          0.018126604709057 0.0019215066283495 0.0003 0.017910174904861 0.0024312076221655 0.0003
          0.017342980714859 0.0022157520731189 0.0003 0.015995561521593 0.0022418351865966 0
          0.01581460170494 0.0027743126456578 0 0.015995561521593 0.0022418351865966 0.00015
          0.01581460170494 0.0027743126456578 0.00015 0.015995561521593 0.0022418351865966 0.0003
          0.01581460170494 0.0027743126456578 0.0003 0.021203243478062 0.0026574159093233 0
          0.020454986610371 0.0022211941162512 0 0.020632218270446 0.001642443645643 0
          0.021442904813338 0.0016925342242502 0 0.021203243478062 0.0026574159093233 0.00015
          0.020454986610371 0.0022211941162512 0.00015 0.020632218270446 0.001642443645643 0.00015
          0.021442904813338 0.0016925342242502 0.00015 0.021203243478062 0.0026574159093233 0.0003
          0.020454986610371 0.0022211941162512 0.0003 0.020632218270446 0.001642443645643 0.0003
          0.021442904813338 0.0016925342242502 0.0003 0.015000171033694 0.0033600360828681 0
          0.015396645228865 0.0036775895732469 0 0.015000171033694 0.0033600360828681 0.00015
          0.015396645228865 0.0036775895732469 0.00015 0.015000171033694 0.0033600360828681 0.0003
          0.015396645228865 0.0036775895732469 0.0003 0.016564676280502 0.0024636417082771 0
          0.016363912484153 0.0029730068966809 0 0.016564676280502 0.0024636417082771 0.00015
          0.016363912484153 0.0029730068966809 0.00015 0.016564676280502 0.0024636417082771 0.0003
          0.016363912484153 0.0029730068966809 0.0003 0.023072410624366 0.001035238244058 0
          0.023303887517976 0.00051385162283572 0 0.023907474886085 0.00057797945625648 0
          0.023072410624366 0.001035238244058 0.00015 0.023303887517976 0.00051385162283572 0.00015
          0.023907474886085 0.00057797945625648 0.00015 0.023072410624366 0.001035238244058 0.0003
          0.023303887517976 0.00051385162283572 0.0003 0.023907474886085 0.00057797945625648 0.0003
          0.014126846853415 0.0020250855845452 0 0.014376196219822 0.0016213258676016 0
          0.014126846853415 0.0020250855845452 0.00015 0.014376196219822 0.0016213258676016 0.00015
          0.014126846853415 0.0020250855845452 0.0003 0.014376196219822 0.0016213258676016 0.0003
          0.018981322625637 0.0048047339747308 0 0.018357141436072 0.0045551651420339 0
          0.018591751365599 0.0039752866369835 0 0.01916753543825 0.0042045163914746 0
          0.018981322625637 0.0048047339747308 0.00015 0.018357141436072 0.0045551651420339 0.00015
          0.018591751365599 0.0039752866369835 0.00015 0.01916753543825 0.0042045163914746 0.00015
          0.018981322625637 0.0048047339747308 0.0003 0.018357141436072 0.0045551651420339 0.0003
          0.018591751365599 0.0039752866369835 0.0003 0.01916753543825 0.0042045163914746 0.0003
          0.018733892370512 0.0020905204418308 0 0.018302277235643 0.001411928503633 0
          0.018878430913296 0.0015272195647153 0 0.018733892370512 0.0020905204418308 0.00015
          0.018302277235643 0.001411928503633 0.00015 0.018878430913296 0.0015272195647153 0.00015
          0.018733892370512 0.0020905204418308 0.0003 0.018302277235643 0.001411928503633 0.0003
          0.018878430913296 0.0015272195647153 0.0003 0.015535554193674 0.0045828394817383 0
          0.015535554193674 0.0045828394817383 0.00015 0.015535554193674 0.0045828394817383 0.0003
          0.017780760549951 0.0042442262797048 0 0.018018112537919 0.0052480329433742 0
          0.017497318700769 0.0047182001999379 0 0.017780760549951 0.0042442262797048 0.00015
          0.018018112537919 0.0052480329433742 0.00015 0.017497318700769 0.0047182001999379 0.00015
          0.017780760549951 0.0042442262797048 0.0003 0.018018112537919 0.0052480329433742 0.0003
          0.017497318700769 0.0047182001999379 0.0003 0.019494677591535 0.00226139088066 0
          0.019117853172676 0.0029004952170283 0 0.018505903140776 0.002650294613165 0
          0.019494677591535 0.00226139088066 0.00015 0.019117853172676 0.0029004952170283 0.00015
          0.018505903140776 0.002650294613165 0.00015 0.019494677591535 0.00226139088066 0.0003
          0.019117853172676 0.0029004952170283 0.0003 0.018505903140776 0.002650294613165 0.0003
          0.013829014690192 0.0024142080164891 0 0.013458574547778 0.0021218274131508 0
          0.013711742209243 0.0017918189860839 0 0.013829014690192 0.0024142080164891 0.00015
          0.013458574547778 0.0021218274131508 0.00015 0.013711742209243 0.0017918189860839 0.00015
          0.013829014690192 0.0024142080164891 0.0003 0.013458574547778 0.0021218274131508 0.0003
          0.013711742209243 0.0017918189860839 0.0003 0.0133672983588 0.0013583262253912 0
          0.013268156677071 0.00095273786274694 0 0.0133672983588 0.0013583262253912 0.00015
          0.013268156677071 0.00095273786274694 0.00015 0.0133672983588 0.0013583262253912 0.0003
          0.013268156677071 0.00095273786274694 0.0003 0.020151989638292 0.0057951577471947 0
          0.020929132214341 0.005368110675239 0 0.020151989638292 0.0057951577471947 0.00015
          0.020929132214341 0.005368110675239 0.00015 0.020151989638292 0.0057951577471947 0.0003
          0.020929132214341 0.005368110675239 0.0003 0.011634800364854 0.0014122839921498 0
          0.011634800364854 0.0014122839921498 0.00015 0.011634800364854 0.0014122839921498 0.0003
          0.020690070611507 0.0010537467946972 0 0.021241463234904 0.0010007048777636 0
          0.020690070611507 0.0010537467946972 0.00015 0.021241463234904 0.0010007048777636 0.00015
          0.020690070611507 0.0010537467946972 0.0003 0.021241463234904 0.0010007048777636 0.0003
          0.01690585017332 0.0031962434076044 0 0.017120511962154 0.0027019865785896 0
          0.01690585017332 0.0031962434076044 0.00015 0.017120511962154 0.0027019865785896 0.00015
          0.01690585017332 0.0031962434076044 0.0003 0.017120511962154 0.0027019865785896 0.0003
          0.016801656731456 0.0019822328720047 0 0.016801656731456 0.0019822328720047 0.00015
          0.016801656731456 0.0019822328720047 0.0003 0.015193226280812 0.00045041659473928 0
          0.015698309574236 0.00047366638839958 0 0.015648437383567 0.00097128418016613 0
          0.015127663000402 0.00090574444628299 0 0.015193226280812 0.00045041659473928 0.00015
          0.015698309574236 0.00047366638839958 0.00015 0.015648437383567 0.00097128418016613 0.00015
          0.015127663000402 0.00090574444628299 0.00015 0.015193226280812 0.00045041659473928 0.0003
          0.015698309574236 0.00047366638839958 0.0003 0.015648437383567 0.00097128418016613 0.0003
          0.015127663000402 0.00090574444628299 0.0003 0.025 0.0057777777777625 0
          0.025 0.0057777777777625 0.00015 0.025 0.0057777777777625 0.0003
          0.025 0.0043333333333224 0 0.023896353247243 0.0043894596145303 0
          0.025 0.0043333333333224 0.00015 0.023896353247243 0.0043894596145303 0.00015
          0.025 0.0043333333333224 0.0003 0.023896353247243 0.0043894596145303 0.0003
          0.013179014717582 0.001822526704721 0 0.013420070576712 0.0016525675047962 0
          0.013179014717582 0.001822526704721 0.00015 0.013420070576712 0.0016525675047962 0.00015
          0.013179014717582 0.001822526704721 0.0003 0.013420070576712 0.0016525675047962 0.0003
          0.01946472134525 0.0015844882179861 0 0.01946472134525 0.0015844882179861 0.00015
          0.01946472134525 0.0015844882179861 0.0003 0.019738918970445 0.0042679072806348 0
          0.019737200842686 0.0050366958134185 0 0.019738918970445 0.0042679072806348 0.00015
          0.019737200842686 0.0050366958134185 0.00015 0.019738918970445 0.0042679072806348 0.0003
          0.019737200842686 0.0050366958134185 0.0003 0.018801022408002 0.0054477015438504 0
          0.019301386887175 0.0055580415356932 0 0.019427042946373 0.0060730727381959 0
          0.018733542944404 0.0061279994653871 0 0.018801022408002 0.0054477015438504 0.00015
          0.019301386887175 0.0055580415356932 0.00015 0.019427042946373 0.0060730727381959 0.00015
          0.018733542944404 0.0061279994653871 0.00015 0.018801022408002 0.0054477015438504 0.0003
          0.019301386887175 0.0055580415356932 0.0003 0.019427042946373 0.0060730727381959 0.0003
          0.018733542944404 0.0061279994653871 0.0003 0.020038894590203 0.0015918984718873 0
          0.020014763899096 0.0020069766457038 0 0.020038894590203 0.0015918984718873 0.00015
          0.020014763899096 0.0020069766457038 0.00015 0.020038894590203 0.0015918984718873 0.0003
          0.020014763899096 0.0020069766457038 0.0003 0.02163606673442 0.0008902471917336 0
          0.021744201350165 0.00049421716196859 0 0.022190644598282 0.0005058615377216 0
          0.021944604947084 0.0011684672971015 0 0.02163606673442 0.0008902471917336 0.00015
          0.021744201350165 0.00049421716196859 0.00015 0.022190644598282 0.0005058615377216 0.00015
          0.021944604947084 0.0011684672971015 0.00015 0.02163606673442 0.0008902471917336 0.0003
          0.021744201350165 0.00049421716196859 0.0003 0.022190644598282 0.0005058615377216 0.0003
          0.021944604947084 0.0011684672971015 0.0003 0.015913060403389 0.0039637658470315 0
          0.015913060403389 0.0039637658470315 0.00015 0.015913060403389 0.0039637658470315 0.0003
          0.014558693053864 0.0012292895498017 0 0.015031644896308 0.0013689537442351 0
          0.014558693053864 0.0012292895498017 0.00015 0.015031644896308 0.0013689537442351 0.00015
          0.014558693053864 0.0012292895498017 0.0003 0.015031644896308 0.0013689537442351 0.0003
          0.018057579772584 0.0060827128421873 0 0.018070157245618 0.0068021820766994 0
          0.018057579772584 0.0060827128421873 0.00015 0.018070157245618 0.0068021820766994 0.00015
          0.018057579772584 0.0060827128421873 0.0003 0.018070157245618 0.0068021820766994 0.0003
          0.017413401850906 0.0060417176080878 0 0.017413401850906 0.0060417176080878 0.00015
          0.017413401850906 0.0060417176080878 0.0003 0.016169389215855 0.0034677229039223 0
          0.015655980876909 0.003250339095381 0 0.016169389215855 0.0034677229039223 0.00015
          0.015655980876909 0.003250339095381 0.00015 0.016169389215855 0.0034677229039223 0.0003
          0.015655980876909 0.003250339095381 0.0003 0.014652329158707 0.0030238496825634 0
          0.015285307382498 0.0031101507370722 0 0.014652329158707 0.0030238496825634 0.00015
          0.015285307382498 0.0031101507370722 0.00015 0.014652329158707 0.0030238496825634 0.0003
          0.015285307382498 0.0031101507370722 0.0003 0.016487808895433 0.0042010147125967 0
          0.016291762387835 0.0047307906783276 0 0.016487808895433 0.0042010147125967 0.00015
          0.016291762387835 0.0047307906783276 0.00015 0.016487808895433 0.0042010147125967 0.0003
          0.016291762387835 0.0047307906783276 0.0003 0.017341722495578 0.0054175123203669 0
          0.017341722495578 0.0054175123203669 0.00015 0.017341722495578 0.0054175123203669 0.0003
          0.016251164393845 0.0016133033435965 0 0.016687160352932 0.001374608348519 0
          0.016251164393845 0.0016133033435965 0.00015 0.016687160352932 0.001374608348519 0.00015
          0.016251164393845 0.0016133033435965 0.0003 0.016687160352932 0.001374608348519 0.0003
          0.01678493258985 0.0053840721103251 0 0.016848637368385 0.0048798435935376 0
          0.01678493258985 0.0053840721103251 0.00015 0.016848637368385 0.0048798435935376 0.00015
          0.01678493258985 0.0053840721103251 0.0003 0.016848637368385 0.0048798435935376 0.0003
          0.013915703094631 0.0030656560250288 0 0.01425441565673 0.0027053116394345 0
          0.014277331184122 0.0033493109511997 0 0.013915703094631 0.0030656560250288 0.00015
          0.01425441565673 0.0027053116394345 0.00015 0.014277331184122 0.0033493109511997 0.00015
          0.013915703094631 0.0030656560250288 0.0003 0.01425441565673 0.0027053116394345 0.0003
          0.014277331184122 0.0033493109511997 0.0003 0.013503308513005 0.0027817056572273 0
          0.013503308513005 0.0027817056572273 0.00015 0.013503308513005 0.0027817056572273 0.0003
          0.015571407447371 0.001500509245043 0 0.016188320748251 0.0009824473909215 0
          0.015571407447371 0.001500509245043 0.00015 0.016188320748251 0.0009824473909215 0.00015
          0.015571407447371 0.001500509245043 0.0003 0.016188320748251 0.0009824473909215 0.0003
          0.017456683820944 0.0034405145363726 0 0.017671289470578 0.0029336357035204 0
          0.017456683820944 0.0034405145363726 0.00015 0.017671289470578 0.0029336357035204 0.00015
          0.017456683820944 0.0034405145363726 0.0003 0.017671289470578 0.0029336357035204 0.0003
          0.022716879195272 0.001694170750475 0 0.022069698771397 0.0020298487038736 0
          0.022716879195272 0.001694170750475 0.00015 0.022069698771397 0.0020298487038736 0.00015
          0.022716879195272 0.001694170750475 0.0003 0.022069698771397 0.0020298487038736 0.0003
          0.013893710777701 0.0013389894450257 0 0.014229820502632 0.0011148528015907 0
          0.013893710777701 0.0013389894450257 0.00015 0.014229820502632 0.0011148528015907 0.00015
          0.013893710777701 0.0013389894450257 0.0003 0.014229820502632 0.0011148528015907 0.0003
          0.012674188674928 0.0028095410694266 0 0.013119330518162 0.0024349279719224 0
          0.013248150362312 0.0031919567697963 0 0.012674188674928 0.0028095410694266 0.00015
          0.013119330518162 0.0024349279719224 0.00015 0.013248150362312 0.0031919567697963 0.00015
          0.012674188674928 0.0028095410694266 0.0003 0.013119330518162 0.0024349279719224 0.0003
          0.013248150362312 0.0031919567697963 0.0003 0.012451479243686 0.0021914486022899 0
          0.012451479243686 0.0021914486022899 0.00015 0.012451479243686 0.0021914486022899 0.0003
          0.016782084774574 0.00093367828557597 0 0.016782084774574 0.00093367828557597 0.00015
          0.016782084774574 0.00093367828557597 0.0003 0.013121586466294 0.0036708577033715 0
          0.013121586466294 0.0036708577033715 0.00015 0.013121586466294 0.0036708577033715 0.0003
          0.012837862818801 0.0020433604618052 0 0.012837862818801 0.0020433604618052 0.00015
          0.012837862818801 0.0020433604618052 0.0003 0.016706746155521 0.0036970402910047 0
          0.016706746155521 0.0036970402910047 0.00015 0.016706746155521 0.0036970402910047 0.0003
          0.013749164985008 0.00086088989331873 0 0.013749164985008 0.00086088989331873 0.00015
          0.013749164985008 0.00086088989331873 0.0003 0.012096711335481 0.0017058387426491 0
          0.012096711335481 0.0017058387426491 0.00015 0.012096711335481 0.0017058387426491 0.0003
          0.013693266362936 0.0034326845509566 0 0.013693266362936 0.0034326845509566 0.00015
          0.013693266362936 0.0034326845509566 0.0003 0.012692307692288 0 0
          0.012542896420733 0.00061304595643839 0 0.012692307692288 0 0.00015
          0.012542896420733 0.00061304595643839 0.00015 0.012692307692288 0 0.0003
          0.012542896420733 0.00061304595643839 0.0003 0.013205128205107 0 0
          0.013181655749567 0.00048421972568225 0 0.013205128205107 0 0.00015
          0.013181655749567 0.00048421972568225 0.00015 0.013205128205107 0 0.0003
          0.013181655749567 0.00048421972568225 0.0003 0.012087580163866 0.0010424427844857 0
          0.012087580163866 0.0010424427844857 0.00015 0.012087580163866 0.0010424427844857 0.0003
          0.013717948717925 0 0 0.013709151553936 0.00043508888993868 0
          0.013717948717925 0 0.00015 0.013709151553936 0.00043508888993868 0.00015
          0.013717948717925 0 0.0003 0.013709151553936 0.00043508888993868 0.0003
          0.023934294716764 0.0032087575652495 0 0.025 0.0028888888888822 0
          0.023934294716764 0.0032087575652495 0.00015 0.025 0.0028888888888822 0.00015
          0.023934294716764 0.0032087575652495 0.0003 0.025 0.0028888888888822 0.0003
          0.022119784948444 0.002618759724243 0 0.022119784948444 0.002618759724243 0.00015
          0.022119784948444 0.002618759724243 0.0003 0.012384518900215 0.0018567382086698 0
          0.012384518900215 0.0018567382086698 0.00015 0.012384518900215 0.0018567382086698 0.0003
          0.021279978971931 0.00049482730399591 0 0.020757556768826 0.00050973095909409 0
          0.021279978971931 0.00049482730399591 0.00015 0.020757556768826 0.00050973095909409 0.00015
          0.021279978971931 0.00049482730399591 0.0003 0.020757556768826 0.00050973095909409 0.0003
          0.015256410256382 0 0 0.015769230769205 0 0
          0.015256410256382 0 0.00015 0.015769230769205 0 0.00015
          0.015256410256382 0 0.0003 0.015769230769205 0 0.0003
          0.014025581742285 0.0035717972510793 0 0.014025581742285 0.0035717972510793 0.00015
          0.014025581742285 0.0035717972510793 0.0003 0.013590285783394 0.0038446716816234 0
          0.013590285783394 0.0038446716816234 0.00015 0.013590285783394 0.0038446716816234 0.0003
          0.017243082343815 0.0050067004105205 0 0.017243082343815 0.0050067004105205 0.00015
          0.017243082343815 0.0050067004105205 0.0003 0.014691316585943 0.00042340821879555 0
          0.014743589743561 0 0 0.014691316585943 0.00042340821879555 0.00015
          0.014743589743561 0 0.00015 0.014691316585943 0.00042340821879555 0.0003
          0.014743589743561 0 0.0003 0.018245486290569 0.0031782516753476 0
          0.018245486290569 0.0031782516753476 0.00015 0.018245486290569 0.0031782516753476 0.0003
          0.018846153846135 0 0 0.018644197304734 0.00045373129675669 0
          0.01812656348281 0.00041497632726255 0 0.018333333333313 0 0
          0.018846153846135 0 0.00015 0.018644197304734 0.00045373129675669 0.00015
          0.01812656348281 0.00041497632726255 0.00015 0.018333333333313 0 0.00015
          0.018846153846135 0 0.0003 0.018644197304734 0.00045373129675669 0.0003
          0.01812656348281 0.00041497632726255 0.0003 0.018333333333313 0 0.0003
          0.016222123693441 0.00047331176344161 0 0.016700854199337 0.00043557402690065 0
          0.016222123693441 0.00047331176344161 0.00015 0.016700854199337 0.00043557402690065 0.00015
          0.016222123693441 0.00047331176344161 0.0003 0.016700854199337 0.00043557402690065 0.0003
          0.020119253581834 0.0010505613075795 0 0.020119253581834 0.0010505613075795 0.00015
          0.020119253581834 0.0010505613075795 0.0003 0.017948162073368 0.00084248305268282 0
          0.018468108748109 0.00092264731154686 0 0.017948162073368 0.00084248305268282 0.00015
          0.018468108748109 0.00092264731154686 0.00015 0.017948162073368 0.00084248305268282 0.0003
          0.018468108748109 0.00092264731154686 0.0003 0.018823294200687 0.0034327213803771 0
          0.019357958441624 0.0036753812238739 0 0.018823294200687 0.0034327213803771 0.00015
          0.019357958441624 0.0036753812238739 0.00015 0.018823294200687 0.0034327213803771 0.0003
          0.019357958441624 0.0036753812238739 0.0003 0.017020820655581 0.0044256808272369 0
          0.017020820655581 0.0044256808272369 0.00015 0.017020820655581 0.0044256808272369 0.0003
          0.017246333426457 0.0039469397271967 0 0.017246333426457 0.0039469397271967 0.00015
          0.017246333426457 0.0039469397271967 0.0003 0.020078691259254 0.0027314397537426 0
          0.020078691259254 0.0027314397537426 0.00015 0.020078691259254 0.0027314397537426 0.0003
          0.014206101807249 0.00041708713844452 0 0.014230769230743 0 0
          0.014206101807249 0.00041708713844452 0.00015 0.014230769230743 0 0.00015
          0.014206101807249 0.00041708713844452 0.0003 0.014230769230743 0 0.0003
          0.019663480844036 0.0032045589214632 0 0.019663480844036 0.0032045589214632 0.00015
          0.019663480844036 0.0032045589214632 0.0003 0.021168425648455 0.0043064684914555 0
          0.021635594211814 0.0048272474453844 0 0.020555573714582 0.0046911399787169 0
          0.021168425648455 0.0043064684914555 0.00015 0.021635594211814 0.0048272474453844 0.00015
          0.020555573714582 0.0046911399787169 0.00015 0.021168425648455 0.0043064684914555 0.0003
          0.021635594211814 0.0048272474453844 0.0003 0.020555573714582 0.0046911399787169 0.0003
          0.019723975353689 0.0038421555098755 0 0.019723975353689 0.0038421555098755 0.00015
          0.019723975353689 0.0038421555098755 0.0003 0.01679487179485 0 0
          0.017307692307672 0 0 0.017098243235352 0.00037703288126221 0
          0.01679487179485 0 0.00015 0.017307692307672 0 0.00015
          0.017098243235352 0.00037703288126221 0.00015 0.01679487179485 0 0.0003
          0.017307692307672 0 0.0003 0.017098243235352 0.00037703288126221 0.0003
          0.019358974358957 0 0 0.019358974358957 0 0.00015
          0.019358974358957 0 0.0003 0.018021318366412 0.0037089471112668 0
          0.018021318366412 0.0037089471112668 0.00015 0.018021318366412 0.0037089471112668 0.0003
          0.022914230268928 0.0025172233828488 0 0.022914230268928 0.0025172233828488 0.00015
          0.022914230268928 0.0025172233828488 0.0003 0.016282051282027 0 0
          0.016282051282027 0 0.00015 0.016282051282027 0 0.0003
          0.017636327566636 0.00038375181151782 0 0.017820512820494 0 0
          0.017636327566636 0.00038375181151782 0.00015 0.017820512820494 0 0.00015
          0.017636327566636 0.00038375181151782 0.0003 0.017820512820494 0 0.0003
          0.020545307319607 0.0031941956482125 0 0.020545307319607 0.0031941956482125 0.00015
          0.020545307319607 0.0031941956482125 0.0003 0.014207774647908 0.00082121811907846 0
          0.014649951203035 0.00083908958777153 0 0.014207774647908 0.00082121811907846 0.00015
          0.014649951203035 0.00083908958777153 0.00015 0.014207774647908 0.00082121811907846 0.0003
          0.014649951203035 0.00083908958777153 0.0003 0.017453973974276 0.00075538641526017 0
          0.017131504825278 0.00067680946789985 0 0.017453973974276 0.00075538641526017 0.00015
          0.017131504825278 0.00067680946789985 0.00015 0.017453973974276 0.00075538641526017 0.0003
          0.017131504825278 0.00067680946789985 0.0003 0.020049549059284 0.0035870308776452 0
          0.020306231316884 0.0040846257713005 0 0.020049549059284 0.0035870308776452 0.00015
          0.020306231316884 0.0040846257713005 0.00015 0.020049549059284 0.0035870308776452 0.0003
          0.020306231316884 0.0040846257713005 0.0003 0.022163023796879 0.0034061119862663 0
          0.021471654866651 0.0034951402573089 0 0.022163023796879 0.0034061119862663 0.00015
          0.021471654866651 0.0034951402573089 0.00015 0.022163023796879 0.0034061119862663 0.0003
          0.021471654866651 0.0034951402573089 0.0003 0.020216848120139 0.00051365536395203 0
          0.020384615384602 0 0 0.020897435897425 0 0
          0.020216848120139 0.00051365536395203 0.00015 0.020384615384602 0 0.00015
          0.020897435897425 0 0.00015 0.020216848120139 0.00051365536395203 0.0003
          0.020384615384602 0 0.0003 0.020897435897425 0 0.0003
          0.020867240059882 0.0037570922548429 0 0.020867240059882 0.0037570922548429 0.00015
          0.020867240059882 0.0037570922548429 0.0003 0.021410256410247 0 0
          0.021410256410247 0 0.00015 0.021410256410247 0 0.0003
          0.01987179487178 0 0 0.01987179487178 0 0.00015
          0.01987179487178 0 0.0003 0.022975084693504 0.003367305376383 0
          0.022975084693504 0.003367305376383 0.00015 0.022975084693504 0.003367305376383 0.0003
          0.022435897435893 0 0 0.022948717948713 0 0
          0.022737844672879 0.00047743690091317 0 0.022435897435893 0 0.00015
          0.022948717948713 0 0.00015 0.022737844672879 0.00047743690091317 0.00015
          0.022435897435893 0 0.0003 0.022948717948713 0 0.0003
          0.022737844672879 0.00047743690091317 0.0003 0.02192307692307 0 0
          0.02192307692307 0 0.00015 0.02192307692307 0 0.0003
          0.021567010772127 0.0039949981403974 0 0.021567010772127 0.0039949981403974 0.00015
          0.021567010772127 0.0039949981403974 0.0003 0.02205136800235 0.0041574599345453 0
          0.022874799944018 0.0043411431204517 0 0.02205136800235 0.0041574599345453 0.00015
          0.022874799944018 0.0043411431204517 0.00015 0.02205136800235 0.0041574599345453 0.0003
          0.022874799944018 0.0043411431204517 0.0003 0.023461538461532 0 0
          0.023461538461532 0 0.00015 0.023461538461532 0 0.0003
          0.022597273609822 0.0008601076908125 0 0.022597273609822 0.0008601076908125 0.00015
          0.022597273609822 0.0008601076908125 0.0003 0.024392416230449 0.00057909033861659 0
          0.024392416230449 0.00057909033861659 0.00015 0.024392416230449 0.00057909033861659 0.0003
          0.023974358974355 0 0 0.023974358974355 0 0.00015
          0.023974358974355 0 0.0003 0.024487179487177 0 0
          0.024487179487177 0 0.00015 0.024487179487177 0 0.0003
          0.025 0 0 0.025 0 0.00015
          0.025 0 0.0003 0.026666666666664 0.0014444444444417 0
          0.026666666666663 0 0 0.026666666666664 0.0014444444444417 0.00015
          0.026666666666663 0 0.00015 0.026666666666664 0.0014444444444417 0.0003
          0.026666666666663 0 0.0003 0.028333333333331 0.0014444444444417 0
          0.02833333333333 0 0 0.028333333333331 0.0014444444444417 0.00015
          0.02833333333333 0 0.00015 0.028333333333331 0.0014444444444417 0.0003
          0.02833333333333 0 0.0003 0.03 0.0014444444444417 0
          0.03 0 0 0.03 0.0014444444444417 0.00015
          0.03 0 0.00015 0.03 0.0014444444444417 0.0003
          0.03 0 0.0003 0.026666666666665 0.0028888888888822 0
          0.026666666666665 0.0028888888888822 0.00015 0.026666666666665 0.0028888888888822 0.0003
          0.028333333333331 0.0028888888888822 0 0.028333333333331 0.0028888888888822 0.00015
          0.028333333333331 0.0028888888888822 0.0003 0.03 0.0028888888888822 0
          0.03 0.0028888888888822 0.00015 0.03 0.0028888888888822 0.0003
          0.026666666666666 0.0043333333333224 0 0.026666666666666 0.0043333333333224 0.00015
          0.026666666666666 0.0043333333333224 0.0003 0.028333333333332 0.0043333333333224 0
          0.028333333333332 0.0043333333333224 0.00015 0.028333333333332 0.0043333333333224 0.0003
          0.03 0.0043333333333224 0 0.03 0.0043333333333224 0.00015
          0.03 0.0043333333333224 0.0003 0.026666666666666 0.0057777777777625 0
          0.026666666666666 0.0057777777777625 0.00015 0.026666666666666 0.0057777777777625 0.0003
          0.028333333333333 0.0057777777777625 0 0.028333333333333 0.0057777777777625 0.00015
          0.028333333333333 0.0057777777777625 0.0003 0.03 0.0057777777777625 0
          0.03 0.0057777777777625 0.00015 0.03 0.0057777777777625 0.0003
          0.028333333333334 0.0072222222222063 0 0.028333333333334 0.0072222222222063 0.00015
          0.028333333333334 0.0072222222222063 0.0003 0.03 0.0072222222222063 0
          0.03 0.0072222222222063 0.00015 0.03 0.0072222222222063 0.0003
          0.028333333333334 0.0086666666666559 0 0.028333333333334 0.0086666666666559 0.00015
          0.028333333333334 0.0086666666666559 0.0003 0.03 0.0086666666666559 0
          0.03 0.0086666666666559 0.00015 0.03 0.0086666666666559 0.0003
          0.028333333333335 0.010111111111103 0 0.028333333333335 0.010111111111103 0.00015
          0.028333333333335 0.010111111111103 0.0003 0.03 0.010111111111103 0
          0.03 0.010111111111103 0.00015 0.03 0.010111111111103 0.0003
          0.028333333333336 0.011555555555552 0 0.028333333333336 0.011555555555552 0.00015
          0.028333333333336 0.011555555555552 0.0003 0.03 0.011555555555552 0
          0.03 0.011555555555552 0.00015 0.03 0.011555555555552 0.0003
          0.028333333333337 0.013 0 0.028333333333337 0.013 0.00015
          0.028333333333337 0.013 0.0003 0.03 0.013 0
          0.03 0.013 0.00015 0.03 0.013 0.0003
          0.031601181467612 0.0014508094753802 0 0.03158989866902 0 0
          0.031601181467612 0.0014508094753802 0.00015 0.03158989866902 0 0.00015
          0.031601181467612 0.0014508094753802 0.0003 0.03158989866902 0 0.0003
          0.031612464266204 0.0029016189507591 0 0.031612464266204 0.0029016189507591 0.00015
          0.031612464266204 0.0029016189507591 0.0003 0.031623747064796 0.0043524284261377 0
          0.031623747064796 0.0043524284261377 0.00015 0.031623747064796 0.0043524284261377 0.0003
          0.031635029863388 0.0058032379015163 0 0.031635029863388 0.0058032379015163 0.00015
          0.031635029863388 0.0058032379015163 0.0003 0.031646312661979 0.0072540473768985 0
          0.031646312661979 0.0072540473768985 0.00015 0.031646312661979 0.0072540473768985 0.0003
          0.021356284292895 0.0061182113295331 0 0.020489019208248 0.0065103794253073 0
          0.021356284292895 0.0061182113295331 0.00015 0.020489019208248 0.0065103794253073 0.00015
          0.021356284292895 0.0061182113295331 0.0003 0.020489019208248 0.0065103794253073 0.0003
          0.025 0.0072222222222063 0 0.023816654948859 0.0069324696013164 0
          0.023829479378086 0.0056593315311521 0 0.025 0.0072222222222063 0.00015
          0.023816654948859 0.0069324696013164 0.00015 0.023829479378086 0.0056593315311521 0.00015
          0.025 0.0072222222222063 0.0003 0.023816654948859 0.0069324696013164 0.0003
          0.023829479378086 0.0056593315311521 0.0003 0.018734278863615 0.0068564365277259 0
          0.018734278863615 0.0068564365277259 0.00015 0.018734278863615 0.0068564365277259 0.0003
          0.019611341590458 0.0069319215290848 0 0.019611341590458 0.0069319215290848 0.00015
          0.019611341590458 0.0069319215290848 0.0003 0.022477642087048 0.0055533155338694 0
          0.022477642087048 0.0055533155338694 0.00015 0.022477642087048 0.0055533155338694 0.0003
          0.026666666666667 0.0072222222222063 0 0.026666666666667 0.0072222222222063 0.00015
          0.026666666666667 0.0072222222222063 0.0003 0.026666666666668 0.0086666666666559 0
          0.026666666666668 0.0086666666666559 0.00015 0.026666666666668 0.0086666666666559 0.0003
          0.026666666666669 0.010111111111103 0 0.026666666666669 0.010111111111103 0.00015
          0.026666666666669 0.010111111111103 0.0003 0.026666666666669 0.011555555555552 0
          0.026666666666669 0.011555555555552 0.00015 0.026666666666669 0.011555555555552 0.0003
          0.02666666666667 0.013 0 0.02666666666667 0.013 0.00015
          0.02666666666667 0.013 0.0003 0.033201501647561 0.0014698753983525 0
          0.033179797338052 0 0 0.033201501647561 0.0014698753983525 0.00015
          0.033179797338052 0 0.00015 0.033201501647561 0.0014698753983525 0.0003
          0.033179797338052 0 0.0003 0.033223205957069 0.0029397507967035 0
          0.033223205957069 0.0029397507967035 0.00015 0.033223205957069 0.0029397507967035 0.0003
          0.033244910266578 0.0044096261950543 0 0.033244910266578 0.0044096261950543 0.00015
          0.033244910266578 0.0044096261950543 0.0003 0.033266614576087 0.0058795015934051 0
          0.033266614576087 0.0058795015934051 0.00015 0.033266614576087 0.0058795015934051 0.0003
          0.033288318885596 0.0073493769917596 0 0.033288318885596 0.0073493769917596 0.00015
          0.033288318885596 0.0073493769917596 0.0003 0.031657595460571 0.0087048568522863 0
          0.031657595460571 0.0087048568522863 0.00015 0.031657595460571 0.0087048568522863 0.0003
          0.033310023195106 0.0088192523901195 0 0.033310023195106 0.0088192523901195 0.00015
          0.033310023195106 0.0088192523901195 0.0003 0.031668878259163 0.010155666327672 0
          0.031668878259163 0.010155666327672 0.00015 0.031668878259163 0.010155666327672 0.0003
          0.031680161057755 0.011606475803059 0 0.031680161057755 0.011606475803059 0.00015
          0.031680161057755 0.011606475803059 0.0003 0.031691443856347 0.013057285278446 0
          0.031691443856347 0.013057285278446 0.00015 0.031691443856347 0.013057285278446 0.0003
          <InformationKey name="L2_NORM_RANGE" location="vtkDataArray" length="2">
            <Value index="0">
              0.011720201603
            </Value>
            <Value index="1">
              0.034459060608
            </Value>
          </InformationKey>
        </DataArray>
      </Points>
      <Cells>
        <DataArray type="Int64" Name="connectivity" format="ascii" RangeMin="0" RangeMax="797">
          0 1 2 3 4 5
          6 7 4 5 6 7
          8 9 10 11 12 13
          14 15 16 17 18 19
          16 17 18 19 20 21
          22 23 24 25 26 27
          28 29 30 31 28 29
          30 31 32 33 34 35
          36 37 38 39 40 41
          42 43 40 41 42 43
          44 45 46 47 48 49
          50 51 52 53 54 55
          52 53 54 55 56 57
          58 59 60 61 62 63
          64 65 66 67 64 65
          66 67 68 69 70 71
          72 73 74 12 75 76
          77 16 75 76 77 16
          78 79 80 20 61 81
          82 62 65 83 84 66
          65 83 84 66 69 85
          86 70 87 88 89 90
          91 92 93 94 91 92
          93 94 95 96 97 98
          37 99 100 38 41 101
          102 42 41 101 102 42
          45 103 104 46 81 105
          106 82 83 107 108 84
          83 107 108 84 85 109
          110 86 26 111 112 113
          30 114 115 116 30 114
          115 116 34 117 118 119
          63 120 121 60 67 122
          123 64 67 122 123 64
          71 124 125 68 126 127
          128 129 130 131 132 133
          130 131 132 133 134 135
          136 137 138 72 139 140
          141 75 142 143 141 75
          142 143 144 78 145 146
          150 127 151 152 153 131
          154 155 153 131 154 155
          156 135 157 158 159 160
          161 138 162 163 164 141
          162 163 164 141 165 166
          167 144 120 168 169 170
          122 171 172 173 122 171
          172 173 124 174 175 176
          15 139 72 12 19 142
          75 16 19 142 75 16
          23 145 78 20 177 0
          3 178 179 4 7 180
          179 4 7 180 181 8
          11 182 183 184 726 727
          185 186 728 729 185 186
          728 729 187 188 730 731
          192 193 90 89 194 195
          94 93 194 195 94 93
          196 197 98 97 198 106
          105 199 200 108 107 201
          200 108 107 201 202 110
          109 203 204 13 12 74
          205 17 16 77 205 17
          16 77 206 21 20 80
          207 208 209 210 211 212
          213 214 211 212 213 214
          215 216 217 218 732 733
          734 219 735 736 737 220
          735 736 737 220 738 739
          740 221 222 219 734 223
          224 220 737 225 224 220
          737 225 226 221 740 227
          228 229 170 169 230 231
          173 172 230 231 173 172
          232 233 176 175 234 140
          50 49 235 143 54 53
          235 143 54 53 236 146
          58 57 129 237 238 126
          133 239 240 130 133 239
          240 130 137 241 242 134
          243 244 245 246 247 248
          249 250 247 248 249 250
          251 252 253 254 255 256
          159 234 257 258 162 235
          257 258 162 235 259 260
          165 236 261 262 263 264
          265 266 267 268 265 266
          267 268 269 270 271 272
          273 147 38 100 274 148
          42 102 274 148 42 102
          275 149 46 104 121 276
          277 60 123 278 279 64
          123 278 279 64 125 280
          281 68 282 246 741 283
          284 250 742 285 284 250
          742 285 286 254 743 287
          291 292 82 106 293 294
          84 108 293 294 84 108
          295 296 86 110 99 297
          62 298 101 299 66 300
          101 299 66 300 103 301
          70 302 303 304 147 273
          305 306 148 274 305 306
          148 274 307 308 149 275
          105 204 74 199 107 205
          77 201 107 205 77 201
          109 206 80 203 288 309
          151 282 289 310 154 284
          289 310 154 284 290 311
          157 286 312 313 13 204
          314 315 17 205 314 315
          17 205 316 317 21 206
          99 298 292 100 101 300
          294 102 101 300 294 102
          103 302 296 104 292 298
          62 82 294 300 66 84
          294 300 66 84 296 302
          70 86 151 127 126 243
          154 131 130 247 154 131
          130 247 157 135 134 251
          246 282 151 243 250 284
          154 247 250 284 154 247
          254 286 157 251 100 292
          291 273 102 294 293 274
          102 294 293 274 104 296
          295 275 324 325 297 326
          327 328 299 329 327 328
          299 329 330 331 301 332
          325 63 62 297 328 67
          66 299 328 67 66 299
          331 71 70 301 333 168
          325 324 334 171 328 327
          334 171 328 327 335 174
          331 330 168 120 63 325
          171 122 67 328 171 122
          67 328 174 124 71 331
          312 336 209 337 314 338
          213 339 314 338 213 339
          316 340 217 341 88 256
          255 89 92 258 257 93
          92 258 257 93 96 260
          259 97 342 198 199 343
          344 200 201 345 344 200
          201 345 346 202 203 347
          90 264 348 349 94 268
          350 351 94 268 350 351
          98 272 352 353 354 355
          276 121 356 357 278 123
          356 357 278 123 358 359
          280 125 360 361 333 362
          363 364 334 365 363 364
          334 365 366 367 335 368
          336 277 210 209 338 279
          214 213 338 279 214 213
          340 281 218 217 73 72
          138 161 76 75 141 164
          76 75 141 164 79 78
          144 167 372 14 13 313
          373 18 17 315 373 18
          17 315 374 22 21 317
          168 333 361 169 171 334
          364 172 171 334 364 172
          174 335 367 175 378 361
          360 369 379 364 363 370
          379 364 363 370 380 367
          366 371 381 291 106 198
          382 293 108 200 382 293
          108 200 383 295 110 202
          354 177 178 384 356 179
          180 385 356 179 180 385
          358 181 182 386 37 326
          297 99 41 329 299 101
          41 329 299 101 45 332
          301 103 324 390 362 333
          327 391 365 334 327 391
          365 334 330 392 368 335
          394 393 399 400 396 395
          401 402 396 395 401 402
          398 397 403 404 2 387
          189 405 6 388 190 406
          6 388 190 406 10 389
          191 407 400 399 408 409
          402 401 410 411 402 401
          410 411 404 403 412 413
          414 24 27 415 416 28
          31 417 416 28 31 417
          418 32 35 419 420 87
          90 349 421 91 94 351
          421 91 94 351 422 95
          98 353 199 74 73 343
          201 77 76 345 201 77
          76 345 203 80 79 347
          336 61 60 277 338 65
          64 279 338 65 64 279
          340 69 68 281 426 193
          192 427 428 195 194 429
          428 195 194 429 430 197
          196 431 207 432 433 208
          211 434 435 212 211 434
          435 212 215 436 437 216
          326 438 390 324 329 439
          391 327 329 439 391 327
          332 440 392 330 441 375
          362 390 442 376 365 391
          442 376 365 391 443 377
          368 392 381 303 273 291
          382 305 274 293 382 305
          274 293 383 307 275 295
          348 111 26 25 350 114
          30 29 350 114 30 29
          352 117 34 33 319 444
          309 318 321 445 310 320
          321 445 310 320 323 446
          311 322 432 207 447 448
          434 211 449 450 434 211
          449 450 436 215 451 452
          238 244 243 126 240 248
          247 130 240 248 247 130
          242 252 251 134 140 234
          159 138 143 235 162 141
          143 235 162 141 146 236
          165 144 161 453 343 73
          164 454 345 76 164 454
          345 76 167 455 347 79
          456 457 458 459 460 461
          462 463 460 461 462 463
          464 465 466 467 61 336
          312 81 65 338 314 83
          65 338 314 83 69 340
          316 85 81 312 204 105
          83 314 205 107 83 314
          205 107 85 316 206 109
          468 469 372 337 470 471
          373 339 470 471 373 339
          472 473 374 341 468 337
          209 208 470 339 213 212
          470 339 213 212 472 341
          217 216 474 255 234 49
          475 257 235 53 475 257
          235 53 476 259 236 57
          372 313 312 337 373 315
          314 339 373 315 314 339
          374 317 316 341 152 151
          309 444 155 154 310 445
          155 154 310 445 158 157
          311 446 477 478 139 15
          479 480 142 19 479 480
          142 19 481 482 145 23
          483 484 129 128 485 486
          133 132 485 486 133 132
          487 488 137 136 489 319
          304 303 490 321 306 305
          490 321 306 305 491 323
          308 307 744 741 246 245
          745 742 250 249 745 742
          250 249 746 743 254 253
          492 381 198 342 493 382
          200 344 493 382 200 344
          494 383 202 346 88 495
          159 256 92 496 162 258
          92 496 162 258 96 497
          165 260 498 499 448 447
          500 501 450 449 500 501
          450 449 502 503 452 451
          223 414 415 222 225 416
          417 224 225 416 417 224
          227 418 419 226 354 121
          120 170 356 123 122 173
          356 123 122 173 358 125
          124 176 394 3 2 405
          396 7 6 406 396 7
          6 406 398 11 10 407
          453 161 160 483 454 164
          163 485 454 164 163 485
          455 167 166 487 495 504
          160 159 496 505 163 162
          496 505 163 162 497 506
          166 165 492 489 303 381
          493 490 305 382 493 490
          305 382 494 491 307 383
          264 90 193 261 268 94
          195 265 268 94 195 265
          272 98 197 269 507 508
          184 509 510 511 186 512
          510 511 186 512 513 514
          188 515 237 129 484 516
          239 133 486 517 239 133
          486 517 241 137 488 518
          469 519 520 521 471 522
          523 524 471 522 523 524
          473 525 526 527 457 456
          528 51 461 460 529 55
          461 460 529 55 465 464
          530 59 531 342 343 453
          532 344 345 454 532 344
          345 454 533 346 347 455
          238 183 245 244 240 185
          249 248 240 185 249 248
          242 187 253 252 1 378
          369 423 5 379 370 424
          5 379 370 424 9 380
          371 425 504 484 483 160
          505 486 485 163 505 486
          485 163 506 488 487 166
          453 483 128 531 454 485
          132 532 454 485 132 532
          455 487 136 533 747 726
          184 508 748 728 186 511
          748 728 186 511 749 730
          188 514 478 457 51 50
          480 461 55 54 480 461
          55 54 482 465 59 58
          400 409 384 178 402 411
          385 180 402 411 385 180
          404 413 386 182 420 349
          348 534 421 351 350 535
          421 351 350 535 422 353
          352 536 468 537 519 469
          470 538 522 471 470 538
          522 471 472 539 525 473
          509 184 183 238 512 186
          185 240 512 186 185 240
          515 188 187 242 170 229
          177 354 173 231 179 356
          173 231 179 356 176 233
          181 358 499 498 409 408
          501 500 411 410 501 500
          411 410 503 502 413 412
          540 541 459 458 542 543
          463 462 542 543 463 462
          544 545 467 466 87 546
          495 88 91 547 496 92
          91 547 496 92 95 548
          497 96 228 169 361 378
          230 172 364 379 230 172
          364 379 232 175 367 380
          549 550 276 355 551 552
          278 357 551 552 278 357
          553 554 280 359 478 50
          140 139 480 54 143 142
          480 54 143 142 482 58
          146 145 540 555 556 521
          542 557 558 524 542 557
          558 524 544 559 560 527
          36 441 390 438 40 442
          391 439 40 442 391 439
          44 443 392 440 561 562
          237 516 563 564 239 517
          563 564 239 517 565 566
          241 518 152 444 319 489
          155 445 321 490 155 445
          321 490 158 446 323 491
          567 568 87 420 569 570
          91 421 569 570 91 421
          571 572 95 422 150 492
          342 531 153 493 344 532
          153 493 344 532 156 494
          346 533 477 15 14 555
          479 19 18 557 479 19
          18 557 481 23 22 559
          531 128 127 150 532 132
          131 153 532 132 131 153
          533 136 135 156 24 534
          348 25 28 535 350 29
          28 535 350 29 32 536
          352 33 504 495 546 561
          505 496 547 563 505 496
          547 563 506 497 548 565
          474 192 89 255 475 194
          93 257 475 194 93 257
          476 196 97 259 573 574
          575 427 576 577 578 429
          576 577 578 429 579 580
          581 431 546 582 562 561
          547 583 564 563 547 583
          564 563 548 584 566 565
          561 516 484 504 563 517
          486 505 563 517 486 505
          565 518 488 506 555 540
          458 477 557 542 462 479
          557 542 462 479 559 544
          466 481 550 210 277 276
          552 214 279 278 552 214
          279 278 554 218 281 280
          744 245 183 727 745 249
          185 729 745 249 185 729
          746 253 187 731 210 550
          447 207 214 552 449 211
          214 552 449 211 218 554
          451 215 427 575 585 426
          429 578 586 428 429 578
          586 428 431 581 587 430
          150 152 489 492 153 155
          490 493 153 155 490 493
          156 158 491 494 48 588
          574 573 52 589 577 576
          52 589 577 576 56 590
          580 579 573 474 49 48
          576 475 53 52 576 475
          53 52 579 476 57 56
          562 509 238 237 564 512
          240 239 564 512 240 239
          566 515 242 241 372 556
          555 14 373 558 557 18
          373 558 557 18 374 560
          559 22 534 591 567 420
          535 592 569 421 535 592
          569 421 536 593 571 422
          521 556 372 469 524 558
          373 471 524 558 373 471
          527 560 374 473 178 3
          394 400 180 7 396 402
          180 7 396 402 182 11
          398 404 263 594 595 596
          267 597 598 599 267 597
          598 599 271 600 601 602
          549 355 354 384 551 357
          356 385 551 357 356 385
          553 359 358 386 0 228
          378 1 4 230 379 5
          4 230 379 5 8 232
          380 9 426 585 603 262
          428 586 604 266 428 586
          604 266 430 587 605 270
          582 546 87 568 583 547
          91 570 583 547 91 570
          584 548 95 572 474 573
          427 192 475 576 429 194
          475 576 429 194 476 579
          431 196 262 603 594 263
          266 604 597 267 266 604
          597 267 270 605 600 271
          537 468 208 433 538 470
          212 435 538 470 212 435
          539 472 216 437 36 438
          326 37 40 439 329 41
          40 439 329 41 44 440
          332 45 541 540 521 520
          543 542 524 523 543 542
          524 523 545 544 527 526
          1 423 387 2 5 424
          388 6 5 424 388 6
          9 425 389 10 498 447
          550 549 500 449 552 551
          500 449 552 551 502 451
          554 553 228 0 177 229
          230 4 179 231 230 4
          179 231 232 8 181 233
          507 582 568 606 510 583
          570 607 510 583 570 607
          513 584 572 608 588 48
          51 528 589 52 55 529
          589 52 55 529 590 56
          59 530 609 567 591 610
          611 569 592 612 611 569
          592 612 613 571 593 614
          596 595 615 112 599 598
          616 115 599 598 616 115
          602 601 617 118 414 591
          534 24 416 592 535 28
          416 592 535 28 418 593
          536 32 262 261 193 426
          266 265 195 428 266 265
          195 428 270 269 197 430
          223 610 591 414 225 612
          592 416 225 612 592 416
          227 614 593 418 477 458
          457 478 479 462 461 480
          479 462 461 480 481 466
          465 482 610 747 508 609
          612 748 511 611 612 748
          511 611 614 749 514 613
          549 384 409 498 551 385
          411 500 551 385 411 500
          553 386 413 502 223 734
          747 610 225 737 748 612
          225 737 748 612 227 740
          749 614 596 618 264 263
          599 619 268 267 599 619
          268 267 602 620 272 271
          507 606 609 508 510 607
          611 511 510 607 611 511
          513 608 613 514 582 507
          509 562 583 510 512 564
          583 510 512 564 584 513
          515 566 113 621 27 26
          116 622 31 30 116 622
          31 30 119 623 35 34
          112 615 624 113 115 616
          625 116 115 616 625 116
          118 617 626 119 609 606
          568 567 611 607 570 569
          611 607 570 569 613 608
          572 571 112 111 618 596
          115 114 619 599 115 114
          619 599 118 117 620 602
          113 624 627 621 116 625
          628 622 116 625 628 622
          119 626 629 623 111 348
          264 618 114 350 268 619
          114 350 268 619 117 352
          272 620 27 621 627 630
          31 622 628 631 31 622
          628 631 35 623 629 632
          633 27 630 634 635 31
          631 636 635 31 631 636
          637 35 632 638 639 633
          634 640 641 635 636 642
          641 635 636 642 643 637
          638 644 645 639 640 646
          647 641 642 648 647 641
          642 648 649 643 644 650
          651 415 27 633 652 417
          31 635 652 417 31 635
          653 419 35 637 654 651
          633 639 655 652 635 641
          655 652 635 641 656 653
          637 643 657 654 639 645
          658 655 641 647 658 655
          641 647 659 656 643 649
          660 222 415 651 661 224
          417 652 661 224 417 652
          662 226 419 653 663 660
          651 654 664 661 652 655
          664 661 652 655 665 662
          653 656 666 663 654 657
          667 664 655 658 667 664
          655 658 668 665 656 659
          669 219 222 660 670 220
          224 661 670 220 224 661
          671 221 226 662 672 669
          660 663 673 670 661 664
          673 670 661 664 674 671
          662 665 675 672 663 666
          676 673 664 667 676 673
          664 667 677 674 665 668
          750 732 219 669 751 735
          220 670 751 735 220 670
          752 738 221 671 678 750
          669 672 679 751 670 673
          679 751 670 673 680 752
          671 674 681 678 672 675
          682 679 673 676 682 679
          673 676 683 680 674 677
          684 753 750 678 685 754
          751 679 685 754 751 679
          686 755 752 680 687 684
          678 681 688 685 679 682
          688 685 679 682 689 686
          680 683 690 756 753 684
          691 757 754 685 691 757
          754 685 692 758 755 686
          693 690 684 687 694 691
          685 688 694 691 685 688
          695 692 686 689 696 759
          756 690 697 760 757 691
          697 760 757 691 698 761
          758 692 699 696 690 693
          700 697 691 694 700 697
          691 694 701 698 692 695
          702 762 759 696 703 763
          760 697 703 763 760 697
          704 764 761 698 705 702
          696 699 706 703 697 700
          706 703 697 700 707 704
          698 701 708 645 646 709
          710 647 648 711 710 647
          648 711 712 649 650 713
          765 708 709 766 767 710
          711 768 767 710 711 768
          769 712 713 770 714 657
          645 708 715 658 647 710
          715 658 647 710 716 659
          649 712 771 714 708 765
          772 715 710 767 772 715
          710 767 773 716 712 769
          717 666 657 714 718 667
          658 715 718 667 658 715
          719 668 659 716 774 717
          714 771 775 718 715 772
          775 718 715 772 776 719
          716 773 720 675 666 717
          721 676 667 718 721 676
          667 718 722 677 668 719
          777 720 717 774 778 721
          718 775 778 721 718 775
          779 722 719 776 723 681
          675 720 724 682 676 721
          724 682 676 721 725 683
          677 722 780 723 720 777
          781 724 721 778 781 724
          721 778 782 725 722 779
          783 687 681 723 784 688
          682 724 784 688 682 724
          785 689 683 725 786 783
          723 780 787 784 724 781
          787 784 724 781 788 785
          725 782 789 693 687 783
          790 694 688 784 790 694
          688 784 791 695 689 785
          792 699 693 789 793 700
          694 790 793 700 694 790
          794 701 695 791 795 705
          699 792 796 706 700 793
          796 706 700 793 797 707
          701 794
        </DataArray>
        <DataArray type="Int64" Name="offsets" format="ascii" RangeMin="8" RangeMax="3632">
          8 16 24 32 40 48
          56 64 72 80 88 96
          104 112 120 128 136 144
          152 160 168 176 184 192
          200 208 216 224 232 240
          248 256 264 272 280 288
          296 304 312 320 328 336
          344 352 360 368 376 384
          392 400 408 416 424 432
          440 448 456 464 472 480
          488 496 504 512 520 528
          536 544 552 560 568 576
          584 592 600 608 616 624
          632 640 648 656 664 672
          680 688 696 704 712 720
          728 736 744 752 760 768
          776 784 792 800 808 816
          824 832 840 848 856 864
          872 880 888 896 904 912
          920 928 936 944 952 960
          968 976 984 992 1000 1008
          1016 1024 1032 1040 1048 1056
          1064 1072 1080 1088 1096 1104
          1112 1120 1128 1136 1144 1152
          1160 1168 1176 1184 1192 1200
          1208 1216 1224 1232 1240 1248
          1256 1264 1272 1280 1288 1296
          1304 1312 1320 1328 1336 1344
          1352 1360 1368 1376 1384 1392
          1400 1408 1416 1424 1432 1440
          1448 1456 1464 1472 1480 1488
          1496 1504 1512 1520 1528 1536
          1544 1552 1560 1568 1576 1584
          1592 1600 1608 1616 1624 1632
          1640 1648 1656 1664 1672 1680
          1688 1696 1704 1712 1720 1728
          1736 1744 1752 1760 1768 1776
          1784 1792 1800 1808 1816 1824
          1832 1840 1848 1856 1864 1872
          1880 1888 1896 1904 1912 1920
          1928 1936 1944 1952 1960 1968
          1976 1984 1992 2000 2008 2016
          2024 2032 2040 2048 2056 2064
          2072 2080 2088 2096 2104 2112
          2120 2128 2136 2144 2152 2160
          2168 2176 2184 2192 2200 2208
          2216 2224 2232 2240 2248 2256
          2264 2272 2280 2288 2296 2304
          2312 2320 2328 2336 2344 2352
          2360 2368 2376 2384 2392 2400
          2408 2416 2424 2432 2440 2448
          2456 2464 2472 2480 2488 2496
          2504 2512 2520 2528 2536 2544
          2552 2560 2568 2576 2584 2592
          2600 2608 2616 2624 2632 2640
          2648 2656 2664 2672 2680 2688
          2696 2704 2712 2720 2728 2736
          2744 2752 2760 2768 2776 2784
          2792 2800 2808 2816 2824 2832
          2840 2848 2856 2864 2872 2880
          2888 2896 2904 2912 2920 2928
          2936 2944 2952 2960 2968 2976
          2984 2992 3000 3008 3016 3024
          3032 3040 3048 3056 3064 3072
          3080 3088 3096 3104 3112 3120
          3128 3136 3144 3152 3160 3168
          3176 3184 3192 3200 3208 3216
          3224 3232 3240 3248 3256 3264
          3272 3280 3288 3296 3304 3312
          3320 3328 3336 3344 3352 3360
          3368 3376 3384 3392 3400 3408
          3416 3424 3432 3440 3448 3456
          3464 3472 3480 3488 3496 3504
          3512 3520 3528 3536 3544 3552
          3560 3568 3576 3584 3592 3600
          3608 3616 3624 3632
        </DataArray>
        <DataArray type="UInt8" Name="types" format="ascii" RangeMin="12" RangeMax="12">
          12 12 12 12 12 12
          12 12 12 12 12 12
          12 12 12 12 12 12
          12 12 12 12 12 12
          12 12 12 12 12 12
          12 12 12 12 12 12
          12 12 12 12 12 12
          12 12 12 12 12 12
          12 12 12 12 12 12
          12 12 12 12 12 12
          12 12 12 12 12 12
          12 12 12 12 12 12
          12 12 12 12 12 12
          12 12 12 12 12 12
          12 12 12 12 12 12
          12 12 12 12 12 12
          12 12 12 12 12 12
          12 12 12 12 12 12
          12 12 12 12 12 12
          12 12 12 12 12 12
          12 12 12 12 12 12
          12 12 12 12 12 12
          12 12 12 12 12 12
          12 12 12 12 12 12
          12 12 12 12 12 12
          12 12 12 12 12 12
          12 12 12 12 12 12
          12 12 12 12 12 12
          12 12 12 12 12 12
          12 12 12 12 12 12
          12 12 12 12 12 12
          12 12 12 12 12 12
          12 12 12 12 12 12
          12 12 12 12 12 12
          12 12 12 12 12 12
          12 12 12 12 12 12
          12 12 12 12 12 12
          12 12 12 12 12 12
          12 12 12 12 12 12
          12 12 12 12 12 12
          12 12 12 12 12 12
          12 12 12 12 12 12
          12 12 12 12 12 12
          12 12 12 12 12 12
          12 12 12 12 12 12
          12 12 12 12 12 12
          12 12 12 12 12 12
          12 12 12 12 12 12
          12 12 12 12 12 12
          12 12 12 12 12 12
          12 12 12 12 12 12
          12 12 12 12 12 12
          12 12 12 12 12 12
          12 12 12 12 12 12
          12 12 12 12 12 12
          12 12 12 12 12 12
          12 12 12 12 12 12
          12 12 12 12 12 12
          12 12 12 12 12 12
          12 12 12 12 12 12
          12 12 12 12 12 12
          12 12 12 12 12 12
          12 12 12 12 12 12
          12 12 12 12 12 12
          12 12 12 12 12 12
          12 12 12 12 12 12
          12 12 12 12 12 12
          12 12 12 12 12 12
          12 12 12 12 12 12
          12 12 12 12 12 12
          12 12 12 12 12 12
          12 12 12 12 12 12
          12 12 12 12 12 12
          12 12 12 12 12 12
          12 12 12 12 12 12
          12 12 12 12
        </DataArray>
      </Cells>
    </Piece>
  </UnstructuredGrid>
</VTKFile>
