<?xml version="1.0"?>
<VTKFile type="UnstructuredGrid" version="0.1" byte_order="LittleEndian" header_type="UInt32" compressor="vtkZLibDataCompressor">
  <UnstructuredGrid>
    <Piece NumberOfPoints="774" NumberOfCells="452">
      <PointData>
        <DataArray type="Int32" Name="libmesh_node_id" format="ascii" RangeMin="2286" RangeMax="4991">
          2286 2287 2288 2289 2290 2291
          2292 2293 2294 2295 2296 2297
          2340 2341 2342 2343 2344 2345
          2346 2347 2348 2349 2350 2351
          2400 2401 2403 2404 2406 2407
          2412 2413 2414 2415 2416 2417
          2418 2419 2420 2421 2422 2423
          2487 2488 2489 2490 2491 2492
          2523 2524 2525 2526 2527 2528
          2529 2530 2531 2532 2533 2534
          2550 2551 2552 2553 2554 2555
          2556 2557 2558 2559 2560 2561
          2580 2581 2582 2583 2584 2585
          2685 2686 2687 2688 2689 2690
          2691 2692 2693 2694 2695 2696
          2698 2699 2700 2702 2703 2704
          2706 2707 2708 2796 2797 2798
          2799 2800 2801 2802 2803 2804
          2805 2806 2807 2838 2839 2840
          2841 2842 2843 2844 2845 2846
          2847 2848 2849 2881 2883 2885
          2949 2950 2951 2952 2953 2954
          2955 2956 2957 3054 3055 3056
          3057 3058 3059 3093 3094 3095
          3096 3097 3098 3099 3100 3101
          3102 3103 3104 3117 3118 3119
          3120 3121 3122 3123 3124 3125
          3126 3127 3128 3195 3196 3197
          3198 3199 3200 3201 3202 3203
          3210 3211 3212 3213 3214 3215
          3216 3217 3218 3219 3220 3221
          3222 3223 3224 3225 3226 3227
          3252 3253 3254 3255 3256 3257
          3300 3301 3302 3303 3304 3305
          3306 3307 3308 3309 3310 3311
          3318 3319 3320 3321 3322 3323
          3324 3325 3326 3327 3328 3329
          3330 3331 3332 3333 3334 3335
          3366 3367 3368 3378 3379 3380
          3381 3382 3383 3384 3385 3386
          3387 3388 3389 3390 3391 3392
          3453 3454 3455 3456 3457 3458
          3459 3460 3461 3483 3484 3485
          3492 3493 3494 3525 3526 3528
          3529 3531 3532 3543 3544 3545
          3564 3565 3566 3567 3568 3569
          3570 3571 3572 3588 3589 3590
          3591 3592 3593 3609 3610 3611
          3612 3613 3614 3615 3616 3617
          3618 3619 3620 3630 3631 3632
          3633 3634 3635 3636 3637 3638
          3639 3640 3641 3654 3655 3656
          3657 3658 3659 3660 3661 3662
          3684 3685 3686 3687 3689 3691
          3693 3694 3695 3696 3697 3698
          3708 3709 3710 3711 3712 3713
          3735 3736 3737 3738 3739 3740
          3741 3742 3743 3744 3745 3746
          3747 3748 3749 3762 3763 3764
          3771 3772 3773 3774 3775 3776
          3777 3778 3779 3786 3787 3788
          3795 3796 3797 3798 3799 3800
          3801 3802 3803 3804 3805 3806
          3807 3808 3809 3816 3817 3818
          3834 3835 3836 3837 3838 3839
          3846 3847 3848 3849 3850 3851
          3861 3862 3863 3882 3884 3885
          3887 3888 3890 3900 3901 3902
          3903 3904 3905 3906 3907 3908
          3924 3925 3926 3927 3928 3929
          3930 3931 3932 3939 3940 3941
          3942 3943 3944 3954 3955 3956
          3958 3959 3960 3962 3963 3964
          3969 3970 3971 3972 3973 3974
          3993 3994 3995 4032 4033 4034
          4035 4036 4037 4053 4054 4055
          4056 4057 4058 4059 4060 4061
          4062 4063 4064 4089 4090 4091
          4104 4105 4106 4107 4108 4109
          4116 4117 4118 4128 4129 4130
          4167 4168 4169 4170 4171 4172
          4185 4186 4187 4208 4209 4212
          4213 4216 4217 4233 4234 4235
          4236 4237 4238 4254 4255 4256
          4257 4258 4259 4269 4270 4271
          4272 4273 4274 4284 4285 4286
          4287 4288 4289 4290 4291 4292
          4293 4294 4295 4302 4303 4304
          4314 4315 4316 4317 4318 4319
          4320 4321 4322 4323 4324 4325
          4326 4327 4328 4338 4339 4340
          4344 4345 4346 4350 4351 4352
          4353 4354 4355 4365 4366 4367
          4368 4369 4370 4371 4372 4373
          4374 4375 4376 4377 4378 4379
          4380 4381 4382 4383 4384 4385
          4386 4387 4388 4389 4390 4391
          4398 4399 4400 4416 4417 4418
          4422 4423 4424 4425 4426 4427
          4428 4429 4430 4434 4435 4436
          4437 4438 4439 4440 4441 4442
          4443 4444 4445 4458 4459 4460
          4482 4483 4484 4485 4486 4487
          4488 4489 4490 4491 4492 4493
          4494 4495 4496 4497 4498 4499
          4500 4501 4502 4506 4507 4508
          4509 4510 4511 4518 4519 4520
          4521 4522 4523 4545 4546 4547
          4566 4567 4568 4569 4570 4571
          4572 4573 4574 4599 4600 4601
          4602 4603 4604 4605 4606 4607
          4611 4612 4613 4647 4648 4649
          4650 4651 4652 4653 4654 4655
          4656 4657 4658 4677 4678 4679
          4689 4690 4691 4692 4693 4694
          4695 4696 4697 4716 4717 4718
          4743 4744 4745 4746 4747 4748
          4749 4750 4751 4779 4780 4781
          4788 4789 4790 4800 4801 4802
          4803 4804 4805 4806 4807 4808
          4809 4810 4811 4830 4831 4832
          4872 4873 4874 4902 4903 4904
          4923 4924 4925 4968 4969 4970
          4986 4987 4988 4989 4990 4991
          2880 2882 2884 3883 3873 3886
          3876 3889 3879 3957 3961 3965
          3875 3878 3881 4119 4120 4121
          4206 4207 4210 4211 4214 4215
          4347 4348 4349 4251 4252 4253
        </DataArray>
        <DataArray type="Float64" Name="resid_x" format="ascii" RangeMin="-0.03987609239365497" RangeMax="0.0014679425444867888">
          0.00016350542612197927 0.0006962559820342662 0.0004187270206168492 0.0008740270666738326 -0.001634874674344644 -0.00029117479075591035
          -0.0037541910657257205 -0.002732185415387889 -0.010418514697154713 -0.011269605642355351 -0.011647624862353823 -0.010235989838375481
          -0.003065812182713401 0.0004835139374375075 0.00012191809175218782 0.001370837704888217 -0.008922725359752803 -0.0015609201526061156
          -0.003371337460966406 -0.0018863134505533452 -0.018878922755924066 -0.01149357591260447 -0.010610333240782532 -0.012660218238151444
          -0.011244780203222504 -0.001960963085547718 -0.015437214830704704 -0.0029199392769037047 -0.01197137010861038 -0.005999028179640042
          -0.0017646750735798022 0.00032851148028889554 0.0007001269451936132 -0.0013107609717080138 -0.005502952210310497 -0.0014888754659763137
          -0.004060595928367938 -0.00888752037512397 -0.007696330918629535 -0.006201315734757351 -0.007272179931837375 -0.009471358062373092
          -0.006083435821800487 -0.004292684290883031 -0.0037826431537377747 -0.0030765427216890018 -0.008589507864702473 -0.009203544865724389
          -0.0001390142367636571 0.0007799712770828471 -0.004797440055324564 -0.004857343958386551 -0.0003784145468932465 0.0008826777824677556
          -0.011647998592016151 -0.013447717057299968 -0.0002971432383249706 0.0007108746490467333 -0.004069958144156338 -0.00770471141897211
          -0.000054840239022801995 0.0002789728737797592 0.0005876987762505337 0.00040086192158117484 -0.0012037440660099819 -0.0006861515783525007
          -0.0003057725653565768 -0.004137083948050346 -0.010028933764338888 -0.005798145760512519 -0.0063872421834441084 -0.009957494845092008
          -0.0014088150776467856 -0.0014102690803214912 -0.0020906185743250205 -0.0030625994621402697 -0.006936957608504102 -0.009081862616207026
          -0.00009754252748361836 0.000029911903979495946 0.000086046001857909 -0.0002609642873627749 -0.0008801427560163333 -0.0005131005280185619
          -0.0008429391474908954 -0.001069866896197702 -0.007998072464120654 -0.009066918600039386 -0.008767425044745814 -0.008202220169750696
          -0.00938682321317863 -0.010881048533594395 -0.0053644923766924535 -0.01775849862927359 -0.0077945967416042095 -0.003003020075196261
          -0.015559051078557928 -0.013578084492928966 -0.009254455692129682 -0.00019430241450191232 0.00023166569758892308 0.00022093419714330764
          0.0005967066427539081 -0.0019795714108017393 -0.002320528960342738 -0.0018713311872886607 -0.003196338729559045 -0.008029418250666609
          -0.007798191039109614 -0.006929850876521648 -0.008489067249156435 -0.00006957535163465423 0.00012843404198559227 0.0003279234921143015
          0.00010564887235453568 -0.00143370941466614 -0.002244474866875734 -0.000860511514555462 -0.003078905801671805 -0.004602806933253767
          -0.006105067049803736 -0.004910288726192036 -0.004961537446785513 -0.008866307933547368 -0.013914279835200993 -0.011314011391053924
          -0.002214321188729329 -0.0014454781436805675 -0.002855212954720354 -0.0023224974488256223 -0.002045734278134148 -0.004031787949787535
          -0.0024668298980614622 -0.0019758347807696808 -0.003617443915047147 -0.0015527725781048218 -0.0031280608091357465 -0.001261817455305625
          -0.00454537365472607 -0.005248940330528029 -0.007879001097585103 -0.007373047046723258 -0.005999324045852461 -0.00011090730175888908
          0.00019042340951536119 -0.005737380101695777 -0.003697987285507409 -0.0009397534402517671 -0.00010884245457898345 -0.0073427388232101265
          -0.006515093478165035 -0.003383565972748137 -0.0032613491533961536 -0.0013532876882198508 -0.0012926806398638746 -0.0007781803637207929
          -0.0006369401364718641 -0.0014704754234085016 -0.0012563027743039967 -0.0016370435042354359 -0.0013715748138452 -0.008378043363413745
          -0.006824370337989549 -0.005612589450752381 -0.0071963632678855305 -0.0006217002167030472 -0.0016070572288073848 -0.003347322765637095
          -0.002378545347468286 -0.0046009903862476165 -0.0025500517282921464 -0.006652069140201444 -0.010957355260364565 -0.005631871225341811
          -0.000029038814279402914 -0.0006067273555201425 -0.0001021795078219867 -0.0004512400413867468 -0.004146993489444029 -0.004317811459968013
          0.0003385839356617737 -0.001937984195135023 -0.00375515735565779 0.0009855632853543739 0.0004083328436577105 -0.002660853171756017
          -0.004023773375986028 0.0007289995742318922 -0.006512081850259754 -0.007925702492641129 -0.008651555861705074 -0.005230058145668792
          -0.004910018430599017 -0.007791741864645374 -0.0025990920736793655 -0.011746621456503625 -0.006689274906506171 -0.011696291619900379
          -0.002593046559113077 -0.0024550997153465204 -0.007280261953354739 -0.007475934068128964 -0.007984783885223834 -0.007503292381093374
          -0.004722103605782735 -0.005077862215911111 -0.0016878790932000065 -0.0019367736411259884 -0.005691764205446592 -0.0060098599835773925
          -0.0013161235350125366 -0.002783539372738897 -0.0005193080089167523 0.0004800320173736772 -0.0027420844601819816 -0.005391875405938773
          -0.002712331902246845 -0.0017752688665781946 -0.007250614026018454 -0.006324723142353328 -0.0053139507077704096 -0.007046705634287775
          -0.0030546755442025786 -0.0009226067167391605 -0.0024002830637029904 -0.0012866440129588597 -0.0024471459916617366 -0.0023863568574098437
          -0.001764586343877994 -0.005482472679297246 -0.007086705819428829 -0.0026994392235137887 -0.0031572144221332366 -0.0024313358132070917
          -0.0031681066363420385 -0.0040596235710887996 -0.00660266976149515 -0.0011965967630347407 -0.0007740624492695858 -0.0016828909005841552
          -0.001058580199966741 -0.0005891559321931084 -0.005179417252673346 -0.003356459690253999 -0.0019276282311091464 -0.004753503934251668
          -0.00005250960077241018 0.00002791549679503902 -0.001180953596325196 -0.0000594251505772192 0.0000764005897675446 -0.0037341017330874138
          -0.004616383543895708 -0.003987858688279999 -0.006748604001765912 -0.005359245627785114 -0.003313278418588972 -0.0020800384604449107
          -0.0008552097366711919 -0.0005136675834096494 -0.004754027902050595 -0.01172442998822909 -0.015272326071540832 -0.025961828815923127
          -0.024665499323962337 -0.020058567523879134 -0.017714619647275498 0.00007836559276785948 0.0007820091667483098 -0.0033621671553465404
          -0.00004160003693920444 -0.0029686540602194 -0.0037086459210855516 -0.00018713669936687438 -0.0024110684856029074 -0.0017699230936480959
          -0.004104606331968519 -0.004864937915885825 -0.00671837270685538 -0.0024219213653751126 -0.0014563720727873708 -0.002611638433473118
          -0.0011523098662875597 -0.007040428963820844 -0.005189692883268648 -0.004388974619850217 -0.00029886646375931747 0.00007709501906116856
          -0.000032990482015549105 -0.00914515955610895 -0.00215489739034469 -0.0011850522696912336 -0.004021404615158097 -0.01251530777878962
          -0.004627681144409812 -0.006970247258665019 -0.010198623868241441 0.00014136840704193077 -0.0013586601589503644 -0.0019376125732417648
          -0.00005343024272352892 -0.0006496375578404212 -0.004115907544405495 -0.003068851546917273 -0.0015028035190409739 -0.009566928910222039
          -0.011155607930370515 -0.011912145406415497 -0.012050296942194727 -0.008319522552374004 0.0001948332784715845 0.000454201412340538
          -0.017708772896256164 -0.00027601449154124325 -0.001734055011633373 -0.015567563649955929 -0.01107639844924213 -0.0073887369189673535
          -0.004505195563629272 -0.0025052913669023624 -0.002731799363872689 -0.005151357541005375 -0.007892100928621915 -0.004752816122024939
          -0.010871240833834506 -0.01832393751110395 -0.015668118731991143 -0.03129579812422989 -0.009247782843047947 -0.02032150303103286
          -0.007235650068888155 -0.007296336752963484 -0.004666266140308295 -0.003288026168798197 -0.009703994033633201 -0.009970584435362362
          -0.009704895655387347 -0.00437446369564487 -0.0029867896311097653 -0.007078297719264048 -0.0025069186285893996 -0.005345503900517912
          -0.00646537975067929 -0.003639704117594178 -0.0012104663331481968 -0.0019752487764623794 -0.005633675728525134 -0.013996796801678535
          -0.004783301939884965 -0.009091229605337148 -0.013007358447145734 -0.010208237054484925 -0.005228976815789821 -0.011876571223771393
          -0.008147365531983253 -0.004827394340682911 -0.01303046263999752 -0.0025034284815972363 -0.003186748461440292 0.00021298798673696773
          -0.0018480908831248755 -0.004829599396217521 -0.006117577884352521 -0.005793018453021048 -0.0037373384871872695 -0.003910206914575554
          -0.005579843751196023 -0.004440211395549731 -0.0035108599576156863 -0.0018414802804169739 -0.005976951524147012 -0.00604132571494187
          -0.0040988989323871294 -0.00226939896978795 -0.0016547759252345529 -0.005079606693224853 -0.0035518704915054045 -0.004394485587335462
          -0.0027791383330191266 -0.009367535723137976 -0.008905210691125376 -0.00872730841183711 -0.0041679653602268996 -0.010360544605631183
          -0.007330556767914942 -0.0037813560306085847 -0.012235501123874393 -0.005658176774062884 -0.0016627973945021468 -0.006836154029580932
          -0.0010496448360237665 -0.0024369296556772113 -0.0001665264288917001 -0.00211593762839124 -0.0008783261592331115 -0.002897991190083049
          -0.00721992526060336 -0.0006856804840187081 -0.005373494408480672 -0.011637561633168758 -0.014498378437950876 -0.02319768343351125
          -0.021885131276848213 -0.013346580465752211 -0.016941288902550866 -0.0035962249292467163 -0.0035252067544160326 -0.0034586957173710076
          -0.0023299266896015247 -0.0036879203990034526 -0.003631054520190524 -0.006328258884903182 -0.006517146548017827 -0.005210785900858106
          -0.007460871284451276 -0.002188164911942181 -0.007541046337784962 -0.005219985630971591 -0.00009862912767566456 -0.004944913639620019
          -0.008630878154787691 -0.005587737365760681 -0.006859577465098354 -0.007742806272091229 -0.007365438919925804 -0.011316638301426707
          -0.009506447148057262 -0.004172104063495219 -0.002930266699443962 -0.010764327135706964 -0.005868295670934387 -0.017636496069066254
          -0.023613103446031403 -0.00887610502662639 -0.02203202484892408 -0.01605406796128328 -0.010104747664134273 -0.01601345012293187
          -0.015189893129983645 -0.014855904938043007 -0.010256919960498045 -0.006263980498988797 -0.005999862560043034 -0.008168749412766463
          -0.008609265871057481 -0.007860251124403028 -0.009214853424220237 -0.0023770665834614846 -0.003698380945570179 -0.0003919344433089833
          -0.0029587077839776654 -0.002562547768108381 -0.005119236121370108 -0.0036478612301520386 -0.0018396503603792524 -0.00193116742197752
          -0.0012872351003787585 -0.0037082756770114855 -0.0035819845258648897 -0.004547091664170999 -0.0008014258270967467 -0.004354407034574237
          -0.0004996310032101547 -0.007337239485427194 -0.00458174123059063 -0.007659799348931351 -0.005099357213892208 -0.007440992822602688
          -0.005461836422488098 -0.014900947561454991 -0.0029158986424091538 -0.007816580446251997 -0.0024168607854653246 -0.007399836376414726
          -0.005065791207382375 -0.0015057894379717496 -0.0023952236720488074 -0.007897381134384318 -0.00039089149913262844 -0.010251249945874896
          -0.0033817914288549744 -0.0007635096985971757 -0.0026683638316153946 -0.006998031675140126 0.000025466830100739912 -0.009563451200635953
          -0.007358610519231368 -0.0009738753495751595 -0.009111758292932093 -0.015889928347641025 -0.00848104020089746 -0.021245490553623014
          -0.011293286160717564 -0.009224920521786473 -0.004719778742250824 -0.008701421985392699 -0.010056907744800725 -0.0027434697497998872
          -0.005301249684269038 -0.006401495321494588 -0.009478577786691034 -0.005064461178492685 -0.002047839386721151 -0.005766423155250777
          -0.005007837568197004 -0.0007881912906171351 -0.009823282354330054 -0.013119295109479623 -0.003981888067288608 -0.009654383060108351
          -0.0070576532610173714 -0.0035190101203754764 -0.003705331463773831 -0.0035243346125168884 -0.0030573439906627087 -0.0025015801628285317
          -0.005654625347662368 -0.007710162299598977 -0.004540998987772937 -0.004837343206260947 -0.0041772850325410005 -0.0013137766272244278
          0.000023150569422369927 -0.004382511964180047 -0.0038174828303105812 -0.006376305003078286 -0.002818090607526358 -0.005396770193651257
          -0.003655594855128008 -0.00652429948361366 -0.0013216649822629378 -0.007307557201571502 -0.006710157708148756 -0.006605024398847803
          -0.006123430942980512 -0.010868325888210961 -0.00046343270371007605 -0.002081826335262882 -0.023460238653061793 0.0002523811340262583
          -0.008892565422566001 -0.019721005319878415 -0.008110492558990323 -0.003629627325795859 -0.0036093262413299243 -0.00910865540393413
          -0.006517911645030239 -0.002720687309340164 -0.005568630232813732 -0.0059870691660073305 -0.005391754195605003 -0.0009435968067910139
          -0.000406286269642564 -0.010429681532070134 -0.007917930888933 -0.010525480790603226 -0.00546238379079611 -0.0038238588832513187
          -0.0005672247544201703 -0.005646949535706547 -0.003610036679583928 -0.004968302116714396 0.00006413512359992879 -0.003363457029017969
          -0.010314800502827737 -0.008892746706694155 -0.004066953754097824 -0.00429482450613472 -0.004727426410651603 -0.004199131016243474
          -0.003489508139050912 -0.0008830913198307755 -0.0000642799140964101 0.0003172882628357243 -0.007347457004838631 -0.0011349309215868963
          -0.0022522391456374358 -0.001141683559028106 -0.006351459234388734 -0.0031509529798472435 -0.005309430615368704 -0.004307688013966526
          -0.006984388573201272 -0.0026391113327814963 -0.009068911164129112 -0.006039956995420148 -0.003557001893585543 -0.005342887507062688
          -0.004311028123876959 -0.005428489365489675 -0.003431160040730852 -0.003978809848316445 -0.004375491146419108 -0.003028815491288306
          -0.008507758743448113 -0.0003481579080163999 -0.00417499110659908 -0.012895978736619185 -0.002145204090663988 -0.025891572941169727
          0.0008274313506198006 -0.018983172357913247 -0.005471817009404134 -0.0006535463194774493 -0.0009365144195641051 -0.00016145391724009528
          -0.002491747235541908 -0.005419414622175545 -0.006290245930511418 -0.012965305191139365 -0.02564196646648753 -0.02007260502401742
          -0.00594409639250415 -0.005926649467513423 -0.00043033744357767745 -0.0031250620666954942 -0.002018706905970724 -0.002863397243060728
          -0.00007328039527454422 -0.0053517566394614136 -0.007383995774712382 -0.0028677859561581087 0.0002620388580449884 -0.006439628911520501
          -0.004606416995503793 -0.00266616070872594 -0.004230370977283293 -0.00961305243456767 -0.009084493314437836 -0.006280620267259174
          -0.004059885082130066 -0.0025803480462611716 -0.0055904330294112015 -0.009056608552439727 -0.002192028315731953 -0.004250694743343608
          -0.00172362992836117 -0.009198169197753181 -0.0026635666500816058 -0.00285306619738801 -0.0041657078395020974 -0.0021965997320343433
          -0.0014723664550349014 -0.00813607804088079 -0.0076170333541956126 -0.0030269094353405634 -0.0009117206879585282 -0.007995681629304308
          -0.006489067690923944 0.0001620037459653112 -0.008222180477923224 -0.002939963481426666 -0.0018679483703536448 -0.00606992622494662
          -0.008033153718551844 -0.005889721422058791 -0.006944240236367083 -0.00915116317123399 -0.015527310781962456 -0.008518747232977297
          -0.0032993279330311154 -0.005483701981051858 -0.001683826635272112 -0.002990771340705578 -0.006722186134844321 -0.006550384323449343
          -0.006608162263829875 -0.0015749704476810678 -0.0068112763831154055 -0.005082298668673602 -0.0034069539146353023 -0.0023818816131964127
          -0.008571346456697881 0.0014679425444867888 -0.009982594159226865 -0.008977360884752095 -0.0029925560074035573 -0.0048298111156315215
          -0.005598586199632827 -0.00770130717745765 -0.006269654521058321 -0.009976425177787407 -0.0018491234899740139 -0.0036223103802184298
          -0.0024015463592697017 -0.006258011341612857 -0.001252989080223088 -0.00134834681933782 -0.003017648328428102 -0.0004055008873526944
          -0.0035430375714664564 -0.007665285138119593 -0.0038681034369476563 -0.005009716325739433 0.0005808285049733186 -0.002423732297373249
          -0.006427384750734788 -0.006566927367419595 -0.000015548113526442364 -0.004361727925559222 -0.005729205983064034 -0.005990338734217282
          -0.00690117535761825 -0.0011215447626193864 -0.004722373480081643 -0.00837225060566249 -0.006356543129656167 -0.007692081240617821
          -0.0016989418082324903 -0.0010538106372415257 -0.004963976755135491 -0.006543744976141408 -0.0013434210487068832 -0.004555482360918628
          -0.006102193575513226 -0.008897765109160183 -0.0017141010561125825 -0.006008047445338782 -0.006516322655897078 -0.010184002168880824
          -0.008138483783728834 -0.002440610906368601 -0.004988979208967681 -0.02285074330421466 -0.03987609239365497 -0.021973816424403658
          -0.016016169203766584 -0.020784326935670894 -0.009703134019051873 -0.020797649159346676 -0.02761830453248848 -0.017937112557735446
          -0.009755863209638616 -0.004705108405560043 -0.004487300740001032 -0.018269090537613497 -0.025532684906293568 -0.015837783023939345
          -0.01267096262134837 -0.015188665909990018 -0.002558444640913038 -0.004319089527915931 -0.005428336217202734 -0.008976871015515364
          -0.012027578258856586 -0.022615508364157932 -0.008973991812175619 -0.013231244938884501 -0.011531645435685078 -0.020077477773956076
          -0.01830900462946161 -0.010704487533255147 -0.010043828711289393 -0.01371811246464727 -0.01964684705986386 -0.010555278475592456
          -0.011273040097746545 -0.010069675255987676 -0.009200189576072049 -0.009158938716590015 -0.010446258925068008 -0.006030648977700892
          -0.00586410266294024 -0.015296467113607548 -0.012683290183350238 -0.02594051488069482 -0.006968170855587985 -0.01501881332172239
          -0.013513002980613642 -0.01341654402162007 -0.007600612748211333 -0.0182882093734964 -0.02385340922060486 -0.011458232063944251
        </DataArray>
        <DataArray type="Float64" Name="resid_y" format="ascii" RangeMin="-0.7625753470905371" RangeMax="1.1891702202882404">
          -0.0003680042221944832 -0.0005982249986258292 -0.0002837800903641857 -0.0009991136063572381 0.00022213331900380884 -0.0006857416120165938
          0.0015858142440011297 -0.00007185672217160932 0.0029960223066572075 0.0030818748022591047 0.004331323835568557 0.0034960735389134856
          0.0030980913311647006 0.000763446443507898 0.00024077648214432257 0.00008351589230715106 0.006616138492028691 0.0019095685042040608
          0.00010898938941761305 0.002242368391992433 0.005059877203643718 0.001814603456190944 0.0019140482166900008 0.0037653903297720226
          0.008758810945617396 0.005475792593652121 0.011851097896058982 0.010935162192398484 0.007458115585029082 0.006394647868351436
          -0.0015625959840833356 -0.00006853726003410235 0.0002323666252525558 -0.003151442420286782 -0.00263354222396759 0.0007758840703949235
          0.0015387380090717828 -0.00708630664185636 -0.00026211750648683085 0.001672908486837231 0.0016184147336292254 -0.002485603809128767
          -0.0012087458936003992 -0.001781265604610116 0.0003232122243118085 0.0014980165538159007 0.0022088533796713883 0.002902037935872792
          0.0003341347852135121 0.000049485928783010724 0.00489227792062874 0.0023657792069093457 0.0008174131486084063 0.0013408903128325766
          0.012152337069826213 0.00500162854579566 0.0020251747700835154 0.0020893952681377836 0.007416545583700973 0.0032899854684354524
          -0.000711212590593091 -0.0007271358226918767 -0.0008954144702447708 -0.0008145706632090577 -0.0012995948868859963 -0.0009508371833437806
          -0.0005527763261774787 -0.00013120536720959142 0.0008933097516291844 0.0009193131445597996 0.001628806772262209 0.0017919383382720977
          0.0008080321300404092 0.002221866214912903 0.0009588231603835096 0.002049039531645709 0.0027207757656177722 0.0028257526650028487
          -0.00031198630761584967 -0.00024482680192494666 -0.00021265773973305757 -0.0007987029659187461 -0.0004351700676408221 -0.00013031070938440692
          0.0002040525417597583 -0.0012939117691030122 0.00035530438808747955 0.00035283688291376514 0.0005874614218470686 0.0002598276570086322
          -0.0010385411555600133 0.006292159763503835 0.005053116067314151 0.000013560904847081945 0.0035624770438161812 0.004019145413852426
          0.0045153998365981 0.004002886684311507 0.002838313699622022 -0.00024184765263933483 -0.0003184107815253391 -0.00046269626206443815
          -0.00026394976559784844 -0.00047446870059707213 -0.0005615096522212752 -0.0010279491514647576 -0.000657837748373663 0.00033353597473581575
          0.00020926118159172308 0.0005334680380112006 0.00020504548350425145 -0.0002338899576158765 -0.0006461644012208667 -0.000503652807007135
          -0.0002600801075752779 0.0002638657597132943 -0.00003203753398720033 0.0005766437878482467 0.0009960822347939713 0.002110423995380112
          0.002834249542955386 0.003436986881752105 0.0026095363952833572 0.0019635648598814864 0.002310906485650757 0.0017272334691932623
          0.0018059263997835528 0.0004392100455832826 0.0010315743278415113 0.0014869170659026626 0.0010777178587503267 0.0041987943113346304
          0.002095386067752919 0.003057496503370505 0.005512595568485101 0.0017384780759855667 0.004662720626399421 0.00033051682346262046
          0.003293831517827632 0.0013488747623255637 0.0025973909806150663 0.0007871073946930651 0.002085327242721813 0.0005205209871301797
          0.000048808997725080516 0.0017906838076148235 0.0015206576601852761 0.0007169187139510202 -0.00025150234001575233 0.001606919052346778
          0.000950868951997752 0.0005095837805079717 0.0008663501726083322 -0.00011726542057055589 0.00042275381862134226 0.000562873392391583
          0.0004012522449349243 -0.0001322334919082735 0.00025308459848601833 0.0011463889232802837 0.0009994491715658027 0.0002415051876372143
          0.0004522905899687485 0.0007769542293784293 0.0007176414118585939 -0.00020552685404517934 0.00127947216741231 -0.0004103962683282697
          0.0009279177856447718 0.0005550554828703813 0.0025878645185691274 0.0017405591837735268 0.0020018359836281863 0.0021867317602474873
          -0.14422266136238943 -0.24938734384485906 -0.3532719711194709 -0.556007670433488 -0.3041811754224186 -0.45982215564557477
          -0.0006177762907355056 -0.0011161753026664445 -0.00012122349992237103 -0.0009641972118339948 -0.0009356234129456187 -0.0013138873375768412
          0.0011840564531633152 -0.000031897196287176965 0.004891836901684543 0.003983807931375594 0.004778092121832556 0.003477105126977062
          0.00012569245076143876 0.004350249165774325 -0.001331162494645488 0.0056784971895636055 0.0003720443735551471 0.002753780056066635
          0.002186165197539086 0.0004026867199119488 0.0024085434198205524 0.0010550392331837855 0.0024960986156960796 0.0024055107376420026
          0.0025829205870974703 0.001477331554318645 0.0009443776287652028 -0.00030038730560430493 0.002682402177087123 0.003246468689169807
          0.0005490083327164968 0.0011236547282462983 -0.0004677617107700094 -0.0003349066813552737 -0.0004043043059468593 0.0028684559748892446
          0.0006695207821595384 0.0011803828786531856 0.0010185905473717172 0.0029124544951439346 0.0025372667277838157 0.0027012223245425626
          0.0008753780516052578 0.0006233249885464198 0.0025173260200817005 0.003625010985364524 0.004972680159011422 0.0049467946231792626
          0.0006988862867405854 0.002126427669722597 0.0019740998581810887 0.003530597194269472 0.003781129433105823 0.0024067215071141845
          0.0022465967667677778 0.003912001482600708 0.004575397714022961 0.00044523658387520676 0.0017954729825471194 0.0013144363580021856
          0.00035155411956623583 0.0020256576601793974 0.0016254410730605628 0.002085525133647431 0.0032755248154872907 0.00295200141050965
          -0.00010879936043872718 -0.00018564419414235367 0.0004191127033508213 -0.000035209794059298805 -0.00003434013944031422 0.0013093964631603061
          0.0007784821586909185 0.0012736386236336106 0.0013462099476537204 0.0039034356615718635 0.002775748276983625 0.0037096923866131726
          -0.36605599857045606 -0.7625753470905371 -0.500478244541307 0.0001020969702088606 0.006852537533027128 0.0014557630321523352
          0.006899479538951349 0.003502605423765008 0.005323980833399675 0.0016626105131807012 0.0001658169095834494 0.001630620011844719
          0.00035833495808962335 0.0040275189094601815 0.0034812851478612794 0.0003130715500090919 0.0008459657869167025 0.004947593665621808
          0.002877472549985882 0.0037225469802772415 0.006580515919037522 0.0008702854249051373 0.001713703767413588 -0.000946681566963925
          -0.0002919814349655325 0.001580573300330873 0.0014336065239098916 0.004311862132024807 0.002319377075348794 0.00013798292086034114
          -0.00006626082686425616 0.009292154206535619 0.005726054039261852 0.00044042016633674685 0.0010722679669054463 0.008364074524031151
          0.004978026946828924 0.00386160664462519 0.0037019700050710536 -0.00022779273967160618 0.0016308476446601217 0.003192194207478391
          0.0000370930273524972 -0.0002904743074783611 0.0007961502180251351 0.002028787588917738 0.0012743382527869995 0.0027305568525140544
          0.002650314718182889 0.003889471982363807 0.004448263128191521 -0.00032492791085156347 0.0007316705873582074 0.0008939437246543724
          0.00005423160711838515 0.002514469763513383 0.004571178947205212 0.0018798374063098838 0.004966271263923738 0.005015146547279609
          0.004246004775163237 0.0028474741053339248 0.003443141185321519 0.003380611940780598 0.004633635893728741 0.003293669598783605
          0.008208559304631519 0.000021923193567890964 0.012497315732486858 -0.002060589317303352 0.007215622092437167 0.0017190366901048415
          0.0066368943092272314 0.005645502196208296 0.0036303414623736485 0.003208805058621478 0.0046035076643483885 0.004620534174727908
          0.007767791583559509 0.003961694149227049 0.004035742823445855 0.0009202779993381649 -0.0008186063871068461 0.0012143879210829711
          0.0012242427228586206 -0.0004981846276421453 -0.0001410148477418065 0.0006849472958862513 0.002386236888086174 0.00277107720304956
          0.001905963279909162 0.0038291583645052307 0.005045235094992884 0.001901503871188745 0.0022315359050528727 0.00434645792636465
          0.0021274910591915427 0.00009678728119768415 0.0026455681813469176 0.000025105163241334605 0.0010114216002240217 0.00025402134448035407
          0.0024064801086882415 0.0033046952488996195 0.004459683777648882 0.004808306474867796 0.0036722856673140347 0.006063634455615086
          -0.0005067523460874357 -0.0009615947752608933 0.0005385546188438339 0.0014480181820535065 0.003601521629951837 0.003937380155598219
          0.0031833725163871174 0.002376035662111503 0.00269606541967074 0.0025576605714746903 0.0030225817462032623 0.0009537164560854822
          0.0008346745066316746 0.002007960747652776 0.0018529754029952827 0.0018744246768367182 -0.0004971156308106912 0.0019011312901462234
          0.002599598554589383 0.0009157283846162878 0.0035173207846100063 0.001619569636128193 -0.0006278081877081898 0.001562413133578855
          0.0020717240460394193 0.003947538936245831 0.000915735292441891 0.0023933664202643173 0.0030470967859141246 0.003951764517608272
          0.0020358025098278776 0.00014575638195687968 0.0026836113000724415 0.002186351018335142 0.0071500596254100435 0.004142868164575431
          0.008553724578062014 0.0018138415924257578 0.0032938672990056733 0.0009594846266777479 0.0031581238555438707 0.0017165861167601354
          0.0003365616806145777 0.0013791596377043247 0.0003326631269329611 0.0005094371726691027 0.0008408419940785505 0.00014776973851146624
          -0.002003758422031404 -0.0009094842348894572 0.00041806222541480864 -0.0009913620603329842 0.0005386302385498309 0.0009162606342330154
          0.0014446441109790542 0.001854918153088081 0.0017025108821710107 0.011714218105264018 0.010284327721921227 0.016994627590958156
          0.015592155564852161 0.009345075330615571 0.008675123931085271 0.003371957169506043 0.0021488458946883685 0.0023466380156940275
          0.006827695791668219 0.006006349780168015 0.006384148278113927 0.005153831764790055 0.00460388710087534 0.006268732539799524
          0.0034607251809901374 0.0027103325622945054 0.007510681289415212 0.0010066084665243252 0.0034758563642820484 0.001765033896312461
          0.008887499300344659 0.012753750959259569 0.006812532831737161 0.4101019921038692 0.303609815655203 0.8426807369137757
          0.6255088465382876 0.4615228971759706 0.37009437722076666 0.09070834292084151 -0.08243683612843247 0.20392626287502205
          -0.1390756608926359 0.18000902937787874 0.012498676275447596 -0.0003369487698383668 0.0007404585022200844 -0.001332948107143437
          -0.0008729756799714175 0.0013500100721900374 0.0008894347644080036 0.00358852275662723 0.0011324625730533278 0.002112015749972468
          0.49186615949386303 -0.0007880505597246124 0.9977018816678412 0.0009730570643514194 0.49881843898030553 0.0016367097809112108
          0.5097383309696342 1.0234219491370444 0.4575260949993932 0.002494402936737569 0.0007781976960481579 0.002226132547397036
          0.46992124511623634 0.9161160164174812 0.3204206618192182 0.0015753110859755698 -0.0007874137635637546 0.001053395982380051
          0.002341595710838626 -0.0007474272705913637 0.0007126274121007775 -0.002836551802334761 0.6284511867130191 -0.003746131183292617
          1.1891702202882404 -0.001056173607578495 0.3870601761282859 0.004147456165067009 0.006044976611914804 0.00008877245384159016
          0.0001646908053498236 0.0006965585672112917 0.0005545596661728214 0.0025573420172357864 0.0004283785707199783 0.0028791565077430636
          0.003769786731648961 0.0016869191016858076 0.004606206102120425 0.005156600060281583 0.0007611450911549494 0.0014764504414770396
          0.00498747068321076 0.001938298535484273 0.0026657889905520316 0.0032603467997667224 0.0020763635178009388 0.0033141248917720745
          0.008991381798630238 0.012719645458333817 0.009054014571325597 0.001851159071092831 0.0019522822162209297 -0.0004799180422692534
          -0.0003130669721164714 0.0010894095469428378 0.0018935754518564774 0.0012631546117819747 -0.001535608157644086 0.0009415714358158717
          0.0003842866186794733 0.0008005960479869623 -0.0017378013794368194 0.00105239772169201 0.00016137951900245529 0.0014770708558551685
          0.0021193471594369295 0.00279395467289989 0.00021527488207156997 0.0009402787793475753 0.007930502083153046 0.002143572086793555
          0.005322993682034677 0.00852837933576478 0.0054566312015456725 0.008311016539115257 0.010622923759925337 0.006755588732839615
          0.0024257899486902906 0.0004910394929611567 0.0010690630062860501 0.0018527204695275232 0.0020080533953077684 -0.0012118817405853688
          0.00035539812045717184 -0.00008124158379753388 0.0015432601793385833 0.0033773198536126148 0.002526359777197007 0.0010130437546262416
          -0.00002066485922830319 0.00022547415920128044 0.0002171845494807756 0.0015643938808723445 -0.0004136537275878094 0.0009153139609988925
          0.0014665726899016351 0.0009216939326577439 -0.001126101540472671 0.00039605837570064195 0.0001548473473298173 0.0007038083564967768
          0.001814757677129214 0.0006238273578317369 0.0003260923953133099 0.00016222373617277852 0.00488145476098284 0.002257046122449785
          0.002293610747424365 0.003441980209015774 0.005764922135245543 0.0038796877107715455 0.004861520208757741 0.005387511280271692
          0.0038187059530979395 0.000430261696431386 0.003699984580603201 0.005306429950236946 0.003592410051767969 0.004979550056501747
          0.001736674001317287 0.002421175330752188 0.0007792833862438897 0.001661351432541716 0.0015458129854069996 0.002038404629694502
          0.00099902159825338 -0.0013924730610059832 0.0014543509889761164 0.00041536351195048393 0.002084951141433089 0.001553599713517189
          0.0014327579432984808 0.002965711506935066 0.0023087988641028907 0.001119625961705617 0.000935992414679454 0.00041339862425651686
          0.0009451934204493528 0.0005214087542732837 0.0008013373632379528 0.008816948766099092 0.016362052054820275 0.009414977451442486
          0.0021726054741671164 0.0009195794690766423 0.0004065728451349837 0.0014179775663173966 0.0008430685610971989 0.0008769552534559077
          -0.000011127323684995138 0.00036328983677638704 0.003345873604758867 0.0017703444027217137 0.0002507531959820286 0.0006460055701494466
          0.00272238980797717 0.004533323703108525 0.0028756095434554763 0.0030908212367500992 0.004736878593697508 0.005831408067203593
          0.0014637421750326868 -0.00003492608279989651 0.0015085648675308844 0.004295939124263237 0.0014523906613580749 0.002574772393918706
          0.001975760862576254 0.0061421104885385075 0.0023854437654048932 -0.0006584968761315646 0.00008418409709887165 -0.0010538588861739862
          -0.0007378042845266608 0.0009179144976145803 0.0006236925887754541 0.00037556050692727494 -0.00012214532409721146 0.00034745557443782715
          0.0020500418771278346 0.0004011206458158084 0.0016707841640033576 0.0011981237312807813 -0.00017259315492262894 0.0009283636692281882
          0.006238333889269004 0.006219119556377953 0.0057658725808466815 0.009638606731660948 0.01361581788338817 0.007833237571101215
          0.0015897238854936657 0.001928925452103436 0.0005260639936207068 0.000029713067043968255 0.0007788457541346716 0.0012607905548648879
          0.006734904829532158 0.002566017113762708 0.004518725853129672 0.004246156037972293 0.002263681153054198 0.0025920292851243643
          0.003780618896625912 0.0039861631935523695 0.005258166067588818 0.0015425260703826231 -0.0009868280742804563 0.00021827241072353357
          0.006455264872530744 0.007712184720406801 0.005916036971686203 0.0016706477457691105 0.00027298092271904606 0.0009547366423899029
          -0.15297021477973777 0.0002681389913817833 -0.21440790840776452 -0.2779007251253013 -0.000677401286701601 -0.4050718693032972
          -0.07346653225875857 0.00003605689592300898 -0.16646666151051331 0.004879816079278343 0.0008684153801729044 0.0024287380830311234
          0.0038850883470013114 0.002172513964099697 0.0001262656703513304 0.00004470515775573808 0.0007841205087823419 0.0001697086274004521
          0.0036353654695044924 -0.0012098503501545843 0.002106669812770745 0.006209709838906716 0.006093145039524107 0.004274567764013415
          -0.3154187770876139 -0.628008458853737 -0.34044951773419285 0.006131114594852771 0.0006435768710427309 0.0028100980514443458
          0.003913824560326906 0.002917380865954722 0.0015767532995857314 0.0017414872531038572 0.003803862936025304 0.004338243833965583
          0.0065811183114838495 0.00489898511675553 0.004225289872002241 -0.005813528451473232 -0.01697281967212591 -0.007786053499310386
          -0.0019622195625588063 -0.0039563729698160605 -0.001907747848792024 0.004235722882610701 0.00030105370187277075 0.0015545806486234742
          0.0005204568192975767 0.00043599935726118533 0.0005728747078331542 0.007740744421942544 0.011246840352893916 0.00616067006351553
          0.002537444046796289 0.0018516546195158357 -0.0006962556148957938 -0.0007147540658107021 0.00025589809806833563 0.00032125361158349963
          0.0012787282791739303 0.0007197257713167787 -0.0005186216511286618 0.0020999932100607688 0.003661891646500187 0.004571397047439807
          0.006260963635352335 0.0016671202027821186 0.0019632826190956743 0.0050896256343391025 0.0072247559792582156 0.004094988389389376
          0.0047713096247343975 0.0044671678215785215 0.0020276525866111464 0.006681694393551152 0.010195660985889199 0.004672403264685154
          0.599526372309274 -0.006825082292602727 1.1691867453129656 -0.009743990622664362 0.4869544510359633 -0.002963032301342955
          0.003050650996287832 0.005471747309960584 0.0026278538515988603 -0.00730771989813267 -0.014055274007742868 -0.00630006474629391
        </DataArray>
        <DataArray type="Float64" Name="resid_z" format="ascii" RangeMin="0" RangeMax="0">
          0 0 0 0 0 0
          0 0 0 0 0 0
          0 0 0 0 0 0
          0 0 0 0 0 0
          0 0 0 0 0 0
          0 0 0 0 0 0
          0 0 0 0 0 0
          0 0 0 0 0 0
          0 0 0 0 0 0
          0 0 0 0 0 0
          0 0 0 0 0 0
          0 0 0 0 0 0
          0 0 0 0 0 0
          0 0 0 0 0 0
          0 0 0 0 0 0
          0 0 0 0 0 0
          0 0 0 0 0 0
          0 0 0 0 0 0
          0 0 0 0 0 0
          0 0 0 0 0 0
          0 0 0 0 0 0
          0 0 0 0 0 0
          0 0 0 0 0 0
          0 0 0 0 0 0
          0 0 0 0 0 0
          0 0 0 0 0 0
          0 0 0 0 0 0
          0 0 0 0 0 0
          0 0 0 0 0 0
          0 0 0 0 0 0
          0 0 0 0 0 0
          0 0 0 0 0 0
          0 0 0 0 0 0
          0 0 0 0 0 0
          0 0 0 0 0 0
          0 0 0 0 0 0
          0 0 0 0 0 0
          0 0 0 0 0 0
          0 0 0 0 0 0
          0 0 0 0 0 0
          0 0 0 0 0 0
          0 0 0 0 0 0
          0 0 0 0 0 0
          0 0 0 0 0 0
          0 0 0 0 0 0
          0 0 0 0 0 0
          0 0 0 0 0 0
          0 0 0 0 0 0
          0 0 0 0 0 0
          0 0 0 0 0 0
          0 0 0 0 0 0
          0 0 0 0 0 0
          0 0 0 0 0 0
          0 0 0 0 0 0
          0 0 0 0 0 0
          0 0 0 0 0 0
          0 0 0 0 0 0
          0 0 0 0 0 0
          0 0 0 0 0 0
          0 0 0 0 0 0
          0 0 0 0 0 0
          0 0 0 0 0 0
          0 0 0 0 0 0
          0 0 0 0 0 0
          0 0 0 0 0 0
          0 0 0 0 0 0
          0 0 0 0 0 0
          0 0 0 0 0 0
          0 0 0 0 0 0
          0 0 0 0 0 0
          0 0 0 0 0 0
          0 0 0 0 0 0
          0 0 0 0 0 0
          0 0 0 0 0 0
          0 0 0 0 0 0
          0 0 0 0 0 0
          0 0 0 0 0 0
          0 0 0 0 0 0
          0 0 0 0 0 0
          0 0 0 0 0 0
          0 0 0 0 0 0
          0 0 0 0 0 0
          0 0 0 0 0 0
          0 0 0 0 0 0
          0 0 0 0 0 0
          0 0 0 0 0 0
          0 0 0 0 0 0
          0 0 0 0 0 0
          0 0 0 0 0 0
          0 0 0 0 0 0
          0 0 0 0 0 0
          0 0 0 0 0 0
          0 0 0 0 0 0
          0 0 0 0 0 0
          0 0 0 0 0 0
          0 0 0 0 0 0
          0 0 0 0 0 0
          0 0 0 0 0 0
          0 0 0 0 0 0
          0 0 0 0 0 0
          0 0 0 0 0 0
          0 0 0 0 0 0
          0 0 0 0 0 0
          0 0 0 0 0 0
          0 0 0 0 0 0
          0 0 0 0 0 0
          0 0 0 0 0 0
          0 0 0 0 0 0
          0 0 0 0 0 0
          0 0 0 0 0 0
          0 0 0 0 0 0
          0 0 0 0 0 0
          0 0 0 0 0 0
          0 0 0 0 0 0
          0 0 0 0 0 0
          0 0 0 0 0 0
          0 0 0 0 0 0
          0 0 0 0 0 0
          0 0 0 0 0 0
          0 0 0 0 0 0
          0 0 0 0 0 0
          0 0 0 0 0 0
          0 0 0 0 0 0
          0 0 0 0 0 0
          0 0 0 0 0 0
          0 0 0 0 0 0
          0 0 0 0 0 0
          0 0 0 0 0 0
          0 0 0 0 0 0
        </DataArray>
        <DataArray type="Float64" Name="stress_zz" format="ascii" RangeMin="-4341525.404654703" RangeMax="4196967.22184134">
          -1209570.6706602778 -755789.6448165781 -941241.5125109549 -1484515.8533767993 -1269197.7828488539 -809608.0573745904
          -966707.2857839814 -1496417.1268485235 -1328824.8950374299 -863426.4699326025 -992173.0590570079 -1508318.4003202477
          300548.44719903904 344761.0761125289 268206.0025884372 737334.293122998 317652.17136447213 287160.2541847897
          238499.57398518626 741024.9695703977 334755.8955299052 229559.43225705042 208793.14538193535 744715.6460177976
          -789794.8921977351 -585161.7682894093 -812409.6222213304 -565451.2448152574 -835024.3522449258 -545740.7213411054
          -1112730.1541616227 -127927.36884094554 -520093.49497220933 -2292140.5638564955 -1062782.7100361965 -109992.38891956775
          -665623.5719228489 -2505727.5106911254 -1012835.2659107703 -92057.40899819013 -811153.6488734884 -2719314.457525756
          684512.7532061933 1687802.2985816654 655964.9762610068 1646483.8190810215 627417.1993158201 1605165.3395803776
          1737752.8005344719 3190685.691134048 2901098.964209557 1128645.404951565 1774964.0898568209 3387475.495625308
          2846658.5887016254 961464.0876912791 1812175.3791791697 3584265.3001165683 2792218.213193694 794282.770430993
          1538784.1866845326 1700861.9302232284 893475.8940752548 1250635.7379815415 1622362.6405825769 1685214.590749428
          960372.6845731662 1363693.6942932378 1705941.0944806219 1669567.2512756274 1027269.4750710777 1476751.6506049342
          -2122326.8093800456 -1438629.8473724467 -2135190.545878832 -1497988.5941667678 -2148054.2823776193 -1557347.340961089
          -1122815.5747194565 327217.75617611106 2168664.851713809 1179023.1274213754 -1166306.8830731087 362666.23888439697
          2092880.928410384 1139116.7962823247 -1209798.191426761 398114.721592683 2017097.005106958 1099210.4651432736
          564488.4677664777 624235.7347038435 1510169.229281426 530092.3223233626 571714.9951697497 1609166.2476380547
          495696.1768802472 519194.25563565607 1708163.2659946834 2194774.9857485564 2048836.782395459 1192548.0011003814
          2221637.533207997 2137499.8641576287 2076259.9707893333 1253910.8812762825 2108063.2988400697 2080224.742566701
          2103683.159183208 1315273.7614521836 1994489.0644721426 358321.01810770103 610033.002861657 1240207.8099802476
          1041365.7522251009 319415.5658253471 687151.6921259181 1314738.098067292 1011009.7482575706 280510.11354299326
          764270.381390179 1389268.3861543364 980653.7442900402 557320.2068257519 647575.9846567902 737831.7624878285
          1992684.3443496388 2966654.7258045794 1741800.8621492777 2018452.4115033064 2982963.31045268 1820931.3875112457
          2044220.4786569737 2999271.89510078 1900061.9128732132 558348.1813801357 395404.176106373 519747.2897958674
          466192.486654296 481146.39821159904 536980.7972022189 1018287.4523718281 1736839.9157463852 2338984.661104399
          2224663.406364047 1015919.3570048749 1768283.1217768495 2323374.053327803 2210971.070501705 1013551.2616379214
          1799726.3278073138 2307763.4455512078 2197278.7346393634 -2001995.9994654965 -3053414.8347068327 -3121895.199554594
          -2921447.3514804034 -2035830.6379080743 -3130412.545977949 -3147309.994427178 -2985455.0876059025 -2069665.2763506516
          -3207410.257249065 -3172724.789299762 -3049462.8237314015 3186756.3686666526 1841142.4868289058 3054078.5529890032
          3201967.798205074 1861677.5339904975 3088524.329960465 3217179.227743496 1882212.581152089 3122970.1069319276
          -2976253.1893095444 -206065.81273154647 -2919872.736032424 -150504.56160626776 -2863492.2827553037 -94943.31048098917
          161118.53781884164 1219585.9116060194 -567625.3908303932 -837520.4123078249 132687.13558983285 1254984.5024093124
          -555603.3520522958 -937235.5696151627 104255.7333608239 1290383.093212606 -543581.3132741986 -1036950.7269225
          2366746.4310480123 1618464.7216857658 2360919.3637490976 1672062.3899693864 2355092.2964501833 1725660.058253007
          316539.1629044813 -97148.63323197285 381584.1043423113 -57286.7433228517 446629.04578014126 -17424.853413730347
          620215.9354594428 1205498.2598169288 570872.6560035028 1237438.0391575536 521529.37654756266 1269377.818498179
          -1741177.6113279376 -2416213.8949254993 -2606993.757795013 -1686053.5424944428 -1777955.4263881382 -2447749.6446814924
          -2590175.8202465046 -1653160.74038394 -1814733.2414483388 -2479285.394437485 -2573357.8826979958 -1620267.9382734369
          1623949.7771296343 -1818953.5121556302 1621580.7317233123 -2129242.56441833 1619211.6863169905 -2439531.616681029
          -164340.288901207 -135741.0937767415 -107141.89865227608 1558653.7697969666 1931848.7092861384 1584018.0385415063
          1933445.8678877093 1609382.307286046 1935043.0264892795 748721.8943967441 1002565.9630563552 587662.2213690066
          726967.1560305061 972201.3531114621 527248.9625417886 705212.417664268 941836.7431665687 466835.70371457085
          -1160969.8193067391 -679486.3219260616 -1152044.9460324633 -1146144.4803697013 -638458.0123905588 -1136737.9398899304
          -1131319.1414326634 -597429.7028550564 -1121430.933747397 2479584.4950622832 2655878.407062987 2832172.3190636905
          1298367.3308315363 1450693.1726761635 1603019.014520791 -110257.37296836275 187825.59670992265 -147453.88722625354
          192253.22867672308 -184650.4014841444 196680.8606435234 -151212.801780955 -89413.54049907325 -27614.279217191506
          -1804222.8018301134 881870.0794262076 -145378.50788334617 -1825536.8098648582 940488.5236005062 -186367.13452299318
          -1846850.8178996039 999106.9677748049 -227355.76116264035 -644339.3808934186 187143.35529138008 -752629.3547014436
          102881.57571117196 -860919.3285094685 18619.796130963892 -845141.8900713861 -364503.14273718203 -582887.7566680164
          -1044631.4120951591 -860183.0589377672 -338817.26759040175 -593065.6815041029 -1057118.76694429 -875224.2278041479
          -313131.3924436215 -603243.6063401892 -1069606.1217934205 -144734.73232745752 -820672.1824409405 -660480.4631983673
          28922.476643927628 -156960.77409916715 -810300.9981737739 -671025.2670171607 -16512.266051074126 -169186.81587087683
          -799929.8139066071 -681570.0708359542 -61947.00874607582 883522.8272535402 226447.77946587716 -155981.0577827339
          925813.3988755478 234951.29346598894 -188155.7555845613 968103.9704975557 243454.80746610084 -220330.45338638872
          2456856.4695627657 2454148.6636385326 2451440.8577142996 891107.6891832751 805063.1610858778 719018.6329884805
          -157350.01853010227 -316968.2580724488 -146142.7179943504 -312881.2129013177 -134935.41745859853 -308794.1677301866
          -726988.7382800188 -942619.5047049024 -713098.6009277187 -916439.8967580213 -699208.4635754186 -890260.28881114
          3211308.9045781307 3287903.2399825314 3364497.575386932 -263907.45744059485 -817789.967431473 149123.08281902413
          403811.5342082527 -229526.6225994407 -860647.5274309724 124430.04081322448 454015.1493166496 -195145.7877582865
          -903505.0874304719 99736.99880742485 504218.76442504645 -411380.06935134024 -442373.30577963515 -473366.5422079301
          -282679.73494452523 -256502.49256590256 -230325.25018727983 -1879350.164501572 -3181250.49476045 -1874222.5640274005
          -3207875.821298272 -1869094.963553229 -3234501.147836094 -625492.7279701729 -618592.9703112262 -611693.21265228
          -3194666.43857017 -2208985.5938529884 -3169252.180874888 -2150079.1072496935 -3143837.923179605 -2091172.6206463987
          -3372906.7886253274 -3857216.0966400146 -4341525.404654703 -794249.8920893129 -781712.9806597685 -766229.7380331357
          -735032.29247878 -738209.5839769582 -688351.6042977915 -583397.3336455772 -585813.1096464973 -588228.8856474175
          80050.60634884465 77164.11957948767 74277.63281013066 -983511.4590574419 -960306.0561600509 -937100.6532626599
          -2381712.5838086396 -1510379.6297466627 -2663454.111588738 -1750991.7284025797 -2945195.6393688354 -1991603.827058497
          10984.392373753712 47201.310833227784 83418.22929270181 -2030528.9454154288 -206242.19381267627 -2132744.7730059046
          -193837.4590931601 -2234960.6005963804 -181432.72437364393 2753705.1369997486 1467563.1839963489 1886156.6901642394
          2690847.623279997 1342552.922405485 1714026.2567445487 2627990.1095602456 1217542.6608146215 1541895.823324858
          1807777.603483811 1785759.4568086779 1858439.1178828443 1814515.7900530428 1750033.7125419935 1836458.0563954478
          1821253.9766222746 1714307.9682753093 1814476.994908051 1493113.523116902 3232170.325325115 1535853.2144064328
          3337811.232334514 1578592.9056959632 3443452.1393439127 323292.1876435448 256952.45521685766 22180.674139173432
          357820.87412693445 267458.5923473619 2630.455833984175 392349.560610324 277964.7294778662 -16919.76247120509
          -549507.0146864961 342019.5502025335 -567037.8674106455 400233.9692508733 -584568.720134795 458448.38829921314
          -178184.97868283954 -180703.7160645479 -183222.4534462562 1394810.1018258156 1902349.6321174656 1364935.5457817884
          1924444.2879246054 1335060.9897377612 1946538.9437317452 2078732.546932421 1710315.7460855052 2057434.0526843404
          1631423.5119878317 2036135.5584362599 1552531.2778901584 -530023.812599153 52937.96668261278 -675848.3155037414
          -32328.120678363135 -821672.8184083297 -117594.20803933899 -654594.3073714998 -606721.9923780031 -558849.6773845064
          1364171.9256395027 886958.8372003376 1414053.3585228273 876946.3333172761 1463934.7914061518 866933.8294342143
          1391564.3737895133 1474424.641429829 1557284.9090701442 543057.0338068916 595223.9320736682 647390.830340445
          1639501.0844740681 1708877.1935759657 1778253.3026778633 1060938.3338943697 1127204.4462908106 1193470.5586872515
          260823.4098178736 258909.69085416428 256995.971890455 -1254425.9999285887 1831356.919453762 -1346145.1880244585
          2070466.3696468493 -1437864.3761203284 2309575.8198399367 -148951.52303014052 -315915.88065445697 -153017.69325424355
          -295834.75570622226 -157083.8634783466 -275753.6307579875 -2827402.8589335084 -2837411.258391813 -2847419.6578501174
          -391770.1369350011 -372204.5370967062 -352638.9372584113 -157436.2999812108 -162191.16479902793 -166946.02961684507
          1756733.3079258783 1728524.655858814 1700316.0037917506 722234.7301335346 1017145.9709522538 1312057.2117709727
          -855997.7693347263 -860607.5006054221 -865217.2318761175 1878950.0159328566 1659826.9053646675 1905655.032922861
          1700941.7244947106 1932360.049912865 1742056.5436247536 1430362.66141035 1450869.4585075092 1471376.2556046683
          721224.1645566111 536285.9373698101 705470.5012582619 402044.2851960361 689716.8379599128 267802.6330222621
          168031.2564506348 99106.14079820052 69831.08701345194 147849.7008362498 104354.1061018325 56562.33492053066
          127668.14522186479 109602.07140546446 43293.582827609396 27687.550365281742 11474.054841999525 -4739.440681282707
          1448214.4754447017 1474885.7857525877 1501557.096060474 979149.4749376904 1565840.2273579384 955662.9332268921
          1597189.776221 932176.3915160939 1628539.3250840614 2084618.1463200622 2465039.88422073 2101645.2893093503
          2478653.5350693194 2118672.432298639 2492267.1859179083 2962145.577695115 3002700.042451705 3043254.507208294
          2667211.3587782453 3531857.430639058 2636872.9020368014 3591192.1184020047 2606534.4452953576 3650526.8061649515
          -2858140.006178723 1031069.8851582764 -1557270.565511328 -2805170.2199027096 -2887560.515286884 1277563.4979499257
          -1544303.7778410083 -2759936.1732595586 -2916981.024395044 1524057.1107415748 -1531336.9901706884 -2714702.1266164077
          -965688.7975902184 -925634.5542857632 -885580.3109813081 -1301745.0001324096 -1276819.802216248 -1251894.6043000864
          -365944.19432342326 251735.34397696037 -447577.4226902354 134498.2615568078 -529210.6510570474 17261.179136655217
          614318.2330412869 622062.6777668943 629807.1224925017 -15068.300060916867 23407.10043646783 39622.63071270037
          -37034.55885623889 94313.56148631762 -97476.21814894558 -1869815.527652066 -2141237.399340271 -1872141.8302190746
          -2152430.928717639 -1874468.132786083 -2163624.4580950066 228839.5270114167 275048.12825042626 321256.7294894358
          2893423.9395758566 3935798.1421227157 2952251.89121536 4066382.681982028 3011079.8428548626 4196967.22184134
          -2830736.5262253433 -2145187.9308230653 -1664316.244490711 -2168849.1784812463 -2806746.645750857 -2111556.5378150744
          -1633748.0809812061 -2177602.118912302 -2782756.7652763706 -2077925.144807084 -1603179.9174717013 -2186355.0593433576
          -270046.4400448941 -284065.57510292 -298084.7101609459 -1728613.8088799112 -2393327.1979793664 -1735582.5592521033
          -2351822.5611937367 -1742551.3096242952 -2310317.924408106 72429.15993354555 2294217.365244791 47228.69279896462
          2424086.8334557572 22028.225664383674 2553956.3016667236 2467832.657724737 2523942.0507131624 2580051.443701588
          1419340.4767149703 1427777.6831440572 1436214.8895731438 -587147.0616727759 -620131.2705411222 -653115.4794094686
          -1107365.3294106554 -1165879.9436876113 -1224394.5579645666 -2448870.4373817886 -2508356.953978782 -2567843.470575776
          -1166793.18092908 154507.9922530609 -1202523.0934278406 89527.5940147099 -1238253.005926601 24547.195776358945
          -952161.2958041518 -989934.8115653899 -1027708.3273266279 1975140.068304376 2428659.7167502795 2882179.3651961833
          735739.6351609586 714583.1074191649 693426.5796773706 1056914.8173134634 1024773.1827485906 992631.5481837176
          -1996331.7525703437 -2016768.658342158 -2037205.564113972 1802227.3982639005 1806069.1312823615 1809910.8643008228
          2254936.526109483 2234233.5564696053 2873708.1048721937 2212958.6057733526 2244433.1464970945 2863542.617690177
          2170980.685437222 2254632.736524584 2853377.130508161 1188969.3048474656 1411122.5403489845 1633275.775850503
          146331.7402561253 899351.350149721 37397.76096901637 763637.1692918311 -71536.21831809253 627922.9884339412
          -2443266.4305019416 -2481852.1069500386 -2520437.783398136 -2588436.445750056 -2568567.02771434 -2548697.6096786247
          2585028.720104293 2547275.2542493893 2509521.788394485 -1609082.4280698777 -1611402.0019445932 -1613721.5758193086
          -601646.3862091232 -261903.00985035693 -567623.8139151899 -235246.79506500298 -533601.2416212566 -208590.580279649
          -3304986.9755296563 -3294896.467776323 -3284805.9600229897 -810334.658020962 -871512.6102870586 -932690.5625531551
          -3537315.8704452366 -3920696.2475899276 -4304076.62473462 37062.78816696607 58680.50947232352 80298.23077768102
          831270.4034660948 816000.0749776185 800729.7464891424 1803784.1388980292 1991813.4213937365 2179842.703889444
          944071.4121425253 701056.8539195159 877348.2966114631 705115.5386383901 810625.1810804007 709174.2233572642
          -511707.4563547301 -590868.0952826752 -670028.7342106208 -623399.4452938898 -1587.3796842696843 -661300.9369200113
          -41423.85038820072 -699202.428546133 -81260.32109213175 148971.44169184405 109852.45692900725 70733.47216617051
          276941.31324620586 244785.36928740778 212629.4253286097 -812187.4377141857 -901276.0810766083 -990364.7244390303
          -1438.596829616814 -1786670.168315772 112192.57661440037 -1704071.6352082596 225823.75005841756 -1621473.1021007472
          -370328.1333335627 -374839.5167102849 -379350.9000870067 -1424664.2897307882 -1474694.1290578172 -1524723.968384846
        </DataArray>
        <DataArray type="Float64" Name="peeq" format="ascii" RangeMin="0.0001044256446437753" RangeMax="0.0043162619391736564">
          0.0012849148787274646 0.0011740925914042785 0.0009186972171039679 0.0010626081944745116 0.0012846126973401347 0.0011739038063386259
          0.0009190079126130191 0.0010630000348954567 0.001284310515952805 0.0011737150212729735 0.0009193186081220706 0.0010633918753164017
          0.002201368550894019 0.002112678094583719 0.002196412319750898 0.002331055818607655 0.002200801821775699 0.002112217996995699
          0.002196202132038027 0.002330741080913198 0.0022002350926573788 0.002111757899407679 0.0021959919443251563 0.0023304263432187416
          0.0003057198711261653 0.0005001613668822351 0.00030641406197589905 0.0005010159310723068 0.00030710825282563277 0.0005018704952623784
          0.003182131492865019 0.003255731358164758 0.0027436776773525832 0.0027793861213695733 0.0031820180184323394 0.0032549862630239126
          0.002742652610449131 0.002777900403583774 0.0031819045439996593 0.0032542411678830674 0.002741627543545679 0.0027764146857979745
          0.0023302553648379817 0.0025010891259734562 0.00233081269806604 0.0025011009674312285 0.0023313700312940985 0.002501112808889
          0.002556861955041386 0.0024164721450910744 0.0024769576845569646 0.002669876799875516 0.0025552631682979666 0.0024166459318907996
          0.00247454224902491 0.0026646190786478513 0.002553664381554547 0.002416819718690525 0.002472126813492856 0.002659361357420186
          0.0032827740556796506 0.003609259856793103 0.0033860412037810374 0.0031302023552097725 0.003281766391703564 0.003605948523683754
          0.003384131820898528 0.0031300584622333634 0.003280758727727477 0.0036026371905744045 0.003382222438016019 0.0031299145692569538
          0.0012008595344310323 0.001385198656978196 0.001201649597452076 0.0013851517219912108 0.0012024396604731194 0.0013851047870042253
          0.0020814145679525532 0.0018757490472003195 0.002579023669070965 0.002670029850397236 0.0020798419553889618 0.0018752491886994927
          0.002577124160884323 0.002668369480065157 0.00207826934282537 0.001874749330198666 0.002575224652697681 0.0026667091097330783
          0.0014799884374099284 0.0015407153344252531 0.0017988130731715736 0.0014795512086647116 0.0015402834077579552 0.001798691104910798
          0.0014791139799194947 0.0015398514810906572 0.0017985691366500225 0.0040868571584907944 0.004278241689045798 0.004168123798853329
          0.004002883032220106 0.004081621578791846 0.004273858294115245 0.0041633757885800645 0.003997409385926936 0.004076385999092897
          0.0042694748991846925 0.004158627778306801 0.003991935739633765 0.0027665551797451038 0.0028630640662476317 0.002662392587452449
          0.002691397484914466 0.0027658238718855635 0.0028634169320398257 0.002663023483728411 0.0026908549076161267 0.0027650925640260223
          0.0028637697978320187 0.0026636543800043727 0.0026903123303177873 0.003025260569589642 0.003025351912241995 0.0030254432548943483
          0.002557721898273547 0.0023890517446465602 0.0022859020436171076 0.0025567164460764363 0.002388193996168792 0.002285996734758193
          0.0025557109938793257 0.002387336247691023 0.002286091425899278 0.0028041772314368833 0.0030191981434567004 0.0028030464323202274
          0.0030192759104469506 0.0028019156332035728 0.0030193536774372007 0.003582612977828312 0.003357564785716417 0.0036257550635672453
          0.003896937363994786 0.0035823557074191473 0.0033579513932789273 0.003625315491355804 0.0038955244801075965 0.003582098437009982
          0.003358338000841438 0.003624875919144364 0.003894111596220407 0.001216080807221208 0.0015155878353906513 0.001060447041870138
          0.0006646709738247831 0.0012171486051989362 0.0015150917808409734 0.0010613891503125157 0.0006681778397882019 0.0012182164031766646
          0.0015145957262912954 0.0010623312587548935 0.0006716847057516206 0.0028752547111144094 0.002656374352630388 0.00268646249466848
          0.0028757444664365426 0.0026565559758695337 0.00268724553267826 0.0028762342217586757 0.0026567375991086795 0.0026880285706880405
          0.00039923707987342215 0.0010718069834485778 0.00040438198605454784 0.0010734937652377631 0.00040952689223567365 0.0010751805470269483
          0.0024010396067690063 0.0025746812483129055 0.0029061840361732684 0.0029503362953218135 0.002399888928022533 0.0025744493759917086
          0.002905140156624864 0.002947254367252798 0.00239873824927606 0.002574217503670511 0.0029040962770764595 0.0029441724391837823
          0.0031067458482945355 0.0028355880321938856 0.0031073795080645513 0.0028359331825781957 0.0031080131678345663 0.0028362783329625055
          0.0022449602227534856 0.002472424676518406 0.002241611493788002 0.0024682541214428684 0.0022382627648225182 0.0024640835663673312
          0.003021209415866598 0.0025652900513755774 0.0030188436576232634 0.0025650085151106353 0.0030164778993799287 0.002564726978845693
          0.0014564245458091162 0.0013024984254162853 0.0013030985941406856 0.0015196427739081334 0.0014571232542068286 0.0013037089136242429
          0.00130493617635659 0.0015211943000985398 0.001457821962604541 0.0013049194018322004 0.0013067737585724945 0.0015227458262889462
          0.0020724612296623597 0.001948420374895921 0.0020723195295579942 0.0019474787758757596 0.002072177829453629 0.0019465371768555984
          0.001971216561702889 0.0019684295452296165 0.0019656425287563443 0.0024379364799059756 0.0022279992689200998 0.0024389172840983955
          0.002228924955691572 0.002439898088290816 0.002229850642463044 0.002592705693983906 0.0026061635917342995 0.002644446177095236
          0.0025906849525449372 0.0026043347135108895 0.0026407823956457635 0.0025886642111059683 0.0026025058352874796 0.00263711861419629
          0.0020300626218641422 0.0022448744814804766 0.001672845052459885 0.002028175376859339 0.002243066759750307 0.0016708762873693713
          0.002026288131854536 0.002241259038020137 0.0016689075222788576 0.0021442847385961393 0.0021457326934492533 0.0021471806483023665
          0.0017779351583152177 0.0017778805427839067 0.0017778259272525953 0.0022839957593178547 0.002346461306493065 0.0022824054701669075
          0.002344352244524902 0.0022808151810159603 0.0023422431825567388 0.002436771144476168 0.0024347973323121364 0.0024328235201481045
          0.0015432555801004732 0.0018816261287013766 0.0019417594787511502 0.0015450289996935416 0.001883621344363699 0.0019420354843330287
          0.00154680241928661 0.0018856165600260218 0.0019423114899149072 0.0033243139505472197 0.003430755051865318 0.0033199083232201823
          0.0034264631982916624 0.003315502695893144 0.003422171344718006 0.0002912552679349657 0.00019937560132413326 0.00023059178340551823
          0.0003722363301053666 0.00029211703228966773 0.0002004029367871722 0.00023174719285761419 0.0003732789942530926 0.0002929787966443697
          0.00020143027225021112 0.00023290260230971008 0.0003743216584008185 0.0009467121199864751 0.0006683041294655643 0.0007840044569251806
          0.0010592124897374376 0.0009472378606681855 0.0006692354092789272 0.0007845504473977375 0.0010593036630727162 0.000947763601349896
          0.00067016668909229 0.0007850964378702946 0.0010593948364079947 0.0021397011536460507 0.0019161147751280843 0.002145029859474337
          0.0021389338821306532 0.0019158373234145175 0.002144139072922656 0.0021381666106152553 0.0019155598717009504 0.0021432482863709755
          0.0024783518420955597 0.0024776392766391367 0.002476926711182713 0.0026468065886365876 0.002641193417265001 0.0026355802458934144
          0.00011899946312909804 0.00011958986161844759 0.0001202119926202508 0.00012077030357866034 0.00012142452211140353 0.00012195074553887308
          0.00044568960020522475 0.0005759839240194105 0.00044685221344384373 0.000577149901469039 0.00044801482668246266 0.0005783158789186674
          0.0022242185889772208 0.0022251252403153446 0.0022260318916534684 0.0014857000504424807 0.001640319999972489 0.0015921475548781167
          0.001327656900639679 0.0014862739920841572 0.001640782864648965 0.0015921179256398847 0.0013279368957091898 0.001486847933725834
          0.001641245729325441 0.0015920882964016528 0.001328216890778701 0.001867165995880052 0.0018670191688319555 0.0018668723417838585
          0.0015384272229313528 0.0015386771453732699 0.0015389270678151869 0.0019186314908999358 0.0016183537997798763 0.0019193070514150153
          0.0016190461414412015 0.001919982611930095 0.001619738483102527 0.0015435805738947827 0.0015460545884405943 0.0015485286029864056
          0.0013903492510357633 0.0016444836053016055 0.0013920152713187675 0.0016463103322775167 0.0013936812916017717 0.0016481370592534277
          0.001619195940611649 0.0016193992201252935 0.001619602499638938 0.001681098321697857 0.0017553349860228778 0.0016814405234553923
          0.0017564330180665502 0.0016817827252129272 0.0017575310501102225 0.0016149281890988302 0.0016148765209377082 0.0016148248527765863
          0.0012467592256263115 0.0012467679527744856 0.0012467766799226598 0.0018895269778833198 0.0018912747947720807 0.0018930226116608416
          0.0013656832500095876 0.0017333433666007056 0.0013658722285267713 0.0017331929801731696 0.0013660612070439553 0.001733042593745634
          0.002155627775813739 0.0021569571245415504 0.0021582864732693613 0.0022813915051373805 0.0022486961830702054 0.0022800458289834315
          0.0022478086336354198 0.002278700152829482 0.002246921084200635 0.003671175777591399 0.0038477602994092114 0.00364482958232022
          0.003667517293956573 0.0038428011059149594 0.0036417009008552852 0.003663858810321747 0.0038378419124207065 0.0036385722193903506
          0.004254368653722314 0.004070715313463392 0.0040584353985613246 0.004251187066295929 0.00406864593191277 0.004055885430024628
          0.004248005478869546 0.004066576550362148 0.004053335461487935 0.001465327693967864 0.0020072104793975266 0.0014668229608835227
          0.0020089298657712945 0.0014683182277991814 0.002010649252145063 0.0022049503734288068 0.0021958118852160695 0.0021487879662722394
          0.00220360488343017 0.002194344541111068 0.002147542391884385 0.0022022593934315337 0.0021928771970060666 0.00214629681749653
          0.0025456171391327756 0.002431587341253738 0.002544732869033716 0.0024313451258004414 0.0025438485989346567 0.002431102910347145
          0.0007430093050748315 0.0007437088950649448 0.0007444084850550582 0.004122667532711583 0.0043162619391736564 0.0041203770954445365
          0.004313279413593385 0.004118086658177491 0.004310296888013114 0.004315189203156355 0.004120099090380311 0.004311025788257979
          0.0041150899557171605 0.0043068623733596035 0.00411008082105401 0.003595268816363369 0.0037570716066896515 0.003590163382175585
          0.003751750615293205 0.003585057947987802 0.003746429623896759 0.003183737353034969 0.0031822489207036803 0.0031807604883723915
          0.003759689835245602 0.003721022387542566 0.003758235673212698 0.003719996558421514 0.0037567815111797936 0.0037189707293004623
          0.0032622394123087636 0.003260880817705539 0.0032595222231023143 0.001813058526725597 0.0018135242338793384 0.0018139899410330798
          0.0026910421833667144 0.0026899157388777665 0.0026887892943888193 0.0018068963995157114 0.0018075053734456052 0.0018081143473754994
          0.0018586311848326847 0.0018586492889689516 0.0018586673931052183 0.002222208019917258 0.0021058909646531616 0.0022232315614759963
          0.0021073851672540897 0.002224255103034734 0.0021088793698550174 0.00212379137700413 0.0019935440143821104 0.002125098936189183
          0.0019940563932055455 0.0021264064953742372 0.001994568772028981 0.0012740370784180318 0.001275445277415622 0.0012768534764132124
          0.0008520683630546106 0.000852924058768653 0.0008537797544826955 0.001918733482901799 0.0019186130392207022 0.0019184925955396059
          0.0025858409782262576 0.0025853724750625182 0.0025849039718987793 0.0010833265391689138 0.0010867248571736342 0.0010901231751783546
          0.0009232756500487582 0.0009244860076578583 0.0009256963652669585 0.0030837234503749596 0.002684774432326384 0.003083599725883011
          0.0026860680539038803 0.0030834760013910625 0.0026873616754813767 0.0034799428703877694 0.003478122932216469 0.0034763029940451684
          0.003965019370421187 0.0037509844952992883 0.003959624353438903 0.003745456381032108 0.00395422933645662 0.0037399282667649274
          0.001167540462576367 0.0014118859902334437 0.0010901470017590851 0.0011675758917286505 0.001411712917495019 0.0010904593994768548
          0.0011676113208809338 0.0014115398447565948 0.001090771797194625 0.001023588451912077 0.0010242424914134293 0.001024896530914782
          0.0038286876162407354 0.0038254974593781832 0.00382230730251563 0.002061188832436297 0.002035163851059272 0.0020610198841758886
          0.002035160110856396 0.002060850935915481 0.0020351563706535207 0.003785448961908517 0.0034501959657402847 0.0037840561777849327
          0.0034501662756754098 0.003782663393661348 0.0034501365856105352 0.003102101674899346 0.003103230352155354 0.0031043590294113623
          0.0033217447211679194 0.003035525516469639 0.003322258859161056 0.003036644213951326 0.0033227729971541924 0.003037762911433013
          0.0004472657445782894 0.0005932276588282959 0.00042294299650324867 0.0002760757343256396 0.00044995889928642807 0.0005969963665380993
          0.0004257712544894642 0.00027891148050916334 0.00045265205399456674 0.0006007650742479026 0.00042859951247567983 0.0002817472266926871
          0.0005522393119310815 0.0005534472227524847 0.0005546551335738881 0.001166939665562092 0.001170083642504387 0.0011732276194466823
          0.0026144509136140017 0.002655738391696163 0.002612590770616865 0.0026539402434010164 0.0026107306276197282 0.002652142095105871
          0.0023504764385551876 0.0023521938789863514 0.0023539113194175148 0.0022853679662472055 0.002242208308391336 0.0022839620912684083
          0.002240205038102985 0.0022825562162896097 0.0022382017678146335 0.0017934693382148906 0.001370072158795009 0.0017918005457767717
          0.0013693326647022802 0.0017901317533386527 0.0013685931706095516 0.001331833524192365 0.0013322961346735093 0.0013327587451546538
          0.0027834308664387913 0.002835687267341923 0.0027852031946817607 0.0028371513923275697 0.00278697552292473 0.002838615517313217
          0.0008436417237456133 0.0008991484559872201 0.0007070881666721731 0.0006012443022414958 0.0008452201913844476 0.0009005622946082936
          0.000708395689058146 0.0006027490667592096 0.000846798659023282 0.0009019761332293672 0.0007097032114441188 0.0006042538312769232
          0.0025335159258031772 0.00253160209338257 0.0025296882609619625 0.00037943214421595886 0.00023818830992767856 0.0003809616214430423
          0.0002402490224368464 0.0003824910986701257 0.00024230973494601424 0.002756197146676358 0.0032084314911519337 0.0027547366663921422
          0.003206942108708256 0.0027532761861079258 0.0032054527262645773 0.003215134124029166 0.0032125277971134215 0.003209921470197677
          0.002061687989733714 0.002060947193574348 0.0020602063974149818 0.0024226166380988 0.0024204839805670206 0.002418351323035242
          0.0006465779592635173 0.0006488348539060916 0.0006510917485486659 0.00031446491207150033 0.0003159397136915433 0.00031741451531158623
          0.002274450899388604 0.002804116213728426 0.002272220046783839 0.0028027624758520946 0.0022699891941790748 0.002801408737975763
          0.00028228232346015733 0.0002835082358225034 0.0002847341481848494 0.0008386816445835318 0.0008415345556963398 0.000844387466809148
          0.002158998717188572 0.0021575244114179068 0.002156050105647242 0.004077256716128389 0.004073355239176386 0.004069453762224384
          0.00018584810066232392 0.00018760563980619674 0.00018936317895006956 0.0025231175132777667 0.0025245899320018644 0.0025260623507259617
          0.0037552226372444784 0.003726081444424133 0.0032212591132003143 0.0037509970216637392 0.003721943796002841 0.003218158760565666
          0.003746771406082999 0.00371780614758155 0.0032150584079310178 0.0008325830442755678 0.00083654723879184 0.0008405114333081121
          0.002259835680223073 0.0021873582783744393 0.002257585476165101 0.00218549992938149 0.002255335272107129 0.002183641580388541
          0.0009356664422414155 0.000937597951028793 0.0009395294598161707 0.0011003921413737963 0.0011020347373460252 0.001103677333318254
          0.0025365020129618525 0.0025344706639922523 0.002532439315022652 0.00018637129575869022 0.00018805689459657732 0.00018974249343446444
          0.0005168940031362773 0.0007814045866194267 0.0005180124160637826 0.0007823247417853931 0.0005191308289912878 0.0007832448969513592
          0.0011174896905275322 0.0011190918866339846 0.001120694082740437 0.0001044256446437753 0.00010527128917499717 0.00010611693370621902
          0.0024252280977605386 0.002424522504789375 0.0024238169118182113 0.0023402815226941593 0.002338474055485192 0.002336666588276225
          0.004207652437894904 0.0042036960315145165 0.0041997396251341294 0.0019925683368028227 0.001992314838012953 0.001992061339223083
          0.002172474755034615 0.0021634484675266425 0.002171070473495739 0.0021626181332683723 0.0021696661919568634 0.0021617877990101017
          0.002600639498408915 0.0025989099456031873 0.0025971803927974596 0.002043230637970502 0.0020401795767079857 0.0020431523984546134
          0.002039287649076623 0.002043074158938725 0.0020383957214452604 0.0020994844634038045 0.0020981996785377497 0.002096914893671695
          0.0019242674669819537 0.0019237622911666258 0.0019232571153512982 0.0022132484800452996 0.002212535535057408 0.0022118225900695163
          0.001602483700545884 0.0016797157047780669 0.0016052382985501427 0.0016826077927979653 0.001607992896554401 0.0016854998808178642
          0.002025112573716718 0.00202611029637384 0.0020271080190309627 0.002178275403293952 0.002178577931684013 0.002178880460074074
        </DataArray>
        <DataArray type="Float64" Name="pe11" format="ascii" RangeMin="0.00010439093020552464" RangeMax="0.00431525665783153">
          0.0012845213906751936 0.0011737698862806516 0.0009184082233712467 0.0010621688736700777 0.0012842142352031713 0.0011735775386164649
          0.0009187174465297944 0.0010625545563183482 0.0012839070797311491 0.0011733851909522782 0.000919026669688342 0.0010629402389666185
          0.0022006981018443555 0.0021118969929167937 0.002195159647676412 0.0023298018620770368 0.002200107101159929 0.0021114040284119584
          0.0021949081335830792 0.0023294525025087318 0.0021995161004755024 0.0021109110639071236 0.0021946566194897465 0.002329103142940427
          0.00030569693034107647 0.0005001142936695491 0.0003063914877771758 0.0005009686291120935 0.000307086045213275 0.000501822964554638
          0.0031797837864321193 0.003253353326861515 0.002741698304437325 0.002777486637081026 0.0031796029782169446 0.003252543357772881
          0.0027406502464514763 0.0027759359022177616 0.0031794221700017717 0.003251733388684247 0.0027396021884656275 0.0027743851673544978
          0.002328242283889899 0.002499087404711604 0.0023287562486299256 0.0024990566009034597 0.002329270213369952 0.0024990257970953157
          0.00255581187167975 0.0024148686193437513 0.0024754486073341087 0.0026693590990680216 0.0025541994554253208 0.002415040639816702
          0.002473023437789252 0.002664085529407948 0.0025525870391708916 0.002415212660289653 0.002470598268244395 0.0026588119597478746
          0.0032819597521002533 0.003608021283527467 0.003384498479628407 0.003129409469786139 0.0032809737686003704 0.003604728540465311
          0.0033826319489217893 0.0031293018822639547 0.0032799877851004884 0.003601435797403155 0.003380765418215172 0.0031291942947417706
          0.0012001978249983362 0.0013846302623207445 0.0012009729454742827 0.0013845737431348597 0.0012017480659502295 0.001384517223948975
          0.0020800037628265333 0.0018743376356699743 0.0025779035409942714 0.002669083531874954 0.0020784214377084723 0.0018738103091781634
          0.002575998046489034 0.002667421837378629 0.002076839112590411 0.0018732829826863526 0.002574092551983797 0.0026657601428823037
          0.0014797828620355573 0.0015404561866930915 0.0017984887272126581 0.0014793451729397274 0.001540024015138201 0.0017983647772912845
          0.0014789074838438972 0.001539591843583311 0.0017982408273699104 0.004086482428009698 0.004277683295173392 0.004167171521630712
          0.004002183343518775 0.004081255769776333 0.0042732777365053366 0.0041624074553807 0.003996711526490174 0.004076029111542967
          0.004268872177837282 0.00415764338913069 0.003991239709461573 0.0027659216991663374 0.0028616281553187845 0.0026604880206775178
          0.002690495439538774 0.0027652146135958436 0.0028620252768584973 0.00266116488470457 0.0026899710090876276 0.0027645075280253503
          0.0028624223983982106 0.0026618417487316217 0.0026894465786364815 0.0030228329814224195 0.0030228764009082643 0.003022919820394109
          0.002556611730432984 0.002387366857982884 0.00228383127408064 0.0025555878085334626 0.002386495257114421 0.0022839047557405372
          0.002554563886633941 0.002385623656245958 0.002283978237400435 0.002803742563349684 0.0030182344841348714 0.0028026285383717384
          0.003018348996285885 0.002801514513393793 0.003018463508436899 0.0035799301829382004 0.003354613329399681 0.003622603945382802
          0.003894256696710422 0.003579606694471489 0.0033549503973915474 0.003622110956099203 0.0038927805683605463 0.0035792832060047783
          0.0033552874653834134 0.003621617966815604 0.0038913044400106706 0.0012148416819113587 0.0015140937014888865 0.0010591082498266806
          0.0006638996149074677 0.0012158832833759278 0.001513581192886105 0.001060021367018017 0.0006673877115088139 0.0012169248848404974
          0.0015130686842833232 0.001060934484209354 0.00067087580811016 0.0028723269981283076 0.0026542673153300343 0.0026836176699020077
          0.0028727708250070212 0.0026544136541888923 0.002684356595582751 0.002873214651885735 0.0026545599930477503 0.0026850955212634935
          0.00039889916693543496 0.001070859644182101 0.0004040311328802615 0.0010725067004598882 0.00040916309882508786 0.0010741537567376751
          0.0023973269008215475 0.002571830651678826 0.0029036719586810443 0.002946559423607781 0.0023961793481313822 0.002571646305408105
          0.0029026784504124314 0.002943500721774668 0.002395031795441218 0.0025714619591373834 0.0029016849421438194 0.002940442019941556
          0.0031037203014135676 0.0028333213915720107 0.0031043081110664343 0.0028336339700909554 0.0031048959207193015 0.0028339465486099
          0.0022440207591570495 0.002471859063639563 0.0022406417456158362 0.0024676736870492925 0.0022372627320746226 0.0024634883104590216
          0.003016904617591123 0.0025611830456712214 0.0030145159604908346 0.002560867378580875 0.0030121273033905456 0.0025605517114905283
          0.001455541100241718 0.0013016134229575744 0.0013017739250511598 0.001518150484024751 0.0014562210231673567 0.0013028005815023654
          0.0013035781258256467 0.0015196715063615623 0.0014569009460929953 0.001303987740047156 0.001305382326600134 0.0015211925286983735
          0.002069508008736485 0.0019449239885383422 0.002069391167822687 0.0019439525250365213 0.002069274326908889 0.0019429810615347
          0.001969923648122044 0.0019670976503347467 0.001964271652547449 0.0024357148931260456 0.00222506575574719 0.002436744782967283
          0.0022260410479537232 0.0024377746728085205 0.002227016340160255 0.0025922189614375362 0.0026053395520518247 0.0026439845168603456
          0.002590191509625704 0.0026035007545346864 0.002640301935513289 0.0025881640578138713 0.0026016619570175484 0.0026366193541662317
          0.0020288922521689754 0.0022440110656251075 0.0016713740933940826 0.002026974074245041 0.002242174244758672 0.0016693659846120329
          0.0020250558963211067 0.0022403374238922366 0.0016673578758299825 0.002141653878651083 0.0021431101812045116 0.0021445664837579405
          0.0017766749524145112 0.0017765779432272581 0.0017764809340400048 0.0022837320915986784 0.0023462204188335143 0.0022821369749346882
          0.002344102865252678 0.002280541858270699 0.0023419853116718415 0.0024362344630409864 0.0024342429511930138 0.002432251439345041
          0.0015402094003292204 0.0018785198631121737 0.0019384866265454099 0.001542015951398769 0.0018805804509673461 0.0019387794151009409
          0.0015438225024683179 0.0018826410388225186 0.0019390722036564721 0.0033213599163379303 0.003427386445787721 0.003316987881228849
          0.003423087321504219 0.003312615846119768 0.0034187881972207175 0.0002912267477838402 0.00019935363643297524 0.00023056194754095396
          0.00037218594283570824 0.0002920895211626699 0.00020038210671499712 0.00023171906869129565 0.00037323059296382865 0.0002929522945414998
          0.00020141057699701902 0.0002328761898416373 0.0003742752430919491 0.0009465000906452334 0.0006681725740965689 0.0007838101491162018
          0.001058924213585472 0.0009470252625761608 0.0006691062635578726 0.0007843573338746712 0.0010590126518279408 0.0009475504345070883
          0.0006700399530191764 0.0007849045186331403 0.0010591010900704095 0.0021393670032264544 0.0019157784937062037 0.0021447136385672923
          0.0021385956197886354 0.0019154987075685654 0.0021438153848228644 0.0021378242363508165 0.0019152189214309274 0.002142917131078436
          0.0024768360253773205 0.0024761380616390065 0.0024754400979006925 0.002646545675966021 0.002640914682600429 0.002635283689234837
          0.00011898793279783231 0.00011957369704407829 0.00012020112740333274 0.00012075507961984066 0.00012141432200883317 0.00012193646219560302
          0.00044560891402856964 0.0005758930801269283 0.00044677434706036394 0.0005770609217905392 0.00044793978009215803 0.00057822876345415
          0.002221820480055638 0.0022227792401488334 0.002223738000242028 0.001485333386137161 0.001640001230447638 0.001591819061508128
          0.0013273023715022387 0.001485902725052432 0.0016404622714972074 0.0015917885596441438 0.0013275779701817428 0.0014864720639677035
          0.0016409233125467767 0.0015917580577801595 0.0013278535688612467 0.001866840006934478 0.001866689941022199 0.0018665398751099203
          0.001537988175540923 0.0015382331296127465 0.0015384780836845695 0.0019155399477909178 0.001615446463163653 0.0019161853997930606
          0.0016161155710046737 0.0019168308517952038 0.001616784678845694 0.0015404054302979471 0.001542929420121844 0.001545453409945741
          0.0013883263590879923 0.001642142304023566 0.0013899512893745308 0.0016439307484981385 0.001391576219661069 0.0016457191929727115
          0.0016156412600819541 0.0016158281618247684 0.0016160150635675828 0.0016802341294289065 0.0017538988884676998 0.0016805635110346316
          0.0017549725302053313 0.0016808928926403568 0.0017560461719429634 0.0016143291561654127 0.001614271628955811 0.001614214101746209
          0.0012465165205897079 0.0012465233900937269 0.0012465302595977457 0.001887171078082718 0.001888885683468822 0.0018906002888549257
          0.0013621673495416234 0.0017295776503589515 0.0013623106946644614 0.001729401722313626 0.0013624540397872995 0.0017292257942683005
          0.002152505624739337 0.002153801451375858 0.002155097278012379 0.002280427473209763 0.0022478749126651444 0.002279037712383048
          0.0022469572206152448 0.002277647951556333 0.0022460395285653456 0.003670460904964229 0.003846752509783886 0.0036439168942473837
          0.003666816880584243 0.003841793736271025 0.0036408006287164756 0.0036631728562042565 0.0038368349627581648 0.003637684363185567
          0.004253018241887006 0.0040686207693673496 0.004056082884962804 0.004249784780146636 0.0040664713301322725 0.004053485265025026
          0.004246551318406265 0.004064321890897195 0.004050887645087247 0.001461484218431209 0.002003877567421963 0.001463001136866299
          0.0020056223687659252 0.0014645180553013888 0.002007367170109888 0.0022046725915112206 0.0021955387888256805 0.002148377360151701
          0.002203319523438495 0.002194059423522788 0.0021471189086482347 0.0022019664553657695 0.0021925800582198954 0.0021458604571447685
          0.0025441919893244517 0.0024302724210312748 0.0025432722152017666 0.0024300022755633956 0.0025423524410790803 0.0024297321300955164
          0.0007429297285311057 0.0007436278232168337 0.0007443259179025618 0.004120870021698622 0.00431525665783153 0.004118489652672014
          0.004312208968990504 0.0041161092836454055 0.004309161280149478 0.004314795773929789 0.004119823825959811 0.004310607017402761
          0.004114827918431421 0.004306418260875734 0.004109832010903033 0.0035930841204431982 0.0037545067922583365 0.0035880006259305782
          0.003749182237716254 0.0035829171314179587 0.0037438576831741715 0.003181730632106421 0.003180292969339595 0.0031788553065727693
          0.003757201085493312 0.003718536159142977 0.0037556574201066057 0.0037174265664859374 0.0037541137547198998 0.003716316973828898
          0.00325965856646211 0.003258243040496461 0.0032568275145308115 0.0018126571076811642 0.001813116759450527 0.00181357641121989
          0.002688646744403238 0.0026875312480366233 0.0026864157516700094 0.0018063970051128283 0.0018069962457968674 0.0018075954864809063
          0.0018580288556417418 0.0018580336797513184 0.0018580385038608953 0.0022202879491861846 0.0021036379610957297 0.0022213263945216086
          0.002105194979456654 0.002222364839857032 0.0021067519978175786 0.002121661973452921 0.001992255123752772 0.002122933344723372
          0.001992736430032346 0.002124204715993822 0.00199321773631192 0.001271723581246922 0.001273119306570124 0.0012745150318933258
          0.0008519166545712196 0.0008527732819183373 0.0008536299092654551 0.0019179411905627896 0.0019177992099510442 0.0019176572293392985
          0.002584637046380389 0.0025841871835949894 0.0025837373208095903 0.0010808227909940137 0.00108423127096438 0.001087639750934746
          0.0009207563073962043 0.000921943359428741 0.0009231304114612775 0.0030795899452439684 0.0026808831319219285 0.0030794257256208796
          0.0026821301997186093 0.0030792615059977908 0.00268337726751529 0.0034763005968830437 0.0034744528253811166 0.00347260505387919
          0.003963420502697108 0.0037493873798498754 0.003958018613809644 0.0037438646621131074 0.003952616724922179 0.0037383419443763398
          0.0011673482476386554 0.0014117057247597306 0.0010899923585242876 0.0011673839988757867 0.001411533072211489 0.0010903049324078738
          0.0011674197501129178 0.0014113604196632473 0.00109061750629146 0.0010234704912784691 0.0010241233325049052 0.0010247761737313416
          0.0038257517983437935 0.003822538957573963 0.003819326116804133 0.0020606383131296846 0.002034682046512751 0.0020604441994680257
          0.002034657637795834 0.002060250085806367 0.002034633229078917 0.0037822966534452867 0.003446454201639678 0.0037808611590889846
          0.0034463901126949776 0.0037794256647326815 0.003446326023750277 0.003098085819676937 0.003099181280741865 0.0031002767418067934
          0.0033182633292166332 0.0030319241010966164 0.0033187306789696698 0.003033002860185395 0.0033191980287227054 0.0030340816192741737
          0.00044664973220807783 0.0005923365560032723 0.00042248894296925834 0.00027585585648113784 0.00044933383751889625 0.0005961229014127352
          0.00042532993624311305 0.0002786951391270324 0.00045201794282971467 0.0005999092468221981 0.0004281709295169677 0.00028153442177292703
          0.0005520781717274308 0.0005532885394318803 0.0005544989071363299 0.0011643208749395264 0.001167506494471904 0.0011706921140042814
          0.002614116951679689 0.0026553431119865425 0.002612262375989272 0.002653550088411763 0.0026104078002988553 0.0026517570648369837
          0.0023473995356308886 0.0023490768558462787 0.0023507541760616688 0.0022851424353562324 0.0022419622682862865 0.002283728558393124
          0.0022399455537120126 0.002282314681430016 0.002237928839137739 0.0017920899695810593 0.0013686669165008244 0.0017903960765391306
          0.0013678899040481937 0.001788702183497202 0.0013671128915955634 0.0013316855826366017 0.001332148349551882 0.0013326111164671623
          0.0027797626038048614 0.0028322198020951663 0.002781495306262998 0.0028336455494023874 0.002783228008721134 0.0028350712967096085
          0.0008426640901945219 0.00089854956512319 0.0007067668876211376 0.0006007698548232598 0.0008442310383511602 0.0008999559894546237
          0.0007080744106218499 0.0006022739523061346 0.0008457979865077986 0.0009013624137860578 0.0007093819336225624 0.0006037780497890095
          0.002533064596044056 0.002531145700485451 0.0025292268049268464 0.0003792564042538318 0.00023809911072540362 0.00038078878965983363
          0.00024016278281373325 0.00038232117506583545 0.00024222645490206289 0.002755505954315081 0.0032077242561074177 0.0027540533948042538
          0.0032062441896849505 0.0027526008352934265 0.0032047641232624837 0.0032144400330342557 0.0032118499193970994 0.003209259805759944
          0.0020612375136897457 0.0020604810170271708 0.0020597245203645954 0.0024218983529056314 0.0024197569933349402 0.0024176156337642495
          0.000645648666419055 0.0006479183513405187 0.0006501880362619825 0.0003140109300534121 0.0003154745338179058 0.00031693813758239953
          0.0022733805275229582 0.0028036202821599683 0.0022711419677198066 0.0028022800864040197 0.0022689034079166554 0.0028009398906480715
          0.00028223768314305896 0.0002834658649722636 0.0002846940468014683 0.0008366839404969264 0.000839526064388819 0.0008423681882807117
          0.0021586385719314398 0.0021571524021645953 0.0021556662323977513 0.004075229630294526 0.004071306154198227 0.0040673826781019275
          0.00018576636530501933 0.00018752361140832055 0.0001892808575116218 0.0025202244900914893 0.0025216538086937764 0.002523083127296064
          0.003754766876662022 0.0037256131594890756 0.0032205244454108894 0.003750571313568627 0.0037214979712338046 0.0032174466770900547
          0.0037463757504752316 0.0037173827829785335 0.00321436890876922 0.000830875056531691 0.0008348790235968898 0.0008388829906620885
          0.0022595545274823646 0.002186988808228327 0.0022572879673698467 0.0021851081321098116 0.002255021407257329 0.0021832274559912958
          0.0009340348456889497 0.0009359658110325975 0.0009378967763762454 0.0010994054313830746 0.0011010252575608063 0.0011026450837385384
          0.002535379597213213 0.0025333387127825817 0.0025312978283519505 0.00018633930361201521 0.00018802689579657582 0.00018971448798113646
          0.000516832174221553 0.0007812964643212759 0.0005179513420785402 0.0007822166623140702 0.0005190705099355272 0.0007831368603068647
          0.001115913258649636 0.0011174857485744373 0.001119058238499239 0.00010439093020552464 0.00010523660659117457 0.00010608228297682447
          0.002423453173588468 0.00242270006884775 0.002421946964107032 0.0023400695361372927 0.0023382535604553013 0.0023364375847733086
          0.004206368580022246 0.004202385422766189 0.004198402265510132 0.001992213532304435 0.001991954238600996 0.0019916949448975582
          0.0021721152387502137 0.0021630423227737773 0.0021706881985616763 0.0021621899786369494 0.0021692611583731384 0.002161337634500122
          0.002598900851209481 0.0025971252922195077 0.0025953497332295346 0.0020423126805623514 0.0020394890597328847 0.0020422103148448638
          0.002038581965515234 0.002042107949127376 0.0020376748712975833 0.0020990427048632157 0.002097753053020083 0.00209646340117695
          0.001923588128850006 0.0019230849650609086 0.001922581801271812 0.0022120433684243877 0.0022113089424187467 0.002210574516413106
          0.0016008140390931808 0.001678368399485216 0.001603622957666161 0.0016812878603897033 0.0016064318762391413 0.0016842073212941899
          0.0020239433405061795 0.0020249296526390404 0.002025915964771901 0.0021767099830302967 0.0021769944664778345 0.0021772789499253714
        </DataArray>
        <DataArray type="Float64" Name="pe22" format="ascii" RangeMin="-0.002228461089679887" RangeMax="-0.00005376066751805377">
          -0.0006453462738013436 -0.0005897207509992975 -0.00046321627492570716 -0.0005363763290678326 -0.0006451213484696648 -0.000589558984767742
          -0.00046318958117089627 -0.0005363388309568778 -0.0006448964231379863 -0.0005893972185361863 -0.0004631628874160853 -0.000536301332845923
          -0.001133418686972821 -0.0010846180341303252 -0.0011345227489122133 -0.0012094299537950236 -0.0011334327540517277 -0.0010847188058770612
          -0.0011345470935870466 -0.0012093656429990728 -0.0011334468211306344 -0.0010848195776237972 -0.0011345714382618804 -0.0012093013322031225
          -0.00015361369627916273 -0.0002503475743485226 -0.00015382384373392104 -0.00025054637468364255 -0.00015403399118867935 -0.0002507451750187625
          -0.001683351078071839 -0.0017269402217524737 -0.0014509587248379074 -0.0014678997995655346 -0.001684380345282198 -0.0017276984928695067
          -0.0014508147070032877 -0.0014683201616803943 -0.0016854096124925574 -0.0017284567639865396 -0.0014506706891686681 -0.0014687405237952542
          -0.0012122647231819466 -0.0013072712675008546 -0.0012124147503735421 -0.001307234674071628 -0.001212564777565138 -0.001307198080642401
          -0.0013178162018468744 -0.001258530691553768 -0.0012803126628112493 -0.0013532502706777587 -0.001318595905331631 -0.0012595908894981226
          -0.0012808975561975767 -0.0013532480145750762 -0.0013193756088163873 -0.0012606510874424775 -0.0012814824495839046 -0.0013532457584723937
          -0.0016269826980126023 -0.001804163343868009 -0.0016980280943909058 -0.0015645716900140549 -0.0016273287071073565 -0.0018043873398312228
          -0.0016985453962604063 -0.0015651760189630828 -0.0016276747162021106 -0.0018046113357944363 -0.0016990626981299068 -0.0015657803479121107
          -0.0006067751985974917 -0.0006975365729878955 -0.0006068038776441247 -0.000697330785609198 -0.0006068325566907578 -0.0006971249982305004
          -0.0009926213382066775 -0.0008917005265811878 -0.001239797719031216 -0.0012898714360480286 -0.0009919877032074928 -0.0008908021525918716
          -0.0012391013629662589 -0.0012894052557637465 -0.0009913540682083078 -0.0008899037786025556 -0.0012384050069013013 -0.001288939075479465
          -0.0007394981430242553 -0.0007709924238139045 -0.0008959012627614112 -0.0007394575441737768 -0.000770831622371787 -0.0008957780785570266
          -0.0007394169453232982 -0.0007706708209296693 -0.000895654894352642 -0.002027087617301919 -0.0021598163361049826 -0.0021012857161748838
          -0.001994139485680247 -0.0020273523814220754 -0.0021604913325542047 -0.0021018720952711073 -0.001994274411155134 -0.0020276171455422326
          -0.0021611663290034278 -0.002102458474367331 -0.001994409336630021 -0.0013990803384870494 -0.001461864124562443 -0.001374904357574285
          -0.0013765729734467283 -0.0013996297187430671 -0.0014628254315514212 -0.0013757672142173927 -0.0013772622485430743 -0.0014001790989990846
          -0.0014637867385403993 -0.0013766300708605004 -0.0013779515236394199 -0.0015990049187521753 -0.0015995725949280717 -0.0016001402711039684
          -0.001324046281160381 -0.0012474661880641702 -0.0011988640902874923 -0.001325041063359747 -0.0012479032140668097 -0.0011997637998542963
          -0.001326035845559113 -0.0012483402400694488 -0.0012006635094211 -0.0014012737618043865 -0.0015259612570591497 -0.0014015443078435712
          -0.001526799417525652 -0.0014018148538827552 -0.0015276375779921542 -0.0018915065847123652 -0.0017711894095242436 -0.0019010519721656622
          -0.0020411777936816685 -0.0018926503241119982 -0.0017719351747040443 -0.0019019138511423422 -0.002042312394037753 -0.001893794063511631
          -0.0017726809398838457 -0.0019027757301190225 -0.0020434469943938376 -0.0005781245623971783 -0.0007198147393930236 -0.0005052249686475913
          -0.0003200327678608146 -0.0005776681336105132 -0.0007192930481519375 -0.0005049157807903074 -0.0003207960019971846 -0.0005772117048238479
          -0.0007187713569108511 -0.0005046065929330235 -0.0003215592361335548 -0.0015152213680219007 -0.0013935464526049776 -0.0014140257669187446
          -0.0015152726805404391 -0.0013935548482710166 -0.0014141210708494 -0.0015153239930589776 -0.0013935632439370555 -0.0014142163747800553
          -0.00019494690579366578 -0.0005126315108802818 -0.00019670078965919988 -0.000512057744909935 -0.00019845467352473399 -0.0005114839789395881
          -0.0012355159908263354 -0.0013308875422660214 -0.0014828193069347637 -0.0015022793556650027 -0.001235001043433289 -0.0013311056192825976
          -0.0014833118622509175 -0.0015020133487766395 -0.0012344860960402427 -0.001331323696299174 -0.0014838044175670712 -0.0015017473418882763
          -0.0016377450191900663 -0.0014938190148387693 -0.001638148475689577 -0.0014940635159841392 -0.0016385519321890874 -0.001494308017129509
          -0.0011005309025076478 -0.0012239850709756766 -0.0011003662149637779 -0.0012242447544136097 -0.0011002015274199075 -0.0012245044378515427
          -0.0015482378807003287 -0.0013246532359652325 -0.001548119140066505 -0.0013243345308995324 -0.0015480003994326815 -0.0013240158258338325
          -0.000735985364510171 -0.0006581153238534872 -0.000661390106960221 -0.0007722038851318992 -0.000735842237863533 -0.0006581851327968837
          -0.0006615374407219279 -0.0007721467944005752 -0.0007356991112168951 -0.0006582549417402803 -0.0006616847744836348 -0.000772089703669251
          -0.0010913851782813845 -0.0010256757128806636 -0.001091539408642006 -0.001026021405149731 -0.0010916936390026274 -0.0010263670974187988
          -0.0009568352214361786 -0.0009563812578700205 -0.0009559272943038624 -0.0012704105091886466 -0.001164495160418426 -0.0012710845528158435
          -0.0011647486718141197 -0.00127175859644304 -0.001165002183209814 -0.0013087549545406072 -0.0013353494356624271 -0.0013382572225667823
          -0.0013093105477532882 -0.0013362641848074658 -0.0013389048073321288 -0.0013098661409659698 -0.0013371789339525044 -0.0013395523920974755
          -0.0009804698354485975 -0.0010961072624566942 -0.0008050136673008507 -0.0009800514216648374 -0.0010960486220452394 -0.0008043720779821522
          -0.0009796330078810772 -0.0010959899816337841 -0.0008037304886634538 -0.0011292330906278176 -0.0011306468495152558 -0.0011320606084026937
          -0.0008479962284169508 -0.000846823587900006 -0.0008456509473830612 -0.0011456792803658331 -0.0011790455087726975 -0.0011458238663838776
          -0.0011790778676249837 -0.001145968452401922 -0.0011791102264772698 -0.0012051793895647939 -0.0012053801647890564 -0.0012055809400133193
          -0.0008025521872041895 -0.0009879742341650107 -0.0010055119791241146 -0.0008028837634154726 -0.0009884958739811815 -0.0010053753230327594
          -0.0008032153396267555 -0.0009890175137973523 -0.0010052386669414041 -0.0016770586941482102 -0.0017426311584380777 -0.001677141969330195
          -0.001742861925229457 -0.0016772252445121792 -0.0017430926920208355 -0.0001470083351032718 -0.0001014244923255517 -0.00011725286733133137
          -0.0001878890225284536 -0.00014730026349507445 -0.00010184795126968981 -0.00011769806330922263 -0.00018820812312020247 -0.0001475921918868771
          -0.00010227141021382792 -0.00011814325928711391 -0.00018852722371195135 -0.0004761914311335959 -0.00033630582509007933 -0.000395011212300657
          -0.0005331243265133858 -0.0004763472937383477 -0.0003365371983005842 -0.00039509036272819195 -0.0005330983364159024 -0.00047650315634309947
          -0.000336768571511089 -0.000395169513155727 -0.000533072346318419 -0.001070184134472725 -0.0009599561141940877 -0.0010798518154569085
          -0.0010701893539145553 -0.0009600349660112282 -0.0010800879203876085 -0.0010701945733563856 -0.0009601138178283687 -0.0010803240253183083
          -0.001285454167640336 -0.001285971353723138 -0.0012864885398059394 -0.001325572952667911 -0.001325639030573962 -0.001325705108480013
          -0.00006056865984378036 -0.00006117019127118586 -0.00006112627863799812 -0.0000616919321761772 -0.00006168389743221586 -0.00006221367308116851
          -0.00022507071529800929 -0.00028947835457736706 -0.0002254051849479759 -0.0002897936893962391 -0.00022573965459794256 -0.00029010902421511113
          -0.0011662650671893978 -0.0011666523555559382 -0.0011670396439224782 -0.0007463682291541807 -0.0008208010472557522 -0.0007955418825786957
          -0.0006665409177661393 -0.0007465267852124599 -0.0008209736956860519 -0.0007955226096724111 -0.0006666589552205668 -0.0007466853412707392
          -0.0008211463441163519 -0.0007955033367661263 -0.0006667769926749941 -0.0009395373896663606 -0.0009396772702151974 -0.000939817150764034
          -0.0007750508478625052 -0.000775056328118715 -0.0007750618083749247 -0.0009811062423706863 -0.0008277012393028089 -0.0009808749203135876
          -0.0008275474674089159 -0.0009806435982564893 -0.0008273936955150228 -0.0008119530929569591 -0.0008127086957512769 -0.0008134642985455946
          -0.0007079063410253398 -0.000837905432433042 -0.0007079473619588035 -0.0008379772407417264 -0.0007079883828922672 -0.0008380490490504109
          -0.0008480536585274567 -0.0008484019426756936 -0.0008487502268239303 -0.0008535062582226214 -0.0008962270852663965 -0.000853340065058208
          -0.000896119593753175 -0.0008531738718937945 -0.0008960121022399535 -0.0008162395025063885 -0.0008160939676121579 -0.0008159484327179274
          -0.0006263493241148842 -0.0006264359169108748 -0.0006265225097068653 -0.0009686635452218573 -0.0009687642709639297 -0.0009688649967060023
          -0.0007193181333835159 -0.0009132110036754026 -0.0007193511248902791 -0.0009137538778910509 -0.0007193841163970422 -0.0009142967521066991
          -0.0011108136259929422 -0.0011107620944644564 -0.0011107105629359708 -0.0011893073484921864 -0.001165574436016979 -0.0011893069164602386
          -0.0011655383181078558 -0.0011893064844282913 -0.0011655022001987325 -0.0018117201132413943 -0.0019236175207187301 -0.0018116749592425217
          -0.0018118817085256494 -0.0019237140026215648 -0.0018118826777340034 -0.0018120433038099045 -0.001923810484524399 -0.0018120903962254853
          -0.0021880876435905142 -0.0021310327206643686 -0.002099199270205875 -0.002189207617160645 -0.0021324073813086394 -0.0021003359840427696
          -0.0021903275907307757 -0.0021337820419529098 -0.0021014726978796643 -0.0007799296885641325 -0.0010634731733223672 -0.0007804183412200552
          -0.0010647854880286543 -0.0007809069938759778 -0.0010660978027349412 -0.0011225005548428013 -0.0011180630384230402 -0.0011030323817357115
          -0.0011225436648536708 -0.0011179177107542447 -0.001102957686323086 -0.0011225867748645404 -0.0011177723830854492 -0.0011028829909104601
          -0.00133280598429684 -0.0012658727337827465 -0.0013327783763398254 -0.0012658563243200009 -0.0013327507683828105 -0.0012658399148572554
          -0.0003708777717858033 -0.0003709183403862214 -0.00037095890898663944 -0.002158695884980637 -0.0022258591422386464 -0.0021601310317373103
          -0.0022271601159592667 -0.0021615661784939832 -0.002228461089679887 -0.0021795215125007747 -0.0020388199904624047 -0.0021803885644523114
          -0.0020392969156970185 -0.002181255616403848 -0.0020397738409316324 -0.0018041201968034717 -0.0019004536062256954 -0.0018043273135057607
          -0.0019008910162666 -0.0018045344302080502 -0.0019013284263075048 -0.0016106073798958951 -0.0016112398228578398 -0.001611872265819784
          -0.0019920831453392653 -0.00196845540134496 -0.001993313996903159 -0.0019697741629689995 -0.0019945448484670527 -0.0019710929245930387
          -0.0017352620075041197 -0.0017354796344741978 -0.0017356972614442755 -0.0009168281770596727 -0.0009170230087792192 -0.0009172178404987658
          -0.0014319951989072849 -0.0014309006488938379 -0.001429806098880391 -0.0009171924406453993 -0.0009173836039616886 -0.0009175747672779781
          -0.0009458351424587398 -0.0009459005653669464 -0.0009459659882751531 -0.0011778157152781041 -0.0011244362630787026 -0.001178140709479833
          -0.0011238769332023247 -0.0011784657036815619 -0.0011233176033259467 -0.0010976212297704026 -0.00102373187326967 -0.0010978106507673567
          -0.0010237942672472885 -0.001098000071764311 -0.001023856661224907 -0.000655032236488397 -0.0006550562201633733 -0.0006550802038383496
          -0.000427541777822693 -0.000427755028630808 -0.000427968279438923 -0.0009797045962743728 -0.0009797115861325347 -0.0009797185759906966
          -0.00133186308684972 -0.0013325952021529318 -0.0013333273174561432 -0.000574621290829774 -0.0005754648187088377 -0.0005763083465879015
          -0.0004911072840173413 -0.0004912015576861597 -0.000491295831354978 -0.0015994235685083218 -0.0013988074480437787 -0.0015997333676860189
          -0.0013989909575907972 -0.0016000431668637162 -0.0013991744671378154 -0.001792955113188921 -0.0017935490580644898 -0.0017941430029400586
          -0.0019961401282075587 -0.0018759289103108692 -0.0019965612745595582 -0.0018760352377226097 -0.001996982420911558 -0.0018761415651343497
          -0.0005848336180510749 -0.0007049206389713797 -0.0005450254081315049 -0.0005848713483404088 -0.0007050505931819862 -0.0005450568717042353
          -0.0005849090786297425 -0.0007051805473925928 -0.0005450883352769658 -0.0005114606387335372 -0.0005115012976335694 -0.0005115419565336016
          -0.0019635994954076696 -0.0019644134844205175 -0.0019652274734333654 -0.0010538738049504887 -0.0010375033123254925 -0.0010541280330939803
          -0.0010377725064123465 -0.0010543822612374717 -0.0010380417004992005 -0.001966278283043916 -0.0017990106564369284 -0.001967272366123895
          -0.0017997038315528807 -0.0019682664492038735 -0.001800397006668833 -0.00162587369333125 -0.0016262217548452128 -0.0016265698163591754
          -0.0017441610471687814 -0.001599291783033154 -0.0017447582082090064 -0.0015995379727497192 -0.0017453553692492315 -0.0015997841624662843
          -0.00023393288281140933 -0.0003131724839995805 -0.00021919003092708941 -0.0001426143568447969 -0.00023483072875687513 -0.0003142202112983747
          -0.00021997443533928478 -0.00014367076681145674 -0.00023572857470234094 -0.000315267938597169 -0.00022075883975148012 -0.0001447271767781166
          -0.00027937028304766195 -0.0002796675232466 -0.00027996476344553797 -0.0006114276805922373 -0.0006120724696081752 -0.000612717258624113
          -0.0013055653211279444 -0.001342356055725862 -0.0013057381845633853 -0.0013426634560686377 -0.0013059110479988261 -0.0013429708564114135
          -0.001222207783306025 -0.0012224147971891222 -0.0012226218110722195 -0.0011576368472115276 -0.0011357717465860155 -0.001157712270038786
          -0.0011356371485992142 -0.0011577876928660442 -0.0011355025506124125 -0.0008581770324823392 -0.0006552143737762338 -0.0008575264021561233
          -0.0006544983497825444 -0.0008568757718299076 -0.0006537823257888552 -0.0006656116417385759 -0.0006658069288308355 -0.0006660022159230949
          -0.0014631580799981396 -0.0014970633879639074 -0.0014634489361768429 -0.0014972469689167494 -0.0014637397923555461 -0.0014974305498695912
          -0.00043121966028928987 -0.0004570587351643931 -0.000358545403776425 -0.0003070585422392866 -0.00043127883912943754 -0.00045724344620094503
          -0.00035880095387189184 -0.0003072458048414818 -0.00043133801796958537 -0.00045742815723749696 -0.0003590565039673588 -0.00030743306744367697
          -0.0012491043488845179 -0.0012490685834130393 -0.001249032817941561 -0.0001932282968074157 -0.00012151022658422607 -0.00019362455892397404
          -0.00012225281179437767 -0.0001940208210405324 -0.0001229953970045293 -0.0013454498543151033 -0.0015711899140939314 -0.001345228343192042
          -0.0015713584977845754 -0.0013450068320689805 -0.0015715270814752199 -0.001565878196695224 -0.001565985148347516 -0.0015660920999998077
          -0.001047026313586631 -0.001047062720014539 -0.0010470991264424471 -0.001180921622612164 -0.001180629299853913 -0.0011803369770956621
          -0.0003357513072994515 -0.00033600020746092966 -0.00033624910762240795 -0.0001639615816392215 -0.00016439892825261828 -0.00016483627486601514
          -0.001096653896933306 -0.0013852558902406138 -0.0010961276980986803 -0.001385284704676321 -0.0010956014992640547 -0.0013853135191120277
          -0.00014310934952235335 -0.00014351185716978323 -0.00014391436481721317 -0.00044922031933505255 -0.0004498614146890444 -0.0004505025100430364
          -0.0010901534570533237 -0.001090134729728002 -0.0010901160024026804 -0.0020799187987302235 -0.002080810635918632 -0.002081702473107041
          -0.00009603494455827407 -0.00009672027979264844 -0.0000974056150270228 -0.0013218093306270873 -0.0013221321354517353 -0.0013224549402763828
          -0.001837667286462616 -0.0018290674767313395 -0.0015641977089696105 -0.0018381258232306982 -0.0018293393802822785 -0.0015643335671153065
          -0.0018385843599987804 -0.0018296112838332179 -0.0015644694252610024 -0.00044037332786742725 -0.00044122252852690384 -0.0004420717291863804
          -0.0011430838085101827 -0.0011100831055133487 -0.0011429521268813273 -0.0011100125322792032 -0.0011428204452524724 -0.0011099419590450575
          -0.00048383512476494166 -0.0004838988080573662 -0.00048396249134979077 -0.0005593415315629644 -0.0005595094717465154 -0.0005596774119300663
          -0.0012189064504846863 -0.0012180515593759164 -0.0012171966682671467 -0.00009520560265590145 -0.00009587448851278897 -0.00009654337436967645
          -0.00025940068771165294 -0.00039098432493835404 -0.0002596881394252705 -0.00039113421854110265 -0.000259975591138888 -0.00039128411214385127
          -0.0005703878793469191 -0.000570407701481204 -0.0005704275236154887 -0.00005376066751805377 -0.0000540958361031284 -0.000054431004688203027
          -0.0012817207343997683 -0.0012823645261749502 -0.0012830083179501323 -0.0011805205982984473 -0.0011805815323415116 -0.0011806424663845763
          -0.0021386562052000476 -0.002139511213995499 -0.002140366222790951 -0.000991316760850755 -0.0009911895102447576 -0.0009910622596387602
          -0.0011043830325323857 -0.0011048478334322002 -0.0011044354267097716 -0.0011049419164234756 -0.0011044878208871574 -0.0011050359994147513
          -0.001372125605070492 -0.0013718942515770903 -0.0013716628980836889 -0.0010698154409072929 -0.0010586162634372066 -0.0010702303249640575
          -0.0010586859731844776 -0.0010706452090208218 -0.001058755682931749 -0.001076455743149466 -0.0010765351827280419 -0.0010766146223066182
          -0.0009946004249278377 -0.000994732651832745 -0.000994864878737652 -0.0011620562886853183 -0.0011618718977254427 -0.0011616875067655668
          -0.0008557089421611475 -0.0008888321961481224 -0.000856020498963341 -0.0008896403665017936 -0.0008563320557655343 -0.0008904485368554646
          -0.0010665879779568554 -0.0010670971102760794 -0.0010676062425953035 -0.0011506365535506862 -0.0011509575418785919 -0.0011512785302064976
        </DataArray>
        <DataArray type="Float64" Name="pe33" format="ascii" RangeMin="-0.0021352742614290134" RangeMax="-0.00005063026268747086">
          -0.0006391751168738501 -0.0005840491352813542 -0.0004551919484455395 -0.000525792544602245 -0.0006390928867335064 -0.0005840185538487228
          -0.0004555278653588981 -0.0005262157253614701 -0.0006390106565931625 -0.0005839879724160914 -0.00045586378227225667 -0.0005266389061206952
          -0.0010672794148715342 -0.0010272789587864686 -0.0010606368987641987 -0.0011203719082820132 -0.001066674347108201 -0.0010266852225348972
          -0.0010603610399960322 -0.001120086859509659 -0.0010660692793448673 -0.001026091486283326 -0.0010600851812278662 -0.0011198018107373047
          -0.00015208323406191377 -0.0002497667193210264 -0.0001525676440432547 -0.0002504222544284509 -0.00015305205402459565 -0.0002510777895358754
          -0.00149643270836028 -0.0015264131051090416 -0.0012907395795994179 -0.0013095868375154907 -0.001495222632934747 -0.0015248448649033742
          -0.0012898355394481886 -0.001307615740537367 -0.001494012557509214 -0.0015232766246977068 -0.001288931499296959 -0.0013056446435592436
          -0.001115977560707952 -0.0011918161372107493 -0.0011163414982563828 -0.0011918219268318318 -0.0011167054358048138 -0.0011918277164529147
          -0.0012379956698328756 -0.0011563379277899832 -0.0011951359445228592 -0.001316108828390262 -0.0012356035500936898 -0.0011554497503185794
          -0.0011921258815916745 -0.001310837514832871 -0.0012332114303545043 -0.0011545615728471759 -0.00118911581866049 -0.0013055662012754802
          -0.0016549770540876506 -0.001803857939659458 -0.0016864703852375006 -0.0015648377797720836 -0.0016536450614930138 -0.0018003412006340881
          -0.0016840865526613828 -0.0015641258633008717 -0.0016523130688983773 -0.001796824461608718 -0.0016817027200852655 -0.0015634139468296596
          -0.0005934226264008442 -0.0006870936893328489 -0.0005941690678301578 -0.0006872429575256616 -0.0005949155092594714 -0.0006873922257184746
          -0.0010873824246198554 -0.0009826371090887864 -0.001338105821963055 -0.001379212095826925 -0.0010864337345009795 -0.0009830081565862917
          -0.001336896683522775 -0.0013780165816148823 -0.0010854850443821036 -0.0009833792040837967 -0.0013356875450824953 -0.0013768210674028388
          -0.000740284719011302 -0.0007694637628791868 -0.0009025874644512468 -0.0007398876287659504 -0.0007691923927664139 -0.0009025866987342574
          -0.0007394905385205988 -0.0007689210226536412 -0.0009025859330172683 -0.0020593948107077787 -0.0021178669590684084 -0.002065885805455827
          -0.002008043857838528 -0.002053903388354257 -0.002112786403951132 -0.0020605353601095932 -0.0020024371153350403 -0.002048411966000735
          -0.0021077058488338553 -0.002055184914763359 -0.0019968303728315527 -0.0013668413606792878 -0.001399764030756341 -0.0012855836631032323
          -0.0013139224660920455 -0.0013655848948527767 -0.0013991998453070761 -0.0012853976704871766 -0.001312708760544553 -0.0013643284290262652
          -0.0013986356598578113 -0.0012852116778711213 -0.001311495054997061 -0.001423828062670244 -0.0014233038059801926 -0.001422779549290141
          -0.0012325654492726025 -0.0011399006699187135 -0.0010849671837931474 -0.0012305467451737152 -0.0011385920430476116 -0.0010841409558862412
          -0.0012285280410748273 -0.001137283416176509 -0.001083314727979335 -0.001402468801545297 -0.0014922732270757216 -0.0014010842305281674
          -0.001491549578760233 -0.0013996996595110377 -0.0014908259304447446 -0.001688423598225835 -0.0015834239198754374 -0.001721551973217139
          -0.0018530789030287529 -0.0016869563703594912 -0.0015830152226875025 -0.00172019710495686 -0.0018504681743227924 -0.0016854891424931471
          -0.0015826065254995675 -0.0017188422366965811 -0.0018478574456168323 -0.0006367171195141801 -0.0007942789620958627 -0.0005538832811790891
          -0.00034386684704665305 -0.0006382151497654146 -0.0007942881447341673 -0.0005551055862277098 -0.00034659170951162907 -0.0006397131800166492
          -0.000794297327372472 -0.0005563278912763302 -0.00034931657197660504 -0.0013571056301064062 -0.0012607208627250562 -0.0012695919029832629
          -0.0013574981444665814 -0.0012608588059178753 -0.0012702355247333503 -0.0013578906588267567 -0.0012609967491106944 -0.001270879146483438
          -0.0002039522611417692 -0.0005582281333018193 -0.00020733034322106153 -0.000560448955549953 -0.00021070842530035384 -0.0005626697777980868
          -0.0011618109099952117 -0.0012409431094128048 -0.0014208526517462807 -0.0014442800679427773 -0.0011611783046980933 -0.001240540686125507
          -0.0014193665881615143 -0.0014414873729980285 -0.0011605456994009747 -0.001240138262838209 -0.0014178805245767478 -0.001438694678053279
          -0.0014659752822235009 -0.0013395023767332414 -0.0014661596353768573 -0.0013395704541068162 -0.0014663439885302136 -0.0013396385314803911
          -0.0011434898566494009 -0.0012478739926638865 -0.001140275530652058 -0.0012434289326356824 -0.001137061204654715 -0.0012389838726074784
          -0.001468666736890794 -0.001236529809705989 -0.001466396820424329 -0.001236532847681342 -0.0014641269039578637 -0.0012365358856566955
          -0.0007195557357315468 -0.0006434980991040871 -0.0006403838180909385 -0.0007459465988928516 -0.0007203787853038235 -0.0006446154487054813
          -0.0006420406851037187 -0.0007475247119609868 -0.0007212018348761002 -0.0006457327983068756 -0.0006436975521164988 -0.000749102825029122
          -0.0009781228304551004 -0.0009192482756576784 -0.0009778517591806808 -0.0009179311198867896 -0.0009775806879062615 -0.000916613964115901
          -0.0010130884266858651 -0.001010716392464726 -0.0010083443582435865 -0.0011653043839373986 -0.0010605705953287644 -0.0011656602301514391
          -0.001061292376139603 -0.00116601607636548 -0.0010620141569504414 -0.0012834640068969288 -0.0012699901163893974 -0.001305727294293563
          -0.001280880961872415 -0.0012672365697272208 -0.0013013971281811596 -0.0012782979168479008 -0.0012644830230650436 -0.0012970669620687562
          -0.0010484224167203776 -0.0011479038031684129 -0.0008663604260932321 -0.0010469226525802035 -0.0011461256227134323 -0.0008649939066298803
          -0.0010454228884400293 -0.001144347442258452 -0.0008636273871665285 -0.0010124207880232653 -0.001012463331689256 -0.0010125058753552468
          -0.0009286787239975603 -0.0009297543553272519 -0.0009308299866569432 -0.0011380528112328446 -0.0011671749100608166 -0.0011363131085508104
          -0.0011650249976276937 -0.0011345734058687764 -0.0011628750851945713 -0.001231055073476192 -0.001228862786403957 -0.001226670499331722
          -0.0007376572131250305 -0.0008905456289471627 -0.000932974647421295 -0.0007391321879832963 -0.0008920845769861645 -0.0009334040920681813
          -0.0007406071628415621 -0.000893623525025166 -0.0009338335367150676 -0.0016443012221897197 -0.0016847552873496428 -0.001639845911898654
          -0.0016802253962747622 -0.0016353906016075889 -0.001675695505199882 -0.0001442184126805684 -0.00009792914410742355 -0.00011330908020962258
          -0.00018429692030725458 -0.00014478925766759552 -0.00009853415544530729 -0.000114021005382073 -0.00018502246984362613 -0.00014536010265462268
          -0.00009913916678319105 -0.0001147329305545234 -0.00018574801937999767 -0.0004703086595116374 -0.0003318667490064894 -0.0003887989368155446
          -0.000525799887072086 -0.000470677968837813 -0.0003325690652572884 -0.0003892669711464791 -0.000525914315412038 -0.0004710472781639886
          -0.00033327138150808733 -0.00038973500547741344 -0.0005260287437519901 -0.0010691828687537294 -0.0009558223795121154 -0.0010648618231103833
          -0.0010684062658740802 -0.0009554637415573371 -0.0010637274644352552 -0.001067629662994431 -0.0009551051036025583 -0.0010625931057601271
          -0.001191381857736984 -0.0011901667079158686 -0.001188951558094753 -0.0013209727232981097 -0.0013152756520264665 -0.0013095785807548236
          -0.000058419272954051936 -0.00005840350577289241 -0.00005907484876533462 -0.00005906314744366346 -0.0000597304245766173 -0.000059722789114434504
          -0.00022053819873056032 -0.0002864147255495611 -0.00022136916211238793 -0.0002872672323943 -0.00022220012549421553 -0.0002881197392390388
          -0.00105555541286624 -0.0010561268845928951 -0.00105669835631955 -0.0007389651569829804 -0.0008192001831918858 -0.0007962771789294321
          -0.0006607614537360994 -0.0007393759398399721 -0.0008194885758111555 -0.0007962659499717327 -0.0006609190149611759 -0.0007397867226969642
          -0.0008197769684304253 -0.0007962547210140332 -0.0006610765761862524 -0.0009273026172681169 -0.0009270126708070013 -0.0009267227243458858
          -0.0007629373276784178 -0.0007631768014940312 -0.0007634162753096445 -0.0009344337054202317 -0.000787745223860844 -0.0009353104794794731
          -0.0007885681035957573 -0.0009361872535387143 -0.0007893909833306711 -0.0007284523373409879 -0.0007302207243705671 -0.0007319891114001461
          -0.0006804200180626527 -0.0008042368715905236 -0.000682003927415727 -0.0008059535077564121 -0.0006835878367688016 -0.0008076701439223005
          -0.0007675876015544972 -0.0007674262191490747 -0.0007672648367436523 -0.000826727871206285 -0.000857671803201303 -0.0008272234459764236
          -0.0008588529364521562 -0.0008277190207465622 -0.0008600340697030094 -0.0007980896536590239 -0.0007981776613436527 -0.0007982656690282812
          -0.0006201671964748237 -0.0006200874731828519 -0.00062000774989088 -0.0009185075328608605 -0.0009201214125048921 -0.0009217352921489235
          -0.0006428492161581071 -0.0008163666466835487 -0.0006429595697741821 -0.000815647844422575 -0.0006430699233902569 -0.0008149290421616011
          -0.0010416919987463946 -0.0010430393569114014 -0.0010443867150764085 -0.0010911201247175758 -0.0010823004766481647 -0.0010897307959228087
          -0.0010814189025073887 -0.001088341467128042 -0.0010805373283666129 -0.0018587407917228338 -0.0019231349890651553 -0.0018322419350048616
          -0.001854935172058593 -0.0019180797336494598 -0.0018289179509824718 -0.0018511295523943522 -0.0019130244782337648 -0.001825593966960082
          -0.002064930598296493 -0.0019375880487029814 -0.001956883614756929 -0.002060577162985991 -0.0019340639488236327 -0.001953149280982256
          -0.0020562237276754887 -0.001930539848944284 -0.0019494149472075828 -0.0006815545298670762 -0.0009404043940995956 -0.0006825827956462437
          -0.0009408368807372711 -0.000683611061425411 -0.0009412693673749468 -0.0010821720366684191 -0.0010774757504026405 -0.0010453449784159892
          -0.0010807758585848239 -0.001076141712768543 -0.0010441612223251488 -0.0010793796805012288 -0.0010748076751344459 -0.0010429774662343082
          -0.0012113860050276112 -0.0011643996872485278 -0.0012104938388619404 -0.0011641459512433945 -0.0012096016726962696 -0.0011638922152382612
          -0.0003720519567453022 -0.00037270948283061234 -0.00037336700891592246 -0.0019621741367179847 -0.0020893975155928824 -0.0019583586209347033
          -0.0020850488530312367 -0.001954543105151422 -0.002080700190469591 -0.0021352742614290134 -0.002081003835497405 -0.0021302184529504494
          -0.002075531002734403 -0.0021251626444718855 -0.0020700581699714007 -0.0017889639236397259 -0.001854053186032641 -0.0017836733124248173
          -0.0018482912214496535 -0.0017783827012099085 -0.0018425292568666665 -0.0015711232522105248 -0.0015690531464817548 -0.0015669830407529853
          -0.0017651179401540465 -0.001750080757798017 -0.0017623434232034464 -0.001747652403516938 -0.0017595689062528466 -0.0017452240492358587
          -0.0015243965589579905 -0.001522763406022263 -0.0015211302530865355 -0.0008958289306214913 -0.0008960937506713077 -0.0008963585707211241
          -0.0012566515454959528 -0.0012566305991427854 -0.0012566096527896183 -0.0008892045644674287 -0.0008896126418351782 -0.0008900207192029279
          -0.0009121937131830017 -0.0009121331143843719 -0.0009120725155857418 -0.0010424722339080802 -0.0009792016980170268 -0.0010431856850417751
          -0.0009813180462543295 -0.0010438991361754698 -0.0009834343944916317 -0.0010240407436825178 -0.0009685232504831013 -0.0010251226939560145
          -0.0009689421627850571 -0.001026204644229511 -0.0009693610750870127 -0.0006166913447585247 -0.0006180630864067503 -0.000619434828054976
          -0.0004243748767485265 -0.00042501825328752923 -0.0004256616298265319 -0.0009382365942884168 -0.0009380876238185092 -0.0009379386533486015
          -0.0012527739595306685 -0.0012515919814420574 -0.0012504100033534464 -0.0005062015001642395 -0.000508766452255542 -0.0005113314043468445
          -0.000429649023378863 -0.0004307418017425812 -0.0004318345801062995 -0.0014801663767356464 -0.0012820756838781496 -0.0014796923579348605
          -0.0012831392421278121 -0.0014792183391340741 -0.0012842028003774745 -0.0016833454836941229 -0.001680903767316627 -0.0016784620509391309
          -0.0019672803744895493 -0.0018734584695390053 -0.0019614573392500853 -0.001867829424390497 -0.001955634304010621 -0.001862200379241989
          -0.0005825146295875804 -0.000706785085788351 -0.0005449669503927825 -0.0005825126505353777 -0.0007064824790295027 -0.0005452480607036384
          -0.000582510671483175 -0.0007061798722706545 -0.0005455291710144942 -0.0005120098525449317 -0.0005126220348713358 -0.0005132342171977398
          -0.0018621523029361243 -0.0018581254731534452 -0.0018540986433707666 -0.0010067645081791958 -0.0009971787341872586 -0.0010063161663740453
          -0.0009968851313834875 -0.0010058678245688946 -0.0009965915285797165 -0.0018160183704013701 -0.0016474435452027492 -0.0018135887929650886
          -0.0016466862811420967 -0.0018111592155288076 -0.0016459290170814436 -0.0014722121263456868 -0.0014729595258966522 -0.0014737069254476174
          -0.0015741022820478516 -0.0014326323180634617 -0.0015739724707606627 -0.0014334648874356757 -0.0015738426594734734 -0.0014342974568078894
          -0.00021271684939666837 -0.0002791640720036918 -0.0002032989120421689 -0.00013324149963634093 -0.00021450310876202104 -0.00028190269011436035
          -0.0002053555009038282 -0.00013502437231557567 -0.00021628936812737368 -0.000284641308225029 -0.00020741208976548755 -0.00013680724499481037
          -0.00027270788867976884 -0.00027362101618528026 -0.00027453414369079185 -0.000552893194347289 -0.0005554340248637287 -0.0005579748553801685
          -0.0013085516305517443 -0.0013129870562606806 -0.0013065241914258867 -0.001310886632343125 -0.0013044967523000292 -0.0013087862084255695
          -0.0011251917523248636 -0.0011266620586571562 -0.001128132364989449 -0.0011275055881447046 -0.0011061905217002708 -0.0011260162883543379
          -0.0011043084051127988 -0.0011245269885639714 -0.0011024262885253263 -0.0009339129370987197 -0.0007134525427245906 -0.0009328696743830069
          -0.0007133915542656493 -0.0009318264116672941 -0.000713330565806708 -0.0006660739408980258 -0.0006663414207210467 -0.0006666089005440677
          -0.0013166045238067214 -0.0013351564141312587 -0.0013180463700861547 -0.001336398580485638 -0.001319488216365588 -0.001337640746840017
          -0.00041144442990523203 -0.0004414908299587968 -0.00034822148384471246 -0.0002937113125839733 -0.00041295219922172274 -0.0004427125432536787
          -0.0003492734567499581 -0.00029502814746465287 -0.00041445996853821333 -0.0004439342565485607 -0.0003503254296552037 -0.0002963449823453325
          -0.001283960247159538 -0.0012820771170724116 -0.0012801939869852854 -0.0001860281074464161 -0.00011658888414117752 -0.00018716423073585956
          -0.00011790997101935555 -0.00018830035402530302 -0.00011923105789753357 -0.0014100560999999773 -0.0016365343420134855 -0.0014088250516122117
          -0.0016348856919003747 -0.001407594003224446 -0.0016332370417872638 -0.0016485618363390314 -0.001645864771049583 -0.0016431677057601353
          -0.0010142112001031147 -0.0010134182970126316 -0.0010126253939221484 -0.0012409767302934672 -0.0012391276934810274 -0.0012372786566685872
          -0.00030989735911960347 -0.00031191814387958897 -0.00031393892863957446 -0.0001500493484141905 -0.00015107560556528745 -0.0001521018627163844
          -0.0011767266305896518 -0.001418364391919354 -0.0011750142696211263 -0.001416995381727699 -0.001173301908652601 -0.0014156263715360436
          -0.0001391283336207056 -0.00013995400780248034 -0.0001407796819842551 -0.00038746362116187373 -0.00038966464969977446 -0.00039186567823767515
          -0.0010684851148781156 -0.001067017672436593 -0.00106555022999507 -0.001995310831564303 -0.0019904955182795947 -0.0019856802049948866
          -0.00008973142074674522 -0.00009080333161567209 -0.00009187524248459897 -0.0011984151594644022 -0.0011995216732420414 -0.0012006281870196808
          -0.0019170995901994048 -0.0018965456827577352 -0.0016563267364412778 -0.0019124454903379278 -0.0018921585909515252 -0.0016531131099747475
          -0.0019077913904764505 -0.0018877714991453155 -0.001649899483508217 -0.0003905017286642637 -0.0003936564950699859 -0.00039681126147570817
          -0.0011164707189721822 -0.0010769057027149786 -0.001114335840488519 -0.0010750955998306084 -0.0011122009620048562 -0.001073285496946238
          -0.00045019972092400797 -0.00045206700297523123 -0.0004539342850264546 -0.00054006389982011 -0.0005415157858142909 -0.0005429676718084718
          -0.0013164731467285257 -0.0013152871534066644 -0.001314101160084803 -0.00009113370095611377 -0.00009215240728378688 -0.00009317111361145998
          -0.0002574314865099001 -0.0003903121393829218 -0.00025826320265326966 -0.0003910824437729676 -0.00025909491879663916 -0.00039185274816301346
          -0.000545525379302717 -0.0005470780470932336 -0.0005486307148837502 -0.00005063026268747086 -0.00005114077048804614 -0.000051651278288621426
          -0.0011417324391886996 -0.0011403355426727994 -0.0011389386461568994 -0.001159548937838846 -0.001157672028113789 -0.0011557951183887322
          -0.002067712374822198 -0.0020628742087706897 -0.0020580360427191803 -0.0010008967714536796 -0.0010007647283562387 -0.0010006326852587978
          -0.0010677322062178285 -0.0010581944893415774 -0.0010662527718519048 -0.0010572480622134737 -0.0010647733374859812 -0.00105630163508537
          -0.0012267752461389884 -0.0012252310406424172 -0.0012236868351458454 -0.0009724972396550583 -0.000980872796295678 -0.0009719799898808062
          -0.0009798959923307561 -0.0009714627401065541 -0.0009789191883658342 -0.0010225869617137492 -0.0010212178702920407 -0.001019848778870332
          -0.0009289877039221677 -0.0009283523132281637 -0.0009277169225341598 -0.001049987079739069 -0.001049437044693304 -0.0010488870096475394
          -0.0007451050969320332 -0.000789536203337093 -0.00074760245870282 -0.0007916474938879092 -0.0007500998204736068 -0.0007937587844387254
          -0.0009573553625493238 -0.0009578325423629606 -0.0009583097221765976 -0.0010260734294796105 -0.001026036924599242 -0.0010260004197188738
        </DataArray>
        <DataArray type="Float64" Name="disp_x" format="ascii" RangeMin="0.000006908633528788943" RangeMax="0.00003769814629422083">
          0.00002670997118127697 0.00002662978365500531 0.000025488550756548234 0.00002557281142148147 0.00002671240142073543 0.00002663254183005512
          0.000025491477959792916 0.00002557548744299343 0.0000267198458729394 0.000026640435819661642 0.000025500849144254382 0.000025583902776318706
          0.00003270480624573114 0.00003055213592498991 0.000029711728921249844 0.000031053652363077006 0.00003270451183083085 0.00003055280780847258
          0.00002971208851625567 0.00003105289056056131 0.00003270370245610449 0.00003055492351232247 0.000029713528599892687 0.00003105065184095662
          0.000024895357373839975 0.00002571050980344468 0.000024897387936159554 0.000025712981445175134 0.00002490326294006488 0.000025720373043126955
          0.00003147538577614615 0.00003171321868966347 0.00003381060698393461 0.00003345765302748701 0.00003147117324213297 0.0000317077539744742
          0.00003380445055168991 0.0000334525290081133 0.00003145782324103536 0.00003169222588606179 0.00003378648853400479 0.000033439526278546725
          0.000028512209361350116 0.0000296729195333413 0.00002851221574172805 0.000029672169950895814 0.00002851203054496347 0.000029669393881874345
          0.000014399383745332845 0.000015745660174666486 0.00001535658937917833 0.000013537463240876247 0.000014396419017770973 0.000015741416151974
          0.000015351637993489892 0.000013535276801252395 0.000014386376576284711 0.000015728109707887874 0.000015336592377969184 0.000013527799370706641
          0.00001465729382694962 0.000016989929724648857 0.000017164755989836857 0.000015144245014782901 0.000014662220729228521 0.000016993820172089012
          0.00001716807522247074 0.000015147855207708154 0.00001467774731861682 0.0000170071644996797 0.000017179533814642198 0.000015157452229304642
          0.00002566226059783978 0.000026679087775420528 0.000025664524286731715 0.000026681356022353574 0.00002567159506144347 0.000026688169495220836
          0.000010091076747016744 0.00000958929330996741 0.000011259084997064175 0.000011735400580572296 0.000010098486294505256 0.000009597838060603163
          0.000011267031122860086 0.000011741958228462057 0.000010121527706268782 0.000009624563816505155 0.000011290670693198149 0.000011761105571522483
          0.00002873260876838927 0.00002883553593189356 0.000030236988287108254 0.000028736095170868586 0.000028838824463666382 0.000030240306088475196
          0.000028746678601282286 0.00002884852717082048 0.00003024835317200062 0.000017865133037178603 0.000020445068982266563 0.000019865269825714784
          0.000017616073700939762 0.00001786774538164367 0.000020445038597692484 0.000019865824540823016 0.0000176191108547526 0.000017875502908585223
          0.000020445217120503205 0.00001986764673929911 0.000017627619738663487 0.000014733635798203971 0.000016554194034756847 0.00001715304268121817
          0.000015332909466809783 0.000014734983833240624 0.000016555343335887766 0.000017152808917492747 0.000015332789338569328 0.000014738509986821423
          0.000016558632820703272 0.00001715235121373811 0.00001533213344357835 0.0000313003587609816 0.00003129701649763129 0.00003128710878045845
          0.000015182702726118511 0.000016491412524420458 0.000016778572147978054 0.000015180231575872714 0.00001648850739895081 0.000016775476321412208
          0.000015173042719668649 0.000016479556645507634 0.000016766687505209682 0.000013930276873459468 0.00001582061734251103 0.00001393298520746577
          0.000015823069495851955 0.000013941183241215791 0.00001583039926252741 0.00002923699620013245 0.0000291382254620117 0.00002704517325651848
          0.000026789815728797942 0.000029232589153216116 0.000029134516877145007 0.000027041300845971647 0.000026785795920958764 0.000029218686584147992
          0.00002912278601512297 0.00002702985530831794 0.00002677423745503447 0.000008298133051328107 0.000008818317755931536 0.00000792978146598868
          0.000007324998709004769 0.000008306465634489535 0.000008826727714432205 0.000007937882710576862 0.000007332525466633349 0.000008330821285025818
          0.0000088509554731607 0.000007963401783582414 0.000007355397962085691 0.000028847769576356146 0.000030462346074603745 0.000028298693961341712
          0.0000288456082008197 0.00003046045982449186 0.000028297400168027316 0.000028839590796161406 0.000030454795554181594 0.000028294084147884922
          0.000006908633528788943 0.000007904221803243594 0.000006914715706418607 0.000007912341180535587 0.000006933571335186667 0.000007935244664619757
          0.000021640268585350676 0.000019172853220033402 0.000018571126692047758 0.000020593536802636095 0.00002163911822918544 0.000019172688368610813
          0.000018572217856137963 0.000020593109641689117 0.000021635636330317156 0.000019172200520423727 0.000018575927700184844 0.00002059226463393856
          0.000029072539504394246 0.000030971864095094304 0.000029069577642733893 0.00003096933767499045 0.00002906002680392881 0.000030961424897552496
          0.000010582386854119276 0.000011541058545337391 0.000010585398240940153 0.000011542294053998472 0.000010593785926804476 0.000011546153333126494
          0.000022464980556892383 0.000023463249612143857 0.000022462861803259102 0.000023461251192698004 0.000022455366652419368 0.00002345477638415304
          0.000026417286779975548 0.00002570511893483953 0.00002507522840945655 0.00002576118638415601 0.00002641919010499072 0.000025706997896515858
          0.000025076313557094316 0.00002576223395817906 0.000026424881562971334 0.000025712706720470692 0.000025079922589830238 0.00002576582741488711
          0.00001823406245111743 0.00001843672737723014 0.000018230320552697935 0.000018432784489399567 0.000018218058731345017 0.0000184226097913397
          0.000009698454395737721 0.0000097031744684884 0.000009717640306638359 0.000017610985293244707 0.000019516461622123835 0.000017609431300619138
          0.000019515425210892245 0.000017604572160922586 0.000019511949658330872 0.000013522956478542453 0.000014500532497528809 0.000013168099218928868
          0.00001352302662876094 0.000014498759359240253 0.000013167146164833764 0.000013523882705322016 0.000014492965577023237 0.000013164744374836523
          0.000010031335947285382 0.00001084231426194093 0.000008973596331001676 0.000010037361514159651 0.000010846604772919526 0.000008979914460373034
          0.000010055244774295513 0.000010859321745007888 0.000008999287783661998 0.00001716165855267719 0.000017158038673058094 0.000017147646634585128
          0.000009234598224379611 0.000009243448710340588 0.000009271213008011911 0.00003295906306850942 0.000033785552116714736 0.00003296175237182137
          0.00003378728951660876 0.00003296949438567384 0.000033792494676472796 0.000011874816237668535 0.000011877425888264416 0.000011885710453835889
          0.000021378877152252946 0.000019762736192659092 0.00002133287480684955 0.000021377630501003938 0.000019760613118562214 0.000021332068402706698
          0.000021373485299265428 0.0000197552202616873 0.000021329761235127263 0.000019767551229229616 0.00002165540605205715 0.000019768386081897766
          0.000021653796398898604 0.0000197708547384045 0.000021649043971052428 0.00002455954463837452 0.00002398698534550535 0.000023899706144047508
          0.00002461840307445488 0.000024561468242316378 0.000023988605456518598 0.000023901316129817806 0.000024620527289047753 0.00002456735259024373
          0.000023993624925466385 0.000023906169773314216 0.000024627037097894485 0.000026402798547521584 0.000025418485648847847 0.000025421835032469375
          0.000026484676081177298 0.000026406266497299523 0.00002542148805406112 0.0000254249680410187 0.0000264878115406177 0.000026416749294220528
          0.000025430772759223377 0.00002543497918780708 0.00002649694665531231 0.00003201913294766577 0.00003062128089521076 0.00003189328276737126
          0.0000320222114233009 0.00003062441448034439 0.000031896220621159526 0.00003203252873197576 0.000030634084727983654 0.00003190498603519017
          0.000016149108928400995 0.000016146570352441546 0.000016138408443498038 0.000012164642959087493 0.00001216484888337408 0.000012166766524306571
          0.000023611640444972755 0.000023165858411359362 0.00002361294335612299 0.000023166600939846707 0.000023616397391232804 0.00002316897690189601
          0.00002454510389931875 0.00002545036924572543 0.000024547525839160667 0.000025453288080710052 0.00002455457619247619 0.0000254617013351185
          0.000017964557057078765 0.00001796188808595117 0.000017953467667108102 0.00002819638458327425 0.000029134879203836958 0.000028959442205205313
          0.00002768337150198938 0.000028199164425359964 0.00002913816382190342 0.00002896286583201063 0.000027686608486601758 0.00002820769251213495
          0.000029148533528015536 0.00002897333601994813 0.00002769589923389469 0.000030229450085697643 0.000030233016902885053 0.000030242611452628563
          0.000028100897209696138 0.000028103116300092188 0.00002810904483416091 0.000023530614184831527 0.000022896528676947685 0.000023529276690091304
          0.000022895707646924345 0.000023524854613880494 0.00002289316952435926 0.000020131927047417497 0.00002012830413528259 0.000020116518660115956
          0.00002414295479906004 0.000024781045001502398 0.000024142960896125343 0.00002478096152963198 0.00002414241110053661 0.000024780345505066885
          0.000019541636713633147 0.00001953740979020829 0.00001952226896831397 0.00002761265499339385 0.000026889601088086534 0.00002761447717346545
          0.000026890753610069624 0.000027619775598312864 0.000026894043345001562 0.000027982176420216225 0.000027984301557941045 0.00002799021586519061
          0.000027525979990571662 0.000027529683722721682 0.000027540848604702703 0.000025861714918201098 0.000025861919574953123 0.000025862340547043358
          0.00002005255313923233 0.000018807970086933297 0.00002004790793513676 0.00001880425075900905 0.000020032378666082306 0.000018794642579988876
          0.000024658013987057813 0.0000246568832816208 0.000024653405252169437 0.00003438277974211268 0.00003379124507075419 0.000034379847372750646
          0.000033789933653435236 0.00003437142725246325 0.00003378617216017146 0.000015535508080925283 0.00001729194423857038 0.000015839616935990293
          0.000015540591511615656 0.00001729594370914013 0.000015844557383927055 0.000015557939734724695 0.000017305508822461196 0.00001586056355700364
          0.00002339460988696529 0.000026682095046422684 0.000024390908654462567 0.000023392658729349096 0.00002667828820702103 0.00002438818067635742
          0.00002338671519449314 0.000026667446422238383 0.000024378848036530995 0.000019271081934192503 0.000017543831306745458 0.000019267060137489386
          0.000017538761273392314 0.000019255660752464968 0.00001752222158998046 0.00003579466064864364 0.00003426852152433061 0.00003487942279306814
          0.0000357942865138565 0.00003426866934413978 0.00003487906219080738 0.00003579307457922903 0.000034269305817834374 0.000034877943868584716
          0.00003274760245825444 0.00003209094949776298 0.00003274548872399011 0.000032089798715622074 0.0000327392319670254 0.00003208540584846893
          0.000026641746570482103 0.000026644901169889424 0.000026654312233269105 0.00002699885797144267 0.000024131658913871016 0.00002699501367734544
          0.000024129385132830862 0.00002698329194420411 0.00002412246272978661 0.000021219078315467838 0.000018351977252477117 0.000021218786844012532
          0.0000183541638573209 0.000021216849897661374 0.000018360768341090052 0.00001903243380483161 0.000020859908075965278 0.000019034440180792414
          0.00002085942049971943 0.00001904091860902251 0.000020856933969154695 0.00001782616395867451 0.00001782861630061805 0.000017835585228322855
          0.00002970650722788468 0.00002937107573250091 0.00002970154572976116 0.000029366615106567457 0.000029685382227324876 0.000029351677131153117
          0.000032173776868208305 0.00003216813180843853 0.000032150557105452064 0.00002984069244159142 0.000029843856939063352 0.00002985323034159019
          0.000034337020110447846 0.00003433049690216787 0.000034309248031474116 0.000029606111859886548 0.000029608543767015815 0.000029615670720393075
          0.00002943342274033565 0.0000294352719507778 0.00002944077709128809 0.000035505172425700054 0.0000361714456777253 0.000035498655622811044
          0.00003616560893185067 0.000035477154692027735 0.00003614814300660968 0.000027199262125983993 0.000028268861140924046 0.000027199561682133277
          0.000028270044969523306 0.000027200048273166586 0.00002827322159023979 0.000022715567993090656 0.000022715119191538416 0.000022713626358255265
          0.000026401436693960422 0.00002640505367770794 0.000026416044725430424 0.000028989428536746958 0.00002899120229215915 0.000028996450951084337
          0.00001571992962643452 0.00001571879922913769 0.000015714669449573154 0.000020980935476168435 0.000020977056258551053 0.00002096412316047254
          0.000020843011108015776 0.00002083964278306537 0.000020829391082577902 0.00002418643900764188 0.000025017083853729608 0.000024183514085314268
          0.00002501492548378555 0.000024174210413455098 0.000025008814098505048 0.00002349847777849188 0.00002349556622751893 0.000023486362820214714
          0.00001963399233942034 0.00001848577944212246 0.000019634718490244014 0.000018488485546539756 0.00001963735264124606 0.000018495465750368236
          0.00002748792909028043 0.000028710723572059556 0.000027523139594618604 0.000027491865738762805 0.000028714547489483406 0.00002752695236422558
          0.000027503378907189503 0.00002872629829625966 0.000027538356918359003 0.00002765183429228639 0.00002765525566872997 0.000027665636892590116
          0.000022826300995610467 0.000022823849800185948 0.000022815910369306843 0.00003098738885406151 0.000031076932240387044 0.000030988869949818314
          0.000031079352372467575 0.00003099276775201104 0.00003108662360666586 0.000024903596646127743 0.000025352681164154253 0.00002490047273969788
          0.000025349449039543732 0.000024890757399818736 0.0000253394173410852 0.00002579957078091116 0.00002579678731659725 0.00002578804564746781
          0.000027207204286608255 0.000027324764881943987 0.000027204194463044584 0.00002732255696530756 0.000027194346531957596 0.000027314956147239925
          0.000021918891255921383 0.000021973349492706403 0.000022734070470386602 0.000022633322288415477 0.00002191691026516256 0.000021971579648195304
          0.0000227345687203823 0.00002263325844606228 0.00002191017098593765 0.000021967441203425053 0.00002273611355257646 0.00002263268923375617
          0.00002448683991034227 0.000024489384651839916 0.000024496612417868707 0.000021619578621632898 0.00002161802156261408 0.000021613816617640698
          0.000013194543578237619 0.000014014959085110582 0.000013196632077949282 0.000014015795285004527 0.000013203553543683242 0.000014017343958890246
          0.000026069848573849287 0.000026069065379521872 0.000026066203509688608 0.000035214248446707596 0.00003379887292045509 0.00003521428429954317
          0.000033799710970141565 0.00003521468776054394 0.000033801659493608734 0.000009376253540345062 0.000008410805130666473 0.00000938363548791085
          0.000008418379791757534 0.000009405645348927374 0.00000844153635536498 0.000028771735469792716 0.00002877551080511255 0.00002878683453847646
          0.00002642893789391077 0.000027363853958497244 0.00002642728657657753 0.000027362317667160897 0.000026421034448674975 0.00002735677971212921
          0.000023681719737893998 0.00002459540051977209 0.00002451154785651079 0.000023627528276590556 0.000023682739381807422 0.000024597566686256407
          0.00002451409835597221 0.000023628928670003105 0.00002368622815181515 0.000024604006009952895 0.00002452140259760771 0.000023633334874659783
          0.000012242519854623495 0.000012246231214495459 0.000012257001069363024 0.000023528800998941084 0.000023091653201983574 0.000023530430481610072
          0.000023092632541365425 0.00002353536165084073 0.000023096059191051875 0.000012374706035977311 0.000013607537629221594 0.000012380092561659412
          0.000013613779453806232 0.000012395273988404461 0.000013631696391921517 0.00001323817149151099 0.000013244829931701713 0.000013264582783016188
          0.000031282978868149186 0.00003128599418596412 0.00003129489178193389 0.000011385329688273295 0.000011390441192389122 0.00001140629510162177
          0.00002277211917867277 0.00002277274346989483 0.000022774178359740245 0.000021877160997258877 0.00002187602869504247 0.000021872589611256808
          0.000010697538757146117 0.000013115385159339466 0.00001070385331055494 0.000013119370380387417 0.000010723180312175036 0.000013131098890588447
          0.000023781349693532203 0.000023783081676389945 0.000023788080642857765 0.000021331498801250222 0.00002132848914397842 0.000021317249954204073
          0.000032004318040092215 0.00003200713937183435 0.00003201579558097798 0.000022147277474358567 0.000022145952562606544 0.000022141595266938318
          0.000022545177351127794 0.000022545009590008087 0.000022544587951121928 0.000027347782067667094 0.000027347136760492326 0.000027344481227146877
          0.00001562549654470261 0.000015477347646327586 0.000013135267249657444 0.000015630415035114696 0.00001548262109290664 0.000013142294416773566
          0.00001564542712949041 0.000015497813080448826 0.00001316351126581677 0.00002187075935100326 0.00002186937535085325 0.000021866189422738302
          0.0000331686272108274 0.00003228565600005872 0.000033170406723980866 0.00003228789153449242 0.000033174615338700226 0.000032295402399842324
          0.000022732575978405465 0.000022732795131946273 0.000022732625479174295 0.000024764811884737803 0.000024766563292804104 0.000024771359676952122
          0.000010979976797054523 0.000010988704147880263 0.000011014918180973078 0.000023138695850043803 0.00002313974975624348 0.00002314265385868434
          0.000025529911437826148 0.000026474325946450248 0.000025532565708005358 0.000026477765897092232 0.000025540123232273503 0.000026488281046206027
          0.000023823080727504426 0.000023823725361985722 0.00002382544310117449 0.000022420046888823128 0.00002242025419122812 0.00002242053744512876
          0.00003490637918735871 0.0000349004969525108 0.00003488190803390884 0.000034550240629484925 0.0000345510875538071 0.00003455285179627207
          0.000021669882387535566 0.00002166918486127552 0.000021666708899373667 0.00003135096805002844 0.00003135433619925081 0.00003136502079146201
          0.000032435729000256154 0.000032614450555869425 0.000032437795421938264 0.000032615609667687556 0.00003244325195008762 0.00003261821487232193
          0.00003367746770640495 0.0000336733085950236 0.00003366118589771814 0.000035854902763326055 0.00003595443165159682 0.00003585157853615161
          0.000035952255884813613 0.000035841395265234725 0.00003594593384279375 0.000036468774020356554 0.000036467677547615664 0.00003646431697280455
          0.00003741220877078954 0.00003740995835897999 0.00003740266837556318 0.00003512543636964063 0.00003512077868638232 0.000035105922921312986
          0.00003769814629422083 0.00003723360712616481 0.000037694466577384965 0.000037228792999131655 0.000037685037518907214 0.00003721436442523641
          0.00003595480148291085 0.00003595098171632632 0.00003593727009860311 0.00003561713776969942 0.00003561108769457644 0.00003559046753479263
        </DataArray>
        <DataArray type="Float64" Name="disp_y" format="ascii" RangeMin="-0.000012084803047789055" RangeMax="0">
          -0.000009630734429530164 -0.00001005866594811446 -0.000010337324959701656 -0.00000996291762025487 -0.000009632493710886372 -0.000010060341769009234
          -0.000010339222934921455 -0.000009965042489212146 -0.000009637837607036474 -0.000010065315438488782 -0.00001034505365951157 -0.000009971452186003502
          -0.000005557053600568085 -0.000006793805321956786 -0.000006673809526020558 -0.00000571062370889112 -0.000005557330426412402 -0.000006795036658495741
          -0.000006675593032518931 -0.000005711980969346071 -0.000005558015647710637 -0.000006798591096741313 -0.000006680875092477837 -0.000005715798025739853
          -0.00001202016742802525 -0.000012048619120161407 -0.000012020476331223153 -0.000012048964140125966 -0.000012021371170760889 -0.000012049858274836333
          -0.000001989965738028325 -9.834601406757915e-7 -8.284692287749413e-7 -0.000001661836010637825 -0.0000019912217770526022 -9.839968668959081e-7
          -8.282134206075224e-7 -0.0000016620485852024217 -0.000001995432602300228 -9.852276435726484e-7 -8.261253000988486e-7 -0.000001663863809391176
          -0.000006698826407075526 -0.0000058259274969797175 -0.0000067013507759487554 -0.000005828015606649423 -0.000006709328407721004 -0.00000583458889621165
          -0.000006396079743566113 -0.000007398122839631164 -0.000007417879569252839 -0.000006130007066834328 -0.0000063973101020436545 -0.000007400367247690296
          -0.00000741997856532052 -0.0000061305906383900235 -0.000006402388728017194 -0.000007406648725019173 -0.000007426166560604436 -0.00000613256937193943
          -0.000002893447327971851 -0.0000037081580109676024 -0.000004546578802117591 -0.000003920872037600493 -0.0000028947942428891757 -0.0000037105164361328853
          -0.000004549398374695127 -0.0000039224960877574635 -0.000002899039568920124 -0.000003718419256272147 -0.000004558005460074932 -0.000003927124742773081
          -0.000009595435543900401 -0.000009257429569283176 -0.000009597772637862467 -0.000009259436490471258 -0.00000960484741798252 -0.000009265162326956239
          -0.0000011918462126378045 -5.528054818360534e-7 -7.212270152243974e-7 -0.0000014925659705347337 -0.0000011906350986326908 -5.518027884929111e-7
          -7.211597051500027e-7 -0.0000014925512969994811 -0.000001187513066118932 -5.4835543606438e-7 -7.204449605233044e-7 -0.0000014927066553383698
          -0.000010932975307370877 -0.000010411438040655878 -0.000010076342965736165 -0.00001093401276670803 -0.000010412523868024453 -0.000010077334267465085
          -0.00001093764803454535 -0.000010415298464243608 -0.000010080041631239195 -0.000001062536593300898 -0.0000011876509754438116 -0.0000022861348506433143
          -0.000002077722979515042 -0.0000010633082381092318 -0.0000011884394606985677 -0.0000022876340834241124 -0.00000207912221598379 -0.0000010655477692766028
          -0.0000011915308921183328 -0.0000022922861473910703 -0.0000020830375740793284 -0.00000498267122361256 -0.000005733970529370623 -0.000006515642817008717
          -0.0000056764433181650336 -0.000004984049902064488 -0.0000057367147620555065 -0.000006518908168341915 -0.000005678176874846952 -0.000004988347506270799
          -0.0000057451470938982665 -0.0000065285571432669176 -0.000005683762343694341 -0.000003009051380885508 -0.0000030109322661599404 -0.0000030165215253248023
          -0.000006581360444153878 -0.000007294320112874318 -0.000007742810729085768 -0.000006582975135152013 -0.00000729700951629885 -0.000007745547345795194
          -0.0000065886234940227325 -0.0000073042989409981755 -0.00000775433360195342 -0.0000041500628071267066 -0.00000485947574549503 -0.000004151043856869554
          -0.000004861626316645329 -0.0000041540283136528075 -0.000004867754070655891 -0.000002235998726825947 -0.0000032855724487720662 -0.00000359490803304697
          -0.0000024708546735346406 -0.0000022379576649411016 -0.0000032883085855456053 -0.000003598035152290649 -0.0000024732597155727817 -0.0000022448176386241467
          -0.0000032962440595216585 -0.0000036074349555429645 -0.000002480744320880168 -4.456609365859302e-7 -9.660363937851658e-7 -8.497609121494182e-7
          -4.266693026870556e-7 -4.443579264849572e-7 -9.643166234014234e-7 -8.476696726725586e-7 -4.2522428739577475e-7 -4.388387540523888e-7
          -9.586181608085643e-7 -8.421167962612971e-7 -4.21376196579567e-7 -0.0000051403026852033735 -0.00000494760032902754 -0.0000059020448806641794
          -0.0000051431592973745285 -0.000004949684030544165 -0.0000059049583830697 -0.000005152008165309091 -0.000004955300358687508 -0.000005913510379926664
          0 0 0 0 0 0
          -0.000007986541896012473 -0.000007309208495385258 -0.0000064381064215289125 -0.000006796541779242936 -0.000007991773218384553 -0.000007313779131209044
          -0.000006442204556187897 -0.000006801540803289538 -0.000008007705076369912 -0.0000073279656056369955 -0.000006454965511924032 -0.000006817229053549148
          -0.000004262723662028966 -0.000004021920105749735 -0.0000042656423420691475 -0.000004023863632906945 -0.000004274324100762743 -0.000004029914173454318
          -0.0000033172265700217084 -0.000004264881286175428 -0.000003314980428907975 -0.000004263278494944054 -0.000003308107977126823 -0.00000425824289086537
          -0.000006749172232933403 -0.000007566361127609048 -0.000006754472632278633 -0.000007571448218798509 -0.000006770648689787326 -0.000007587162292331229
          -0.000009012882302020128 -0.000009341169927813829 -0.00000936948123689388 -0.000008915229813873552 -0.000009015213658124436 -0.00000934370026796677
          -0.000009372556746650915 -0.00000891820216876451 -0.000009021886544241865 -0.000009351286359226112 -0.000009381688910524234 -0.00000892697592452093
          -0.00000821858742206389 -0.000008612264712782676 -0.000008221570551321007 -0.000008615542802918227 -0.000008229650674450186 -0.000008624529997533837
          -0.000002513699366971672 -0.0000025110660153694225 -0.0000025033212168844838 -0.000007183487342669099 -0.000008024864739572974 -0.000007186977733370525
          -0.00000802947279790505 -0.000007197705568176168 -0.000008042982046149045 -0.000005070993268607674 -0.000005996997386552532 -0.0000054580937690280114
          -0.000005071076554701671 -0.0000059980002641452595 -0.000005458396531749155 -0.000005070889388313365 -0.000006001320350327226 -0.000005458985123841904
          -0.00000217380505731858 -0.0000029270056120351655 -0.000001839590511249259 -0.000002172098949376886 -0.0000029254794519994073 -0.0000018368233333280541
          -0.0000021668374867634884 -0.0000029211952687014105 -0.0000018281936962959598 -0.000008211174121593901 -0.000008214230167545316 -0.00000822310868276675
          0 0 0 -0.000008506172821991982 -0.000007696630917949944 -0.0000085067734965634
          -0.000007696563340057732 -0.000008508523484187051 -0.000007696198265646865 -0.000003825930227797065 -0.000003824909437501914 -0.000003821938197056782
          -0.000009245556501820317 -0.000008615805048109667 -0.000008700081136253418 -0.000009250442102010392 -0.000008619968791624466 -0.000008704994172921628
          -0.000009265313192637618 -0.00000863297706414749 -0.000008719654958883848 -0.0000058117965956006645 -0.000005778574836174002 -0.000005816169976488384
          -0.000005783231895007892 -0.000005829241377688494 -0.000005797132391410504 -0.000011687564981596482 -0.00001153607242768411 -0.000011368697135988343
          -0.000011377793920436725 -0.000011688060723040305 -0.00001153664392388958 -0.000011369406144010176 -0.000011378624413174414 -0.000011689527160072848
          -0.000011538128354860437 -0.000011371763080910366 -0.000011381086956158987 -0.000010928559551095028 -0.000011051312257791082 -0.000010709388321779573
          -0.000010519414746968015 -0.000010930035378105615 -0.000011052772273768237 -0.00001071112942344299 -0.000010520973473963212 -0.00001093477477720592
          -0.000011057339016064952 -0.000010716447778119775 -0.000010525789392911611 -0.000009276882423284422 -0.000009378234110329886 -0.00000865789565422078
          -0.000009277796388123282 -0.000009379257826548405 -0.000008658563182220547 -0.000009281408873190818 -0.000009382863343565918 -0.000008660835219424728
          -0.000006808999297353141 -0.000006811309834828558 -0.00000681853734397465 -0.000005135103433869994 -0.000005134720279575838 -0.0000051318088143548345
          -0.000011596030006748926 -0.000011365015874675754 -0.000011596514691484848 -0.000011365638575474034 -0.000011597885945958315 -0.000011367496595874212
          -0.00001110453092538374 -0.000011378818502229163 -0.000011105802185027427 -0.000011380007770788339 -0.000011109231778535616 -0.000011383565407247064
          -0.00000774590722061619 -0.00000774923202786763 -0.000007759307434089198 -0.000009548771124128914 -0.000009478268342385218 -0.00000989397907543458
          -0.000010229427503817456 -0.000009550044313274524 -0.00000947926017990635 -0.000009894949535636539 -0.000010230558921997513 -0.000009553831685008966
          -0.00000948229888453727 -0.000009897949688368898 -0.00001023369780893984 -0.000008965288195507272 -0.000008966263288114787 -0.0000089686849471045
          -0.000009061035680829392 -0.000009062605651811212 -0.000009067272188938599 -0.000008631261653336924 -0.000009137636502669154 -0.000008635878352650277
          -0.000009142347290819952 -0.000008649641083514987 -0.000009157024848517855 -0.000009216937245335386 -0.000009221132012424769 -0.000009233202653205331
          -0.000009332381481834972 -0.000008844177552123266 -0.000009336368750279045 -0.000008848029206713742 -0.00000934811246987765 -0.000008860055673339477
          -0.000009142566279924873 -0.000009146763107058458 -0.0000091567217299986 -0.000008415839128934588 -0.00000830554301253093 -0.000008418100465301742
          -0.000008308417441395775 -0.000008424434801474096 -0.000008316925609207178 -0.00000866935860298864 -0.000008671239974853412 -0.000008676667483245933
          -0.00001071348584011621 -0.000010714708753933331 -0.000010718000329289013 -0.000008247304157460104 -0.000008250913790716315 -0.000008262032415273104
          -0.000009568006531401151 -0.000009069547205979163 -0.00000957199325407354 -0.000009073707180659476 -0.00000958553902491069 -0.000009087522621197261
          -0.000008065816323749064 -0.000008070182606146066 -0.000008082739661849115 -0.0000034952177520364182 -0.000004367357763275456 -0.0000034950966863570407
          -0.00000436765631807569 -0.000003495327289134817 -0.000004368790706959691 -0.000001902776690757544 -0.000002961688038680913 -0.000002574044160990338
          -0.0000019043080632069433 -0.000002963626510989936 -0.00000257569342012651 -0.000001907391862935729 -0.0000029701154416419342 -0.0000025810756766847012
          -0.00000156079179806014 -0.000001245293356792679 -0.000002849647934724056 -0.0000015620529935791904 -0.000001246601343933156 -0.0000028520945199282133
          -0.0000015656163095322154 -0.0000012508825512019401 -0.0000028594161867406026 -0.000009547363842460347 -0.000008661445443270896 -0.000009551875748108377
          -0.000008665213293601132 -0.000009566837961108657 -0.000008675534902505408 -0.000005305643461420121 -0.000005697654489134849 -0.000004868471237056135
          -0.000005304422890385975 -0.000005696974244430593 -0.0000048676913460603085 -0.000005301001745513639 -0.000005695013039242435 -0.000004865535468579181
          -0.0000037790145265974603 -0.000004723079046476105 -0.0000037801075906081504 -0.000004724330005195022 -0.0000037839761012144625 -0.000004727937811459484
          -0.000012082101384113589 -0.000012082834895729444 -0.000012084803047789055 0 0 0
          0 0 0 0 0 0
          0 0 0 -0.000004854523742344489 -0.000004741146329577695 -0.000004857754856129198
          -0.000004744718229936801 -0.000004868568486415305 -0.0000047549569609985374 -0.000005492966701329595 -0.000005496470590968344 -0.000005506275583546143
          0 -0.000001114169848267916 0 -0.000001115240335085416 0 -0.000001118190005257278
          0 0 0 -0.00000865807646828457 -0.000008659094713862932 -0.000008661758294920854
          0 0 0 -0.000008301660748782817 -0.000008302987683686182 -0.000008307073291998716
          -0.000007921864439956995 -0.000007923480217759653 -0.000007928630383031781 -7.591578316996413e-7 0 -7.582811501761527e-7
          0 -7.523719566069359e-7 0 -0.000007515290678180666 -0.000007546276537845894 -0.000007518565925770225
          -0.0000075487804196493565 -0.000007528171596829101 -0.000007556214765277961 -0.00000961445728380019 -0.00000961914430889325 -0.000009633676270962872
          -0.000011310779879397147 -0.000011312161443696618 -0.000011316274314993748 -0.000007675430854472241 -0.000007677420346560622 -0.00000768335036420348
          -0.000006248337444934585 -0.000006250511509628567 -0.000006256634914084115 -0.000009867879594545687 -0.000009871711752066965 -0.000009884507328698985
          -0.00001021303458293065 -0.000010216889760230493 -0.00001022798904231571 -0.000006305622516150141 -0.000006994872790124541 -0.000006310286772738206
          -0.000006999326317990104 -0.0000063242911101171174 -0.000007012908414947187 -0.0000053985518831085036 -0.0000054029320764572 -0.000005416064591822192
          -0.00000354023213056854 -0.000004108381883223109 -0.00000354271850108846 -0.0000041112000811083934 -0.0000035493274735072475 -0.000004118562022033192
          -0.00001116188616056922 -0.000011446228670595053 -0.00001161098710240462 -0.000011163208680227173 -0.000011447584740035898 -0.00001161229052061927
          -0.000011167295944633412 -0.000011451538139135508 -0.000011616292164473997 -0.000012068191790066725 -0.000012069474151540582 -0.000012073278516987181
          -0.000004373810283634136 -0.000004377426309972508 -0.000004388184267514068 -0.0000070939336403720575 -0.000007525945836505527 -0.000007095034331714514
          -0.00000752687780404328 -0.000007098435074694624 -0.000007529903259834822 -0.000003935068000092356 -0.000004932673819157501 -0.000003938536075818184
          -0.000004936740663585594 -0.0000039490365901300684 -0.000004948993248319419 -0.000005776753251992024 -0.000005780925872927422 -0.000005793772161550399
          -0.00000454685488988411 -0.000005370524150564549 -0.000004550505660042998 -0.000005374118219056473 -0.000004561614548561574 -0.000005385622239620908
          -0.000010648538122133009 -0.00001043427040679588 -0.000010647892120664956 -0.000010838567751074765 -0.00001065086634196517 -0.000010436990957962663
          -0.000010650077408106688 -0.000010840218952183429 -0.000010657557292608636 -0.000010444477946555875 -0.00001065688863358714 -0.000010844971488906993
          -0.000010807394274081703 -0.000010809099385872781 -0.000010814109191211828 -0.000009740408763391 -0.000009745125263128484 -0.000009759929671336029
          -0.000004337159353523965 -0.000005006069651152715 -0.000004337442233746506 -0.000005006736323978562 -0.0000043376635279332545 -0.000005008943355460797
          -0.0000073685394659237286 -0.000007372435861387303 -0.000007384138455574475 -0.000006071389759304437 -0.00000641623804395372 -0.000006070337539218457
          -0.000006415758614875566 -0.000006067254330806317 -0.000006413520225401397 -0.000001531301901995398 -0.0000012968373477659222 -0.0000015295348165154035
          -0.0000012942976730735339 -0.0000015243087016279225 -0.0000012865554463827304 -0.000011970609192783647 -0.000011972171101161051 -0.000011977473706179689
          -0.00000635930117532238 -0.000005898279030018872 -0.000006363294232207284 -0.000005901764232845243 -0.00000637462367100132 -0.000005912174956967626
          -0.000010151472488212016 -0.000010131425095733735 -0.00001048419449716372 -0.000010492032481157013 -0.000010154626732889854 -0.000010134000663853693
          -0.000010486373904025906 -0.00001049447514006876 -0.00001016420761939824 -0.000010141642071251606 -0.000010492978041177967 -0.00001050166606325085
          -0.000003477882542568301 -0.00000347760812273814 -0.0000034764975324769224 -0.000010837341316006567 -0.000010937164047688791 -0.000010839028040545359
          -0.00001093851803107355 -0.000010844082269442449 -0.000010942483075301342 -0.000002358761402514421 -0.000001774098749309219 -0.000002358999366543452
          -0.0000017749797385284566 -0.000002359174071373322 -0.0000017783417259125965 -8.731606082270549e-7 -8.737444105862922e-7 -8.76298994698826e-7
          -0.000007877751670984935 -0.000007878446353965516 -0.000007880650120229317 -0.0000026409001442444026 -0.0000026402522736288207 -0.000002638591279500326
          -0.000010380193551182076 -0.000010383352777332403 -0.00001039293501835652 -0.000010859928069914515 -0.000010862121415390627 -0.000010868963138304606
          -0.0000018929092643554346 -0.0000032571766649755774 -0.0000018920917644514792 -0.0000032576987592796856 -0.0000018893684645933131 -0.0000032594170949799007
          -0.000011129265586238385 -0.000011130368130846435 -0.000011133548278026338 -0.000010187967130712423 -0.000010191721084354983 -0.000010200346779145271
          -0.000008103095813600438 -0.00000810358285252144 -0.000008105164383257606 -0.000003270469206259302 -0.0000032729800408895195 -0.0000032811919208957453
          -0.000011022459211755045 -0.000011023672192356501 -0.000011026794004311709 -0.000006632065756257422 -0.000006635419065608027 -0.000006645158708203502
          0 -9.751296741909187e-7 0 0 -9.757602176825062e-7 0
          0 -9.781939544443083e-7 0 -0.000010156121414363602 -0.000010159866639112188 -0.000010171762368180203
          -0.000007136597448803524 -0.000007309544458740623 -0.0000071365678662323095 -0.000007309876550551313 -0.000007136576393703052 -0.000007310919132768431
          -0.000010032732701650728 -0.000010036892874273498 -0.000010049136778638301 -0.000009750994489638446 -0.00000975395200169559 -0.000009762641129783148
          0 0 0 -0.000011106595566225717 -0.000011107612973059948 -0.000011110075391623312
          -0.000011712540835562765 -0.000011693271507936056 -0.000011713309604185772 -0.000011694308678888143 -0.00001171540462823686 -0.00001169755452501641
          -0.00000976438982174976 -0.000009768153379977968 -0.000009779490821743531 -0.000011204631730426034 -0.000011205468678370954 -0.000011207995242651863
          -0.0000013505573155466423 -0.0000013500407867159922 -0.0000013494705292870217 -0.000006869999017086624 -0.000006869464843730049 -0.0000068673862529107825
          -0.0000024351587898512096 -0.00000243716817847123 -0.0000024418936052241773 -0.000009820590374871715 -0.000009821580966180731 -0.00000982432639646814
          -0.0000068944148341084895 -0.000006314564521819298 -0.000006894618292387176 -0.000006314629065934711 -0.000006894509799961613 -0.000006314594035995435
          -0.0000026001907259841123 -0.000002600951435744008 -0.000002602890243668585 -0.0000030651044603404625 -0.0000037401493228980772 -0.000003063916209022924
          -0.0000037389134910386575 -0.000003059795245401727 -0.0000037352425733124798 -0.000004518181654312714 -0.0000045165764398007255 -0.000004511797306557577
          -0.000003697095381620212 -0.000003695077712125138 -0.000003688518287647032 -0.0000026872967528526934 -0.0000026865856514763455 -0.000002683801096589741
          0 -8.139598497845362e-7 0 -8.132431405853933e-7 0 -8.114607722722766e-7
          -0.000002637488531810912 -0.000002636330373447523 -0.0000026323512630311923 -0.0000016285944511526924 -0.0000016282424041426914 -0.000001628390833416439
        </DataArray>
        <DataArray type="Float64" Name="disp_z" format="ascii" RangeMin="-7.654197950162126e-7" RangeMax="0">
          0 0 0 0 -1.5469851575669158e-7 -1.4587437891666262e-7
          -1.251591599446236e-7 -1.3521675016493304e-7 -3.093407998158557e-7 -2.917762667617595e-7 -2.5036785362930845e-7 -2.7047500298333744e-7
          0 0 0 0 -2.1566437217213223e-7 -2.1295195999541424e-7
          -2.152543504053883e-7 -2.2268031709228775e-7 -4.3129858158338795e-7 -4.2559642316958446e-7 -4.302624583746884e-7 -4.45243644957447e-7
          0 0 -8.006859929324421e-8 -9.419019607289934e-8 -1.6039646909251676e-7 -1.887291447593031e-7
          0 0 0 0 -2.7779254595133565e-7 -2.867070603420143e-7
          -2.5449480414060314e-7 -2.5433051642153055e-7 -5.550771385369224e-7 -5.730800075177643e-7 -5.08961582565464e-7 -5.072235997770311e-7
          0 0 -2.2176231201167907e-7 -2.3352655413074755e-7 -4.4369765878644824e-7 -4.669076529011733e-7
          0 0 0 0 -2.450458667853909e-7 -2.2225916514795473e-7
          -2.3735691468928135e-7 -2.6231661629092833e-7 -4.892846627719248e-7 -4.436983424526389e-7 -4.7342563117015034e-7 -5.229267387994667e-7
          0 0 0 0 -3.039602226719689e-7 -3.3089782773436627e-7
          -3.0868119435533405e-7 -2.9103732707719714e-7 -6.075867148640669e-7 -6.608787914435333e-7 -6.167210195739498e-7 -5.820720190356216e-7
          0 0 -1.4594173045940137e-7 -1.6123828180214305e-7 -2.9214196366240157e-7 -3.2251356227323234e-7
          0 0 0 0 -2.2485259499811077e-7 -2.088969182142522e-7
          -2.6350017127958433e-7 -2.6886133771993287e-7 -4.489158975705524e-7 -4.1862847030956624e-7 -5.264518769255329e-7 -5.374589213521115e-7
          0 0 0 -1.6971432574032733e-7 -1.754280436030942e-7 -1.9171267154580295e-7
          -3.3911088356000244e-7 -3.507498902992285e-7 -3.83821062084575e-7 0 0 0
          0 -3.7002280648957174e-7 -3.779244452400571e-7 -3.688291471941841e-7 -3.643690190906742e-7 -7.37847110879648e-7
          -7.541158300000254e-7 -7.358556379641701e-7 -7.269596295867936e-7 0 0 0
          0 -2.6386217880586566e-7 -2.663733826318555e-7 -2.481109643440417e-7 -2.526021810764599e-7 -5.273844403542538e-7
          -5.326527515879967e-7 -4.963465608511863e-7 -5.044961709496382e-7 0 -2.6847630000296885e-7 -5.370619895703805e-7
          0 0 0 -2.3855062972100427e-7 -2.258252150663831e-7 -2.179444439038697e-7
          -4.762875095066469e-7 -4.5073745442463546e-7 -4.365977720093568e-7 0 0 -2.692380810087561e-7
          -2.8160084028849096e-7 -5.378921340155975e-7 -5.630445280151712e-7 0 0 0
          0 -3.092430626073846e-7 -2.9163518151400233e-7 -3.142276197050771e-7 -3.3445020940891447e-7 -6.179854240756095e-7
          -5.832691104802873e-7 -6.280417331187457e-7 -6.678747290527337e-7 0 0 0
          0 -1.5359155635308425e-7 -1.813119037930354e-7 -1.4396663102657343e-7 -1.112307267463126e-7 -3.075500882685084e-7
          -3.622492281218033e-7 -2.890655741080787e-7 -2.2418439529862834e-7 0 0 0
          -2.5543058497225947e-7 -2.4275812787643126e-7 -2.4288059274752414e-7 -5.108450563927407e-7 -4.857238644363111e-7 -4.860474486334952e-7
          0 0 -8.396685120580728e-8 -1.2914838166531173e-7 -1.7032884774753457e-7 -2.588191097576164e-7
          0 0 0 0 -2.305046447257675e-7 -2.411168924559597e-7
          -2.712773138838056e-7 -2.7903982094733417e-7 -4.6066856041999983e-7 -4.820416463000027e-7 -5.418683348157013e-7 -5.569914711912335e-7
          0 0 -2.736062557945966e-7 -2.526683180481947e-7 -5.47367468649183e-7 -5.05431698243479e-7
          0 0 -2.3050542808225365e-7 -2.484886171553489e-7 -4.6013348645529283e-7 -4.956008544228116e-7
          0 0 -2.7905862656834736e-7 -2.3708632786559912e-7 -5.573241236083873e-7 -4.740512233718562e-7
          0 0 0 0 -1.6506927115316726e-7 -1.535565571316991e-7
          -1.5167567172731788e-7 -1.6689765829104988e-7 -3.304747385336081e-7 -3.0755751263156535e-7 -3.0419742643215506e-7 -3.344930870194365e-7
          0 0 -2.0030353023951967e-7 -1.950107688899965e-7 -4.004009031908117e-7 -3.8811754235148187e-7
          0 -2.1203531757380097e-7 -4.232304065483814e-7 0 0 -2.288448580363533e-7
          -2.116929218055718e-7 -4.5790656433118134e-7 -4.2368859808569226e-7 0 0 0
          -2.5235354507443154e-7 -2.4924786827302025e-7 -2.5650277446964457e-7 -5.036259503237877e-7 -4.97519446558073e-7 -5.11214081218505e-7
          0 0 0 -2.1718879741984658e-7 -2.3206184568477944e-7 -1.8928356873510354e-7
          -4.338861843551709e-7 -4.6368373706630154e-7 -3.781560662678398e-7 0 -2.0353971173123906e-7 -4.077026329790948e-7
          0 -1.8970884054965296e-7 -3.8020150821674053e-7 0 0 -2.3025707997161608e-7
          -2.3640540094168433e-7 -4.5935038143732883e-7 -4.719957144570505e-7 0 -2.421992078638905e-7 -4.83671754598045e-7
          0 0 0 -1.6592317333279659e-7 -1.8672595964675268e-7 -1.943546421297006e-7
          -3.323000873792932e-7 -3.744040666654372e-7 -3.887411873880903e-7 0 0 -3.070565997330657e-7
          -3.1231854100591836e-7 -6.121269127801803e-7 -6.226206380934737e-7 0 0 0
          0 -7.860660250374355e-8 -7.032316578814231e-8 -7.24466037184387e-8 -8.477554127819134e-8 -1.576403424860033e-7
          -1.4048207180861857e-7 -1.4526188428328167e-7 -1.7006488905365652e-7 0 0 0
          0 -1.2761700740306946e-7 -1.0631837692681961e-7 -1.14708390995975e-7 -1.3709393805312904e-7 -2.554081818584282e-7
          -2.130204553517084e-7 -2.2959012517234694e-7 -2.743292260492019e-7 0 0 0
          -2.1944456052851635e-7 -2.0194843405977693e-7 -2.1948133960820223e-7 -4.390490143989994e-7 -4.037023146696008e-7 -4.389995333069353e-7
          0 -2.345937672589104e-7 -4.6884215336297134e-7 0 -2.574249919593513e-7 -5.125693430625284e-7
          0 0 -6.464868026328587e-8 -6.38887708236576e-8 -1.2991270469407472e-7 -1.2831715245140728e-7
          0 0 -8.897992756508151e-8 -9.907533336044674e-8 -1.784247867546228e-7 -1.9850970001548378e-7
          0 -2.1021576599025868e-7 -4.2100385092874597e-7 0 0 0
          0 -1.6642775856378477e-7 -1.8262940406067792e-7 -1.769580962708996e-7 -1.545557151261081e-7 -3.3295073746992573e-7
          -3.6619036629632784e-7 -3.5382626724238737e-7 -3.090017300458805e-7 0 -1.9735192466795334e-7 -3.94235355078978e-7
          0 -1.7124282957568847e-7 -3.4255332373124454e-7 0 0 -1.959873503486165e-7
          -1.7517807480828536e-7 -3.9234400588819187e-7 -3.504683757846865e-7 0 -1.5880528001318193e-7 -3.1778066481766404e-7
          0 0 -1.5681781622353124e-7 -1.7398290868402107e-7 -3.142400839810468e-7 -3.486423652655422e-7
          0 -1.76620087122545e-7 -3.5528470590492824e-7 0 0 -1.8054293326718257e-7
          -1.839127119601683e-7 -3.6135541912213226e-7 -3.6838758615307893e-7 0 -1.7752373698938087e-7 -3.5503390105556837e-7
          0 -1.5084240770928272e-7 -3.015691787618041e-7 0 -1.9189476122410966e-7 -3.844240022156724e-7
          0 0 -1.538893323364968e-7 -1.7800078135864495e-7 -3.0799020781448486e-7 -3.544781036964954e-7
          0 -2.0875828020938306e-7 -4.1827829784911895e-7 0 0 -2.2169981639698266e-7
          -2.180609460983662e-7 -4.4246445119758256e-7 -4.358362184412468e-7 0 0 0
          -3.383681856462975e-7 -3.4848317094373565e-7 -3.3777788473325117e-7 -6.751399926510324e-7 -6.943298498751151e-7 -6.756142854676288e-7
          0 0 0 -3.6957801871360616e-7 -3.510705359648081e-7 -3.5176580026266856e-7
          -7.375818282568384e-7 -7.009417837671153e-7 -7.021591129030121e-7 0 0 -1.4927074474790845e-7
          -1.9520739331386814e-7 -2.988161856821729e-7 -3.912689837797905e-7 0 0 0
          -2.2020270477157985e-7 -2.1936523770479898e-7 -2.1467095012797319e-7 -4.3996784714848674e-7 -4.383037271003367e-7 -4.289192714085795e-7
          0 0 -2.371771630240626e-7 -2.2794614587343914e-7 -4.7401834117216106e-7 -4.559547871741721e-7
          0 -1.1294523127831434e-7 -2.2624246322514962e-7 0 0 -3.5173090333446587e-7
          -3.7095902756209514e-7 -7.018711961869141e-7 -7.406005462125203e-7 0 0 -3.834901973572511e-7
          -3.784044617337306e-7 -7.654197950162126e-7 -7.550452522668336e-7 0 0 -3.313357548734284e-7
          -3.4039631060539945e-7 -6.606167305353873e-7 -6.785428511694524e-7 0 -2.9431126214165686e-7 -5.880593745376067e-7
          0 0 -3.1707754979475427e-7 -3.212386190048522e-7 -6.330843213950304e-7 -6.416712354327012e-7
          0 -2.7690834797060737e-7 -5.526699186722668e-7 0 -1.9132605823780199e-7 -3.8308877616605253e-7
          0 -2.3369275519658863e-7 -4.673265211061308e-7 0 -1.8906151116673725e-7 -3.7851844952606497e-7
          0 -1.945437016019654e-7 -3.8907114976610315e-7 0 0 -2.1204969711772594e-7
          -1.815520261984656e-7 -4.2441044826388127e-7 -3.6460230956646915e-7 0 0 -2.074692678787672e-7
          -2.0052460812429222e-7 -4.1535715963869074e-7 -4.0121202755947905e-7 0 -1.4637700801043123e-7 -2.932965765586189e-7
          0 -1.2073618258377506e-7 -2.419344454786851e-7 0 -1.9749618760267294e-7 -3.9477468490028245e-7
          0 -2.450073601814736e-7 -4.894953294070503e-7 0 -1.2166810673989491e-7 -2.4439159231982983e-7
          0 -1.1679878144679736e-7 -2.345544953565088e-7 0 0 -2.7593901106144354e-7
          -2.4522408114279425e-7 -5.517012263671625e-7 -4.910551091233921e-7 0 -3.099493447699917e-7 -6.191281625030818e-7
          0 0 -3.5534799642371145e-7 -3.4180568979104957e-7 -7.086550896977168e-7 -6.814990725766493e-7
          0 0 0 -1.456185227640691e-7 -1.644958296427782e-7 -1.3953455943986707e-7
          -2.91111087627456e-7 -3.287667251608964e-7 -2.7917663454453134e-7 0 -1.3453884826624717e-7 -2.6932706174511516e-7
          0 -3.3713035126980176e-7 -6.728799964117366e-7 0 0 -2.0885839406642165e-7
          -2.0638706712733074e-7 -4.175903080737102e-7 -4.128108957625387e-7 0 0 -3.289820893437872e-7
          -3.025757307248749e-7 -6.571068088182035e-7 -6.050277195067966e-7 0 -2.7357004234773564e-7 -5.475530941956497e-7
          0 0 -2.906890522070646e-7 -2.666703568330187e-7 -5.812169560258664e-7 -5.339262415370181e-7
          0 0 0 0 -8.451436815934717e-8 -9.06423088307702e-8
          -8.194396180246656e-8 -7.280273377905804e-8 -1.7010207424537528e-7 -1.8328490154927006e-7 -1.6454418334306202e-7 -1.4683016054814257e-7
          0 -9.554623801896688e-8 -1.9149329979466088e-7 0 -1.3374678764080568e-7 -2.689114277929344e-7
          0 0 -2.567234568138385e-7 -2.557386667036889e-7 -5.126285488953024e-7 -5.111852173519884e-7
          0 -2.2149136883796267e-7 -4.4355712071315327e-7 0 0 -2.2752786327514876e-7
          -2.250135887297559e-7 -4.5472405061910285e-7 -4.4914385613987666e-7 0 0 -2.009225707088687e-7
          -1.6605070908744018e-7 -4.014421946898768e-7 -3.3221735498868177e-7 0 -1.5762778597910143e-7 -3.154463160395143e-7
          0 0 -2.4925076998671077e-7 -2.501912540287551e-7 -4.992686597638109e-7 -5.00479860018209e-7
          0 0 0 0 -1.1524690164591561e-7 -1.2111677585884412e-7
          -1.0713762536153863e-7 -9.854631392501584e-8 -2.3116596789874895e-7 -2.4287067550669904e-7 -2.1486691482796522e-7 -1.9786789617279078e-7
          0 -2.5202513548671476e-7 -5.033649703434018e-7 0 0 -8.266475252091721e-8
          -7.305477279017178e-8 -1.6602561705835125e-7 -1.4680651018534078e-7 0 0 -2.7228822740660306e-7
          -3.007903909279599e-7 -5.443963720431576e-7 -6.009817483064038e-7 0 -3.0845884143937275e-7 -6.160858752371232e-7
          0 -2.0866293456515782e-7 -4.1693377767247354e-7 0 -2.4648685688603406e-7 -4.921488619142061e-7
          0 -9.820367683540982e-8 -1.97168367940086e-7 0 -7.439254733768645e-8 -1.4890829835029066e-7
          0 0 -2.3841282584763752e-7 -2.7449447879057323e-7 -4.7597856308541034e-7 -5.4850793798597e-7
          0 -7.669034600649471e-8 -1.5378594671616076e-7 0 -1.0316589404129485e-7 -2.049518514683348e-7
          0 -2.1979704756969756e-7 -4.3899179775991677e-7 0 -3.611563330096676e-7 -7.205601153054754e-7
          0 -6.724961397418495e-8 -1.3514084610570434e-7 0 -2.3254187187725445e-7 -4.654553146598656e-7
          0 0 0 -3.5272486494046085e-7 -3.4578626951753183e-7 -3.1037212389030205e-7
          -7.037808680588433e-7 -6.901738872354631e-7 -6.192356156117914e-7 0 -1.0698299988308007e-7 -2.1641922183295442e-7
          0 0 -2.288249609167001e-7 -2.2100152164533092e-7 -4.5680111918719576e-7 -4.414748193103001e-7
          0 -1.1961386512313796e-7 -2.3991845573534583e-7 0 -1.365456438670339e-7 -2.7370534184769143e-7
          0 -2.547532965955656e-7 -5.089148601822282e-7 0 -6.883583946232319e-8 -1.3822003300788992e-7
          0 0 -9.432447935285392e-8 -1.1522609175718695e-7 -1.8896893794381894e-7 -2.309664868444919e-7
          0 -1.3667963268960207e-7 -2.74127823352337e-7 0 -6.264793118411738e-8 -1.2541669339115792e-7
          0 -2.359133789358998e-7 -4.7132142857309043e-7 0 -2.3295791598581993e-7 -4.650903785236192e-7
          0 -3.7076798763180726e-7 -7.402415396263011e-7 0 -2.0376850799735397e-7 -4.066085314920791e-7
          0 0 -2.189133879490486e-7 -2.1558199194372398e-7 -4.371279832699127e-7 -4.308296178751059e-7
          0 -2.431608964293915e-7 -4.85497782964426e-7 0 0 -2.0150214112304425e-7
          -2.057632757038818e-7 -4.027453382257554e-7 -4.1100890278492565e-7 0 -2.1256649889065176e-7 -4.2445591994132534e-7
          0 -1.9595503722472982e-7 -3.915467077663069e-7 0 -2.1578493256909022e-7 -4.3117082775612736e-7
          0 0 -1.5643827900494643e-7 -1.6686166257696766e-7 -3.137682250260962e-7 -3.349872349165082e-7
          0 -1.977740769870055e-7 -3.9607755146797114e-7 0 -2.0911993214959145e-7 -4.1775345035264545e-7
        </DataArray>
      </PointData>
      <CellData>
        <DataArray type="Int32" Name="libmesh_elem_id" format="ascii" RangeMin="1392" RangeMax="3231">
          1392 1393 1402 1403 1418 1419
          1434 1435 1442 1443 1448 1449
          1454 1455 1478 1479 1500 1501
          1512 1513 1522 1523 1546 1547
          1572 1573 1582 1583 1590 1591
          1608 1609 1614 1615 1616 1617
          1630 1631 1638 1639 1650 1651
          1654 1655 1656 1657 1678 1679
          1682 1683 1684 1685 1704 1705
          1714 1715 1718 1719 1746 1747
          1760 1761 1762 1763 1772 1773
          1790 1791 1794 1795 1802 1803
          1816 1817 1824 1825 1832 1833
          1838 1839 1840 1841 1846 1847
          1848 1849 1852 1853 1856 1857
          1858 1859 1862 1863 1864 1865
          1874 1875 1876 1877 1878 1879
          1882 1883 1888 1889 1904 1905
          1906 1907 1910 1911 1916 1917
          1924 1925 1926 1927 1930 1931
          1936 1937 1946 1947 1950 1951
          1956 1957 1960 1961 1982 1983
          1996 1997 1998 1999 2026 2027
          2028 2029 2038 2039 2046 2047
          2048 2049 2052 2053 2054 2055
          2058 2059 2060 2061 2084 2085
          2088 2089 2096 2097 2102 2103
          2106 2107 2110 2111 2126 2127
          2136 2137 2138 2139 2144 2145
          2148 2149 2154 2155 2158 2159
          2162 2163 2164 2165 2170 2171
          2176 2177 2178 2179 2196 2197
          2200 2201 2202 2203 2204 2205
          2212 2213 2220 2221 2222 2223
          2224 2225 2226 2227 2228 2229
          2232 2233 2236 2237 2246 2247
          2250 2251 2252 2253 2254 2255
          2260 2261 2264 2265 2266 2267
          2274 2275 2282 2283 2308 2309
          2310 2311 2312 2313 2318 2319
          2324 2325 2328 2329 2346 2347
          2350 2351 2364 2365 2368 2369
          2370 2371 2402 2403 2416 2417
          2420 2421 2444 2445 2458 2459
          2462 2463 2466 2467 2468 2469
          2470 2471 2478 2479 2484 2485
          2488 2489 2490 2491 2502 2503
          2504 2505 2510 2511 2512 2513
          2524 2525 2550 2551 2566 2567
          2570 2571 2580 2581 2582 2583
          2602 2603 2608 2609 2616 2617
          2628 2629 2634 2635 2636 2637
          2640 2641 2642 2643 2644 2645
          2650 2651 2666 2667 2668 2669
          2684 2685 2690 2691 2696 2697
          2700 2701 2710 2711 2714 2715
          2716 2717 2726 2727 2750 2751
          2760 2761 2766 2767 2772 2773
          2782 2783 2798 2799 2802 2803
          2810 2811 2826 2827 2830 2831
          2838 2839 2860 2861 2868 2869
          2874 2875 2884 2885 2922 2923
          2928 2929 2934 2935 2938 2939
          2946 2947 2948 2949 2960 2961
          2962 2963 2964 2965 2974 2975
          2978 2979 2994 2995 2998 2999
          3004 3005 3008 3009 3020 3021
          3028 3029 3034 3035 3038 3039
          3040 3041 3042 3043 3050 3051
          3052 3053 3054 3055 3060 3061
          3066 3067 3072 3073 3076 3077
          3082 3083 3086 3087 3096 3097
          3100 3101 3102 3103 3112 3113
          3116 3117 3148 3149 3154 3155
          3158 3159 3166 3167 3182 3183
          3230 3231
        </DataArray>
        <DataArray type="Int32" Name="subdomain_id" format="ascii" RangeMin="107" RangeMax="107">
          107 107 107 107 107 107
          107 107 107 107 107 107
          107 107 107 107 107 107
          107 107 107 107 107 107
          107 107 107 107 107 107
          107 107 107 107 107 107
          107 107 107 107 107 107
          107 107 107 107 107 107
          107 107 107 107 107 107
          107 107 107 107 107 107
          107 107 107 107 107 107
          107 107 107 107 107 107
          107 107 107 107 107 107
          107 107 107 107 107 107
          107 107 107 107 107 107
          107 107 107 107 107 107
          107 107 107 107 107 107
          107 107 107 107 107 107
          107 107 107 107 107 107
          107 107 107 107 107 107
          107 107 107 107 107 107
          107 107 107 107 107 107
          107 107 107 107 107 107
          107 107 107 107 107 107
          107 107 107 107 107 107
          107 107 107 107 107 107
          107 107 107 107 107 107
          107 107 107 107 107 107
          107 107 107 107 107 107
          107 107 107 107 107 107
          107 107 107 107 107 107
          107 107 107 107 107 107
          107 107 107 107 107 107
          107 107 107 107 107 107
          107 107 107 107 107 107
          107 107 107 107 107 107
          107 107 107 107 107 107
          107 107 107 107 107 107
          107 107 107 107 107 107
          107 107 107 107 107 107
          107 107 107 107 107 107
          107 107 107 107 107 107
          107 107 107 107 107 107
          107 107 107 107 107 107
          107 107 107 107 107 107
          107 107 107 107 107 107
          107 107 107 107 107 107
          107 107 107 107 107 107
          107 107 107 107 107 107
          107 107 107 107 107 107
          107 107 107 107 107 107
          107 107 107 107 107 107
          107 107 107 107 107 107
          107 107 107 107 107 107
          107 107 107 107 107 107
          107 107 107 107 107 107
          107 107 107 107 107 107
          107 107 107 107 107 107
          107 107 107 107 107 107
          107 107 107 107 107 107
          107 107 107 107 107 107
          107 107 107 107 107 107
          107 107 107 107 107 107
          107 107 107 107 107 107
          107 107 107 107 107 107
          107 107 107 107 107 107
          107 107 107 107 107 107
          107 107 107 107 107 107
          107 107 107 107 107 107
          107 107 107 107 107 107
          107 107 107 107 107 107
          107 107 107 107 107 107
          107 107 107 107 107 107
          107 107 107 107 107 107
          107 107 107 107 107 107
          107 107
        </DataArray>
        <DataArray type="Int32" Name="processor_id" format="ascii" RangeMin="2" RangeMax="2">
          2 2 2 2 2 2
          2 2 2 2 2 2
          2 2 2 2 2 2
          2 2 2 2 2 2
          2 2 2 2 2 2
          2 2 2 2 2 2
          2 2 2 2 2 2
          2 2 2 2 2 2
          2 2 2 2 2 2
          2 2 2 2 2 2
          2 2 2 2 2 2
          2 2 2 2 2 2
          2 2 2 2 2 2
          2 2 2 2 2 2
          2 2 2 2 2 2
          2 2 2 2 2 2
          2 2 2 2 2 2
          2 2 2 2 2 2
          2 2 2 2 2 2
          2 2 2 2 2 2
          2 2 2 2 2 2
          2 2 2 2 2 2
          2 2 2 2 2 2
          2 2 2 2 2 2
          2 2 2 2 2 2
          2 2 2 2 2 2
          2 2 2 2 2 2
          2 2 2 2 2 2
          2 2 2 2 2 2
          2 2 2 2 2 2
          2 2 2 2 2 2
          2 2 2 2 2 2
          2 2 2 2 2 2
          2 2 2 2 2 2
          2 2 2 2 2 2
          2 2 2 2 2 2
          2 2 2 2 2 2
          2 2 2 2 2 2
          2 2 2 2 2 2
          2 2 2 2 2 2
          2 2 2 2 2 2
          2 2 2 2 2 2
          2 2 2 2 2 2
          2 2 2 2 2 2
          2 2 2 2 2 2
          2 2 2 2 2 2
          2 2 2 2 2 2
          2 2 2 2 2 2
          2 2 2 2 2 2
          2 2 2 2 2 2
          2 2 2 2 2 2
          2 2 2 2 2 2
          2 2 2 2 2 2
          2 2 2 2 2 2
          2 2 2 2 2 2
          2 2 2 2 2 2
          2 2 2 2 2 2
          2 2 2 2 2 2
          2 2 2 2 2 2
          2 2 2 2 2 2
          2 2 2 2 2 2
          2 2 2 2 2 2
          2 2 2 2 2 2
          2 2 2 2 2 2
          2 2 2 2 2 2
          2 2 2 2 2 2
          2 2 2 2 2 2
          2 2 2 2 2 2
          2 2 2 2 2 2
          2 2 2 2 2 2
          2 2 2 2 2 2
          2 2 2 2 2 2
          2 2 2 2 2 2
          2 2 2 2 2 2
          2 2 2 2 2 2
          2 2
        </DataArray>
      </CellData>
      <Points>
        <DataArray type="Float64" Name="Points" NumberOfComponents="3" format="ascii" RangeMin="0.0055128205128194" RangeMax="0.014586579917196396">
          0.010655961336451 0.0054415469453289 0 0.010738296327413 0.0059250363170334 0
          0.010252884061106 0.0059462536680524 0 0.010205117478458 0.0054994523140404 0
          0.010655961336451 0.0054415469453289 0.00015 0.010738296327413 0.0059250363170334 0.00015
          0.010252884061106 0.0059462536680524 0.00015 0.010205117478458 0.0054994523140404 0.00015
          0.010655961336451 0.0054415469453289 0.0003 0.010738296327413 0.0059250363170334 0.0003
          0.010252884061106 0.0059462536680524 0.0003 0.010205117478458 0.0054994523140404 0.0003
          0.011940440807394 0.0034141066074527 0 0.011459595517011 0.003824326979063 0
          0.011102612382238 0.0034627190197861 0 0.011355953963772 0.0030463545109029 0
          0.011940440807394 0.0034141066074527 0.00015 0.011459595517011 0.003824326979063 0.00015
          0.011102612382238 0.0034627190197861 0.00015 0.011355953963772 0.0030463545109029 0.00015
          0.011940440807394 0.0034141066074527 0.0003 0.011459595517011 0.003824326979063 0.0003
          0.011102612382238 0.0034627190197861 0.0003 0.011355953963772 0.0030463545109029 0.0003
          0.010057653370411 0.0084974472595183 0 0.01054988842507 0.0084422245958245 0
          0.010057653370411 0.0084974472595183 0.00015 0.01054988842507 0.0084422245958245 0.00015
          0.010057653370411 0.0084974472595183 0.0003 0.01054988842507 0.0084422245958245 0.0003
          0.011046194733105 0.00090743319272295 0 0.011064186406242 0.00044456569898216 0
          0.011549090679959 0.00043919238601916 0 0.011507246232172 0.00087204304167501 0
          0.011046194733105 0.00090743319272295 0.00015 0.011064186406242 0.00044456569898216 0.00015
          0.011549090679959 0.00043919238601916 0.00015 0.011507246232172 0.00087204304167501 0.00015
          0.011046194733105 0.00090743319272295 0.0003 0.011064186406242 0.00044456569898216 0.0003
          0.011549090679959 0.00043919238601916 0.0003 0.011507246232172 0.00087204304167501 0.0003
          0.010695724673322 0.003201084864495 0 0.010922769205465 0.002821493997395 0
          0.010695724673322 0.003201084864495 0.00015 0.010922769205465 0.002821493997395 0.00015
          0.010695724673322 0.003201084864495 0.0003 0.010922769205465 0.002821493997395 0.0003
          0.0063972422249218 0.0045440807567198 0 0.0065062213292024 0.0050164807168814 0
          0.0062389906493372 0.0053128670028646 0 0.0060512178389602 0.0047929387822649 0
          0.0063972422249218 0.0045440807567198 0.00015 0.0065062213292024 0.0050164807168814 0.00015
          0.0062389906493372 0.0053128670028646 0.00015 0.0060512178389602 0.0047929387822649 0.00015
          0.0063972422249218 0.0045440807567198 0.0003 0.0065062213292024 0.0050164807168814 0.0003
          0.0062389906493372 0.0053128670028646 0.0003 0.0060512178389602 0.0047929387822649 0.0003
          0.0077450758336629 0.0014176167893871 0 0.0081853433575 0.0016343392489207 0
          0.0081296210030831 0.0020475545417094 0 0.0077097822266787 0.0019577759081516 0
          0.0077450758336629 0.0014176167893871 0.00015 0.0081853433575 0.0016343392489207 0.00015
          0.0081296210030831 0.0020475545417094 0.00015 0.0077097822266787 0.0019577759081516 0.00015
          0.0077450758336629 0.0014176167893871 0.0003 0.0081853433575 0.0016343392489207 0.0003
          0.0081296210030831 0.0020475545417094 0.0003 0.0077097822266787 0.0019577759081516 0.0003
          0.010163700921554 0.0050965322104848 0 0.010539876174215 0.0050107335132671 0
          0.010163700921554 0.0050965322104848 0.00015 0.010539876174215 0.0050107335132671 0.00015
          0.010163700921554 0.0050965322104848 0.0003 0.010539876174215 0.0050107335132671 0.0003
          0.0067145785472978 0.00092067788586619 0 0.0066311284750677 0.00045344715700039 0
          0.0071039644964018 0.00045254776362746 0 0.0071622170579096 0.00091220258976311 0
          0.0067145785472978 0.00092067788586619 0.00015 0.0066311284750677 0.00045344715700039 0.00015
          0.0071039644964018 0.00045254776362746 0.00015 0.0071622170579096 0.00091220258976311 0.00015
          0.0067145785472978 0.00092067788586619 0.0003 0.0066311284750677 0.00045344715700039 0.0003
          0.0071039644964018 0.00045254776362746 0.0003 0.0071622170579096 0.00091220258976311 0.0003
          0.011832021157187 0.0073476785459853 0 0.011779780861271 0.0068646395959748 0
          0.012243708910156 0.0068324173193727 0 0.011832021157187 0.0073476785459853 0.00015
          0.011779780861271 0.0068646395959748 0.00015 0.012243708910156 0.0068324173193727 0.00015
          0.011832021157187 0.0073476785459853 0.0003 0.011779780861271 0.0068646395959748 0.0003
          0.012243708910156 0.0068324173193727 0.0003 0.0084907788898463 0.00044286110481525 0
          0.0089555217282148 0.00046389179151574 0 0.0088246864415892 0.00090448805343066 0
          0.0084146790711037 0.00087434414493667 0 0.0084907788898463 0.00044286110481525 0.00015
          0.0089555217282148 0.00046389179151574 0.00015 0.0088246864415892 0.00090448805343066 0.00015
          0.0084146790711037 0.00087434414493667 0.00015 0.0084907788898463 0.00044286110481525 0.0003
          0.0089555217282148 0.00046389179151574 0.0003 0.0088246864415892 0.00090448805343066 0.0003
          0.0084146790711037 0.00087434414493667 0.0003 0.0073198391209489 0.002802975731369 0
          0.007729981097025 0.0028801564362105 0 0.0077015154526268 0.0033237594367458 0
          0.0072927827923603 0.0032114269239825 0 0.0073198391209489 0.002802975731369 0.00015
          0.007729981097025 0.0028801564362105 0.00015 0.0077015154526268 0.0033237594367458 0.00015
          0.0072927827923603 0.0032114269239825 0.00015 0.0073198391209489 0.002802975731369 0.0003
          0.007729981097025 0.0028801564362105 0.0003 0.0077015154526268 0.0033237594367458 0.0003
          0.0072927827923603 0.0032114269239825 0.0003 0.011061956134478 0.0014022262787872 0
          0.011061956134478 0.0014022262787872 0.00015 0.011061956134478 0.0014022262787872 0.0003
          0.0067262777673885 0.0043003855308917 0 0.0070184374453973 0.0044097475846897 0
          0.0069143452336461 0.0047780273607631 0 0.0067262777673885 0.0043003855308917 0.00015
          0.0070184374453973 0.0044097475846897 0.00015 0.0069143452336461 0.0047780273607631 0.00015
          0.0067262777673885 0.0043003855308917 0.0003 0.0070184374453973 0.0044097475846897 0.0003
          0.0069143452336461 0.0047780273607631 0.0003 0.0072966772765568 0.0023596996909359 0
          0.0077191611848381 0.0024307703640478 0 0.0072966772765568 0.0023596996909359 0.00015
          0.0077191611848381 0.0024307703640478 0.00015 0.0072966772765568 0.0023596996909359 0.0003
          0.0077191611848381 0.0024307703640478 0.0003 0.010569749843509 0.00092230265866691 0
          0.010578573679683 0.0013844170604281 0 0.010145320905195 0.0014335884987508 0
          0.01008894187929 0.00096115561381429 0 0.010569749843509 0.00092230265866691 0.00015
          0.010578573679683 0.0013844170604281 0.00015 0.010145320905195 0.0014335884987508 0.00015
          0.01008894187929 0.00096115561381429 0.00015 0.010569749843509 0.00092230265866691 0.0003
          0.010578573679683 0.0013844170604281 0.0003 0.010145320905195 0.0014335884987508 0.0003
          0.01008894187929 0.00096115561381429 0.0003 0.0061669869081239 0.00049673093518566 0
          0.0062913293509889 0.00097410606592609 0 0.0059245902968253 0.0010856763727913 0
          0.0057061681768373 0.00065177476244477 0 0.0061669869081239 0.00049673093518566 0.00015
          0.0062913293509889 0.00097410606592609 0.00015 0.0059245902968253 0.0010856763727913 0.00015
          0.0057061681768373 0.00065177476244477 0.00015 0.0061669869081239 0.00049673093518566 0.0003
          0.0062913293509889 0.00097410606592609 0.0003 0.0059245902968253 0.0010856763727913 0.0003
          0.0057061681768373 0.00065177476244477 0.0003 0.010613957240618 0.0022894151744625 0
          0.011031068838334 0.0023895404946521 0 0.01053554486979 0.0026566023779455 0
          0.010613957240618 0.0022894151744625 0.00015 0.011031068838334 0.0023895404946521 0.00015
          0.01053554486979 0.0026566023779455 0.00015 0.010613957240618 0.0022894151744625 0.0003
          0.011031068838334 0.0023895404946521 0.0003 0.01053554486979 0.0026566023779455 0.0003
          0.0055128205128194 0 0 0.0060256410256386 0 0
          0.0055128205128194 0 0.00015 0.0060256410256386 0 0.00015
          0.0055128205128194 0 0.0003 0.0060256410256386 0 0.0003
          0.0087932726011055 0.003543484648519 0 0.0081725565838686 0.0034418576035907 0
          0.0081844882448281 0.0029554535172717 0 0.0086653225286358 0.0029358056411338 0
          0.0087932726011055 0.003543484648519 0.00015 0.0081725565838686 0.0034418576035907 0.00015
          0.0081844882448281 0.0029554535172717 0.00015 0.0086653225286358 0.0029358056411338 0.00015
          0.0087932726011055 0.003543484648519 0.0003 0.0081725565838686 0.0034418576035907 0.0003
          0.0081844882448281 0.0029554535172717 0.0003 0.0086653225286358 0.0029358056411338 0.0003
          0.010609256891376 0.0018508518753275 0 0.011063963632424 0.0019108783312894 0
          0.010609256891376 0.0018508518753275 0.00015 0.011063963632424 0.0019108783312894 0.00015
          0.010609256891376 0.0018508518753275 0.0003 0.011063963632424 0.0019108783312894 0.0003
          0.0061614658010566 0.0029736343202522 0 0.0061372854142827 0.0036106222238676 0
          0.0061614658010566 0.0029736343202522 0.00015 0.0061372854142827 0.0036106222238676 0.00015
          0.0061614658010566 0.0029736343202522 0.0003 0.0061372854142827 0.0036106222238676 0.0003
          0.0091223832784702 0.0028108558594978 0 0.0093224708097351 0.0032450014434347 0
          0.0091223832784702 0.0028108558594978 0.00015 0.0093224708097351 0.0032450014434347 0.00015
          0.0091223832784702 0.0028108558594978 0.0003 0.0093224708097351 0.0032450014434347 0.0003
          0.010365654248251 0.0046741943492533 0 0.010130092133721 0.0048347586786618 0
          0.0098673679311407 0.0047157860708196 0 0.010078628200493 0.0044157313734999 0
          0.010365654248251 0.0046741943492533 0.00015 0.010130092133721 0.0048347586786618 0.00015
          0.0098673679311407 0.0047157860708196 0.00015 0.010078628200493 0.0044157313734999 0.00015
          0.010365654248251 0.0046741943492533 0.0003 0.010130092133721 0.0048347586786618 0.0003
          0.0098673679311407 0.0047157860708196 0.0003 0.010078628200493 0.0044157313734999 0.0003
          0.0074225055052033 0.0045889494028562 0 0.0073125071067115 0.0049521547682488 0
          0.0074225055052033 0.0045889494028562 0.00015 0.0073125071067115 0.0049521547682488 0.00015
          0.0074225055052033 0.0045889494028562 0.0003 0.0073125071067115 0.0049521547682488 0.0003
          0.0061231952422177 0.002444135475079 0 0.0061231952422177 0.002444135475079 0.00015
          0.0061231952422177 0.002444135475079 0.0003 0.007634491258567 0.0037589111207536 0
          0.0080978935956725 0.0039120786728548 0 0.007634491258567 0.0037589111207536 0.00015
          0.0080978935956725 0.0039120786728548 0.00015 0.007634491258567 0.0037589111207536 0.0003
          0.0080978935956725 0.0039120786728548 0.0003 0.0067400809843091 0.0034207975388345 0
          0.0067100713183769 0.0039836679330495 0 0.0063054236008776 0.0041223407032968 0
          0.0067400809843091 0.0034207975388345 0.00015 0.0067100713183769 0.0039836679330495 0.00015
          0.0063054236008776 0.0041223407032968 0.00015 0.0067400809843091 0.0034207975388345 0.0003
          0.0067100713183769 0.0039836679330495 0.0003 0.0063054236008776 0.0041223407032968 0.0003
          0.0064429727892239 0.0018594619814901 0 0.0065003657821779 0.0023397297588745 0
          0.0060722038988066 0.0019538017587265 0 0.0064429727892239 0.0018594619814901 0.00015
          0.0065003657821779 0.0023397297588745 0.00015 0.0060722038988066 0.0019538017587265 0.00015
          0.0064429727892239 0.0018594619814901 0.0003 0.0065003657821779 0.0023397297588745 0.0003
          0.0060722038988066 0.0019538017587265 0.0003 0.0068255396015086 0.0051581133306003 0
          0.0068255396015086 0.0051581133306003 0.00015 0.0068255396015086 0.0051581133306003 0.0003
          0.0065384615384579 0 0 0.0065384615384579 0 0.00015
          0.0065384615384579 0 0.0003 0.012879713087233 0.0060908484912964 0
          0.012982043505355 0.0056371881930815 0 0.012879713087233 0.0060908484912964 0.00015
          0.012982043505355 0.0056371881930815 0.00015 0.012879713087233 0.0060908484912964 0.0003
          0.012982043505355 0.0056371881930815 0.0003 0.0065699942646101 0.0028542668018424 0
          0.0065699942646101 0.0028542668018424 0.00015 0.0065699942646101 0.0028542668018424 0.0003
          0.0084683943974961 0.0045583446766593 0 0.0079943718437571 0.0043747262241866 0
          0.0085823759797054 0.0040943119694046 0 0.0084683943974961 0.0045583446766593 0.00015
          0.0079943718437571 0.0043747262241866 0.00015 0.0085823759797054 0.0040943119694046 0.00015
          0.0084683943974961 0.0045583446766593 0.0003 0.0079943718437571 0.0043747262241866 0.0003
          0.0085823759797054 0.0040943119694046 0.0003 0.0085830886495109 0.0024681574500846 0
          0.0090044137010858 0.0023542069269131 0 0.0085830886495109 0.0024681574500846 0.00015
          0.0090044137010858 0.0023542069269131 0.00015 0.0085830886495109 0.0024681574500846 0.0003
          0.0090044137010858 0.0023542069269131 0.0003 0.0098857235699117 0.0079055319030787 0
          0.0095144479526816 0.0076594245921199 0 0.0094715724969347 0.0073263583858313 0
          0.0099283521138692 0.0073475677072736 0 0.0098857235699117 0.0079055319030787 0.00015
          0.0095144479526816 0.0076594245921199 0.00015 0.0094715724969347 0.0073263583858313 0.00015
          0.0099283521138692 0.0073475677072736 0.00015 0.0098857235699117 0.0079055319030787 0.0003
          0.0095144479526816 0.0076594245921199 0.0003 0.0094715724969347 0.0073263583858313 0.0003
          0.0099283521138692 0.0073475677072736 0.0003 0.010833716827414 0.0069257207373803 0
          0.010357413059119 0.0069077241183533 0 0.010300982556592 0.0064274708783385 0
          0.010786080808085 0.0064391381968206 0 0.010833716827414 0.0069257207373803 0.00015
          0.010357413059119 0.0069077241183533 0.00015 0.010300982556592 0.0064274708783385 0.00015
          0.010786080808085 0.0064391381968206 0.00015 0.010833716827414 0.0069257207373803 0.0003
          0.010357413059119 0.0069077241183533 0.0003 0.010300982556592 0.0064274708783385 0.0003
          0.010786080808085 0.0064391381968206 0.0003 0.012723582323863 0.006509831652106 0
          0.012251440655851 0.0062918667587536 0 0.012542392069256 0.0059723735377719 0
          0.012723582323863 0.006509831652106 0.00015 0.012251440655851 0.0062918667587536 0.00015
          0.012542392069256 0.0059723735377719 0.00015 0.012723582323863 0.006509831652106 0.0003
          0.012251440655851 0.0062918667587536 0.0003 0.012542392069256 0.0059723735377719 0.0003
          0.0071151184692216 0.0040272738406853 0 0.0071151184692216 0.0040272738406853 0.00015
          0.0071151184692216 0.0040272738406853 0.0003 0.005927800859391 0.0043689372395662 0
          0.005927800859391 0.0043689372395662 0.00015 0.005927800859391 0.0043689372395662 0.0003
          0.0092411258002763 0.0078319639415625 0 0.0089588909882048 0.0073942383853577 0
          0.0092411258002763 0.0078319639415625 0.00015 0.0089588909882048 0.0073942383853577 0.00015
          0.0092411258002763 0.0078319639415625 0.0003 0.0089588909882048 0.0073942383853577 0.0003
          0.009874674666521 0.0068715373563056 0 0.010410157305432 0.007394545582291 0
          0.009874674666521 0.0068715373563056 0.00015 0.010410157305432 0.007394545582291 0.00015
          0.009874674666521 0.0068715373563056 0.0003 0.010410157305432 0.007394545582291 0.0003
          0.0075354000991736 0.004186248288406 0 0.0075354000991736 0.004186248288406 0.00015
          0.0075354000991736 0.004186248288406 0.0003 0.01131847387487 0.0058224977902188 0
          0.011696082283392 0.0060272916092408 0 0.011725204011411 0.0063910302275778 0
          0.011265055974573 0.0064250601080915 0 0.01131847387487 0.0058224977902188 0.00015
          0.011696082283392 0.0060272916092408 0.00015 0.011725204011411 0.0063910302275778 0.00015
          0.011265055974573 0.0064250601080915 0.00015 0.01131847387487 0.0058224977902188 0.0003
          0.011696082283392 0.0060272916092408 0.0003 0.011725204011411 0.0063910302275778 0.0003
          0.011265055974573 0.0064250601080915 0.0003 0.012000241143886 0.0058170880130831 0
          0.012000241143886 0.0058170880130831 0.00015 0.012000241143886 0.0058170880130831 0.0003
          0.011120492592586 0.0052514705902296 0 0.011120492592586 0.0052514705902296 0.00015
          0.011120492592586 0.0052514705902296 0.0003 0.0092910901193945 0.0039260363263486 0
          0.0090503465409481 0.0043132092761106 0 0.0092910901193945 0.0039260363263486 0.00015
          0.0090503465409481 0.0043132092761106 0.00015 0.0092910901193945 0.0039260363263486 0.0003
          0.0090503465409481 0.0043132092761106 0.0003 0.007889027184575 0.0048982243533992 0
          0.007889027184575 0.0048982243533992 0.00015 0.007889027184575 0.0048982243533992 0.0003
          0.0094935553236164 0.004533528646427 0 0.0097061514105808 0.0041851036755216 0
          0.0094935553236164 0.004533528646427 0.00015 0.0097061514105808 0.0041851036755216 0.00015
          0.0094935553236164 0.004533528646427 0.0003 0.0097061514105808 0.0041851036755216 0.0003
          0.007602124101561 0.0050930903063015 0 0.007602124101561 0.0050930903063015 0.00015
          0.007602124101561 0.0050930903063015 0.0003 0.010723762445737 0.0044202706845482 0
          0.010410164583979 0.0041181159817359 0 0.010723762445737 0.0044202706845482 0.00015
          0.010410164583979 0.0041181159817359 0.00015 0.010723762445737 0.0044202706845482 0.0003
          0.010410164583979 0.0041181159817359 0.0003 0.01095205032792 0.0047963590452232 0
          0.01095205032792 0.0047963590452232 0.00015 0.01095205032792 0.0047963590452232 0.0003
          0.011303178752756 0.0069106117689346 0 0.011303178752756 0.0069106117689346 0.00015
          0.011303178752756 0.0069106117689346 0.0003 0.01003253261535 0.0038623502872685 0
          0.01003253261535 0.0038623502872685 0.00015 0.01003253261535 0.0038623502872685 0.0003
          0.0076528923620256 0.0053996878686031 0 0.0072494384034052 0.005322441352826 0
          0.0076528923620256 0.0053996878686031 0.00015 0.0072494384034052 0.005322441352826 0.00015
          0.0076528923620256 0.0053996878686031 0.0003 0.0072494384034052 0.005322441352826 0.0003
          0.0096442187720765 0.0035928190702974 0 0.0096442187720765 0.0035928190702974 0.00015
          0.0096442187720765 0.0035928190702974 0.0003 0.012013949131265 0.002158444108951 0
          0.012018063243501 0.0027123142038817 0 0.012013949131265 0.002158444108951 0.00015
          0.012018063243501 0.0027123142038817 0.00015 0.012013949131265 0.002158444108951 0.0003
          0.012018063243501 0.0027123142038817 0.0003 0.0080144547016537 0.00086684480617367 0
          0.008304219624614 0.0012703006012415 0 0.0080327132462595 0.0011721512048422 0
          0.0080144547016537 0.00086684480617367 0.00015 0.008304219624614 0.0012703006012415 0.00015
          0.0080327132462595 0.0011721512048422 0.00015 0.0080144547016537 0.00086684480617367 0.0003
          0.008304219624614 0.0012703006012415 0.0003 0.0080327132462595 0.0011721512048422 0.0003
          0.0094736490244467 0.0005865877812969 0 0.010068957850501 0.00047856930843549 0
          0.0096358530086744 0.0010887425154837 0 0.0094736490244467 0.0005865877812969 0.00015
          0.010068957850501 0.00047856930843549 0.00015 0.0096358530086744 0.0010887425154837 0.00015
          0.0094736490244467 0.0005865877812969 0.0003 0.010068957850501 0.00047856930843549 0.0003
          0.0096358530086744 0.0010887425154837 0.0003 0.0071984303565192 0.0057392272964834 0
          0.0067200519522164 0.0055550541115669 0 0.0071984303565192 0.0057392272964834 0.00015
          0.0067200519522164 0.0055550541115669 0.00015 0.0071984303565192 0.0057392272964834 0.0003
          0.0067200519522164 0.0055550541115669 0.0003 0.013091675611077 0.0041736873632184 0
          0.012621380555602 0.004071395146678 0 0.012601464682814 0.0035037767307713 0
          0.013091675611077 0.0041736873632184 0.00015 0.012621380555602 0.004071395146678 0.00015
          0.012601464682814 0.0035037767307713 0.00015 0.013091675611077 0.0041736873632184 0.0003
          0.012621380555602 0.004071395146678 0.0003 0.012601464682814 0.0035037767307713 0.0003
          0.01153639784925 0.0020208067996516 0 0.011496246026306 0.0025480504488598 0
          0.01153639784925 0.0020208067996516 0.00015 0.011496246026306 0.0025480504488598 0.00015
          0.01153639784925 0.0020208067996516 0.0003 0.011496246026306 0.0025480504488598 0.0003
          0.011043213382792 0.0084269911709333 0 0.011043213382792 0.0084269911709333 0.00015
          0.011043213382792 0.0084269911709333 0.0003 0.010128205128191 0 0
          0.0096153846153732 0 0 0.010128205128191 0 0.00015
          0.0096153846153732 0 0.00015 0.010128205128191 0 0.0003
          0.0096153846153732 0 0.0003 0.0091025641025551 0 0
          0.0085897435897353 0 0 0.0091025641025551 0 0.00015
          0.0085897435897353 0 0.00015 0.0091025641025551 0 0.0003
          0.0085897435897353 0 0.0003 0.0085182476127008 0.0020437661198126 0
          0.0089029205554566 0.0019047336662455 0 0.0085182476127008 0.0020437661198126 0.00015
          0.0089029205554566 0.0019047336662455 0.00015 0.0085182476127008 0.0020437661198126 0.0003
          0.0089029205554566 0.0019047336662455 0.0003 0.0081522818828449 0.0024947087352937 0
          0.0081522818828449 0.0024947087352937 0.00015 0.0081522818828449 0.0024947087352937 0.0003
          0.010641025641009 0 0 0.010579843756946 0.00045349299099366 0
          0.010641025641009 0 0.00015 0.010579843756946 0.00045349299099366 0.00015
          0.010641025641009 0 0.0003 0.010579843756946 0.00045349299099366 0.0003
          0.011153846153828 0 0 0.011153846153828 0 0.00015
          0.011153846153828 0 0.0003 0.011760912133753 0.0054122119446059 0
          0.011760912133753 0.0054122119446059 0.00015 0.011760912133753 0.0054122119446059 0.0003
          0.011666666666648 0 0 0.011666666666648 0 0.00015
          0.011666666666648 0 0.0003 0.011547825504055 0.0049713459697514 0
          0.011547825504055 0.0049713459697514 0.00015 0.011547825504055 0.0049713459697514 0.0003
          0.011349632014182 0.0045239710214715 0 0.011349632014182 0.0045239710214715 0.00015
          0.011349632014182 0.0045239710214715 0.0003 0.011997463288521 0.00046572766410539 0
          0.012179487179468 0 0 0.011997463288521 0.00046572766410539 0.00015
          0.012179487179468 0 0.00015 0.011997463288521 0.00046572766410539 0.0003
          0.012179487179468 0 0.0003 0.01039056673058 0.0035410773695937 0
          0.010772622187787 0.0038062315725381 0 0.01039056673058 0.0035410773695937 0.00015
          0.010772622187787 0.0038062315725381 0.00015 0.01039056673058 0.0035410773695937 0.0003
          0.010772622187787 0.0038062315725381 0.0003 0.0089323359070786 0.0047421281357296 0
          0.0089323359070786 0.0047421281357296 0.00015 0.0089323359070786 0.0047421281357296 0.0003
          0.010891746765568 0.007407252260552 0 0.010891746765568 0.007407252260552 0.00015
          0.010891746765568 0.007407252260552 0.0003 0.011089383238376 0.0041358143249023 0
          0.011089383238376 0.0041358143249023 0.00015 0.011089383238376 0.0041358143249023 0.0003
          0.007205317033861 0.0036141963404016 0 0.007205317033861 0.0036141963404016 0.00015
          0.007205317033861 0.0036141963404016 0.0003 0.0080269839945158 0.0054023282425744 0
          0.0080269839945158 0.0054023282425744 0.00015 0.0080269839945158 0.0054023282425744 0.0003
          0.0077721363879251 0.0058968168784219 0 0.0077721363879251 0.0058968168784219 0.00015
          0.0077721363879251 0.0058968168784219 0.0003 0.0095370253310475 0.0025850582106885 0
          0.009732219723835 0.0029713438236062 0 0.0095370253310475 0.0025850582106885 0.00015
          0.009732219723835 0.0029713438236062 0.00015 0.0095370253310475 0.0025850582106885 0.0003
          0.009732219723835 0.0029713438236062 0.0003 0.0094100372761059 0.0021522308351028 0
          0.0094100372761059 0.0021522308351028 0.00015 0.0094100372761059 0.0021522308351028 0.0003
          0.0087313387484914 0.001424359608332 0 0.0084651319029022 0.0017289788972556 0
          0.0087313387484914 0.001424359608332 0.00015 0.0084651319029022 0.0017289788972556 0.00015
          0.0087313387484914 0.001424359608332 0.0003 0.0084651319029022 0.0017289788972556 0.0003
          0.011363196701121 0.0073867521895413 0 0.011894488312007 0.0078344841271679 0
          0.011431801070778 0.0078815011129823 0 0.011363196701121 0.0073867521895413 0.00015
          0.011894488312007 0.0078344841271679 0.00015 0.011431801070778 0.0078815011129823 0.00015
          0.011363196701121 0.0073867521895413 0.0003 0.011894488312007 0.0078344841271679 0.0003
          0.011431801070778 0.0078815011129823 0.0003 0.011511795106494 0.0083968566041475 0
          0.011511795106494 0.0083968566041475 0.00015 0.011511795106494 0.0083968566041475 0.0003
          0.0093066157528448 0.0017085494075796 0 0.0093066157528448 0.0017085494075796 0.00015
          0.0093066157528448 0.0017085494075796 0.0003 0.011737204813157 0.0042624504192267 0
          0.011920232844873 0.0047153506313134 0 0.011737204813157 0.0042624504192267 0.00015
          0.011920232844873 0.0047153506313134 0.00015 0.011737204813157 0.0042624504192267 0.0003
          0.011920232844873 0.0047153506313134 0.0003 0.0097199155871303 0.0015315099671301 0
          0.0098040259351994 0.0019696894002764 0 0.0097199155871303 0.0015315099671301 0.00015
          0.0098040259351994 0.0019696894002764 0.00015 0.0097199155871303 0.0015315099671301 0.0003
          0.0098040259351994 0.0019696894002764 0.0003 0.0099068743951204 0.0023814903757239 0
          0.0099068743951204 0.0023814903757239 0.00015 0.0099068743951204 0.0023814903757239 0.0003
          0.010196799496301 0.0018655242590307 0 0.010252080701677 0.0022738797315184 0
          0.010196799496301 0.0018655242590307 0.00015 0.010252080701677 0.0022738797315184 0.00015
          0.010196799496301 0.0018655242590307 0.0003 0.010252080701677 0.0022738797315184 0.0003
          0.0082479601882269 0.0062087007836213 0 0.0083721174281176 0.0058457654542534 0
          0.0087793359412623 0.006030240425184 0 0.0086690881028679 0.0063945203238097 0
          0.0082479601882269 0.0062087007836213 0.00015 0.0083721174281176 0.0058457654542534 0.00015
          0.0087793359412623 0.006030240425184 0.00015 0.0086690881028679 0.0063945203238097 0.00015
          0.0082479601882269 0.0062087007836213 0.0003 0.0083721174281176 0.0058457654542534 0.0003
          0.0087793359412623 0.006030240425184 0.0003 0.0086690881028679 0.0063945203238097 0.0003
          0.0098103305116681 0.0063862496116293 0 0.0098103305116681 0.0063862496116293 0.00015
          0.0098103305116681 0.0063862496116293 0.0003 0.0084248193747317 0.0050261658136402 0
          0.0084248193747317 0.0050261658136402 0.00015 0.0084248193747317 0.0050261658136402 0.0003
          0.0069463016830039 0.0027787422025108 0 0.0070048409545821 0.0031125297586922 0
          0.0069463016830039 0.0027787422025108 0.00015 0.0070048409545821 0.0031125297586922 0.00015
          0.0069463016830039 0.0027787422025108 0.0003 0.0070048409545821 0.0031125297586922 0.0003
          0.010028456835002 0.0032748409090605 0 0.010028456835002 0.0032748409090605 0.00015
          0.010028456835002 0.0032748409090605 0.0003 0.013084530633285 0.0046685927017207 0
          0.012657407202949 0.0045740785705039 0 0.013084530633285 0.0046685927017207 0.00015
          0.012657407202949 0.0045740785705039 0.00015 0.013084530633285 0.0046685927017207 0.0003
          0.012657407202949 0.0045740785705039 0.0003 0.0063788755008874 0.0014091508241809 0
          0.0060137569775388 0.0015029488511318 0 0.0063788755008874 0.0014091508241809 0.00015
          0.0060137569775388 0.0015029488511318 0.00015 0.0063788755008874 0.0014091508241809 0.0003
          0.0060137569775388 0.0015029488511318 0.0003 0.01196380743939 0.0083394019710021 0
          0.01196380743939 0.0083394019710021 0.00015 0.01196380743939 0.0083394019710021 0.0003
          0.010073855840534 0.0027196155419985 0 0.010289681297386 0.0025561678844121 0
          0.010073855840534 0.0027196155419985 0.00015 0.010289681297386 0.0025561678844121 0.00015
          0.010073855840534 0.0027196155419985 0.0003 0.010289681297386 0.0025561678844121 0.0003
          0.0093223919318803 0.0053434698815888 0 0.009764317340127 0.0054658727348424 0
          0.0097769212248058 0.0059119658621614 0 0.0093027527337708 0.0057939169389015 0
          0.0093223919318803 0.0053434698815888 0.00015 0.009764317340127 0.0054658727348424 0.00015
          0.0097769212248058 0.0059119658621614 0.00015 0.0093027527337708 0.0057939169389015 0.00015
          0.0093223919318803 0.0053434698815888 0.0003 0.009764317340127 0.0054658727348424 0.0003
          0.0097769212248058 0.0059119658621614 0.0003 0.0093027527337708 0.0057939169389015 0.0003
          0.0068882925124701 0.0023177669638962 0 0.0068882925124701 0.0023177669638962 0.00015
          0.0068882925124701 0.0023177669638962 0.0003 0.0092499592325966 0.0063238181416562 0
          0.0089620052424248 0.0065330227489775 0 0.0092499592325966 0.0063238181416562 0.00015
          0.0089620052424248 0.0065330227489775 0.00015 0.0092499592325966 0.0063238181416562 0.0003
          0.0089620052424248 0.0065330227489775 0.0003 0.0072168253422346 0.001397514094839 0
          0.0076041066380058 0.00089936619415626 0 0.0072168253422346 0.001397514094839 0.00015
          0.0076041066380058 0.00089936619415626 0.00015 0.0072168253422346 0.001397514094839 0.0003
          0.0076041066380058 0.00089936619415626 0.0003 0.0075718226613923 0.00044755222139025 0
          0.0075718226613923 0.00044755222139025 0.00015 0.0075718226613923 0.00044755222139025 0.0003
          0.012116660000204 0.0051206445675074 0 0.012116660000204 0.0051206445675074 0.00015
          0.012116660000204 0.0051206445675074 0.0003 0.0068338524094732 0.0018398489073113 0
          0.0068338524094732 0.0018398489073113 0.00015 0.0068338524094732 0.0018398489073113 0.0003
          0.0088473960481577 0.0056214227923259 0 0.0088473960481577 0.0056214227923259 0.00015
          0.0088473960481577 0.0056214227923259 0.0003 0.0081402125110085 0.0066115625704341 0
          0.0081402125110085 0.0066115625704341 0.00015 0.0081402125110085 0.0066115625704341 0.0003
          0.0067824993802385 0.0013824026215467 0 0.0072591856110724 0.0018865642034293 0
          0.0067824993802385 0.0013824026215467 0.00015 0.0072591856110724 0.0018865642034293 0.00015
          0.0067824993802385 0.0013824026215467 0.0003 0.0072591856110724 0.0018865642034293 0.0003
          0.0094035295411974 0.0068662830960629 0 0.0094035295411974 0.0068662830960629 0.00015
          0.0094035295411974 0.0068662830960629 0.0003 0.0080770297303238 0.0057078658228848 0
          0.0080770297303238 0.0057078658228848 0.00015 0.0080770297303238 0.0057078658228848 0.0003
          0.012455160230445 0.0055307966461266 0 0.012455160230445 0.0055307966461266 0.00015
          0.012455160230445 0.0055307966461266 0.0003 0.0092134396095011 0.0012639463069257 0
          0.0092134396095011 0.0012639463069257 0.00015 0.0092134396095011 0.0012639463069257 0.0003
          0.0085681017610313 0.0067725899286886 0 0.0085681017610313 0.0067725899286886 0.00015
          0.0085681017610313 0.0067725899286886 0.0003 0.010337781301114 0.0029713007827362 0
          0.010337781301114 0.0029713007827362 0.00015 0.010337781301114 0.0029713007827362 0.0003
          0.0080769230769162 0 0 0.0080362994401078 0.00044130282391618 0
          0.0075641025640979 0 0 0.0080769230769162 0 0.00015
          0.0080362994401078 0.00044130282391618 0.00015 0.0075641025640979 0 0.00015
          0.0080769230769162 0 0.0003 0.0080362994401078 0.00044130282391618 0.0003
          0.0075641025640979 0 0.0003 0.0084157309119158 0.0054663429893237 0
          0.0084157309119158 0.0054663429893237 0.00015 0.0084157309119158 0.0054663429893237 0.0003
          0.012625060394875 0.0050215313919928 0 0.012340535819996 0.0049145470001145 0
          0.012625060394875 0.0050215313919928 0.00015 0.012340535819996 0.0049145470001145 0.00015
          0.012625060394875 0.0050215313919928 0.0003 0.012340535819996 0.0049145470001145 0.0003
          0.0088807280393962 0.0051824777758032 0 0.0088807280393962 0.0051824777758032 0.00015
          0.0088807280393962 0.0051824777758032 0.0003 0.00978640191627 0.0050564284414982 0
          0.00978640191627 0.0050564284414982 0.00015 0.00978640191627 0.0050564284414982 0.0003
          0.007051282051278 0 0 0.007051282051278 0 0.00015
          0.007051282051278 0 0.0003 0.0089738769927721 0.0068608682916542 0
          0.0089738769927721 0.0068608682916542 0.00015 0.0089738769927721 0.0068608682916542 0.0003
          0.010464396561549 0.007914442793445 0 0.010959162019398 0.0079079830093058 0
          0.010464396561549 0.007914442793445 0.00015 0.010959162019398 0.0079079830093058 0.00015
          0.010464396561549 0.007914442793445 0.0003 0.010959162019398 0.0079079830093058 0.0003
          0.0093768424757788 0.0049206652486621 0 0.0093768424757788 0.0049206652486621 0.00015
          0.0093768424757788 0.0049206652486621 0.0003 0.0084364690699339 0.0071912877673881 0
          0.0084364690699339 0.0071912877673881 0.00015 0.0084364690699339 0.0071912877673881 0.0003
          0.011870414872976 0.00080294526771027 0 0.011870414872976 0.00080294526771027 0.00015
          0.011870414872976 0.00080294526771027 0.0003 0.013048655853798 0.0051555709380823 0
          0.013048655853798 0.0051555709380823 0.00015 0.013048655853798 0.0051555709380823 0.0003
          0.0091480378790118 0.00093783666102615 0 0.0091480378790118 0.00093783666102615 0.00015
          0.0091480378790118 0.00093783666102615 0.0003 0.012592651705639 0.0068198098450163 0
          0.012592651705639 0.0068198098450163 0.00015 0.012592651705639 0.0068198098450163 0.0003
          0.012272070002081 0.0045810549534562 0 0.012153081904124 0.0040944528080542 0
          0.012272070002081 0.0045810549534562 0.00015 0.012153081904124 0.0040944528080542 0.00015
          0.012272070002081 0.0045810549534562 0.0003 0.012153081904124 0.0040944528080542 0.0003
          0.011634800364854 0.0014122839921498 0 0.011634800364854 0.0014122839921498 0.00015
          0.011634800364854 0.0014122839921498 0.0003 0.012451479243686 0.0021914486022899 0
          0.012674188674928 0.0028095410694266 0 0.012451479243686 0.0021914486022899 0.00015
          0.012674188674928 0.0028095410694266 0.00015 0.012451479243686 0.0021914486022899 0.0003
          0.012674188674928 0.0028095410694266 0.0003 0.013121586466294 0.0036708577033715 0
          0.013121586466294 0.0036708577033715 0.00015 0.013121586466294 0.0036708577033715 0.0003
          0.013248150362312 0.0031919567697963 0 0.013248150362312 0.0031919567697963 0.00015
          0.013248150362312 0.0031919567697963 0.0003 0.012096711335481 0.0017058387426491 0
          0.012096711335481 0.0017058387426491 0.00015 0.012096711335481 0.0017058387426491 0.0003
          0.012692307692288 0 0 0.012542896420733 0.00061304595643839 0
          0.012692307692288 0 0.00015 0.012542896420733 0.00061304595643839 0.00015
          0.012692307692288 0 0.0003 0.012542896420733 0.00061304595643839 0.0003
          0.012384518900215 0.0018567382086698 0 0.012384518900215 0.0018567382086698 0.00015
          0.012384518900215 0.0018567382086698 0.0003 0.012087580163866 0.0010424427844857 0
          0.012087580163866 0.0010424427844857 0.00015 0.012087580163866 0.0010424427844857 0.0003
          <InformationKey name="L2_NORM_RANGE" location="vtkDataArray" length="2">
            <Value index="0">
              0.0055128205128
            </Value>
            <Value index="1">
              0.014586579917
            </Value>
          </InformationKey>
        </DataArray>
      </Points>
      <Cells>
        <DataArray type="Int64" Name="connectivity" format="ascii" RangeMin="0" RangeMax="773">
          0 1 2 3 4 5
          6 7 4 5 6 7
          8 9 10 11 12 13
          14 15 16 17 18 19
          16 17 18 19 20 21
          22 23 30 31 32 33
          34 35 36 37 34 35
          36 37 38 39 40 41
          15 14 42 43 19 18
          44 45 19 18 44 45
          23 22 46 47 48 49
          50 51 52 53 54 55
          52 53 54 55 56 57
          58 59 60 61 62 63
          64 65 66 67 64 65
          66 67 68 69 70 71
          3 72 73 0 7 74
          75 4 7 74 75 4
          11 76 77 8 78 79
          80 81 82 83 84 85
          82 83 84 85 86 87
          88 89 99 100 101 102
          103 104 105 106 103 104
          105 106 107 108 109 110
          111 112 113 114 115 116
          117 118 115 116 117 118
          119 120 121 122 744 123
          30 33 745 124 34 37
          745 124 34 37 746 125
          38 41 48 126 127 128
          52 129 130 131 52 129
          130 131 56 132 133 134
          135 136 112 111 137 138
          116 115 137 138 116 115
          139 140 120 119 141 142
          143 144 145 146 147 148
          145 146 147 148 149 150
          151 152 153 154 155 156
          157 158 159 160 157 158
          159 160 161 162 163 164
          165 166 43 167 168 169
          45 170 168 169 45 170
          171 172 47 173 174 175
          153 156 176 177 157 160
          176 177 157 160 178 179
          161 164 180 181 182 183
          184 185 186 187 184 185
          186 187 188 189 190 191
          166 165 192 193 169 168
          194 195 169 168 194 195
          172 171 196 197 112 182
          181 113 116 186 185 117
          116 186 185 117 120 190
          189 121 204 205 180 183
          206 207 184 187 206 207
          184 187 208 209 188 191
          210 211 212 213 214 215
          216 217 214 215 216 217
          218 219 220 221 222 223
          128 127 224 225 131 130
          224 225 131 130 226 227
          134 133 154 153 79 78
          158 157 83 82 158 157
          83 82 162 161 87 86
          231 113 181 232 233 117
          185 234 233 117 185 234
          235 121 189 236 237 238
          239 199 240 241 242 201
          240 241 242 201 243 244
          245 203 246 247 228 248
          249 250 229 251 249 250
          229 251 252 253 230 254
          255 49 48 128 256 53
          52 131 256 53 52 131
          257 57 56 134 175 258
          79 153 177 259 83 157
          177 259 83 157 179 260
          87 161 267 237 199 198
          268 240 201 200 268 240
          201 200 269 243 203 202
          270 271 232 272 273 274
          234 275 273 274 234 275
          276 277 236 278 267 198
          228 247 268 200 229 250
          268 200 229 250 269 202
          230 253 183 279 280 204
          187 281 282 206 187 281
          282 206 191 283 284 208
          285 286 287 288 289 290
          291 292 289 290 291 292
          293 294 295 296 297 298
          299 300 301 302 303 304
          301 302 303 304 305 306
          307 308 261 309 310 311
          263 312 313 314 263 312
          313 314 265 315 316 317
          238 318 127 126 241 319
          130 129 241 319 130 129
          244 320 133 132 324 325
          287 286 326 327 291 290
          326 327 291 290 328 329
          295 294 330 298 331 288
          332 302 333 292 332 302
          333 292 334 306 335 296
          318 336 222 127 319 337
          224 130 319 337 224 130
          320 338 226 133 339 340
          341 342 343 344 345 346
          343 344 345 346 347 348
          349 350 300 1 339 342
          304 5 343 346 304 5
          343 346 308 9 347 350
          351 310 341 340 352 313
          345 344 352 313 345 344
          353 316 349 348 354 339
          1 0 355 343 5 4
          355 343 5 4 356 347
          9 8 357 358 272 180
          359 360 275 184 359 360
          275 184 361 362 278 188
          48 239 238 126 52 242
          241 129 52 242 241 129
          56 245 244 132 336 271
          363 222 337 274 364 224
          337 274 364 224 338 277
          365 226 51 321 239 48
          55 322 242 52 55 322
          242 52 59 323 245 56
          366 367 213 212 368 369
          217 216 368 369 217 216
          370 371 221 220 223 222
          363 372 225 224 364 373
          225 224 364 373 227 226
          365 374 375 210 213 376
          377 214 217 378 377 214
          217 378 379 218 221 380
          375 381 73 210 377 382
          75 214 377 382 75 214
          379 383 77 218 381 354
          0 73 382 355 4 75
          382 355 4 75 383 356
          8 77 297 300 342 384
          301 304 346 385 301 304
          346 385 305 308 350 386
          376 213 367 387 378 217
          369 388 378 217 369 388
          380 221 371 389 223 372
          390 391 225 373 392 393
          225 373 392 393 227 374
          394 395 396 357 180 205
          397 359 184 207 397 359
          184 207 398 361 188 209
          387 367 357 396 388 369
          359 397 388 369 359 397
          389 371 361 398 399 747
          748 400 401 749 750 402
          401 749 750 402 403 751
          752 404 405 102 406 407
          408 106 409 410 408 106
          409 410 411 110 412 413
          180 272 232 181 184 275
          234 185 184 275 234 185
          188 278 236 189 414 415
          144 416 417 418 148 419
          417 418 148 419 420 421
          152 422 423 424 255 391
          425 426 256 393 425 426
          256 393 427 428 257 395
          429 430 431 753 432 433
          434 754 432 433 434 754
          435 436 437 755 438 399
          400 439 440 401 402 441
          440 401 402 441 442 403
          404 443 447 415 414 448
          449 418 417 450 449 418
          417 450 451 421 420 452
          453 100 99 454 455 104
          103 456 455 104 103 456
          457 108 107 458 279 459
          460 280 281 461 462 282
          281 461 462 282 283 463
          464 284 279 465 62 459
          281 466 66 461 281 466
          66 461 283 467 70 463
          448 414 100 453 450 417
          104 455 450 417 104 455
          452 420 108 457 468 469
          415 447 470 471 418 449
          470 471 418 449 472 473
          421 451 753 431 748 756
          754 434 750 757 754 434
          750 757 755 437 752 758
          400 748 431 12 402 750
          434 16 402 750 434 16
          404 752 437 20 474 31
          469 468 475 35 471 470
          475 35 471 470 476 39
          473 472 399 438 744 759
          401 440 745 760 401 440
          745 760 403 442 746 761
          339 477 351 340 343 478
          352 344 343 478 352 344
          347 479 353 348 367 366
          358 357 369 368 360 359
          369 368 360 359 371 370
          362 361 480 32 31 474
          481 36 35 475 481 36
          35 475 482 40 39 476
          483 477 339 354 484 478
          343 355 484 478 343 355
          485 479 347 356 486 483
          354 381 487 484 355 382
          487 484 355 382 488 485
          356 383 183 182 465 279
          187 186 466 281 187 186
          466 281 191 190 467 283
          762 763 489 490 764 765
          491 492 764 765 491 492
          766 767 493 494 490 489
          32 480 492 491 36 481
          492 491 36 481 494 493
          40 482 387 495 496 376
          388 497 498 378 388 497
          498 378 389 499 500 380
          501 270 272 358 502 273
          275 360 502 273 275 360
          503 276 278 362 504 331
          298 297 505 333 302 301
          505 333 302 301 506 335
          306 305 507 486 381 375
          508 487 382 377 508 487
          382 377 509 488 383 379
          318 238 237 510 319 241
          240 511 319 241 240 511
          320 244 243 512 50 49
          255 424 54 53 256 426
          54 53 256 426 58 57
          257 428 363 513 390 372
          364 514 392 373 364 514
          392 373 365 515 394 374
          516 423 391 390 517 425
          393 392 517 425 393 392
          518 427 395 394 519 520
          205 204 521 522 207 206
          521 522 207 206 523 524
          209 208 525 519 204 280
          526 521 206 282 526 521
          206 282 527 523 208 284
          528 460 459 529 530 462
          461 531 530 462 461 531
          532 464 463 533 534 90
          535 536 537 93 538 539
          537 93 538 539 540 96
          541 542 546 525 280 460
          547 526 282 462 547 526
          282 462 548 527 284 464
          759 768 747 399 760 769
          749 401 760 769 749 401
          761 770 751 403 507 375
          376 496 508 377 378 498
          508 377 378 498 509 379
          380 500 483 486 549 550
          484 487 551 552 484 487
          551 552 485 488 553 554
          231 232 271 336 233 234
          274 337 233 234 274 337
          235 236 277 338 391 255
          128 223 393 256 131 225
          393 256 131 225 395 257
          134 227 525 546 555 556
          526 547 557 558 526 547
          557 558 527 548 559 560
          519 525 556 561 521 526
          558 562 521 526 558 562
          523 527 560 563 561 556
          564 565 562 558 566 567
          562 558 566 567 563 560
          568 569 570 571 572 573
          574 575 576 577 574 575
          576 577 578 579 580 581
          2 1 300 299 6 5
          304 303 6 5 304 303
          10 9 308 307 582 299
          298 330 583 303 302 332
          583 303 302 332 584 307
          306 334 585 363 271 270
          586 364 274 273 586 364
          274 273 587 365 277 276
          555 416 144 143 557 419
          148 147 557 419 148 147
          559 422 152 151 588 589
          237 267 590 591 240 268
          590 591 240 268 592 593
          243 269 396 594 495 387
          397 595 497 388 397 595
          497 388 398 596 499 389
          594 396 205 520 595 397
          207 522 595 397 207 522
          596 398 209 524 597 598
          430 429 599 600 433 432
          599 600 433 432 601 602
          436 435 603 246 248 604
          605 249 251 606 605 249
          251 606 607 252 254 608
          72 211 210 73 74 215
          214 75 74 215 214 75
          76 219 218 77 536 535
          609 543 539 538 610 544
          539 538 610 544 542 541
          611 545 612 561 565 613
          614 562 567 615 614 562
          567 615 616 563 569 617
          618 619 620 621 622 623
          624 625 622 623 624 625
          626 627 628 629 630 588
          267 247 631 590 268 250
          631 590 268 250 632 592
          269 253 633 634 573 572
          635 636 577 576 635 636
          577 576 637 638 581 580
          60 639 81 640 64 641
          85 642 64 641 85 642
          68 643 89 644 561 612
          520 519 562 614 522 521
          562 614 522 521 563 616
          524 523 510 231 336 318
          511 233 337 319 511 233
          337 319 512 235 338 320
          640 81 80 645 642 85
          84 646 642 85 84 646
          644 89 88 647 550 648
          477 483 552 649 478 484
          552 649 478 484 554 650
          479 485 630 247 246 651
          631 250 249 652 631 250
          249 652 632 253 252 653
          633 572 654 621 635 576
          655 625 635 576 655 625
          637 580 656 629 15 43
          166 439 19 45 169 441
          19 45 169 441 23 47
          172 443 660 639 661 651
          662 641 663 652 662 641
          663 652 664 643 665 653
          666 330 288 287 667 332
          292 291 667 332 292 291
          668 334 296 295 603 660
          651 246 605 662 652 249
          605 662 652 249 607 664
          653 252 571 570 516 669
          575 574 517 670 575 574
          517 670 579 578 518 671
          672 262 261 311 673 264
          263 314 673 264 263 314
          674 266 265 317 416 555
          546 675 419 557 547 676
          419 557 547 676 422 559
          548 677 570 573 678 657
          574 577 679 658 574 577
          679 658 578 581 680 659
          495 42 14 496 497 44
          18 498 497 44 18 498
          499 46 22 500 61 529
          459 62 65 531 461 66
          65 531 461 66 69 533
          463 70 13 507 496 14
          17 508 498 18 17 508
          498 18 21 509 500 22
          114 510 237 589 118 511
          240 591 118 511 240 591
          122 512 243 593 513 669
          516 390 514 670 517 392
          514 670 517 392 515 671
          518 394 594 681 42 495
          595 682 44 497 595 682
          44 497 596 683 46 499
          114 589 588 111 118 591
          590 115 118 591 590 115
          122 593 592 119 510 114
          113 231 511 118 117 233
          511 118 117 233 512 122
          121 235 681 594 520 612
          682 595 522 614 682 595
          522 614 683 596 524 616
          684 685 645 686 687 688
          646 689 687 688 646 689
          690 691 647 692 693 654
          572 571 694 655 576 575
          694 655 576 575 695 656
          580 579 675 546 460 528
          676 547 462 530 676 547
          462 530 677 548 464 532
          439 400 12 15 441 402
          16 19 441 402 16 19
          443 404 20 23 696 672
          648 697 698 673 649 699
          698 673 649 699 700 674
          650 701 702 618 621 654
          703 622 625 655 703 622
          625 655 704 626 629 656
          72 705 212 211 74 706
          216 215 74 706 216 215
          76 707 220 219 182 112
          136 465 186 116 138 466
          186 116 138 466 190 120
          140 467 708 686 645 80
          709 689 646 84 709 689
          646 84 710 692 647 88
          91 341 310 92 94 345
          313 95 94 345 313 95
          97 349 316 98 135 630
          651 661 137 631 652 663
          137 631 652 663 139 632
          653 665 666 287 325 711
          667 291 327 712 667 291
          327 712 668 295 329 713
          444 25 714 715 445 27
          716 717 445 27 716 717
          446 29 718 719 705 720
          366 212 706 721 368 216
          706 721 368 216 707 722
          370 220 331 504 715 714
          333 505 717 716 333 505
          717 716 335 506 719 718
          13 549 486 507 17 551
          487 508 17 551 487 508
          21 553 488 509 571 669
          513 693 575 670 514 694
          575 670 514 694 579 671
          515 695 102 405 685 99
          106 408 688 103 106 408
          688 103 110 411 691 107
          672 351 477 648 673 352
          478 649 673 352 478 649
          674 353 479 650 693 513
          363 585 694 514 364 586
          694 514 364 586 695 515
          365 587 285 714 25 24
          289 716 27 26 289 716
          27 26 293 718 29 28
          143 142 192 564 147 146
          194 566 147 146 194 566
          151 150 196 568 726 489
          763 771 727 491 765 772
          727 491 765 772 728 493
          767 773 534 536 715 504
          537 539 717 505 537 539
          717 505 540 542 719 506
          165 565 564 192 168 567
          566 194 168 567 566 194
          171 569 568 196 78 81
          639 660 82 85 641 662
          82 85 641 662 86 89
          643 664 136 135 661 63
          138 137 663 67 138 137
          663 67 140 139 665 71
          729 262 672 696 730 264
          673 698 730 264 673 698
          731 266 674 700 630 135
          111 588 631 137 115 590
          631 137 115 590 632 139
          119 592 702 585 270 501
          703 586 273 502 703 586
          273 502 704 587 276 503
          585 702 654 693 586 703
          655 694 586 703 655 694
          587 704 656 695 61 406
          528 529 65 409 530 531
          65 409 530 531 69 412
          532 533 414 732 101 100
          417 733 105 104 417 733
          105 104 420 734 109 108
          63 62 465 136 67 66
          466 138 67 66 466 138
          71 70 467 140 501 720
          618 702 502 721 622 703
          502 721 622 703 503 722
          626 704 720 501 358 366
          721 502 360 368 721 502
          360 368 722 503 362 370
          685 684 454 99 688 687
          456 103 688 687 456 103
          691 690 458 107 685 405
          640 645 688 408 642 646
          688 408 642 646 691 411
          644 647 30 141 469 31
          34 145 471 35 34 145
          471 35 38 149 473 39
          598 738 739 430 600 740
          741 433 600 740 741 433
          602 742 743 436 43 42
          681 167 45 44 682 170
          45 44 682 170 47 46
          683 173 678 711 325 723
          679 712 327 724 679 712
          327 724 680 713 329 725
          619 618 720 705 623 622
          721 706 623 622 721 706
          627 626 722 707 102 101
          528 406 106 105 530 409
          106 105 530 409 110 109
          532 412 549 13 12 739
          551 17 16 741 551 17
          16 741 553 21 20 743
          711 678 573 634 712 679
          577 636 712 679 577 636
          713 680 581 638 80 79
          258 708 84 83 259 709
          84 83 259 709 88 87
          260 710 738 598 696 697
          740 600 698 699 740 600
          698 699 742 602 700 701
          714 285 288 331 716 289
          292 333 716 289 292 333
          718 293 296 335 672 311
          310 351 673 314 313 352
          673 314 313 352 674 317
          316 353 430 739 12 431
          433 741 16 434 433 741
          16 434 436 743 20 437
          193 438 439 166 195 440
          441 169 195 440 441 169
          197 442 443 172 489 726
          33 32 491 727 37 36
          491 727 37 36 493 728
          41 40 444 715 536 543
          445 717 539 544 445 717
          539 544 446 719 542 545
          3 619 705 72 7 623
          706 74 7 623 706 74
          11 627 707 76 633 666
          711 634 635 667 712 636
          635 667 712 636 637 668
          713 638 384 534 504 297
          385 537 505 301 385 537
          505 301 386 540 506 305
          726 771 744 33 727 772
          745 37 727 772 745 37
          728 773 746 41 167 613
          565 165 170 615 567 168
          170 615 567 168 173 617
          569 171 675 732 414 416
          676 733 417 419 676 733
          417 419 677 734 420 422
          550 549 739 738 552 551
          741 740 552 551 741 740
          554 553 743 742 732 675
          528 101 733 676 530 105
          733 676 530 105 734 677
          532 109 63 661 639 60
          67 663 641 64 67 663
          641 64 71 665 643 68
          384 91 90 534 385 94
          93 537 385 94 93 537
          386 97 96 540 123 744
          438 193 124 745 440 195
          124 745 440 195 125 746
          442 197 406 61 60 407
          409 65 64 410 409 65
          64 410 412 69 68 413
          154 78 660 603 158 82
          662 605 158 82 662 605
          162 86 664 607 91 384
          342 341 94 385 346 345
          94 385 346 345 97 386
          350 349 405 407 60 640
          408 410 64 642 408 410
          64 642 411 413 68 644
          648 550 738 697 649 552
          740 699 649 552 740 699
          650 554 742 701 735 92
          310 309 736 95 313 312
          736 95 313 312 737 98
          316 315 633 582 330 666
          635 583 332 667 635 583
          332 667 637 584 334 668
          167 681 612 613 170 682
          614 615 170 682 614 615
          173 683 616 617 620 2
          299 582 624 6 303 583
          624 6 303 583 628 10
          307 584 582 633 621 620
          583 635 625 624 583 635
          625 624 584 637 629 628
          141 144 415 469 145 148
          418 471 145 148 418 471
          149 152 421 473 143 564
          556 555 147 566 558 557
          147 566 558 557 151 568
          560 559 2 620 619 3
          6 624 623 7 6 624
          623 7 10 628 627 11
          729 696 598 597 730 698
          600 599 730 698 600 599
          731 700 602 601 141 30
          123 142 145 34 124 146
          145 34 124 146 149 38
          125 150 154 603 604 155
          158 605 606 159 158 605
          606 159 162 607 608 163
          193 192 142 123 195 194
          146 124 195 194 146 124
          197 196 150 125
        </DataArray>
        <DataArray type="Int64" Name="offsets" format="ascii" RangeMin="8" RangeMax="3616">
          8 16 24 32 40 48
          56 64 72 80 88 96
          104 112 120 128 136 144
          152 160 168 176 184 192
          200 208 216 224 232 240
          248 256 264 272 280 288
          296 304 312 320 328 336
          344 352 360 368 376 384
          392 400 408 416 424 432
          440 448 456 464 472 480
          488 496 504 512 520 528
          536 544 552 560 568 576
          584 592 600 608 616 624
          632 640 648 656 664 672
          680 688 696 704 712 720
          728 736 744 752 760 768
          776 784 792 800 808 816
          824 832 840 848 856 864
          872 880 888 896 904 912
          920 928 936 944 952 960
          968 976 984 992 1000 1008
          1016 1024 1032 1040 1048 1056
          1064 1072 1080 1088 1096 1104
          1112 1120 1128 1136 1144 1152
          1160 1168 1176 1184 1192 1200
          1208 1216 1224 1232 1240 1248
          1256 1264 1272 1280 1288 1296
          1304 1312 1320 1328 1336 1344
          1352 1360 1368 1376 1384 1392
          1400 1408 1416 1424 1432 1440
          1448 1456 1464 1472 1480 1488
          1496 1504 1512 1520 1528 1536
          1544 1552 1560 1568 1576 1584
          1592 1600 1608 1616 1624 1632
          1640 1648 1656 1664 1672 1680
          1688 1696 1704 1712 1720 1728
          1736 1744 1752 1760 1768 1776
          1784 1792 1800 1808 1816 1824
          1832 1840 1848 1856 1864 1872
          1880 1888 1896 1904 1912 1920
          1928 1936 1944 1952 1960 1968
          1976 1984 1992 2000 2008 2016
          2024 2032 2040 2048 2056 2064
          2072 2080 2088 2096 2104 2112
          2120 2128 2136 2144 2152 2160
          2168 2176 2184 2192 2200 2208
          2216 2224 2232 2240 2248 2256
          2264 2272 2280 2288 2296 2304
          2312 2320 2328 2336 2344 2352
          2360 2368 2376 2384 2392 2400
          2408 2416 2424 2432 2440 2448
          2456 2464 2472 2480 2488 2496
          2504 2512 2520 2528 2536 2544
          2552 2560 2568 2576 2584 2592
          2600 2608 2616 2624 2632 2640
          2648 2656 2664 2672 2680 2688
          2696 2704 2712 2720 2728 2736
          2744 2752 2760 2768 2776 2784
          2792 2800 2808 2816 2824 2832
          2840 2848 2856 2864 2872 2880
          2888 2896 2904 2912 2920 2928
          2936 2944 2952 2960 2968 2976
          2984 2992 3000 3008 3016 3024
          3032 3040 3048 3056 3064 3072
          3080 3088 3096 3104 3112 3120
          3128 3136 3144 3152 3160 3168
          3176 3184 3192 3200 3208 3216
          3224 3232 3240 3248 3256 3264
          3272 3280 3288 3296 3304 3312
          3320 3328 3336 3344 3352 3360
          3368 3376 3384 3392 3400 3408
          3416 3424 3432 3440 3448 3456
          3464 3472 3480 3488 3496 3504
          3512 3520 3528 3536 3544 3552
          3560 3568 3576 3584 3592 3600
          3608 3616
        </DataArray>
        <DataArray type="UInt8" Name="types" format="ascii" RangeMin="12" RangeMax="12">
          12 12 12 12 12 12
          12 12 12 12 12 12
          12 12 12 12 12 12
          12 12 12 12 12 12
          12 12 12 12 12 12
          12 12 12 12 12 12
          12 12 12 12 12 12
          12 12 12 12 12 12
          12 12 12 12 12 12
          12 12 12 12 12 12
          12 12 12 12 12 12
          12 12 12 12 12 12
          12 12 12 12 12 12
          12 12 12 12 12 12
          12 12 12 12 12 12
          12 12 12 12 12 12
          12 12 12 12 12 12
          12 12 12 12 12 12
          12 12 12 12 12 12
          12 12 12 12 12 12
          12 12 12 12 12 12
          12 12 12 12 12 12
          12 12 12 12 12 12
          12 12 12 12 12 12
          12 12 12 12 12 12
          12 12 12 12 12 12
          12 12 12 12 12 12
          12 12 12 12 12 12
          12 12 12 12 12 12
          12 12 12 12 12 12
          12 12 12 12 12 12
          12 12 12 12 12 12
          12 12 12 12 12 12
          12 12 12 12 12 12
          12 12 12 12 12 12
          12 12 12 12 12 12
          12 12 12 12 12 12
          12 12 12 12 12 12
          12 12 12 12 12 12
          12 12 12 12 12 12
          12 12 12 12 12 12
          12 12 12 12 12 12
          12 12 12 12 12 12
          12 12 12 12 12 12
          12 12 12 12 12 12
          12 12 12 12 12 12
          12 12 12 12 12 12
          12 12 12 12 12 12
          12 12 12 12 12 12
          12 12 12 12 12 12
          12 12 12 12 12 12
          12 12 12 12 12 12
          12 12 12 12 12 12
          12 12 12 12 12 12
          12 12 12 12 12 12
          12 12 12 12 12 12
          12 12 12 12 12 12
          12 12 12 12 12 12
          12 12 12 12 12 12
          12 12 12 12 12 12
          12 12 12 12 12 12
          12 12 12 12 12 12
          12 12 12 12 12 12
          12 12 12 12 12 12
          12 12 12 12 12 12
          12 12 12 12 12 12
          12 12 12 12 12 12
          12 12 12 12 12 12
          12 12 12 12 12 12
          12 12 12 12 12 12
          12 12 12 12 12 12
          12 12 12 12 12 12
          12 12 12 12 12 12
          12 12 12 12 12 12
          12 12 12 12 12 12
          12 12
        </DataArray>
      </Cells>
    </Piece>
  </UnstructuredGrid>
</VTKFile>
