<?xml version="1.0"?>
<VTKFile type="UnstructuredGrid" version="0.1" byte_order="LittleEndian" header_type="UInt32" compressor="vtkZLibDataCompressor">
  <UnstructuredGrid>
    <Piece NumberOfPoints="795" NumberOfCells="454">
      <PointData>
        <DataArray type="Int32" Name="libmesh_node_id" format="ascii" RangeMin="2220" RangeMax="4979">
          2220 2221 2222 2223 2224 2225
          2226 2227 2228 2229 2230 2231
          2388 2389 2390 2391 2392 2393
          2394 2395 2396 2397 2398 2399
          2402 2405 2408 2409 2410 2411
          2463 2464 2465 2466 2467 2468
          2469 2470 2471 2472 2473 2474
          2475 2476 2477 2478 2479 2480
          2499 2500 2501 2502 2503 2504
          2505 2506 2507 2508 2509 2510
          2511 2512 2513 2514 2515 2516
          2517 2518 2519 2520 2521 2522
          2613 2614 2616 2617 2618 2620
          2621 2622 2624 2652 2653 2654
          2655 2656 2657 2658 2659 2660
          2661 2662 2663 2697 2701 2705
          2721 2722 2723 2724 2725 2726
          2736 2737 2738 2739 2740 2741
          2742 2743 2744 2745 2746 2747
          2748 2749 2750 2751 2752 2753
          2754 2755 2756 2757 2758 2759
          2760 2761 2762 2763 2764 2765
          2778 2779 2780 2781 2782 2783
          2784 2785 2786 2862 2863 2864
          2865 2866 2867 2868 2869 2870
          2871 2872 2873 2922 2923 2924
          2925 2926 2927 2940 2941 2942
          2943 2944 2945 2946 2947 2948
          2958 2959 2960 2961 2962 2963
          2964 2965 2966 2967 2968 2969
          2992 2993 2996 2997 3000 3001
          3018 3019 3020 3021 3022 3023
          3036 3039 3040 3043 3044 3047
          3060 3061 3062 3063 3064 3065
          3066 3067 3068 3069 3070 3071
          3072 3073 3074 3075 3076 3077
          3180 3181 3182 3183 3184 3185
          3204 3205 3206 3207 3208 3209
          3240 3242 3244 3258 3260 3262
          3273 3274 3275 3276 3277 3278
          3279 3280 3281 3282 3283 3284
          3285 3286 3287 3288 3289 3290
          3291 3292 3293 3294 3295 3296
          3297 3298 3299 3348 3349 3350
          3351 3352 3353 3354 3355 3356
          3357 3358 3359 3360 3361 3362
          3363 3364 3365 3369 3370 3371
          3372 3373 3374 3399 3400 3401
          3402 3403 3404 3405 3406 3407
          3408 3409 3410 3411 3412 3413
          3414 3415 3416 3417 3418 3419
          3420 3421 3422 3462 3463 3464
          3486 3487 3488 3489 3490 3491
          3507 3508 3509 3510 3511 3512
          3527 3530 3533 3534 3535 3536
          3555 3556 3557 3558 3559 3560
          3561 3562 3563 3579 3580 3581
          3594 3595 3596 3597 3598 3599
          3603 3604 3605 3606 3607 3608
          3621 3622 3623 3624 3625 3626
          3627 3628 3629 3642 3643 3644
          3645 3646 3647 3648 3649 3650
          3651 3652 3653 3669 3670 3671
          3672 3673 3674 3675 3676 3677
          3678 3679 3680 3681 3682 3683
          3750 3751 3752 3753 3754 3755
          3756 3757 3758 3759 3760 3761
          3780 3781 3782 3783 3784 3785
          3909 3910 3911 3912 3913 3914
          3915 3916 3917 3918 3919 3920
          3951 3952 3953 3966 3967 3968
          3975 3976 3977 3978 3979 3980
          3981 3982 3983 3984 3985 3986
          3987 3988 3989 3990 3991 3992
          4008 4009 4010 4011 4012 4013
          4014 4015 4016 4017 4018 4019
          4020 4021 4022 4023 4024 4025
          4026 4027 4028 4029 4030 4031
          4041 4042 4043 4044 4045 4046
          4047 4048 4049 4050 4051 4052
          4068 4069 4070 4080 4081 4082
          4092 4093 4094 4095 4096 4097
          4098 4099 4100 4101 4102 4103
          4122 4123 4124 4125 4126 4127
          4146 4147 4148 4149 4150 4151
          4152 4153 4154 4155 4156 4157
          4158 4159 4160 4173 4174 4175
          4176 4177 4178 4179 4180 4181
          4182 4183 4184 4188 4189 4190
          4194 4195 4196 4197 4198 4199
          4200 4201 4202 4203 4204 4205
          4218 4219 4220 4221 4222 4223
          4230 4231 4232 4266 4267 4268
          4281 4282 4283 4299 4300 4301
          4305 4306 4307 4308 4309 4310
          4311 4312 4313 4335 4336 4337
          4341 4342 4343 4395 4396 4397
          4455 4456 4457 4473 4474 4475
          4476 4477 4478 4515 4516 4517
          4578 4579 4580 4581 4582 4583
          4614 4615 4616 4704 4705 4706
          4707 4708 4709 4710 4711 4712
          4713 4714 4715 4737 4738 4739
          4740 4741 4742 4821 4822 4823
          4842 4843 4844 4845 4846 4847
          4854 4855 4856 4857 4858 4859
          4860 4861 4862 4863 4864 4865
          4866 4867 4868 4875 4876 4877
          4878 4879 4880 4908 4909 4910
          4914 4915 4916 4932 4933 4934
          4941 4942 4943 4977 4978 4979
          2400 2401 2403 2404 2406 2407
          2615 2619 2623 2698 2699 2700
          2702 2703 2704 2706 2707 2708
          2991 2994 2995 2998 2999 3002
          2331 2330 2335 2334 2339 2338
          3241 3243 3245 3259 3186 3188
          3261 3189 3191 3263 3192 3194
          3448 3450 3452 3525 3526 3528
          3529 3531 3532 3537 3538 3539
          3540 3541 3542 3654 3657 3660
          2328 2332 2336 3852 3853 3854
          3993 3994 3995 4338 4339 4340
          3513 3514 3515 4458 4321 4459
          4324 4460 4327 4584 4585 4586
          4587 4588 4589 4791 4792 4793
          4794 4795 4796 4797 4798 4799
          4431 4432 4433 3495 3187 3499
          3190 3503 3193 3954 3957 3958
          3961 3962 3965 4899 4900 4901
          4968 4969 4970 4911 4912 4913
          3498 3502 3506 4902 4903 4904
          4434 4436 4438
        </DataArray>
        <DataArray type="Float64" Name="resid_x" format="ascii" RangeMin="-0.36481712490841645" RangeMax="0.3083855050242228">
          0.006048688417126691 0.005070444507349947 0.0031925403303629807 0.005004628807592226 0.006128742840466828 0.0059615583950245465
          -0.005768846231999802 -0.003588963280797941 -0.017413605085739192 -0.013019217454541376 -0.026302625586672512 -0.02281194484413973
          -0.0016417115162576934 -0.0032996470262105504 -0.0008687316617539409 0.002190295349145721 -0.0020847240510333265 -0.010906747088926139
          -0.0036111409531542904 0.0023620751356610015 -0.014734252983208407 -0.01516853391602968 -0.008920845272903932 -0.012584186638729733
          -0.012759748306505614 -0.01817923240633945 -0.014377143820055949 -0.012969164468733752 -0.01626340043736363 -0.012693369660202514
          -0.010930256065993849 -0.019203186874205913 0.0028382512045069808 -0.035877083792100084 -0.014024937194629827 -0.035866920834247695
          -0.005183209563309532 0.0011559881972771358 -0.0021517683036078594 -0.0003861366941662059 -0.014150357252962653 -0.005960555817533297
          -0.011802921419415746 -0.014158717112777275 -0.033172840853007646 -0.03486263693662739 -0.026914558124884636 -0.024669807264272148
          0.0004570301832282908 0.0049362022885306445 0.0006601931401446492 0.0016013385232005461 -0.003949127139823538 0.003761129170325006
          -0.005115615902215431 -0.0009616884065222209 -0.02427629752562943 -0.017090477043507413 -0.016872679347517128 -0.016460977508113483
          0.0025875802305415085 0.004677348403067327 0.0019086669466634731 0.0022172554399944033 0.0018556091438943767 -0.0033960882359345135
          -0.003161515109171731 -0.007319653804175985 -0.015645768476947097 -0.0240992279076373 -0.02425965470610958 -0.024851874684434172
          -0.0001571936928543849 -0.007572720625323992 0.004355461093290991 -0.00574047466373262 -0.021351430616762368 -0.013270419976923797
          -0.020872281999584352 -0.02124624226209404 -0.04053631559979021 -0.0008977508986536265 0.0029805417630788256 0.0036130389465496293
          0.006031471901027707 -0.007613729078542519 -0.00009954726656324908 0.0058156489222615515 0.002482682357204169 -0.01806430414598381
          -0.011185439273271314 -0.01633476456903432 -0.018991995432128483 -0.01395599011445725 -0.018360962883546605 -0.014342316959877088
          -0.0037602016478672784 -0.003166197638334367 0.001880820469088551 0.002759931987986519 -0.01964711107797057 -0.022954774903755748
          -0.004451590712316822 -0.010507633486900758 -0.00044353942451369477 -0.00027315325125254475 -0.0034393974379947068 0.0018880797880385103
          -0.014630751810497777 -0.01868849424231467 -0.01712369191031904 0.004291033383040321 0.004892321586861037 0.0043310652737797994
          0.0031938884805765566 0.004231741711248349 0.004053764904946355 -0.0017535567331314894 -0.0022418507540380994 -0.017188627798977563
          -0.02038303798990526 -0.025515818653937927 -0.02321193696122348 -0.002979552077968961 -0.010587469434842234 -0.0026796338362817806
          -0.002102044487846122 -0.0017350980161916496 -0.007181818683860364 -0.017841409024081933 -0.014008910335641556 -0.020864968726159283
          -0.016088816165349407 -0.015444081206306581 -0.009097786280303666 -0.006388259510849537 -0.005349046039869965 -0.007168208599368064
          -0.010925465239533416 -0.016576471203301857 -0.031694868202738924 -0.0067418812391975 -0.0027321827448689717 0.002880859816381337
          -0.010762953203567127 0.007514745707501103 0.0002569714554203628 0.00576207285021782 -0.004060110397463124 -0.02431883320020578
          -0.013180827450888444 -0.011363592877454726 -0.029155967407163974 0.0000723009408583053 -0.0026048649094594367 0.0007263409517852537
          -0.00875742508290056 -0.017753089781002096 -0.02061337445460598 -0.010600383026323712 -0.011807917478780183 -0.030630018803658565
          -0.00855144341373304 -0.01942016131804536 -0.013962273879326581 -0.029372414142887493 -0.034821466586997474 -0.027461057282555323
          -0.019998814628362283 0.007145514029475386 -0.010139488484631087 -0.027086399210455525 -0.02723167577043073 0.008780831058910366
          -0.019952612098212974 -0.03723248325380535 -0.02852208723595062 -0.019441942704238713 -0.03321769497546878 -0.04548110758000323
          0.007378689294453622 0.0030278224530690956 0.021697819898555792 -0.0034806405624161485 0.00886881264816175 -0.01763645213714593
          0.003062807487158814 -0.007862966966429852 0.006687650651024946 -0.006572129510877822 -0.011892202725250378 -0.011025043319689232
          -0.013837298078184901 -0.012404542551410103 -0.017764828602707894 -0.01692932496506394 -0.012353480688652496 -0.012104362349205644
          -0.01353243932169601 -0.02220356556143166 -0.020552803173683465 -0.005559732881198487 -0.02922137825412552 -0.04690253172508019
          -0.028142030875897284 0.014502109951919806 -0.018559362901299892 -0.02310964195929177 -0.016518558832845365 0.00019562992181776373
          0.0027563780535801996 0.009419336800404743 0.0037023569530072464 0.008694665323524475 -0.024469128182167843 -0.03475160112785769
          -0.0032034966108333562 0.00010451656946308674 0.0005146331477928756 -0.007781841028554837 -0.013550936156336735 -0.020518650339107936
          -0.011474480918074459 -0.003805989094651352 -0.007643030517904492 -0.01630818407090029 -0.019621434601926335 -0.026473622567924515
          -0.005939893101972515 -0.025921816792950025 -0.038443331014828885 -0.07902862525833942 -0.04368937938834083 0.0470689956645316
          -0.03696233458868914 0.011490862751371012 -0.016762526196193228 0.01002395659175015 -0.02645801725263386 -0.009105024399238992
          0.024001122949473874 0.02912656676515457 -0.01807773383659317 -0.05218283972608617 -0.053676103590651 -0.012792247258055056
          -0.014472430405624737 -0.007257777891450878 -0.014663472287190782 -0.012180131637287928 -0.00470000459139186 -0.012355782561542572
          -0.016787986487854734 -0.01880264432273826 -0.02600934034179536 -0.006432650500925896 -0.00565690260274998 -0.0011162963720335872
          -0.0006815219016180762 -0.010694497335423714 -0.0162323370316102 -0.051490368544339304 -0.04164781701582232 -0.038239285740242934
          -0.00038173234956584423 0.0012467305067884737 -0.006719049618283179 -0.009630163901670485 -0.0006915185679350344 0.0010477020454322528
          -0.010611430600040883 -0.009985377520954408 -0.010953226696728713 -0.01349360386782994 -0.021036965719246403 -0.0204041397955379
          -0.015831579471116797 -0.0011344726866422405 -0.027614341134653664 -0.03547133193081731 0.009044449975740498 -0.028144943715098236
          -0.04547413542000278 -0.05185226776398455 -0.030541144439348855 -0.00341297011947983 -0.011584027529983665 0.02088641502974653
          -0.014274521747125846 0.0009675704151881348 -0.013762157493667715 -0.018289803933901894 -0.042211038047917704 -0.006833217729834473
          -0.03715441709604139 -0.02996165129609807 -0.037357069600615134 -0.009115925611662412 -0.014680957812890583 0.006371145682758872
          -0.002387392641466146 -0.00982882919750061 -0.015563603950268678 -0.015276592639282605 -0.012893653093121848 -0.0004297022481338786
          0.0016353430946924874 -0.016870851480752513 -0.01764174765506965 -0.014928087629706877 -0.004784807225268972 -0.02148410461857697
          -0.020953262845014642 -0.029335949209765344 0.015365211986654081 0.007568970708188294 -0.010155127389026575 -0.011125922940580235
          -0.015095474619154947 -0.00942211472414689 0.00436630152207973 0.0034949605719938326 -0.011680653650909034 -0.011132737219134103
          -0.0063187528404378135 -0.01566581908400355 -0.021402354395756884 -0.016011873529774512 -0.003450134043999853 -0.024024147433790333
          -0.013505097175979364 -0.005576434407356778 0.01170547230055119 0.0042521855288315535 -0.003789386001311623 -0.0019091184716426568
          -0.013690408465550696 -0.0038736037244904153 -0.014323902875482908 -0.03808398091039766 -0.030653272306759405 -0.05956117165799668
          -0.038372697481376505 -0.03034596867280559 -0.008315574523116709 -0.003056834502614514 -0.017929514711369166 -0.013562379738686126
          -0.01980300668633639 -0.007672836692267815 -0.0041377321934086275 -0.0027487402298653763 -0.016549985728298022 -0.01781268047132123
          -0.014603856330110965 -0.016104821155760618 -0.015935647263981778 0.001355175151746657 -0.0020498325223243796 -0.0020585986460055494
          -0.00994615363554896 -0.00989227102221335 -0.011335898617947926 -0.0013621607297826799 0.002758772196925552 -0.0037154332204538676
          -0.011168021465380207 0.0036996678907623703 0.003591934811134845 -0.004883795532924395 -0.011968598624480187 -0.015399823657959999
          -0.008466445798409161 -0.014058883688976564 -0.022951048971894927 -0.0007365274018988899 0.0017084825762712086 -0.004312282122092448
          0.002560630220333593 -0.005092132580561071 0.00632452620334778 -0.014054196715168388 -0.002342632736819894 -0.02341305643790914
          -0.02107032030093592 -0.023093625629808656 -0.021914149698003982 -0.01905382847452408 0.0017141859832916495 -0.017901391110551224
          -0.0013021601071145916 -0.003855708860799112 0.006603851150262852 0.001186760043873747 -0.016945573022319138 -0.016270370614776652
          -0.007948232026761204 -0.010691209145581304 -0.011158334486851551 -0.018875511391596156 -0.01841206050754174 -0.013358990062684484
          -0.00064208191929227 -0.005876062964682016 0.004888134267936994 0.001671666289379703 -0.018278937029455378 -0.020085813752500625
          -0.010542221683390807 -0.019385103584411034 -0.003366236332158934 -0.008865442431710946 -0.020057605547677326 -0.021688134882964505
          -0.00935693522981662 -0.007056294888672099 -0.005171147303379087 -0.0033615070766375155 -0.017028409941005407 -0.013184701719868297
          -0.03487518475332685 -0.018716389567204672 -0.026592134919281918 -0.03085992644074631 -0.013498071885061247 -0.029026273612887454
          0.0021528948548010796 -0.008791125666360422 -0.010608218902901978 -0.007575487373239653 0.005652284376116423 -0.008610909267548372
          -0.007456028437437645 -0.004347373394281817 -0.017147004931519216 -0.011895649010485343 -0.019746479060192 -0.021420547065341466
          -0.013807285080402742 -0.00593004229624583 -0.0221346922648471 0.0031424776942925448 -0.017572705742161965 -0.010023495645453906
          -0.01474370752649623 -0.009468045117220214 0.000638962218323158 -0.009214954649248597 -0.03138550700083975 -0.020591102217913715
          0.0006681384011226754 -0.019080978972307427 -0.02000259617563316 -0.01825522995001272 -0.007767818313930697 -0.014358926513320824
          -0.01757320000905782 -0.01068828431272184 -0.012763252727237884 -0.0203515304259696 -0.01733137412437813 -0.016501179841696967
          -0.017009816279760948 -0.011194935696077657 -0.012338757420861768 -0.013281534067707046 0.0010129565446486133 -0.023690305861549632
          -0.028613969151948027 -0.023253592659315536 -0.014770431971485642 -0.0015883708506033156 -0.019377508805190402 -0.014133620548951176
          -0.02068587990616333 -0.012550620557352232 0.00174032128459789 0.001767027586080161 -0.023044874180899733 -0.01614145401729772
          -0.018949101222848874 -0.0032012137286931974 -0.021077216312479052 -0.032810203907529534 0.0010823076286463618 -0.00819870667228173
          -0.0075502354928285165 -0.0052590305108957125 0.005079247232592454 -0.0013869502627521513 -0.008222178593649154 -0.005828610136728862
          -0.018833120619041743 -0.01664131385829215 -0.009424712743685504 -0.02266914628742711 -0.014244129027392027 -0.016483427132311768
          -0.016204908039627597 -0.014586705614255457 -0.02244753838484126 -0.02298957746653585 -0.01817916892672322 -0.02031032350511275
          -0.014564709235407314 -0.0170168924974341 -0.008986221298155073 -0.01776809378547206 -0.006856267470118027 -0.013784777250165803
          -0.019617134050724516 -0.02308193318360363 -0.01573896648925377 -0.033792451478864116 -0.022908130388850978 -0.017181288150289298
          -0.006526846409535381 -0.02873008598785365 -0.02192794497134809 -0.015613422451288272 -0.00854480738084229 -0.008637541866693077
          -0.0024846359802750406 -0.015040836396515544 -0.011408347069066682 -0.031051021558621272 -0.013046320985204751 -0.009102142933418378
          -0.005608621231971256 -0.02281540504868218 -0.01025047288150116 -0.015587486826395214 -0.01661890490650464 -0.01707020467659337
          -0.01183906690551817 0.1526201773661615 0.12491225442886922 -0.007254971789540043 -0.009583700949208573 0.3083855050242228
          0.25066702035088895 0.016235207024264398 0.00487634884927024 0.1627044438677112 0.08421884183632589 0.01939154602787241
          -0.0686575001163039 0.07585587192997689 -0.13364259722453475 0.16089344580339304 0.007964541237671874 0.12319122939004679
          -0.004844749629299372 0.0012386569699192052 -0.003265022656745664 -0.005852125399384178 0.0030667413928675558 -0.011646900025103157
          -0.01125579783206554 0.0006367041222885561 -0.01816532978054397 -0.007166503486778275 -0.003642711071321081 -0.015424842124670768
          -0.017655074929727732 -0.003934410587644432 -0.018589435618088235 -0.009574278427576743 -0.015602814875625093 0.0010012655687337002
          -0.005776300829428926 -0.013606848281964012 -0.012972874629735287 -0.01662160112368216 -0.004458952237730074 -0.013562385302483548
          -0.060077925793590836 -0.052997298189533026 -0.035847889843524605 -0.017014826588342302 -0.022347997897721683 -0.01745348011239045
          -0.022874054514502973 -0.01343764083883503 -0.012061802022497403 -0.011226968072369559 -0.013187151834853417 -0.013707629964335943
          -0.015347940398823923 -0.01565204576677548 -0.018028729817609168 -0.02579745769501507 -0.004350277809496372 -0.01357056806820145
          -0.01054797387116757 -0.0037600160660753446 -0.01178808846675139 -0.02043507577990855 -0.006642777567172686 -0.007416733050257918
          -0.011580973079047041 0.0005159937021428362 -0.006990685984190392 -0.12087245547729975 -0.15072358865712498 -0.05011620348745538
          -0.04166167099055773 -0.01397276676407433 -0.009932919396349327 -0.17719195661015874 -0.03799572185427014 -0.36481712490841645
          -0.06613624296554299 -0.22351540861218044 -0.05316626427052018 -0.01600288023764218 -0.0022754400233724326 -0.004808874631522908
          0.00008784610303003149 -0.019078188317748435 -0.007647001949004029 0.005028019908648318 0.018239780892310264 0.008317188331885994
          -0.018197705056771873 -0.019752196589863935 -0.014304934940249758 -0.018520677263050622 -0.03446658360807753 -0.02071429369759592
          -0.04128736608559613 0.03813609685932118 -0.08374800920051673 0.03865856901653242 -0.05282578157853379 0.011658409616829069
          0.0061151891508348655 -0.006739719542287581 0.00935269895880353 0.014360303134121288 -0.003690391065047649 0.017297101926190273
          0.003515110869972915 -0.00719221856277219 0.004025747455941087 0.01496089167090009 -0.003577746030458684 0.021667271456938142
          -0.013752013321461476 0.003771526795013358 -0.012949070245075411 -0.00016074182214653732 0.017635415256279874 0.0024153276182801164
          -0.014062533924419363 -0.003489242178369878 -0.009685496103221336 -0.0031559574299926396 0.007157009657269953 0.00016791700778817642
          -0.017881199899094646 -0.01935766205030598 -0.010984002960725547 -0.009107537084602768 0.0009687440601249264 -0.005742078351769209
          -0.010147555061625901 -0.000723003184210036 -0.01372622604632312 -0.0005851217557699684 -0.014014703026700381 -0.004722179028168405
          -0.02032561930569443 -0.022930300923659885 -0.03569899045744673 -0.004781546293298078 -0.006245516531422801 -0.0032316796462481534
          -0.007920480295432242 -0.002603521122768626 -0.0008613401293633416 -0.010642262541029623 -0.00948912891195075 -0.007726896668510896
          -0.014903592129222432 -0.007949626645352481 -0.027825914181544675 -0.007010795879391907 0.006257554023823886 0.00377828058769758
          -0.009365785054387343 0.0011810349809435738 -0.02572315218522636 -0.0009120921881242694 -0.02257233884195098 -0.017071512125726995
          -0.008323978862695647 -0.023573992051542092 -0.017375710579619508 -0.05220170067625407 -0.0067087071768572315 -0.049556243920878984
          0.0023941049435549644 0.04919586967496059 -0.07702375976456288 0.039128611595047325 0.00803727076251004 -0.022799463401541153
          -0.010821011772673472 -0.014278107421201724 -0.02924883562505709 -0.013813627577027532 -0.013291019780581337 -0.020354966893833648
          -0.016697872609459097 -0.01085501157078994 -0.0108716396372035 -0.02744034329835987 -0.031813036329997324 -0.0329768004893225
          -0.003956084454776132 -0.03296152691535603 -0.005371112007706458 -0.00495419885104198 -0.004769021602591295 -0.00009715370704022064
          -0.005449556309192971 -0.012942069072451545 -0.016973029931726558 -0.018204009390804465 -0.028850853884886618 -0.016158398201620017
          -0.006550933675230297 -0.002895585760271935 -0.008347790858915793 -0.0021048077019107936 -0.0014543024198347965 -0.00895854524267925
          -0.04496696855501714 -0.013197362336848428 -0.007966153038830193 -0.008456647851117438 -0.005909912055917843 -0.01879732754362884
          -0.014180763586036704 -0.01922236130956101 -0.01725993838351414 -0.015762044571260958 -0.02252845129542269 -0.019819969090626444
          -0.033936646587633845 -0.00826176476772389 -0.011313658980468766 -0.03713744117389428 -0.042805352643577876 -0.020995674619895155
          0.0450625807762739 0.12809169704420675 0.10773957214686014 0.25811541606208976 0.05635136128761076 0.13138642528526034
          -0.01039978246295048 -0.004862959182121429 -0.0045239539238672855 -0.04813029674131286 -0.04928551633305922 -0.11563715428656707
          -0.071164946652722 -0.04933065096594191 -0.05074962525864635 -0.013311614177229814 -0.006905248522870444 -0.026850133883701943
          -0.005188804127678637 -0.01643845038950076 -0.006620341888700754 0.08335050162035884 0.18054686556552824 0.0813818310057215
          -0.01056446840479719 -0.01194529031746594 -0.006852773201179385 -0.046062454045161516 -0.05348609725694686 -0.03886341415322292
          -0.011731278076293705 -0.03679388864635058 -0.025594730706890445 -0.016358308020141266 -0.021276493995621593 -0.015550162633219955
          -0.010389730509341888 -0.01833366308266804 -0.016834780184748155
        </DataArray>
        <DataArray type="Float64" Name="resid_y" format="ascii" RangeMin="-0.150962948983395" RangeMax="0.2751778305025523">
          0.0020564331015261623 -0.0003003387447659406 0.0030855123506234525 0.00276975338065665 0.008165278771383655 0.003108104014753643
          0.013359579983778565 0.008740908275921637 0.019392314191778563 0.014006287206065032 0.01731372808190814 0.013052921622396654
          -0.000152143749335365 0.003629669160063312 0.0047955664246417395 0.003507314383176252 -0.0000876383175499873 0.007528326610344915
          0.010953592495561992 0.011230425758304408 0.00498943948836876 0.005960749310962188 0.007734505466978403 0.009365229878752657
          0.007349528192382243 0.013580881562315128 0.007841433169301415 0.008293160483111822 0.011240245926740333 0.005399118789816998
          0.014089549946238223 0.006520430766625077 0.009154439825099727 -0.004007754252125295 0.012864955437678571 0.0027282766577191586
          -0.00191470124112522 0.0006344024025799339 -0.00035689993991395996 -0.0006416777106150774 -0.0010478966288612387 0.001928701659025131
          0.005207806961178146 0.003927571892053779 0.008698151751751777 0.010354516757987167 0.009615115451563502 0.008807752270940236
          0.000004706145372193604 -0.00022533509754829595 0.0011513920861838528 -0.002512444280549961 0.005927995193149224 0.0044206609608526265
          0.00907031903249153 0.000053884269113894934 0.01638567605997232 0.012679368947772274 0.01322763020105433 0.011429682332127197
          -0.0007274772694075837 0.0018222646626695482 -0.0009071546455693413 -0.0007439507477012552 0.0017358905359267651 0.006940533114918157
          0.0009299972199428852 0.005406437789629154 0.007835461172606695 0.012922135963496367 0.009952128591954934 0.011126862554837552
          0.0023136827088542228 0.003993553042783898 0.0028302738903170054 0.0036343272288908435 0.0061841533854197495 0.008530430083976678
          0.002987230091122662 0.0054675058999794635 0.009534628711178106 -0.00015025363520278223 -0.001667820071064162 -0.0001754408522438855
          -0.0018581104192674502 0.002016170972761879 -0.0017472222186714903 0.0007490415064204115 0.0020822680655624703 0.007386544709936549
          0.004351790493381726 0.012039990033474862 0.011610132034552634 0.00703185199857817 0.012402853167856248 0.008109020605782863
          0.00583653770204505 0.005520947416882624 0.008842355309653771 0.00962309004495341 0.013495895976687558 0.01368281242598915
          0.0022048978665115265 0.002856381146446485 0.00878523202425155 0.0011594448538856383 0.006990612567782632 0.0013447757280261458
          0.010731963262691713 0.015595074383433653 0.012627154464456836 -0.000047051596042041455 -0.001837098720228072 -0.0019715085456375944
          -0.0014373573997043254 0.002313608424959257 0.005108681895669695 -0.002579075716324798 0.0017905400548701295 0.010980029191666747
          0.017286685472942938 0.013059624984550405 0.011591999849227153 0.004046592137847159 0.0041332919998770395 0.010017599061272212
          0.0032187890090980067 0.005150344196495141 0.008961710744299925 0.011129584293047098 0.011440455209351302 0.011480735450751609
          0.00766999449115062 0.003896139594625673 0.001496274955238741 0.0027442291924776457 0.007236191533122111 0.00422666232049361
          0.005397664210964936 0.01231641027912412 0.018612575298444373 0.02508415810485054 0.003541478880935013 -0.0015741767599165707
          0.008853480489596152 0.01441647055726417 0.0013052393567140538 -0.0014545027579152374 0.0076602154901961456 0.016628945072520874
          0.0069036659685556695 0.007709945571708468 0.017195256807977483 0.005044039560477949 0.006549627990104889 0.0024605913427049597
          0.002177438909954671 0.009799982884901484 0.007926769341378148 0.01168307047825809 0.007799401325605915 -0.002836544198160096
          0.01229150082255881 0.005606162979400198 -0.0006595898019739824 0.013179889326870503 0.008935450260552452 0.013468584872535293
          -0.0021625398808590574 0.002987470263846284 -0.006552741465210191 0.002037395110327328 0.00030813312078808996 0.012615967891764834
          -0.008338811102174076 0.001952807522054567 0.007740709809478455 0.01706264089662657 0.0025315876286997052 0.006638997796580948
          0.01323157873057984 0.003246327557179421 0.027188166966810617 -0.0011053965889147727 0.010428317780339341 0.0002706082822254985
          0.00345654440748569 0.007935714317293674 0.000684956843009038 0.011636908979746223 0.00888826701434739 0.012471493715761915
          0.00796754688190434 0.0022749711342287503 0.002168892784226495 -0.0003830958335789003 0.0026435373846963005 0.0027862777813039245
          0.001976539456906068 0.004139390225718048 -0.003930711671050788 0.00447917162825881 0.006397656501552218 0.005424333777441937
          -0.018109295911825377 -0.0055158781460750705 0.004575227421565742 0.0026461555266710218 -0.005090611717997018 0.001320889636436895
          0.005790059577262818 -0.0015563330834752753 0.003858623292533386 0.0016234835179147755 0.004673238838657438 0.004869507365598935
          0.01180148649389827 -0.0002655166127395899 0.008928124873149548 -0.007257978917090769 0.009334550407165826 0.003683999813223201
          0.012037308069225622 -0.004882472780482026 0.0116176552948003 -0.012035954551603249 0.010780699203775328 0.0017098952150538978
          0.0006149416274026792 -0.005629295793615305 0.0008601199090268186 -0.0012566054619691513 0.020707264371520595 0.021217354825842805
          0.003297397241838699 0.021691922334921194 0.02540800557052847 0.014844405930173 0.017559430084085306 0.04504066563985908
          0.03614626578880398 0.011335748995243922 0.014316724447928447 0.03140666098015689 0.0037768333362024897 -0.0020570616240569994
          0.009474076978760938 0.006697564499145853 0.006254884121734874 0.005090426161066357 0.0030919106124535217 0.002135388881325334
          0.005169049761752323 0.006670592354544355 0.008487463486767766 0.002772176925900413 0.0001481203143425952 0.004125664112882399
          -0.0006952816196370837 0.007383436684761626 0.008886906128984663 0.005348067259539707 0.005960120576109895 0.012062438021831351
          -0.000026147789896541207 -0.00019109269883387653 -0.002332200178071925 0.0011425259267194982 0.001286717036912327 0.004406383794616303
          0.0004480064781979126 0.0028064887053036863 0.007189642361309909 0.011130382376097349 0.008909591783801088 0.01064922297423393
          0.0014084198129425685 -0.007628336174815287 0.0025597524323321408 0.023628009369776548 0.01317140886912882 -0.006607862976248546
          0.013610554028442523 0.022743599785594204 0.013057158280704584 0.0012119482322169306 -0.0013442642790754133 0.0006028219902609253
          -0.0024254874223945955 0.017035222494933278 -0.0016362817998985535 0.001843199006261148 -0.005331372195742756 0.012882119837639983
          0.0019649928036963304 0.0191478552371942 0.0014157404494580805 0.006295946508909321 0.002212721398189413 0.004453034919559708
          0.0010003122014711069 0.009908424511771166 0.009763793083279022 0.0011899626164023815 0.005945037106855721 0.006722846497710751
          0.009955740904848591 0.014732284253340996 0.013157875775515762 0.011743121029054329 0.005198625622909 0.013088695545090491
          0.01987473249883165 0.012345327226337147 0.014839199520711069 0.010351234819183583 0.013903159166835447 0.012388649057483624
          0.009648910914387326 0.010807534957492426 0.010384328538116758 0.009950483721902673 0.014965778923118778 0.0126734263614059
          0.0013373212263825575 -0.0026873943911792306 0.0036647295703142735 0.009479997050584 0.012669706601386055 0.012460051492899332
          0.014343787692544597 0.004837479501736942 0.005373779438881501 0.0027325486860782146 0.009229492486673211 0.004787148460649899
          0.011544512445432906 0.009296231512679151 0.009408519810577137 0.02728284128128322 0.006537194906062915 -0.015666265922850975
          0.008707587998660407 0.0077708405622353375 0.005352238050972638 0.00546191709188061 0.010702789669832444 0.007152520342517446
          0.009344317235322384 0.005790765941056278 0.0006896693370839063 0.0028372308857081557 0.009064272654036469 0.012118019951267461
          0.009798250573524467 0.00919889991776477 0.012829726589132326 0.008885241223723627 -0.0006249047359141793 0.004568128488656949
          0.009467302535399125 0.004409582746695454 0.00815805267258659 0.0037405333757212222 -0.000456037596436476 0.004985673604962659
          0.006277849363040447 -0.0010558309193291482 -0.0021989723550020074 0.004845732295325922 0.009332177234758932 0.004001103853303878
          0.002060974066733001 0.008530798940974388 0.016207966638843774 -0.0002682004448148201 0.0021494618945587535 -0.00015515778958316226
          -0.00019395754109664126 -0.00048014070808066744 0.005590846827254865 0.002254846595897725 0.0036679712119804322 0.006800283660084588
          0.015561006763931934 0.00938046499881006 0.009628631943386257 0.013331855508871927 0.002168127855479006 0.007497104603054444
          0.00787611930050941 0.006591622397387642 0.000334203536406813 0.0004562913816692493 0.009063200718272935 0.006930529069300161
          0.0076715550370412555 -0.0001831599502995357 0.014518290519206268 0.0004058780418173119 0.00774960292581181 0.0008113721542422209
          0.008213793995791946 0.008831113648769928 0.0006039813726780308 0.00013723475113557038 0.007581863886006984 0.007032991043046444
          0.009561323227189167 0.017926307414242504 0.003860738225775373 0.0060566197405650946 0.0080908964193952 0.007335104109032903
          0.0046850914400863725 -0.00140027978352944 0.0021590636967982746 -0.0014686675430924528 0.00820608955651947 0.004791968831876714
          0.012903171918874216 0.009947514347597825 0.013498350647593171 0.010998635064433493 0.006978529152872365 0.009163875931235355
          0.008191730394163738 0.004845238495764001 0.005642385393418648 -0.0004880466578411624 0.006731998701595743 0.006795483373688224
          0.006452907816177453 -0.0031287748887687816 0.0117465535208056 0.008228249772902957 0.010743295355713799 0.0041244229200322335
          0.0018234719290675938 0.006362613760172518 -0.00401375929114061 0.00008089856488131125 -0.00000941504312875624 0.0011885460913449858
          -0.0015304082680709583 0.0010184295655632988 -0.0005097589187033347 -0.000015108776610581187 -0.0012261201644816616 0.001540798831425827
          -0.0008160568719744743 0.0051251069169292104 0.002930429793776279 0.003655496595099235 0.0035403097533819178 0.008205272772532926
          0.009156422240885101 0.008362337861232305 -0.00027449340843566095 0.014492683108096899 0.01628130225935298 -0.001150598559685606
          0.010636265228188765 0.009830816160789665 0.0015631650838910383 0.004230871331632635 -0.0026157452232263845 0.008233210670733238
          0.018639369988614284 0.022636744007345902 0.008591359487434043 0.02152778472256038 0.008764977850000563 0.01803536800143836
          0.01395655881456033 0.0014181315509980003 0.004303856557107327 -0.0009662363771212462 0.015314360344505049 0.008763271461723468
          0.015123574842817816 0.003212542276739311 0.007297673774033064 0.015389180590131175 0.006350893131241417 0.007744033330205041
          0.0039886713614574465 0.0031547031593310293 0.00018439264081704376 0.002118615553267339 0.004860673302744589 0.0027632077636614016
          0.00412339440901742 0.002608026483416244 0.001817913741331667 0.005129322434910162 0.004469984585395534 0.0059303728081134405
          0.007638233222592897 0.010166083113261795 0.004976050198631815 0.00827943284941561 0.0035519437933358294 0.005925726808159851
          0.007102147928938568 0.004714466073924534 -0.0004678596036365723 0.005330262420334103 0.0007662205613717943 0.0021874703720783095
          0.007284804236038195 0.007068080886592026 0.0059917477742791325 0.015767762820233067 0.0055350099613745984 0.013157585648317593
          0.0014272671290170291 0.016337796271060412 0.008750399636582279 0.010214812628953747 0.005453655781465672 0.006841576157174303
          0.0028153130742892135 0.006504130810681366 0.00649169783317468 0.01640499576184476 0.00425995611866159 0.011139191303773013
          0.0020996431186944553 0.012756855574333648 0.002450565767558144 0.004062735104157833 -0.002821152975304185 0.003107331365607126
          0.011259704758961195 -0.018639451849183197 0.05593022834609632 -0.004457762852387359 0.012962029934634564 -0.023761102682766377
          0.11527904621295781 0.008836140479870677 0.012530572672252077 -0.00891444456444343 0.03031379681189142 0.002626605395928752
          0.13288349520471282 -0.05134370834197299 0.2751778305025523 -0.08495202657274248 0.12192206854686977 -0.01696911862482156
          0.00248049712309939 -0.0009560153834813068 0.0013551131087496879 0.00973377851612306 0.002500230693469274 0.005275236719509413
          0.009496938566885674 0.0024046674190464773 0.007841138634256256 0.009239731800982642 0.01066979937457821 0.007770464997905929
          0.012928610885464861 0.0002621467273728889 0.005071420113548372 0.007919834867188558 0.013749956569231572 0.00192181021473712
          0.007083826670002846 0.008472637975311108 0.008956924622250312 0.013893491232791107 0.005106978975813518 0.006882623656589298
          0.01269917428288947 0.016115051005390624 0.012238507931949194 0.009528838203062606 0.00996648456329366 0.006490017661201178
          0.0015439720863827389 -0.0003713110963232402 0.0012753747255830616 0.003985802550694806 0.002184005680204437 0.0063739552913230635
          -0.0019807738907199335 0.008396285960722366 0.002587983698673635 0.0044423337796902565 -0.003937210602373433 -0.00014259577965809213
          0.00637823913681268 -0.0007641737748290689 0.0030757113335417308 0.013413084292321797 0.006840027836681278 0.005837706945501356
          0.008959870073365156 0.004779318990023679 0.00394272838768861 -0.0019452527276302978 -0.009730691546406656 -0.009647179569071462
          0.0008829591579637974 -0.007493501591382817 -0.00898166607848272 0.0006499839788480233 0.09051802957944438 0.009986905794051357
          0.15577850261213066 0.004413329171879948 0.07959329086711066 0.01312315090658639 0.0012674037712136765 0.00562635792326821
          -0.0015894177394304432 0.008038897240313536 0.00022078562566624216 0.005327163361275422 0.006447469348639864 -0.000691554213336748
          0.008594132748679428 0.005805100877375666 0.00529651867409639 0.001669841953437075 0.005992704748087921 0.0031846125223831713
          -0.07601882857938982 -0.06441950408105895 -0.13928959893738369 -0.150962948983395 -0.07392341692640213 -0.08922411761301463
          0.0015640979451099352 0.0055104627126098815 0.002928805030652456 -0.00006911943476226035 0.0033718340972469785 0.00110289378365891
          0.0013567552497425611 0.0060991230092786175 0.003362145416516427 -0.0007163431240208712 0.00958517068382975 0.002378605327616967
          0.0019790907273582042 -0.0025628754589723593 0.003077150903076545 0.00575470630085137 0.004966691284289088 -0.004172575923448052
          0.009916792409685848 0.0011359755652176617 0.006775294188817879 0.003981403464302258 -0.0032959478390829494 0.00024065456568102273
          0.0034943485968396276 -0.00019742963499569388 0.0007354890679699966 0.009706242396870235 0.0027745353488770677 0.004122480665184364
          0.004875914783801644 0.0014891717093551415 0.0038860375614090947 0.0029765146870806836 0.0032503819729680916 0.00252894849617874
          0.0017214227977573326 0.018657639555306887 0.01105227707424486 -0.0013508230757218465 0.00719747346611449 0.003835534159561671
          -0.0017692740221816605 0.005398636067654838 0.002299496329543599 0.002572863079107507 0.005247869162825464 0.0023965381868017582
          -0.007478491204155946 -0.003805106927347847 -0.01414387518025595 -0.00633627319054221 -0.013782179395689015 -0.006611986366739854
          0.00258356110527605 0.0021518573956819595 0.005862751887542178 0.0007178232205720461 0.0027012019385970476 -0.0014162849619697403
          -0.003004689360376846 -0.005022798322209473 -0.004069916725428042 0.015739364352536048 0.004929150859523557 -0.009912073858742342
          0.02221004409124521 -0.00978823020268571 -0.02115925063273043 0.01029107744280127 -0.008804048310758539 -0.010133604013110545
          0.01091864249023932 0.03752106024171807 0.021369798028509898 0.005485078891908579 0.009294039758246372 0.010607726763317359
          0.0107512491315771 0.006517786458785639 0.006334386403069291 -0.002807505542686821 0.004672871812810592 0.0015842601540131812
          0.016825793807203393 0.007730002609542104 0.012161172623464112 0.004060005291517732 0.006881133143524731 0.004223467820167193
          0.007281094942541706 0.013111153957298421 0.005744926280106567 -0.0028915311384751993 -0.014451230658985487 -0.011887707692792779
          0.004479974036088075 0.005955890469231645 0.004579014757493172 0.004553308979699161 0.006188885866963617 0.005316147915417319
          0.0042883737534174515 -0.0009069131319791035 0.004905319374677586 0.00751899112183585 0.0008676453386201044 0.014761620251151575
          0.00495158141063351 0.008007233864581909 0.00748340463606928 0.011996074794342032 0.009003767094717507 0.020293039695471887
          0.01959298296364881 0.01183987886525159 0.011978549848012943 -0.002263256443379602 -0.005792367174325859 -0.005342734313460339
          0.03282145776643214 -0.02001081123234559 0.06858051100941748 -0.005978720001099232 0.04581946788500221 0.01314067496518792
          0.0020226770712180736 0.00541200074033879 0.0037607021524379974 -0.004392911533637883 -0.0030325153711225905 0.0008122473356122484
          -0.011558155533883396 0.014478645698747239 -0.0022564391022429353 0.0022191373392560776 0.002595131212235584 0.004641684503899901
          0.0024369427314796105 0.003934187587048846 0.0006970581058784175 -0.07078685407070567 -0.11835461878734721 -0.05784094181941035
          0.008284639957692824 0.010326693494323164 0.0034240174429592297 0.006068707836376502 0.006073228961473942 0.0031034935443937095
          0.010648582013163627 0.02646717386567271 0.0174969840200552 0.005305052120212331 0.0015001407978664644 0.0013921002745548514
          0.0008632132639880552 0.0027785130528386603 0.0025647675344041693
        </DataArray>
        <DataArray type="Float64" Name="resid_z" format="ascii" RangeMin="0" RangeMax="0">
          0 0 0 0 0 0
          0 0 0 0 0 0
          0 0 0 0 0 0
          0 0 0 0 0 0
          0 0 0 0 0 0
          0 0 0 0 0 0
          0 0 0 0 0 0
          0 0 0 0 0 0
          0 0 0 0 0 0
          0 0 0 0 0 0
          0 0 0 0 0 0
          0 0 0 0 0 0
          0 0 0 0 0 0
          0 0 0 0 0 0
          0 0 0 0 0 0
          0 0 0 0 0 0
          0 0 0 0 0 0
          0 0 0 0 0 0
          0 0 0 0 0 0
          0 0 0 0 0 0
          0 0 0 0 0 0
          0 0 0 0 0 0
          0 0 0 0 0 0
          0 0 0 0 0 0
          0 0 0 0 0 0
          0 0 0 0 0 0
          0 0 0 0 0 0
          0 0 0 0 0 0
          0 0 0 0 0 0
          0 0 0 0 0 0
          0 0 0 0 0 0
          0 0 0 0 0 0
          0 0 0 0 0 0
          0 0 0 0 0 0
          0 0 0 0 0 0
          0 0 0 0 0 0
          0 0 0 0 0 0
          0 0 0 0 0 0
          0 0 0 0 0 0
          0 0 0 0 0 0
          0 0 0 0 0 0
          0 0 0 0 0 0
          0 0 0 0 0 0
          0 0 0 0 0 0
          0 0 0 0 0 0
          0 0 0 0 0 0
          0 0 0 0 0 0
          0 0 0 0 0 0
          0 0 0 0 0 0
          0 0 0 0 0 0
          0 0 0 0 0 0
          0 0 0 0 0 0
          0 0 0 0 0 0
          0 0 0 0 0 0
          0 0 0 0 0 0
          0 0 0 0 0 0
          0 0 0 0 0 0
          0 0 0 0 0 0
          0 0 0 0 0 0
          0 0 0 0 0 0
          0 0 0 0 0 0
          0 0 0 0 0 0
          0 0 0 0 0 0
          0 0 0 0 0 0
          0 0 0 0 0 0
          0 0 0 0 0 0
          0 0 0 0 0 0
          0 0 0 0 0 0
          0 0 0 0 0 0
          0 0 0 0 0 0
          0 0 0 0 0 0
          0 0 0 0 0 0
          0 0 0 0 0 0
          0 0 0 0 0 0
          0 0 0 0 0 0
          0 0 0 0 0 0
          0 0 0 0 0 0
          0 0 0 0 0 0
          0 0 0 0 0 0
          0 0 0 0 0 0
          0 0 0 0 0 0
          0 0 0 0 0 0
          0 0 0 0 0 0
          0 0 0 0 0 0
          0 0 0 0 0 0
          0 0 0 0 0 0
          0 0 0 0 0 0
          0 0 0 0 0 0
          0 0 0 0 0 0
          0 0 0 0 0 0
          0 0 0 0 0 0
          0 0 0 0 0 0
          0 0 0 0 0 0
          0 0 0 0 0 0
          0 0 0 0 0 0
          0 0 0 0 0 0
          0 0 0 0 0 0
          0 0 0 0 0 0
          0 0 0 0 0 0
          0 0 0 0 0 0
          0 0 0 0 0 0
          0 0 0 0 0 0
          0 0 0 0 0 0
          0 0 0 0 0 0
          0 0 0 0 0 0
          0 0 0 0 0 0
          0 0 0 0 0 0
          0 0 0 0 0 0
          0 0 0 0 0 0
          0 0 0 0 0 0
          0 0 0 0 0 0
          0 0 0 0 0 0
          0 0 0 0 0 0
          0 0 0 0 0 0
          0 0 0 0 0 0
          0 0 0 0 0 0
          0 0 0 0 0 0
          0 0 0 0 0 0
          0 0 0 0 0 0
          0 0 0 0 0 0
          0 0 0 0 0 0
          0 0 0 0 0 0
          0 0 0 0 0 0
          0 0 0 0 0 0
          0 0 0 0 0 0
          0 0 0 0 0 0
          0 0 0 0 0 0
          0 0 0 0 0 0
          0 0 0 0 0 0
          0 0 0 0 0 0
          0 0 0 0 0 0
          0 0 0 0 0 0
          0 0 0
        </DataArray>
        <DataArray type="Float64" Name="stress_zz" format="ascii" RangeMin="-2289937.3358264924" RangeMax="4733910.602325324">
          110118.95159924748 -273746.5599683605 712667.5381932734 787770.5377484433 152573.76078761596 -332614.94364866434
          730393.6894836221 803671.7918946701 195028.56997598446 -391483.32732896815 748119.840773971 819573.0460408968
          -1310656.9437847794 -1006962.7946431605 -1118144.984163824 -680010.997695444 -1375444.7972734172 -1051888.5263559658
          -1133943.9386140078 -756089.0153344716 -1440232.650762055 -1096814.2580687709 -1149742.8930641916 -832167.0329734994
          -796817.9294949403 -789049.0776378666 -781280.2257807931 -981828.9522063725 -929702.9009653892 -877576.8497244059
          439405.37235178356 552805.8381503851 467391.73189648247 590746.5811358442 495378.0914411814 628687.3241213034
          1533839.352843122 1412664.5453557742 1342016.9942841455 1644222.1832552068 1500083.126538002 1386110.4623921188
          1341059.2621867687 1656520.6046803733 1466326.900232882 1359556.379428463 1340101.5300893919 1668819.0261055399
          231403.5658902466 491639.65760030865 1461930.1690399414 1902934.2361643163 185117.25958793197 526832.1053121191
          1592760.1850922136 2057147.7701543947 138830.95328561743 562024.5530239295 1723590.2011444857 2211361.304144473
          -2022081.4582606931 -1095705.2962444953 48393.39645315829 108933.560042759 -2046862.7478075447 -1157071.763111676
          29185.05391192215 68355.17841035835 -2071644.0373543967 -1218438.2299788566 9976.711370686011 27776.7967779577
          1535347.3143740464 1542538.600346258 231633.82691812603 1582986.9180806444 1584093.3988558936 248567.00130565406
          1630626.521787242 1625648.1973655294 265500.17569318216 1273679.786006204 1896822.022328196 1247192.8443526747
          540285.8431181846 1335735.0774123273 1981355.073902556 1296431.9159901899 546086.0421851759 1397790.3688184503
          2065888.125476916 1345670.987627705 551886.2412521672 937922.5899525422 952470.4706391536 967018.3513257651
          562510.7709701889 609333.4235262222 528062.9872252629 565782.4210328867 493615.203480337 522231.4185395511
          -228305.97812097895 158594.37521543083 99014.36751340487 -236184.82716219107 186178.40747689953 135911.0003692989
          -244063.6762034032 213762.43973836798 172807.63322519293 316794.93950439175 202870.12283801206 1105681.9831725208
          1024504.7407676398 314645.6364863802 221528.49000657327 1101626.6311681075 1011517.5074675593 312496.3334683686
          240186.85717513462 1097571.279163694 998530.2741674788 814636.0640368481 2039462.6290285974 85940.46159515117
          883446.9846476105 2174976.7151675588 -58488.27030716912 952257.9052583727 2310490.8013065197 -202917.00220948952
          3571088.4979422684 1591308.3635678291 1942210.8781246033 3782376.069218379 1545590.9846317982 1880863.5337071687
          3993663.6404944896 1499873.6056957678 1819516.189289735 -8549.530462197932 -990605.9458127427 -472383.5675533946
          273806.1425478383 38242.60754182767 -1181443.7060040336 -530773.4553106906 260471.6458162204 85034.74554585326
          -1372281.4661953244 -589163.3430679865 247137.14908460248 347194.3710145964 850335.7083838515 447760.6659226946
          799802.7306346535 548326.9608307929 749269.7528854554 1016769.6571452281 958582.7734044672 1913240.6308395634
          1000223.1532333571 998562.6774887161 1955287.465734567 983676.6493214862 1038542.5815729649 1997334.300629571
          2068964.5592337498 546691.326537888 1206518.1080540605 2003515.435127059 2045059.624654648 540379.6178753998
          1165547.849622904 2013758.8909383724 2021154.6900755465 534067.9092129119 1124577.5911917475 2024002.3467496857
          -492963.4635871214 -916591.116805185 -620353.9762173649 -947009.0352874683 -747744.4888476083 -977426.9537697515
          824250.2383277519 213727.72827700013 829293.8596579713 220706.3001032291 834337.4809881906 227684.87192945802
          -27490.99867746519 -196460.26717796727 30857.989526656987 -134383.30296569888 89206.97773077918 -72306.33875343058
          836873.0129040612 736382.1115257615 403068.43673923606 62746.24137178734 860288.0150516768 739666.4289720512
          374137.2484262539 114999.59183427613 883703.0171992923 742950.7464183411 345206.0601132717 167252.94229676493
          741716.8649347174 17986.161750993968 739577.767035488 19980.615476471423 737438.6691362585 21975.069201948867
          1218691.6446301828 1360924.1546413046 1211676.753843005 1324176.5571603866 1204661.863055827 1287428.9596794685
          1007228.5946604866 915195.5817510639 981051.1410988956 881657.2979307878 954873.6875373041 848119.014110512
          96559.97159210587 114739.29843340386 132918.62527470183 709698.4009792927 638745.3333129938 567792.2656466949
          -58327.591474181085 321003.25555078837 612922.0927029131 323164.1885696264 -104319.26526510624 257977.1540409989
          551574.3265193482 315689.317657353 -150310.93905603138 194951.05253120957 490226.5603357834 308214.4467450796
          1462413.2286741165 1935642.8392911386 2058498.7648953937 1432946.9972312413 1969802.8397038851 2101554.8305607196
          1403480.7657883663 2003962.8401166315 2144610.896226046 697196.5797061806 633102.4712734735 456361.87787830504
          542357.7243016276 215527.17605042938 451612.97732978174 2350958.7030836535 2367836.719707109 2384714.7363305646
          -80336.15801319754 -254836.2540123614 -820000.8533986014 -106451.38680113654 -67752.21187606668 -254210.6467120857
          -688019.1023197045 -83153.77102581372 -55168.26573893585 -253585.03941180976 -556037.3512408077 -59856.15525049099
          296004.09825834265 281150.6577144989 266297.2171706552 1269814.0115610529 1263729.113968495 1257644.2163759375
          -481214.0344876874 -538548.3523261872 -595882.670164687 136056.26820007464 -1042862.5629337461 93239.70608256859
          -1134234.58590702 50423.14396506259 -1225606.6088802938 1547856.7453550308 1886362.1728679691 1562132.809578479
          1975023.5026321632 1576408.8738019273 2063684.8323963578 1023833.0033272344 1050234.8374237749 861312.8965765104
          978329.3288188551 698792.7898257865 906423.8202139356 401144.00747169205 -110481.05269305134 397013.19820326695
          -117312.0623332529 392882.38893484185 -124143.07197345447 1512911.3514284212 1539450.5865760623 1565989.8217237033
          -124495.48536699504 -208789.61497725098 -178599.68020063438 -238882.6321343931 -232703.87503427366 -268975.6492915352
          -235988.929910929 -64934.993149839574 -265127.3973551883 -184971.66090153903 -294265.8647994476 -305008.3286532385
          634427.1596657089 646917.547614337 659407.9355629648 636366.8831343176 622243.5636814239 608120.2442285301
          -751522.0873309018 -1134160.1749733118 -746103.3458398666 -1303458.495471212 -740684.6043488313 -1472756.815969112
          1272255.723623601 1284396.5713268388 1296537.4190300768 993743.9250843336 984650.0866418895 975556.2481994458
          1284724.610726057 1376095.3190312616 1292706.4039168688 1409091.032286559 1300688.1971076806 1442086.7455418564
          1544378.3181324317 -288959.4466488035 1577066.844810685 -269154.96228899533 1609755.3714889383 -249350.47792918724
          1175184.5308295055 206841.05174399735 -983626.7284472226 1140725.913092779 221147.58615722758 -1097526.6955648945
          1106267.2953560525 235454.12057045777 -1211426.6626825663 -758904.9878346912 153237.20414099854 897790.8403423487
          -698503.4404131426 -770927.0162715762 -34659.24401968748 724096.5790447032 -686635.0467429215 -782949.0447084609
          -222555.69218037347 550402.317747058 -674766.6530727007 247986.71396506816 280326.1794506804 443856.7043402941
          384906.81347301794 292063.8131564439 238704.39258106286 421724.70726325194 386031.50438190816 336140.9123478196
          197082.6057114452 399592.7101862098 387156.1952907983 1501104.3936136235 1434307.8143083497 1367511.2350030763
          710706.7223454333 -102501.15335269517 688161.9320073866 -227094.66586513896 665617.1416693397 -351688.17837758304
          1230930.3496370637 365180.1609755708 1200065.1122697764 299539.13802256406 1169199.8749024894 233898.1150695573
          1348307.0242516622 386222.36417336576 1253625.0873252426 336226.3243690204 1158943.1503988232 286230.2845646751
          -31763.639969174154 525920.7156890144 28823.482087065102 590412.9289162648 89410.60414330437 654905.142143515
          -676843.7109288623 -306037.0973967238 -715568.0834873125 -328420.3661748509 -754292.4560457629 -350803.634952978
          1494033.1082212145 1561945.4938302522 1629857.8794392894 1177632.4478302454 1174048.3699431878 1170464.29205613
          -196375.66335893841 -1558177.5931276756 -33282.14249965089 275492.33132313896 -209506.38435199572 -1536280.7499966852
          75771.77266178513 321073.9485826683 -222637.105345053 -1514383.9068656948 184825.68782322115 366655.5658421978
          727368.7331157513 1296359.7216491387 754849.2097127559 1287213.7089101041 782329.6863097604 1278067.6961710695
          187852.71948273102 110690.27800168667 -24127.314832655607 351134.0445953411 157473.28650557416 111018.72231734081
          -24368.504077486075 320932.938927738 127093.85352841731 111347.16663299492 -24609.693322316547 290731.8332601349
          -339729.46614031226 -446569.6301843655 -764690.3109514393 -332851.27200631105 -466146.030118612 -818810.7932053441
          -325973.0778723099 -485722.43005285854 -872931.275459249 -429742.87104748964 -349606.3145373563 -269469.75802722306
          845354.5733150486 -75191.9885401838 791902.8477636885 -70067.27336824645 738451.1222123285 -64942.5581963092
          281082.51872729283 702903.6081331365 306692.8727513511 760597.5894267157 332303.2267754095 818291.570720295
          716270.2597715176 676608.6602793726 636947.0607872275 1532681.798076546 1595814.8036377167 1658947.8091988873
          1471197.3400189173 2352262.751675357 1548354.0011744234 2210646.2990904893 1625510.6623299296 2069029.8465056214
          -90470.97537017417 81672.12613749877 -112092.5481797519 75305.93488687459 -133714.1209893296 68939.74363625041
          1054990.0994571908 1167208.7802548306 1008662.2227506738 1135547.2645830074 962334.3460441567 1103885.7489111847
          1154961.8951773178 407588.56139651086 1356174.8184478045 1184790.5820990973 381166.66991081997 1391495.5977089382
          1214619.2690208768 354744.7784251291 1426816.376970072 213090.96286812596 419490.82815786655 214349.73586215373
          500605.61922201817 215608.50885618146 581720.4102861697 -1044497.2453512658 -970801.8418404572 -1150579.2319932147
          -1074471.673610822 -1256661.2186351644 -1178141.5053811867 862889.3375316011 1945007.7715406748 749436.8802565298
          1904866.969117829 635984.4229814586 1864726.1666949834 2845.133411815652 21445.352482135713 40045.57155245579
          3058089.73977781 2379248.663174118 3883292.8308737655 3863377.4318635003 2889067.4268015414 2314024.2084258334
          3699420.083742843 3667302.3936605603 2720045.1138252723 2248799.753677549 3515547.3366119205 3471227.3554576198
          819338.5085819142 448540.0917633231 924734.2247624956 651543.7214851746 1030129.940943077 854547.351207026
          -1076677.0244487622 -1071313.9606575165 -1065950.8968662706 3529685.1551444028 3499359.637555496 3469034.1199665894
          39280.07078754493 49831.02471671145 60381.978645877956 384999.65682027076 459856.09711688524 534712.5374135
          371561.7877148591 415354.80917953665 459147.8306442143 -820058.6813043016 -907833.4564847106 -731678.2294704805
          -1028034.2901140371 -643297.7776366594 -1148235.1237433634 -1023678.7621871243 -1017747.87930027 -1011816.9964134156
          50802.10656681149 76190.61814460508 101579.1297223987 -1114520.8648539442 -1176286.7768374663 -1238052.688820988
          2064689.1039023555 2077633.0591295473 2090577.0143567391 250645.10466357737 1388686.7136263587 161868.47600961343
          1321307.1313501718 73091.84735564946 1253927.5490739848 1854214.3832016517 1874025.7392186862 1893837.0952357203
          2276530.378663766 2203442.500810118 2130354.6229564697 -1838221.42417523 -2064079.3800008614 -2289937.3358264924
          1975402.8289003558 2197550.291281616 2419697.7536628745 604787.5098146498 653872.8642586464 702958.218702643
          222021.46549035236 277742.48579076194 333463.5060911714 2262659.2746427134 2425826.5633610804 2224994.908446134
          2323086.438830843 2187330.542249555 2220346.314300606 1760909.5557974796 4594557.499720387 1741136.873736588
          4664234.051022856 1721364.191675697 4733910.602325324 1324118.3311868585 1229507.7361075026 1134897.1410281467
          378248.3287157848 362994.46503063187 347740.60134547885 593507.5682347664 600801.2760481974 608094.9838616282
          778426.8737276044 -675397.8900313986 711049.5183892373 -567908.5922020169 643672.1630508704 -460419.2943726351
          2112048.965018791 1744491.69790243 1160696.466418939 2053517.4984424927 1646047.1801916407 1229611.2650271056
          1994986.0318661942 1547602.662480851 1298526.063635272 953338.542739666 1239203.428822144 1024556.898870185
          1255690.3582006309 1095775.2550007042 1272177.2875791176 50452.23440478188 19676.752869564254 -11098.728665653427
          1833616.5725388979 1768459.7843630873 1703302.9961872764 3513712.6329661002 3460945.404448639 3408178.175931177
          632647.5360480956 675980.5648142969 719313.5935804984 -772919.8420277692 -752702.7371637715 -732485.632299774
          -1203957.2615736844 -575149.0060815959 -1263538.1229225895 -532782.9463584658 -1323118.984271495 -490416.8866353359
          372038.6009322608 386020.7979508254 400002.99496939004 1217490.1165351362 1317684.7274989455 2534374.3865981773
          1185809.8628887213 1260627.8369442206 2653618.5674820524 1154129.609242306 1203570.9463894954 2772862.7483659275
          -39829.31423138738 -171012.0151793194 -173009.22101350283 -134907.678777305 -306189.12779561826 -98803.34237529061
          588718.0842176111 -180697.01209160325 571596.1947619668 -163265.19304610783 554474.3053063224 -145833.3740006124
          308383.6034696107 307178.6079645344 305973.61245945824 683063.7847001748 507152.64694465155 895036.2670576642
          656820.326799399 515243.35142705194 905877.4372061554 630576.8688986234 523334.05590945226 916718.6073546465
          13133.517365272273 12493.796838126436 11854.076310980483 88526.83315452613 388003.79753114394 35283.536477983056
          404144.32187916164 -17959.760198560078 420284.84622717934 -244467.0002169586 -338872.9992389922 -292228.7833268007
          -346517.64523774094 -339990.5664366428 -354162.2912364897 1347304.163116234 1398462.1985027685 1449620.2338893034
          436616.75773526856 400627.1618544331 364637.5659735977 -149732.37331497791 -95101.70706535847 -40471.04081573893
          209260.2221869778 197652.51867580885 186044.81516463988 442242.4087379975 420551.9491332838 398861.4895285701
          202417.40501274832 180691.96859408813 158966.5321754279 657615.6654922974 589850.2999929609 733381.0504753753
          598673.2584761784 809146.4354584533 607496.2169593958 2061424.2648946405 1989677.7181867782 2100457.6440865295
          2094259.7518032175 2139491.0232784185 2198841.7854196574 1202183.0492004864 1296857.630409268 1391532.2116180495
          1760322.3405896192 2015626.2824359268 1717287.6505560896 1968905.7815041756 1674252.9605225602 1922185.280572424
          658988.677114169 643428.0152578417 627867.3534015145 118994.04752036027 1467345.8982710103 100209.90224836569
          1491873.2991747374 81425.75697637105 1516400.7000784646 731563.1085405995 493578.4205614145 798753.8139671849
          469900.79981492145 865944.5193937703 446223.1790684285 928973.1516916123 785281.4387385602 641589.725785508
          2780487.924806527 3024291.1317373463 3268094.338668166 -200058.20301812433 -207986.22981176813 -215914.25660541188
          -1333658.778620094 -1389268.2208426765 -1444877.663065259 89409.30882791319 113671.11158576049 137932.91434360773
          102659.5556259027 164519.60797503858 226379.66032417447
        </DataArray>
        <DataArray type="Float64" Name="peeq" format="ascii" RangeMin="0.0022878236119229416" RangeMax="0.006158420493762267">
          0.004553374187656261 0.004946619335858363 0.0048947260866708244 0.0045613216395582684 0.004551698031641668 0.00494354886452909
          0.004892703509969609 0.004559969860711866 0.004550021875627076 0.004940478393199817 0.004890680933268394 0.004558618081865463
          0.003088670581808178 0.0027222120001139036 0.0028010950245852123 0.0032290758713378336 0.003088854172694528 0.0027219032508538554
          0.0028012593576369114 0.0032291657450526914 0.0030890377635808776 0.0027215945015938068 0.00280142369068861 0.003229255618767549
          0.0024004711872184434 0.0024011849475217163 0.002401898707824989 0.0023747870348684165 0.0023757184694267394 0.002376649903985062
          0.004696235272426569 0.004369242081632141 0.004695306338785205 0.004368771517002731 0.0046943774051438425 0.004368300952373319
          0.005916524965122303 0.005988277896430357 0.0058153986359133015 0.005818522770336562 0.005914145423568006 0.005986411904880268
          0.005813259984182326 0.005816096480262069 0.00591176588201371 0.00598454591333018 0.00581112133245135 0.005813670190187575
          0.0038016206147251405 0.004117544102948708 0.004366379318454506 0.004087512959001191 0.0038007034610136174 0.004115847610256481
          0.004365415456544563 0.0040871297966011445 0.0037997863073020934 0.004114151117564255 0.004364451594634619 0.004086746634201098
          0.0029631125986960462 0.003245525349856918 0.0029478560590189854 0.0027398347005095566 0.002964260950107105 0.003245521537727141
          0.0029486870147400614 0.002740972536603141 0.002965409301518165 0.0032455177255973633 0.0029495179704611373 0.002742110372696726
          0.005765786117167129 0.005678705603418669 0.005572554833667603 0.005765865218971057 0.0056790339297241935 0.005572584596834979
          0.005765944320774986 0.005679362256029716 0.005572614360002355 0.005523548747412818 0.005804747990547765 0.005789379288107281
          0.005384569328302809 0.00552217807968328 0.005802761380697058 0.005786797228128642 0.005383163483605088 0.005520807411953743
          0.005800774770846353 0.00578421516815 0.0053817576389073645 0.0050870717985656965 0.00508600776771584 0.005084943736865985
          0.005219807424894302 0.005063116922419209 0.005216669691061845 0.005060959426942569 0.005213531957229388 0.00505880193146593
          0.004264998694790318 0.0046355282960105736 0.0041899496282354325 0.004263314866615478 0.004633080946500565 0.004189170044253019
          0.004261631038440638 0.004630633596990556 0.004188390460270605 0.005631869763561146 0.005472811012147995 0.005581135640495817
          0.005763512660341671 0.005629150086650553 0.00547131791252108 0.005579926391424645 0.0057615059157176745 0.0056264304097399616
          0.005469824812894167 0.0055787171423534706 0.005759499171093677 0.004829467898155114 0.004551694778532487 0.004655929012097939
          0.004829059819613653 0.004551047591409535 0.004653908025968066 0.004828651741072191 0.004550400404286584 0.004651887039838194
          0.00433025122089427 0.0043084183252695 0.003797843813678924 0.004329499580802656 0.004306620451331093 0.003797307463146269
          0.004328747940711042 0.004304822577392686 0.0037967711126136137 0.005145429087419013 0.004861801071088441 0.004916248210608954
          0.005280952872924736 0.0051445031340619195 0.004859108565837407 0.004914193866834897 0.005279300614703686 0.005143577180704827
          0.004856416060586374 0.00491213952306084 0.005277648356482635 0.005567869190733623 0.005261733168010665 0.005565655168967531
          0.0052591177168006134 0.005563441147201441 0.0052565022655905605 0.005802133932269091 0.005520041920050426 0.005562980452929618
          0.005800405379928457 0.005519322522227556 0.005561655137435324 0.005798676827587824 0.005518603124404685 0.005560329821941028
          0.005349094276727501 0.005501810863969958 0.0057536482683862465 0.005647586719704658 0.005347771025708331 0.0054995374140922315
          0.005750913347624493 0.005645618689648014 0.0053464477746891625 0.005497263964214506 0.00574817842686274 0.005643650659591371
          0.0034194197009601228 0.0037039366956471724 0.003419988867696303 0.0037042754786537715 0.003420558034432484 0.003704614261660369
          0.0039979147151135725 0.004312638178319979 0.003997324681380293 0.0043113117338872695 0.003996734647647015 0.004309985289454561
          0.002291965351213846 0.0023426179270556397 0.0022928104633603546 0.0023435773636367382 0.0022936555755068634 0.0023445368002178364
          0.004019404177020823 0.0037578718092172734 0.004076054521731291 0.004378894468034127 0.004020396648184329 0.003758975131461416
          0.004076430328812188 0.0043792288348156825 0.004021389119347835 0.003760078453705559 0.004076806135893085 0.004379563201597239
          0.005904226214445979 0.005696635937038736 0.005903596149883237 0.00569610776155781 0.0059029660853204945 0.005695579586076885
          0.006035836366373251 0.005882629413248741 0.006032685605959075 0.005879728336641416 0.006029534845544898 0.005876827260034091
          0.006152935016760871 0.006054226145268455 0.006149805018635853 0.006050542421494676 0.006146675020510835 0.006046858697720897
          0.004048452885711304 0.004048126903058555 0.004047800920405806 0.004939790539066204 0.0049411960062430565 0.004942601473419909
          0.005461091240685756 0.0052171972700212265 0.0052116538255251 0.005492953789845886 0.005460744439662156 0.0052178732584821285
          0.00521262014327308 0.005492574529152847 0.005460397638638554 0.005218549246943031 0.005213586461021061 0.005492195268459807
          0.00590508048581706 0.005856793939705982 0.0059511678380933745 0.0059026162538901444 0.005855306294151596 0.005950000889417018
          0.005900152021963229 0.005853818648597207 0.0059488339407406604 0.005970651777754535 0.005817125839553242 0.005966075778864363
          0.005813845234486931 0.005961499779974191 0.005810564629420621 0.005239414017349842 0.0052391346111051 0.0052388552048603584
          0.002471772842065743 0.0026212521563018123 0.0027620102615000526 0.0025806743295811525 0.002472498827341751 0.0026218764600365136
          0.002764037460889131 0.0025820623399745554 0.002473224812617759 0.0026225007637712136 0.002766064660278209 0.002583450350367959
          0.005769749518497776 0.0057686176000719715 0.005767485681646168 0.005206765732508226 0.005207359791260297 0.005207953850012366
          0.0053893144040208785 0.0053891129721971905 0.0053889115403735035 0.004203742476332033 0.003930739738976863 0.00420242889385396
          0.003929958607014492 0.004201115311375886 0.003929177475052122 0.004947199395563059 0.0048497104523352475 0.00494728000849718
          0.004850962206621958 0.004947360621431301 0.004852213960908665 0.006129367846692887 0.006000268102745842 0.006125473210272885
          0.00599780583181915 0.006121578573852883 0.005995343560892458 0.00546497329518358 0.005380834789270351 0.005461616239032117
          0.005378061733759744 0.005458259182880653 0.005375288678249137 0.005679237386579873 0.00567808277757371 0.005676928168567547
          0.005172955662643973 0.004765137194123688 0.005171304173599625 0.0047646694329939315 0.005169652684555279 0.004764201671864175
          0.005370174847377835 0.0052172766754566505 0.005367315152149083 0.005213402924368313 0.005364455456920331 0.0052095291732799755
          0.006068805295568736 0.006065600456728538 0.00606239561788834 0.0060001264583509776 0.005999036726373433 0.005997946994395889
          0.005154040968330454 0.0051325226431858904 0.005152443293010276 0.005128954596872823 0.005150845617690098 0.005125386550559754
          0.006098966331631147 0.006096914972161825 0.0060948636126925025 0.004883824011570894 0.004885299818951896 0.004886775626332898
          0.006158420493762267 0.006044028088770834 0.006156292037705814 0.006042956826933276 0.006154163581649363 0.006041885565095717
          0.005822077177619194 0.005609787299120163 0.005820664545852277 0.005607677148790557 0.0058192519140853605 0.005605566998460951
          0.004638173097077175 0.004906541567505165 0.004929541488348389 0.004636065753548559 0.004905252417428148 0.0049264437991484765
          0.004633958410019942 0.004903963267351132 0.004923346109948564 0.005092440814318528 0.0048474740403307605 0.005099911317284563
          0.005380367539760324 0.005089439094727004 0.004843156173023992 0.00509583663275908 0.005377476128686617 0.005086437375135482
          0.004838838305717225 0.005091761948233598 0.005374584717612909 0.0031325339599822186 0.0027942128736113854 0.0026744276558552625
          0.0029249008345832795 0.0031342621605910076 0.0027948024758783045 0.002674238422664863 0.002925480841889514 0.0031359903611997966
          0.002795392078145224 0.0026740491894744643 0.00292606084919575 0.00613134454522213 0.006127356788275603 0.006123369031329076
          0.004674714232776558 0.004424794544862835 0.004672019251615603 0.004422380287015216 0.0046693242704546455 0.004419966029167598
          0.0058709659128396005 0.00578600460516452 0.005869532675722749 0.005784523710059025 0.005868099438605896 0.005783042814953534
          0.004193463958203036 0.003916940767292 0.004191612537516649 0.0039171190177572715 0.004189761116830262 0.003917297268222543
          0.003196902468612055 0.003484764456425397 0.003198602648331114 0.003486397829281539 0.0032003028280501735 0.0034880312021376802
          0.002909625543206195 0.0027046027694704287 0.002909648342810168 0.0027043975594944147 0.002909671142414141 0.0027041923495184006
          0.006059177742958348 0.00605814985536763 0.006057121967776911 0.006018162797597801 0.006016717445921053 0.0060152720942443045
          0.00350114139941958 0.003117229335548349 0.0029924950678067927 0.0033305390333868415 0.0035009244005231146 0.0031184558584507215
          0.0029945704330362807 0.0033317807940549285 0.0035007074016266473 0.0031196823813530936 0.002996645798265769 0.0033330225547230155
          0.0060094327281968 0.006010541207845475 0.006007241187186558 0.006008872990989678 0.006005049646176317 0.006007204774133881
          0.002294044244599662 0.0022878236119229416 0.0023455586422200993 0.002327910142842615 0.0022939168188761874 0.0022880197724530534
          0.002345689572660204 0.0023280753487414404 0.0022937893931527127 0.0022882159329831652 0.002345820503100309 0.0023282405546402657
          0.002496382477494381 0.0023319064782108406 0.0024995254015101826 0.00249655270778549 0.0023327271405023777 0.0024996399740736426
          0.002496722938076599 0.002333547802793915 0.002499754546637102 0.003578396021096096 0.0035805991213871966 0.0035828022216782968
          0.005812397521468629 0.005621780976597044 0.005809471887129799 0.0056189022800430715 0.00580654625279097 0.005616023583489097
          0.00532866443674135 0.004843898566042396 0.005327003542639704 0.004842427302676921 0.005325342648538059 0.004840956039311447
          0.0037466531977591476 0.003746289547834047 0.0037459258979089466 0.006148809062687503 0.006147279614715669 0.006145750166743836
          0.004208748082229202 0.004619637895483999 0.0042094428580067966 0.0046169845430116966 0.0042101376337843905 0.004614331190539395
          0.002400785292801834 0.0023522097677970977 0.002400817869452312 0.0023526557636391523 0.0024008504461027905 0.002353101759481207
          0.0024962936752697005 0.0026212035913353486 0.002497293983149273 0.0026223101757632513 0.002498294291028846 0.002623416760191154
          0.0027912376674044974 0.0032021066882179346 0.00302518263588828 0.0027923780447899763 0.0032023172887315383 0.0030255939112982227
          0.0027935184221754552 0.0032025278892451416 0.0030260051867081663 0.0035421986830618487 0.0038524989515123366 0.0035416412718607625
          0.0038514842875747805 0.0035410838606596763 0.0038504696236372252 0.0024950589518725973 0.0025371797295847816 0.002494418635068096
          0.002536603197426599 0.0024937783182635955 0.002536026665268417 0.003465805079964681 0.0032922980822784583 0.0034652802701141037
          0.0032916188758790096 0.0034647554602635264 0.003290939669479561 0.0024674908909080194 0.0024676968496956855 0.0024679028084833516
          0.0038696356288970314 0.003705571801794325 0.003645254364756687 0.0037862829286505265 0.003867300158353116 0.00370432397942733
          0.00364433287483886 0.003783550478087116 0.0038649646878092 0.003703076157060336 0.0036434113849210326 0.0037808180275237056
          0.0034159797211137845 0.003472349046784597 0.0034172855905627774 0.003473015590929348 0.00341859146001177 0.0034736821350740982
          0.002417126154254002 0.002417266372070324 0.002417406589886646 0.003498395852183574 0.00349808537424019 0.0034977748962968054
          0.003959990082158698 0.003959185175279855 0.003958380268401013 0.0036843523497056257 0.0036860852654742376 0.0036878181812428504
          0.004386683673544156 0.00438570027167635 0.004384716869808544 0.004166555909454505 0.004407077102493252 0.004165963921962258
          0.0044049529688234635 0.004165371934470012 0.004402828835153675 0.004530381283406368 0.004529299767450759 0.004528218251495149
          0.0043854471192588135 0.004386588849859706 0.004387730580460601 0.0026262904700545425 0.002625980935510381 0.002625671400966219
          0.00585251485725601 0.0058518578578971225 0.005851200858538234 0.005007641867677833 0.004862089724913531 0.005006041988083196
          0.004860388410199463 0.005004442108488558 0.0048586870954853935 0.005932463040465958 0.005931724550071597 0.005930986059677236
          0.004710670825735354 0.004708816838717405 0.004706962851699454 0.004617446408624486 0.004614840325389734 0.004612234242154981
          0.00420120892478246 0.0042031446830780245 0.004205080441373588 0.0045705611241778285 0.004571611322575933 0.004572661520974037
          0.004458465230513169 0.004459911689745776 0.004461358148978382 0.003292723319452477 0.003262530060822896 0.0032925233705287968
          0.003262071819388938 0.003292323421605117 0.0032616135779549808 0.0038242258077123715 0.0036002556647312905 0.0038235893475331868
          0.0036001464064382848 0.003822952887354002 0.0036000371481452785 0.004030576763147345 0.004028794699746744 0.004027012636346144
          0.0024040772329147744 0.002404839541112089 0.0024056018493094035 0.005794923859547253 0.005793620331563441 0.005792316803579628
          0.0033623296752417057 0.003590946458973766 0.0033626671915725492 0.0035912881182101402 0.0033630047079033923 0.003591629777446516
          0.0036988126279967996 0.003797500157442627 0.0037481730024555536 0.003698441109732077 0.003797316469100165 0.003748118265104216
          0.0036980695914673543 0.0037971327807577032 0.003748063527752878 0.00377801327170401 0.0038568528320086677 0.00377734575906063
          0.0038560376580032783 0.0037766782464172498 0.003855222483997889 0.0038300328672541684 0.0038288062412867065 0.0038275796153192437
          0.0038266994930397577 0.0038262052193641064 0.003825710945688456 0.0036431481834620907 0.0036424987899638384 0.003641849396465585
          0.0059118748018501515 0.005910315581928255 0.00590875636200636 0.0023847083517425857 0.002384785063041029 0.0023848617743394717
          0.0024243757598714282 0.0028622771948981045 0.0024245703651095576 0.0028629414062918738 0.0024247649703476874 0.0028636056176856426
          0.005399252196209303 0.0053997857732007385 0.005400319350192174 0.004680704125195931 0.004779054937794951 0.005149182986715146
          0.004679176681402077 0.00477755290525208 0.005148360376681819 0.004677649237608225 0.004776050872709209 0.005147537766648493
          0.0031654893037093047 0.003455592868070991 0.0031657899611248373 0.003456238421545541 0.0031660906185403694 0.0034568839750200907
          0.005645322867553792 0.005370028227394864 0.005645165080554796 0.0053707603855688655 0.0056450072935558 0.005371492543742869
          0.0037645382206356907 0.003765143990453604 0.0037657497602715177 0.00497592466731217 0.004745838098242738 0.0046721565342117116
          0.004977100263906857 0.004746306463235482 0.004672700000959872 0.004978275860501544 0.004746774828228226 0.004673243467708033
          0.005266777897372089 0.005266893820799375 0.005267009744226659 0.005868367716218946 0.005952287339123106 0.005865112043546835
          0.0059483048808832515 0.005861856370874722 0.005944322422643396 0.005199879382101753 0.005147440596717353 0.00520021788369057
          0.005147458982589349 0.005200556385279388 0.005147477368461344 0.005649211401170766 0.005647366241154883 0.005645521081139001
          0.005593557064574238 0.005592975184629266 0.005592393304684296 0.0034722015829975676 0.003473646770861001 0.003475091958724434
          0.00334297532973338 0.003343344393654331 0.0033437134575752814 0.0038503107192461804 0.003850798074894758 0.003851285430543335
          0.005010546334663172 0.005011266393452422 0.0050119864522416725 0.004370624748738741 0.00454623333710809 0.0043710867503612034
          0.004545281078509925 0.004371548751983666 0.004544328819911761 0.003683542948360748 0.003555801885789585 0.0036849684108369385
          0.0035576459937352862 0.003686393873313129 0.003559490101680987 0.003328852461977627 0.0033306298499229006 0.0033324072378681734
          0.0031111193322966926 0.003109978444843661 0.0031113001257694456 0.0031098923541191753 0.003111480919242198 0.0031098062633946903
          0.005649424223957101 0.005648645854434685 0.005647867484912269 0.0042672983761333156 0.004384659580982856 0.00426675431536945
          0.004383891077167879 0.004266210254605585 0.004383122573352901 0.005768394710293655 0.005654273936858816 0.005766701912346494
          0.005652943215113651 0.0057650091143993335 0.005651612493368485 0.003125160897109656 0.003124905474601423 0.0031246500520931892
          0.005414995464467726 0.005414208106853895 0.005413420749240065 0.0038876013440117575 0.0038884034675386392 0.003889205591065521
          0.004102434848180585 0.004102496951512222 0.004102559054843859 0.005947554549332525 0.005944209913774543 0.005940865278216559
          0.005870699445584814 0.005868447668159639 0.005866195890734465
        </DataArray>
        <DataArray type="Float64" Name="pe11" format="ascii" RangeMin="0.0022877781843078423" RangeMax="0.006157875224897842">
          0.004552882210925453 0.004946230159498473 0.004894422844423381 0.004561033221374146 0.004551202057342958 0.004943165607163936
          0.004892390799955594 0.004559666025718143 0.004549521903760461 0.004940101054829399 0.004890358755487804 0.00455829883006214
          0.0030883220973056515 0.0027219784690342944 0.0028008130834980193 0.00322869386814225 0.0030884943317783784 0.0027216616862842263
          0.0028009696868413385 0.003228770090594953 0.0030886665662511045 0.0027213449035341573 0.0028011262901846586 0.003228846313047657
          0.0024002331818571885 0.0024009376802698393 0.0024016421786824897 0.0023746058139895174 0.0023755277649745443 0.002376449715959571
          0.004695947403105811 0.0043689700401974224 0.004695010746898786 0.004368490197039259 0.004694074090691762 0.004368010353881095
          0.005916210060014159 0.005987915198735082 0.005814773647128608 0.005818012541290086 0.005913835565372508 0.005986052928418878
          0.005812641182933354 0.005815594870720941 0.005911461070730857 0.005984190658102676 0.005810508718738101 0.005813177200151797
          0.0038011276143823714 0.004117117359345562 0.004365917616100553 0.00408691403647193 0.003800212091548476 0.004115422250105825
          0.004364952788765001 0.004086526798305115 0.0037992965687145817 0.004113727140866086 0.00436398796142945 0.004086139560138301
          0.0029627575567857663 0.0032450447786265724 0.0029472813064007754 0.0027394701845183285 0.0029638908246774043 0.003245034031050675
          0.002948100558095066 0.002740594346273725 0.002965024092569042 0.003245023283474778 0.0029489198097893566 0.0027417185080291216
          0.00576386630984636 0.0056762029890892116 0.005569716030598164 0.005763941455011443 0.005676525314872512 0.0055697233283374115
          0.005764016600176527 0.005676847640655811 0.005569730626076657 0.005522974142061493 0.005804121365978826 0.005788720749546615
          0.005384030181630479 0.005521600054467428 0.005802147306687652 0.005786148953311724 0.005382634247984342 0.005520225966873362
          0.005800173247396478 0.005783577157076831 0.0053812383143382065 0.005086606895184382 0.005085545430858498 0.0050844839665326125
          0.005219586443945658 0.005062845369490191 0.005216442516597608 0.005060678836327975 0.005213298589249559 0.005058512303165758
          0.004264219122163014 0.004634986971435811 0.004189247175356266 0.004262536389159217 0.004632545231083826 0.004188458246657589
          0.00426085365615542 0.004630103490731842 0.0041876693179589124 0.005631717185875376 0.005472583095503445 0.00558092536340814
          0.005763367276831379 0.005628993143390533 0.005471090659234139 0.005579714323429944 0.005761354408487513 0.005626269100905688
          0.005469598222964833 0.005578503283451748 0.005759341540143647 0.00482908295026001 0.004551308015008477 0.0046555209881295355
          0.004828675141320259 0.0045506530374661 0.00465351004620681 0.004828267332380508 0.0045499980599237235 0.004651499104284085
          0.004329683776814557 0.004307766976651731 0.003796661349571338 0.004328920443317702 0.004305963606780577 0.0037961161972047187
          0.004328157109820847 0.004304160236909422 0.0037955710448381004 0.0051450666287231345 0.0048614064896156176 0.004915767855662742
          0.005280593738283753 0.005144145925438272 0.004858730035253117 0.004913726563845209 0.005278946477342782 0.005143225222153409
          0.004856053580890617 0.0049116852720276745 0.005277299216401813 0.005567262781582798 0.005261239960841255 0.005565057042954729
          0.005258639763259129 0.005562851304326661 0.005256039565677004 0.0058012018342142625 0.005518833325576652 0.005562234500757886
          0.005799473221669482 0.005518105164688027 0.005560907838535791 0.005797744609124703 0.005517377003799401 0.0055595811763136955
          0.005348608522352079 0.005501490255758417 0.005753318433621012 0.005647093093999675 0.005347283836908807 0.0054992177065859614
          0.005750587779036199 0.005645128401365467 0.005345959151465537 0.0054969451574135055 0.005747857124451385 0.005643163708731259
          0.0034192301527113194 0.003703700941038881 0.003419798027340016 0.0037040337678323847 0.003420365901968713 0.0037043665946258886
          0.003997491138659234 0.004312283237906997 0.003996884254302631 0.0043109414546080955 0.003996277369946027 0.004309599671309193
          0.002291899349836305 0.0023425054601261385 0.00229273640630634 0.0023434555513966947 0.002293573462776375 0.002344405642667251
          0.004018945388468443 0.003757565913823151 0.004075778155886832 0.004378598958822831 0.004019933279759278 0.003758670139900895
          0.0040761532834241755 0.004378929406292743 0.004020921171050114 0.0037597743659786393 0.0040765284109615186 0.004379259853762655
          0.005902889100591897 0.005694789635907685 0.005902249267935436 0.005694233602397343 0.005901609435278975 0.005693677568887
          0.006035227461364705 0.005881990770609347 0.006032093555012144 0.005879097210845478 0.006028959648659586 0.005876203651081608
          0.006152240080660761 0.006053544891498342 0.006149128190318542 0.006049885156779082 0.006146016299976325 0.006046225422059822
          0.004048166347638198 0.004047832098773402 0.004047497849908608 0.004938168001361046 0.004939558552431595 0.0049409491035021435
          0.005459055975953503 0.0052152877654900835 0.005209897094536285 0.005491236384787023 0.005458678727337211 0.005215944122202006
          0.0052108475817654615 0.0054908395799414195 0.00545830147872092 0.0052166004789139285 0.005211798068994638 0.005490442775095815
          0.005904878098179993 0.0058566277810157465 0.005950967617540438 0.005902412294765326 0.0058551362416318685 0.005949800321133077
          0.00589994649135066 0.005853644702247992 0.0059486330247257154 0.005969935180192954 0.005816472468509051 0.005965376302334668
          0.005813207634459109 0.005960817424476381 0.005809942800409168 0.00523861876505215 0.005238330637490587 0.005238042509929025
          0.0024716489377630017 0.0026210879916844718 0.0027617954647284515 0.002580481435400359 0.0024723708696831443 0.002621706488666286
          0.002763812442362665 0.002581860058195674 0.0024730928016032877 0.0026223249856481006 0.0027658294199968793 0.002583238680990989
          0.00576836493136973 0.0057672195399502265 0.005766074148530723 0.005205449374452103 0.005206028182942742 0.005206606991433381
          0.005386609493852119 0.0053863713282908295 0.00538613316272954 0.004203499704848043 0.003930553311807156 0.004202168965182917
          0.003929756776198049 0.004200838225517791 0.003928960240588941 0.004946652311945856 0.0048488599001432365 0.004946731004852948
          0.004850104905097485 0.004946809697760041 0.004851349910051733 0.006128925880265467 0.0059998528517171065 0.006125042024892614
          0.00599740397713486 0.006121158169519759 0.005994955102552614 0.005464814715244926 0.005380628638527432 0.005461451217666441
          0.0053778478817218586 0.005458087720087957 0.0053750671249162855 0.005678999532794533 0.005677844585559193 0.005676689638323853
          0.005172562304371958 0.00476473958878236 0.005170908578267013 0.0047642667459978135 0.005169254852162068 0.004763793903213268
          0.005369960563222155 0.005217036693906177 0.005367104869835693 0.005213170667885888 0.005364249176449233 0.005209304641865599
          0.006068104070752798 0.0060649148092694356 0.006061725547786072 0.005999271750882094 0.005998175914408695 0.005997080077935297
          0.005153697486704357 0.005132250462324307 0.005152108228315031 0.005128697224419527 0.005150518969925704 0.005125143986514747
          0.006098086814738241 0.006096044789083409 0.006094002763428576 0.0048824551630025055 0.004883918521710265 0.004885381880418025
          0.006157875224897842 0.006043047880005283 0.006155748764131039 0.006041979230746506 0.006153622303364237 0.0060409105814877295
          0.005821758140399192 0.00560917972938029 0.005820350156881158 0.005607081410113929 0.005818942173363125 0.0056049830908475665
          0.004637814172712848 0.0049061770618102135 0.004929153720610529 0.004635701580198987 0.004904890223686118 0.00492607003032601
          0.004633588987685124 0.004903603385562024 0.004922986340041493 0.0050917267682603125 0.004847021547328256 0.005099443867531938
          0.005379722629245305 0.005088740820781645 0.004842716570304502 0.005095389691445687 0.005376848246299578 0.005085754873302978
          0.004838411593280748 0.005091335515359436 0.005373973863353851 0.003132157138941021 0.0027939852282999568 0.002674235227193282
          0.0029246339429937866 0.003133868037139095 0.002794564070244683 0.002674036899005481 0.002925202095601815 0.003135578935337169
          0.0027951429121894104 0.002673838570817679 0.002925770248209844 0.006130841815138223 0.006126864501350683 0.006122887187563143
          0.004674032969972446 0.004424246382016201 0.0046713458866040215 0.004421837126551387 0.004668658803235597 0.004419427871086571
          0.005869336821731896 0.005783929988828532 0.005867887035250293 0.005782431986771076 0.005866437248768688 0.005780933984713621
          0.004192821894636681 0.00391635743086597 0.004190974365237574 0.003916533427459351 0.004189126835838468 0.00391670942405273
          0.0031965628445551142 0.0034842753268463688 0.0031982495666817365 0.0034858941550592304 0.003199936288808359 0.0034875129832720943
          0.0029093795157976465 0.0027043822986350294 0.0029093934367263644 0.0027041685443633012 0.002909407357655082 0.002703954790091573
          0.006058954148143655 0.006057926021213964 0.0060568978942842746 0.0060176378238357975 0.006016193756353454 0.006014749688871113
          0.0035006709328543814 0.0031168715608468813 0.0029921807493960484 0.003330072776568814 0.0035004482197801092 0.0031180843574277364
          0.0029942444939436786 0.003331301516354435 0.0035002255067058375 0.003119297154008592 0.0029963082384913083 0.003332530256140057
          0.0060086509314171 0.00600938076099989 0.006006460405729115 0.0060077081119425 0.00600426988004113 0.00600603546288511
          0.0022940065294550045 0.0022877781843078423 0.002345502705660171 0.0023278687859842463 0.0022938742433928627 0.002287968175910026
          0.0023456252129797775 0.0023280270267857918 0.002293741957330721 0.00228815816751221 0.002345747720299383 0.0023281852675873372
          0.002496198987720032 0.002331775054650294 0.0024993701509833785 0.0024963603702777924 0.002332586068863724 0.002499475556078456
          0.002496521752835553 0.002333397083077154 0.002499580961173534 0.003577983871158897 0.0035801764335927563 0.0035823689960266156
          0.005812206578276468 0.005621596712711268 0.005809278771710867 0.005618715540704812 0.005806350965145265 0.005615834368698357
          0.0053280719845342946 0.004843258198768466 0.005326420072774096 0.004841796024614511 0.005324768161013897 0.004840333850460557
          0.0037460848539430185 0.0037457153579521785 0.003745345861961339 0.0061485182671993065 0.006146986842782264 0.006145455418365224
          0.004208413046999553 0.004619321576570795 0.004209102142633036 0.004616669324351923 0.0042097912382665185 0.004614017072133054
          0.002400697342899533 0.0023521418635024556 0.0024007241609198546 0.00235258277310262 0.002400750978940176 0.002353023682702784
          0.0024960974937996198 0.002620842904204849 0.0024970897502480677 0.002621935850382461 0.002498082006696516 0.0026230287965600734
          0.0027906147625002646 0.0032013670131399545 0.0030242551639361997 0.0027917387326186973 0.0032015668816825107 0.0030246431813662116
          0.0027928627027371295 0.003201766750225066 0.0030250311987962235 0.00354170839287145 0.0038520466521912208 0.003541152269080995
          0.0038510323997037813 0.003540596145290541 0.0038500181472163426 0.0024949377357554882 0.0025370418440174933 0.002494288792955015
          0.002536455412600409 0.002493639850154542 0.0025358689811833244 0.003464955834510594 0.0032911652652735848 0.003464418297083878
          0.00329045520164331 0.0034638807596571604 0.0032897451380130343 0.002467341992605901 0.0024675388718953997 0.002467735751184898
          0.0038694463724040624 0.0037054254107459854 0.003645139341709691 0.003786099403078609 0.003867091696642861 0.0037041664553654555
          0.0036442083541082184 0.003783343963617501 0.0038647370208816597 0.003702907499984926 0.0036432773665067454 0.0037805885241563933
          0.003415913690116099 0.003472259658273547 0.0034172126945299203 0.003472919285454739 0.0034185116989437414 0.003473578912635932
          0.0024170067215582183 0.0024171369263275744 0.0024172671310969305 0.003496635119874744 0.003496300394147979 0.003495965668421214
          0.0039594388049887085 0.003958634244459487 0.003957829683930266 0.0036839959144896652 0.0036857161042186874 0.00368743629394771
          0.004386099636506349 0.004385122213103479 0.00438414478970061 0.004166076886844526 0.004406639592251593 0.004165487480611607
          0.00440452627739292 0.004164898074378688 0.004402412962534248 0.004529894430796462 0.0045288236423643834 0.0045277528539323045
          0.0043848747913482495 0.004386012146044524 0.0043871495007407986 0.002626107938408442 0.0026257900008418073 0.0026254720632751727
          0.005850840960757889 0.005850175283090596 0.005849509605423302 0.0050072256598142125 0.00486169426971695 0.005005637534916388
          0.004860004473135558 0.005004049410018564 0.004858314676554166 0.005931059939629965 0.0059303201925750455 0.005929580445520127
          0.004710327073514201 0.004708478701505716 0.004706630329497231 0.004617007807092532 0.004614420187841666 0.004611832568590798
          0.004200935937885602 0.004202863194215593 0.004204790450545583 0.00456937941160337 0.004570425394125844 0.00457147137664832
          0.004457702603811039 0.004459146281687856 0.004460589959564672 0.003292657314292358 0.00326247904591928 0.0032924556094937607
          0.0032620191782372146 0.003292253904695163 0.0032615593105551487 0.003822738538781483 0.0035982425819499554 0.003822090875219379
          0.003598106497743889 0.0038214432116572754 0.0035979704135378223 0.004030351873050307 0.00402855192012091 0.004026751967191514
          0.0024039651491996198 0.0024047238573304064 0.002405482565461192 0.005793325725532966 0.005792011764354289 0.00579069780317561
          0.0033622357331307123 0.003590830242621225 0.00336257211890337 0.0035911652241850636 0.0033629085046760275 0.0035915002057489015
          0.0036981436314653914 0.0037968399583554135 0.0037477180800739593 0.0036977479789706805 0.0037966305394570112 0.0037476506959011713
          0.0036973523264759688 0.003796421120558609 0.003747583311728383 0.0037776669548024414 0.0038565689563751543 0.003776975045104531
          0.003855732005286626 0.00377628313540662 0.0038548950541980984 0.0038298570810645803 0.0038286160444593576 0.003827375007854134
          0.0038256612166921826 0.003825140933211387 0.00382462064973059 0.003641853720890387 0.0036411674393982667 0.003640481157906147
          0.00591093224752216 0.005909361615405127 0.005907790983288093 0.0023846235599061794 0.002384690192474037 0.0023847568250418946
          0.002424101341237774 0.0028619853375570947 0.002424287742293834 0.002862640909557899 0.002424474143349894 0.0028632964815587026
          0.005395759057389294 0.005396274463403051 0.005396789869416807 0.00468026203060943 0.004778575899325105 0.005148559501428658
          0.004678743912647908 0.004777080151669223 0.0051477348566951395 0.0046772257946863845 0.0047755844040133395 0.005146910211961623
          0.0031652692597980087 0.0034552424393829145 0.003165569165988333 0.0034558875963141412 0.0031658690721786563 0.003456532753245368
          0.0056425387173354566 0.005366595574316296 0.005642360077038578 0.005367299517063568 0.0056421814367417005 0.005368003459810838
          0.003764199385756458 0.0037648063524831875 0.0037654133192099176 0.0049742465106026 0.004744576619363864 0.004670846953932176
          0.004975409313164664 0.004745034694089066 0.004671381304484519 0.004976572115726729 0.004745492768814267 0.004671915655036861
          0.005263903932825527 0.0052639847410121295 0.005264065549198731 0.005867785060771256 0.005951748109604428 0.0058645438341883415
          0.005947776580257174 0.005861302607605427 0.00594380505090992 0.005198053025847938 0.005145697839988125 0.005198358305711977
          0.005145678502216892 0.005198663585576016 0.005145659164445659 0.0056485166416325155 0.005646670601373194 0.005644824561113872
          0.005590687673938786 0.005590081773014996 0.005589475872091204 0.003471897807181818 0.0034733447062635175 0.0034747916053452167
          0.0033426244547906155 0.0033429801014980822 0.003343335748205549 0.003849937300130561 0.003850416199459957 0.003850895098789353
          0.005009095512185341 0.005009796723912632 0.005010497935639921 0.00437027223297346 0.0045458331403684625 0.0043707349611486635
          0.00454488915069726 0.004371197689323867 0.0045439451610260586 0.0036829769984307935 0.0035554564531375204 0.003684401542698362
          0.00355730152431733 0.00368582608696593 0.0035591465954971403 0.0033285534328965256 0.0033303321265382626 0.00333211082018
          0.003111046661006024 0.003109913671848712 0.003111223476046873 0.0031098251665876665 0.0031114002910877228 0.0031097366613266216
          0.00564708992458663 0.005646310183331725 0.00564553044207682 0.0042664470408873105 0.00438374387757365 0.0042659004588172286
          0.004382971717483149 0.004265353876747147 0.0043821995573926475 0.005767388673637227 0.005652623339950704 0.005765688621100809
          0.00565129711188002 0.005763988568564391 0.005649970883809335 0.0031250822342009056 0.0031248264616401964 0.003124570689079487
          0.00541431257019884 0.005413508003805492 0.005412703437412147 0.003886904256746726 0.003887703511817133 0.00388850276688754
          0.004101744896265962 0.004101803277429847 0.004101861658593732 0.005946998757152757 0.005943659807782295 0.005940320858411831
          0.0058700394144852956 0.005867784727914447 0.005865530041343598
        </DataArray>
        <DataArray type="Float64" Name="pe22" format="ascii" RangeMin="-0.0030775358706918695" RangeMax="-0.0011455923089228872">
          -0.002269824571104772 -0.0024589446367329747 -0.0024492088484464507 -0.002286226273130688 -0.00227006461671716 -0.002459416712000529
          -0.002449715950032293 -0.0022865403989719172 -0.0022703046623295483 -0.002459888787268084 -0.0024502230516181348 -0.0022868545248131466
          -0.0015299837433691338 -0.0013479993843015354 -0.0013861826956650478 -0.0015976280411209483 -0.0015297367586534789 -0.0013477142551631643
          -0.0013859859858118666 -0.0015971947372170263 -0.0015294897739378237 -0.0013474291260247933 -0.001385789275958685 -0.0015967614333131043
          -0.001190386811886626 -0.0011902450225925072 -0.0011901032332983885 -0.0011802955254318881 -0.0011802315250677865 -0.0011801675247036852
          -0.002356455415856932 -0.0022000784111087432 -0.002356879973741665 -0.002200411198504874 -0.002357304531626398 -0.0022007439859010043
          -0.0029569374157022077 -0.0029910328297120593 -0.0029026915007025404 -0.0029040567525252803 -0.0029577574328428667 -0.0029917609554354005
          -0.002903164724361689 -0.0029046479694828354 -0.002958577449983527 -0.0029924890811587417 -0.0029036379480208373 -0.002905239186440391
          -0.0018877176430856033 -0.0020454125150382784 -0.0021804316879067403 -0.0020436502399310496 -0.001887981062896059 -0.002044687002429246
          -0.002180120604538836 -0.002044069484634226 -0.0018882444827065144 -0.0020439614898202134 -0.0021798095211709315 -0.002044488729337402
          -0.0014752726868565054 -0.0016139058050247705 -0.0014753302910515196 -0.0013722241249306496 -0.0014754234453277402 -0.0016141466961999246
          -0.001476311790005381 -0.0013728120810551118 -0.0014755742037989746 -0.001614387587375078 -0.0014772932889592421 -0.001373400037179574
          -0.002915683984606772 -0.002883309120624895 -0.0028075844999613992 -0.0029159261377554105 -0.002883528820539852 -0.0028078612865162812
          -0.0029161682909040498 -0.0028837485204548092 -0.002808138073071163 -0.002722200706864567 -0.0028576768870289724 -0.002846124572835386
          -0.0026492763252475094 -0.002722231204708163 -0.002858216885961322 -0.0028466362835238754 -0.0026495571226260186 -0.002722261702551759
          -0.0028587568848936714 -0.002847147994212365 -0.002649837920004528 -0.002511467093670436 -0.002511722559487713 -0.002511978025304992
          -0.0026116016914166477 -0.0025400605040957138 -0.0026122010235717745 -0.0025405927826045397 -0.002612800355726901 -0.0025411250611133652
          -0.002124964403362248 -0.0023083458750472944 -0.00208583979151534 -0.0021256100579737256 -0.0023083203459949605 -0.002086538879699035
          -0.002126255712585203 -0.002308294816942626 -0.0020872379678827293 -0.0028185582808723858 -0.002731050197727164 -0.0027928437058523208
          -0.0028909731748067097 -0.002819097749572245 -0.0027317146123076383 -0.0027932994100342977 -0.0028916049892133695 -0.0028196372182721055
          -0.0027323790268881133 -0.0027937551142162747 -0.002892236803620029 -0.0024042901592911028 -0.002278965025345783 -0.002309089349445996
          -0.0024052362794603644 -0.002279223656440623 -0.0023096166074586264 -0.002406182399629627 -0.002279482287535463 -0.002310143865471256
          -0.0021758336500361593 -0.002155403293154641 -0.001899403566885961 -0.0021762085215810594 -0.002156000129883506 -0.001901253720771761
          -0.0021765833931259595 -0.0021565969666123706 -0.0019031038746575614 -0.0025543923216906237 -0.0024006833860411043 -0.002428958048701914
          -0.0026247358960325108 -0.0025553700679993175 -0.002401465276483903 -0.0024293630327955496 -0.0026250284090702557 -0.0025563478143080117
          -0.0024022471669267005 -0.0024297680168891855 -0.0026253209221080006 -0.002737586527693786 -0.002591150233675514 -0.0027383162403266585
          -0.0025915267684632967 -0.0027390459529595306 -0.002591903303251081 -0.002899631865697229 -0.0027674330915915535 -0.002785366934048494
          -0.002900044158889137 -0.002767551652294668 -0.0027856687881837217 -0.002900456452081046 -0.0027676702129977825 -0.00278597064231895
          -0.0026812028129049995 -0.0027517891071076627 -0.0028774154491105226 -0.002824382640815578 -0.002681564622905778 -0.0027526215539522294
          -0.0028782022522971774 -0.002824947429027184 -0.0026819264329065572 -0.0027534540007967965 -0.0028789890554838326 -0.00282551221723879
          -0.0017129462362744912 -0.0018582295481419995 -0.0017135283294622584 -0.0018590082269881105 -0.0017141104226500257 -0.0018597869058342219
          -0.0019945446604542807 -0.002151937737121326 -0.001995738181430823 -0.002152384550497572 -0.0019969317024073653 -0.002152831363873818
          -0.0011471659330031744 -0.001169432659278684 -0.0011475080061915752 -0.0011697730405867295 -0.0011478500793799759 -0.0011701134218947752
          -0.0020135428517090784 -0.001886003008074276 -0.002053592412253903 -0.002199390493891843 -0.0020133551537421866 -0.0018858128708924026
          -0.0020537350206670745 -0.00219963580195916 -0.0020131674557752953 -0.0018856227337105292 -0.002053877629080247 -0.0021998811100264774
          -0.0029699867778449182 -0.002861628126290649 -0.0029708672451103538 -0.002862292094057215 -0.0029717477123757893 -0.002862956061823781
          -0.0029895100588481476 -0.0029163262212391515 -0.0029903532294083173 -0.0029167290240276773 -0.002991196399968486 -0.002917131826816203
          -0.003059770448584377 -0.0030071484341084643 -0.003060827576547621 -0.003008215675219417 -0.0030618847045108645 -0.0030092829163303712
          -0.002038520102161207 -0.0020388821251186135 -0.0020392441480760206 -0.0024931372888418123 -0.002493351659122728 -0.002493566029403644
          -0.0027383783886113944 -0.002619804674894807 -0.0026233231023959722 -0.0027551707167690355 -0.0027386884060187477 -0.0026199554916762897
          -0.002623448818794985 -0.002755243912352146 -0.002738998423426101 -0.002620106308457773 -0.0026235745351939972 -0.0027553171079352564
          -0.0029601702965544826 -0.002936592751949116 -0.002976120801426339 -0.002961006135916872 -0.0029372524249737597 -0.002977079413973958
          -0.0029618419752792616 -0.0029379120979984032 -0.002978038026521577 -0.0029337781053804246 -0.002860041059229341 -0.0029345742852249237
          -0.002860861815550928 -0.002935370465069423 -0.0028616825718725167 -0.002635645835917659 -0.0026355888845959376 -0.0026355319332742166
          -0.0012367041599033704 -0.0013085076175308058 -0.0013811664068734317 -0.001293433399988922 -0.0012370374930850603 -0.0013086145258019968
          -0.001381535375075274 -0.0012939841136286275 -0.0012373708262667503 -0.001308721434073188 -0.0013819043432771161 -0.0012945348272683326
          -0.002890263148930117 -0.002890868553055308 -0.002891473957180499 -0.0026238346488461663 -0.002623832470710322 -0.0026238302925744765
          -0.002703861628455091 -0.0027042307744173954 -0.002704599920379701 -0.0021044575834154836 -0.001966022084488773 -0.0021048921826235063
          -0.001966772674749429 -0.002105326781831529 -0.0019675232650100856 -0.0024870366311019803 -0.0024485150991964493 -0.0024874234221685674
          -0.0024484395870652898 -0.0024878102132351544 -0.00244836407493413 -0.0030396106426471454 -0.002974500160048888 -0.0030407479584592203
          -0.0029757561639760007 -0.003041885274271295 -0.0029770121679031135 -0.0027353902682788734 -0.0026967278844584096 -0.002735895374107947
          -0.002697484378229336 -0.002736400479937021 -0.002698240872000263 -0.002835864781239479 -0.0028360753969910836 -0.0028362860127426883
          -0.0025951266149070477 -0.0023933353895792446 -0.0025958994296731526 -0.002393884067942399 -0.0025966722444392566 -0.0023944327463055527
          -0.0026721340476059336 -0.002592241223186112 -0.002672724210133307 -0.002592826041900539 -0.0026733143726606805 -0.002593410860614965
          -0.0030180246681069216 -0.003019186903642388 -0.0030203491391778544 -0.0030055458955069066 -0.0030067258661347967 -0.0030079058367626877
          -0.00255443940240292 -0.002539175247753733 -0.0025553299266689814 -0.002539830191847927 -0.0025562204509350425 -0.002540485135942121
          -0.0030402361336220973 -0.0030412577766240623 -0.0030422794196260272 -0.0024713308463903154 -0.0024713781020492117 -0.0024714253577081072
          -0.003075125666758864 -0.0030288882652962923 -0.0030763307687253676 -0.003029852451143416 -0.0030775358706918695 -0.0030308166369905393
          -0.002895337021726631 -0.0027718275709466187 -0.0028957936895951594 -0.0027721679815434627 -0.0028962503574636884 -0.002772508392140306
          -0.0023153524175470418 -0.002438487369145835 -0.0024410650118909813 -0.002315379149191014 -0.0024391436087891705 -0.002441506095729231
          -0.0023154058808349865 -0.0024397998484325055 -0.002441947179567481 -0.0025215616895581877 -0.002401638449737187 -0.0025133780625082327
          -0.0026537525715449595 -0.0025220417767245914 -0.0024017240879980616 -0.0025138701868147916 -0.0026545718362075157 -0.002522521863890995
          -0.002401809726258937 -0.002514362311121351 -0.0026553911008700727 -0.0015679109569341865 -0.0013951860471283996 -0.0013338975569172542
          -0.0014617337576997907 -0.0015679581876606368 -0.001395126778427918 -0.0013335587118252846 -0.0014615108918679925 -0.0015680054183870873
          -0.001395067509727437 -0.0013332198667333147 -0.001461288026036194 -0.0030399334148277996 -0.0030406649005853647 -0.0030413963863429295
          -0.00231589979209 -0.0021988132671178794 -0.002315795725226805 -0.002198731663278714 -0.0023156916583636105 -0.0021986500594395482
          -0.0029689925813855054 -0.002930549621732052 -0.0029697249627242454 -0.00293156978299442 -0.002970457344062985 -0.0029325899442567884
          -0.002071581740266748 -0.0019426258695337461 -0.002071224684925263 -0.0019427788817434901 -0.002070867629583778 -0.001942931893953234
          -0.0015923194123748535 -0.0017359674054016764 -0.001592390118807335 -0.0017360218690949814 -0.0015924608252398163 -0.0017360763327882863
          -0.0014447042933026903 -0.001345397280455683 -0.0014444504553318203 -0.0013450817683304563 -0.0014441966173609501 -0.0013447662562052294
          -0.0030280456119630974 -0.0030293979150284923 -0.0030307502180938867 -0.003008906749795096 -0.0030097655634794287 -0.0030106243771637607
          -0.001737515412172794 -0.0015466868633635916 -0.0014915600844476915 -0.001658424157394466 -0.001737095230830206 -0.0015464962858030087
          -0.0014916945082881195 -0.001658237005469323 -0.0017366750494876172 -0.001546305708242426 -0.0014918289321285475 -0.0016580498535441798
          -0.0030049395586316135 -0.003015206263305844 -0.0030058521823521605 -0.003016005882053829 -0.0030067648060727076 -0.0030168055008018137
          -0.0011481187205083748 -0.0011455923089228872 -0.0011737073394607622 -0.0011658053998780259 -0.001148084824718192 -0.0011456788409786275
          -0.0011738567170673365 -0.0011659711686449526 -0.001148050928928009 -0.0011457653730343677 -0.001174006094673911 -0.0011661369374118794
          -0.0012426519183998269 -0.0011617922858554344 -0.0012428911892314164 -0.001242442613994462 -0.0011619018259154585 -0.0012427963671273385
          -0.0012422333095890971 -0.0011620113659754825 -0.0012427015450232606 -0.0017779755274484512 -0.0017783039659994252 -0.0017786324045503993
          -0.002912203115231827 -0.002812007343881966 -0.0029129915250512913 -0.002812851532778693 -0.002913779934870754 -0.0028136957216754192
          -0.0026439827106121703 -0.002398485121156385 -0.0026441015418208333 -0.0023986904271064767 -0.0026442203730294963 -0.002398895733056568
          -0.0018594475309101069 -0.001859007523434633 -0.0018585675159591593 -0.003074359588986202 -0.0030757432340743395 -0.003077126879162477
          -0.002099460427004153 -0.002298283670798035 -0.0020995796520632587 -0.0022979486769956585 -0.002099698877122365 -0.0022976136831932823
          -0.0011998952409195665 -0.0011777541034198686 -0.0012000251103029508 -0.0011780613587057355 -0.0012001549796863352 -0.0011783686139916027
          -0.0012538979079047296 -0.0013184873781083315 -0.0012545330930866733 -0.001319226467298904 -0.001255168278268617 -0.0013199655564894764
          -0.0014054348880092964 -0.0016036200653164491 -0.001527225002960334 -0.0014066072801294737 -0.0016050264279780459 -0.0015288050052706542
          -0.001407779672249651 -0.0016064327906396422 -0.0015303850075809747 -0.00176313089355317 -0.001913554979867081 -0.001763582405340946
          -0.001913180989335624 -0.0017640339171287218 -0.001912806998804167 -0.0012427930873766828 -0.0012621288668763274 -0.0012427029851488824
          -0.0012620028189436507 -0.0012426128829210819 -0.0012618767710109741 -0.001732680057454003 -0.00166361832315755 -0.0017342183405876864
          -0.0016653077233150415 -0.0017357566237213699 -0.0016669971234725333 -0.001228734574747574 -0.001228652088823634 -0.001228569602899694
          -0.0019384767809380431 -0.0018538255659431798 -0.0018249731321736498 -0.0018962740654872054 -0.0019391014604202678 -0.0018542633984872919
          -0.001825443768494041 -0.0018969501239149622 -0.001939726139902492 -0.0018547012310314043 -0.0018259144048144316 -0.0018976261823427187
          -0.0017098434189671019 -0.0017378479226516472 -0.0017111239042200358 -0.0017388908908758474 -0.0017124043894729702 -0.0017399338591000475
          -0.0012044028932690258 -0.0012046397313572126 -0.0012048765694453996 -0.0017623438687017468 -0.0017647266632343107 -0.001767109457766874
          -0.0019590105840057844 -0.001958682725130859 -0.001958354866255933 -0.001830458617118328 -0.001830255520877774 -0.0018300524246372203
          -0.0021663590296050316 -0.002166525676694259 -0.0021666923237834866 -0.0020591278768298023 -0.0021773538619110347 -0.0020592679421847938
          -0.0021774899183522513 -0.0020594080075397848 -0.0021776259747934676 -0.002235310134902769 -0.002235964377353981 -0.002236618619805193
          -0.002202794016406222 -0.002203032013468055 -0.0022032700105298875 -0.001302407776692367 -0.0013021708497772651 -0.0013019339228621633
          -0.002967988685391268 -0.0029683658100064375 -0.002968742934621607 -0.0024743343957289226 -0.0024061663275411842 -0.0024750448180764916
          -0.002406693983401376 -0.00247575524042406 -0.002407221639261568 -0.0029926580943218694 -0.00299319797225627 -0.0029937378501906694
          -0.002336252051992864 -0.0023363333872980733 -0.002336414722603283 -0.0022737043216871 -0.0022744420203686016 -0.002275179719050103
          -0.0020960036022684807 -0.0020961719362097685 -0.002096340270151057 -0.0023090103333837787 -0.002308937016475429 -0.0023088636995670796
          -0.0022498475812737463 -0.0022498587974997355 -0.002249870013725724 -0.0016473760690934652 -0.0016323357582230936 -0.0016476955043760659
          -0.0016325560613586337 -0.001648014939658667 -0.0016327763644941736 -0.0019075271438395752 -0.0018080710558331125 -0.001909512097938929
          -0.0018105490570843406 -0.0019114970520382828 -0.0018130270583355686 -0.002016011826568251 -0.0020166174804471366 -0.002017223134326022
          -0.0012049788348083988 -0.0012054731045800903 -0.0012059673743517814 -0.0029290626709501787 -0.0029300589992781105 -0.0029310553276060422
          -0.0016821216514464363 -0.0017972144587407508 -0.0016826633292603363 -0.0017982468126541112 -0.0016832050070742365 -0.0017992791665674718
          -0.0018468548989950648 -0.0018932054585857512 -0.001864233722239375 -0.0018487205162499984 -0.0018948252101499549 -0.00186609870914849
          -0.001850586133504932 -0.0018964449617141586 -0.001867963696057605 -0.0018834585460589266 -0.0019279217110302626 -0.001885696359191248
          -0.0019298263028618796 -0.0018879341723235699 -0.001931730894693496 -0.00191345028619229 -0.0019140954232113915 -0.001914740560230493
          -0.0019073326882195216 -0.001908978712643947 -0.0019106247370683726 -0.0018250197229607184 -0.0018270662297926266 -0.001829112736624535
          -0.002973481563398281 -0.002974332601158154 -0.0029751836389180276 -0.0011905790941764292 -0.0011907682554448632 -0.0011909574167132968
          -0.0012018508963960624 -0.001416509831852172 -0.0012015171069029978 -0.0014162141138936903 -0.0012011833174099334 -0.001415918395935209
          -0.0027230159309329744 -0.0027229957388256267 -0.002722975546718279 -0.0023201336525130603 -0.0023693519403218135 -0.0025417042446074884
          -0.0023206970001190125 -0.0023695134994743587 -0.0025415772872421326 -0.0023212603477249646 -0.002369675058626904 -0.002541450329876776
          -0.0015851116965816335 -0.0017348315990742438 -0.0015850117394368638 -0.0017349825347423593 -0.0015849117822920942 -0.0017351334704104751
          -0.0028677214490027353 -0.0027127430467685735 -0.002868442576883159 -0.0027130918767256794 -0.0028691637047635827 -0.0027134407066827853
          -0.0018948699885309676 -0.0018950760496987827 -0.0018952821108665979 -0.002500875044569188 -0.002375128116319381 -0.0023506337998941075
          -0.0025008629876842213 -0.0023749735907113833 -0.0023505513686687355 -0.0025008509307992543 -0.0023748190651033865 -0.002350468937443363
          -0.0026447228280232432 -0.0026446813106406506 -0.002644639793258057 -0.00291563468987852 -0.0029599578183770268 -0.0029168114716396102
          -0.002961038545247696 -0.0029179882534007004 -0.0029621192721183648 -0.0026056050283292066 -0.002578184972003509 -0.0026058603789783216
          -0.002578222770823757 -0.0026061157296274375 -0.0025782605696440058 -0.002800983210895111 -0.0028013992393427683 -0.0028018152677904253
          -0.0028416646604221257 -0.0028424900670368384 -0.00284331547365155 -0.0017407942760143957 -0.0017408234585666782 -0.0017408526411189609
          -0.001654118423844315 -0.0016535633676094885 -0.001653008311374662 -0.0019124379307699948 -0.0019122086828624516 -0.0019119794349549079
          -0.002510260003456849 -0.0025102219648433584 -0.002510183926229868 -0.002175430737472221 -0.002255761670650255 -0.002176015622630833
          -0.0022566453728638403 -0.0021766005077894445 -0.002257529075077425 -0.0018474822289643441 -0.001782341282331966 -0.00184698322733058
          -0.0017820461723550521 -0.0018464842256968165 -0.0017817510623781383 -0.00166968340757507 -0.00166954174390441 -0.0016694000802337503
          -0.0015560205225845075 -0.0015551225069611388 -0.0015556846084854292 -0.001555010048619787 -0.0015553486943863507 -0.0015548975902784353
          -0.0028720584826210796 -0.002873005585978576 -0.0028739526893360734 -0.0021391960336813974 -0.002187217992975986 -0.0021388855781162884
          -0.0021866610256475135 -0.00213857512255118 -0.002186104058319041 -0.0029096881108152408 -0.002876133507485399 -0.002910295024175254
          -0.002876677951287432 -0.002910901937535267 -0.002877222395089464 -0.0015628614356117767 -0.001562828465299754 -0.0015627954949877314
          -0.0026712494571796506 -0.0026710609319615156 -0.002670872406743381 -0.0019498173590720435 -0.0019494427551299991 -0.0019490681511879545
          -0.0020575806336836223 -0.0020574900377165785 -0.002057399441749535 -0.002969858961931914 -0.0029708193253878403 -0.0029717796888437667
          -0.0029436290887638527 -0.0029444782335846477 -0.0029453273784054426
        </DataArray>
        <DataArray type="Float64" Name="pe33" format="ascii" RangeMin="-0.0030924696320763826" RangeMax="-0.0011421858753849542">
          -0.0022830576398206797 -0.0024872855227654972 -0.0024452139959769293 -0.0022748069482434585 -0.0022811374406257966 -0.002483748895163406
          -0.002442674849923299 -0.002273125626746226 -0.002279217241430914 -0.002480212267561315 -0.0024401357038696687 -0.0022714443052489937
          -0.0015583383539365175 -0.0013739790847327588 -0.001414630387832971 -0.0016310658270213012 -0.0015587575731248991 -0.0013739474311210615
          -0.0014149837010294722 -0.0016315753533779269 -0.0015591767923132807 -0.001373915777509364 -0.0014153370142259733 -0.0016320848797345524
          -0.0012098463699705625 -0.0012106926576773316 -0.0012115389453841007 -0.0011943102885576293 -0.0011952962399067574 -0.001196282191255886
          -0.002339491987248878 -0.0021688916290886783 -0.0023381307731571207 -0.0021680789985343845 -0.0023367695590653637 -0.0021672663679800906
          -0.002959272644311951 -0.0029968823690230224 -0.002912082146426068 -0.0029139557887648045 -0.0029560781325296396 -0.0029942919729834777
          -0.002909476458571665 -0.0029109469012381047 -0.0029528836207473284 -0.002991701576943933 -0.0029068707707172623 -0.0029079380137114054
          -0.0019134099712967674 -0.0020717048443072827 -0.0021854859281938126 -0.00204326379654088 -0.0019122310286524174 -0.002070735247676578
          -0.002184832184226165 -0.0020424573136708897 -0.0019110520860080669 -0.002069765651045873 -0.0021841784402585177 -0.002041650830800899
          -0.001487484869929261 -0.0016311389736018015 -0.0014719510153492553 -0.0013672460595876785 -0.0014884673793496641 -0.0016308873348507503
          -0.0014717887680896849 -0.0013677822652186126 -0.001489449888770067 -0.0016306356960996994 -0.0014716265208301142 -0.001368318470849547
          -0.0028481823252395864 -0.0027928938684643164 -0.0027621315306367643 -0.0028480153172560315 -0.002792996494332658 -0.0027618620418211285
          -0.002847848309272477 -0.002793099120201001 -0.002761592553005493 -0.0028007734351969253 -0.0029464444789498536 -0.0029425961767112286
          -0.0027347538563829684 -0.0027993688497592643 -0.00294393042072633 -0.002939512669787847 -0.0027330771253583235 -0.002797964264321603
          -0.0029414163625028074 -0.0029364291628644667 -0.0027314003943336774 -0.0025751398015139457 -0.002573822871370783 -0.0025725059412276207
          -0.0026079847525290072 -0.002522784865394475 -0.0026042414930258326 -0.002520086053723434 -0.0026004982335226575 -0.002517387242052393
          -0.002139254718800765 -0.0023266410963885165 -0.002103407383840925 -0.002136926331185491 -0.0023242248850888656 -0.0021019193669585537
          -0.002134597943570217 -0.0023218086737892153 -0.0021004313500761827 -0.0028131589050029906 -0.002741532897776281 -0.0027880816575558192
          -0.002872394102024669 -0.002809895393818287 -0.002739376046926501 -0.0027864149133956452 -0.0028697494192741436 -0.002806631882633583
          -0.00273721919607672 -0.002784748169235472 -0.0028671047365236187 -0.002424792790968907 -0.0022723429896626935 -0.0023464316386835383
          -0.002423438861859894 -0.0022714293810254774 -0.0023438934387481837 -0.002422084932750882 -0.002270515772388261 -0.0023413552388128287
          -0.002153850126778398 -0.0021523636834970897 -0.0018972577826853756 -0.0021527119217366417 -0.002149963476897071 -0.0018948624764329569
          -0.0021515737166948865 -0.002147563270297052 -0.0018924671701805388 -0.0025906743070325104 -0.002460723103574513 -0.002486809806960827
          -0.002655857842251241 -0.002588775857438954 -0.002457264758769215 -0.002484363531049658 -0.002653918068272527 -0.0025868774078453972
          -0.0024538064139639163 -0.002481917255138489 -0.0026519782942938126 -0.002829676253889013 -0.0026700897271657404 -0.0028267408026280715
          -0.0026671129947958318 -0.0028238053513671302 -0.002664136262425923 -0.0029015699685170327 -0.0027514002339850984 -0.002776867566709391
          -0.002899429062780345 -0.002750553512393359 -0.0027752390503520685 -0.002897288157043657 -0.0027497067908016193 -0.0027736105339947453
          -0.002667405709447078 -0.002749701148650754 -0.0028759029845104884 -0.0028227104531840953 -0.002665719214003028 -0.0027465961526337303
          -0.00287238552673902 -0.0028201809723382813 -0.0026640327185589786 -0.0027434911566167073 -0.002868868068967551 -0.0028176514914924674
          -0.001706283916436828 -0.0018454713928968806 -0.0017062696978777574 -0.0018450255408442736 -0.0017062554793186872 -0.0018445796887916663
          -0.0020029464782049533 -0.0021603455007856713 -0.0020011460728718076 -0.002158556904110523 -0.001999345667538662 -0.0021567683074353743
          -0.0011447334168331303 -0.0011730728008474544 -0.0011452284001147645 -0.0011736825108099652 -0.0011457233833963988 -0.0011742922207724758
          -0.002005402536759364 -0.0018715629057488743 -0.0020221857436329284 -0.002179208464930988 -0.002006578126017091 -0.0018728572690084925
          -0.0020224182627570997 -0.0021792936043335824 -0.0020077537152748182 -0.0018741516322681104 -0.0020226507818812715 -0.0021793787437361773
          -0.0029329023227469783 -0.002833161509617033 -0.002931382022825082 -0.0028319415083401258 -0.002929861722903186 -0.0028307215070632187
          -0.003045717402516556 -0.002965664549370195 -0.003041740325603828 -0.0029623681868178 -0.0030377632486910987 -0.0029590718242654044
          -0.0030924696320763826 -0.0030463964573898784 -0.0030883006137709217 -0.003041669481559664 -0.0030841315954654594 -0.00303694250572945
          -0.0020096462454769906 -0.0020089499736547886 -0.0020082537018325866 -0.0024450307125192354 -0.0024462068933088672 -0.002447383074098499
          -0.0027206775873421076 -0.002595483090595276 -0.0025865739921403117 -0.0027360656680179866 -0.0027199903213184625 -0.0025959886305257146
          -0.0025873987629704766 -0.0027355956675892716 -0.0027193030552948184 -0.002596494170456154 -0.0025882235338006406 -0.0027351256671605574
          -0.002944707801625509 -0.002920035029066629 -0.002974846816114098 -0.0029414061588484528 -0.0029178838166581083 -0.0029727209071591172
          -0.0029381045160713965 -0.002915732604249588 -0.0029705949982041365 -0.00303615707481253 -0.0029564314092797098 -0.0030308020171097433
          -0.0029523458189081803 -0.0030254469594069573 -0.002948260228536651 -0.002602972929134491 -0.0026027417528946494 -0.002602510576654808
          -0.001234944777859631 -0.0013125803741536656 -0.0013806290578550196 -0.0012870480354114364 -0.0012353333765980838 -0.0013130919628642885
          -0.0013822770672873913 -0.0012878759445670463 -0.0012357219753365363 -0.0013136035515749116 -0.0013839250767197627 -0.0012887038537226561
          -0.0028781017824396123 -0.002876350986894917 -0.0028746001913502223 -0.002581614725605937 -0.0025821957122324204 -0.0025827766988589036
          -0.002682747865397028 -0.002682140553873433 -0.002681533242349839 -0.00209904212143256 -0.001964531227318382 -0.002097276782559411
          -0.0019629841014486183 -0.0020955114436862613 -0.0019614369755788542 -0.002459615680843874 -0.0024003448009467868 -0.00245930758268438
          -0.0024016653180321946 -0.002458999484524886 -0.0024029858351176025 -0.003089315237618322 -0.0030253526916682186 -0.0030842940664333927
          -0.0030216478131588585 -0.0030792728952484636 -0.003017942934649499 -0.0027294244469660512 -0.0026839007540690215 -0.002725555843558493
          -0.002680363503492522 -0.0027216872401509356 -0.0026768262529160225 -0.0028431347515550528 -0.002841769188568108 -0.0028404036255811637
          -0.00257743568946491 -0.0023714041992031155 -0.00257500914859386 -0.0023703826780554146 -0.0025725826077228104 -0.0023693611569077146
          -0.002697826515616221 -0.002624795470720064 -0.0026943806597023866 -0.0026203446259853488 -0.002690934803788552 -0.002615893781250633
          -0.0030500794026458752 -0.0030457279056270467 -0.0030413764086082164 -0.002993725855375187 -0.0029914500482738976 -0.0029891742411726086
          -0.002599258084301438 -0.002593075214570574 -0.0025967783016460494 -0.0025888670325715994 -0.0025942985189906604 -0.002584658850572625
          -0.0030578506811161435 -0.003054787012459346 -0.003051723343802548 -0.002411124316612191 -0.0024125404196610545 -0.002413956522709918
          -0.003082749558138977 -0.003014159614708991 -0.0030794179954056716 -0.003012126779603091 -0.0030760864326723667 -0.00301009394449719
          -0.0029264211186725603 -0.002837352158433671 -0.0029245564672859977 -0.002834913428570465 -0.0029226918158994347 -0.0028324746987072593
          -0.0023224617551658054 -0.002467689692664378 -0.002488088708719548 -0.0023203224310079716 -0.002465746614896948 -0.0024845639345967797
          -0.002318183106850138 -0.0024638035371295176 -0.0024810391604740117 -0.0025701650787021235 -0.0024453830975910695 -0.002586065805023705
          -0.0027259700577003452 -0.0025666990440570536 -0.0024409924823064408 -0.002581519504630895 -0.002722276410092062 -0.0025632330094119827
          -0.002436601867021811 -0.002576973204238085 -0.002718582762483778 -0.0015642461820068341 -0.0013987991811715565 -0.0013403376702760279
          -0.0014629001852939955 -0.0015659098494784575 -0.0013994372918167647 -0.001340478187180196 -0.0014636912037338226 -0.0015675735169500809
          -0.0014000754024619728 -0.0013406187040843642 -0.0014644822221736493 -0.0030909084003104227 -0.0030861996007653172 -0.0030814908012202127
          -0.002358133177882445 -0.002225433114898322 -0.0023555501613772155 -0.0022231054632726715 -0.002352967144871987 -0.002220777811647022
          -0.0029003442403463904 -0.0028533803670964804 -0.002898162072526047 -0.0028508622037766557 -0.0028959799047057026 -0.0028483440404568315
          -0.002121240154369932 -0.0019737315613322236 -0.0021197496803123115 -0.00197375454571586 -0.0021182592062546904 -0.001973777530099496
          -0.001604243432180261 -0.001748307921444692 -0.001605859447874402 -0.0017498722859642496 -0.0016074754635685424 -0.0017514366504838073
          -0.0014646752224949562 -0.001358985018179346 -0.001464942981394544 -0.001359086776032845 -0.0014652107402941318 -0.0013591885338863437
          -0.003030908536180557 -0.0030285281061854714 -0.0030261476761903857 -0.003008731074040702 -0.0030064281928740264 -0.0030041253117073508
          -0.0017631555206815866 -0.0015701846974832902 -0.0015006206649483564 -0.001671648619174347 -0.0017633529889499035 -0.0015715880716247281
          -0.0015025499856555588 -0.0016730645108851121 -0.0017635504572182201 -0.001572991445766166 -0.0015044793063627609 -0.001674480402595877
          -0.0030037113727854853 -0.0029941744976940445 -0.0030006082233769533 -0.0029917022298886708 -0.002997505073968422 -0.002989229962083296
          -0.0011458878089466292 -0.0011421858753849542 -0.0011717953661994091 -0.0011620633861062202 -0.0011457894186746708 -0.0011422893349313983
          -0.0011717684959124404 -0.001162055858140839 -0.001145691028402712 -0.0011423927944778423 -0.001171741625625472 -0.0011620483301754577
          -0.001253547069320205 -0.0011699827687948593 -0.0012564789617519614 -0.0012539177562833302 -0.0011706842429482652 -0.001256679188951117
          -0.0012542884432464555 -0.0011713857171016715 -0.001256879416150273 -0.0018000083437104454 -0.0018018724675933316 -0.0018037365914762172
          -0.00290000346304464 -0.002809589368829301 -0.0028962872466595747 -0.002805864007926119 -0.00289257103027451 -0.0028021386470229366
          -0.002684089273922123 -0.00244477307761208 -0.0026823185309532618 -0.002443105597508034 -0.0026805477879843997 -0.0024414381174039878
          -0.0018866373230329108 -0.001886707834517545 -0.001886778346002179 -0.0030741586782131046 -0.0030712436087079248 -0.003068328539202745
          -0.0021089526199954004 -0.0023210379057727595 -0.002109522490569776 -0.0023187206473562643 -0.002110092361144152 -0.0023164033889397696
          -0.001200802101979966 -0.001174387760082587 -0.0012006990506169034 -0.0011745214143968838 -0.0012005959992538405 -0.0011746550687111806
          -0.0012421995858948897 -0.0013023555260965164 -0.001242556657161394 -0.0013027093830835564 -0.0012429137284278985 -0.0013030632400705964
          -0.0013851798744909678 -0.001597746947823505 -0.0014970301609758653 -0.001385131452489223 -0.0015965404537044644 -0.0014958381760955567
          -0.001385083030487478 -0.0015953339595854237 -0.0014946461912152481 -0.0017785774993182798 -0.0019384916723241392 -0.0017775698637400494
          -0.0019378514103681574 -0.001776562228161819 -0.0019372111484121757 -0.0012521446483788055 -0.0012749129771411657 -0.0012515858078061327
          -0.001274452593656758 -0.0012510269672334597 -0.0012739922101723503 -0.0017322757770565906 -0.001627546942116034 -0.00173019995649619
          -0.0016251474783282671 -0.0017281241359357897 -0.0016227480145405006 -0.0012386074178583266 -0.0012388867830717654 -0.0012391661482852043
          -0.001930969591466019 -0.0018515998448028054 -0.0018201662095360407 -0.001889825337591403 -0.0019279902362225932 -0.0018499030568781636
          -0.001818764585614177 -0.0018863938397025385 -0.0019250108809791672 -0.0018482062689535216 -0.0018173629616923133 -0.0018829623418136737
          -0.0017060702711489966 -0.0017344117356218993 -0.001706088790309884 -0.0017340283945788916 -0.0017061073094707716 -0.001733645053535884
          -0.0012126038282891923 -0.0012124971949703614 -0.0012123905616515304 -0.0017342912511729962 -0.0017315737309136676 -0.0017288562106543392
          -0.002000428220982923 -0.0019999515193286277 -0.0019994748176743325 -0.0018535372973713365 -0.0018554605833409129 -0.0018573838693104897
          -0.002219740606901317 -0.0022185965364092206 -0.0022174524659171243 -0.0021069490100147233 -0.0022292857303405572 -0.0021062195384268134
          -0.0022270363590406682 -0.002105490066838903 -0.0022247869877407792 -0.0022945842958936933 -0.002292859265010403 -0.002291134234127111
          -0.0021820807749420267 -0.0021829801325764686 -0.0021838794902109106 -0.0013237001617160745 -0.001323619151064542 -0.0013235381404130093
          -0.0028828522753666214 -0.0028818094730841577 -0.002880766670801694 -0.0025328912640852894 -0.0024555279421757644 -0.0025305927168398964
          -0.002453310489734181 -0.002528294169594503 -0.002451093037292598 -0.0029384018453080954 -0.0029371222203187766 -0.002935842595329457
          -0.0023740750215213357 -0.0023721453142076417 -0.0023702156068939476 -0.0023433034854054326 -0.002339978167473063 -0.0023366528495406933
          -0.002104932335617121 -0.0021066912580058237 -0.002108450180394527 -0.0022603690782195917 -0.002261488377650416 -0.00226260767708124
          -0.0022078550225372922 -0.0022092874841881205 -0.002210719945838948 -0.0016452812451988922 -0.0016301432876961856 -0.0016447601051176944
          -0.00162946311687858 -0.0016442389650364962 -0.0016287829460609744 -0.0019152113949419069 -0.0017901715261168427 -0.0019125787772804495
          -0.001787557440659548 -0.0019099461596189921 -0.0017849433552022532 -0.002014340046482056 -0.002011934439673774 -0.002009528832865492
          -0.0011989863143912211 -0.0011992507527503154 -0.00119951519110941 -0.002864263054582787 -0.002861952765076178 -0.0028596424755695676
          -0.0016801140816842756 -0.0017936157838804741 -0.0016799087896430332 -0.0017929184115309516 -0.001679703497601791 -0.0017922210391814292
          -0.0018512887324703261 -0.001903634499769662 -0.001883484357834584 -0.0018490274627206813 -0.0019018053293070561 -0.0018815519867526806
          -0.0018467661929710364 -0.0018999761588444498 -0.001879619615670777 -0.0018942084087435144 -0.0019286472453448912 -0.0018912786859132818
          -0.0019259057024247465 -0.0018883489630830493 -0.001923164159504602 -0.00191640679487229 -0.0019145206212479657 -0.0019126344476236411
          -0.001918328528472661 -0.0019161622205674388 -0.0019139959126622168 -0.001816833997929668 -0.0018141012096056397 -0.0018113684212816114
          -0.0029374506841238776 -0.0029350290142469712 -0.002932607344370065 -0.0011940444657297501 -0.001193921937029174 -0.0011937994083285977
          -0.0012222504448417115 -0.0014454755057049227 -0.0012227706353908358 -0.0014464267956642077 -0.0012232908259399602 -0.0014473780856234931
          -0.00267274312645632 -0.0026732787245774235 -0.0026738143226985277 -0.002360128378096369 -0.002409223959003291 -0.002606855256821168
          -0.0023580469125288944 -0.0024075666521948635 -0.0026061575694530078 -0.0023559654469614195 -0.002405909345386436 -0.002605459882084847
          -0.001580157563216375 -0.0017204108403086702 -0.0015805574265514682 -0.001720905061571782 -0.0015809572898865618 -0.0017213992828348933
          -0.002774817268332719 -0.0026538525275477216 -0.002773917500155418 -0.0026542076403378873 -0.002773017731978117 -0.002654562753128054
          -0.0018693293972254896 -0.0018697303027844048 -0.0018701312083433197 -0.0024733714660334126 -0.0023694485030444825 -0.002320213154038069
          -0.002474546325480443 -0.002370061103377681 -0.0023208299358157833 -0.0024757211849274737 -0.00237067370371088 -0.0023214467175934972
          -0.002619181104802284 -0.002619303430371479 -0.0026194257559406732 -0.002952150370892735 -0.0029917902912273996 -0.0029477323625487304
          -0.002986738035009477 -0.0029433143542047253 -0.0029816857787915542 -0.002592447997518731 -0.0025675128679846166 -0.0025924979267336547
          -0.002567455731393135 -0.002592547855948578 -0.0025673985948016526 -0.0028475334307374043 -0.0028452713620304255 -0.0028430092933234468
          -0.0027490230135166598 -0.0027475917059781568 -0.0027461603984396538 -0.0017311035311674216 -0.0017325212476968386 -0.0017339389642262557
          -0.0016885060309463004 -0.0016894167338885936 -0.0016903274368308871 -0.0019374993693605652 -0.0019382075165975047 -0.0019389156638344443
          -0.002498835508728492 -0.002499574759069272 -0.0025003140094100526 -0.002194841495501237 -0.0022900714697182056 -0.0021947193385178296
          -0.0022882437778334193 -0.0021945971815344216 -0.002286416085948633 -0.0018354947694664493 -0.0017731151708055542 -0.001837418315367781
          -0.0017752553519622778 -0.0018393418612691129 -0.0017773955331190016 -0.0016588700253214552 -0.0016607903826338522 -0.001662710739946249
          -0.0015550261384215162 -0.0015547911648875728 -0.0015555388675614437 -0.0015548151179678794 -0.0015560515967013712 -0.001554839071048186
          -0.0027750314419655495 -0.0027733045973531477 -0.0027715777527407464 -0.002127251007205914 -0.002196525884597663 -0.00212701488070094
          -0.0021963106918356347 -0.0021267787541959663 -0.002196095499073606 -0.002857700562821985 -0.0027764898324653033 -0.0028553935969255545
          -0.0027746191605925873 -0.0028530866310291243 -0.0027727484887198712 -0.0015622207985891289 -0.0015619979963404423 -0.001561775194091756
          -0.0027430631130191895 -0.0027424470718439772 -0.002741831030668766 -0.0019370868976746817 -0.0019382607566871338 -0.001939434615699585
          -0.0020441642625823393 -0.002044313239713268 -0.002044462216844197 -0.0029771397952208425 -0.0029728404823944525 -0.002968541169568063
          -0.0029264103257214415 -0.002923306494329798 -0.002920202662938155
        </DataArray>
        <DataArray type="Float64" Name="disp_x" format="ascii" RangeMin="0.00004347320552647259" RangeMax="0.00009860776243282055">
          0.0000793281784308939 0.00007894255097345377 0.0000822915931133432 0.00008346076338115427 0.00007932679970890293 0.00007894066910078537
          0.00008228794501066249 0.00008345771471034375 0.0000793239810452769 0.00007893409427995033 0.0000822772910231251 0.00008344854745425815
          0.00004920828861113704 0.0000470579199061969 0.000046227317764983844 0.00004837698128973734 0.00004921215171752269 0.00004706223914496945
          0.00004623238452053965 0.00004838139400162896 0.000049223840021546225 0.000047075665065612614 0.00004624770948638344 0.00004839541639575736
          0.000044409743684973366 0.00004441437705571783 0.000044428454885893475 0.00004533029494896211 0.000045334767651499506 0.00004534790056772252
          0.00008580390696854582 0.00008695289951129041 0.0000857994635447586 0.00008694873820426144 0.00008578534800029089 0.00008693652068316219
          0.0000766773400079307 0.00007584393124691603 0.00007952748222165403 0.00007946144738347597 0.000076676056788412 0.00007584207417403342
          0.00007952472099225355 0.00007945864742235876 0.00007667229457944699 0.00007583783360765073 0.00007951610727389941 0.00007945031071830312
          0.0000662317038213703 0.00006572389294959303 0.00006807819859381025 0.00006865871482079772 0.00006623379202268004 0.00006572637175583227
          0.00006808030531782484 0.00006866098546160937 0.00006624069167803783 0.00006573452068296822 0.00006808613135105685 0.00006866650891612297
          0.00005939489976476335 0.00006144428913983991 0.00006211467396666241 0.000060047335123272695 0.000059398086008106286 0.00006144743410206698
          0.00006211704054396185 0.00006004918581517083 0.000059408579950338835 0.00006145634333098424 0.00006212473249885847 0.00006005532038408341
          0.00007550854788640386 0.0000747383165913211 0.00007955188461572289 0.00007550676310959843 0.00007473642388023565 0.0000795502469497087
          0.00007550159721041569 0.00007473078033587148 0.00007954701520832202 0.00005802155559596452 0.00006110595454492515 0.00006201757412916118
          0.00005798016575026234 0.00005802562404603898 0.0000611094957387483 0.00006202104546951683 0.000057984290590256237 0.00005803886864012592
          0.00006111866413411274 0.00006203417668025755 0.00005799468179044905 0.000054393735629934205 0.00005439850590453244 0.00005441284573261138
          0.00008103098328634368 0.00008444950285065511 0.000081028151447866 0.00008444505843461775 0.0000810195214087697 0.00008443221258039932
          0.00007427809804755233 0.0000754653666116443 0.00007708455908536299 0.00007427859239612647 0.00007546554871585568 0.0000770843720236605
          0.0000742782095277681 0.00007546512978986852 0.00007708420384381595 0.00007686305104393877 0.00007374344517440904 0.0000712618263840805
          0.00007459055950706557 0.00007686238005036662 0.00007374426141303855 0.0000712625210367185 0.00007459054023828999 0.00007686077941352992
          0.00007374705707238794 0.0000712648564823212 0.00007459140297243808 0.00007044684377299961 0.00007034405968688279 0.00006774510303039975
          0.00007044820674295735 0.00007034616214257016 0.00006774697917050666 0.00007045167140491563 0.00007035260027999652 0.0000677519262454246
          0.000070219740191158 0.00007176439012612242 0.00006975236603592068 0.0000702220274605831 0.000071766061912508 0.00006975397511250838
          0.00007023019697757596 0.00007177170497383684 0.00006975983217446213 0.00007057092329092033 0.00006698769985272367 0.00006512313549377608
          0.0000678997613981421 0.00007057203400938835 0.00006698996253221266 0.00006512608470894513 0.00006790137346983425 0.00007057466166321369
          0.00006699563394888645 0.00006513589902211476 0.00006790592600988102 0.00006126531891429454 0.00005796606817402964 0.00006126882049137082
          0.000057970499848350714 0.00006127855580994755 0.00005798278170539664 0.00007963238916229928 0.00008341501157927049 0.00008298232677742393
          0.00007962959556945066 0.00008341127765764237 0.00008297888070126694 0.00007962084370046386 0.0000834005102068398 0.00008296766029596235
          0.00008509199242306537 0.00008274102761359719 0.0000798807457724251 0.0000818169588202485 0.00008508771222900835 0.00008273740657937906
          0.00007987816365481173 0.00008181371532966812 0.00008507526422251967 0.00008272720418681338 0.0000798699079083996 0.00008180365100141226
          0.0000921061744261652 0.0000898089879585863 0.00009210346082849968 0.0000898055723592809 0.00009209537111258872 0.00008979546012157718
          0.0000800478560085934 0.00008141443522839737 0.0000800478369480831 0.00008141320533831782 0.00008004769937525961 0.0000814086354127387
          0.000050722808960987193 0.000050725734960155716 0.00005072428791450299 0.00005072780646536214 0.00005072789122282611 0.00005073366340277018
          0.00009238655014601203 0.00009300253475394614 0.00009023313736729052 0.00008920114327152324 0.00009238201375854443 0.00009299811501810505
          0.00009022897034304512 0.00008919630407315408 0.00009236956528888188 0.00009298478382208213 0.00009021656033235119 0.00008918104864836723
          0.00007550587142935823 0.00007961284933287172 0.00007550411163484964 0.00007961060344491917 0.00007549921506218303 0.00007960395012133204
          0.00006311234574751425 0.00006029718377973223 0.00006311494607395878 0.00006030087474504506 0.00006312309495093836 0.000060311353996017584
          0.00006569178133065014 0.00006221716364070056 0.00006569224956122851 0.00006221870311627615 0.00006569269971669399 0.00006222442731169926
          0.00008829890947594466 0.00008829496288172211 0.00008828308246932603 0.00009108326231601125 0.00009108158878592573 0.00009107551581648618
          0.00008352886559736855 0.00008734397335166783 0.00008735406319161255 0.00008356087536858501 0.00008352681529840215 0.00008734086476321895
          0.00008735126113883306 0.00008355766026780525 0.0000835195799745921 0.00008733271196625812 0.0000873417918155456 0.0000835481410794569
          0.00007561938366252561 0.00007299719140273157 0.00007226846821724681 0.00007561903414192451 0.00007299769949530598 0.00007226850592898209
          0.00007561808903078752 0.00007299894538151666 0.00007226870042175264 0.00006468732992641182 0.00006458779024868676 0.00006468945686392349
          0.00006458983846427672 0.00006469764087590578 0.00006459705355121185 0.00008652334810408078 0.00008651926905184904 0.0000865058246207024
          0.00005625530914165486 0.00005557679022051425 0.0000575090830706581 0.00005814109461926684 0.000056255897040348 0.000055577887281987256
          0.00005751121951651558 0.00005814255347950345 0.0000562583131330615 0.00005558032170671261 0.00005751798069292278 0.00005814669813478406
          0.00007965528872312041 0.00007965321722161598 0.00007964505605108756 0.00008717850097680381 0.00008717531263335248 0.00008716474505930967
          0.00008365548429178079 0.00008365429991325815 0.00008364958723175602 0.0000847631962069651 0.0000870960189141705 0.00008476066278954342
          0.00008709281325254313 0.00008475242117267367 0.00008708257664487252 0.0000883124025162077 0.00008992454135332301 0.00008830744510252386
          0.00008992092583040926 0.00008829141550168868 0.00008990915920674514 0.00006728335312432038 0.00006800840459982003 0.00006728358066383028
          0.0000680089003299511 0.00006728106915599839 0.00006800853904474553 0.00007915256847934539 0.00008243281621144877 0.00007915109405170897
          0.00008242964660989629 0.00007914579397724504 0.00008242020176187805 0.00006942483582478755 0.00006942595559105182 0.00006942906363697494
          0.0000856728234487806 0.00008792275193266299 0.00008566860501252514 0.00008791774528682331 0.00008565573944236544 0.00008790068659267427
          0.00007615918916243044 0.00007797507754252837 0.00007615961524608533 0.00007797421864843734 0.00007616034505739584 0.00007797059551710873
          0.00006364504983248935 0.00006364526751781841 0.00006364559986060633 0.00007543376877307113 0.00007543180899154345 0.00007542604772945498
          0.00007410723310373583 0.00007600101520768194 0.00007410855172449614 0.00007600153952837503 0.00007411258926644156 0.00007600277875228268
          0.00006729883380718998 0.00006729821764506345 0.00006729507130846088 0.00009072796944972101 0.00009072476154593595 0.00009071484744124158
          0.00007000720138656339 0.000071326215744731 0.00007000626827271925 0.00007132542107073397 0.00007000227510562365 0.00007132167211519999
          0.00006844730616271657 0.00006465676734055752 0.0000684483053062017 0.00006465824835215285 0.00006844975613005573 0.0000646622637602947
          0.00007272149221022223 0.00007321478212612459 0.0000759411992690279 0.00007272306713637624 0.0000732162995411873 0.00007594166812447169
          0.00007272690904092238 0.00007322120258041282 0.00007594246308104626 0.000060315405406964564 0.000057310545395822795 0.000057808608252963655
          0.00006098774660922531 0.00006031861982260321 0.00005731586180354465 0.000057814052116349904 0.000060990581188401466 0.00006032778345823947
          0.00005733129166072795 0.00005782903349184246 0.00006099913775844403 0.000054626075358942314 0.000054337539142690404 0.000051642491279528944
          0.00005205150675078507 0.00005462929862143762 0.00005433939808800269 0.00005164505932101337 0.00005205428041742403 0.0000546384110355933
          0.000054344988245535196 0.000051653365739219145 0.00005206320146034047 0.00006563679752848556 0.00006563870915283122 0.00006564329688844334
          0.00005913896983015325 0.00005631949253368508 0.00005914311219465379 0.000056325732022580424 0.00005915477462440732 0.000056344385615015445
          0.00006932331982591604 0.00006833128142654999 0.00006932184721776157 0.00006833022209382454 0.00006931732136574986 0.00006832711117592549
          0.00005814391012842092 0.00005536465947026635 0.00005814870229034676 0.00005537080224362864 0.0000581624877784012 0.000055389789041726326
          0.0000522158642263965 0.00005488220885469633 0.0000522196893309771 0.00005488736724019331 0.00005223050255702844 0.000054902635350615405
          0.00004975201968638233 0.00004981627787660493 0.00004975562375336158 0.0000498196149488207 0.000049765740959390024 0.00004982935730295571
          0.00007183888779542317 0.00007183853057978466 0.00007183603635515946 0.00007551202218196777 0.00007551080885538683 0.00007550632172609365
          0.00006013635237943136 0.00005882606706503178 0.00005713480385846383 0.000057227197602345436 0.0000601403150531924 0.000058829812779088535
          0.000057137790678639165 0.000057231449519199954 0.00006015249838048569 0.00005884189518062443 0.00005714587481901959 0.00005724433513462248
          0.0000646593101616067 0.00006820731430183742 0.00006465899981588535 0.00006820624389969734 0.00006465865366504153 0.00006820295535619367
          0.00005126899114506809 0.00005099883934461326 0.000052771889380199885 0.00005312109291363723 0.00005126911279736831 0.00005099932970764427
          0.00005277238528523854 0.00005312118143202132 0.00005126937195476232 0.00005100099551645751 0.000052774369124880964 0.00005312069601771093
          0.0000495045708141348 0.00004764776076683249 0.00004792206416482183 0.00004950783769190477 0.00004765079742181765 0.000047925826305816366
          0.00004951674021930051 0.000047660202483841734 0.000047936414421939 0.000052184602938029806 0.00005218981380280745 0.00005220470197797014
          0.00007746388940847219 0.00007995805883559666 0.00007746325723122108 0.00007995624970017088 0.0000774598350008607 0.0000799490803411673
          0.00006477419577170097 0.00006227652323282492 0.00006477660203579755 0.00006228011775339846 0.00006478317915847242 0.00006229033243938039
          0.00005759330274374195 0.00005759857533279288 0.000057614225579590334 0.0000712498931875232 0.00007124915564203257 0.00007124538814665127
          0.000054208052478645934 0.00005550150311462151 0.00005421522409240199 0.00005550830968245774 0.00005423765145733073 0.000055530479099396994
          0.000054529971162825484 0.00005496720838633951 0.000054530919104217824 0.00005496750203319058 0.000054532954385972276 0.000054967589156889945
          0.0000586950987248343 0.00006061906436275322 0.00005869610800070647 0.00006062044920225708 0.00005869858170131393 0.000060623484145459785
          0.00006259433132275885 0.00006427820119502404 0.00006464860756694674 0.00006259645112761799 0.00006428094554459022 0.00006465106201303178
          0.00006260102256376178 0.00006428959139617532 0.00006465799468545205 0.00006373990002359212 0.00006319677771626363 0.00006374318283402081
          0.0000632004033770043 0.00006375218675172279 0.00006321020016153818 0.000053836066284480926 0.00005274247922270705 0.00005383750567506821
          0.0000527446855121763 0.000053841144408929146 0.00005275112182624878 0.00006671267788858963 0.00006682647474215088 0.00006671554116720312
          0.00006682859598736678 0.0000667226447346346 0.00006683502773964274 0.000051084542648064444 0.000051087257526619266 0.00005109511567516452
          0.00008379527631204576 0.00008658754742092473 0.00008656888953278646 0.00008399002372232663 0.00008379489281942542 0.00008658466549969669
          0.00008656560570136665 0.00008398952611515827 0.0000837922578226972 0.00008657606879806271 0.00008655506060877847 0.00008398964887748649
          0.00008900319162932687 0.00008909023646489653 0.00008900167914557487 0.00008908809696178613 0.00008899864815188484 0.00008908049719982407
          0.000051977307951397524 0.00005197948095112218 0.000051986422047377346 0.00006912591831216119 0.0000691274243514299 0.0000691302418120468
          0.00006032989861010374 0.00006033404285303745 0.00006034532188220893 0.00005068673100384155 0.000050691667737666436 0.00005070438020016028
          0.00006096293361852724 0.00006096699483553679 0.00006097795081695774 0.00006296563396905721 0.00006534968341180733 0.00006296959790944033
          0.0000653530958109939 0.00006298103763619823 0.00006536372977104766 0.00006350847851156403 0.00006351260065773421 0.00006352515366478925
          0.00009179250046829364 0.00009178822820553895 0.00009177494125140372 0.00004769396384460108 0.00004769811210056548 0.00004771030899546449
          0.00007202570706147343 0.00007202459517791525 0.00007201822022389724 0.000054661489211029336 0.00005489433477458171 0.000054666518153672226
          0.000054900091380848986 0.00005468132119640682 0.00005491807127276785 0.00007178750265199233 0.00007178631901850021 0.00007177973340680136
          0.00005521804188896494 0.00005522523246512835 0.00005524773426462557 0.00006519315225586691 0.00006519694369747787 0.00006520812508629182
          0.000052938491701105166 0.00005294538057409305 0.00005296482941846061 0.00009417538625419743 0.0000941737857801899 0.0000941670208433262
          0.00009324405155704477 0.00009324155650115374 0.00009323432303051931 0.00009148987579408903 0.00009135430430637016 0.00009148778547436262
          0.00009135339586088019 0.00009148319049160859 0.00009134964900803965 0.00007279119036107245 0.00007147799476322774 0.0000727928707621454
          0.00007147965166516714 0.00007279657107989542 0.00007148487474352193 0.00008398511080428295 0.00008398354113721475 0.00008397945868392526
          0.00005681502535784403 0.00005681598033904553 0.00005681751845240983 0.00006589632424437787 0.00006589562139220065 0.000065894545906153
          0.00009181529377687648 0.00008934184111359873 0.00009181252655308059 0.0000893385183480841 0.0000918049828389297 0.00008932988620807766
          0.0000763787775681031 0.00007708445796502273 0.00007889054013672068 0.00007637946083756666 0.00007708525075884388 0.0000788911055226606
          0.00007638202788203697 0.00007708577755164277 0.00007889292072858657 0.00008141841431079783 0.0000819245107165549 0.0000814185712418193
          0.00008192456490645749 0.0000814205792395204 0.00008192523471799112 0.00008682079485935168 0.00008681827848354582 0.00008680921610304375
          0.00007557932543621512 0.00007557966200762098 0.00007558141381702272 0.00007389729541133506 0.00007389898040980514 0.0000739042065574871
          0.00006535492306242042 0.00006535479753510034 0.00006535338056098284 0.000052309808843191884 0.00005231170523434957 0.00005231697162028629
          0.00004347320552647259 0.000045347728046408816 0.00004347815069413351 0.000045352803128525844 0.000043491917497660096 0.00004536785788107445
          0.00007944680190118079 0.00007944585608249758 0.00007944266528141918 0.000051404718441993415 0.00005123117426478685 0.000054173776952399456
          0.00005141000208657391 0.00005123621345001648 0.000054178813032057506 0.00005142597604803337 0.00005125104263101037 0.00005418949565692119
          0.00009466218286581947 0.00009301558639276035 0.00009465911939286467 0.00009301244766800807 0.00009465022923856685 0.00009300283515062994
          0.00007285237211506425 0.00007617943501230191 0.00007285030306060041 0.00007617798025251082 0.00007284433376515959 0.00007617358819367837
          0.00009143528421609801 0.00009143124621083887 0.00009141902890087002 0.00009116486177765497 0.00009511474806229836 0.00009476450394750824
          0.0000911634905830037 0.00009511370085559594 0.00009476266287493552 0.00009115803671621725 0.00009510941270928954 0.00009475738472781707
          0.00008439334814748234 0.00008439221504584258 0.00008438828571955397 0.000059052283474490114 0.0000602456362932083 0.0000590558245195996
          0.00006024777297743622 0.000059065136146432376 0.000060254160423987485 0.00008741215303254517 0.00008796839534043217 0.00008741037072018868
          0.00008796769385149752 0.00008740374245928176 0.00008796458298376948 0.00005754239359374009 0.00005754642618743481 0.00005756034602415164
          0.00007028357623116286 0.00007028192612562969 0.00007027729714287201 0.00009417770810431969 0.00009417412510995707 0.00009416265929478104
          0.00004749433764334029 0.000047500093435138074 0.0000475175211749226 0.00004976268341567961 0.00004976847680283418 0.00004978576272646886
          0.00009097567447603968 0.00009097407045633338 0.00009096808830875981 0.0000521915832503716 0.00005172302379005613 0.000052197563965003924
          0.000051728899719821476 0.00005221559499545252 0.000051746961263271804 0.0000952707737744794 0.00009486710132574769 0.00009526714242061424
          0.00009486369577172024 0.00009525585793236005 0.00009485178288223954 0.00009639137779807287 0.00009638883035813465 0.00009638138775793398
          0.0000936603303689882 0.00009380594679114097 0.0000936556358371603 0.00009380403974334196 0.00009365038286637578 0.00009379699961921816
          0.00006668993353347934 0.0000666891902666019 0.00006668571225130874 0.00009771673236208451 0.00009860776243282055 0.00009771490702861468
          0.00009860600146244976 0.00009771021203814951 0.000098600269684055 0.00006276399022486953 0.0000636359064202081 0.00006276385950509382
          0.00006363532650787126 0.00006276335346115848 0.00006363357384895649 0.00009404420319116296 0.0000940418962115678 0.00009403330999794897
          0.000056465883530508937 0.00005647034646019358 0.00005648472056331093 0.00009588394852582204 0.00009588081109171408 0.00009587051238016238
          0.00009667557502612737 0.00009667304071903143 0.00009666583544015064 0.00006128093525839517 0.00006128188758181155 0.00006128326284932626
          0.00006210483668286789 0.00006210478266116816 0.0000621045730751822
        </DataArray>
        <DataArray type="Float64" Name="disp_y" format="ascii" RangeMin="-0.00003886712438072597" RangeMax="-0.000011123531599026379">
          -0.0000341026349113496 -0.00003277559623712356 -0.00003135221551647599 -0.00003203737834733555 -0.00003410620751417507 -0.00003277866234539206
          -0.00003135428268423772 -0.00003203943605932709 -0.000034116746093444686 -0.000032788307283978073 -0.00003136151412305325 -0.00003204523843483345
          -0.000028401450758554978 -0.00002766623865834355 -0.0000267268694610468 -0.000027275611443666124 -0.000028403398781713172 -0.00002766757588402612
          -0.000026728315898386858 -0.000027277370386104714 -0.000028409497249013085 -0.00002767168720594792 -0.00002673250325556054 -0.000027282985469853105
          -0.000026201873758521887 -0.00002620309606742791 -0.000026207198206710534 -0.00002705542739554741 -0.00002705648356064272 -0.000027059493977721574
          -0.00002964765168584366 -0.000030239473603319854 -0.00002964917944370417 -0.00003024090927161415 -0.00002965334789829225 -0.00003024480743156579
          -0.000025241307785898633 -0.000023492111072729574 -0.000022717932844176697 -0.000023969485122918752 -0.00002524180950496779 -0.00002349210561274808
          -0.000022717578983090397 -0.00002396934767667402 -0.000025243157833006046 -0.00002349220876872448 -0.000022716715577352527 -0.000023969244444777547
          -0.00003665154958933867 -0.00003558652691632826 -0.00003550835782152564 -0.00003653619600452362 -0.00003665580982461079 -0.00003559074231359661
          -0.00003551266404447361 -0.00003654080542908677 -0.00003666774666552376 -0.00003560388993586875 -0.00003552757446744682 -0.00003655255960838005
          -0.000035505132900810114 -0.000036065249569676416 -0.00003700156390943787 -0.00003631963116062968 -0.00003550820278777151 -0.000036069005824248855
          -0.000037006100294974546 -0.00003632290282849248 -0.00003551739980921005 -0.00003608034637736727 -0.000037020122328936146 -0.00003633304623059013
          -0.000015417891926113043 -0.000013770800891033351 -0.00001494762358642209 -0.000015416059066307607 -0.000013769308166610458 -0.000014945990772980543
          -0.000015410165110519867 -0.000013765048440428238 -0.000014940976434929654 -0.000022976811548817868 -0.000023096493897524685 -0.000024463452579454252
          -0.000024774533932425752 -0.000022978352984475355 -0.000023097506706813683 -0.000024464874830034533 -0.000024775775645448934 -0.000022982004279616556
          -0.000023102555337686095 -0.000024469105121725973 -0.000024780017595135408 -0.000023539110413664776 -0.000023540573518877393 -0.000023543586620741097
          -0.000030545319654547914 -0.000028923786896216343 -0.00003054732228233149 -0.00002892500983443726 -0.00003055329297377732 -0.000028929279504177223
          -0.00003624751828977786 -0.000034890486775696696 -0.00003592351877045409 -0.00003625215830368506 -0.000034894428927115114 -0.000035927827491517145
          -0.00003626502829464216 -0.00003490808948066653 -0.00003594008248404577 -0.000029287508052067328 -0.000030810952660656665 -0.000029980331860319733
          -0.00002860737619351766 -0.0000292891932208607 -0.00003081301331481657 -0.0000299823602180155 -0.000028608975215685453 -0.00002929469069023144
          -0.00003081984183352706 -0.000029988739387823494 -0.00002861390554752564 -0.000034138604665271084 -0.00003530359735963666 -0.00003441579987092825
          -0.000034142449605842986 -0.000035307701813576566 -0.0000344203115453152 -0.00003415373388325525 -0.000035320985660931245 -0.00003443432013218436
          -0.00003609275411194245 -0.00003630212989202573 -0.0000375537744718931 -0.00003609726678819994 -0.000036306622179726855 -0.000037559137061958074
          -0.00003611017657164629 -0.00003631945267100451 -0.00003757495705583195 -0.00003255093780135674 -0.00003334360069060821 -0.00003237836166295371
          -0.000031279942638221857 -0.00003255403390025723 -0.00003334728522685725 -0.00003238145728066502 -0.000031282613654625917 -0.000032563067922699284
          -0.000033357162983226246 -0.000032390602791318406 -0.0000312900389906394 -0.0000263726264436134 -0.000026331023359506016 -0.00002637454064959979
          -0.000026332874534669702 -0.000026378932220056425 -0.000026337275732965857 -0.000020878585531360233 -0.00002069596105838495 -0.000022495761671938005
          -0.000020878078253830772 -0.000020695526138022253 -0.000022495291733570224 -0.000020876161210439524 -0.000020694151177920197 -0.000022493780688304455
          -0.000024414282233313482 -0.000026111990016385323 -0.000025713945833469755 -0.000024154469427597552 -0.000024414039889085172 -0.00002611209253986663
          -0.000025714197544364575 -0.000024154239445521678 -0.00002441345749764723 -0.000026112743119975972 -0.00002571492688226529 -0.000024152941933083467
          -0.0000296654095703424 -0.00003041255456044993 -0.000029665544725636124 -0.00003041301064549264 -0.000029665641534528515 -0.000030413557031914316
          -0.000035560397073390686 -0.000034079820687767965 -0.00003556434963162014 -0.00003408245973339917 -0.00003557562605536638 -0.0000340917908924924
          -0.00003149318484711019 -0.00003132193990241531 -0.000031493294241433876 -0.00003132232872316517 -0.0000314930478305281 -0.00003132330404068504
          -0.000026432590439919244 -0.000027115083253184112 -0.000028520142063197897 -0.00002792857968698875 -0.000026433447083388126 -0.000027115786556115294
          -0.0000285208393754216 -0.000027929716002120552 -0.000026435999152740067 -0.000027117206970990396 -0.000028522421819991655 -0.000027932856050924855
          -0.00001735336579067223 -0.000016949458495013508 -0.000017351722035911258 -0.000016948093181060386 -0.00001734578724870018 -0.000016944083037321145
          -0.00002189574255342837 -0.000021319649770145286 -0.000021896292379656647 -0.000021320810617083375 -0.000021898389555506494 -0.000021324461756329978
          -0.000019994861008367517 -0.000019642825380643226 -0.00001999473989642494 -0.000019643239262409027 -0.000019993632276016174 -0.00001964358394421049
          -0.000030493706549814018 -0.00003049427869661524 -0.000030496619517937107 -0.00001893735315213219 -0.000018937633098896457 -0.000018938606891731284
          -0.00001676860707649751 -0.000016878993422356065 -0.00001880863686058995 -0.000018698542224498943 -0.000016767978233750596 -0.0000168789277761471
          -0.000018808800848915788 -0.00001869824837209427 -0.000016766746854656117 -0.000016879036891742335 -0.000018808986511343234 -0.000018697059183286995
          -0.00002678073701804518 -0.000027645300744200682 -0.00002628662618364077 -0.000026781974704733243 -0.000027646922760807153 -0.00002628793394021892
          -0.00002678526958025965 -0.00002765155211531701 -0.000026292215119042593 -0.0000250453069509627 -0.000026325910009209005 -0.0000250464912057401
          -0.00002632791191137313 -0.000025050370719252743 -0.000026336111953225102 -0.000022648862351538323 -0.000022648768903196332 -0.000022647974224848443
          -0.000034675115376517065 -0.0000339729387160149 -0.000034800942877473525 -0.00003554210532412562 -0.00003467686776991886 -0.0000339746662831518
          -0.000034803201435181285 -0.00003554443370743969 -0.00003468208532206081 -0.00003398018732723843 -0.00003480976468178322 -0.00003555065017255506
          -0.00001888160150219168 -0.000018880814843369698 -0.000018878215574787172 -0.000020779314355699442 -0.00002077936288519545 -0.00002077929862267771
          -0.000014902239632088799 -0.000014901279451133295 -0.000014898032249846055 -0.00003258456901652141 -0.000031891538100800914 -0.00003258607337546458
          -0.000031892482200318214 -0.00003258986138879418 -0.00003189522513611203 -0.000024720041706882347 -0.000022834615417901656 -0.000024719954311937147
          -0.00002283461923153218 -0.000024718972956874955 -0.000022835268031480736 -0.000024156246420398376 -0.00002572118794096296 -0.000024157362450728284
          -0.00002572333344439813 -0.000024159881599107654 -0.000025730150934958826 -0.000029879699445342976 -0.000028266897702403027 -0.00002988139635743865
          -0.00002826802882400395 -0.000029886105274226102 -0.000028271559834239284 -0.000028762944363165243 -0.000028765322826138776 -0.000028771595468261738
          -0.000026535496145469058 -0.000027170281789828107 -0.000026536017781678224 -0.000027171178431236218 -0.00002653692989190768 -0.000027174328613097333
          -0.00003135338568979401 -0.00003192071693931348 -0.00003135572766026903 -0.00003192345954102356 -0.00003136203563294662 -0.00003193109427374142
          -0.00001786487502714072 -0.00001786417815624567 -0.000017861820385080162 -0.000019488456845702578 -0.00001948749093428404 -0.00001948494991331375
          -0.00003267258778877016 -0.00003275895015065287 -0.00003267579869236653 -0.000032762091516851635 -0.00003268519470883413 -0.000032770730667802066
          -0.000017964961742698283 -0.000017964026098424236 -0.000017960544099632256 -0.000020900103447929496 -0.000020901022359793526 -0.00002090379204537849
          -0.000020536488598805855 -0.000017849289036266426 -0.000020535981116477177 -0.000017847873505935773 -0.00002053409182663837 -0.000017843558798920556
          -0.000027336412916935633 -0.000027949495511732672 -0.00002733889032373852 -0.00002795236856152898 -0.000027346188295117415 -0.000027960781339157633
          -0.00003516749923111873 -0.00003394873711106844 -0.00003363934008016177 -0.000035171813298516064 -0.000033952588897781684 -0.00003364318068097555
          -0.00003518351520278186 -0.0000339633179527895 -0.00003365510459006241 -0.000029463481555289336 -0.000028938045419245604 -0.000027745642663587033
          -0.0000279929901266462 -0.000029466800972758407 -0.00002894117373864572 -0.000027748022266923652 -0.00002799545334931377 -0.00002947777850182453
          -0.00002895082592554416 -0.00002775474029892996 -0.000028002199303375216 -0.00003223993717594295 -0.00003286561982894591 -0.00003130005404982479
          -0.000030996093075158535 -0.000032242211223313885 -0.000032867308803602103 -0.00003130120919305567 -0.000030997777170003396 -0.000032248759245542854
          -0.000032872432595261174 -0.00003130486234974201 -0.00003100265297376624 -0.000022810895897835258 -0.000022811994350378124 -0.000022813640283208394
          -0.00003071933814805823 -0.00002988031238983219 -0.00003072314142223421 -0.000029883789307293087 -0.000030734424920628666 -0.000029893975023677228
          -0.000013980366601110398 -0.000012683813397114832 -0.000013978431189203575 -0.000012681699733682588 -0.000013973187878488225 -0.000012675680305607187
          -0.0000317316480061809 -0.00003071055682237917 -0.00003173548944801199 -0.00003071410807176956 -0.000031746778846858945 -0.00003072479046516
          -0.00003036770224314148 -0.000031528158513992636 -0.000030369854012659964 -0.00003153139399556905 -0.000030376086679872012 -0.00003154046214247279
          -0.000029317136852201897 -0.00002987574684125786 -0.000029318993054260205 -0.000029877199959712 -0.000029324372261568084 -0.00002988174977034028
          -0.00002460604048913028 -0.000024607022928652768 -0.000024609047634123457 -0.000021607033753373602 -0.000021606968954326598 -0.000021606606376500586
          -0.00003476366152118044 -0.000034812423105122855 -0.000034083364433624295 -0.00003343066643028137 -0.000034767192269419726 -0.00003481559147813481
          -0.000034086113723934524 -0.000033434008797360435 -0.00003477765447806212 -0.000034824626876056514 -0.00003409446457750411 -0.000033444129018359676
          -0.000016065555834459974 -0.00001604337350494977 -0.00001606423827084517 -0.000016041994210786324 -0.000016059823856367797 -0.00001603752930605283
          -0.00003217105287261552 -0.00003183154037038386 -0.000032840821168889916 -0.000033218054227925596 -0.000032170237161921244 -0.00003183110748400894
          -0.00003284120387905045 -0.00003321802193507094 -0.000032167722392681405 -0.00003182964001444005 -0.00003284222517566006 -0.00003321851158110533
          -0.000030102629310213218 -0.000029048318302114806 -0.00002890859462088856 -0.000030103740691326462 -0.000029048957169376562 -0.000028909692527762865
          -0.000030106968572631244 -0.000029051109370531956 -0.00002891325482603262 -0.000029293816555045475 -0.00002929629473355395 -0.000029303377909293767
          -0.00002719081956011336 -0.000027742667380178478 -0.000027192045685143158 -0.000027743733990748496 -0.000027195156313176 -0.00002774653719305008
          -0.000029928729927890187 -0.000031514265416049324 -0.00002993172410328394 -0.000031517664116599574 -0.000029940278459913786 -0.000031527766489378476
          -0.000032644150931066556 -0.00003264803879797325 -0.00003265962422306831 -0.000022755188547466704 -0.000022755475484303906 -0.00002275627853774296
          -0.000028885256253107653 -0.000028505328706452847 -0.000028888110584491195 -0.00002850845952880298 -0.000028895178838800126 -0.000028518096734674606
          -0.00003380257434920004 -0.00003425632479920647 -0.00003380404899596063 -0.00003425761587995377 -0.000033808408770116306 -0.000034261636827549884
          -0.00003618474417048806 -0.00003704384467416909 -0.00003618721698380151 -0.00003704761182501044 -0.000036194770930612676 -0.00003705846938842177
          -0.00003778488695211861 -0.000037480566103213006 -0.000038357951125281445 -0.00003779027308357959 -0.00003748577844462039 -0.00003836406020849119
          -0.00003780633444385897 -0.000037501391717220305 -0.00003838385563480342 -0.00003646346452192551 -0.000035358629623083 -0.000036467822257718506
          -0.00003536267774949434 -0.00003647971190574474 -0.000035374838124984925 -0.00003318153718002508 -0.00003236384768415311 -0.00003318283880670961
          -0.00003236491909861481 -0.00003318698312959791 -0.000032367358461668514 -0.00003772753188663108 -0.000038725265781368986 -0.00003773310825227468
          -0.00003873176468531815 -0.00003774961872359149 -0.00003875285236220359 -0.00003131552214832411 -0.00003131637383986348 -0.00003131820116640314
          -0.000034407030574219633 -0.000033134741359466185 -0.0000335846983672852 -0.000034829298953330496 -0.00003440949966127317 -0.000033135806048088675
          -0.00003358568667241422 -0.000034830242463160975 -0.0000344155700832166 -0.00003313827963649951 -0.000033589330729569816 -0.000034835429143718236
          -0.000032330631574442705 -0.00003192436426592854 -0.00003233120119724211 -0.000031924778750298386 -0.00003233212560636831 -0.00003192620267179696
          -0.00003205905116342923 -0.00003205984868182541 -0.0000320619180966416 -0.000038838138713201986 -0.00003884525753350385 -0.00003886712438072597
          -0.00003359559362935872 -0.00003359940827301163 -0.000033610696711350435 -0.00002768033280449131 -0.00002768314534894411 -0.000027691157214331573
          -0.00003258827568837692 -0.000032592240510186056 -0.00003260374496481628 -0.00003425403938599113 -0.00003451838912458271 -0.00003425838847270302
          -0.000034522782622727 -0.00003427088412442344 -0.00003453665261637771 -0.00003328667266624619 -0.00003329070512968725 -0.00003330216718132885
          -0.000025076504435015536 -0.000025077358115422608 -0.00002507995941157246 -0.000028432237643990794 -0.00002843372883100904 -0.000028437336235962042
          -0.000014567836335533953 -0.000014566411370910654 -0.000014560919885296788 -0.000024953683017426288 -0.000026371588866192172 -0.000024955591633686162
          -0.000026374213716630204 -0.000024961326961066227 -0.000026382138389888242 -0.000015874788708230857 -0.000015873264332983533 -0.000015868372715295582
          -0.000027639102650311693 -0.000027642462762946077 -0.000027650996386959645 -0.000033718115688910564 -0.00003372224853039737 -0.00003373380510260824
          -0.00002772814784830588 -0.000027731101578544966 -0.0000277405860804393 -0.000020831793647249805 -0.00002083288997034996 -0.00002083633406364852
          -0.00002277175617458831 -0.00002277276104583002 -0.000022775708874664532 -0.000030698074588850805 -0.000031090155351955626 -0.00003069829460875683
          -0.000031089700060137294 -0.00003069918172345127 -0.00003108874016140769 -0.000037530665581464416 -0.00003871432109506622 -0.0000375368449771758
          -0.00003872225253902162 -0.00003755607235318204 -0.000038749004515120514 -0.00003376639522860393 -0.00003376833183063563 -0.000033774203696705633
          -0.000035251036676509166 -0.000035253170173027846 -0.000035259133806235734 -0.000012734839547383947 -0.000012732741387122974 -0.000012726879236137137
          -0.000030161885813234604 -0.00003133384016996691 -0.000030162193786200513 -0.00003133455984462644 -0.000030163898652573463 -0.000031337442058267285
          -0.00003774932135806541 -0.00003695215708934774 -0.000036926954125245444 -0.000037754899415077814 -0.00003695743150706879 -0.000036932066105681027
          -0.00003777712183367641 -0.000036973592168068765 -0.00003694604174038226 -0.00003597496427700346 -0.000035308474762881415 -0.000035979194165663943
          -0.00003531212353181109 -0.00003599727561859273 -0.0000353233409457118 -0.00003250020341980401 -0.00003250109558702618 -0.0000325041544897257
          -0.0000371704802699352 -0.00003717620176768878 -0.00003719149420725486 -0.00003831050059792499 -0.000038317372125426474 -0.00003833821444529621
          -0.000014327373439243445 -0.00001432596716294036 -0.000014320986384872033 -0.000032395016983020815 -0.00003239584697684768 -0.00003239738961562809
          -0.000025307575903470468 -0.000025712127265511416 -0.00002530899269383503 -0.000025713618696221712 -0.000025312953172910993 -0.000025717773604917818
          -0.000012698370188462054 -0.000012696714618919587 -0.00001269214840054374 -0.000023797501871452633 -0.00002249240573819896 -0.000022202950796597093
          -0.00002379930964956565 -0.000022494152485469884 -0.000022204634599842167 -0.000023805866092204065 -0.000022498192665131825 -0.000022209127416293096
          -0.000028264540869440428 -0.000028607258707860997 -0.00002826423338445222 -0.000028607187665116458 -0.00002826315756567412 -0.000028606584902052475
          -0.000012473706824901201 -0.000011211899480216448 -0.00001247184962555754 -0.000011210112631351499 -0.000012466685782366021 -0.00001120442076193328
          -0.000028779143810360572 -0.000028779373551884554 -0.000028780465343283034 -0.00001697839345316941 -0.000016936949046068785 -0.0000189150773986829
          -0.000016978828241714893 -0.00001693760414296246 -0.000018916116926532892 -0.00001697985626230529 -0.000016939202044875708 -0.00001891937917672921
          -0.000013164589213253381 -0.000013163267144906507 -0.000013159132646948464 -0.000019431677296938902 -0.00001782314208193825 -0.000019432734698932348
          -0.000017823106222590614 -0.00001943593328883304 -0.00001782255181156051 -0.00001512914634756804 -0.000013625930377093186 -0.000015128731058829668
          -0.00001362537599690119 -0.000015127554012252143 -0.000013623772866433856 -0.000020934596079059897 -0.00002093597003001432 -0.00002094213512485641
          -0.000011267033321469304 -0.000011264557811540704 -0.000011256439704175719 -0.000027248748256742764 -0.000027249071801454715 -0.000027250031052249024
          -0.000026114892392418802 -0.000026117004018623373 -0.000026122933167858295 -0.000026372920845633718 -0.000026375896358082665 -0.00002638478713223501
          -0.000015182076581439096 -0.000015182255277415363 -0.0000151833259095222 -0.000026427383400359075 -0.00002509685388196568 -0.00002643052271871938
          -0.000025099573496758954 -0.000026441540376122236 -0.000025107387164528988 -0.000025376188663397773 -0.000026169051741587966 -0.000025377643822129152
          -0.000026169652022402253 -0.000025382181286158792 -0.000026172336926317977 -0.000025855739230451536 -0.000025856305422869983 -0.0000258576583796433
          -0.00002984500219677673 -0.000029478850875858234 -0.000029844576183209608 -0.00002947778020082851 -0.00002984097523637207 -0.00002947433832953204
          -0.000011235148142893799 -0.000011232690874885636 -0.00001122486676130869 -0.000020563701971179094 -0.000018693802826196725 -0.000020564917488505503
          -0.000018694991008595845 -0.00002056812382833857 -0.00001869891640145235 -0.000012820811100727253 -0.000011131840489958341 -0.000012819008157483288
          -0.000011129742014113078 -0.00001281386540110238 -0.000011123531599026379 -0.000029036641469721875 -0.000029035700170924443 -0.00002903387411770037
          -0.000021990500739638564 -0.000021992169259676193 -0.00002199663452608019 -0.00002403011101804077 -0.00002403199253612491 -0.000024038057563313273
          -0.000022379274880344988 -0.00002238085282799639 -0.000022385642049292143 -0.000016138719239896926 -0.00001613802392431623 -0.000016134964899289963
          -0.000014470328489749555 -0.000014468778456780954 -0.000014464133185204473
        </DataArray>
        <DataArray type="Float64" Name="disp_z" format="ascii" RangeMin="-0.0000010639464475802776" RangeMax="0">
          0 0 0 0 -4.040705908393315e-7 -4.3550164704414825e-7
          -4.275855633509252e-7 -3.999092496977088e-7 -8.074611801317775e-7 -8.697883616467426e-7 -8.545375015784256e-7 -7.99232383988131e-7
          0 0 0 0 -2.9218797466728147e-7 -2.64833440601214e-7
          -2.710515418784343e-7 -3.0589109817608794e-7 -5.844083935748651e-7 -5.293359913934479e-7 -5.421246426592271e-7 -6.115795119738863e-7
          0 -2.390072179299263e-7 -4.78511411059138e-7 0 -2.3611553192545858e-7 -4.7289807022861106e-7
          0 0 -4.1024690811181996e-7 -3.8447470989477917e-7 -8.199354281320187e-7 -7.68826345372762e-7
          0 0 0 0 -5.053299718122186e-7 -5.099381466690351e-7
          -4.971783604414142e-7 -4.953653914440023e-7 -0.0000010094801170053115 -0.0000010191800257193694 -9.935164556712867e-7 -9.895337222768207e-7
          0 0 0 0 -3.474587709755458e-7 -3.6942725920243124e-7
          -3.842995893946301e-7 -3.596668809649788e-7 -6.942911190599383e-7 -7.388477469773356e-7 -7.687791247252342e-7 -7.192538225065309e-7
          0 0 0 0 -2.8188918084526237e-7 -3.049355393114154e-7
          -2.792320488711666e-7 -2.6243155832620985e-7 -5.640327445624507e-7 -6.096869786520237e-7 -5.583928666046823e-7 -5.25049075124056e-7
          0 0 0 -4.787814061175741e-7 -4.7208742729717857e-7 -4.71692470845385e-7
          -9.579736885217802e-7 -9.445130308180823e-7 -9.433980487088817e-7 0 0 0
          0 -4.816194342638864e-7 -4.986400795456612e-7 -4.963612190957114e-7 -4.680390631638347e-7 -9.631443224875411e-7
          -9.962189280591576e-7 -9.922488005707558e-7 -9.359540404033938e-7 0 -4.454448272172069e-7 -8.906288230443832e-7
          0 0 -4.539740445783128e-7 -4.403963306235306e-7 -9.066914896564526e-7 -8.797309376053789e-7
          0 0 0 -3.8072669896011283e-7 -4.0749448919257054e-7 -3.6958258588875425e-7
          -7.601569449024472e-7 -8.145737336262782e-7 -7.388945487963611e-7 0 0 0
          0 -4.84423098812363e-7 -4.6980153728718525e-7 -4.768582569518277e-7 -4.913947522392179e-7 -9.676464665418407e-7
          -9.391740289050869e-7 -9.533419652927853e-7 -9.820640579642247e-7 0 0 0
          -4.2055028589163423e-7 -3.978016309604099e-7 -4.142995662700099e-7 -8.408145318831138e-7 -7.955967387411745e-7 -8.272537038087744e-7
          0 0 0 -3.751013078161634e-7 -3.8487966395866086e-7 -3.473072845404781e-7
          -7.493027531326919e-7 -7.688242745098852e-7 -6.936660386654508e-7 0 0 0
          0 -4.4749984294293795e-7 -4.328893494393806e-7 -4.335572984617903e-7 -4.603799191425433e-7 -8.945827767986223e-7
          -8.641130285668533e-7 -8.660517787956997e-7 -9.200291919408054e-7 0 0 -4.800845789900448e-7
          -4.6293567849671154e-7 -9.595730522533829e-7 -9.249887239903108e-7 0 0 0
          -4.94660032639625e-7 -4.6973021251457457e-7 -4.734619892166113e-7 -9.884271837864468e-7 -9.393007446382066e-7 -9.463455639800194e-7
          0 0 0 0 -4.5995795919374566e-7 -4.7147950061021135e-7
          -4.925521641038338e-7 -4.814794290117058e-7 -9.192231856036325e-7 -9.420686800852543e-7 -9.838844348043212e-7 -9.624540200577096e-7
          0 0 -3.1687981157064437e-7 -3.3545041944297275e-7 -6.345990573896399e-7 -6.702492747595664e-7
          0 0 -3.5989651401083905e-7 -3.9105484937687017e-7 -7.183827163319109e-7 -7.822527322519886e-7
          0 0 -2.2806918644144987e-7 -2.3242826444416894e-7 -4.5654174622670764e-7 -4.651956515249052e-7
          0 0 0 0 -3.539555514221321e-7 -3.385455540901348e-7
          -3.607504253250311e-7 -3.8067314780980687e-7 -7.080321539034497e-7 -6.776079100601225e-7 -7.215520824084149e-7 -7.617034991963564e-7
          0 0 -4.988719090331448e-7 -4.840089447387276e-7 -9.970220161469896e-7 -9.676455418872388e-7
          0 0 -5.171191554949135e-7 -5.08002236444611e-7 -0.000001032893465381025 -0.0000010151087676777962
          0 0 -5.27701727018309e-7 -5.197968539259294e-7 -0.000001053884942134173 -0.0000010379241916329416
          0 -3.598767389769642e-7 -7.196682389444547e-7 0 -4.2314414762547483e-7 -8.467253650193322e-7
          0 0 0 0 -4.660618027877447e-7 -4.468529672540194e-7
          -4.438811367094581e-7 -4.673787513293226e-7 -9.317263549537667e-7 -8.937829392866962e-7 -8.886117757567401e-7 -9.345999497454153e-7
          0 0 0 -5.00834541574895e-7 -4.949939048868399e-7 -5.050887243331757e-7
          -0.0000010007009814739228 -9.893582244410874e-7 -0.000001009561198771435 0 0 -5.26689886045655e-7
          -5.0437724888478e-7 -0.0000010513103776461996 -0.0000010069019341341491 0 -4.464988233335043e-7 -8.929712775886905e-7
          0 0 0 0 -2.4261406351858734e-7 -2.533994643483842e-7
          -2.6101250768132145e-7 -2.5018984653420474e-7 -4.8541129092412e-7 -5.069660913287621e-7 -5.226656564184985e-7 -5.008043801288e-7
          0 -4.905775832136124e-7 -9.80632705859029e-7 0 -4.4359276203444505e-7 -8.872461480854745e-7
          0 -4.640683273306087e-7 -9.275707826896891e-7 0 0 -3.757115088629983e-7
          -3.584446453942111e-7 -7.505472561061501e-7 -7.175465001994785e-7 0 0 -4.256103504645186e-7
          -4.1004116124131245e-7 -8.510879207662498e-7 -8.209745762987002e-7 0 0 -5.278207436715058e-7
          -5.163705712759468e-7 -0.0000010534780031779499 -0.0000010315375809516343 0 0 -4.714903911852335e-7
          -4.632069204595093e-7 -9.416984774875013e-7 -9.251822967674376e-7 0 -4.850309743452586e-7 -9.69796243071354e-7
          0 0 -4.4960688300367653e-7 -4.166079142877985e-7 -8.979977596796649e-7 -8.330340185521364e-7
          0 0 -4.6676157822403485e-7 -4.5670944088909507e-7 -9.322122085233026e-7 -9.11399314951257e-7
          0 -5.191876509660494e-7 -0.000001036909523693359 0 -5.102381316075109e-7 -0.0000010198012718929546
          0 0 -4.4951234555101017e-7 -4.5158959647788757e-7 -8.985194607947592e-7 -9.016938998051478e-7
          0 -5.169324668900038e-7 -0.0000010332353835943141 0 -4.1702936240103795e-7 -8.34603767455183e-7
          0 0 -5.242086272209277e-7 -5.087160823508524e-7 -0.0000010474033842953493 -0.0000010170554350004877
          0 0 -4.954436797041743e-7 -4.868675030974587e-7 -9.905901231297055e-7 -9.73348620548048e-7
          0 0 0 -4.0927918454195235e-7 -4.27459391097858e-7 -4.3790844140218823e-7
          -8.176929351669416e-7 -8.544009090709351e-7 -8.740301097719484e-7 0 0 0
          0 -4.459136000900299e-7 -4.293936452708648e-7 -4.5069206620492697e-7 -4.7240376116365424e-7 -8.908198782850786e-7
          -8.566715936702899e-7 -8.991549911412764e-7 -9.433547121425942e-7 0 0 0
          0 -2.9099083374757195e-7 -2.684646691318995e-7 -2.584428785318327e-7 -2.775448516237301e-7 -5.828980465872874e-7
          -5.370062756026894e-7 -5.166032152926601e-7 -5.55399194271302e-7 0 -5.329250141916529e-7 -0.0000010639464475802776
          0 0 -4.1282425789213856e-7 -3.960212065264358e-7 -8.24775490799684e-7 -7.906954641743455e-7
          0 0 -4.934654603629571e-7 -4.883648251342026e-7 -9.860971233949747e-7 -9.7589375970531e-7
          0 0 -3.785266082402666e-7 -3.5524071914461755e-7 -7.560105469943646e-7 -7.106465660819187e-7
          0 0 -2.951912192145774e-7 -3.164462208482209e-7 -5.909398066104683e-7 -6.338223347280205e-7
          0 0 -2.790009280418387e-7 -2.61596352846352e-7 -5.581023523854183e-7 -5.229825612635772e-7
          0 -5.126061339175486e-7 -0.000001024677142247098 0 -5.108595807490015e-7 -0.0000010210680295996153
          0 0 0 0 -3.2447731781855254e-7 -2.9334616278690474e-7
          -2.80336175836424e-7 -3.04685689570141e-7 -6.488908063061577e-7 -5.87337931588563e-7 -5.617705926329976e-7 -6.099412636486889e-7
          0 0 -5.089412436655758e-7 -5.087864876934515e-7 -0.0000010172402564106269 -0.000001016731285683992
          0 0 0 0 -2.3172085193097582e-7 -2.2809404736386507e-7
          -2.3289409221230003e-7 -2.3075892902831109e-7 -4.634810292598948e-7 -4.5616565869724074e-7 -4.6593951760478586e-7 -4.614559092386104e-7
          0 0 0 -2.4549661155760265e-7 -2.325033456836405e-7 -2.4715092469676745e-7
          -4.912941432088454e-7 -4.653437915842695e-7 -4.944491172850106e-7 0 -3.2348155339789934e-7 -6.480742490326999e-7
          0 0 -4.970099246709645e-7 -4.834062619380891e-7 -9.925607437276399e-7 -9.6562560686285e-7
          0 0 -4.6145320932410703e-7 -4.246923491394378e-7 -9.223804893664775e-7 -8.49152115993687e-7
          0 -3.4327140167749674e-7 -6.86348125693263e-7 0 -5.168814356336686e-7 -0.0000010333562878917051
          0 0 -3.6945786388001324e-7 -4.0848481612774656e-7 -7.394468954574319e-7 -8.1652535944134e-7
          0 0 -2.3762499511303037e-7 -2.2884034644265165e-7 -4.75139548672996e-7 -4.578213514144963e-7
          0 0 -2.3509788492092994e-7 -2.405542501979243e-7 -4.6997150388273964e-7 -4.811806475788253e-7
          0 0 0 -2.473268395860348e-7 -3.000676592108873e-7 -2.602306096964783e-7
          -4.945838723917962e-7 -5.997376507781895e-7 -5.198214151137399e-7 0 0 -3.243680706201529e-7
          -3.4818100598360174e-7 -6.479877887445225e-7 -6.961349133683639e-7 0 0 -2.4796791611437303e-7
          -2.5199287212349344e-7 -4.954320326353413e-7 -5.038104205428988e-7 0 0 -3.2282150095871955e-7
          -2.775745139713176e-7 -6.450718739936039e-7 -5.536550054907277e-7 0 -2.429941681363813e-7 -4.861697566357488e-7
          0 0 0 0 -3.505425614003255e-7 -3.3842017452867877e-7
          -3.253613529295384e-7 -3.366989708600876e-7 -6.995865210498952e-7 -6.772445101658888e-7 -6.507186938997359e-7 -6.715550597854052e-7
          0 0 -3.0484737374450393e-7 -3.1301232900657774e-7 -6.110387002827278e-7 -6.249786536608949e-7
          0 -2.4035610414904245e-7 -4.805271394270284e-7 0 -2.8940483531414033e-7 -5.778178014215496e-7
          0 -3.601639449494056e-7 -7.201085437837494e-7 0 -3.338323168414006e-7 -6.685504970668174e-7
          0 -3.9034604438472755e-7 -7.80529777294306e-7 0 0 -3.729446500428272e-7
          -3.9516016636512935e-7 -7.45907422317004e-7 -7.893032245724141e-7 0 -4.0168769177858266e-7 -8.028537887773726e-7
          0 -3.799684281418062e-7 -7.60477742993955e-7 0 -2.5787197890439306e-7 -5.155331778558477e-7
          0 -4.896204947989545e-7 -9.790146739740602e-7 0 0 -4.426569161785604e-7
          -4.277296988475666e-7 -8.839963784010966e-7 -8.545410646607506e-7 0 -4.99241602128204e-7 -9.980902100195263e-7
          0 -4.157849353104061e-7 -8.309681723513471e-7 0 -4.144089416412867e-7 -8.277628528967007e-7
          0 -3.637872066440348e-7 -7.289168374737179e-7 0 -3.942311078998681e-7 -7.889662043056926e-7
          0 -3.8609110543787423e-7 -7.727302037906904e-7 0 0 -3.031167121905314e-7
          -3.018735514052347e-7 -6.062996459400128e-7 -6.033926606201114e-7 0 0 -3.52589155707102e-7
          -2.9322157052933863e-7 -7.043929368006658e-7 -5.849936776722998e-7 0 -3.608396564575554e-7 -7.205281813355064e-7
          0 -2.3043364023767435e-7 -4.60861874709884e-7 0 -4.859232940738378e-7 -9.710574423647492e-7
          0 0 -3.099809191554916e-7 -3.25266573522393e-7 -6.205295535553927e-7 -6.503463823020573e-7
          0 0 0 -3.1741675697550876e-7 -3.5228479305521887e-7 -3.244534510493488e-7
          -6.313953256332835e-7 -7.062548345104472e-7 -6.490789865158028e-7 0 0 -3.272948044140821e-7
          -3.544846187236533e-7 -6.51508237965205e-7 -7.098993983865606e-7 0 -3.471798444000616e-7 -6.934582085849261e-7
          0 -3.489775753096543e-7 -6.967148897390468e-7 0 -3.0912077252368765e-7 -6.174567225385359e-7
          0 -4.990628278505747e-7 -9.975541407748893e-7 0 -2.3648179627718736e-7 -4.728979025731595e-7
          0 0 -2.4345906889990775e-7 -2.7325496777686125e-7 -4.869383800556985e-7 -5.469015411299502e-7
          0 -4.5632238935741247e-7 -9.128723157235145e-7 0 0 0
          -4.130955827237409e-7 -4.2493269369164667e-7 -4.459935099670344e-7 -8.252434770621323e-7 -8.491069086918604e-7 -8.925874493196218e-7
          0 0 -2.9558739619513515e-7 -3.137397079797802e-7 -5.90742301469664e-7 -6.279863057035741e-7
          0 0 -4.7403564459350964e-7 -4.5474700857396103e-7 -9.477580748990572e-7 -9.097169126967801e-7
          0 -3.3697622971371957e-7 -6.742039866332948e-7 0 0 0
          -4.261418099914223e-7 -4.1376627888673177e-7 -4.055536600604097e-7 -8.530150476584934e-7 -8.274814026222391e-7 -8.110455340605593e-7
          0 -4.4880403831401145e-7 -8.977093041474479e-7 0 0 -5.014577904316714e-7
          -5.122554682584674e-7 -0.0000010006341354825558 -0.0000010227083175394736 0 0 -4.4773028996904666e-7
          -4.4078071712220993e-7 -8.956498501152243e-7 -8.814646087708646e-7 0 -4.868281929202591e-7 -9.735792449901787e-7
          0 -4.7093038447764274e-7 -9.41187593871276e-7 0 -3.135277832246531e-7 -6.277173207440175e-7
          0 -3.1040170437917177e-7 -6.212268559925989e-7 0 -3.491180699859005e-7 -6.983836933056484e-7
          0 -4.316860098995368e-7 -8.635234218307588e-7 0 0 -3.864903291966458e-7
          -4.025586616173416e-7 -7.730553524640597e-7 -8.043386256983809e-7 0 0 -3.3098053054637186e-7
          -3.18774086359017e-7 -6.630752796292802e-7 -6.383521288570034e-7 0 -3.011600368356535e-7 -6.030122587378376e-7
          0 0 -2.9097771966849324e-7 -2.912358249545394e-7 -5.814622936064208e-7 -5.826664224144763e-7
          0 -4.7478733422317745e-7 -9.490334363459107e-7 0 0 -3.7516774557028274e-7
          -3.894765224490655e-7 -7.500354336746245e-7 -7.787343124842349e-7 0 0 -4.84836775879058e-7
          -4.7566492062860133e-7 -9.690880489525294e-7 -9.506705668210283e-7 0 -2.9073941560057216e-7 -5.809173496336032e-7
          0 -4.574471832182202e-7 -9.139925902869926e-7 0 -3.4619582836974166e-7 -6.926512230752589e-7
          0 -3.686728635132324e-7 -7.372027427224581e-7 0 -5.04793420146946e-7 -0.000001008154846179516
          0 -4.972449596561077e-7 -9.939178382557589e-7
        </DataArray>
      </PointData>
      <CellData>
        <DataArray type="Int32" Name="libmesh_elem_id" format="ascii" RangeMin="1380" RangeMax="3259">
          1380 1381 1412 1413 1414 1415
          1416 1417 1428 1429 1430 1431
          1438 1439 1440 1441 1464 1465
          1472 1473 1480 1481 1484 1485
          1488 1489 1490 1491 1492 1493
          1496 1497 1516 1517 1534 1535
          1538 1539 1544 1545 1548 1549
          1556 1557 1562 1563 1568 1569
          1574 1575 1576 1577 1604 1605
          1610 1611 1620 1621 1626 1627
          1632 1633 1640 1641 1642 1643
          1644 1645 1646 1647 1660 1661
          1664 1665 1666 1667 1668 1669
          1670 1671 1674 1675 1676 1677
          1688 1689 1690 1691 1692 1693
          1694 1695 1706 1707 1716 1717
          1720 1721 1724 1725 1732 1733
          1736 1737 1738 1739 1742 1743
          1744 1745 1756 1757 1758 1759
          1768 1769 1776 1777 1780 1781
          1784 1785 1786 1787 1788 1789
          1792 1793 1796 1797 1800 1801
          1806 1807 1808 1809 1812 1813
          1820 1821 1822 1823 1826 1827
          1842 1843 1844 1845 1860 1861
          1870 1871 1886 1887 1898 1899
          1912 1913 1934 1935 1938 1939
          1940 1941 1954 1955 1958 1959
          1962 1963 1964 1965 1966 1967
          1974 1975 1976 1977 1978 1979
          1980 1981 1984 1985 1990 1991
          1992 1993 1994 1995 2002 2003
          2012 2013 2016 2017 2022 2023
          2032 2033 2034 2035 2036 2037
          2042 2043 2056 2057 2066 2067
          2072 2073 2076 2077 2080 2081
          2086 2087 2090 2091 2094 2095
          2098 2099 2104 2105 2108 2109
          2114 2115 2118 2119 2122 2123
          2142 2143 2152 2153 2156 2157
          2168 2169 2172 2173 2174 2175
          2182 2183 2188 2189 2190 2191
          2192 2193 2194 2195 2198 2199
          2210 2211 2240 2241 2272 2273
          2280 2281 2300 2301 2322 2323
          2326 2327 2338 2339 2376 2377
          2378 2379 2380 2381 2384 2385
          2386 2387 2388 2389 2394 2395
          2428 2429 2438 2439 2446 2447
          2454 2455 2492 2493 2508 2509
          2514 2515 2516 2517 2528 2529
          2536 2537 2538 2539 2544 2545
          2548 2549 2552 2553 2576 2577
          2604 2605 2606 2607 2614 2615
          2618 2619 2626 2627 2630 2631
          2632 2633 2652 2653 2654 2655
          2674 2675 2676 2677 2686 2687
          2692 2693 2698 2699 2706 2707
          2712 2713 2718 2719 2728 2729
          2730 2731 2732 2733 2744 2745
          2752 2753 2758 2759 2770 2771
          2784 2785 2786 2787 2792 2793
          2812 2813 2816 2817 2818 2819
          2820 2821 2842 2843 2856 2857
          2866 2867 2882 2883 2894 2895
          2900 2901 2906 2907 2914 2915
          2942 2943 2970 2971 2976 2977
          2992 2993 3010 3011 3012 3013
          3016 3017 3046 3047 3056 3057
          3058 3059 3070 3071 3078 3079
          3084 3085 3094 3095 3098 3099
          3118 3119 3122 3123 3128 3129
          3134 3135 3152 3153 3180 3181
          3192 3193 3196 3197 3200 3201
          3202 3203 3214 3215 3244 3245
          3248 3249 3258 3259
        </DataArray>
        <DataArray type="Int32" Name="subdomain_id" format="ascii" RangeMin="107" RangeMax="107">
          107 107 107 107 107 107
          107 107 107 107 107 107
          107 107 107 107 107 107
          107 107 107 107 107 107
          107 107 107 107 107 107
          107 107 107 107 107 107
          107 107 107 107 107 107
          107 107 107 107 107 107
          107 107 107 107 107 107
          107 107 107 107 107 107
          107 107 107 107 107 107
          107 107 107 107 107 107
          107 107 107 107 107 107
          107 107 107 107 107 107
          107 107 107 107 107 107
          107 107 107 107 107 107
          107 107 107 107 107 107
          107 107 107 107 107 107
          107 107 107 107 107 107
          107 107 107 107 107 107
          107 107 107 107 107 107
          107 107 107 107 107 107
          107 107 107 107 107 107
          107 107 107 107 107 107
          107 107 107 107 107 107
          107 107 107 107 107 107
          107 107 107 107 107 107
          107 107 107 107 107 107
          107 107 107 107 107 107
          107 107 107 107 107 107
          107 107 107 107 107 107
          107 107 107 107 107 107
          107 107 107 107 107 107
          107 107 107 107 107 107
          107 107 107 107 107 107
          107 107 107 107 107 107
          107 107 107 107 107 107
          107 107 107 107 107 107
          107 107 107 107 107 107
          107 107 107 107 107 107
          107 107 107 107 107 107
          107 107 107 107 107 107
          107 107 107 107 107 107
          107 107 107 107 107 107
          107 107 107 107 107 107
          107 107 107 107 107 107
          107 107 107 107 107 107
          107 107 107 107 107 107
          107 107 107 107 107 107
          107 107 107 107 107 107
          107 107 107 107 107 107
          107 107 107 107 107 107
          107 107 107 107 107 107
          107 107 107 107 107 107
          107 107 107 107 107 107
          107 107 107 107 107 107
          107 107 107 107 107 107
          107 107 107 107 107 107
          107 107 107 107 107 107
          107 107 107 107 107 107
          107 107 107 107 107 107
          107 107 107 107 107 107
          107 107 107 107 107 107
          107 107 107 107 107 107
          107 107 107 107 107 107
          107 107 107 107 107 107
          107 107 107 107 107 107
          107 107 107 107 107 107
          107 107 107 107 107 107
          107 107 107 107 107 107
          107 107 107 107 107 107
          107 107 107 107 107 107
          107 107 107 107 107 107
          107 107 107 107 107 107
          107 107 107 107 107 107
          107 107 107 107
        </DataArray>
        <DataArray type="Int32" Name="processor_id" format="ascii" RangeMin="3" RangeMax="3">
          3 3 3 3 3 3
          3 3 3 3 3 3
          3 3 3 3 3 3
          3 3 3 3 3 3
          3 3 3 3 3 3
          3 3 3 3 3 3
          3 3 3 3 3 3
          3 3 3 3 3 3
          3 3 3 3 3 3
          3 3 3 3 3 3
          3 3 3 3 3 3
          3 3 3 3 3 3
          3 3 3 3 3 3
          3 3 3 3 3 3
          3 3 3 3 3 3
          3 3 3 3 3 3
          3 3 3 3 3 3
          3 3 3 3 3 3
          3 3 3 3 3 3
          3 3 3 3 3 3
          3 3 3 3 3 3
          3 3 3 3 3 3
          3 3 3 3 3 3
          3 3 3 3 3 3
          3 3 3 3 3 3
          3 3 3 3 3 3
          3 3 3 3 3 3
          3 3 3 3 3 3
          3 3 3 3 3 3
          3 3 3 3 3 3
          3 3 3 3 3 3
          3 3 3 3 3 3
          3 3 3 3 3 3
          3 3 3 3 3 3
          3 3 3 3 3 3
          3 3 3 3 3 3
          3 3 3 3 3 3
          3 3 3 3 3 3
          3 3 3 3 3 3
          3 3 3 3 3 3
          3 3 3 3 3 3
          3 3 3 3 3 3
          3 3 3 3 3 3
          3 3 3 3 3 3
          3 3 3 3 3 3
          3 3 3 3 3 3
          3 3 3 3 3 3
          3 3 3 3 3 3
          3 3 3 3 3 3
          3 3 3 3 3 3
          3 3 3 3 3 3
          3 3 3 3 3 3
          3 3 3 3 3 3
          3 3 3 3 3 3
          3 3 3 3 3 3
          3 3 3 3 3 3
          3 3 3 3 3 3
          3 3 3 3 3 3
          3 3 3 3 3 3
          3 3 3 3 3 3
          3 3 3 3 3 3
          3 3 3 3 3 3
          3 3 3 3 3 3
          3 3 3 3 3 3
          3 3 3 3 3 3
          3 3 3 3 3 3
          3 3 3 3 3 3
          3 3 3 3 3 3
          3 3 3 3 3 3
          3 3 3 3 3 3
          3 3 3 3 3 3
          3 3 3 3 3 3
          3 3 3 3 3 3
          3 3 3 3 3 3
          3 3 3 3 3 3
          3 3 3 3
        </DataArray>
      </CellData>
      <Points>
        <DataArray type="Float64" Name="Points" NumberOfComponents="3" format="ascii" RangeMin="0.013166738443807365" RangeMax="0.02374822585851783">
          0.016451229180203 0.011589607556601 0 0.016255198485848 0.011015934042219 0
          0.016728572005863 0.010757201031786 0 0.017039955631379 0.011194422572054 0
          0.016451229180203 0.011589607556601 0.00015 0.016255198485848 0.011015934042219 0.00015
          0.016728572005863 0.010757201031786 0.00015 0.017039955631379 0.011194422572054 0.00015
          0.016451229180203 0.011589607556601 0.0003 0.016255198485848 0.011015934042219 0.0003
          0.016728572005863 0.010757201031786 0.0003 0.017039955631379 0.011194422572054 0.0003
          0.011186406523754 0.0095188731742926 0 0.010689703280164 0.0094649590365737 0
          0.010634679710187 0.008964429555675 0 0.011131650337527 0.0089687060727404 0
          0.011186406523754 0.0095188731742926 0.00015 0.010689703280164 0.0094649590365737 0.00015
          0.010634679710187 0.008964429555675 0.00015 0.011131650337527 0.0089687060727404 0.00015
          0.011186406523754 0.0095188731742926 0.0003 0.010689703280164 0.0094649590365737 0.0003
          0.010634679710187 0.008964429555675 0.0003 0.011131650337527 0.0089687060727404 0.0003
          0.010158980545183 0.0089928081418126 0 0.010158980545183 0.0089928081418126 0.00015
          0.010158980545183 0.0089928081418126 0.0003 0.010234809282542 0.0094751596931164 0
          0.010234809282542 0.0094751596931164 0.00015 0.010234809282542 0.0094751596931164 0.0003
          0.017215305681839 0.010421173498473 0 0.017538322616078 0.010852535251392 0
          0.017215305681839 0.010421173498473 0.00015 0.017538322616078 0.010852535251392 0.00015
          0.017215305681839 0.010421173498473 0.0003 0.017538322616078 0.010852535251392 0.0003
          0.015522227276376 0.0083950727535023 0 0.015339273065407 0.0078314073000753 0
          0.015832583415208 0.0077039482324782 0 0.015871156677641 0.0080932538621961 0
          0.015522227276376 0.0083950727535023 0.00015 0.015339273065407 0.0078314073000753 0.00015
          0.015832583415208 0.0077039482324782 0.00015 0.015871156677641 0.0080932538621961 0.00015
          0.015522227276376 0.0083950727535023 0.0003 0.015339273065407 0.0078314073000753 0.0003
          0.015832583415208 0.0077039482324782 0.0003 0.015871156677641 0.0080932538621961 0.0003
          0.014182404182597 0.012030933394166 0 0.014112697634716 0.011586899500601 0
          0.01453762000082 0.011541498939039 0 0.014647727851392 0.011956202120878 0
          0.014182404182597 0.012030933394166 0.00015 0.014112697634716 0.011586899500601 0.00015
          0.01453762000082 0.011541498939039 0.00015 0.014647727851392 0.011956202120878 0.00015
          0.014182404182597 0.012030933394166 0.0003 0.014112697634716 0.011586899500601 0.0003
          0.01453762000082 0.011541498939039 0.0003 0.014647727851392 0.011956202120878 0.0003
          0.012718807262617 0.012100913225318 0 0.01318790653826 0.012081424726463 0
          0.013223560157694 0.012548837560718 0 0.012721969255655 0.012547975923311 0
          0.012718807262617 0.012100913225318 0.00015 0.01318790653826 0.012081424726463 0.00015
          0.013223560157694 0.012548837560718 0.00015 0.012721969255655 0.012547975923311 0.00015
          0.012718807262617 0.012100913225318 0.0003 0.01318790653826 0.012081424726463 0.0003
          0.013223560157694 0.012548837560718 0.0003 0.012721969255655 0.012547975923311 0.0003
          0.015037276113604 0.0053883886132418 0 0.014872829902632 0.0048660088618751 0
          0.015610482342583 0.0052949834846695 0 0.015037276113604 0.0053883886132418 0.00015
          0.014872829902632 0.0048660088618751 0.00015 0.015610482342583 0.0052949834846695 0.00015
          0.015037276113604 0.0053883886132418 0.0003 0.014872829902632 0.0048660088618751 0.0003
          0.015610482342583 0.0052949834846695 0.0003 0.012853333735139 0.0071862564407273 0
          0.013298874998351 0.0073010052974168 0 0.013468505581478 0.0077481198485017 0
          0.012879769579272 0.0077824950988095 0 0.012853333735139 0.0071862564407273 0.00015
          0.013298874998351 0.0073010052974168 0.00015 0.013468505581478 0.0077481198485017 0.00015
          0.012879769579272 0.0077824950988095 0.00015 0.012853333735139 0.0071862564407273 0.0003
          0.013298874998351 0.0073010052974168 0.0003 0.013468505581478 0.0077481198485017 0.0003
          0.012879769579272 0.0077824950988095 0.0003 0.012310751390795 0.0073009210446318 0
          0.012310751390795 0.0073009210446318 0.00015 0.012310751390795 0.0073009210446318 0.0003
          0.016440539131042 0.010340248821358 0 0.016895401758078 0.0099970418145034 0
          0.016440539131042 0.010340248821358 0.00015 0.016895401758078 0.0099970418145034 0.00015
          0.016440539131042 0.010340248821358 0.0003 0.016895401758078 0.0099970418145034 0.0003
          0.015674284513358 0.012057735082989 0 0.015799992883172 0.011590312491375 0
          0.01620648935985 0.012173309797103 0 0.015674284513358 0.012057735082989 0.00015
          0.015799992883172 0.011590312491375 0.00015 0.01620648935985 0.012173309797103 0.00015
          0.015674284513358 0.012057735082989 0.0003 0.015799992883172 0.011590312491375 0.0003
          0.01620648935985 0.012173309797103 0.0003 0.015719396244314 0.0096761034796614 0
          0.015317179218416 0.010039615829248 0 0.014916285335657 0.0096823062625427 0
          0.015356151892906 0.0093633130446295 0 0.015719396244314 0.0096761034796614 0.00015
          0.015317179218416 0.010039615829248 0.00015 0.014916285335657 0.0096823062625427 0.00015
          0.015356151892906 0.0093633130446295 0.00015 0.015719396244314 0.0096761034796614 0.0003
          0.015317179218416 0.010039615829248 0.0003 0.014916285335657 0.0096823062625427 0.0003
          0.015356151892906 0.0093633130446295 0.0003 0.014911939516014 0.011080222539295 0
          0.01492908374418 0.011511002202991 0 0.014470673144967 0.011122308960465 0
          0.014911939516014 0.011080222539295 0.00015 0.01492908374418 0.011511002202991 0.00015
          0.014470673144967 0.011122308960465 0.00015 0.014911939516014 0.011080222539295 0.0003
          0.01492908374418 0.011511002202991 0.0003 0.014470673144967 0.011122308960465 0.0003
          0.014927498433442 0.011816834084778 0 0.015214955739546 0.01195124117686 0
          0.014868481741766 0.012398226678167 0 0.014927498433442 0.011816834084778 0.00015
          0.015214955739546 0.01195124117686 0.00015 0.014868481741766 0.012398226678167 0.00015
          0.014927498433442 0.011816834084778 0.0003 0.015214955739546 0.01195124117686 0.0003
          0.014868481741766 0.012398226678167 0.0003 0.014887382940214 0.010512753679506 0
          0.01433465747601 0.010724165901292 0 0.014030150330029 0.010370439204794 0
          0.01444626395613 0.010022024912649 0 0.014887382940214 0.010512753679506 0.00015
          0.01433465747601 0.010724165901292 0.00015 0.014030150330029 0.010370439204794 0.00015
          0.01444626395613 0.010022024912649 0.00015 0.014887382940214 0.010512753679506 0.0003
          0.01433465747601 0.010724165901292 0.0003 0.014030150330029 0.010370439204794 0.0003
          0.01444626395613 0.010022024912649 0.0003 0.013388886812482 0.0083497293814167 0
          0.012899574253998 0.0083038014764745 0 0.013388886812482 0.0083497293814167 0.00015
          0.012899574253998 0.0083038014764745 0.00015 0.013388886812482 0.0083497293814167 0.0003
          0.012899574253998 0.0083038014764745 0.0003 0.015784016264429 0.0071345425111119 0
          0.016328429431772 0.0071626451349231 0 0.016328043288569 0.0077322573762078 0
          0.015784016264429 0.0071345425111119 0.00015 0.016328429431772 0.0071626451349231 0.00015
          0.016328043288569 0.0077322573762078 0.00015 0.015784016264429 0.0071345425111119 0.0003
          0.016328429431772 0.0071626451349231 0.0003 0.016328043288569 0.0077322573762078 0.0003
          0.016727166785252 0.0084386331054829 0 0.01644772366367 0.0089064975551763 0
          0.016002189190704 0.0086574712541786 0 0.016221340977963 0.0082297464535469 0
          0.016727166785252 0.0084386331054829 0.00015 0.01644772366367 0.0089064975551763 0.00015
          0.016002189190704 0.0086574712541786 0.00015 0.016221340977963 0.0082297464535469 0.00015
          0.016727166785252 0.0084386331054829 0.0003 0.01644772366367 0.0089064975551763 0.0003
          0.016002189190704 0.0086574712541786 0.0003 0.016221340977963 0.0082297464535469 0.0003
          0.018901908985383 0.011783468628847 0 0.018328257152057 0.011560564570719 0
          0.018901908985383 0.011783468628847 0.00015 0.018328257152057 0.011560564570719 0.00015
          0.018901908985383 0.011783468628847 0.0003 0.018328257152057 0.011560564570719 0.0003
          0.016817438697449 0.012401495631919 0 0.016895899239308 0.011880939878953 0
          0.016817438697449 0.012401495631919 0.00015 0.016895899239308 0.011880939878953 0.00015
          0.016817438697449 0.012401495631919 0.0003 0.016895899239308 0.011880939878953 0.0003
          0.010475172867508 0.012102844227475 0 0.010669582432454 0.011743114144408 0
          0.010475172867508 0.012102844227475 0.00015 0.010669582432454 0.011743114144408 0.00015
          0.010475172867508 0.012102844227475 0.0003 0.010669582432454 0.011743114144408 0.0003
          0.018198082784875 0.0097658337520035 0 0.018455934862008 0.010221918525687 0
          0.018019877493881 0.01050989807829 0 0.017698489924893 0.010066971919266 0
          0.018198082784875 0.0097658337520035 0.00015 0.018455934862008 0.010221918525687 0.00015
          0.018019877493881 0.01050989807829 0.00015 0.017698489924893 0.010066971919266 0.00015
          0.018198082784875 0.0097658337520035 0.0003 0.018455934862008 0.010221918525687 0.0003
          0.018019877493881 0.01050989807829 0.0003 0.017698489924893 0.010066971919266 0.0003
          0.015096658749896 0.0059763609132825 0 0.015666288430535 0.0059190759170471 0
          0.015096658749896 0.0059763609132825 0.00015 0.015666288430535 0.0059190759170471 0.00015
          0.015096658749896 0.0059763609132825 0.0003 0.015666288430535 0.0059190759170471 0.0003
          0.013546901289865 0.0069836782833127 0 0.013134929749538 0.0067248500217048 0
          0.013546901289865 0.0069836782833127 0.00015 0.013134929749538 0.0067248500217048 0.00015
          0.013546901289865 0.0069836782833127 0.0003 0.013134929749538 0.0067248500217048 0.0003
          0.013831418153218 0.0064982603089606 0 0.013338214474932 0.0062766362868091 0
          0.013831418153218 0.0064982603089606 0.00015 0.013338214474932 0.0062766362868091 0.00015
          0.013831418153218 0.0064982603089606 0.0003 0.013338214474932 0.0062766362868091 0.0003
          0.017908784385217 0.011229685010797 0 0.017908784385217 0.011229685010797 0.00015
          0.017908784385217 0.011229685010797 0.0003 0.017460830811305 0.0067242961174433 0
          0.017460830811305 0.0067242961174433 0.00015 0.017460830811305 0.0067242961174433 0.0003
          0.016232724398465 0.0059010997942707 0 0.016810957053741 0.0059693958220605 0
          0.016865945400018 0.0066157033945985 0 0.016287343165999 0.0065221003589061 0
          0.016232724398465 0.0059010997942707 0.00015 0.016810957053741 0.0059693958220605 0.00015
          0.016865945400018 0.0066157033945985 0.00015 0.016287343165999 0.0065221003589061 0.00015
          0.016232724398465 0.0059010997942707 0.0003 0.016810957053741 0.0059693958220605 0.0003
          0.016865945400018 0.0066157033945985 0.0003 0.016287343165999 0.0065221003589061 0.0003
          0.015434451036398 0.0088351663483508 0 0.015091649000167 0.0090065479673052 0
          0.0149386527618 0.008562942865766 0 0.015434451036398 0.0088351663483508 0.00015
          0.015091649000167 0.0090065479673052 0.00015 0.0149386527618 0.008562942865766 0.00015
          0.015434451036398 0.0088351663483508 0.0003 0.015091649000167 0.0090065479673052 0.0003
          0.0149386527618 0.008562942865766 0.0003 0.013851103268646 0.0079817773379183 0
          0.013864053371773 0.0083733293390323 0 0.013851103268646 0.0079817773379183 0.00015
          0.013864053371773 0.0083733293390323 0.00015 0.013851103268646 0.0079817773379183 0.0003
          0.013864053371773 0.0083733293390323 0.0003 0.016873832756735 0.0078915607150548 0
          0.016873832756735 0.0078915607150548 0.00015 0.016873832756735 0.0078915607150548 0.0003
          0.011740832768399 0.012550565772382 0 0.011781425344485 0.012080160842703 0
          0.012267797740114 0.012087686226532 0 0.012238354096222 0.012547223275944 0
          0.011740832768399 0.012550565772382 0.00015 0.011781425344485 0.012080160842703 0.00015
          0.012267797740114 0.012087686226532 0.00015 0.012238354096222 0.012547223275944 0.00015
          0.011740832768399 0.012550565772382 0.0003 0.011781425344485 0.012080160842703 0.0003
          0.012267797740114 0.012087686226532 0.0003 0.012238354096222 0.012547223275944 0.0003
          0.015724816214821 0.0065169349202822 0 0.015724816214821 0.0065169349202822 0.00015
          0.015724816214821 0.0065169349202822 0.0003 0.016904663245172 0.0072759580116152 0
          0.016904663245172 0.0072759580116152 0.00015 0.016904663245172 0.0072759580116152 0.0003
          0.016212759806586 0.0053000490100875 0 0.016212759806586 0.0053000490100875 0.00015
          0.016212759806586 0.0053000490100875 0.0003 0.017422284858474 0.011679101640391 0
          0.017908527792884 0.011814582379248 0 0.017422284858474 0.011679101640391 0.00015
          0.017908527792884 0.011814582379248 0.00015 0.017422284858474 0.011679101640391 0.0003
          0.017908527792884 0.011814582379248 0.0003 0.017261702763099 0.0086939606584207 0
          0.017434489396122 0.0080779876667089 0 0.017261702763099 0.0086939606584207 0.00015
          0.017434489396122 0.0080779876667089 0.00015 0.017261702763099 0.0086939606584207 0.0003
          0.017434489396122 0.0080779876667089 0.0003 0.014181033506022 0.0077713348891544 0
          0.014325604474543 0.0082610969383043 0 0.014181033506022 0.0077713348891544 0.00015
          0.014325604474543 0.0082610969383043 0.00015 0.014181033506022 0.0077713348891544 0.0003
          0.014325604474543 0.0082610969383043 0.0003 0.016099115219063 0.0099899847281115 0
          0.016520689982407 0.0096278486407962 0 0.016099115219063 0.0099899847281115 0.00015
          0.016520689982407 0.0096278486407962 0.00015 0.016099115219063 0.0099899847281115 0.0003
          0.016520689982407 0.0096278486407962 0.0003 0.014613026918956 0.0092413149543641 0
          0.014613026918956 0.0092413149543641 0.00015 0.014613026918956 0.0092413149543641 0.0003
          0.016937453954769 0.0092095292918499 0 0.017364558514239 0.0096012653805297 0
          0.016937453954769 0.0092095292918499 0.00015 0.017364558514239 0.0096012653805297 0.00015
          0.016937453954769 0.0092095292918499 0.0003 0.017364558514239 0.0096012653805297 0.0003
          0.015712843676617 0.010331364913168 0 0.016032046384524 0.010629553115583 0
          0.015712843676617 0.010331364913168 0.00015 0.016032046384524 0.010629553115583 0.00015
          0.015712843676617 0.010331364913168 0.0003 0.016032046384524 0.010629553115583 0.0003
          0.01346343572409 0.0057857389411653 0 0.01346343572409 0.0057857389411653 0.00015
          0.01346343572409 0.0057857389411653 0.0003 0.015150761096164 0.0066142159223768 0
          0.015150761096164 0.0066142159223768 0.00015 0.015150761096164 0.0066142159223768 0.0003
          0.015453261139866 0.010697023165802 0 0.015761290368715 0.010819971207646 0
          0.015453261139866 0.010697023165802 0.00015 0.015761290368715 0.010819971207646 0.00015
          0.015453261139866 0.010697023165802 0.0003 0.015761290368715 0.010819971207646 0.0003
          0.013975551316416 0.0059398855735222 0 0.013975551316416 0.0059398855735222 0.00015
          0.013975551316416 0.0059398855735222 0.0003 0.017479032913359 0.0074088673936633 0
          0.017479032913359 0.0074088673936633 0.00015 0.017479032913359 0.0074088673936633 0.0003
          0.014439802315681 0.0067889662935499 0 0.014530319307898 0.006021518089632 0
          0.014439802315681 0.0067889662935499 0.00015 0.014530319307898 0.006021518089632 0.00015
          0.014439802315681 0.0067889662935499 0.0003 0.014530319307898 0.006021518089632 0.0003
          0.014431521900925 0.0087663339265048 0 0.013899975831329 0.0088854517032459 0
          0.014431521900925 0.0087663339265048 0.00015 0.013899975831329 0.0088854517032459 0.00015
          0.014431521900925 0.0087663339265048 0.0003 0.013899975831329 0.0088854517032459 0.0003
          0.015334349753872 0.011547922560075 0 0.015363465895193 0.011114260619116 0
          0.015801980011793 0.011137474992711 0 0.015334349753872 0.011547922560075 0.00015
          0.015363465895193 0.011114260619116 0.00015 0.015801980011793 0.011137474992711 0.00015
          0.015334349753872 0.011547922560075 0.0003 0.015363465895193 0.011114260619116 0.0003
          0.015801980011793 0.011137474992711 0.0003 0.01326617738197 0.0093680808515997 0
          0.012793423392144 0.00921210926252 0 0.012882512800283 0.0087881474090036 0
          0.013365259810227 0.0088714473068585 0 0.01326617738197 0.0093680808515997 0.00015
          0.012793423392144 0.00921210926252 0.00015 0.012882512800283 0.0087881474090036 0.00015
          0.013365259810227 0.0088714473068585 0.00015 0.01326617738197 0.0093680808515997 0.0003
          0.012793423392144 0.00921210926252 0.0003 0.012882512800283 0.0087881474090036 0.0003
          0.013365259810227 0.0088714473068585 0.0003 0.011993243876189 0.010936510200926 0
          0.011726815341297 0.011491075647124 0 0.011222013645511 0.011097826594996 0
          0.011481744371717 0.010688234667639 0 0.011993243876189 0.010936510200926 0.00015
          0.011726815341297 0.011491075647124 0.00015 0.011222013645511 0.011097826594996 0.00015
          0.011481744371717 0.010688234667639 0.00015 0.011993243876189 0.010936510200926 0.0003
          0.011726815341297 0.011491075647124 0.0003 0.011222013645511 0.011097826594996 0.0003
          0.011481744371717 0.010688234667639 0.0003 0.013923252507151 0.0073329122207352 0
          0.013923252507151 0.0073329122207352 0.00015 0.013923252507151 0.0073329122207352 0.0003
          0.013063793506476 0.0098271989985527 0 0.012601634550352 0.009590277262082 0
          0.013063793506476 0.0098271989985527 0.00015 0.012601634550352 0.009590277262082 0.00015
          0.013063793506476 0.0098271989985527 0.0003 0.012601634550352 0.009590277262082 0.0003
          0.014102855237989 0.0047969187863067 0 0.013905759673286 0.0043612537888552 0
          0.014102855237989 0.0047969187863067 0.00015 0.013905759673286 0.0043612537888552 0.00015
          0.014102855237989 0.0047969187863067 0.0003 0.013905759673286 0.0043612537888552 0.0003
          0.012852488428802 0.010265076045094 0 0.012374691983482 0.010000797580735 0
          0.012852488428802 0.010265076045094 0.00015 0.012374691983482 0.010000797580735 0.00015
          0.012852488428802 0.010265076045094 0.0003 0.012374691983482 0.010000797580735 0.0003
          0.011668611956603 0.010219239111219 0 0.012182731119778 0.010462377133106 0
          0.011668611956603 0.010219239111219 0.00015 0.012182731119778 0.010462377133106 0.00015
          0.011668611956603 0.010219239111219 0.0003 0.012182731119778 0.010462377133106 0.0003
          0.011158560753842 0.010029990414111 0 0.011017968815575 0.010465683342369 0
          0.011158560753842 0.010029990414111 0.00015 0.011017968815575 0.010465683342369 0.00015
          0.011158560753842 0.010029990414111 0.0003 0.011017968815575 0.010465683342369 0.0003
          0.014820390261339 0.0080402105998384 0 0.014820390261339 0.0080402105998384 0.00015
          0.014820390261339 0.0080402105998384 0.0003 0.015228397699353 0.0072512250897894 0
          0.015228397699353 0.0072512250897894 0.00015 0.015228397699353 0.0072512250897894 0.0003
          0.0130361735465 0.011522072885309 0 0.012689359184487 0.011761634268536 0
          0.012340499111532 0.011632501505239 0 0.012497431968462 0.011183651982421 0
          0.0130361735465 0.011522072885309 0.00015 0.012689359184487 0.011761634268536 0.00015
          0.012340499111532 0.011632501505239 0.00015 0.012497431968462 0.011183651982421 0.00015
          0.0130361735465 0.011522072885309 0.0003 0.012689359184487 0.011761634268536 0.0003
          0.012340499111532 0.011632501505239 0.0003 0.012497431968462 0.011183651982421 0.0003
          0.013528941600065 0.0052742966774397 0 0.014027103455945 0.0053875982273864 0
          0.013528941600065 0.0052742966774397 0.00015 0.014027103455945 0.0053875982273864 0.00015
          0.013528941600065 0.0052742966774397 0.0003 0.014027103455945 0.0053875982273864 0.0003
          0.010128205128219 0.013 0 0.010310686327751 0.012539165738252 0
          0.010788384596096 0.012564579045747 0 0.01064102564104 0.013 0
          0.010128205128219 0.013 0.00015 0.010310686327751 0.012539165738252 0.00015
          0.010788384596096 0.012564579045747 0.00015 0.01064102564104 0.013 0.00015
          0.010128205128219 0.013 0.0003 0.010310686327751 0.012539165738252 0.0003
          0.010788384596096 0.012564579045747 0.0003 0.01064102564104 0.013 0.0003
          0.010783127360108 0.010836567412064 0 0.010385522435479 0.010608007769118 0
          0.010601303654319 0.010290632654442 0 0.010783127360108 0.010836567412064 0.00015
          0.010385522435479 0.010608007769118 0.00015 0.010601303654319 0.010290632654442 0.00015
          0.010783127360108 0.010836567412064 0.0003 0.010385522435479 0.010608007769118 0.0003
          0.010601303654319 0.010290632654442 0.0003 0.011818930007254 0.009602160287834 0
          0.011818930007254 0.009602160287834 0.00015 0.011818930007254 0.009602160287834 0.0003
          0.015715008716269 0.0090308288850156 0 0.01610853428864 0.0093166480881369 0
          0.015715008716269 0.0090308288850156 0.00015 0.01610853428864 0.0093166480881369 0.00015
          0.015715008716269 0.0090308288850156 0.0003 0.01610853428864 0.0093166480881369 0.0003
          0.013952831965685 0.0095243725467762 0 0.013572358856734 0.010071658883703 0
          0.013952831965685 0.0095243725467762 0.00015 0.013572358856734 0.010071658883703 0.00015
          0.013952831965685 0.0095243725467762 0.0003 0.013572358856734 0.010071658883703 0.0003
          0.012677817340078 0.010719835797972 0 0.012677817340078 0.010719835797972 0.00015
          0.012677817340078 0.010719835797972 0.0003 0.014678664229456 0.0074733115324236 0
          0.014678664229456 0.0074733115324236 0.00015 0.014678664229456 0.0074733115324236 0.0003
          0.012261506677236 0.0092701804285872 0 0.012499922412859 0.0090879994978671 0
          0.012261506677236 0.0092701804285872 0.00015 0.012499922412859 0.0090879994978671 0.00015
          0.012261506677236 0.0092701804285872 0.0003 0.012499922412859 0.0090879994978671 0.0003
          0.011270478587413 0.012561768236337 0 0.011153846153863 0.013 0
          0.011270478587413 0.012561768236337 0.00015 0.011153846153863 0.013 0.00015
          0.011270478587413 0.012561768236337 0.0003 0.011153846153863 0.013 0.0003
          0.012179487179506 0.013 0 0.012692307692328 0.013 0
          0.012179487179506 0.013 0.00015 0.012692307692328 0.013 0.00015
          0.012179487179506 0.013 0.0003 0.012692307692328 0.013 0.0003
          0.013205128205151 0.013 0 0.013721380024409 0.012538570920528 0
          0.013717948717973 0.013 0 0.013205128205151 0.013 0.00015
          0.013721380024409 0.012538570920528 0.00015 0.013717948717973 0.013 0.00015
          0.013205128205151 0.013 0.0003 0.013721380024409 0.012538570920528 0.0003
          0.013717948717973 0.013 0.0003 0.013680323008888 0.01206206640945 0
          0.0136362676363 0.011582155921186 0 0.013680323008888 0.01206206640945 0.00015
          0.0136362676363 0.011582155921186 0.00015 0.013680323008888 0.01206206640945 0.0003
          0.0136362676363 0.011582155921186 0.0003 0.011306940297591 0.012129646322267 0
          0.011212076662234 0.01173976422044 0 0.011306940297591 0.012129646322267 0.00015
          0.011212076662234 0.01173976422044 0.00015 0.011306940297591 0.012129646322267 0.0003
          0.011212076662234 0.01173976422044 0.0003 0.014247558447628 0.012512499343239 0
          0.014230769230793 0.013 0 0.014247558447628 0.012512499343239 0.00015
          0.014230769230793 0.013 0.00015 0.014247558447628 0.012512499343239 0.0003
          0.014230769230793 0.013 0.0003 0.010925822172272 0.011428925131881 0
          0.010925822172272 0.011428925131881 0.00015 0.010925822172272 0.011428925131881 0.0003
          0.017598702187272 0.012594388856786 0 0.018138509806267 0.012585421267124 0
          0.018333333333352 0.013 0 0.017820512820533 0.013 0
          0.017598702187272 0.012594388856786 0.00015 0.018138509806267 0.012585421267124 0.00015
          0.018333333333352 0.013 0.00015 0.017820512820533 0.013 0.00015
          0.017598702187272 0.012594388856786 0.0003 0.018138509806267 0.012585421267124 0.0003
          0.018333333333352 0.013 0.0003 0.017820512820533 0.013 0.0003
          0.01884615384617 0.013 0 0.018647619061649 0.012577247456601 0
          0.01884615384617 0.013 0.00015 0.018647619061649 0.012577247456601 0.00015
          0.01884615384617 0.013 0.0003 0.018647619061649 0.012577247456601 0.0003
          0.010939820280367 0.01187760398484 0 0.010939820280367 0.01187760398484 0.00015
          0.010939820280367 0.01187760398484 0.0003 0.014743589743616 0.013 0
          0.014743589743616 0.013 0.00015 0.014743589743616 0.013 0.0003
          0.013168261777023 0.010955167755454 0 0.013168261777023 0.010955167755454 0.00015
          0.013168261777023 0.010955167755454 0.0003 0.011620435633551 0.0089440866322713 0
          0.011620435633551 0.0089440866322713 0.00015 0.011620435633551 0.0089440866322713 0.0003
          0.01333281098878 0.010501143990949 0 0.01333281098878 0.010501143990949 0.00015
          0.01333281098878 0.010501143990949 0.0003 0.013640766026071 0.011115210745046 0
          0.014063261910082 0.011165191959691 0 0.013640766026071 0.011115210745046 0.00015
          0.014063261910082 0.011165191959691 0.00015 0.013640766026071 0.011115210745046 0.0003
          0.014063261910082 0.011165191959691 0.0003 0.013761635093034 0.010714997264381 0
          0.013761635093034 0.010714997264381 0.00015 0.013761635093034 0.010714997264381 0.0003
          0.01790845301636 0.0090613468730877 0 0.01790845301636 0.0090613468730877 0.00015
          0.01790845301636 0.0090613468730877 0.0003 0.010691300612525 0.0099168298135774 0
          0.010691300612525 0.0099168298135774 0.00015 0.010691300612525 0.0099168298135774 0.0003
          0.014509683505008 0.0050450954358061 0 0.014509683505008 0.0050450954358061 0.00015
          0.014509683505008 0.0050450954358061 0.0003 0.012373637985884 0.0077974643404521 0
          0.012419274731686 0.0083019280664676 0 0.012373637985884 0.0077974643404521 0.00015
          0.012419274731686 0.0083019280664676 0.00015 0.012373637985884 0.0077974643404521 0.0003
          0.012419274731686 0.0083019280664676 0.0003 0.014523119140279 0.0054383897453177 0
          0.014523119140279 0.0054383897453177 0.00015 0.014523119140279 0.0054383897453177 0.0003
          0.012468015808598 0.0087643938641043 0 0.012468015808598 0.0087643938641043 0.00015
          0.012468015808598 0.0087643938641043 0.0003 0.014041697947841 0.010862771985015 0
          0.014041697947841 0.010862771985015 0.00015 0.014041697947841 0.010862771985015 0.0003
          0.012067821946234 0.0088387705315247 0 0.012067821946234 0.0088387705315247 0.00015
          0.012067821946234 0.0088387705315247 0.0003 0.018063704813091 0.0075049932447581 0
          0.018063704813091 0.0075049932447581 0.00015 0.018063704813091 0.0075049932447581 0.0003
          0.01801805728244 0.008218173104411 0 0.01801805728244 0.008218173104411 0.00015
          0.01801805728244 0.008218173104411 0.0003 0.019162849649621 0.012571706415164 0
          0.019358974358988 0.013 0 0.019162849649621 0.012571706415164 0.00015
          0.019358974358988 0.013 0.00015 0.019162849649621 0.012571706415164 0.0003
          0.019358974358988 0.013 0.0003 0.015469042768348 0.012527612124711 0
          0.015256410256436 0.013 0 0.015469042768348 0.012527612124711 0.00015
          0.015256410256436 0.013 0.00015 0.015469042768348 0.012527612124711 0.0003
          0.015256410256436 0.013 0.0003 0.017482035345823 0.012218317378284 0
          0.017482035345823 0.012218317378284 0.00015 0.017482035345823 0.012218317378284 0.0003
          0.011666666666685 0.013 0 0.011666666666685 0.013 0.00015
          0.011666666666685 0.013 0.0003 0.013552812333296 0.0042895499786344 0
          0.013552812333296 0.0042895499786344 0.00015 0.013552812333296 0.0042895499786344 0.0003
          0.019003973493589 0.012129001566083 0 0.018491681451249 0.012137078785851 0
          0.019003973493589 0.012129001566083 0.00015 0.018491681451249 0.012137078785851 0.00015
          0.019003973493589 0.012129001566083 0.0003 0.018491681451249 0.012137078785851 0.0003
          0.016282051282076 0.013 0 0.016335894010033 0.012686725241599 0
          0.016794871794894 0.013 0 0.016282051282076 0.013 0.00015
          0.016335894010033 0.012686725241599 0.00015 0.016794871794894 0.013 0.00015
          0.016282051282076 0.013 0.0003 0.016335894010033 0.012686725241599 0.0003
          0.016794871794894 0.013 0.0003 0.017307692307713 0.013 0
          0.017281329535555 0.012689387511733 0 0.017307692307713 0.013 0.00015
          0.017281329535555 0.012689387511733 0.00015 0.017307692307713 0.013 0.0003
          0.017281329535555 0.012689387511733 0.0003 0.017996855365792 0.012159940978259 0
          0.017996855365792 0.012159940978259 0.00015 0.017996855365792 0.012159940978259 0.0003
          0.016023960213719 0.012601258532672 0 0.016023960213719 0.012601258532672 0.00015
          0.016023960213719 0.012601258532672 0.0003 0.015769230769256 0.013 0
          0.015769230769256 0.013 0.00015 0.015769230769256 0.013 0.0003
          0.013549428097692 0.0047645614477775 0 0.013549428097692 0.0047645614477775 0.00015
          0.013549428097692 0.0047645614477775 0.0003 0.010881954871342 0.01216105032025 0
          0.010881954871342 0.01216105032025 0.00015 0.010881954871342 0.01216105032025 0.0003
          0.010057653370411 0.0084974472595183 0 0.01054988842507 0.0084422245958245 0
          0.010057653370411 0.0084974472595183 0.00015 0.01054988842507 0.0084422245958245 0.00015
          0.010057653370411 0.0084974472595183 0.0003 0.01054988842507 0.0084422245958245 0.0003
          0.015535554193674 0.0045828394817383 0 0.015535554193674 0.0045828394817383 0.00015
          0.015535554193674 0.0045828394817383 0.0003 0.011832021157187 0.0073476785459853 0
          0.011779780861271 0.0068646395959748 0 0.012243708910156 0.0068324173193727 0
          0.011832021157187 0.0073476785459853 0.00015 0.011779780861271 0.0068646395959748 0.00015
          0.012243708910156 0.0068324173193727 0.00015 0.011832021157187 0.0073476785459853 0.0003
          0.011779780861271 0.0068646395959748 0.0003 0.012243708910156 0.0068324173193727 0.0003
          0.019357361519954 0.01157618305141 0 0.01884046117173 0.011223113854601 0
          0.019357361519954 0.01157618305141 0.00015 0.01884046117173 0.011223113854601 0.00015
          0.019357361519954 0.01157618305141 0.0003 0.01884046117173 0.011223113854601 0.0003
          0.014554004584986 0.0044253882271801 0 0.015005639561329 0.0040763460944633 0
          0.014554004584986 0.0044253882271801 0.00015 0.015005639561329 0.0040763460944633 0.00015
          0.014554004584986 0.0044253882271801 0.0003 0.015005639561329 0.0040763460944633 0.0003
          0.018384253973557 0.010894663204421 0 0.018384253973557 0.010894663204421 0.00015
          0.018384253973557 0.010894663204421 0.0003 0.017413401850906 0.0060417176080878 0
          0.018057579772584 0.0060827128421873 0 0.018070157245618 0.0068021820766994 0
          0.017413401850906 0.0060417176080878 0.00015 0.018057579772584 0.0060827128421873 0.00015
          0.018070157245618 0.0068021820766994 0.00015 0.017413401850906 0.0060417176080878 0.0003
          0.018057579772584 0.0060827128421873 0.0003 0.018070157245618 0.0068021820766994 0.0003
          0.016291762387835 0.0047307906783276 0 0.016291762387835 0.0047307906783276 0.00015
          0.016291762387835 0.0047307906783276 0.0003 0.012879713087233 0.0060908484912964 0
          0.012982043505355 0.0056371881930815 0 0.012879713087233 0.0060908484912964 0.00015
          0.012982043505355 0.0056371881930815 0.00015 0.012879713087233 0.0060908484912964 0.0003
          0.012982043505355 0.0056371881930815 0.0003 0.01678493258985 0.0053840721103251 0
          0.016848637368385 0.0048798435935376 0 0.01678493258985 0.0053840721103251 0.00015
          0.016848637368385 0.0048798435935376 0.00015 0.01678493258985 0.0053840721103251 0.0003
          0.016848637368385 0.0048798435935376 0.0003 0.012723582323863 0.006509831652106 0
          0.012723582323863 0.006509831652106 0.00015 0.012723582323863 0.006509831652106 0.0003
          0.014128459199836 0.0039835282877348 0 0.014128459199836 0.0039835282877348 0.00015
          0.014128459199836 0.0039835282877348 0.0003 0.018817000838468 0.010560792840001 0
          0.018817000838468 0.010560792840001 0.00015 0.018817000838468 0.010560792840001 0.0003
          0.011043213382792 0.0084269911709333 0 0.011043213382792 0.0084269911709333 0.00015
          0.011043213382792 0.0084269911709333 0.0003 0.011511795106494 0.0083968566041475 0
          0.011511795106494 0.0083968566041475 0.00015 0.011511795106494 0.0083968566041475 0.0003
          0.017341722495578 0.0054175123203669 0 0.017341722495578 0.0054175123203669 0.00015
          0.017341722495578 0.0054175123203669 0.0003 0.01196380743939 0.0083394019710021 0
          0.011894488312007 0.0078344841271679 0 0.01196380743939 0.0083394019710021 0.00015
          0.011894488312007 0.0078344841271679 0.00015 0.01196380743939 0.0083394019710021 0.0003
          0.011894488312007 0.0078344841271679 0.0003 0.018719100515555 0.0096191331103102 0
          0.018769006148643 0.010016813571171 0 0.018719100515555 0.0096191331103102 0.00015
          0.018769006148643 0.010016813571171 0.00015 0.018719100515555 0.0096191331103102 0.0003
          0.018769006148643 0.010016813571171 0.0003 0.019142781766586 0.010156284019367 0
          0.019142781766586 0.010156284019367 0.00015 0.019142781766586 0.010156284019367 0.0003
          0.019871794871807 0.013 0 0.019671681078705 0.012567114388191 0
          0.019871794871807 0.013 0.00015 0.019671681078705 0.012567114388191 0.00015
          0.019871794871807 0.013 0.0003 0.019671681078705 0.012567114388191 0.0003
          0.013590285783394 0.0038446716816234 0 0.013590285783394 0.0038446716816234 0.00015
          0.013590285783394 0.0038446716816234 0.0003 0.018696511924608 0.0075816988835645 0
          0.018734278863615 0.0068564365277259 0 0.018696511924608 0.0075816988835645 0.00015
          0.018734278863615 0.0068564365277259 0.00015 0.018696511924608 0.0075816988835645 0.0003
          0.018734278863615 0.0068564365277259 0.0003 0.013091675611077 0.0041736873632184 0
          0.013121586466294 0.0036708577033715 0 0.013091675611077 0.0041736873632184 0.00015
          0.013121586466294 0.0036708577033715 0.00015 0.013091675611077 0.0041736873632184 0.0003
          0.013121586466294 0.0036708577033715 0.0003 0.019497075330812 0.012129782091497 0
          0.019497075330812 0.012129782091497 0.00015 0.019497075330812 0.012129782091497 0.0003
          0.012592651705639 0.0068198098450163 0 0.012592651705639 0.0068198098450163 0.00015
          0.012592651705639 0.0068198098450163 0.0003 0.018655444813331 0.0089912542068827 0
          0.018655444813331 0.0089912542068827 0.00015 0.018655444813331 0.0089912542068827 0.0003
          0.018643245907353 0.0082916041839039 0 0.018643245907353 0.0082916041839039 0.00015
          0.018643245907353 0.0082916041839039 0.0003 0.013048655853798 0.0051555709380823 0
          0.013048655853798 0.0051555709380823 0.00015 0.013048655853798 0.0051555709380823 0.0003
          0.013084530633285 0.0046685927017207 0 0.013084530633285 0.0046685927017207 0.00015
          0.013084530633285 0.0046685927017207 0.0003
          <InformationKey name="L2_NORM_RANGE" location="vtkDataArray" length="2">
            <Value index="0">
              0.013166738444
            </Value>
            <Value index="1">
              0.023748225859
            </Value>
          </InformationKey>
        </DataArray>
      </Points>
      <Cells>
        <DataArray type="Int64" Name="connectivity" format="ascii" RangeMin="0" RangeMax="794">
          0 1 2 3 4 5
          6 7 4 5 6 7
          8 9 10 11 12 13
          14 15 16 17 18 19
          16 17 18 19 20 21
          22 23 666 667 14 24
          668 669 18 25 668 669
          18 25 670 671 22 26
          24 14 13 27 25 18
          17 28 25 18 17 28
          26 22 21 29 30 31
          3 2 32 33 7 6
          32 33 7 6 34 35
          11 10 36 37 38 39
          40 41 42 43 40 41
          42 43 44 45 46 47
          48 49 50 51 52 53
          54 55 52 53 54 55
          56 57 58 59 60 61
          62 63 64 65 66 67
          64 65 66 67 68 69
          70 71 72 73 672 74
          75 76 673 77 75 76
          673 77 78 79 674 80
          81 82 83 84 85 86
          87 88 85 86 87 88
          89 90 91 92 93 675
          676 677 94 678 679 680
          94 678 679 680 95 681
          682 683 2 96 97 30
          6 98 99 32 6 98
          99 32 10 100 101 34
          102 103 0 104 105 106
          4 107 105 106 4 107
          108 109 8 110 111 112
          113 114 115 116 117 118
          115 116 117 118 119 120
          121 122 123 124 50 125
          126 127 54 128 126 127
          54 128 129 130 58 131
          132 133 134 51 135 136
          137 55 135 136 137 55
          138 139 140 59 141 142
          143 144 145 146 147 148
          145 146 147 148 149 150
          151 152 112 141 144 113
          116 145 148 117 116 145
          148 117 120 149 152 121
          84 83 153 154 88 87
          155 156 88 87 155 156
          92 91 157 158 159 160
          161 38 162 163 164 42
          162 163 164 42 165 166
          167 46 168 169 170 171
          172 173 174 175 172 173
          174 175 176 177 178 179
          684 180 181 685 686 182
          183 687 686 182 183 687
          688 184 185 689 186 104
          0 187 188 107 4 189
          188 107 4 189 190 110
          8 191 690 691 672 73
          692 693 673 76 692 693
          673 76 694 695 674 79
          198 199 200 201 202 203
          204 205 202 203 204 205
          206 207 208 209 210 72
          74 211 212 75 77 213
          212 75 77 213 214 78
          80 215 216 82 81 217
          218 86 85 219 218 86
          85 219 220 90 89 221
          222 216 217 223 224 218
          219 225 224 218 219 225
          226 220 221 227 171 39
          38 161 175 43 42 164
          175 43 42 164 179 47
          46 167 228 696 685 181
          229 697 687 183 229 697
          687 183 230 698 689 185
          231 699 700 701 232 702
          703 704 232 702 703 704
          233 705 706 707 31 30
          201 200 33 32 205 204
          33 32 205 204 35 34
          209 208 234 235 236 237
          238 239 240 241 238 239
          240 241 242 243 244 245
          36 246 247 248 40 249
          250 251 40 249 250 251
          44 252 253 254 83 255
          256 153 87 257 258 155
          87 257 258 155 91 259
          260 157 235 699 231 236
          239 702 232 240 239 702
          232 240 243 705 233 244
          168 171 161 261 172 175
          164 262 172 175 164 262
          176 179 167 263 171 170
          36 39 175 174 40 43
          175 174 40 43 179 178
          44 47 264 265 266 267
          268 269 270 271 268 269
          270 271 272 273 274 275
          237 276 211 234 241 277
          213 238 241 277 213 238
          245 278 215 242 279 160
          237 236 280 163 241 240
          280 163 241 240 281 166
          245 244 234 211 74 282
          238 213 77 283 238 213
          77 283 242 215 80 284
          285 228 181 286 287 229
          183 288 287 229 183 288
          289 230 185 290 291 168
          261 292 293 172 262 294
          293 172 262 294 295 176
          263 296 297 298 256 255
          299 300 258 257 299 300
          258 257 301 302 260 259
          303 304 97 96 305 306
          99 98 305 306 99 98
          307 308 101 100 309 247
          114 113 310 250 118 117
          310 250 118 117 311 253
          122 121 304 312 313 97
          306 314 315 99 306 314
          315 99 308 316 317 101
          282 74 672 708 283 77
          673 709 283 77 673 709
          284 80 674 710 318 303
          96 319 320 305 98 321
          320 305 98 321 322 307
          100 323 285 187 0 3
          287 189 4 7 287 189
          4 7 289 191 8 11
          223 711 712 324 225 713
          714 325 225 713 714 325
          227 715 716 326 327 210
          211 276 328 212 213 277
          328 212 213 277 329 214
          215 278 717 282 708 718
          719 283 709 720 719 283
          709 720 721 284 710 722
          276 237 160 159 277 241
          163 162 277 241 163 162
          278 245 166 165 330 318
          319 331 332 320 321 333
          332 320 321 333 334 322
          323 335 324 336 222 223
          325 337 224 225 325 337
          224 225 326 338 226 227
          292 261 279 339 294 262
          280 340 294 262 280 340
          296 263 281 341 342 343
          210 327 344 345 212 328
          344 345 212 328 346 347
          214 329 696 228 31 200
          697 229 33 204 697 229
          33 204 698 230 35 208
          298 348 349 256 300 350
          351 258 300 350 351 258
          302 352 353 260 336 343
          342 222 337 345 344 224
          337 345 344 224 338 347
          346 226 96 2 1 319
          98 6 5 321 98 6
          5 321 100 10 9 323
          103 354 355 356 106 357
          358 359 106 357 358 359
          109 360 361 362 339 279
          236 231 340 280 240 232
          340 280 240 232 341 281
          244 233 363 364 365 366
          367 368 369 370 367 368
          369 370 371 372 373 374
          375 376 377 378 379 380
          381 382 379 380 381 382
          383 384 385 386 169 168
          291 312 173 172 293 314
          173 172 293 314 177 176
          295 316 216 222 342 387
          218 224 344 388 218 224
          344 388 220 226 346 389
          223 217 723 711 225 219
          724 713 225 219 724 713
          227 221 725 715 160 279
          261 161 163 280 262 164
          163 280 262 164 166 281
          263 167 356 355 330 331
          359 358 332 333 359 358
          332 333 362 361 334 335
          363 390 391 364 367 392
          393 368 367 392 393 368
          371 394 395 372 396 397
          726 690 398 399 727 692
          398 399 727 692 400 401
          728 694 390 402 403 391
          392 404 405 393 392 404
          405 393 394 406 407 395
          235 234 282 717 239 238
          283 719 239 238 283 719
          243 242 284 721 313 201
          30 97 315 205 32 99
          315 205 32 99 317 209
          34 101 248 247 309 348
          251 250 310 350 251 250
          310 350 254 253 311 352
          200 199 729 696 204 203
          730 697 204 203 730 697
          208 207 731 698 408 409
          375 378 410 411 379 382
          410 411 379 382 412 413
          383 386 153 256 349 366
          155 258 351 370 155 258
          351 370 157 260 353 374
          414 408 378 415 416 410
          382 417 416 410 382 417
          418 412 386 419 420 248
          348 298 421 251 350 300
          421 251 350 300 422 254
          352 302 423 327 276 159
          424 328 277 162 424 328
          277 162 425 329 278 165
          426 427 428 429 430 431
          432 433 430 431 432 433
          434 435 436 437 336 324
          438 439 337 325 440 441
          337 325 440 441 338 326
          442 443 667 732 15 14
          669 733 19 18 669 733
          19 18 671 734 23 22
          444 445 446 447 448 449
          450 451 448 449 450 451
          452 453 454 455 415 456
          457 458 417 459 460 461
          417 459 460 461 419 462
          463 464 12 465 408 414
          16 466 410 416 16 466
          410 416 20 467 412 418
          465 403 409 408 466 405
          411 410 466 405 411 410
          467 407 413 412 376 375
          429 428 380 379 433 432
          380 379 433 432 384 383
          437 436 114 468 469 111
          118 470 471 115 118 470
          471 115 122 472 473 119
          37 423 159 38 41 424
          162 42 41 424 162 42
          45 425 165 46 474 475
          390 363 476 477 392 367
          476 477 392 367 478 479
          394 371 429 375 409 480
          433 379 411 481 433 379
          411 481 437 383 413 482
          342 483 297 387 344 484
          299 388 344 484 299 388
          346 485 301 389 348 309
          474 349 350 310 476 351
          350 310 476 351 352 311
          478 353 480 409 403 402
          481 411 405 404 481 411
          405 404 482 413 407 406
          266 265 376 428 270 269
          380 432 270 269 380 432
          274 273 384 436 486 487
          364 391 488 489 368 393
          488 489 368 393 490 491
          372 395 447 446 492 493
          451 450 494 495 451 450
          494 495 455 454 496 497
          483 420 298 297 484 421
          300 299 484 421 300 299
          485 422 302 301 498 267
          63 499 500 271 67 501
          500 271 67 501 502 275
          71 503 378 377 456 415
          382 381 459 417 382 381
          459 417 386 385 462 419
          504 62 505 506 507 66
          508 509 507 66 508 509
          510 70 511 512 513 61
          426 514 515 65 430 516
          515 65 430 516 517 69
          434 518 499 63 62 504
          501 67 66 507 501 67
          66 507 503 71 70 510
          474 363 366 349 476 367
          370 351 476 367 370 351
          478 371 374 353 519 520
          376 265 521 522 380 269
          521 522 380 269 523 524
          384 273 506 505 525 526
          509 508 527 528 509 508
          527 528 512 511 529 530
          531 377 376 520 532 381
          380 522 532 381 380 522
          533 385 384 524 534 535
          536 537 538 539 540 541
          538 539 540 541 542 543
          544 545 546 536 535 547
          548 540 539 549 548 540
          539 549 550 544 543 551
          141 330 355 123 145 332
          358 126 145 332 358 126
          149 334 361 129 327 423
          483 342 328 424 484 344
          328 424 484 344 329 425
          485 346 193 531 520 552
          195 532 522 553 195 532
          522 553 197 533 524 554
          134 555 526 525 137 556
          528 527 137 556 528 527
          140 557 530 529 480 558
          426 429 481 559 430 433
          481 559 430 433 482 560
          434 437 391 403 465 486
          393 405 466 488 393 405
          466 488 395 407 467 490
          465 12 15 561 466 16
          19 562 466 16 19 562
          467 20 23 563 402 390
          475 564 404 392 477 565
          404 392 477 565 406 394
          479 566 567 568 49 514
          569 570 53 516 569 570
          53 516 571 572 57 518
          558 567 514 426 559 569
          516 430 559 569 516 430
          560 571 518 434 564 475
          143 573 565 477 147 574
          565 477 147 574 566 479
          151 575 561 15 732 735
          562 19 733 736 562 19
          733 736 563 23 734 737
          228 285 3 31 229 287
          7 33 229 287 7 33
          230 289 11 35 576 198
          201 313 577 202 205 315
          577 202 205 315 578 206
          209 317 356 331 319 1
          359 333 321 5 359 333
          321 5 362 335 323 9
          1 0 103 356 5 4
          106 359 5 4 106 359
          9 8 109 362 558 480
          402 564 559 481 404 565
          559 481 404 565 560 482
          406 566 699 235 717 738
          702 239 719 739 702 239
          719 739 705 243 721 740
          73 582 396 690 76 583
          398 692 76 583 398 692
          79 584 400 694 741 742
          585 586 743 744 587 588
          743 744 587 588 745 746
          589 590 72 210 343 591
          75 212 345 592 75 212
          345 592 78 214 347 593
          439 591 343 336 441 592
          345 337 441 592 345 337
          443 593 347 338 576 313
          312 291 577 315 314 293
          577 315 314 293 578 317
          316 295 469 169 312 304
          471 173 314 306 471 173
          314 306 473 177 316 308
          594 365 364 487 595 369
          368 489 595 369 368 489
          596 373 372 491 591 439
          396 582 592 441 398 583
          592 441 398 583 593 443
          400 584 564 573 567 558
          565 574 569 559 565 574
          569 559 566 575 571 560
          573 597 568 567 574 598
          570 569 574 598 570 569
          575 599 572 571 747 748
          199 198 749 750 203 202
          749 750 203 202 751 752
          207 206 420 483 423 37
          421 484 424 41 421 484
          424 41 422 485 425 45
          600 486 465 561 601 488
          466 562 601 488 466 562
          602 490 467 563 561 735
          741 600 562 736 743 601
          562 736 743 601 563 737
          745 602 37 36 248 420
          41 40 251 421 41 40
          251 421 45 44 254 422
          594 487 486 600 595 489
          488 601 595 489 488 601
          596 491 490 602 468 170
          169 469 470 174 173 471
          470 174 173 471 472 178
          177 473 264 492 519 265
          268 494 521 269 268 494
          521 269 272 496 523 273
          414 579 13 12 416 580
          17 16 416 580 17 16
          418 581 21 20 154 153
          366 365 156 155 370 369
          156 155 370 369 158 157
          374 373 339 231 701 603
          340 232 704 604 340 232
          704 604 341 233 707 605
          591 582 73 72 592 583
          76 75 592 583 76 75
          593 584 79 78 606 292
          339 603 607 294 340 604
          607 294 340 604 608 296
          341 605 547 609 610 546
          549 611 612 548 549 611
          612 548 551 613 614 550
          60 427 426 61 64 431
          430 65 64 431 430 65
          68 435 434 69 576 291
          292 606 577 293 294 607
          577 293 294 607 578 295
          296 608 615 616 555 134
          617 618 556 137 617 618
          556 137 619 620 557 140
          586 594 600 741 588 595
          601 743 588 595 601 743
          590 596 602 745 83 387
          297 255 87 388 299 257
          87 388 299 257 91 389
          301 259 144 143 475 474
          148 147 477 476 148 147
          477 476 152 151 479 478
          111 469 304 303 115 471
          306 305 115 471 306 305
          119 473 308 307 753 729
          199 748 754 730 203 750
          754 730 203 750 755 731
          207 752 505 62 61 513
          508 66 65 515 508 66
          65 515 511 70 69 517
          756 610 609 757 758 612
          611 759 758 612 611 759
          760 614 613 761 216 387
          83 82 218 388 87 86
          218 388 87 86 220 389
          91 90 285 621 186 187
          287 622 188 189 287 622
          188 189 289 623 190 191
          264 624 493 492 268 625
          495 494 268 625 495 494
          272 626 497 496 726 397
          627 762 727 399 628 763
          727 399 628 763 728 401
          629 764 630 631 181 180
          632 633 183 182 632 633
          183 182 634 635 185 184
          586 154 365 594 588 156
          369 595 588 156 369 595
          590 158 373 596 765 603
          701 766 767 604 704 768
          767 604 704 768 769 605
          707 770 636 637 186 638
          639 640 188 641 639 640
          188 641 642 643 190 644
          125 50 49 568 128 54
          53 570 128 54 53 570
          131 58 57 572 645 638
          186 646 647 641 188 648
          647 641 188 648 649 644
          190 650 534 646 186 621
          538 648 188 622 538 648
          188 622 542 650 190 623
          93 585 742 675 94 587
          744 678 94 587 744 678
          95 589 746 681 48 51
          134 525 52 55 137 527
          52 55 137 527 56 59
          140 529 627 771 772 762
          628 773 774 763 628 773
          774 763 629 775 776 764
          630 180 684 777 632 182
          686 778 632 182 686 778
          634 184 688 779 154 586
          585 84 156 588 587 88
          156 588 587 88 158 590
          589 92 651 286 181 631
          652 288 183 633 652 288
          183 633 653 290 185 635
          186 637 654 104 188 640
          655 107 188 640 655 107
          190 643 656 110 474 309
          113 144 476 310 117 148
          476 310 117 148 478 311
          121 152 63 267 266 60
          67 271 270 64 67 271
          270 64 71 275 274 68
          616 615 654 657 618 617
          655 658 618 617 655 658
          620 619 656 659 627 397
          396 660 628 399 398 661
          628 399 398 661 629 401
          400 662 579 414 415 458
          580 416 417 461 580 416
          417 461 581 418 419 464
          651 631 547 535 652 633
          549 539 652 633 549 539
          653 635 551 543 723 217
          81 780 724 219 85 781
          724 219 85 781 725 221
          89 782 663 446 445 192
          664 450 449 194 664 450
          449 194 665 454 453 196
          142 597 573 143 146 598
          574 147 146 598 574 147
          150 599 575 151 783 747
          198 576 784 749 202 577
          784 749 202 577 785 751
          206 578 48 513 514 49
          52 515 516 53 52 515
          516 53 56 517 518 57
          318 330 141 112 320 332
          145 116 320 332 145 116
          322 334 149 120 651 621
          285 286 652 622 287 288
          652 622 287 288 653 623
          289 290 60 266 428 427
          64 270 432 431 64 270
          432 431 68 274 436 435
          354 124 123 355 357 127
          126 358 357 127 126 358
          360 130 129 361 303 318
          112 111 305 320 116 115
          305 320 116 115 307 322
          120 119 630 777 757 609
          632 778 759 611 632 778
          759 611 634 779 761 613
          468 246 36 170 470 249
          40 174 470 249 40 174
          472 252 44 178 615 102
          104 654 617 105 107 655
          617 105 107 655 619 108
          110 656 786 783 576 606
          787 784 577 607 787 784
          577 607 788 785 578 608
          519 492 446 663 521 494
          450 664 521 494 450 664
          523 496 454 665 637 636
          657 654 640 639 658 655
          640 639 658 655 643 642
          659 656 663 192 193 552
          664 194 195 553 664 194
          195 553 665 196 197 554
          789 438 324 712 790 440
          325 714 790 440 325 714
          791 442 326 716 102 133
          354 103 105 136 357 106
          105 136 357 106 108 139
          360 109 646 534 537 645
          648 538 541 647 648 538
          541 647 650 542 545 649
          525 505 513 48 527 508
          515 52 527 508 515 52
          529 511 517 56 660 396
          439 438 661 398 441 440
          661 398 441 440 662 400
          443 442 765 786 606 603
          767 787 607 604 767 787
          607 604 769 788 608 605
          624 264 267 498 625 268
          271 500 625 268 271 500
          626 272 275 502 468 114
          247 246 470 118 250 249
          470 118 250 249 472 122
          253 252 535 534 621 651
          539 538 622 652 539 538
          622 652 543 542 623 653
          93 81 84 585 94 85
          88 587 94 85 88 587
          95 89 92 589 438 789
          792 660 440 790 793 661
          440 790 793 661 442 791
          794 662 124 132 51 50
          127 135 55 54 127 135
          55 54 130 138 59 58
          663 552 520 519 664 553
          522 521 664 553 522 521
          665 554 524 523 609 547
          631 630 611 549 633 632
          611 549 633 632 613 551
          635 634 125 142 141 123
          128 146 145 126 128 146
          145 126 131 150 149 129
          102 615 134 133 105 617
          137 136 105 617 137 136
          108 619 140 139 142 125
          568 597 146 128 570 598
          146 128 570 598 150 131
          572 599 124 354 133 132
          127 357 136 135 127 357
          136 135 130 360 139 138
          660 792 771 627 661 793
          773 628 661 793 773 628
          662 794 775 629 81 93
          677 780 85 94 680 781
          85 94 680 781 89 95
          683 782
        </DataArray>
        <DataArray type="Int64" Name="offsets" format="ascii" RangeMin="8" RangeMax="3632">
          8 16 24 32 40 48
          56 64 72 80 88 96
          104 112 120 128 136 144
          152 160 168 176 184 192
          200 208 216 224 232 240
          248 256 264 272 280 288
          296 304 312 320 328 336
          344 352 360 368 376 384
          392 400 408 416 424 432
          440 448 456 464 472 480
          488 496 504 512 520 528
          536 544 552 560 568 576
          584 592 600 608 616 624
          632 640 648 656 664 672
          680 688 696 704 712 720
          728 736 744 752 760 768
          776 784 792 800 808 816
          824 832 840 848 856 864
          872 880 888 896 904 912
          920 928 936 944 952 960
          968 976 984 992 1000 1008
          1016 1024 1032 1040 1048 1056
          1064 1072 1080 1088 1096 1104
          1112 1120 1128 1136 1144 1152
          1160 1168 1176 1184 1192 1200
          1208 1216 1224 1232 1240 1248
          1256 1264 1272 1280 1288 1296
          1304 1312 1320 1328 1336 1344
          1352 1360 1368 1376 1384 1392
          1400 1408 1416 1424 1432 1440
          1448 1456 1464 1472 1480 1488
          1496 1504 1512 1520 1528 1536
          1544 1552 1560 1568 1576 1584
          1592 1600 1608 1616 1624 1632
          1640 1648 1656 1664 1672 1680
          1688 1696 1704 1712 1720 1728
          1736 1744 1752 1760 1768 1776
          1784 1792 1800 1808 1816 1824
          1832 1840 1848 1856 1864 1872
          1880 1888 1896 1904 1912 1920
          1928 1936 1944 1952 1960 1968
          1976 1984 1992 2000 2008 2016
          2024 2032 2040 2048 2056 2064
          2072 2080 2088 2096 2104 2112
          2120 2128 2136 2144 2152 2160
          2168 2176 2184 2192 2200 2208
          2216 2224 2232 2240 2248 2256
          2264 2272 2280 2288 2296 2304
          2312 2320 2328 2336 2344 2352
          2360 2368 2376 2384 2392 2400
          2408 2416 2424 2432 2440 2448
          2456 2464 2472 2480 2488 2496
          2504 2512 2520 2528 2536 2544
          2552 2560 2568 2576 2584 2592
          2600 2608 2616 2624 2632 2640
          2648 2656 2664 2672 2680 2688
          2696 2704 2712 2720 2728 2736
          2744 2752 2760 2768 2776 2784
          2792 2800 2808 2816 2824 2832
          2840 2848 2856 2864 2872 2880
          2888 2896 2904 2912 2920 2928
          2936 2944 2952 2960 2968 2976
          2984 2992 3000 3008 3016 3024
          3032 3040 3048 3056 3064 3072
          3080 3088 3096 3104 3112 3120
          3128 3136 3144 3152 3160 3168
          3176 3184 3192 3200 3208 3216
          3224 3232 3240 3248 3256 3264
          3272 3280 3288 3296 3304 3312
          3320 3328 3336 3344 3352 3360
          3368 3376 3384 3392 3400 3408
          3416 3424 3432 3440 3448 3456
          3464 3472 3480 3488 3496 3504
          3512 3520 3528 3536 3544 3552
          3560 3568 3576 3584 3592 3600
          3608 3616 3624 3632
        </DataArray>
        <DataArray type="UInt8" Name="types" format="ascii" RangeMin="12" RangeMax="12">
          12 12 12 12 12 12
          12 12 12 12 12 12
          12 12 12 12 12 12
          12 12 12 12 12 12
          12 12 12 12 12 12
          12 12 12 12 12 12
          12 12 12 12 12 12
          12 12 12 12 12 12
          12 12 12 12 12 12
          12 12 12 12 12 12
          12 12 12 12 12 12
          12 12 12 12 12 12
          12 12 12 12 12 12
          12 12 12 12 12 12
          12 12 12 12 12 12
          12 12 12 12 12 12
          12 12 12 12 12 12
          12 12 12 12 12 12
          12 12 12 12 12 12
          12 12 12 12 12 12
          12 12 12 12 12 12
          12 12 12 12 12 12
          12 12 12 12 12 12
          12 12 12 12 12 12
          12 12 12 12 12 12
          12 12 12 12 12 12
          12 12 12 12 12 12
          12 12 12 12 12 12
          12 12 12 12 12 12
          12 12 12 12 12 12
          12 12 12 12 12 12
          12 12 12 12 12 12
          12 12 12 12 12 12
          12 12 12 12 12 12
          12 12 12 12 12 12
          12 12 12 12 12 12
          12 12 12 12 12 12
          12 12 12 12 12 12
          12 12 12 12 12 12
          12 12 12 12 12 12
          12 12 12 12 12 12
          12 12 12 12 12 12
          12 12 12 12 12 12
          12 12 12 12 12 12
          12 12 12 12 12 12
          12 12 12 12 12 12
          12 12 12 12 12 12
          12 12 12 12 12 12
          12 12 12 12 12 12
          12 12 12 12 12 12
          12 12 12 12 12 12
          12 12 12 12 12 12
          12 12 12 12 12 12
          12 12 12 12 12 12
          12 12 12 12 12 12
          12 12 12 12 12 12
          12 12 12 12 12 12
          12 12 12 12 12 12
          12 12 12 12 12 12
          12 12 12 12 12 12
          12 12 12 12 12 12
          12 12 12 12 12 12
          12 12 12 12 12 12
          12 12 12 12 12 12
          12 12 12 12 12 12
          12 12 12 12 12 12
          12 12 12 12 12 12
          12 12 12 12 12 12
          12 12 12 12 12 12
          12 12 12 12 12 12
          12 12 12 12 12 12
          12 12 12 12 12 12
          12 12 12 12 12 12
          12 12 12 12 12 12
          12 12 12 12 12 12
          12 12 12 12
        </DataArray>
      </Cells>
    </Piece>
  </UnstructuredGrid>
</VTKFile>
